x	y	stress_yy
 1.000000000000000e+000	 0.000000000000000e+000	 2.827077291664190e+001
 9.999553790721549e-001	 9.446392261750536e-003	 2.825455475925734e+001
 9.998208276644109e-001	 1.892867080636967e-002	 2.823127837841502e+001
 9.995953221430520e-001	 2.844573836262591e-002	 2.819972593420523e+001
 9.992778519071311e-001	 3.799646941872217e-002	 2.815870486936166e+001
 9.988674201817245e-001	 4.757971027342477e-002	 2.810705052374283e+001
 9.983630448185402e-001	 5.719427911104237e-002	 2.804362876605330e+001
 9.977637591031844e-001	 6.683896610081597e-002	 2.796733863815134e+001
 9.970686125683426e-001	 7.651253352126189e-002	 2.787711500687334e+001
 9.962766718121099e-001	 8.621371590998764e-002	 2.777193121786351e+001
 9.953870213206724e-001	 9.594122023947824e-002	 2.765080174543633e+001
 1.006666714718147e+000	 0.000000000000000e+000	 2.784225068551814e+001
 1.006621796315063e+000	 9.509368658941884e-003	 2.782629215036736e+001
 1.006486347890802e+000	 1.905486284632304e-002	 2.780377559968974e+001
 1.006259338987468e+000	 2.863537797544583e-002	 2.777345599969684e+001
 1.005939752266822e+000	 3.824978103077062e-002	 2.773411457324614e+001
 1.005526584308822e+000	 4.789691061938552e-002	 2.768456147175854e+001
 1.005018846417574e+000	 5.757557704648521e-002	 2.762363846566094e+001
 1.004415565433973e+000	 6.728456241542383e-002	 2.755022164871040e+001
 1.003715784554311e+000	 7.702262075288682e-002	 2.746322415112107e+001
 1.002918564154065e+000	 8.678847815970558e-002	 2.736159885595752e+001
 1.002022982616054e+000	 9.658083298781608e-002	 2.724434111277961e+001
 1.013333517774178e+000	 0.000000000000000e+000	 2.742837455048339e+001
 1.013288301891951e+000	 9.572345891894315e-003	 2.741259176676297e+001
 1.013151956439392e+000	 1.918105656049421e-002	 2.739075183453240e+001
 1.012923444134316e+000	 2.882502010360371e-002	 2.736157419686437e+001
 1.012601740901085e+000	 3.850309600190692e-002	 2.732381516008053e+001
 1.012185836674435e+000	 4.821411517077869e-002	 2.727626096257444e+001
 1.011674736210762e+000	 5.795688003626346e-002	 2.721773052103994e+001
 1.011067459906151e+000	 6.773016463579061e-002	 2.714707819195249e+001
 1.010363044620398e+000	 7.753271474417553e-002	 2.706319654322888e+001
 1.009560544506255e+000	 8.736324802543302e-002	 2.696501913051639e+001
 1.008659031843079e+000	 9.722045421090780e-002	 2.685152327206430e+001
 1.020000397500475e+000	 0.000000000000000e+000	 2.702833927410003e+001
 1.019954884135722e+000	 9.635323850220517e-003	 2.701267920925858e+001
 1.019817641644647e+000	 1.930725172774984e-002	 2.699144285343403e+001
 1.019587625920686e+000	 2.901466441486622e-002	 2.696332568131542e+001
 1.019263806150706e+000	 3.875641388844888e-002	 2.692706037582677e+001
 1.018845165624130e+000	 4.853132337212968e-002	 2.688141052693497e+001
 1.018330702549552e+000	 5.833818741277172e-002	 2.682517343070823e+001
 1.017719430878155e+000	 6.817577198184759e-002	 2.675718290508125e+001
 1.017010381133149e+000	 7.804281460226907e-002	 2.667631211726867e+001
 1.016202601244475e+000	 8.793802450119986e-002	 2.658147641727757e+001
 1.015295157387938e+000	 9.786008278935780e-002	 2.647163617145200e+001
 1.026667342229423e+000	 0.000000000000000e+000	 2.664139340186576e+001
 1.026621531379276e+000	 9.698302423533175e-003	 2.662580290280630e+001
 1.026483391841034e+000	 1.943344812695657e-002	 2.660510647473613e+001
 1.026251872683667e+000	 2.920431057700003e-002	 2.657797691588702e+001
 1.025925936356472e+000	 3.900973424671438e-002	 2.654312456956514e+001
 1.025504559503475e+000	 4.884853466796383e-002	 2.649929163189905e+001
 1.024986733785391e+000	 5.871949850840467e-002	 2.644525500075099e+001
 1.024371466708420e+000	 6.862138367352595e-002	 2.637982914287575e+001
 1.023657782459113e+000	 7.855291943430853e-002	 2.630186897429829e+001
 1.022844722744521e+000	 8.851280658103622e-002	 2.621027274837150e+001
 1.021931347636820e+000	 9.849971760377023e-002	 2.610398494543989e+001
 1.033334340293404e+000	 0.000000000000000e+000	 2.626679809764747e+001
 1.033288231955517e+000	 9.761281501444974e-003	 2.625123335079822e+001
 1.033149195363019e+000	 1.955964553698102e-002	 2.623102183600036e+001
 1.032916172760352e+000	 2.939395825777185e-002	 2.620481495854476e+001
 1.032588119859170e+000	 3.926305663302126e-002	 2.617130199736604e+001
 1.032164006658038e+000	 4.916574850280653e-002	 2.612920500010840e+001
 1.031642818269726e+000	 5.910081265555693e-002	 2.607728167888945e+001
 1.031023555755385e+000	 6.906699893075709e-002	 2.601432832594511e+001
 1.030305236964838e+000	 7.906302834743491e-002	 2.593918274416783e+001
 1.029486897382186e+000	 8.908759325897196e-002	 2.585072718702539e+001
 1.028567590975912e+000	 9.913935753474935e-002	 2.574789130178828e+001
 1.040001380024802e+000	 0.000000000000000e+000	 2.590383666291278e+001
 1.039954974197345e+000	 9.824260973568614e-003	 2.588826241777047e+001
 1.039815040545070e+000	 1.968584373668984e-002	 2.586848869315569e+001
 1.039580514487830e+000	 2.958360712494832e-002	 2.584314677746320e+001
 1.039250344999587e+000	 3.951638060368735e-002	 2.581090615277549e+001
 1.038823495433387e+000	 4.948296432118314e-002	 2.577046995513167e+001
 1.038298944354002e+000	 5.948212918662312e-002	 2.572057791411920e+001
 1.037675686377483e+000	 6.951261697347216e-002	 2.566000931407647e+001
 1.036952733016872e+000	 7.957314044878933e-002	 2.558758597197488e+001
 1.036129113533266e+000	 8.966238352903715e-002	 2.550217522650423e+001
 1.035203875791404e+000	 9.977900146289946e-002	 2.540269293230675e+001
 1.046668449755999e+000	 0.000000000000000e+000	 2.555181383027106e+001
 1.046621746437663e+000	 9.887240729516774e-003	 2.553620263925296e+001
 1.046480915721652e+000	 1.981204250494965e-002	 2.551682674619438e+001
 1.046244886203193e+000	 2.977325684629616e-002	 2.549229859208580e+001
 1.045912600118508e+000	 3.976970571503054e-002	 2.546126912273840e+001
 1.045483014175089e+000	 4.980018156761900e-002	 2.542242379173298e+001
 1.044955100389667e+000	 5.986344743399788e-002	 2.537448554078750e+001
 1.044327846933152e+000	 6.995823702160246e-002	 2.531621780356794e+001
 1.043600258981764e+000	 8.008325484551283e-002	 2.524642752808040e+001
 1.042771359573555e+000	 9.023717638526170e-002	 2.516396821221926e+001
 1.041840190469484e+000	 1.004186482688248e-001	 2.506774294644621e+001
 1.053335537819379e+000	 0.000000000000000e+000	 2.521005508356116e+001
 1.053288537009373e+000	 9.950220658902142e-003	 2.519438655757096e+001
 1.053146809227233e+000	 1.993824162062711e-002	 2.517537499025027e+001
 1.052909276243529e+000	 2.996290708958202e-002	 2.515161523902244e+001
 1.052574873556721e+000	 4.002303152336866e-002	 2.512174096784175e+001
 1.052142551228714e+000	 5.011739968663951e-002	 2.508442116996977e+001
 1.051611274728169e+000	 6.024476673007589e-002	 2.503836318603804e+001
 1.050980025780828e+000	 7.040385829507928e-002	 2.498231574749385e+001
 1.050247803226061e+000	 8.059337064474641e-002	 2.491507204065153e+001
 1.049413623878850e+000	 9.081197082167569e-002	 2.483547278598721e+001
 1.048476523396341e+000	 1.010582968331297e-001	 2.474240932669580e+001
 1.060002632547326e+000	 0.000000000000000e+000	 2.487790600332642e+001
 1.059955334245377e+000	 1.001320065133741e-002	 2.486216608246494e+001
 1.059812709396278e+000	 2.006444086258883e-002	 2.484349109095050e+001
 1.059573672945931e+000	 3.015255752257260e-002	 2.482045956170085e+001
 1.059237153655013e+000	 4.027635758501955e-002	 2.479168912581696e+001
 1.058802094939828e+000	 5.043461812277002e-002	 2.475583353208099e+001
 1.058267455720954e+000	 6.062608640725171e-002	 2.471158569960263e+001
 1.057632211278946e+000	 7.084948001383387e-002	 2.465768079790205e+001
 1.056895354116312e+000	 8.110348695363115e-002	 2.459289934974880e+001
 1.056055894824945e+000	 9.138676583230908e-002	 2.451607035147476e+001
 1.055112862958165e+000	 1.016979460364183e-001	 2.442607440483479e+001
 1.066669722272222e+000	 0.000000000000000e+000	 2.455473163657357e+001
 1.066622126478576e+000	 1.007618059643527e-002	 2.453891187545112e+001
 1.066478604563255e+000	 2.019064000970146e-002	 2.452055078298733e+001
 1.066238064647488e+000	 3.034220781303457e-002	 2.449821182274075e+001
 1.065899428754169e+000	 4.052968345630110e-002	 2.447049783729191e+001
 1.065461633653999e+000	 5.075183632053588e-002	 2.443604854117649e+001
 1.064923631719468e+000	 6.100740579792002e-002	 2.439354360497223e+001
 1.064284391785943e+000	 7.129510139779750e-002	 2.434170576899311e+001
 1.063542900019065e+000	 8.161360287930811e-002	 2.427930398202470e+001
 1.062698160787635e+000	 9.196156041119183e-002	 2.420515655991082e+001
 1.061749197541144e+000	 1.023375947592949e-001	 2.411813435813609e+001
 9.953870213206724e-001	 9.594122023947824e-002	 2.765080174543632e+001
 9.943989199946589e-001	 1.056922649420928e-001	 2.751704264721381e+001
 9.933113650226917e-001	 1.154669775827053e-001	 2.737400580154309e+001
 9.921235000424145e-001	 1.252640057452699e-001	 2.722089604216261e+001
 9.908344898374512e-001	 1.350819710464206e-001	 2.705698178290325e+001
 9.894435211587168e-001	 1.449194694473043e-001	 2.688159784536005e+001
 9.879498035443918e-001	 1.547750715930050e-001	 2.669414822202631e+001
 9.863525701375676e-001	 1.646473231798204e-001	 2.649410876429221e+001
 9.846510785005697e-001	 1.745347453506194e-001	 2.628102978418614e+001
 9.828446114249161e-001	 1.844358351184653e-001	 2.605453855823508e+001
 9.809324777358747e-001	 1.943490658186562e-001	 2.581434172133374e+001
 1.002022982616054e+000	 9.658083298781608e-002	 2.724434111277961e+001
 1.001028293900284e+000	 1.063968851254138e-001	 2.711486450980530e+001
 9.999334885098822e-001	 1.162367629878134e-001	 2.697662232401479e+001
 9.987377043732976e-001	 1.260991051428620e-001	 2.682880515663975e+001
 9.974401007059353e-001	 1.359825240179707e-001	 2.667066701801968e+001
 9.960398588369379e-001	 1.458856062140271e-001	 2.650152818021765e+001
 9.945361830346290e-001	 1.558069128470813e-001	 2.632077796730702e+001
 9.929283013296116e-001	 1.657449799180722e-001	 2.612787747264637e+001
 9.912154663345143e-001	 1.756983187108201e-001	 2.592236219191151e+001
 9.893969560593560e-001	 1.856654162184739e-001	 2.570384456011558e+001
 9.874720747214626e-001	 1.956447355985657e-001	 2.547201638033443e+001
 1.008659031843079e+000	 9.722045421090780e-002	 2.685152327206430e+001
 1.007657755650177e+000	 1.071015146444449e-001	 2.672620678797253e+001
 1.006555699745095e+000	 1.170065585918117e-001	 2.659261065698291e+001
 1.005351996347030e+000	 1.269342156046145e-001	 2.644991180761148e+001
 1.004045799103106e+000	 1.368830889209057e-001	 2.629735047063298e+001
 1.002636283920639e+000	 1.468517557811748e-001	 2.613423305812288e+001
 1.001122649798042e+000	 1.568387677722974e-001	 2.595993498245079e+001
 9.995041196533726e-001	 1.668426511997103e-001	 2.577390340445711e+001
 9.977799411495166e-001	 1.768619074880391e-001	 2.557565989946465e+001
 9.959493875149438e-001	 1.868950136103707e-001	 2.536480302920970e+001
 9.940117583589938e-001	 1.969404225463201e-001	 2.514101080722775e+001
 1.015295157387938e+000	 9.786008278935780e-002	 2.647163617145200e+001
 1.014287293642074e+000	 1.078061522660752e-001	 2.635036119570791e+001
 1.013177987138785e+000	 1.177763630475826e-001	 2.622126754691963e+001
 1.011966364387960e+000	 1.277693356691293e-001	 2.608351903902669e+001
 1.010651573468392e+000	 1.377836641792906e-001	 2.593634274335346e+001
 1.009232784865521e+000	 1.478179164580372e-001	 2.577903189555001e+001
 1.007709192307800e+000	 1.578706345629476e-001	 2.561094874484637e+001
 1.006080013600701e+000	 1.679403351038314e-001	 2.543152733476113e+001
 1.004344491457322e+000	 1.780255096459928e-001	 2.524027620379799e+001
 1.002501894324542e+000	 1.881246251423275e-001	 2.503678099406126e+001
 1.000551517203678e+000	 1.982361243944031e-001	 2.482070695513826e+001
 1.021931347636820e+000	 9.849971760377023e-002	 2.610398494543989e+001
 1.020916896273717e+000	 1.085107967571939e-001	 2.598663617638049e+001
 1.019800339101411e+000	 1.185461750080089e-001	 2.586190599791561e+001
 1.018580796920438e+000	 1.286044638750086e-001	 2.572894566588794e+001
 1.017257412241222e+000	 1.386842482171906e-001	 2.558696970844899e+001
 1.015829350127281e+000	 1.487840865539039e-001	 2.543525886236338e+001
 1.014295799037075e+000	 1.589025114133256e-001	 2.527316295407509e+001
 1.012655971663448e+000	 1.690380297095317e-001	 2.510010371458729e+001
 1.010909105769675e+000	 1.791891231483971e-001	 2.491557751656463e+001
 1.009054465021016e+000	 1.893542486625163e-001	 2.471915802143046e+001
 1.007091339810726e+000	 1.995318388752979e-001	 2.451049872361476e+001
 1.028567590975912e+000	 9.913935753474935e-002	 2.574789130178828e+001
 1.027546551942844e+000	 1.092154468846899e-001	 2.563435630209294e+001
 1.026422744043427e+000	 1.193159931259729e-001	 2.551385468456178e+001
 1.025195282368815e+000	 1.294395987608545e-001	 2.538552570174665e+001
 1.023863303861022e+000	 1.395848394586707e-001	 2.524857195103411e+001
 1.022425968161620e+000	 1.497502643780647e-001	 2.510226234176811e+001
 1.020882458459035e+000	 1.599343965177254e-001	 2.494593500968089e+001
 1.019231982333462e+000	 1.701357330959077e-001	 2.477900016759051e+001
 1.017473772598322e+000	 1.803527459589680e-001	 2.460094288064578e+001
 1.015607088137226e+000	 1.905838820191090e-001	 2.441132575372868e+001
 1.013631214735347e+000	 2.008275637214883e-001	 2.420979151797076e+001
 1.035203875791404e+000	 9.977900146289946e-002	 2.540269293230675e+001
 1.034176249047193e+000	 1.099201014154522e-001	 2.529286169651746e+001
 1.033045190375292e+000	 1.200858160543573e-001	 2.517645738789699e+001
 1.031809809157440e+000	 1.302747388652690e-001	 2.505260780881645e+001
 1.030469236767222e+000	 1.404854363277962e-001	 2.492050423439303e+001
 1.029022627424234e+000	 1.507164482398093e-001	 2.477940441187862e+001
 1.027469159046853e+000	 1.609662880704411e-001	 2.462863551000762e+001
 1.025808034102595e+000	 1.712334433420562e-001	 2.446759700716775e+001
 1.024038480455009e+000	 1.815163760414218e-001	 2.429576350654223e+001
 1.022159752206037e+000	 1.918135230602776e-001	 2.411268746566728e+001
 1.020171130532752e+000	 2.021232966654573e-001	 2.391800182715435e+001
 1.041840190469484e+000	 1.004186482688248e-001	 2.506774294644622e+001
 1.040805975984504e+000	 1.106247591163699e-001	 2.496150748017526e+001
 1.039667666507461e+000	 1.208556424460447e-001	 2.484907245340336e+001
 1.038424365710664e+000	 1.311098827268542e-001	 2.472955476970516e+001
 1.037075199399251e+000	 1.413860372486323e-001	 2.460213498646094e+001
 1.035619316370825e+000	 1.516826364484275e-001	 2.446606034795076e+001
 1.034055889273698e+000	 1.619981842657667e-001	 2.432064777117293e+001
 1.032384115462696e+000	 1.723311585270733e-001	 2.416528677315229e+001
 1.030603217851480e+000	 1.826800113594744e-001	 2.399944232775371e+001
 1.028712445760311e+000	 1.930431696341938e-001	 2.382265763927106e+001
 1.026711075758151e+000	 2.034190354396886e-001	 2.363455681932983e+001
 1.048476523396341e+000	 1.010582968331297e-001	 2.474240932669580e+001
 1.047435721152516e+000	 1.113294187543320e-001	 2.463966323717497e+001
 1.046290160850391e+000	 1.216254709539176e-001	 2.453107227008270e+001
 1.045038940452837e+000	 1.319450288842121e-001	 2.441574297981853e+001
 1.043681180196535e+000	 1.422866406452441e-001	 2.429284580653546e+001
 1.042216023457091e+000	 1.526488273132089e-001	 2.416161814437215e+001
 1.040642637612742e+000	 1.630300832979962e-001	 2.402136736529672e+001
 1.038960214905615e+000	 1.734288767300559e-001	 2.387147378722817e+001
 1.037167973299481e+000	 1.838436498768420e-001	 2.371139357431322e+001
 1.035265157332913e+000	 1.942728195890297e-001	 2.354066155645224e+001
 1.033251038966754e+000	 2.047147777766657e-001	 2.335889395439432e+001
 1.055112862958165e+000	 1.016979460364183e-001	 2.442607440483479e+001
 1.054065472948968e+000	 1.120340790962277e-001	 2.432671250247479e+001
 1.052912661814538e+000	 1.223953002308586e-001	 2.422184276969509e+001
 1.051653521808309e+000	 1.327801758759450e-001	 2.411056195953425e+001
 1.050287167598504e+000	 1.431872449416968e-001	 2.399203099133655e+001
 1.048812737138730e+000	 1.536150191434434e-001	 2.386547805554863e+001
 1.047229392537153e+000	 1.640619833614233e-001	 2.373020167714501e+001
 1.045536320923203e+000	 1.745265960301002e-001	 2.358557372624884e+001
 1.043732735310758e+000	 1.850072895572407e-001	 2.343104236368520e+001
 1.041817875456705e+000	 1.955024707729572e-001	 2.326613490837858e+001
 1.039791008713771e+000	 2.060105214088719e-001	 2.309046061269099e+001
 1.061749197541144e+000	 1.023375947592949e-001	 2.411813435813609e+001
 1.060695219771598e+000	 1.127387389089459e-001	 2.402205226877956e+001
 1.059535157810359e+000	 1.231651289297503e-001	 2.392078294528689e+001
 1.058268098201429e+000	 1.336153222406547e-001	 2.381341388529055e+001
 1.056893150044585e+000	 1.440878485620556e-001	 2.369909707957769e+001
 1.055409445871443e+000	 1.545812102484205e-001	 2.357705215487009e+001
 1.053816142520104e+000	 1.650938826503425e-001	 2.344656947839132e+001
 1.052112422007309e+000	 1.756243145063028e-001	 2.330701321268452e+001
 1.050297492397054e+000	 1.861709283643864e-001	 2.315782430827583e+001
 1.048370588664549e+000	 1.967321210341483e-001	 2.299852342090913e+001
 1.046330973554413e+000	 2.073062640687906e-001	 2.282871373921762e+001
 9.809324777358747e-001	 1.943490658186562e-001	 2.581434172133373e+001
 9.789137024229728e-001	 2.042743766435053e-001	 2.556199650658619e+001
 9.767879280981021e-001	 2.142087061355223e-001	 2.529919129542961e+001
 9.745545470450379e-001	 2.241504565049763e-001	 2.502583753890404e+001
 9.722129807570792e-001	 2.340980083161345e-001	 2.474192595084073e+001
 9.697626806991601e-001	 2.440497210832210e-001	 2.444752808470332e+001
 9.672031290579123e-001	 2.540039338948809e-001	 2.414279773103576e+001
 9.645338394785437e-001	 2.639589660669880e-001	 2.382797212147601e+001
 9.617543577873684e-001	 2.739131178235835e-001	 2.350337292518842e+001
 9.588642626988490e-001	 2.838646710056856e-001	 2.316940702353174e+001
 9.558631665059840e-001	 2.938118898076575e-001	 2.282656704884146e+001
 9.874720747214626e-001	 1.956447355985657e-001	 2.547201638033443e+001
 9.854398408101847e-001	 2.056362156380845e-001	 2.522837969114007e+001
 9.832998945548197e-001	 2.156367744697044e-001	 2.497457496758472e+001
 9.810516241876994e-001	 2.256448036517056e-001	 2.471051499915266e+001
 9.786944473454123e-001	 2.356586729520586e-001	 2.443619368721108e+001
 9.762278118359934e-001	 2.456767309483562e-001	 2.415168767108921e+001
 9.736511963939907e-001	 2.556973056564411e-001	 2.385715777210798e+001
 9.709641114222510e-001	 2.657187051875656e-001	 2.355285024104488e+001
 9.681660997192730e-001	 2.757392184338694e-001	 2.323909779438309e+001
 9.652567371909584e-001	 2.857571157819153e-001	 2.291632042464174e+001
 9.622356335456043e-001	 2.957706498539660e-001	 2.258502597011957e+001
 9.940117583589938e-001	 1.969404225463201e-001	 2.514101080722775e+001
 9.919660656707667e-001	 2.069980726775335e-001	 2.490574239143198e+001
 9.898119472969315e-001	 2.170648617265721e-001	 2.466060207013563e+001
 9.875487874183183e-001	 2.271391705995806e-001	 2.440550394914468e+001
 9.851759998147479e-001	 2.372193582680847e-001	 2.414044499429434e+001
 9.826930286373037e-001	 2.473037623728963e-001	 2.386550670689832e+001
 9.800993491683967e-001	 2.573906998569036e-001	 2.358085661474306e+001
 9.773944685684665e-001	 2.674784676265835e-001	 2.328674956362906e+001
 9.745779266081486e-001	 2.775653432420189e-001	 2.298352879429902e+001
 9.716492963847405e-001	 2.876495856351601e-001	 2.267162678951678e+001
 9.686081850217988e-001	 2.977294358560106e-001	 2.235156587607541e+001
 1.000551517203678e+000	 1.982361243944031e-001	 2.482070695513825e+001
 9.984923655835141e-001	 2.083599453785053e-001	 2.459348126587929e+001
 9.963240749280635e-001	 2.184929654068420e-001	 2.435668233849729e+001
 9.940460253666025e-001	 2.286335547332959e-001	 2.411022556707568e+001
 9.916576268221343e-001	 2.387800615328193e-001	 2.385411085357298e+001
 9.891583197887445e-001	 2.489308125093127e-001	 2.358842433287229e+001
 9.865475760966603e-001	 2.590841135325783e-001	 2.331333991122746e+001
 9.838248996638738e-001	 2.692382503041847e-001	 2.302912060261480e+001
 9.809898272331150e-001	 2.793914890520229e-001	 2.273611964731412e+001
 9.780419290930430e-001	 2.895420772532947e-001	 2.243478139694038e+001
 9.749808097824353e-001	 2.996882443856060e-001	 2.212564195014009e+001
 1.007091339810726e+000	 1.995318388752979e-001	 2.451049872361476e+001
 1.005018729127225e+000	 2.097218313576529e-001	 2.429100434826113e+001
 1.002836266051844e+000	 2.199210830112311e-001	 2.406223636905623e+001
 1.000543326662260e+000	 2.301279534375461e-001	 2.382411143380841e+001
 9.981393170246207e-001	 2.403407800148683e-001	 2.357663224631574e+001
 9.956236739759681e-001	 2.505578785100767e-001	 2.331988934134956e+001
 9.929958658943127e-001	 2.607775437197760e-001	 2.305406267114256e+001
 9.902553934551569e-001	 2.709980501405126e-001	 2.277942298739582e+001
 9.874017903732961e-001	 2.812176526678726e-001	 2.249633300260154e+001
 9.844346241287140e-001	 2.914345873241931e-001	 2.220524831435033e+001
 9.813534966753822e-001	 3.016470720145669e-001	 2.190671807626036e+001
 1.013631214735347e+000	 2.008275637214883e-001	 2.420979151797076e+001
 1.011545144880695e+000	 2.110837282316288e-001	 2.399773062877871e+001
 1.009348509271898e+000	 2.213492120404561e-001	 2.377669522058468e+001
 1.007040679935001e+000	 2.316223640970262e-001	 2.354660315326510e+001
 1.004621059079254e+000	 2.419015109828384e-001	 2.330745979156968e+001
 1.002089079884629e+000	 2.521849575276599e-001	 2.305935983047107e+001
 9.994442072768819e-001	 2.624709874548062e-001	 2.280248893039414e+001
 9.966859386889999e-001	 2.727578640557103e-001	 2.253712514583417e+001
 9.938138048078121e-001	 2.830438308935586e-001	 2.226364013062703e+001
 9.908273703046020e-001	 2.933271125357299e-001	 2.198250010297542e+001
 9.877262345485073e-001	 3.036059153147078e-001	 2.169426655327969e+001
 1.020171130532752e+000	 2.021232966654573e-001	 2.391800182715435e+001
 1.018071601422721e+000	 2.124456336170861e-001	 2.371308965297394e+001
 1.015860793191854e+000	 2.227773499952338e-001	 2.349950003289719e+001
 1.013538073814532e+000	 2.331167840964309e-001	 2.327715198950653e+001
 1.011102841643083e+000	 2.434622517053356e-001	 2.304605340033666e+001
 1.008554526200379e+000	 2.538120467145333e-001	 2.280630287412644e+001
 1.005892588959899e+000	 2.641644417739796e-001	 2.255809143559541e+001
 1.003116524112088e+000	 2.745176889699211e-001	 2.230170400174364e+001
 1.000225859315786e+000	 2.848700205330724e-001	 2.203752063239280e+001
 9.972201564335541e-001	 2.952196495757795e-001	 2.176601753749869e+001
 9.940990122496792e-001	 3.055647708578432e-001	 2.148776782367912e+001
 1.026711075758151e+000	 2.034190354396886e-001	 2.363455681932983e+001
 1.024598087332100e+000	 2.138075451306776e-001	 2.343652113771771e+001
 1.022373106415339e+000	 2.242054943762812e-001	 2.323010166199010e+001
 1.020035496930563e+000	 2.346112108204547e-001	 2.301521851975936e+001
 1.017584653373157e+000	 2.450229994509663e-001	 2.279188194522075e+001
 1.015020001608872e+000	 2.554391432231687e-001	 2.256019420694613e+001
 1.012340999658894e+000	 2.658579037136064e-001	 2.232035134312462e+001
 1.009547138471104e+000	 2.762775218032881e-001	 2.207264468672931e+001
 1.006637942676339e+000	 2.866962183904045e-001	 2.181746216277399e+001
 1.003612971328419e+000	 2.971121951322163e-001	 2.155528933960302e+001
 1.000471818626765e+000	 3.075236352157878e-001	 2.128671021604239e+001
 1.033251038966754e+000	 2.047147777766657e-001	 2.335889395439432e+001
 1.031124591187629e+000	 2.151694603890563e-001	 2.316747460351936e+001
 1.028885437545980e+000	 2.256336426843151e-001	 2.296796033094012e+001
 1.026532937912801e+000	 2.361056416537927e-001	 2.276027230269301e+001
 1.024066482926523e+000	 2.465837514883368e-001	 2.254442294486580e+001
 1.021485494795763e+000	 2.570662442060374e-001	 2.232051792367762e+001
 1.018789428089395e+000	 2.675513703099967e-001	 2.208875793221215e+001
 1.015977770512732e+000	 2.780373594759547e-001	 2.184944026575416e+001
 1.013050043668591e+000	 2.885224212695462e-001	 2.160296016732882e+001
 1.010005803802045e+000	 2.990047458929148e-001	 2.134981192478806e+001
 1.006844642527633e+000	 3.094825049603561e-001	 2.109058970064134e+001
 1.039791008713771e+000	 2.060105214088719e-001	 2.309046061269099e+001
 1.037651101568104e+000	 2.165313770088748e-001	 2.290540902244529e+001
 1.035397775187402e+000	 2.270617924200521e-001	 2.271254529587430e+001
 1.033030385390956e+000	 2.376000739811393e-001	 2.251179156128045e+001
 1.030548318960230e+000	 2.481445050860533e-001	 2.230316226253925e+001
 1.027950994446703e+000	 2.586933468156106e-001	 2.208676619231841e+001
 1.025237862966934e+000	 2.692448385994607e-001	 2.186280833144441e+001
 1.022408408983657e+000	 2.797971989080638e-001	 2.163159147583122e+001
 1.019462151071667e+000	 2.903486259744882e-001	 2.139351763199348e+001
 1.016398642667280e+000	 3.008972985457494e-001	 2.114908916187831e+001
 1.013217472800151e+000	 3.114413766633629e-001	 2.089890965756662e+001
 1.046330973554413e+000	 2.073062640687906e-001	 2.282871373921762e+001
 1.044177607052323e+000	 2.178932926067863e-001	 2.264979248097089e+001
 1.041910107943235e+000	 2.284899410842093e-001	 2.246333452635928e+001
 1.039527827994735e+000	 2.390945051871895e-001	 2.226926287961017e+001
 1.037030150131326e+000	 2.497052575127223e-001	 2.206759381824735e+001
 1.034416489247346e+000	 2.603204482043598e-001	 2.185843898040851e+001
 1.031686293007040e+000	 2.709383056183087e-001	 2.164200725810239e+001
 1.028839042630563e+000	 2.815570370197589e-001	 2.141860647727180e+001
 1.025874253664687e+000	 2.921748293092218e-001	 2.118864484510036e+001
 1.022791476736971e+000	 3.027898497785945e-001	 2.095263214466925e+001
 1.019590298292188e+000	 3.134002468966224e-001	 2.071118065685711e+001
 9.558631665059840e-001	 2.938118898076575e-001	 2.282656704884146e+001
 9.527507155138414e-001	 3.037530213952426e-001	 2.247446225895903e+001
 9.495265899749483e-001	 3.136862962449286e-001	 2.211270561021031e+001
 9.461905054388915e-001	 3.236099293720238e-001	 2.174191629341777e+001
 9.427422136050960e-001	 3.335221213151299e-001	 2.136278836165802e+001
 9.391815029145866e-001	 3.434210590039753e-001	 2.097608990673592e+001
 9.355081991183116e-001	 3.533049166519174e-001	 2.058266194087603e+001
 9.317221658209343e-001	 3.631718566724364e-001	 2.018341697315661e+001
 9.278233049990163e-001	 3.730200306188906e-001	 1.977933727112148e+001
 9.238115574925392e-001	 3.828475801467559e-001	 1.937147279903697e+001
 9.196869034687286e-001	 3.926526379975133e-001	 1.896093882542424e+001
 9.622356335456043e-001	 2.957706498539660e-001	 2.258502597011957e+001
 9.591024327303189e-001	 3.057780561301271e-001	 2.224474903031004e+001
 9.558568128659656e-001	 3.157775532899376e-001	 2.189501089109062e+001
 9.524984876057723e-001	 3.257673444486690e-001	 2.153642154404497e+001
 9.490272069938092e-001	 3.357456181483736e-001	 2.116966521552041e+001
 9.454427580606901e-001	 3.457105492315030e-001	 2.079549954670732e+001
 9.417449653956882e-001	 3.556602997393610e-001	 2.041475447580080e+001
 9.379336916941496e-001	 3.655930198347079e-001	 2.002833081127964e+001
 9.340088382791362e-001	 3.755068487477795e-001	 1.963719848625292e+001
 9.299703455962171e-001	 3.853999157449426e-001	 1.924239448486140e+001
 9.258181936803928e-001	 3.952703411191423e-001	 1.884502043290085e+001
 9.686081850217988e-001	 2.977294358560106e-001	 2.235156587607541e+001
 9.654542341084373e-001	 3.078031176988808e-001	 2.202278772727009e+001
 9.621871196338280e-001	 3.178688380462120e-001	 2.168470598226262e+001
 9.588065533548229e-001	 3.279247881130916e-001	 2.133792426460088e+001
 9.553122836601184e-001	 3.379691444448736e-001	 2.098312005050219e+001
 9.517040961699055e-001	 3.480000697965839e-001	 2.062104385421448e+001
 9.479818143117708e-001	 3.580157140373226e-001	 2.025251811186099e+001
 9.441452998717375e-001	 3.680142150789771e-001	 1.987843575228949e+001
 9.401944535193617e-001	 3.779936998285092e-001	 1.949975844435575e+001
 9.361292153058038e-001	 3.879522851630236e-001	 1.911751451112290e+001
 9.319495651338405e-001	 3.978880789267743e-001	 1.873279650264659e+001
 9.749808097824353e-001	 2.996882443856060e-001	 2.212564195014009e+001
 9.718061085323820e-001	 3.098282025573360e-001	 2.180803416269967e+001
 9.685174992003410e-001	 3.199601468536991e-001	 2.148125038991284e+001
 9.651146916467712e-001	 3.300822565894713e-001	 2.114589066199832e+001
 9.615974326049813e-001	 3.401926963131793e-001	 2.080262872226222e+001
 9.579655062847260e-001	 3.502896166922934e-001	 2.045221121953802e+001
 9.542187349518960e-001	 3.603711554235786e-001	 2.009545659506089e+001
 9.503569794831879e-001	 3.704354381679196e-001	 1.973325365174222e+001
 9.463801398946493e-001	 3.804805795088713e-001	 1.936655979473198e+001
 9.422881558430289e-001	 3.905046839341429e-001	 1.899639893320839e+001
 9.380810070988840e-001	 4.005058468391652e-001	 1.862385903454239e+001
 9.813534966753822e-001	 3.016470720145669e-001	 2.190671807626036e+001
 9.781580448863387e-001	 3.118533071613252e-001	 2.159995274904802e+001
 9.748479404873103e-001	 3.220514760523472e-001	 2.128411204428028e+001
 9.714228914423455e-001	 3.322397461019881e-001	 2.095979511745491e+001
 9.678826428293532e-001	 3.424162698618393e-001	 2.062767493727418e+001
 9.642269774476433e-001	 3.525791859117053e-001	 2.028849748709057e+001
 9.604557164014028e-001	 3.627266197759061e-001	 1.994308065628396e+001
 9.565687196579936e-001	 3.728566848642112e-001	 1.959231280895821e+001
 9.525658865799538e-001	 3.829674834366572e-001	 1.923715101826199e+001
 9.484471564296216e-001	 3.930571075914456e-001	 1.887861895570711e+001
 9.442125088453363e-001	 4.031236402750706e-001	 1.851780442607423e+001
 9.877262345485073e-001	 3.036059153147078e-001	 2.169426655327969e+001
 9.845100320544938e-001	 3.138784279666811e-001	 2.139801622256757e+001
 9.811784324165394e-001	 3.241428219821035e-001	 2.109276703624982e+001
 9.777311417022726e-001	 3.343972528748221e-001	 2.077911993796327e+001
 9.741679033341915e-001	 3.446398611994029e-001	 2.045775002162313e+001
 9.704884987011498e-001	 3.548687734478948e-001	 2.012940574392950e+001
 9.666927477456269e-001	 3.650821029720818e-001	 1.979490782185969e+001
 9.627805095256464e-001	 3.752779509305276e-001	 1.945514780191996e+001
 9.587516827502318e-001	 3.854544072596586e-001	 1.911108628885074e+001
 9.546062062873116e-001	 3.956095516680766e-001	 1.876375082255715e+001
 9.503440596430083e-001	 4.057414546532461e-001	 1.841423339326721e+001
 9.940990122496792e-001	 3.055647708578432e-001	 2.148776782367912e+001
 9.908620589210329e-001	 3.159035614292358e-001	 2.120170538170199e+001
 9.875089639098348e-001	 3.262341809829162e-001	 2.090669936783775e+001
 9.840394313872813e-001	 3.365547731321533e-001	 2.060335512127672e+001
 9.804532031204518e-001	 3.468634664344191e-001	 2.029235270284280e+001
 9.767500590877388e-001	 3.571583752939361e-001	 1.997444612074939e+001
 9.729298180699066e-001	 3.674376008898821e-001	 1.965046223595676e+001
 9.689923382156371e-001	 3.776992321295443e-001	 1.932129933325656e+001
 9.649375175804382e-001	 3.879413466256668e-001	 1.898792534513282e+001
 9.607652946378278e-001	 3.981620116971803e-001	 1.865137571653880e+001
 9.564756487617137e-001	 4.083592853924475e-001	 1.831275089997136e+001
 1.000471818626765e+000	 3.075236352157878e-001	 2.128671021604239e+001
 9.972141143701416e-001	 3.179287040048216e-001	 2.101050883902007e+001
 9.938395238890007e-001	 3.283255493947325e-001	 2.072540071595192e+001
 9.903477494580995e-001	 3.387123030981618e-001	 2.043199813380814e+001
 9.867385311890909e-001	 3.490870816754367e-001	 2.013098890421778e+001
 9.830116476499022e-001	 3.594479874429040e-001	 1.982313560479992e+001
 9.791669164595792e-001	 3.697931094070844e-001	 1.950927449427798e+001
 9.752041948574574e-001	 3.801205242239372e-001	 1.919031408681968e+001
 9.711233802455291e-001	 3.904282971824736e-001	 1.886723337197740e+001
 9.669244107029007e-001	 4.007144832119016e-001	 1.854107966769675e+001
 9.626072654712645e-001	 4.109771279114304e-001	 1.821296609512580e+001
 1.006844642527633e+000	 3.094825049603561e-001	 2.109058970064134e+001
 1.003566187286006e+000	 3.199538521492713e-001	 2.082392278609850e+001
 1.000170101275842e+000	 3.304169235575005e-001	 2.054837020884238e+001
 9.966560848754543e-001	 3.408698389970276e-001	 2.026455370087339e+001
 9.930238765410655e-001	 3.513107030310049e-001	 1.997317155099847e+001
 9.892732534301330e-001	 3.617376058878730e-001	 1.967499786420235e+001
 9.854040319999809e-001	 3.721486244014648e-001	 1.937088148855536e+001
 9.814160685805994e-001	 3.825418229763818e-001	 1.906174459438308e+001
 9.773092599204598e-001	 3.929152545778704e-001	 1.874858089136010e+001
 9.730835437042585e-001	 4.032669617453852e-001	 1.843245347029384e+001
 9.687388990414729e-001	 4.135949776289505e-001	 1.811449225764531e+001
 1.013217472800151e+000	 3.114413766633629e-001	 2.089890965756662e+001
 1.009918266552814e+000	 3.219790023184175e-001	 2.064145077078676e+001
 1.006500684992165e+000	 3.325082998111676e-001	 2.037511421468495e+001
 1.002964426600074e+000	 3.430273770529304e-001	 2.010053360873692e+001
 9.993092281773319e-001	 3.535343266096725e-001	 1.981842038800573e+001
 9.955348654709232e-001	 3.640272266219177e-001	 1.952956308316223e+001
 9.916411537764502e-001	 3.745041417508007e-001	 1.923482626137139e+001
 9.876279485145537e-001	 3.849631241495538e-001	 1.893514911201828e+001
 9.834951457801870e-001	 3.954022144596490e-001	 1.863154366218656e+001
 9.792426828636313e-001	 4.058194428307757e-001	 1.832509260792000e+001
 9.748705387421515e-001	 4.162128299637636e-001	 1.801694674859203e+001
 1.019590298292188e+000	 3.134002468966224e-001	 2.071118065685711e+001
 1.016270341054748e+000	 3.240041509680922e-001	 2.046260348631274e+001
 1.012831263959774e+000	 3.345996744956820e-001	 2.020514614176938e+001
 1.009272763592686e+000	 3.451849134900504e-001	 1.993945651794480e+001
 1.005594575098846e+000	 3.557579485199885e-001	 1.966626180812768e+001
 1.001796472814765e+000	 3.663168456381125e-001	 1.938636780760277e+001
 9.978782708743237e-001	 3.768596573328684e-001	 1.910065787085275e+001
 9.938398237888124e-001	 3.873844235061286e-001	 1.881009150572271e+001
 9.896810269996652e-001	 3.978891724756004e-001	 1.851570258867562e+001
 9.854018174027490e-001	 4.083719220012180e-001	 1.821859718639563e+001
 9.810021738431126e-001	 4.188306803346251e-001	 1.791995097030869e+001
 9.196869034687286e-001	 3.926526379975133e-001	 1.896093882542424e+001
 9.154500070382964e-001	 4.024318639757796e-001	 1.854495966595676e+001
 9.111003186645378e-001	 4.121848497096857e-001	 1.812063937286588e+001
 9.066379396471510e-001	 4.219097086716465e-001	 1.768917808288760e+001
 9.020630121438826e-001	 4.316045495771123e-001	 1.725181650427579e+001
 8.973757194803052e-001	 4.412674774614075e-001	 1.680983181086945e+001
 8.925762864264074e-001	 4.508965947721493e-001	 1.636453321707210e+001
 8.876649794392210e-001	 4.604900024760815e-001	 1.591725723828022e+001
 8.826421068707412e-001	 4.700458011791232e-001	 1.546936264329992e+001
 8.775080191404553e-001	 4.795620922583880e-001	 1.502222510737179e+001
 8.722631088718381e-001	 4.890369790048946e-001	 1.457723157657454e+001
 9.258181936803928e-001	 3.952703411191423e-001	 1.884502043290085e+001
 9.215530510698096e-001	 4.051147624068305e-001	 1.844219632957935e+001
 9.171743645641777e-001	 4.149327685136948e-001	 1.803096133669642e+001
 9.126822361385569e-001	 4.247224603352865e-001	 1.761255657163453e+001
 9.080768088984456e-001	 4.344819339784805e-001	 1.718826623077380e+001
 9.033582673916205e-001	 4.442092818454914e-001	 1.675941337977063e+001
 8.985268378865744e-001	 4.539025937335760e-001	 1.632735541087248e+001
 8.935827886167579e-001	 4.635599579492457e-001	 1.589347917159506e+001
 8.885264299898883e-001	 4.731794624357821e-001	 1.545919577115341e+001
 8.833581147616244e-001	 4.827591959128024e-001	 1.502593507320507e+001
 8.780782381729780e-001	 4.922972490265903e-001	 1.459513988568839e+001
 9.319495651338405e-001	 3.978880789267743e-001	 1.873279650264658e+001
 9.276561759691135e-001	 4.077976963877616e-001	 1.834264322880148e+001
 9.232484909476880e-001	 4.176807237291812e-001	 1.794404607942578e+001
 9.187266127199797e-001	 4.275352492695397e-001	 1.753828285751861e+001
 9.140906853392351e-001	 4.373593565069526e-001	 1.712667660776242e+001
 9.093408945754364e-001	 4.471511252103419e-001	 1.671059130724854e+001
 9.044774681955854e-001	 4.569086325264201e-001	 1.629142720978230e+001
 8.995006762095589e-001	 4.666299541012819e-001	 1.587061584785536e+001
 8.944108310808061e-001	 4.763131652153874e-001	 1.544961469852389e+001
 8.892082879011765e-001	 4.859563419306749e-001	 1.502990152165991e+001
 8.838934445292345e-001	 4.955575622485071e-001	 1.461296838135803e+001
 9.380810070988840e-001	 4.005058468391652e-001	 1.862385903454239e+001
 9.337593710554044e-001	 4.104806612232351e-001	 1.824591687681473e+001
 9.293226871849585e-001	 4.204287105470165e-001	 1.785952934172407e+001
 9.247710588133131e-001	 4.303480705518117e-001	 1.746600671256021e+001
 9.201046309414599e-001	 4.402368121268190e-001	 1.706670633880871e+001
 9.153235905615894e-001	 4.500930024075074e-001	 1.666302823162102e+001
 9.104281669392149e-001	 4.599147058898858e-001	 1.625641029980472e+001
 9.054186318606474e-001	 4.696999855594728e-001	 1.584832323017396e+001
 9.002952998450807e-001	 4.794469040337470e-001	 1.544026501831418e+001
 8.950585283205648e-001	 4.891535247168061e-001	 1.503375515813041e+001
 8.897087177632357e-001	 4.988179129649336e-001	 1.463032850093335e+001
 9.442125088453363e-001	 4.031236402750706e-001	 1.851780442607423e+001
 9.398626256478790e-001	 4.131636522179138e-001	 1.815163746579106e+001
 9.353969426458797e-001	 4.231767241580723e-001	 1.777704995677494e+001
 9.308155638404507e-001	 4.331609192595093e-001	 1.739538054377613e+001
 9.261186351803299e-001	 4.431142958023703e-001	 1.700801643058775e+001
 9.213063448799165e-001	 4.530349082885372e-001	 1.661638888462029e+001
 9.163789237032390e-001	 4.629208085631790e-001	 1.622196836932353e+001
 9.113366452130506e-001	 4.727700469511017e-001	 1.582625930802662e+001
 9.061798259842969e-001	 4.825806734066670e-001	 1.543079448505189e+001
 9.009088257812431e-001	 4.923507386759969e-001	 1.503712909234653e+001
 8.955240476976102e-001	 5.020782954701593e-001	 1.464683443234616e+001
 9.503440596430083e-001	 4.057414546532461e-001	 1.841423339326721e+001
 9.459659290657336e-001	 4.158466646764603e-001	 1.805942881736231e+001
 9.414712467003406e-001	 4.259247597532196e-001	 1.769624982582755e+001
 9.368601172232867e-001	 4.359737904700382e-001	 1.732605938940057e+001
 9.321326875310547e-001	 4.459918024978973e-001	 1.695027020544134e+001
 9.272891470602537e-001	 4.559768377049800e-001	 1.657034011603712e+001
 9.223297280734327e-001	 4.659269352855038e-001	 1.618776714165659e+001
 9.172547059097932e-001	 4.758401329034516e-001	 1.580408413363077e+001
 9.120643992000406e-001	 4.857144678499548e-001	 1.542085305109883e+001
 9.067591700446656e-001	 4.955479782130488e-001	 1.503965887051714e+001
 9.013394241549871e-001	 5.053387040584731e-001	 1.466210313838436e+001
 9.564756487617137e-001	 4.083592853924475e-001	 1.831275089997136e+001
 9.520692706281645e-001	 4.185296939035369e-001	 1.796891834050106e+001
 9.475455887182311e-001	 4.286728125233301e-001	 1.761677390036815e+001
 9.429047083837147e-001	 4.387866792608043e-001	 1.725770092110812e+001
 9.381467774688427e-001	 4.488693271776905e-001	 1.689313331948076e+001
 9.332719866324373e-001	 4.589187855083843e-001	 1.652455092360600e+001
 9.282805696355722e-001	 4.689330807960657e-001	 1.615347441270673e+001
 9.231728035939003e-001	 4.789102380438052e-001	 1.578145986342550e+001
 9.179490091938974e-001	 4.888482818794177e-001	 1.541009290811194e+001
 9.126095508722855e-001	 4.987452377327623e-001	 1.504098251301362e+001
 9.071548369579945e-001	 5.085991330241642e-001	 1.467575438693938e+001
 9.626072654712645e-001	 4.109771279114304e-001	 1.821296609512580e+001
 9.581726396543679e-001	 4.212127352038064e-001	 1.787973699647170e+001
 9.536199580694413e-001	 4.314208776592749e-001	 1.753827017061294e+001
 9.489493267436280e-001	 4.415995807092140e-001	 1.718996545196409e+001
 9.441608944689036e-001	 4.517468648060403e-001	 1.683627378597940e+001
 9.392548531263044e-001	 4.618607465502997e-001	 1.647869248789376e+001
 9.342314379754318e-001	 4.719392398340696e-001	 1.611876009347470e+001
 9.290909279083981e-001	 4.819803569994457e-001	 1.575805080441697e+001
 9.238336456674515e-001	 4.919821100108620e-001	 1.539816853351269e+001
 9.184599580255566e-001	 5.019425116399385e-001	 1.504074055734279e+001
 9.129702759292612e-001	 5.118595766615219e-001	 1.468741078695414e+001
 9.687388990414729e-001	 4.135949776289505e-001	 1.811449225764532e+001
 9.642760254635409e-001	 4.238957838819312e-001	 1.779151927053488e+001
 9.596943441238608e-001	 4.341689503519257e-001	 1.746038966003789e+001
 9.549939617249218e-001	 4.444124898926737e-001	 1.712251594984808e+001
 9.501750280064466e-001	 4.546244103472374e-001	 1.677936200381846e+001
 9.452377360716914e-001	 4.648027156822747e-001	 1.643243821196553e+001
 9.401823226787878e-001	 4.749454071387204e-001	 1.608329625721541e+001
 9.350090684963112e-001	 4.850504843976559e-001	 1.573352346517045e+001
 9.297182983222886e-001	 4.951159467600947e-001	 1.538473674173985e+001
 9.243103812659330e-001	 5.051397943393786e-001	 1.503857610617069e+001
 9.187857308914157e-001	 5.151200292648354e-001	 1.469669782981484e+001
 9.748705387421515e-001	 4.162128299637636e-001	 1.801694674859203e+001
 9.703794173748791e-001	 4.265788352425738e-001	 1.770390315010567e+001
 9.657687362513791e-001	 4.369170257921535e-001	 1.738278642567758e+001
 9.610386027494882e-001	 4.472254018885887e-001	 1.705501805610235e+001
 9.561891675566809e-001	 4.575019587655727e-001	 1.672207079075794e+001
 9.512206249984339e-001	 4.677446877558579e-001	 1.638546376561325e+001
 9.461332133314153e-001	 4.779515774492232e-001	 1.604675719102744e+001
 9.409272150006648e-001	 4.881206148657190e-001	 1.570754661123774e+001
 9.356029568599945e-001	 4.982497866429231e-001	 1.536945674006885e+001
 9.301608103548680e-001	 5.083370802358833e-001	 1.503413488016666e+001
 9.246011916670868e-001	 5.183804851283934e-001	 1.470324393593871e+001
 9.810021738431126e-001	 4.188306803346251e-001	 1.791995097030869e+001
 9.764828047075795e-001	 4.292618845903969e-001	 1.761653010907860e+001
 9.718431238218865e-001	 4.396650991708302e-001	 1.730511756393456e+001
 9.670832392392218e-001	 4.500383117743657e-001	 1.698714010917426e+001
 9.622033025948158e-001	 4.603795050253364e-001	 1.666407542131584e+001
 9.572035094363700e-001	 4.706866576225989e-001	 1.633744713393989e+001
 9.520840995190897e-001	 4.809577455047829e-001	 1.600881945167540e+001
 9.468453570644847e-001	 4.911907430309179e-001	 1.567979132481938e+001
 9.414876109821542e-001	 5.013836241751539e-001	 1.535199018878946e+001
 9.360112350538159e-001	 5.115343637342538e-001	 1.502706527545078e+001
 9.304166480789026e-001	 5.216409385464856e-001	 1.470668050632579e+001
 8.722631088718381e-001	 4.890369790048946e-001	 1.457723157657454e+001
 8.669069994773564e-001	 4.984699794031350e-001	 1.413338164981687e+001
 8.614409475685219e-001	 5.078577791162043e-001	 1.368938451802014e+001
 8.558654737743154e-001	 5.171984938406529e-001	 1.324595293901000e+001
 8.501811411206635e-001	 5.264902458615942e-001	 1.280373621348780e+001
 8.443885549780590e-001	 5.357311652289508e-001	 1.236331400219657e+001
 8.384883629704415e-001	 5.449193909360232e-001	 1.192519006363662e+001
 8.324812548450976e-001	 5.540530720989082e-001	 1.148978593839213e+001
 8.263679623034136e-001	 5.631303691352767e-001	 1.105743460801626e+001
 8.201492587923700e-001	 5.721494549410070e-001	 1.062837415820336e+001
 8.138259592567364e-001	 5.811085160631598e-001	 1.020274147769149e+001
 8.780782381729780e-001	 4.922972490265903e-001	 1.459513988568839e+001
 8.726864211258274e-001	 5.017931365482344e-001	 1.416548553335579e+001
 8.671839286091180e-001	 5.112435220450455e-001	 1.373528831527356e+001
 8.615712847226640e-001	 5.206465086513883e-001	 1.330521816680398e+001
 8.558490562458758e-001	 5.300002061341147e-001	 1.287587699016816e+001
 8.500178525850264e-001	 5.393027320766500e-001	 1.244779237025682e+001
 8.440783256815294e-001	 5.485522130654223e-001	 1.202141121014243e+001
 8.380311698809672e-001	 5.577467858771381e-001	 1.159709331283445e+001
 8.318771217627186e-001	 5.668845986654242e-001	 1.117510493776705e+001
 8.256169599300632e-001	 5.759638121453027e-001	 1.075561236237161e+001
 8.192515047607230e-001	 5.849826007739867e-001	 1.033867548084474e+001
 8.838934445292345e-001	 4.955575622485071e-001	 1.461296838135803e+001
 8.784659193562274e-001	 5.051163377265163e-001	 1.419713029704910e+001
 8.729269857486570e-001	 5.146293098359489e-001	 1.378028781842540e+001
 8.672771712772374e-001	 5.240945691488353e-001	 1.336308142997132e+001
 8.615170464749264e-001	 5.335102129136186e-001	 1.294607979604441e+001
 8.556472247838540e-001	 5.428743462470813e-001	 1.252977335660366e+001
 8.496683624629794e-001	 5.521850833286301e-001	 1.211456783987499e+001
 8.435811584562621e-001	 5.614405485954395e-001	 1.170077771900075e+001
 8.373863542211578e-001	 5.706388779369471e-001	 1.128861964173162e+001
 8.310847335173305e-001	 5.797782198871765e-001	 1.087820586417177e+001
 8.246771221555452e-001	 5.888567368133510e-001	 1.046953772140364e+001
 8.897087177632357e-001	 4.988179129649336e-001	 1.463032850093335e+001
 8.842454840536721e-001	 5.084395771222589e-001	 1.422791102777104e+001
 8.786701089360395e-001	 5.180151365637197e-001	 1.382397174606765e+001
 8.729831234520048e-001	 5.275426692988843e-001	 1.341913483649891e+001
 8.671851018881376e-001	 5.370202600576582e-001	 1.301394965316634e+001
 8.612766617224811e-001	 5.464460014900537e-001	 1.260888418067924e+001
 8.552584635316092e-001	 5.558179953683310e-001	 1.220431840349771e+001
 8.491312108579270e-001	 5.651343537900048e-001	 1.180053761510757e+001
 8.428956500370379e-001	 5.743932003802005e-001	 1.139772569669040e+001
 8.365525699850671e-001	 5.835926714918182e-001	 1.099595839698276e+001
 8.301028019459008e-001	 5.927309174019697e-001	 1.059519664691974e+001
 8.955240476976102e-001	 5.020782954701593e-001	 1.464683443234616e+001
 8.900251051032770e-001	 5.117628489197402e-001	 1.425742582290987e+001
 8.844132881201637e-001	 5.214009963031629e-001	 1.386593181739647e+001
 8.786891312609382e-001	 5.309908030674250e-001	 1.347297322114347e+001
 8.728532125658290e-001	 5.405303414237858e-001	 1.307909377884383e+001
 8.669061535488470e-001	 5.500176915553779e-001	 1.268475347457555e+001
 8.608486191042365e-001	 5.594509428272086e-001	 1.229032173750978e+001
 8.546813173729051e-001	 5.688281949970272e-001	 1.189607058140724e+001
 8.484049995686658e-001	 5.781475594255391e-001	 1.150216770820197e+001
 8.420204597641682e-001	 5.874071602844178e-001	 1.110866960808366e+001
 8.355285346364872e-001	 5.966051357605590e-001	 1.071551469048507e+001
 9.013394241549871e-001	 5.053387040584731e-001	 1.466210313838436e+001
 8.958047723901594e-001	 5.150861473032389e-001	 1.428527580907050e+001
 8.901565132499305e-001	 5.247868831290851e-001	 1.390576277353192e+001
 8.843951847180088e-001	 5.344389644203480e-001	 1.352419417735669e+001
 8.785213685883219e-001	 5.440404508695520e-001	 1.314112163595135e+001
 8.725356904108920e-001	 5.535894101928635e-001	 1.275701135927191e+001
 8.664388193976783e-001	 5.630839193479467e-001	 1.237223717374260e+001
 8.602314682881397e-001	 5.725220657526985e-001	 1.198707347003040e+001
 8.539143931743478e-001	 5.819019485033186e-001	 1.160168810763792e+001
 8.474883932855289e-001	 5.912216795901660e-001	 1.121613530947681e+001
 8.409543107320018e-001	 6.004793851098359e-001	 1.083034858168586e+001
 9.071548369579945e-001	 5.085991330241642e-001	 1.467575438693938e+001
 9.015844757994344e-001	 5.184094664570330e-001	 1.431106516708521e+001
 8.958997742742388e-001	 5.281727911162905e-001	 1.394306240516398e+001
 8.901012738371871e-001	 5.378871473235432e-001	 1.357239809523936e+001
 8.841895600359369e-001	 5.475505822525097e-001	 1.319964498865935e+001
 8.781652624565559e-001	 5.571611511523207e-001	 1.282528952540020e+001
 8.720290546287524e-001	 5.667169185732297e-001	 1.244972465219600e+001
 8.657816538905742e-001	 5.762159595932119e-001	 1.207324255670459e+001
 8.594238212123907e-001	 5.856563610438935e-001	 1.169602734935899e+001
 8.529563609800457e-001	 5.950362227342529e-001	 1.131814772685809e+001
 8.463801207371424e-001	 6.043536586705171e-001	 1.093954965345003e+001
 9.129702759292612e-001	 5.118595766615219e-001	 1.468741078695414e+001
 9.073642052162175e-001	 5.217328005654008e-001	 1.433440116304635e+001
 9.016430611419890e-001	 5.315587143395855e-001	 1.397743158623479e+001
 8.958073886324436e-001	 5.413353457429005e-001	 1.361718820524787e+001
 8.898577769889952e-001	 5.510607294302107e-001	 1.325427796334354e+001
 8.837948598337780e-001	 5.607329081835595e-001	 1.288922131833038e+001
 8.776193150142760e-001	 5.703499341457411e-001	 1.252244483706137e+001
 8.713318644671524e-001	 5.799098700547596e-001	 1.215427369425711e+001
 8.649332740411011e-001	 5.894107904776190e-001	 1.178492410801716e+001
 8.584243532786128e-001	 5.988507830418685e-001	 1.141449574680101e+001
 8.518059551566063e-001	 6.082279496633187e-001	 1.104296414496377e+001
 9.187857308914157e-001	 5.151200292648354e-001	 1.469669782981484e+001
 9.131439505256258e-001	 5.250561438126209e-001	 1.435489418508943e+001
 9.073863638020802e-001	 5.349446468737750e-001	 1.400847431338538e+001
 9.015135191177502e-001	 5.447835536443103e-001	 1.365817062739421e+001
 8.955260095278167e-001	 5.545708862602062e-001	 1.330463711443735e+001
 8.894244726904979e-001	 5.643046750363900e-001	 1.294844182737757e+001
 8.832095907710671e-001	 5.739829597081649e-001	 1.259005923578224e+001
 8.768820903048176e-001	 5.836037906735344e-001	 1.222986246781722e+001
 8.704427420187855e-001	 5.931652302348501e-001	 1.186811547596844e+001
 8.638923606121264e-001	 6.026653538382029e-001	 1.150496516222973e+001
 8.572318044950911e-001	 6.121022513089577e-001	 1.114043350082070e+001
 9.246011916670868e-001	 5.183804851283934e-001	 1.470324393593871e+001
 9.189237016127740e-001	 5.283794903829712e-001	 1.437215778566582e+001
 9.131296722034114e-001	 5.383305827936643e-001	 1.403579775090561e+001
 9.072196553070769e-001	 5.482317649936626e-001	 1.369495442569007e+001
 9.011942477327234e-001	 5.580810466000489e-001	 1.335034149500263e+001
 8.950540911746555e-001	 5.678764454606223e-001	 1.300258797894253e+001
 8.887998721159427e-001	 5.776159889031850e-001	 1.265223032101088e+001
 8.824323216905130e-001	 5.872977149857288e-001	 1.229970435163361e+001
 8.759522155037509e-001	 5.969196737459424e-001	 1.194533716078563e+001
 8.693603734114814e-001	 6.064799284484465e-001	 1.158933891624591e+001
 8.626576592572942e-001	 6.159765568281508e-001	 1.123179466656157e+001
 9.304166480789026e-001	 5.216409385464856e-001	 1.470668050632579e+001
 9.247034483627793e-001	 5.317028344607302e-001	 1.438580872905938e+001
 9.188729762948830e-001	 5.417165161740593e-001	 1.405901228094081e+001
 9.129257872143954e-001	 5.516799737568476e-001	 1.372715166759793e+001
 9.068624816840354e-001	 5.615912043072900e-001	 1.339101273180393e+001
 9.006837054341905e-001	 5.714482132060662e-001	 1.305129863340540e+001
 8.943901492657200e-001	 5.812490153734854e-001	 1.270862165532722e+001
 8.879825489111826e-001	 5.909916365275353e-001	 1.236349486742734e+001
 8.814616848543042e-001	 6.006741144412503e-001	 1.201632368285611e+001
 8.748283821075730e-001	 6.102945001977893e-001	 1.166739734437157e+001
 8.680835099479130e-001	 6.198508594416141e-001	 1.131688038075069e+001
 8.138259592567364e-001	 5.811085160631598e-001	 1.020274147769148e+001
 8.073989196223579e-001	 5.900057536711100e-001	 9.780420197082027e+000
 8.008690357874088e-001	 5.988393841156299e-001	 9.361956871673458e+000
 7.942372439580684e-001	 6.076076406512598e-001	 8.948359327091890e+000
 7.875045204774031e-001	 6.163087747742401e-001	 8.540570822245035e+000
 7.806718813845675e-001	 6.249410573556360e-001	 8.139462426751248e+000
 7.737403819358265e-001	 6.335027797617577e-001	 7.745825530014942e+000
 7.667111160878265e-001	 6.419922549603809e-001	 7.360364524693623e+000
 7.595852159436007e-001	 6.504078186112841e-001	 6.983689707902863e+000
 7.523638511618763e-001	 6.587478301396494e-001	 6.616310443802743e+000
 7.450482283302942e-001	 6.670106737908847e-001	 6.258609025657669e+000
 8.192515047607230e-001	 5.849826007739867e-001	 1.033867548084473e+001
 8.127816178867238e-001	 5.939391537284960e-001	 9.924582783597050e+000
 8.062082011789851e-001	 6.028316754685040e-001	 9.514432579639738e+000
 7.995321970851740e-001	 6.116583874701552e-001	 9.109375558897183e+000
 7.927545884574261e-001	 6.204175295729068e-001	 8.710502091002281e+000
 7.858763981086077e-001	 6.291073611202075e-001	 8.318834120506704e+000
 7.788986883301446e-001	 6.377261620873864e-001	 7.935317180359908e+000
 7.718225603718486e-001	 6.462722341952493e-001	 7.560812568253121e+000
 7.646491538842304e-001	 6.547439020078860e-001	 7.196089731077481e+000
 7.573796463238672e-001	 6.631395140132278e-001	 6.841818903149369e+000
 7.500152523224444e-001	 6.714574436849000e-001	 6.494037376447416e+000
 8.246771221555452e-001	 5.888567368133510e-001	 1.046953772140364e+001
 8.181643874740975e-001	 5.978726058999938e-001	 1.006338417855569e+001
 8.115474373167191e-001	 6.068240197155238e-001	 9.661449191312418e+000
 8.048272203726287e-001	 6.157091879575350e-001	 9.265011927652958e+000
 7.980047260030980e-001	 6.245263388085474e-001	 8.875294550622050e+000
 7.910809837947762e-001	 6.332737200842387e-001	 8.493453647766742e+000
 7.840570630743251e-001	 6.419496003688086e-001	 8.120571766922092e+000
 7.769340723847995e-001	 6.505522701359425e-001	 7.757649104759041e+000
 7.697131589242690e-001	 6.590800428538964e-001	 7.405595395261257e+000
 7.623955079472442e-001	 6.675312560732037e-001	 7.065083226792182e+000
 7.549823421295439e-001	 6.759042724955662e-001	 6.720287186376132e+000
 8.301028019459008e-001	 5.927309174019697e-001	 1.059519664691974e+001
 8.235472189641807e-001	 6.018061033025565e-001	 1.019675518954775e+001
 8.168867348565085e-001	 6.108164098706105e-001	 9.802987625079325e+000
 8.101223045537096e-001	 6.197600350250394e-001	 9.415287562671647e+000
 8.032549239262515e-001	 6.286351952912920e-001	 9.034994004446229e+000
 7.962856293346265e-001	 6.374401269571446e-001	 8.663382325183063e+000
 7.892154971407974e-001	 6.461730872155351e-001	 8.301655347853520e+000
 7.820456431811288e-001	 6.548323552929016e-001	 7.950934563231416e+000
 7.747772222013190e-001	 6.634162335615358e-001	 7.612251542641586e+000
 7.674114272538861e-001	 6.719230486344507e-001	 7.281090015726805e+000
 7.599494890588572e-001	 6.803511524413004e-001	 6.937337627580814e+000
 8.355285346364872e-001	 5.966051357605590e-001	 1.071551469048507e+001
 8.289301029366748e-001	 6.057396390531373e-001	 1.032461873663023e+001
 8.222260844542511e-001	 6.148088389476848e-001	 9.939019351884465e+000
 8.154174403616957e-001	 6.238109215843080e-001	 9.560210890905312e+000
 8.085051730387201e-001	 6.327440918312718e-001	 9.189634595097360e+000
 8.014903256197122e-001	 6.416065744483401e-001	 8.828669138173931e+000
 7.943739815019897e-001	 6.503966152370774e-001	 8.478621258446689e+000
 7.871572638152846e-001	 6.591124821765653e-001	 8.140716527878386e+000
 7.798413348529827e-001	 6.677524665430258e-001	 7.815868976143835e+000
 7.724273954656712e-001	 6.763148840118431e-001	 7.487327920545631e+000
 7.649166844176492e-001	 6.847980757405193e-001	 7.145171700763412e+000
 8.409543107320018e-001	 6.004793851098359e-001	 1.083034858168586e+001
 8.343130299712810e-001	 6.096732062686902e-001	 1.044689022109495e+001
 8.275654767658445e-001	 6.188012999606668e-001	 1.006950681119230e+001
 8.207126185298644e-001	 6.278618405469804e-001	 9.699780089756013e+000
 8.137554641523362e-001	 6.368530212386180e-001	 9.339239284053004e+000
 8.066950635415870e-001	 6.457730552672397e-001	 8.989351237482762e+000
 7.995325071303310e-001	 6.546201770429464e-001	 8.651510615186503e+000
 7.922689253417158e-001	 6.633926432973745e-001	 8.327030240462166e+000
 7.849054880168624e-001	 6.720887342105870e-001	 8.011360917546767e+000
 7.774434038044777e-001	 6.807067545202551e-001	 7.683814048279109e+000
 7.698839195131854e-001	 6.892450346116411e-001	 7.343776352132760e+000
 8.463801207371424e-001	 6.043536586705171e-001	 1.093954965345003e+001
 8.396959906477002e-001	 6.136067980661675e-001	 1.056347788796054e+001
 8.329049024471865e-001	 6.227937859234779e-001	 1.019440381890510e+001
 8.260078297914940e-001	 6.319127848246963e-001	 9.833983530447760e+000
 8.190057880789340e-001	 6.409619763234614e-001	 9.483820320777170e+000
 8.118998339918037e-001	 6.499395621232577e-001	 9.145454424641361e+000
 8.046910649982507e-001	 6.588437652426532e-001	 8.820352808410185e+000
 7.973806188148718e-001	 6.676728311657690e-001	 8.509711417517593e+000
 7.899696728305611e-001	 6.764250289764414e-001	 8.196626596893646e+000
 7.824594434921843e-001	 6.850986524745598e-001	 7.870568826005576e+000
 7.748511856527302e-001	 6.936920212730822e-001	 7.533142580477421e+000
 8.518059551566063e-001	 6.082279496633187e-001	 1.104296414496377e+001
 8.450789755456339e-001	 6.175404075625227e-001	 1.067428318246231e+001
 8.382443521541747e-001	 6.267862898500387e-001	 1.031365596757850e+001
 8.313030648798628e-001	 6.359637473290957e-001	 9.962800212373633e+000
 8.242561356303462e-001	 6.450709498959332e-001	 9.623379701855930e+000
 8.171046278619158e-001	 6.541060877258093e-001	 9.296993626819045e+000
 8.098496460781764e-001	 6.630673724457090e-001	 8.985165984070502e+000
 8.024923352892005e-001	 6.719530382921890e-001	 8.683901338233039e+000
 7.950338804316810e-001	 6.807613432528102e-001	 8.371709810639516e+000
 7.874755057506695e-001	 6.894905701896319e-001	 8.047616121610707e+000
 7.798184741435482e-001	 6.981390279432600e-001	 7.713265534797443e+000
 8.572318044950911e-001	 6.121022513089577e-001	 1.114043350082070e+001
 8.504619752447837e-001	 6.214740278747093e-001	 1.077920110079087e+001
 8.435838165427069e-001	 6.307788047542697e-001	 1.042720101926978e+001
 8.365983145282484e-001	 6.400147209718181e-001	 1.008620018880688e+001
 8.295064976184053e-001	 6.491799347661639e-001	 9.757909620572072e+000
 8.223094360434770e-001	 6.582726247843088e-001	 9.443973361519642e+000
 8.150082413425385e-001	 6.672909912616248e-001	 9.145888827729104e+000
 8.076040658191516e-001	 6.762332571870745e-001	 8.847499775825405e+000
 8.000981019578242e-001	 6.850976694519142e-001	 8.536657434777881e+000
 7.924915818018116e-001	 6.938824999803447e-001	 8.214983354610396e+000
 7.847857762929047e-001	 7.025860468405919e-001	 7.884144602900384e+000
 8.626576592572942e-001	 6.159765568281508e-001	 1.123179466656158e+001
 8.558449803248511e-001	 6.254076521196812e-001	 1.087812053532718e+001
 8.489232862686810e-001	 6.347713236500919e-001	 1.053496929133179e+001
 8.418935694699284e-001	 6.440656986645033e-001	 1.020414498434627e+001
 8.347568648549454e-001	 6.532889237442848e-001	 9.887392907330121e+000
 8.275142494280406e-001	 6.624391660081712e-001	 9.586388191561742e+000
 8.201668417637648e-001	 6.715146142999121e-001	 9.298219049359695e+000
 8.127158014591731e-001	 6.805134803608659e-001	 9.000567091756150e+000
 8.051623285465938e-001	 6.894339999859750e-001	 8.691519540866196e+000
 7.975076628674882e-001	 6.982744341615723e-001	 8.372701597455903e+000
 7.897530834080641e-001	 7.070330701834948e-001	 8.045783491345778e+000
 8.680835099479130e-001	 6.198508594416141e-001	 1.131688038075069e+001
 8.612279813655368e-001	 6.293412734143905e-001	 1.097092461460130e+001
 8.542627519879941e-001	 6.387638395514256e-001	 1.063688403544839e+001
 8.471888204381821e-001	 6.481166733187914e-001	 1.031658800444235e+001
 8.400072281517993e-001	 6.573979096404267e-001	 1.001180346131861e+001
 8.327190589071605e-001	 6.666057041068111e-001	 9.724223170755488e+000
 8.253254383142842e-001	 6.757382341700818e-001	 9.439646107215989e+000
 8.178275332637144e-001	 6.847937003240027e-001	 9.143166717046780e+000
 8.102265513355921e-001	 6.937703272672137e-001	 8.836349502365646e+000
 8.025237401695791e-001	 7.026663650481889e-001	 8.520805667730379e+000
 7.947203867962918e-001	 7.114800901903866e-001	 8.198190297106445e+000
 7.450482283302942e-001	 6.670106737908847e-001	 6.258609025657665e+000
 7.376407085647760e-001	 6.751935382033578e-001	 5.908953685359862e+000
 7.301414800067997e-001	 6.832961067697868e-001	 5.567503799548099e+000
 7.225518559652614e-001	 6.913168456532408e-001	 5.234414474296972e+000
 7.148731837902085e-001	 6.992542498395045e-001	 4.909827405013136e+000
 7.071068440770070e-001	 7.071068440770069e-001	 4.593871284449590e+000
 6.992542498395046e-001	 7.148731837902086e-001	 4.286662206308092e+000
 6.913168456532407e-001	 7.225518559652614e-001	 3.988304056824200e+000
 6.832961067697868e-001	 7.301414800067997e-001	 3.698888886763932e+000
 6.751935382033579e-001	 7.376407085647760e-001	 3.418497256420452e+000
 6.670106737908847e-001	 7.450482283302943e-001	 3.147198546405154e+000
 7.500152523224444e-001	 6.714574436849000e-001	 6.494037376447416e+000
 7.425583487368150e-001	 6.796948609187311e-001	 6.145183208621832e+000
 7.350091249626953e-001	 6.878514469967676e-001	 5.805215239470106e+000
 7.273689030643643e-001	 6.959256578564965e-001	 5.474164108581241e+000
 7.196390393741970e-001	 7.039159784502747e-001	 5.152043281089925e+000
 7.118209236915217e-001	 7.118209236915217e-001	 4.838849714451842e+000
 7.039159784502745e-001	 7.196390393741969e-001	 4.534564526578262e+000
 6.959256578564965e-001	 7.273689030643643e-001	 4.239153656836758e+000
 6.878514469967673e-001	 7.350091249626949e-001	 3.952568511460783e+000
 6.796948609187310e-001	 7.425583487368149e-001	 3.674746585041009e+000
 6.714574436848999e-001	 7.500152523224445e-001	 3.405612049978054e+000
 7.549823421295439e-001	 6.759042724955662e-001	 6.720287186376132e+000
 7.474760540691479e-001	 6.841962432740210e-001	 6.372812549630379e+000
 7.398768344160392e-001	 6.924068475798988e-001	 6.034813821743304e+000
 7.321860139900158e-001	 7.005345311249522e-001	 5.706202299417648e+000
 7.244049581059168e-001	 7.085777688279572e-001	 5.386868603434299e+000
 7.165350657671743e-001	 7.165350657671743e-001	 5.076683597181441e+000
 7.085777688279572e-001	 7.244049581059169e-001	 4.775499311903563e+000
 7.005345311249522e-001	 7.321860139900160e-001	 4.483149869298909e+000
 6.924068475798989e-001	 7.398768344160395e-001	 4.199452392123956e+000
 6.841962432740211e-001	 7.474760540691480e-001	 3.924207893554785e+000
 6.759042724955661e-001	 7.549823421295439e-001	 3.657202136291407e+000
 7.599494890588572e-001	 6.803511524413004e-001	 6.937337627580816e+000
 7.523938159555098e-001	 6.886976773921116e-001	 6.591786233913159e+000
 7.447445998481189e-001	 6.969623005474628e-001	 6.256212892860495e+000
 7.370031803121179e-001	 7.051434573932359e-001	 5.930414564671092e+000
 7.291709316449299e-001	 7.132396128144953e-001	 5.614164291249128e+000
 7.212492620542139e-001	 7.212492620542138e-001	 5.307212359609930e+000
 7.132396128144953e-001	 7.291709316449299e-001	 5.009287477015381e+000
 7.051434573932358e-001	 7.370031803121178e-001	 4.720097947545876e+000
 6.969623005474627e-001	 7.447445998481187e-001	 4.439332839866109e+000
 6.886976773921116e-001	 7.523938159555098e-001	 4.166663136053617e+000
 6.803511524413002e-001	 7.599494890588570e-001	 3.901742851541008e+000
 7.649166844176492e-001	 6.847980757405193e-001	 7.145171700763416e+000
 7.573116257896370e-001	 6.931991553958878e-001	 6.802053465503640e+000
 7.496124127402216e-001	 7.015177979277401e-001	 6.469331229288965e+000
 7.418203936005725e-001	 7.097524285959757e-001	 6.146692508116997e+000
 7.339369516507991e-001	 7.179015022518339e-001	 5.833797913064824e+000
 7.259635043028904e-001	 7.259635043028903e-001	 5.530282552021653e+000
 7.179015022518338e-001	 7.339369516507991e-001	 5.235757447668247e+000
 7.097524285959757e-001	 7.418203936005726e-001	 4.949810960583888e+000
 7.015177979277402e-001	 7.496124127402213e-001	 4.672010206355800e+000
 6.931991553958877e-001	 7.573116257896371e-001	 4.401902455652122e+000
 6.847980757405193e-001	 7.649166844176492e-001	 4.139016506412864e+000
 7.698839195131854e-001	 6.892450346116411e-001	 7.343776352132763e+000
 7.622294749652648e-001	 6.977006694082336e-001	 7.003568216699892e+000
 7.544802645736347e-001	 7.060733317490129e-001	 6.674093103291080e+000
 7.466376454252821e-001	 7.143614366677993e-001	 6.354933864466613e+000
 7.387030097830855e-001	 7.225634289819166e-001	 6.045643714007236e+000
 7.306777842634514e-001	 7.306777842634512e-001	 5.745747860451206e+000
 7.225634289819166e-001	 7.387030097830855e-001	 5.454745161056954e+000
 7.143614366677991e-001	 7.466376454252820e-001	 5.172109784201156e+000
 7.060733317490127e-001	 7.544802645736344e-001	 4.897292868199126e+000
 6.977006694082334e-001	 7.622294749652647e-001	 4.629724164611863e+000
 6.892450346116412e-001	 7.698839195131856e-001	 4.368813654291214e+000
 7.748511856527302e-001	 6.936920212730822e-001	 7.533142580477420e+000
 7.671473548761287e-001	 7.022022115520339e-001	 7.196289309034069e+000
 7.593481468296452e-001	 7.106288940395611e-001	 6.870428340913398e+000
 7.514549273561479e-001	 7.189704735433338e-001	 6.555042537404210e+000
 7.434690977013519e-001	 7.272253848466873e-001	 6.249582636810080e+000
 7.353920936861466e-001	 7.353920936861461e-001	 5.953469113493926e+000
 7.272253848466873e-001	 7.434690977013521e-001	 5.666094061145348e+000
 7.189704735433342e-001	 7.514549273561483e-001	 5.386823087412540e+000
 7.106288940395612e-001	 7.593481468296451e-001	 5.114997206997989e+000
 7.022022115520336e-001	 7.671473548761286e-001	 4.849934720384852e+000
 6.936920212730819e-001	 7.748511856527302e-001	 4.590933065547686e+000
 7.798184741435482e-001	 6.981390279432600e-001	 7.713265534797444e+000
 7.720652569159653e-001	 7.067037739501728e-001	 7.380180485825445e+000
 7.642160509895408e-001	 7.151844768276672e-001	 7.058272372479433e+000
 7.562722309630735e-001	 7.235795311572085e-001	 6.746928630937813e+000
 7.482352070651606e-001	 7.318873616880898e-001	 6.445502336844870e+000
 7.401064243212243e-001	 7.401064243212244e-001	 6.153314283735970e+000
 7.318873616880895e-001	 7.482352070651605e-001	 5.869655089112487e+000
 7.235795311572083e-001	 7.562722309630734e-001	 5.593787314436411e+000
 7.151844768276674e-001	 7.642160509895410e-001	 5.324947585258101e+000
 7.067037739501727e-001	 7.720652569159652e-001	 5.062348697746960e+000
 6.981390279432600e-001	 7.798184741435483e-001	 4.805181698078703e+000
 7.847857762929047e-001	 7.025860468405919e-001	 7.884144602900385e+000
 7.769831724785091e-001	 7.112053487255350e-001	 7.555210476684773e+000
 7.690839685346087e-001	 7.197400721416120e-001	 7.237566275905283e+000
 7.610895478159594e-001	 7.281886014440498e-001	 6.930508474344465e+000
 7.530013295340728e-001	 7.365493513480671e-001	 6.633297191417907e+000
 7.448207679189339e-001	 7.448207679189339e-001	 6.345158484027513e+000
 7.365493513480673e-001	 7.530013295340731e-001	 6.065286669126520e+000
 7.281886014440500e-001	 7.610895478159596e-001	 5.792846662390251e+000
 7.197400721416120e-001	 7.690839685346088e-001	 5.526976318325643e+000
 7.112053487255350e-001	 7.769831724785092e-001	 5.266788757185076e+000
 7.025860468405920e-001	 7.847857762929047e-001	 5.011374664241830e+000
 7.897530834080641e-001	 7.070330701834948e-001	 8.045783491345778e+000
 7.819010929574963e-001	 7.157069280010050e-001	 7.721353054305244e+000
 7.739518909461362e-001	 7.242956720096766e-001	 7.408256813144601e+000
 7.659068694847088e-001	 7.327976763384864e-001	 7.105704640982712e+000
 7.577674567676516e-001	 7.412113456685648e-001	 6.812868303575439e+000
 7.495351162295243e-001	 7.495351162295242e-001	 6.528883958813404e+000
 7.412113456685647e-001	 7.577674567676513e-001	 6.252854689636321e+000
 7.327976763384864e-001	 7.659068694847089e-001	 5.983853054882129e+000
 7.242956720096769e-001	 7.739518909461362e-001	 5.720923642512448e+000
 7.157069280010052e-001	 7.819010929574967e-001	 5.463085609688188e+000
 7.070330701834953e-001	 7.897530834080643e-001	 5.209335194342660e+000
 7.947203867962918e-001	 7.114800901903866e-001	 8.198190297106446e+000
 7.868190097466631e-001	 7.202085038994671e-001	 7.878587083871222e+000
 7.788198097054105e-001	 7.288512684601431e-001	 7.570296460049485e+000
 7.707241875392233e-001	 7.374067477751456e-001	 7.272445961229253e+000
 7.625335804254584e-001	 7.458733364915255e-001	 6.984123500648923e+000
 7.542494610032443e-001	 7.542494610032443e-001	 6.704380070729243e+000
 7.458733364915253e-001	 7.625335804254582e-001	 6.432232480371059e+000
 7.374067477751457e-001	 7.707241875392235e-001	 6.166666111666502e+000
 7.288512684601429e-001	 7.788198097054103e-001	 5.906637679567862e+000
 7.202085038994671e-001	 7.868190097466631e-001	 5.651077978092943e+000
 7.114800901903867e-001	 7.947203867962918e-001	 5.398894596808908e+000
 6.670106737908847e-001	 7.450482283302943e-001	 3.147198546405157e+000
 6.587478301396494e-001	 7.523638511618765e-001	 2.886648643624818e+000
 6.504078186112842e-001	 7.595852159436007e-001	 2.638102598101650e+000
 6.419922549603809e-001	 7.667111160878266e-001	 2.401200536987431e+000
 6.335027797617576e-001	 7.737403819358266e-001	 2.175664307495961e+000
 6.249410573556360e-001	 7.806718813845673e-001	 1.961293708427188e+000
 6.163087747742402e-001	 7.875045204774029e-001	 1.757963838299514e+000
 6.076076406512597e-001	 7.942372439580682e-001	 1.565622023065899e+000
 5.988393841156297e-001	 8.008690357874089e-001	 1.384284360482716e+000
 5.900057536711102e-001	 8.073989196223580e-001	 1.214031919846696e+000
 5.811085160631598e-001	 8.138259592567366e-001	 1.055006637144098e+000
 6.714574436848999e-001	 7.500152523224445e-001	 3.405612049978056e+000
 6.631395140132276e-001	 7.573796463238672e-001	 3.147341817939369e+000
 6.547439020078864e-001	 7.646491538842305e-001	 2.900470034317116e+000
 6.462722341952490e-001	 7.718225603718485e-001	 2.664315263815942e+000
 6.377261620873863e-001	 7.788986883301445e-001	 2.438659329912546e+000
 6.291073611202073e-001	 7.858763981086074e-001	 2.223367360781170e+000
 6.204175295729066e-001	 7.927545884574260e-001	 2.018384829442903e+000
 6.116583874701552e-001	 7.995321970851738e-001	 1.823734155942309e+000
 6.028316754685039e-001	 8.062082011789852e-001	 1.639510910721365e+000
 5.939391537284960e-001	 8.127816178867238e-001	 1.465879660060272e+000
 5.849826007739867e-001	 8.192515047607228e-001	 1.303069495826687e+000
 6.759042724955661e-001	 7.549823421295439e-001	 3.657202136291408e+000
 6.675312560732037e-001	 7.623955079472441e-001	 3.400611627745439e+000
 6.590800428538963e-001	 7.697131589242686e-001	 3.155518776499694e+000
 6.505522701359425e-001	 7.769340723847997e-001	 2.920235324433787e+000
 6.419496003688086e-001	 7.840570630743252e-001	 2.694589954190971e+000
 6.332737200842384e-001	 7.910809837947759e-001	 2.478511662421235e+000
 6.245263388085474e-001	 7.980047260030978e-001	 2.272015074703604e+000
 6.157091879575354e-001	 8.048272203726286e-001	 2.075196713929618e+000
 6.068240197155237e-001	 8.115474373167191e-001	 1.888230853804155e+000
 5.978726058999935e-001	 8.181643874740976e-001	 1.711365000568470e+000
 5.888567368133509e-001	 8.246771221555452e-001	 1.544915047447427e+000
 6.803511524413002e-001	 7.599494890588570e-001	 3.901742851541010e+000
 6.719230486344507e-001	 7.674114272538863e-001	 3.646582218858129e+000
 6.634162335615358e-001	 7.747772222013188e-001	 3.402946775411906e+000
 6.548323552929011e-001	 7.820456431811288e-001	 3.168666728473141e+000
 6.461730872155351e-001	 7.892154971407974e-001	 2.943171451824331e+000
 6.374401269571447e-001	 7.962856293346265e-001	 2.726452390420993e+000
 6.286351952912920e-001	 8.032549239262516e-001	 2.518592142241236e+000
 6.197600350250395e-001	 8.101223045537095e-001	 2.319760384307751e+000
 6.108164098706105e-001	 8.168867348565088e-001	 2.130209367132260e+000
 6.018061033025566e-001	 8.235472189641807e-001	 1.950269022982270e+000
 5.927309174019697e-001	 8.301028019459008e-001	 1.780341734812012e+000
 6.847980757405193e-001	 7.649166844176492e-001	 4.139016506412869e+000
 6.763148840118433e-001	 7.724273954656711e-001	 3.885228904550020e+000
 6.677524665430258e-001	 7.798413348529821e-001	 3.642471007234455e+000
 6.591124821765653e-001	 7.871572638152848e-001	 3.409315765695101e+000
 6.503966152370773e-001	 7.943739815019895e-001	 3.184119218662758e+000
 6.416065744483402e-001	 8.014903256197123e-001	 2.966915233384041e+000
 6.327440918312718e-001	 8.085051730387199e-001	 2.757853242560926e+000
 6.238109215843082e-001	 8.154174403616956e-001	 2.557175171950857e+000
 6.148088389476848e-001	 8.222260844542513e-001	 2.365210566247768e+000
 6.057396390531372e-001	 8.289301029366746e-001	 2.182371313831783e+000
 5.966051357605590e-001	 8.355285346364872e-001	 2.009146019646464e+000
 6.892450346116412e-001	 7.698839195131856e-001	 4.368813654291214e+000
 6.807067545202548e-001	 7.774434038044776e-001	 4.116336201405284e+000
 6.720887342105870e-001	 7.849054880168623e-001	 3.874243341996732e+000
 6.633926432973741e-001	 7.922689253417159e-001	 3.641889395931819e+000
 6.546201770429464e-001	 7.995325071303310e-001	 3.417149159934815e+000
 6.457730552672396e-001	 8.066950635415869e-001	 3.199626172649461e+000
 6.368530212386180e-001	 8.137554641523362e-001	 2.989535607053067e+000
 6.278618405469804e-001	 8.207126185298643e-001	 2.787190776375776e+000
 6.188012999606667e-001	 8.275654767658446e-001	 2.592997881591961e+000
 6.096732062686899e-001	 8.343130299712809e-001	 2.407450342266109e+000
 6.004793851098360e-001	 8.409543107320019e-001	 2.231122762508623e+000
 6.936920212730819e-001	 7.748511856527302e-001	 4.590933065547686e+000
 6.850986524745599e-001	 7.824594434921843e-001	 4.339696861189863e+000
 6.764250289764416e-001	 7.899696728305611e-001	 4.098224200501128e+000
 6.676728311657691e-001	 7.973806188148717e-001	 3.866111833048935e+000
 6.588437652426532e-001	 8.046910649982508e-001	 3.641978071770811e+000
 6.499395621232578e-001	 8.118998339918039e-001	 3.424311859906343e+000
 6.409619763234614e-001	 8.190057880789339e-001	 3.213376862784325e+000
 6.319127848246962e-001	 8.260078297914941e-001	 3.009556964831682e+000
 6.227937859234779e-001	 8.329049024471866e-001	 2.813334431049843e+000
 6.136067980661671e-001	 8.396959906477001e-001	 2.625283833235810e+000
 6.043536586705171e-001	 8.463801207371422e-001	 2.446065597812245e+000
 6.981390279432600e-001	 7.798184741435483e-001	 4.805181698078705e+000
 6.894905701896319e-001	 7.874755057506694e-001	 4.555111841487298e+000
 6.807613432528102e-001	 7.950338804316809e-001	 4.314209704233317e+000
 6.719530382921890e-001	 8.024923352892006e-001	 4.082135911224181e+000
 6.630673724457090e-001	 8.098496460781767e-001	 3.858324019362689e+000
 6.541060877258093e-001	 8.171046278619158e-001	 3.640699991341999e+000
 6.450709498959331e-001	 8.242561356303459e-001	 3.429115403681316e+000
 6.359637473290956e-001	 8.313030648798628e-001	 3.224023941592815e+000
 6.267862898500388e-001	 8.382443521541750e-001	 3.025983388452541e+000
 6.175404075625226e-001	 8.450789755456339e-001	 2.835649136334442e+000
 6.082279496633188e-001	 8.518059551566065e-001	 2.653767304168643e+000
 7.025860468405920e-001	 7.847857762929047e-001	 5.011374664241830e+000
 6.938824999803446e-001	 7.924915818018115e-001	 4.762390272824732e+000
 6.850976694519144e-001	 8.000981019578244e-001	 4.522004127143920e+000
 6.762332571870746e-001	 8.076040658191518e-001	 4.289939694346026e+000
 6.672909912616249e-001	 8.150082413425387e-001	 4.065912777870940e+000
 6.582726247843088e-001	 8.223094360434772e-001	 3.848519678465602e+000
 6.491799347661639e-001	 8.295064976184055e-001	 3.636490758248517e+000
 6.400147209718181e-001	 8.365983145282481e-001	 3.430342713596503e+000
 6.307788047542696e-001	 8.435838165427070e-001	 3.230708348191394e+000
 6.214740278747095e-001	 8.504619752447837e-001	 3.038323590473452e+000
 6.121022513089578e-001	 8.572318044950912e-001	 2.854020170230228e+000
 7.070330701834953e-001	 7.897530834080643e-001	 5.209335194342654e+000
 6.982744341615721e-001	 7.975076628674882e-001	 4.961349422433711e+000
 6.894339999859754e-001	 8.051623285465941e-001	 4.721419860896400e+000
 6.805134803608659e-001	 8.127158014591731e-001	 4.489331809513875e+000
 6.715146142999120e-001	 8.201668417637646e-001	 4.264866274033770e+000
 6.624391660081714e-001	 8.275142494280411e-001	 4.047501815724581e+000
 6.532889237442850e-001	 8.347568648549454e-001	 3.835243953950379e+000
 6.440656986645036e-001	 8.418935694699287e-001	 3.628265452570860e+000
 6.347713236500917e-001	 8.489232862686806e-001	 3.427273686099488e+000
 6.254076521196810e-001	 8.558449803248510e-001	 3.233084884553116e+000
 6.159765568281506e-001	 8.626576592572943e-001	 3.046616356217347e+000
 7.114800901903867e-001	 7.947203867962918e-001	 5.398894596808910e+000
 7.026663650481888e-001	 8.025237401695792e-001	 5.151814654781224e+000
 6.937703272672139e-001	 8.102265513355922e-001	 4.912277376925382e+000
 6.847937003240027e-001	 8.178275332637143e-001	 4.680128908797725e+000
 6.757382341700814e-001	 8.253254383142840e-001	 4.455214627527902e+000
 6.666057041068113e-001	 8.327190589071603e-001	 4.237379445035282e+000
 6.573979096404270e-001	 8.400072281517993e-001	 4.025117878378477e+000
 6.481166733187913e-001	 8.471888204381821e-001	 3.817545853778630e+000
 6.387638395514258e-001	 8.542627519879944e-001	 3.615444916739394e+000
 6.293412734143902e-001	 8.612279813655365e-001	 3.419711414285869e+000
 6.198508594416140e-001	 8.680835099479131e-001	 3.231348251293238e+000
 5.811085160631598e-001	 8.138259592567366e-001	 1.055006637144098e+000
 5.721494549410069e-001	 8.201492587923700e-001	 9.037730018191057e-001
 5.631303691352768e-001	 8.263679623034137e-001	 7.573796131946667e-001
 5.540530720989082e-001	 8.324812548450976e-001	 6.167764932014589e-001
 5.449193909360233e-001	 8.384883629704416e-001	 4.829608859587132e-001
 5.357311652289508e-001	 8.443885549780590e-001	 3.569714279566103e-001
 5.264902458615941e-001	 8.501811411206632e-001	 2.398822628606348e-001
 5.171984938406530e-001	 8.558654737743153e-001	 1.327971421487699e-001
 5.078577791162044e-001	 8.614409475685220e-001	 3.684355144887532e-002
 4.984699794031350e-001	 8.669069994773565e-001	-4.683309914177288e-002
 4.890369790048946e-001	 8.722631088718381e-001	-1.170751843757235e-001
 5.849826007739867e-001	 8.192515047607228e-001	 1.303069495826687e+000
 5.759638121453027e-001	 8.256169599300633e-001	 1.147756299595070e+000
 5.668845986654242e-001	 8.318771217627184e-001	 9.970416484353806e-001
 5.577467858771380e-001	 8.380311698809669e-001	 8.518800951062472e-001
 5.485522130654222e-001	 8.440783256815294e-001	 7.132765294881406e-001
 5.393027320766501e-001	 8.500178525850265e-001	 5.822801130808334e-001
 5.300002061341147e-001	 8.558490562458756e-001	 4.599781568309089e-001
 5.206465086513883e-001	 8.615712847226639e-001	 3.474899852584197e-001
 5.112435220450454e-001	 8.671839286091179e-001	 2.459608284550918e-001
 5.017931365482345e-001	 8.726864211258275e-001	 1.565557818247313e-001
 4.922972490265902e-001	 8.780782381729779e-001	 8.045387150195336e-002
 5.888567368133509e-001	 8.246771221555452e-001	 1.544915047447427e+000
 5.797782198871765e-001	 8.310847335173304e-001	 1.385669894003514e+000
 5.706388779369471e-001	 8.373863542211578e-001	 1.230786816951332e+000
 5.614405485954396e-001	 8.435811584562625e-001	 1.081226285580245e+000
 5.521850833286301e-001	 8.496683624629792e-001	 9.380021470030603e-001
 5.428743462470814e-001	 8.556472247838542e-001	 8.021753150432107e-001
 5.335102129136188e-001	 8.615170464749266e-001	 6.748474015207044e-001
 5.240945691488355e-001	 8.672771712772370e-001	 5.571543347327108e-001
 5.146293098359489e-001	 8.729269857486570e-001	 4.502600084357564e-001
 5.051163377265164e-001	 8.784659193562274e-001	 3.553500028866675e-001
 4.955575622485071e-001	 8.838934445292345e-001	 2.736254174320643e-001
 5.927309174019697e-001	 8.301028019459008e-001	 1.780341734812012e+000
 5.835926714918183e-001	 8.365525699850670e-001	 1.617329508059271e+000
 5.743932003802006e-001	 8.428956500370379e-001	 1.458446485135896e+000
 5.651343537900048e-001	 8.491312108579269e-001	 1.304660454764485e+000
 5.558179953683311e-001	 8.552584635316093e-001	 1.156995551668645e+000
 5.464460014900537e-001	 8.612766617224811e-001	 1.016525689628797e+000
 5.370202600576584e-001	 8.671851018881377e-001	 8.843679363780275e-001
 5.275426692988844e-001	 8.729831234520049e-001	 7.616758770028903e-001
 5.180151365637197e-001	 8.786701089360396e-001	 6.496330109796832e-001
 5.084395771222590e-001	 8.842454840536720e-001	 5.494462261043682e-001
 4.988179129649336e-001	 8.897087177632357e-001	 4.623393904539148e-001
 5.966051357605590e-001	 8.355285346364872e-001	 2.009146019646464e+000
 5.874071602844180e-001	 8.420204597641681e-001	 1.842548387030322e+000
 5.781475594255391e-001	 8.484049995686656e-001	 1.679849076882245e+000
 5.688281949970270e-001	 8.546813173729051e-001	 1.522024619192229e+000
 5.594509428272085e-001	 8.608486191042365e-001	 1.370110787267212e+000
 5.500176915553778e-001	 8.669061535488472e-001	 1.225195764433649e+000
 5.405303414237858e-001	 8.728532125658290e-001	 1.088413252389953e+000
 5.309908030674251e-001	 8.786891312609383e-001	 9.609355698207440e-001
 5.214009963031628e-001	 8.844132881201636e-001	 8.439667882544644e-001
 5.117628489197403e-001	 8.900251051032773e-001	 7.387359502225074e-001
 5.020782954701594e-001	 8.955240476976104e-001	 6.464904125154801e-001
 6.004793851098360e-001	 8.409543107320019e-001	 2.231122762508623e+000
 5.912216795901660e-001	 8.474883932855289e-001	 2.061137680522348e+000
 5.819019485033184e-001	 8.539143931743477e-001	 1.894820456494661e+000
 5.725220657526984e-001	 8.602314682881397e-001	 1.733157804188706e+000
 5.630839193479468e-001	 8.664388193976782e-001	 1.577198508751956e+000
 5.535894101928633e-001	 8.725356904108920e-001	 1.428046316240400e+000
 5.440404508695519e-001	 8.785213685883219e-001	 1.286852764973064e+000
 5.344389644203482e-001	 8.843951847180088e-001	 1.154810009344002e+000
 5.247868831290850e-001	 8.901565132499307e-001	 1.033143685001653e+000
 5.150861473032390e-001	 8.958047723901597e-001	 9.231058622819355e-001
 5.053387040584731e-001	 9.013394241549870e-001	 8.259681324302257e-001
 6.043536586705171e-001	 8.463801207371422e-001	 2.446065597812245e+000
 5.950362227342531e-001	 8.529563609800457e-001	 2.272906819311059e+000
 5.856563610438934e-001	 8.594238212123906e-001	 2.103184306031812e+000
 5.762159595932116e-001	 8.657816538905742e-001	 1.937896420430046e+000
 5.667169185732297e-001	 8.720290546287525e-001	 1.778106356739752e+000
 5.571611511523206e-001	 8.781652624565558e-001	 1.624934742170515e+000
 5.475505822525099e-001	 8.841895600359370e-001	 1.479552180506780e+000
 5.378871473235433e-001	 8.901012738371870e-001	 1.343171790802270e+000
 5.281727911162906e-001	 8.958997742742390e-001	 1.217041792079126e+000
 5.184094664570329e-001	 9.015844757994342e-001	 1.102438182807247e+000
 5.085991330241642e-001	 9.071548369579943e-001	 1.000657561486238e+000
 6.082279496633188e-001	 8.518059551566065e-001	 2.653767304168643e+000
 5.988507830418682e-001	 8.584243532786130e-001	 2.477663887142361e+000
 5.894107904776190e-001	 8.649332740411009e-001	 2.304762497312738e+000
 5.799098700547595e-001	 8.713318644671525e-001	 2.136074634912362e+000
 5.703499341457410e-001	 8.776193150142760e-001	 1.972679326198817e+000
 5.607329081835595e-001	 8.837948598337780e-001	 1.815715424861799e+000
 5.510607294302107e-001	 8.898577769889952e-001	 1.666373856785332e+000
 5.413353457429005e-001	 8.958073886324438e-001	 1.525889863006007e+000
 5.315587143395855e-001	 9.016430611419892e-001	 1.395535293830818e+000
 5.217328005654008e-001	 9.073642052162174e-001	 1.276611004846438e+000
 5.118595766615219e-001	 9.129702759292612e-001	 1.170439402982182e+000
 6.121022513089578e-001	 8.572318044950912e-001	 2.854020170230228e+000
 6.026653538382030e-001	 8.638923606121265e-001	 2.675215987702546e+000
 5.931652302348504e-001	 8.704427420187856e-001	 2.499375458805506e+000
 5.836037906735343e-001	 8.768820903048177e-001	 2.327524736554607e+000
 5.739829597081649e-001	 8.832095907710672e-001	 2.160760129576672e+000
 5.643046750363899e-001	 8.894244726904979e-001	 2.000240091931641e+000
 5.545708862602061e-001	 8.955260095278166e-001	 1.847177157638537e+000
 5.447835536443102e-001	 9.015135191177501e-001	 1.702829876960921e+000
 5.349446468737750e-001	 9.073863638020803e-001	 1.568494809540713e+000
 5.250561438126208e-001	 9.131439505256256e-001	 1.445498627123841e+000
 5.151200292648354e-001	 9.187857308914156e-001	 1.335190375945197e+000
 6.159765568281506e-001	 8.626576592572943e-001	 3.046616356217347e+000
 6.064799284484463e-001	 8.693603734114813e-001	 2.865369606953301e+000
 5.969196737459425e-001	 8.759522155037509e-001	 2.686842537604369e+000
 5.872977149857287e-001	 8.824323216905132e-001	 2.512077496659035e+000
 5.776159889031851e-001	 8.887998721159425e-001	 2.342189554589047e+000
 5.678764454606222e-001	 8.950540911746555e-001	 2.178358169954606e+000
 5.580810466000488e-001	 9.011942477327233e-001	 2.021818801964814e+000
 5.482317649936626e-001	 9.072196553070767e-001	 1.873854528835568e+000
 5.383305827936644e-001	 9.131296722034117e-001	 1.735787729220698e+000
 5.283794903829712e-001	 9.189237016127739e-001	 1.608971881547733e+000
 5.183804851283935e-001	 9.246011916670867e-001	 1.494783533276166e+000
 6.198508594416140e-001	 8.680835099479131e-001	 3.231348251293238e+000
 6.102945001977892e-001	 8.748283821075730e-001	 3.047930971014924e+000
 6.006741144412503e-001	 8.814616848543038e-001	 2.866982356692051e+000
 5.909916365275354e-001	 8.879825489111826e-001	 2.689562524433734e+000
 5.812490153734854e-001	 8.943901492657203e-001	 2.516806816892374e+000
 5.714482132060661e-001	 9.006837054341905e-001	 2.349917133181373e+000
 5.615912043072900e-001	 9.068624816840354e-001	 2.190153207405618e+000
 5.516799737568477e-001	 9.129257872143953e-001	 2.038823897506639e+000
 5.417165161740594e-001	 9.188729762948832e-001	 1.897278543961370e+000
 5.317028344607302e-001	 9.247034483627792e-001	 1.766898455310375e+000
 5.216409385464856e-001	 9.304166480789027e-001	 1.649088574552789e+000
 4.890369790048946e-001	 8.722631088718381e-001	-1.170751843757238e-001
 4.795620922583881e-001	 8.775080191404551e-001	-1.789296866078609e-001
 4.700458011791232e-001	 8.826421068707412e-001	-2.378057480988530e-001
 4.604900024760815e-001	 8.876649794392211e-001	-2.930651394440159e-001
 4.508965947721494e-001	 8.925762864264075e-001	-3.440860506188136e-001
 4.412674774614076e-001	 8.973757194803049e-001	-3.902661341513186e-001
 4.316045495771122e-001	 9.020630121438827e-001	-4.310252902479753e-001
 4.219097086716463e-001	 9.066379396471509e-001	-4.658081791710451e-001
 4.121848497096857e-001	 9.111003186645378e-001	-4.940864489991894e-001
 4.024318639757797e-001	 9.154500070382965e-001	-5.153606697999738e-001
 3.926526379975132e-001	 9.196869034687285e-001	-5.291619681059248e-001
 4.922972490265902e-001	 8.780782381729779e-001	 8.045387150195361e-002
 4.827591959128025e-001	 8.833581147616243e-001	 1.248882611195825e-002
 4.731794624357821e-001	 8.885264299898883e-001	-5.284580180550391e-002
 4.635599579492457e-001	 8.935827886167581e-001	-1.148536436620300e-001
 4.539025937335760e-001	 8.985268378865744e-001	-1.728549977438817e-001
 4.442092818454916e-001	 9.033582673916204e-001	-2.261900781888866e-001
 4.344819339784806e-001	 9.080768088984459e-001	-2.742219913346513e-001
 4.247224603352865e-001	 9.126822361385573e-001	-3.163394239934840e-001
 4.149327685136948e-001	 9.171743645641776e-001	-3.519590312174177e-001
 4.051147624068305e-001	 9.215530510698091e-001	-3.805275141327275e-001
 3.952703411191423e-001	 9.258181936803929e-001	-4.015233814239148e-001
 4.955575622485071e-001	 8.838934445292345e-001	 2.736254174320643e-001
 4.859563419306749e-001	 8.892082879011765e-001	 1.997951323812151e-001
 4.763131652153874e-001	 8.944108310808059e-001	 1.282489230034699e-001
 4.666299541012818e-001	 8.995006762095590e-001	 5.974039086870645e-002
 4.569086325264199e-001	 9.044774681955849e-001	-4.993780384122027e-003
 4.471511252103419e-001	 9.093408945754362e-001	-6.523728409933460e-002
 4.373593565069525e-001	 9.140906853392351e-001	-1.202973619200130e-001
 4.275352492695396e-001	 9.187266127199799e-001	-1.695076711730640e-001
 4.176807237291812e-001	 9.232484909476880e-001	-2.122308352923374e-001
 4.077976963877617e-001	 9.276561759691135e-001	-2.478606674003193e-001
 3.978880789267743e-001	 9.319495651338405e-001	-2.758240603151768e-001
 4.988179129649336e-001	 8.897087177632357e-001	 4.623393904539148e-001
 4.891535247168062e-001	 8.950585283205647e-001	 3.828920088033910e-001
 4.794469040337467e-001	 9.002952998450805e-001	 3.053846547557951e-001
 4.696999855594727e-001	 9.054186318606475e-001	 2.306272999350645e-001
 4.599147058898860e-001	 9.104281669392148e-001	 1.594127405509982e-001
 4.500930024075077e-001	 9.153235905615896e-001	 9.251292381180951e-002
 4.402368121268189e-001	 9.201046309414599e-001	 3.067557773315465e-002
 4.303480705518117e-001	 9.247710588133132e-001	-2.537883870767779e-002
 4.204287105470165e-001	 9.293226871849586e-001	-7.495985142382869e-002
 4.104806612232351e-001	 9.337593710554043e-001	-1.174093427338457e-001
 4.005058468391652e-001	 9.380810070988839e-001	-1.521035714881470e-001
 5.020782954701594e-001	 8.955240476976104e-001	 6.464904125154803e-001
 4.923507386759972e-001	 9.009088257812433e-001	 5.616767842195517e-001
 4.825806734066672e-001	 9.061798259842970e-001	 4.784620349982884e-001
 4.727700469511016e-001	 9.113366452130507e-001	 3.977116873284047e-001
 4.629208085631789e-001	 9.163789237032390e-001	 3.202738214412840e-001
 4.530349082885371e-001	 9.213063448799161e-001	 2.469751825625565e-001
 4.431142958023703e-001	 9.261186351803302e-001	 1.786176077703182e-001
 4.331609192595093e-001	 9.308155638404513e-001	 1.159747901972921e-001
 4.231767241580722e-001	 9.353969426458795e-001	 5.978939485382133e-002
 4.131636522179139e-001	 9.398626256478790e-001	 1.077053689192433e-002
 4.031236402750705e-001	 9.442125088453360e-001	-3.040837030792437e-002
 5.053387040584731e-001	 9.013394241549870e-001	 8.259681324302257e-001
 4.955479782130489e-001	 9.067591700446656e-001	 7.360416715948269e-001
 4.857144678499549e-001	 9.120643992000406e-001	 6.473764406714243e-001
 4.758401329034515e-001	 9.172547059097932e-001	 5.608927379914271e-001
 4.659269352855038e-001	 9.223297280734328e-001	 4.774931404950971e-001
 4.559768377049800e-001	 9.272891470602538e-001	 3.980583869769246e-001
 4.459918024978971e-001	 9.321326875310545e-001	 3.234435977509554e-001
 4.359737904700380e-001	 9.368601172232868e-001	 2.544748492615487e-001
 4.259247597532195e-001	 9.414712467003407e-001	 1.919461185615672e-001
 4.158466646764604e-001	 9.459659290657336e-001	 1.366166089669314e-001
 4.057414546532461e-001	 9.503440596430081e-001	 8.920846460592617e-002
 5.085991330241642e-001	 9.071548369579943e-001	 1.000657561486238e+000
 4.987452377327623e-001	 9.126095508722854e-001	 9.058740936522267e-001
 4.888482818794178e-001	 9.179490091938971e-001	 8.120183002106850e-001
 4.789102380438053e-001	 9.231728035939005e-001	 7.200645250575576e-001
 4.689330807960657e-001	 9.282805696355722e-001	 6.309690962290516e-001
 4.589187855083844e-001	 9.332719866324375e-001	 5.456659801389936e-001
 4.488693271776904e-001	 9.381467774688427e-001	 4.650627896369509e-001
 4.387866792608043e-001	 9.429047083837145e-001	 3.900371652400256e-001
 4.286728125233300e-001	 9.475455887182309e-001	 3.214335451220086e-001
 4.185296939035370e-001	 9.520692706281645e-001	 2.600603356663532e-001
 4.083592853924475e-001	 9.564756487617137e-001	 2.066874906382579e-001
 5.118595766615219e-001	 9.129702759292612e-001	 1.170439402982181e+000
 5.019425116399385e-001	 9.184599580255562e-001	 1.071057002525393e+000
 4.919821100108620e-001	 9.238336456674511e-001	 9.722734037404233e-001
 4.819803569994456e-001	 9.290909279083980e-001	 8.751163110457425e-001
 4.719392398340696e-001	 9.342314379754317e-001	 7.805951001532027e-001
 4.618607465502998e-001	 9.392548531263044e-001	 6.896962380824891e-001
 4.517468648060402e-001	 9.441608944689036e-001	 6.033790750293441e-001
 4.415995807092140e-001	 9.489493267436284e-001	 5.225720282793559e-001
 4.314208776592748e-001	 9.536199580694414e-001	 4.481691744328908e-001
 4.212127352038066e-001	 9.581726396543681e-001	 3.810272622573945e-001
 4.109771279114304e-001	 9.626072654712644e-001	 3.219631545638896e-001
 5.151200292648354e-001	 9.187857308914156e-001	 1.335190375945197e+000
 5.051397943393787e-001	 9.243103812659328e-001	 1.231469193680740e+000
 4.951159467600947e-001	 9.297182983222888e-001	 1.128023207612932e+000
 4.850504843976560e-001	 9.350090684963112e-001	 1.025932843462170e+000
 4.749454071387204e-001	 9.401823226787877e-001	 9.262598639046443e-001
 4.648027156822748e-001	 9.452377360716912e-001	 8.300425489589763e-001
 4.546244103472374e-001	 9.501750280064465e-001	 7.382912669007954e-001
 4.444124898926736e-001	 9.549939617249218e-001	 6.519844567671901e-001
 4.341689503519256e-001	 9.596943441238608e-001	 5.720650394110478e-001
 4.238957838819312e-001	 9.642760254635410e-001	 4.994372699424767e-001
 4.135949776289506e-001	 9.687388990414730e-001	 4.349640403114091e-001
 5.183804851283935e-001	 9.246011916670867e-001	 1.494783533276166e+000
 5.083370802358834e-001	 9.301608103548681e-001	 1.386985614351039e+000
 4.982497866429231e-001	 9.356029568599945e-001	 1.279145133533695e+000
 4.881206148657190e-001	 9.409272150006649e-001	 1.172394645042242e+000
 4.779515774492233e-001	 9.461332133314151e-001	 1.067847681068484e+000
 4.677446877558582e-001	 9.512206249984340e-001	 9.665936869230818e-001
 4.575019587655727e-001	 9.561891675566812e-001	 8.696933660572382e-001
 4.472254018885886e-001	 9.610386027494881e-001	 7.781744569086824e-001
 4.369170257921534e-001	 9.657687362513792e-001	 6.930279592445942e-001
 4.265788352425740e-001	 9.703794173748794e-001	 6.152048233755850e-001
 4.162128299637635e-001	 9.748705387421515e-001	 5.456131113508315e-001
 5.216409385464856e-001	 9.304166480789027e-001	 1.649088574552789e+000
 5.115343637342540e-001	 9.360112350538160e-001	 1.537477666710737e+000
 5.013836241751540e-001	 9.414876109821543e-001	 1.425512862493028e+000
 4.911907430309177e-001	 9.468453570644847e-001	 1.314378298860614e+000
 4.809577455047829e-001	 9.520840995190897e-001	 1.205238703907959e+000
 4.706866576225989e-001	 9.572035094363699e-001	 1.099234080955428e+000
 4.603795050253364e-001	 9.622033025948157e-001	 9.974748225520017e-001
 4.500383117743657e-001	 9.670832392392221e-001	 9.010372772554617e-001
 4.396650991708301e-001	 9.718431238218864e-001	 8.109597875854987e-001
 4.292618845903969e-001	 9.764828047075796e-001	 7.282392130822378e-001
 4.188306803346252e-001	 9.810021738431126e-001	 6.538279479348651e-001
 3.926526379975132e-001	 9.196869034687285e-001	-5.291619681059226e-001
 3.828475801467559e-001	 9.238115574925391e-001	-5.381433207935079e-001
 3.730200306188907e-001	 9.278233049990166e-001	-5.450374251648481e-001
 3.631718566724362e-001	 9.317221658209343e-001	-5.495550042643590e-001
 3.533049166519174e-001	 9.355081991183117e-001	-5.514489316335184e-001
 3.434210590039752e-001	 9.391815029145867e-001	-5.505136672954969e-001
 3.335221213151299e-001	 9.427422136050959e-001	-5.465844136686614e-001
 3.236099293720238e-001	 9.461905054388913e-001	-5.395360046170720e-001
 3.136862962449284e-001	 9.495265899749484e-001	-5.292815427374433e-001
 3.037530213952426e-001	 9.527507155138413e-001	-5.157708017502301e-001
 2.938118898076575e-001	 9.558631665059840e-001	-4.989884124127956e-001
 3.952703411191423e-001	 9.258181936803929e-001	-4.015233814239130e-001
 3.853999157449427e-001	 9.299703455962171e-001	-4.176524132401902e-001
 3.755068487477795e-001	 9.340088382791361e-001	-4.317175798825746e-001
 3.655930198347078e-001	 9.379336916941498e-001	-4.434080573006521e-001
 3.556602997393610e-001	 9.417449653956880e-001	-4.524560523620362e-001
 3.457105492315029e-001	 9.454427580606899e-001	-4.586362402376955e-001
 3.357456181483737e-001	 9.490272069938094e-001	-4.617649078921912e-001
 3.257673444486692e-001	 9.524984876057723e-001	-4.616988174684216e-001
 3.157775532899376e-001	 9.558568128659655e-001	-4.583338053328299e-001
 3.057780561301270e-001	 9.591024327303190e-001	-4.516031344154279e-001
 2.957706498539659e-001	 9.622356335456042e-001	-4.414756190771181e-001
 3.978880789267743e-001	 9.319495651338405e-001	-2.758240603151768e-001
 3.879522851630236e-001	 9.361292153058038e-001	-2.988778679167676e-001
 3.779936998285092e-001	 9.401944535193617e-001	-3.198928664960621e-001
 3.680142150789770e-001	 9.441452998717373e-001	-3.385365741647787e-001
 3.580157140373226e-001	 9.479818143117705e-001	-3.545205236927097e-001
 3.480000697965839e-001	 9.517040961699057e-001	-3.675997002651965e-001
 3.379691444448735e-001	 9.553122836601184e-001	-3.775716708659055e-001
 3.279247881130917e-001	 9.588065533548228e-001	-3.842754196695513e-001
 3.178688380462120e-001	 9.621871196338281e-001	-3.875899059333004e-001
 3.078031176988808e-001	 9.654542341084373e-001	-3.874323627879872e-001
 2.977294358560106e-001	 9.686081850217986e-001	-3.837563570330523e-001
 4.005058468391652e-001	 9.380810070988839e-001	-1.521035714881470e-001
 3.905046839341429e-001	 9.422881558430289e-001	-1.818492497450219e-001
 3.804805795088713e-001	 9.463801398946492e-001	-2.095830288186141e-001
 3.704354381679195e-001	 9.503569794831879e-001	-2.349506714212416e-001
 3.603711554235785e-001	 9.542187349518962e-001	-2.576430445921690e-001
 3.502896166922933e-001	 9.579655062847261e-001	-2.773955567616548e-001
 3.401926963131793e-001	 9.615974326049814e-001	-2.939872712885400e-001
 3.300822565894714e-001	 9.651146916467712e-001	-3.072397114815456e-001
 3.199601468536990e-001	 9.685174992003410e-001	-3.170153743235388e-001
 3.098282025573360e-001	 9.718061085323820e-001	-3.232159721281572e-001
 2.996882443856060e-001	 9.749808097824353e-001	-3.257804231185702e-001
 4.031236402750705e-001	 9.442125088453360e-001	-3.040837030792437e-002
 3.930571075914455e-001	 9.484471564296215e-001	-6.660318162862847e-002
 3.829674834366572e-001	 9.525658865799537e-001	-1.008150142868983e-001
 3.728566848642111e-001	 9.565687196579940e-001	-1.326677907577413e-001
 3.627266197759061e-001	 9.604557164014029e-001	-1.618317361322459e-001
 3.525791859117053e-001	 9.642269774476432e-001	-1.880228134014219e-001
 3.424162698618394e-001	 9.678826428293534e-001	-2.110018193568529e-001
 3.322397461019883e-001	 9.714228914423454e-001	-2.305731567855295e-001
 3.220514760523470e-001	 9.748479404873101e-001	-2.465833009427060e-001
 3.118533071613252e-001	 9.781580448863387e-001	-2.589189803740812e-001
 3.016470720145669e-001	 9.813534966753823e-001	-2.675050940249779e-001
 4.057414546532461e-001	 9.503440596430081e-001	 8.920846460592642e-002
 3.956095516680765e-001	 9.546062062873115e-001	 4.681691630824088e-002
 3.854544072596587e-001	 9.587516827502316e-001	 6.377281976297390e-003
 3.752779509305275e-001	 9.627805095256463e-001	-3.171244804158452e-002
 3.650821029720817e-001	 9.666927477456272e-001	-6.710189571919399e-002
 3.548687734478946e-001	 9.704884987011498e-001	-9.948772772677861e-002
 3.446398611994030e-001	 9.741679033341915e-001	-1.286127318561280e-001
 3.343972528748223e-001	 9.777311417022727e-001	-1.542645538680544e-001
 3.241428219821034e-001	 9.811784324165394e-001	-1.762741135335706e-001
 3.138784279666810e-001	 9.845100320544937e-001	-1.945137208308721e-001
 3.036059153147077e-001	 9.877262345485073e-001	-2.088949152049985e-001
 4.083592853924475e-001	 9.564756487617137e-001	 2.066874906382558e-001
 3.981620116971802e-001	 9.607652946378276e-001	 1.583610812691813e-001
 3.879413466256668e-001	 9.649375175804381e-001	 1.119532668410776e-001
 3.776992321295443e-001	 9.689923382156370e-001	 6.788401132308379e-002
 3.674376008898820e-001	 9.729298180699069e-001	 2.652424235595613e-002
 3.571583752939361e-001	 9.767500590877388e-001	-1.180357705016636e-002
 3.468634664344191e-001	 9.804532031204520e-001	-4.682450357768238e-002
 3.365547731321534e-001	 9.840394313872817e-001	-7.830981250717432e-002
 3.262341809829161e-001	 9.875089639098348e-001	-1.060753600619960e-001
 3.159035614292355e-001	 9.908620589210325e-001	-1.299796310815759e-001
 3.055647708578432e-001	 9.940990122496792e-001	-1.499214959339166e-001
 4.109771279114304e-001	 9.626072654712644e-001	 3.219631545638899e-001
 4.007144832119015e-001	 9.669244107029007e-001	 2.679730564011484e-001
 3.904282971824738e-001	 9.711233802455289e-001	 2.158658928640072e-001
 3.801205242239372e-001	 9.752041948574575e-001	 1.660836510200110e-001
 3.697931094070843e-001	 9.791669164595790e-001	 1.190177403263403e-001
 3.594479874429040e-001	 9.830116476499022e-001	 7.500956959129825e-002
 3.490870816754368e-001	 9.867385311890911e-001	 3.435151521961589e-002
 3.387123030981619e-001	 9.903477494580995e-001	-2.711737087100785e-003
 3.283255493947325e-001	 9.938395238890009e-001	-3.598149762748429e-002
 3.179287040048215e-001	 9.972141143701416e-001	-6.530304784075579e-002
 3.075236352157878e-001	 1.000471818626765e+000	-9.056331025602024e-002
 4.135949776289506e-001	 9.687388990414730e-001	 4.349640403114093e-001
 4.032669617453852e-001	 9.730835437042587e-001	 3.755905337298006e-001
 3.929152545778705e-001	 9.773092599204601e-001	 3.180618962568685e-001
 3.825418229763816e-001	 9.814160685805988e-001	 2.628421766875353e-001
 3.721486244014648e-001	 9.854040319999809e-001	 2.103431845777132e-001
 3.617376058878729e-001	 9.892732534301327e-001	 1.609250736956261e-001
 3.513107030310049e-001	 9.930238765410654e-001	 1.148973355685159e-001
 3.408698389970276e-001	 9.966560848754543e-001	 7.252018452631721e-002
 3.304169235575002e-001	 1.000170101275843e+000	 3.400631289634602e-002
 3.199538521492713e-001	 1.003566187286006e+000	-4.770074924155497e-004
 3.094825049603561e-001	 1.006844642527633e+000	-3.080550354991825e-002
 4.162128299637635e-001	 9.748705387421515e-001	 5.456131113508320e-001
 4.058194428307755e-001	 9.792426828636313e-001	 4.811453916638424e-001
 3.954022144596490e-001	 9.834951457801872e-001	 4.184820293810121e-001
 3.849631241495536e-001	 9.876279485145534e-001	 3.581091632785894e-001
 3.745041417508007e-001	 9.916411537764501e-001	 3.004589077540105e-001
 3.640272266219177e-001	 9.955348654709233e-001	 2.459099440245263e-001
 3.535343266096725e-001	 9.993092281773317e-001	 1.947885410252784e-001
 3.430273770529304e-001	 1.002964426600074e+000	 1.473699866045309e-001
 3.325082998111676e-001	 1.006500684992165e+000	 1.038804067458354e-001
 3.219790023184175e-001	 1.009918266552814e+000	 6.449894794073810e-002
 3.114413766633628e-001	 1.013217472800151e+000	 2.936029552563775e-002
 4.188306803346252e-001	 9.810021738431126e-001	 6.538279479348651e-001
 4.083719220012180e-001	 9.854018174027490e-001	 5.845639273000000e-001
 3.978891724756005e-001	 9.896810269996651e-001	 5.170612880000359e-001
 3.873844235061284e-001	 9.938398237888120e-001	 4.518282771495530e-001
 3.768596573328685e-001	 9.978782708743236e-001	 3.893172055714512e-001
 3.663168456381126e-001	 1.001796472814765e+000	 3.299250480359636e-001
 3.557579485199885e-001	 1.005594575098846e+000	 2.739944936123281e-001
 3.451849134900506e-001	 1.009272763592686e+000	 2.218154259009271e-001
 3.345996744956820e-001	 1.012831263959774e+000	 1.736268099095127e-001
 3.240041509680921e-001	 1.016270341054748e+000	 1.296189596294971e-001
 3.134002468966224e-001	 1.019590298292188e+000	 8.993615794848694e-002
 2.938118898076575e-001	 9.558631665059840e-001	-4.989884124127956e-001
 2.838646710056857e-001	 9.588642626988490e-001	-4.800482753122098e-001
 2.739131178235836e-001	 9.617543577873683e-001	-4.601221629804467e-001
 2.639589660669879e-001	 9.645338394785438e-001	-4.393257501964721e-001
 2.540039338948808e-001	 9.672031290579124e-001	-4.177982736968997e-001
 2.440497210832210e-001	 9.697626806991601e-001	-3.956997681232475e-001
 2.340980083161345e-001	 9.722129807570793e-001	-3.732082256968884e-001
 2.241504565049763e-001	 9.745545470450379e-001	-3.505167033203021e-001
 2.142087061355221e-001	 9.767879280981019e-001	-3.278304007029102e-001
 2.042743766435053e-001	 9.789137024229727e-001	-3.053637328016881e-001
 1.943490658186562e-001	 9.809324777358748e-001	-2.833374194031477e-001
 2.957706498539659e-001	 9.622356335456042e-001	-4.414756190771181e-001
 2.857571157819154e-001	 9.652567371909585e-001	-4.290522560969295e-001
 2.757392184338695e-001	 9.681660997192729e-001	-4.154941402614298e-001
 2.657187051875654e-001	 9.709641114222508e-001	-4.009057798474636e-001
 2.556973056564410e-001	 9.736511963939908e-001	-3.854162599003178e-001
 2.456767309483562e-001	 9.762278118359934e-001	-3.691763549963109e-001
 2.356586729520586e-001	 9.786944473454122e-001	-3.523555601389576e-001
 2.256448036517056e-001	 9.810516241876995e-001	-3.351390646464320e-001
 2.156367744697043e-001	 9.832998945548199e-001	-3.177246937602277e-001
 2.056362156380844e-001	 9.854398408101844e-001	-3.003198424158662e-001
 1.956447355985657e-001	 9.874720747214627e-001	-2.831384251276841e-001
 2.977294358560106e-001	 9.686081850217986e-001	-3.837563570330523e-001
 2.876495856351602e-001	 9.716492963847403e-001	-3.776555789946832e-001
 2.775653432420190e-001	 9.745779266081482e-001	-3.702849310203885e-001
 2.674784676265833e-001	 9.773944685684661e-001	-3.617367301621486e-001
 2.573906998569036e-001	 9.800993491683967e-001	-3.521288987464645e-001
 2.473037623728963e-001	 9.826930286373037e-001	-3.416019519605254e-001
 2.372193582680847e-001	 9.851759998147480e-001	-3.303158976898184e-001
 2.271391705995806e-001	 9.875487874183182e-001	-3.184470746467706e-001
 2.170648617265720e-001	 9.898119472969311e-001	-3.061849547110832e-001
 2.069980726775334e-001	 9.919660656707664e-001	-2.937289350933228e-001
 1.969404225463201e-001	 9.940117583589936e-001	-2.812851454435684e-001
 2.996882443856060e-001	 9.749808097824353e-001	-3.257804231185702e-001
 2.895420772532948e-001	 9.780419290930430e-001	-3.258001128636918e-001
 2.793914890520229e-001	 9.809898272331150e-001	-3.244276678411686e-001
 2.692382503041846e-001	 9.838248996638738e-001	-3.217422630654925e-001
 2.590841135325783e-001	 9.865475760966606e-001	-3.178497233067227e-001
 2.489308125093126e-001	 9.891583197887439e-001	-3.128793832849532e-001
 2.387800615328193e-001	 9.916576268221344e-001	-3.069808539391659e-001
 2.286335547332959e-001	 9.940460253666024e-001	-3.003207220236074e-001
 2.184929654068420e-001	 9.963240749280637e-001	-2.930792101805996e-001
 2.083599453785053e-001	 9.984923655835142e-001	-2.854468243207352e-001
 1.982361243944031e-001	 1.000551517203678e+000	-2.776210146273570e-001
 3.016470720145669e-001	 9.813534966753823e-001	-2.675050940249779e-001
 2.914345873241932e-001	 9.844346241287142e-001	-2.734351452962941e-001
 2.812176526678725e-001	 9.874017903732959e-001	-2.778628485973950e-001
 2.709980501405125e-001	 9.902553934551568e-001	-2.808533594049519e-001
 2.607775437197758e-001	 9.929958658943122e-001	-2.824995457368316e-001
 2.505578785100766e-001	 9.956236739759679e-001	-2.829187185232368e-001
 2.403407800148684e-001	 9.981393170246208e-001	-2.822492615631658e-001
 2.301279534375462e-001	 1.000543326662260e+000	-2.806471895766669e-001
 2.199210830112309e-001	 1.002836266051843e+000	-2.782826627714027e-001
 2.097218313576528e-001	 1.005018729127225e+000	-2.753364860096793e-001
 1.995318388752979e-001	 1.007091339810725e+000	-2.719966201333238e-001
 3.036059153147077e-001	 9.877262345485073e-001	-2.088949152049985e-001
 2.933271125357299e-001	 9.908273703046017e-001	-2.205171773966499e-001
 2.830438308935587e-001	 9.938138048078122e-001	-2.305381362515144e-001
 2.727578640557102e-001	 9.966859386890001e-001	-2.390081229530242e-001
 2.624709874548061e-001	 9.994442072768820e-001	-2.460062647061926e-001
 2.521849575276598e-001	 1.002089079884629e+000	-2.516370826277119e-001
 2.419015109828384e-001	 1.004621059079254e+000	-2.560269824151851e-001
 2.316223640970263e-001	 1.007040679935001e+000	-2.593206676034880e-001
 2.213492120404560e-001	 1.009348509271898e+000	-2.616775051395544e-001
 2.110837282316287e-001	 1.011545144880695e+000	-2.632678726558355e-001
 2.008275637214882e-001	 1.013631214735347e+000	-2.642695162863845e-001
 3.055647708578432e-001	 9.940990122496792e-001	-1.499214959339166e-001
 2.952196495757796e-001	 9.972201564335543e-001	-1.670097246528675e-001
 2.848700205330725e-001	 1.000225859315786e+000	-1.824081647121939e-001
 2.745176889699210e-001	 1.003116524112087e+000	-1.961515904592192e-001
 2.641644417739796e-001	 1.005892588959899e+000	-2.083046788827241e-001
 2.538120467145333e-001	 1.008554526200379e+000	-2.189584721445792e-001
 2.434622517053356e-001	 1.011102841643083e+000	-2.282267257439237e-001
 2.331167840964309e-001	 1.013538073814532e+000	-2.362421734906760e-001
 2.227773499952337e-001	 1.015860793191854e+000	-2.431527403459168e-001
 2.124456336170860e-001	 1.018071601422721e+000	-2.491177338732106e-001
 2.021232966654573e-001	 1.020171130532752e+000	-2.543040444583406e-001
 3.075236352157878e-001	 1.000471818626765e+000	-9.056331025602024e-002
 2.971121951322163e-001	 1.003612971328419e+000	-1.128831236350602e-001
 2.866962183904045e-001	 1.006637942676338e+000	-1.334343504832444e-001
 2.762775218032881e-001	 1.009547138471104e+000	-1.522355474767412e-001
 2.658579037136064e-001	 1.012340999658894e+000	-1.693363062056117e-001
 2.554391432231687e-001	 1.015020001608872e+000	-1.848135772252811e-001
 2.450229994509663e-001	 1.017584653373157e+000	-1.987678722771404e-001
 2.346112108204548e-001	 1.020035496930563e+000	-2.113193772296891e-001
 2.242054943762811e-001	 1.022373106415339e+000	-2.226040082058778e-001
 2.138075451306775e-001	 1.024598087332100e+000	-2.327694430167242e-001
 2.034190354396886e-001	 1.026711075758151e+000	-2.419711594400492e-001
 3.094825049603561e-001	 1.006844642527633e+000	-3.080550354991825e-002
 2.990047458929149e-001	 1.010005803802045e+000	-5.811434426034660e-002
 2.885224212695463e-001	 1.013050043668592e+000	-8.358470984447920e-002
 2.780373594759547e-001	 1.015977770512732e+000	-1.072183497162291e-001
 2.675513703099966e-001	 1.018789428089395e+000	-1.290492086856508e-001
 2.570662442060374e-001	 1.021485494795763e+000	-1.491396091938494e-001
 2.465837514883368e-001	 1.024066482926523e+000	-1.675763038966447e-001
 2.361056416537927e-001	 1.026532937912801e+000	-1.844664325885257e-001
 2.256336426843149e-001	 1.028885437545979e+000	-1.999334173719577e-001
 2.151694603890562e-001	 1.031124591187629e+000	-2.141128296257980e-001
 2.047147777766657e-001	 1.033251038966754e+000	-2.271482617314756e-001
 3.114413766633628e-001	 1.013217472800151e+000	 2.936029552563775e-002
 3.008972985457494e-001	 1.016398642667280e+000	-2.686807381185893e-003
 2.903486259744884e-001	 1.019462151071667e+000	-3.283368132924397e-002
 2.797971989080638e-001	 1.022408408983658e+000	-6.106474967510551e-002
 2.692448385994606e-001	 1.025237862966934e+000	-8.739782249458650e-002
 2.586933468156106e-001	 1.027950994446703e+000	-1.118801334235805e-001
 2.481445050860534e-001	 1.030548318960231e+000	-1.345842386725119e-001
 2.376000739811394e-001	 1.033030385390956e+000	-1.556038136943517e-001
 2.270617924200520e-001	 1.035397775187402e+000	-1.750493828962038e-001
 2.165313770088748e-001	 1.037651101568105e+000	-1.930440174318550e-001
 2.060105214088719e-001	 1.039791008713771e+000	-2.097190354933490e-001
 3.134002468966224e-001	 1.019590298292188e+000	 8.993615794848694e-002
 3.027898497785945e-001	 1.022791476736971e+000	 5.340979253506800e-002
 2.921748293092217e-001	 1.025874253664687e+000	 1.883804674294507e-002
 2.815570370197590e-001	 1.028839042630564e+000	-1.374572831819058e-002
 2.709383056183087e-001	 1.031686293007040e+000	-4.434279310971749e-002
 2.603204482043598e-001	 1.034416489247346e+000	-7.298490729529547e-002
 2.497052575127223e-001	 1.037030150131326e+000	-9.973007101194395e-002
 2.390945051871896e-001	 1.039527827994735e+000	-1.246581567872717e-001
 2.284899410842091e-001	 1.041910107943235e+000	-1.478664690341134e-001
 2.178932926067863e-001	 1.044177607052323e+000	-1.694652676857952e-001
 2.073062640687906e-001	 1.046330973554413e+000	-1.895732919092274e-001
 1.943490658186562e-001	 9.809324777358748e-001	-2.833374194031477e-001
 1.844358351184653e-001	 9.828446114249160e-001	-2.613419571682076e-001
 1.745347453506193e-001	 9.846510785005697e-001	-2.390047201665334e-001
 1.646473231798204e-001	 9.863525701375676e-001	-2.166148620639646e-001
 1.547750715930049e-001	 9.879498035443917e-001	-1.944598831443589e-001
 1.449194694473043e-001	 9.894435211587169e-001	-1.728230955994945e-001
 1.350819710464206e-001	 9.908344898374509e-001	-1.519812187970840e-001
 1.252640057452698e-001	 9.921235000424143e-001	-1.322021202096604e-001
 1.154669775827054e-001	 9.933113650226918e-001	-1.137427162270473e-001
 1.056922649420928e-001	 9.943989199946589e-001	-9.684704557726503e-002
 9.594122023947826e-002	 9.953870213206723e-001	-8.174452650501582e-002
 1.956447355985657e-001	 9.874720747214627e-001	-2.831384251276841e-001
 1.856654162184739e-001	 9.893969560593556e-001	-2.657857873960187e-001
 1.756983187108200e-001	 9.912154663345144e-001	-2.479070678381234e-001
 1.657449799180722e-001	 9.929283013296114e-001	-2.297864628409835e-001
 1.558069128470812e-001	 9.945361830346293e-001	-2.117057849596993e-001
 1.458856062140271e-001	 9.960398588369379e-001	-1.939418065101980e-001
 1.359825240179708e-001	 9.974401007059351e-001	-1.767637385701903e-001
 1.260991051428619e-001	 9.987377043732978e-001	-1.604308618587982e-001
 1.162367629878135e-001	 9.999334885098822e-001	-1.451903244602255e-001
 1.063968851254137e-001	 1.001028293900284e+000	-1.312751197868197e-001
 9.658083298781611e-002	 1.002022982616054e+000	-1.189022565400662e-001
 1.969404225463201e-001	 9.940117583589936e-001	-2.812851454435684e-001
 1.868950136103707e-001	 9.959493875149437e-001	-2.684701558800680e-001
 1.768619074880390e-001	 9.977799411495164e-001	-2.549443592211149e-001
 1.668426511997103e-001	 9.995041196533726e-001	-2.409877282961623e-001
 1.568387677722974e-001	 1.001122649798042e+000	-2.268771147910815e-001
 1.468517557811748e-001	 1.002636283920640e+000	-2.128834648649247e-001
 1.368830889209058e-001	 1.004045799103106e+000	-1.992691757344661e-001
 1.269342156046144e-001	 1.005351996347030e+000	-1.862856105353246e-001
 1.170065585918118e-001	 1.006555699745095e+000	-1.741707871961852e-001
 1.071015146444448e-001	 1.007657755650177e+000	-1.631472554139602e-001
 9.722045421090786e-002	 1.008659031843079e+000	-1.534201741367513e-001
 1.982361243944031e-001	 1.000551517203678e+000	-2.776210146273570e-001
 1.881246251423275e-001	 1.002501894324542e+000	-2.692263352966281e-001
 1.780255096459927e-001	 1.004344491457321e+000	-2.599362796953965e-001
 1.679403351038314e-001	 1.006080013600702e+000	-2.500273813799965e-001
 1.578706345629475e-001	 1.007709192307800e+000	-2.397723083803306e-001
 1.478179164580372e-001	 1.009232784865521e+000	-2.294369443430699e-001
 1.377836641792907e-001	 1.010651573468392e+000	-2.192776163474695e-001
 1.277693356691293e-001	 1.011966364387960e+000	-2.095384875739888e-001
 1.177763630475827e-001	 1.013177987138785e+000	-2.004491313638074e-001
 1.078061522660752e-001	 1.014287293642074e+000	-1.922223014939419e-001
 9.786008278935783e-002	 1.015295157387938e+000	-1.850519117264454e-001
 1.995318388752979e-001	 1.007091339810725e+000	-2.719966201333233e-001
 1.893542486625164e-001	 1.009054465021015e+000	-2.678927386475066e-001
 1.791891231483970e-001	 1.010909105769675e+000	-2.627096312545155e-001
 1.690380297095316e-001	 1.012655971663448e+000	-2.567212278682850e-001
 1.589025114133255e-001	 1.014295799037075e+000	-2.501968412389699e-001
 1.487840865539039e-001	 1.015829350127281e+000	-2.433981069082462e-001
 1.386842482171906e-001	 1.017257412241222e+000	-2.365760756915560e-001
 1.286044638750086e-001	 1.018580796920438e+000	-2.299684777738090e-001
 1.185461750080089e-001	 1.019800339101411e+000	-2.237971757879425e-001
 1.085107967571939e-001	 1.020916896273717e+000	-2.182658224719855e-001
 9.849971760377026e-002	 1.021931347636820e+000	-2.135577366500467e-001
 2.008275637214882e-001	 1.013631214735347e+000	-2.642695162863851e-001
 1.905838820191091e-001	 1.015607088137226e+000	-2.643147322225219e-001
 1.803527459589679e-001	 1.017473772598322e+000	-2.630981447431245e-001
 1.701357330959078e-001	 1.019231982333462e+000	-2.608919678899511e-001
 1.599343965177253e-001	 1.020882458459035e+000	-2.579630394924627e-001
 1.497502643780647e-001	 1.022425968161619e+000	-2.545696130055077e-001
 1.395848394586707e-001	 1.023863303861022e+000	-2.509583078777239e-001
 1.294395987608545e-001	 1.025195282368815e+000	-2.473612384734914e-001
 1.193159931259730e-001	 1.026422744043428e+000	-2.439933398038498e-001
 1.092154468846898e-001	 1.027546551942844e+000	-2.410499064470069e-001
 9.913935753474938e-002	 1.028567590975912e+000	-2.387043591291808e-001
 2.021232966654573e-001	 1.020171130532752e+000	-2.543040444583401e-001
 1.918135230602776e-001	 1.022159752206037e+000	-2.583444551587835e-001
 1.815163760414217e-001	 1.024038480455009e+000	-2.609422987963038e-001
 1.712334433420562e-001	 1.025808034102595e+000	-2.623690142507859e-001
 1.609662880704411e-001	 1.027469159046853e+000	-2.628898976097803e-001
 1.507164482398093e-001	 1.029022627424234e+000	-2.627607387314727e-001
 1.404854363277963e-001	 1.030469236767222e+000	-2.622246224922066e-001
 1.302747388652690e-001	 1.031809809157441e+000	-2.615089157296140e-001
 1.200858160543574e-001	 1.033045190375292e+000	-2.608224590375416e-001
 1.099201014154522e-001	 1.034176249047193e+000	-2.603529806290251e-001
 9.977900146289952e-002	 1.035203875791404e+000	-2.602647474881045e-001
 2.034190354396886e-001	 1.026711075758151e+000	-2.419711594400487e-001
 1.930431696341939e-001	 1.028712445760311e+000	-2.498406453009938e-001
 1.826800113594743e-001	 1.030603217851480e+000	-2.560891451764812e-001
 1.723311585270733e-001	 1.032384115462696e+000	-2.609883172522948e-001
 1.619981842657667e-001	 1.034055889273698e+000	-2.648029027161143e-001
 1.516826364484275e-001	 1.035619316370825e+000	-2.677871996584616e-001
 1.413860372486324e-001	 1.037075199399251e+000	-2.701817079733743e-001
 1.311098827268542e-001	 1.038424365710664e+000	-2.722099672893851e-001
 1.208556424460448e-001	 1.039667666507461e+000	-2.740756080292709e-001
 1.106247591163698e-001	 1.040805975984504e+000	-2.759596336851560e-001
 1.004186482688248e-001	 1.041840190469484e+000	-2.780179503062342e-001
 2.047147777766657e-001	 1.033251038966754e+000	-2.271482617314756e-001
 1.942728195890298e-001	 1.035265157332913e+000	-2.386684710830012e-001
 1.838436498768419e-001	 1.037167973299481e+000	-2.483921402326703e-001
 1.734288767300559e-001	 1.038960214905615e+000	-2.565921957201268e-001
 1.630300832979960e-001	 1.040642637612742e+000	-2.635338651922901e-001
 1.526488273132089e-001	 1.042216023457091e+000	-2.694709810246769e-001
 1.422866406452442e-001	 1.043681180196535e+000	-2.746424614166049e-001
 1.319450288842121e-001	 1.045038940452837e+000	-2.792689920514254e-001
 1.216254709539177e-001	 1.046290160850391e+000	-2.835499294025237e-001
 1.113294187543320e-001	 1.047435721152516e+000	-2.876604446748139e-001
 1.010582968331297e-001	 1.048476523396341e+000	-2.917489251934936e-001
 2.060105214088719e-001	 1.039791008713771e+000	-2.097190354933490e-001
 1.955024707729572e-001	 1.041817875456704e+000	-2.246993691701008e-001
 1.850072895572406e-001	 1.043732735310757e+000	-2.377109822069105e-001
 1.745265960301002e-001	 1.045536320923203e+000	-2.490291739628408e-001
 1.640619833614233e-001	 1.047229392537153e+000	-2.589207552875678e-001
 1.536150191434434e-001	 1.048812737138731e+000	-2.676401740092692e-001
 1.431872449416969e-001	 1.050287167598504e+000	-2.754258245316528e-001
 1.327801758759449e-001	 1.051653521808309e+000	-2.824965657347783e-001
 1.223953002308587e-001	 1.052912661814538e+000	-2.890484692865650e-001
 1.120340790962277e-001	 1.054065472948967e+000	-2.952518182852644e-001
 1.016979460364183e-001	 1.055112862958165e+000	-3.012483739001840e-001
 2.073062640687906e-001	 1.046330973554413e+000	-1.895732919092274e-001
 1.967321210341483e-001	 1.048370588664549e+000	-2.078108876031145e-001
 1.861709283643863e-001	 1.050297492397054e+000	-2.239114541348575e-001
 1.756243145063029e-001	 1.052112422007309e+000	-2.381538244088160e-001
 1.650938826503424e-001	 1.053816142520104e+000	-2.508075454830672e-001
 1.545812102484206e-001	 1.055409445871443e+000	-2.621288178243041e-001
 1.440878485620557e-001	 1.056893150044585e+000	-2.723566254766257e-001
 1.336153222406547e-001	 1.058268098201429e+000	-2.817090824821407e-001
 1.231651289297503e-001	 1.059535157810359e+000	-2.903800187240107e-001
 1.127387389089458e-001	 1.060695219771598e+000	-2.985358260863436e-001
 1.023375947592949e-001	 1.061749197541143e+000	-3.063125834836405e-001
 9.594122023947826e-002	 9.953870213206723e-001	-8.174452650501582e-002
 8.621371590998771e-002	 9.962766718121099e-001	-6.812304989848235e-002
 7.651253352126196e-002	 9.970686125683425e-001	-5.561713773821771e-002
 6.683896610081594e-002	 9.977637591031844e-001	-4.434410257653779e-002
 5.719427911104236e-002	 9.983630448185401e-001	-3.440250492394484e-002
 4.757971027342479e-002	 9.988674201817246e-001	-2.587183979837775e-002
 3.799646941872222e-002	 9.992778519071311e-001	-1.881242280463964e-002
 2.844573836262598e-002	 9.995953221430518e-001	-1.326547555840032e-002
 1.892867080636962e-002	 9.998208276644112e-001	-9.253408840639341e-003
 9.446392261750505e-003	 9.999553790721549e-001	-6.780300499155720e-003
 0.000000000000000e+000	 1.000000000000000e+000	-5.832563810824849e-003
 9.658083298781611e-002	 1.002022982616054e+000	-1.189022565400672e-001
 8.678847815970567e-002	 1.002918564154065e+000	-1.077311747996286e-001
 7.702262075288691e-002	 1.003715784554311e+000	-9.738685336820695e-002
 6.728456241542379e-002	 1.004415565433972e+000	-8.800133222235901e-002
 5.757557704648520e-002	 1.005018846417574e+000	-7.968606378912911e-002
 4.789691061938552e-002	 1.005526584308822e+000	-7.253152044422935e-002
 3.824978103077066e-002	 1.005939752266822e+000	-6.660701341415487e-002
 2.863537797544591e-002	 1.006259338987468e+000	-6.196072302808427e-002
 1.905486284632297e-002	 1.006486347890802e+000	-5.861993875655279e-002
 9.509368658941853e-003	 1.006621796315063e+000	-5.659150604134464e-002
 0.000000000000000e+000	 1.006666714718147e+000	-5.586247554800018e-002
 9.722045421090786e-002	 1.008659031843079e+000	-1.534201741367518e-001
 8.736324802543309e-002	 1.009560544506255e+000	-1.446233076078775e-001
 7.753271474417561e-002	 1.010363044620398e+000	-1.363737759258414e-001
 6.773016463579058e-002	 1.011067459906151e+000	-1.288171648774843e-001
 5.795688003626343e-002	 1.011674736210762e+000	-1.220765892579152e-001
 4.821411517077870e-002	 1.012185836674435e+000	-1.162522194849425e-001
 3.850309600190694e-002	 1.012601740901085e+000	-1.114210318137157e-001
 2.882502010360377e-002	 1.012923444134316e+000	-1.076367822224636e-001
 1.918105656049415e-002	 1.013151956439392e+000	-1.049302024716888e-001
 9.572345891894282e-003	 1.013288301891951e+000	-1.033094153257242e-001
 0.000000000000000e+000	 1.013333517774178e+000	-1.027737340521053e-001
 9.786008278935783e-002	 1.015295157387938e+000	-1.850519117264454e-001
 8.793802450119995e-002	 1.016202601244475e+000	-1.785487476318657e-001
 7.804281460226917e-002	 1.017010381133149e+000	-1.723236982195816e-001
 6.817577198184753e-002	 1.017719430878154e+000	-1.665347847740772e-001
 5.833818741277171e-002	 1.018330702549552e+000	-1.613156238933050e-001
 4.853132337212969e-002	 1.018845165624130e+000	-1.567748712378221e-001
 3.875641388844892e-002	 1.019263806150706e+000	-1.529959013901978e-001
 2.901466441486628e-002	 1.019587625920686e+000	-1.500367240408686e-001
 1.930725172774978e-002	 1.019817641644647e+000	-1.479301350704236e-001
 9.635323850220484e-003	 1.019954884135722e+000	-1.466840995087657e-001
 0.000000000000000e+000	 1.020000397500475e+000	-1.462949153873460e-001
 9.849971760377026e-002	 1.021931347636820e+000	-2.135577366500462e-001
 8.851280658103630e-002	 1.022844722744521e+000	-2.092633485855900e-001
 7.855291943430862e-002	 1.023657782459112e+000	-2.049888904405477e-001
 6.862138367352591e-002	 1.024371466708420e+000	-2.009037800378014e-001
 5.871949850840465e-002	 1.024986733785391e+000	-1.971510442578273e-001
 4.884853466796384e-002	 1.025504559503475e+000	-1.938466777700522e-001
 3.900973424671441e-002	 1.025925936356472e+000	-1.910792507117013e-001
 2.920431057700011e-002	 1.026251872683667e+000	-1.889097656991765e-001
 1.943344812695650e-002	 1.026483391841034e+000	-1.873717628031182e-001
 9.698302423533143e-003	 1.026621531379276e+000	-1.864716694762405e-001
 0.000000000000000e+000	 1.026667342229423e+000	-1.862013388690292e-001
 9.913935753474938e-002	 1.028567590975912e+000	-2.387043591291808e-001
 8.908759325897205e-002	 1.029486897382186e+000	-2.365293262987427e-001
 7.906302834743502e-002	 1.030305236964838e+000	-2.341279075462610e-001
 6.906699893075705e-002	 1.031023555755385e+000	-2.316799497279146e-001
 5.910081265555691e-002	 1.031642818269725e+000	-2.293368676252305e-001
 4.916574850280654e-002	 1.032164006658038e+000	-2.272209153305972e-001
 3.926305663302130e-002	 1.032588119859170e+000	-2.254247197701672e-001
 2.939395825777192e-002	 1.032916172760352e+000	-2.240110769120860e-001
 1.955964553698095e-002	 1.033149195363019e+000	-2.230130093760577e-001
 9.761281501444945e-003	 1.033288231955517e+000	-2.224340824315922e-001
 0.000000000000000e+000	 1.033334340293404e+000	-2.222603274672904e-001
 9.977900146289952e-002	 1.035203875791404e+000	-2.602647474881045e-001
 8.966238352903722e-002	 1.036129113533266e+000	-2.601150737107550e-001
 7.957314044878942e-002	 1.036952733016872e+000	-2.595054039638391e-001
 6.951261697347209e-002	 1.037675686377483e+000	-2.586251182233862e-001
 5.948212918662311e-002	 1.038298944354002e+000	-2.576330660582374e-001
 4.948296432118315e-002	 1.038823495433387e+000	-2.566567481721109e-001
 3.951638060368740e-002	 1.039250344999587e+000	-2.557917736307410e-001
 2.958360712494840e-002	 1.039580514487830e+000	-2.551015934912738e-001
 1.968584373668977e-002	 1.039815040545070e+000	-2.546175096487638e-001
 9.824260973568581e-003	 1.039954974197345e+000	-2.543389558900687e-001
 0.000000000000000e+000	 1.040001380024802e+000	-2.542448177247628e-001
 1.004186482688248e-001	 1.041840190469484e+000	-2.780179503062342e-001
 9.023717638526180e-002	 1.042771359573556e+000	-2.797949828260429e-001
 8.008325484551290e-002	 1.043600258981764e+000	-2.808919552860882e-001
 6.995823702160242e-002	 1.044327846933152e+000	-2.815069566300087e-001
 5.986344743399787e-002	 1.044955100389668e+000	-2.818053875360596e-001
 4.980018156761901e-002	 1.045483014175090e+000	-2.819190494397892e-001
 3.976970571503059e-002	 1.045912600118508e+000	-2.819455231594805e-001
 2.977325684629623e-002	 1.046244886203193e+000	-2.819478380232379e-001
 1.981204250494958e-002	 1.046480915721652e+000	-2.819544304144280e-001
 9.887240729516742e-003	 1.046621746437664e+000	-2.819593887336165e-001
 0.000000000000000e+000	 1.046668449755999e+000	-2.819331813091470e-001
 1.010582968331297e-001	 1.048476523396341e+000	-2.917489251934936e-001
 9.081197082167578e-002	 1.049413623878850e+000	-2.953492733276603e-001
 8.059337064474650e-002	 1.050247803226061e+000	-2.980638866533460e-001
 7.040385829507924e-002	 1.050980025780828e+000	-3.000988109012637e-001
 6.024476673007587e-002	 1.051611274728169e+000	-3.016251838167232e-001
 5.011739968663952e-002	 1.052142551228714e+000	-3.027782288120849e-001
 4.002303152336871e-002	 1.052574873556721e+000	-3.036565525165119e-001
 2.996290708958209e-002	 1.052909276243529e+000	-3.043217473216214e-001
 1.993824162062704e-002	 1.053146809227233e+000	-3.047982979446021e-001
 9.950220658902111e-003	 1.053288537009374e+000	-3.050737890294846e-001
 0.000000000000000e+000	 1.053335537819379e+000	-3.051090533030075e-001
 1.016979460364183e-001	 1.055112862958165e+000	-3.012483739001850e-001
 9.138676583230913e-002	 1.056055894824945e+000	-3.065638275527345e-001
 8.110348695363123e-002	 1.056895354116312e+000	-3.108031075290645e-001
 7.084948001383383e-002	 1.057632211278946e+000	-3.141795363771720e-001
 6.062608640725169e-002	 1.058267455720954e+000	-3.168692447403751e-001
 5.043461812277002e-002	 1.058802094939827e+000	-3.190100666024838e-001
 4.027635758501962e-002	 1.059237153655013e+000	-3.207007531212384e-001
 3.015255752257267e-002	 1.059573672945931e+000	-3.220005063539140e-001
 2.006444086258876e-002	 1.059812709396278e+000	-3.229288320143435e-001
 1.001320065133738e-002	 1.059955334245377e+000	-3.234657083099360e-001
 0.000000000000000e+000	 1.060002632547326e+000	-3.235611669357472e-001
 1.023375947592949e-001	 1.061749197541143e+000	-3.063125834836410e-001
 9.196156041119188e-002	 1.062698160787635e+000	-3.132300315549191e-001
 8.161360287930819e-002	 1.063542900019065e+000	-3.188969525877816e-001
 7.129510139779745e-002	 1.064284391785943e+000	-3.235333384628574e-001
 6.100740579791999e-002	 1.064923631719467e+000	-3.273196386921615e-001
 5.075183632053588e-002	 1.065461633653999e+000	-3.303955540363549e-001
 4.052968345630113e-002	 1.065899428754169e+000	-3.328591638044599e-001
 3.034220781303463e-002	 1.066238064647488e+000	-3.347663883623043e-001
 2.019064000970140e-002	 1.066478604563256e+000	-3.361307861138352e-001
 1.007618059643524e-002	 1.066622126478576e+000	-3.369236820336281e-001
 0.000000000000000e+000	 1.066669722272222e+000	-3.370831944795735e-001
 1.066669722272222e+000	 0.000000000000000e+000	 2.455473163657357e+001
 1.066622126478576e+000	 1.007618059643527e-002	 2.453891187545112e+001
 1.066478604563255e+000	 2.019064000970146e-002	 2.452055078298733e+001
 1.066238064647488e+000	 3.034220781303457e-002	 2.449821182274075e+001
 1.065899428754169e+000	 4.052968345630110e-002	 2.447049783729191e+001
 1.065461633653999e+000	 5.075183632053588e-002	 2.443604854117649e+001
 1.064923631719468e+000	 6.100740579792002e-002	 2.439354360497223e+001
 1.064284391785943e+000	 7.129510139779750e-002	 2.434170576899311e+001
 1.063542900019065e+000	 8.161360287930811e-002	 2.427930398202470e+001
 1.062698160787635e+000	 9.196156041119183e-002	 2.420515655991082e+001
 1.061749197541144e+000	 1.023375947592949e-001	 2.411813435813609e+001
 1.073335797538833e+000	 0.000000000000000e+000	 2.424097549220664e+001
 1.073287904298776e+000	 1.013915095835200e-002	 2.422506394495251e+001
 1.073143485453786e+000	 2.031681995409998e-002	 2.420699275611306e+001
 1.072901442301451e+000	 3.053182924600520e-002	 2.418531120617551e+001
 1.072560690127902e+000	 4.078297078120603e-002	 2.415860821702922e+001
 1.072120159059240e+000	 5.106900625009653e-002	 2.412551029532180e+001
 1.071578794920858e+000	 6.138866716680425e-002	 2.408468464527631e+001
 1.070935560103909e+000	 7.174065497586930e-002	 2.403484231343482e+001
 1.070189434438125e+000	 8.212364118570634e-002	 2.397474136089091e+001
 1.069339416070155e+000	 9.253626752940733e-002	 2.390319005792845e+001
 1.068384522346582e+000	 1.029771461534198e-001	 2.381905009529636e+001
 1.080001857806444e+000	 0.000000000000000e+000	 2.393706138749540e+001
 1.079953667120661e+000	 1.020212117838585e-002	 2.392104325003878e+001
 1.079808351348064e+000	 2.044299961424785e-002	 2.390323741363769e+001
 1.079564804962612e+000	 3.072145025188314e-002	 2.388217949974936e+001
 1.079221936513682e+000	 4.103625753571282e-002	 2.385644500761039e+001
 1.078778669482785e+000	 5.138617546550140e-002	 2.382464768547554e+001
 1.078233943148229e+000	 6.176992767733444e-002	 2.378544266989005e+001
 1.077586713456961e+000	 7.218620755096013e-002	 2.373752965938544e+001
 1.076835953902812e+000	 8.263367834407996e-002	 2.367965611830389e+001
 1.075980656410289e+000	 9.311097335415063e-002	 2.361062050579289e+001
 1.075019832223076e+000	 1.036166961082335e-001	 2.352927552429715e+001
 1.086667904741722e+000	 0.000000000000000e+000	 2.364249419855809e+001
 1.086619416610818e+000	 1.026509127233136e-002	 2.362636021509440e+001
 1.086473203912440e+000	 2.056917902178213e-002	 2.360880024162827e+001
 1.086228154296925e+000	 3.091107087819520e-002	 2.358833677808470e+001
 1.085883169576908e+000	 4.128954378328465e-002	 2.356353241163617e+001
 1.085437166589321e+000	 5.170334404619591e-002	 2.353298859329656e+001
 1.084889078065393e+000	 6.215118742498332e-002	 2.349534880132678e+001
 1.084237853507879e+000	 7.263175923461419e-002	 2.344930174174269e+001
 1.083482460074717e+000	 8.314371448208835e-002	 2.339358458179170e+001
 1.082621883468280e+000	 9.368567802923872e-002	 2.332698621157611e+001
 1.081655128829361e+000	 1.042562447837526e-001	 2.324835052826490e+001
 1.093333940011333e+000	 0.000000000000000e+000	 2.335679394065818e+001
 1.093285154435836e+000	 1.032806125598307e-002	 2.334053969574097e+001
 1.093138044813263e+000	 2.069535820833983e-002	 2.332321048113737e+001
 1.092891491970343e+000	 3.110069117246819e-002	 2.330331622661576e+001
 1.092544390982978e+000	 4.154282958738464e-002	 2.327940713073116e+001
 1.092095652043531e+000	 5.202051207162540e-002	 2.325007282032048e+001
 1.091544201336163e+000	 6.253244650522354e-002	 2.321394553567027e+001
 1.090888981919444e+000	 7.307731013837575e-002	 2.316970335565474e+001
 1.090128954615429e+000	 8.365374972739088e-002	 2.311607345888610e+001
 1.089263098904368e+000	 9.426038169848881e-002	 2.305183541620977e+001
 1.088290413824173e+000	 1.048957923399939e-001	 2.297582450911359e+001
 1.099999965281944e+000	 0.000000000000000e+000	 2.307949530968754e+001
 1.099950882262301e+000	 1.039103114513552e-002	 2.306312053370446e+001
 1.099802875716884e+000	 2.082153720555801e-002	 2.304601069614198e+001
 1.099554819648821e+000	 3.129031118222894e-002	 2.302666372228194e+001
 1.099205602397292e+000	 4.179611501147604e-002	 2.300361795867295e+001
 1.098754127510101e+000	 5.233767962123527e-002	 2.297545169320388e+001
 1.098199314624351e+000	 6.291370501352776e-002	 2.294078635961269e+001
 1.097540100354437e+000	 7.352286037378919e-002	 2.289828978502719e+001
 1.096775439186540e+000	 8.416378420764692e-002	 2.284667947677278e+001
 1.095904304378798e+000	 9.483508450571800e-002	 2.278472594394983e+001
 1.094925688866247e+000	 1.055353389369740e-001	 2.271125604849373e+001
 1.106665982220223e+000	 0.000000000000000e+000	 2.281014724025254e+001
 1.106616601756801e+000	 1.045400095558323e-002	 2.279365512780269e+001
 1.106467698289651e+000	 2.094771604507368e-002	 2.277675635713882e+001
 1.106218138998312e+000	 3.147993095500426e-002	 2.275793742943333e+001
 1.105866805485248e+000	 4.204940011902197e-002	 2.273572538930840e+001
 1.105412594653715e+000	 5.265484677447090e-002	 2.270868768335072e+001
 1.104854419593770e+000	 6.329496304536868e-002	 2.267543538148816e+001
 1.104191210475639e+000	 7.396841005239865e-002	 2.263462644465956e+001
 1.103421915449642e+000	 8.467381805051580e-002	 2.258496903522387e+001
 1.102545501551810e+000	 9.540978659474335e-002	 2.252522486579695e+001
 1.101560955614317e+000	 1.061748847347095e-001	 2.245421258138907e+001
 1.113331992492834e+000	 0.000000000000000e+000	 2.254831247966678e+001
 1.113282314585924e+000	 1.051697070312077e-002	 2.253170902037651e+001
 1.113132514197916e+000	 2.107389475852392e-002	 2.251501543973926e+001
 1.112881451684768e+000	 3.166955053832096e-002	 2.249670741030992e+001
 1.112528001912243e+000	 4.230268497348567e-002	 2.247530123863664e+001
 1.112071055139059e+000	 5.297201361077765e-002	 2.244935404031685e+001
 1.111509517908231e+000	 6.367622069621895e-002	 2.241746697571466e+001
 1.110842313945830e+000	 7.441395928574848e-002	 2.237828853543896e+001
 1.110068385066324e+000	 8.518385138365692e-002	 2.233051787225593e+001
 1.109186692083648e+000	 9.598448810938200e-002	 2.227290817532835e+001
 1.108196215727121e+000	 1.068144298932171e-001	 2.220427008183016e+001
 1.119997997766445e+000	 0.000000000000000e+000	 2.229356717718642e+001
 1.119948022416257e+000	 1.057994040354264e-002	 2.227686049852036e+001
 1.119797325108027e+000	 2.120007337754572e-002	 2.226036803763794e+001
 1.119544759374145e+000	 3.185916997970588e-002	 2.224255524948648e+001
 1.119189193343679e+000	 4.255596963833025e-002	 2.222192828046741e+001
 1.118729510630817e+000	 5.328918020960095e-002	 2.219703443841746e+001
 1.118164611231547e+000	 6.405747806155128e-002	 2.216646544008504e+001
 1.117493412427794e+000	 7.485950818538292e-002	 2.212886071204637e+001
 1.116714849698179e+000	 8.569388433472962e-002	 2.208291074198143e+001
 1.115827877634553e+000	 9.655918919345111e-002	 2.202736047642279e+001
 1.114831470863391e+000	 1.074539745725134e-001	 2.196101276021876e+001
 1.126663999707723e+000	 0.000000000000000e+000	 2.204550048785645e+001
 1.126613726914387e+000	 1.064291007264340e-002	 2.202870020949880e+001
 1.126462132686335e+000	 2.132625193377614e-002	 2.201240598935858e+001
 1.126208063732395e+000	 3.204878932668583e-002	 2.199507369170383e+001
 1.125850381444952e+000	 4.280925417701895e-002	 2.197519989509181e+001
 1.125387962793674e+000	 5.360634665038612e-002	 2.195132263599008e+001
 1.124819701227530e+000	 6.443873523683831e-002	 2.192202466537306e+001
 1.124144507584308e+000	 7.530505686284626e-002	 2.188593676265574e+001
 1.123361311006796e+000	 8.620391703139331e-002	 2.184174110414840e+001
 1.122469059864767e+000	 9.713388999076773e-002	 2.178817468238595e+001
 1.121466722681864e+000	 1.080935189326152e-001	 2.172403277178141e+001
 1.133329999983334e+000	 0.000000000000000e+000	 2.180371419036554e+001
 1.133279429746903e+000	 1.070587972621758e-002	 2.178683078976336e+001
 1.133126938599190e+000	 2.145243045885220e-002	 2.177073251820977e+001
 1.132871366425473e+000	 3.223840862678761e-002	 2.175386629253461e+001
 1.132511567881462e+000	 4.306253865301489e-002	 2.173471973042882e+001
 1.132046413292315e+000	 5.392351301257858e-002	 2.171182214679111e+001
 1.131474789559993e+000	 6.481999231755271e-002	 2.168374781674804e+001
 1.130795601078155e+000	 7.575060542968279e-002	 2.164911930013204e+001
 1.130007770653767e+000	 8.671394960130725e-002	 2.160661082488597e+001
 1.129110240434534e+000	 9.770859064514900e-002	 2.155495172600507e+001
 1.128101972841275e+000	 1.087330631335390e-001	 2.149292993569318e+001
 1.061749197541144e+000	 1.023375947592949e-001	 2.411813435813609e+001
 1.060695219771598e+000	 1.127387389089459e-001	 2.402205226877956e+001
 1.059535157810359e+000	 1.231651289297503e-001	 2.392078294528689e+001
 1.058268098201429e+000	 1.336153222406547e-001	 2.381341388529055e+001
 1.056893150044585e+000	 1.440878485620556e-001	 2.369909707957769e+001
 1.055409445871443e+000	 1.545812102484205e-001	 2.357705215487009e+001
 1.053816142520104e+000	 1.650938826503425e-001	 2.344656947839132e+001
 1.052112422007309e+000	 1.756243145063028e-001	 2.330701321268452e+001
 1.050297492397054e+000	 1.861709283643864e-001	 2.315782430827583e+001
 1.048370588664549e+000	 1.967321210341483e-001	 2.299852342090913e+001
 1.046330973554413e+000	 2.073062640687906e-001	 2.282871373921762e+001
 1.068384522346582e+000	 1.029771461534198e-001	 2.381905009529636e+001
 1.067323957819170e+000	 1.134432915009483e-001	 2.372614529309242e+001
 1.066156646134477e+000	 1.239348404919512e-001	 2.362835802710682e+001
 1.064881668127946e+000	 1.344503415300592e-001	 2.352476739965901e+001
 1.063498127331754e+000	 1.449883151472519e-001	 2.341451737206904e+001
 1.062005150856359e+000	 1.555472543385594e-001	 2.329681994620941e+001
 1.060401890270602e+000	 1.661256249263772e-001	 2.317095831114263e+001
 1.058687522479315e+000	 1.767218659546793e-001	 2.303628994320648e+001
 1.056861250597369e+000	 1.873343901133681e-001	 2.289224964699709e+001
 1.054922304819027e+000	 1.979615841929645e-001	 2.273835252378642e+001
 1.052869943281504e+000	 2.086018095697990e-001	 2.257419685300508e+001
 1.075019832223076e+000	 1.036166961082335e-001	 2.352927552429715e+001
 1.073952680952703e+000	 1.141478425074454e-001	 2.343944936450723e+001
 1.072778119560937e+000	 1.247045503220942e-001	 2.334503021172987e+001
 1.071495223174678e+000	 1.352853589405142e-001	 2.324508993666424e+001
 1.070103089758523e+000	 1.458887797062889e-001	 2.313876566669734e+001
 1.068600841001780e+000	 1.565132962550305e-001	 2.302526300640480e+001
 1.066987623204044e+000	 1.671573648809591e-001	 2.290385922657955e+001
 1.065262608158258e+000	 1.778194149335622e-001	 2.277390641004985e+001
 1.063424994030176e+000	 1.884978492445813e-001	 2.263483454159093e+001
 1.061474006233129e+000	 1.991910445855254e-001	 2.248615452827651e+001
 1.059408898296942e+000	 2.098973521558755e-001	 2.232746113566286e+001
 1.081655128829361e+000	 1.042562447837526e-001	 2.324835052826490e+001
 1.080581390829266e+000	 1.148523921046916e-001	 2.316150618963003e+001
 1.079399579744983e+000	 1.254742586127104e-001	 2.307034392027703e+001
 1.078108764994883e+000	 1.361203746808647e-001	 2.297392950946620e+001
 1.076708038975992e+000	 1.467892424643597e-001	 2.287139443038075e+001
 1.075196517956486e+000	 1.574793362394091e-001	 2.276193909976100e+001
 1.073573342966726e+000	 1.681891027720756e-001	 2.264483610966174e+001
 1.071837680687771e+000	 1.789169617173799e-001	 2.251943341949402e+001
 1.069988724336277e+000	 1.896613060489216e-001	 2.238515749551135e+001
 1.068025694544651e+000	 2.004205025192179e-001	 2.224151638389303e+001
 1.065947840235338e+000	 2.111928921509209e-001	 2.208810270257552e+001
 1.088290413824173e+000	 1.048957923399939e-001	 2.297582450911359e+001
 1.087210089105928e+000	 1.155569404689416e-001	 2.289186659700097e+001
 1.086021028341859e+000	 1.262439655563311e-001	 2.280385230039255e+001
 1.084722295241816e+000	 1.369553889599556e-001	 2.271084246397495e+001
 1.083312976635267e+000	 1.476897036466583e-001	 2.261196407081524e+001
 1.081792183369263e+000	 1.584453745332703e-001	 2.250641354132015e+001
 1.080159051204942e+000	 1.692208388577142e-001	 2.239346000807586e+001
 1.078412741711491e+000	 1.800145065805603e-001	 2.227244855463247e+001
 1.076552443156474e+000	 1.908247608172845e-001	 2.214280340524700e+001
 1.074577371391386e+000	 2.016499583014293e-001	 2.200403105154368e+001
 1.072486770731300e+000	 2.124884298788353e-001	 2.185572330099684e+001
 1.094925688866247e+000	 1.055353389369740e-001	 2.271125604849373e+001
 1.093838777439760e+000	 1.162614877764497e-001	 2.263009020867229e+001
 1.092642467006809e+000	 1.270136713454877e-001	 2.254511690906619e+001
 1.091335815568734e+000	 1.377904019866320e-001	 2.245539317351768e+001
 1.089917904387451e+000	 1.485901634783783e-001	 2.236004264357070e+001
 1.088387838888894e+000	 1.594114113781895e-001	 2.225825891695354e+001
 1.086744749564987e+000	 1.702525733958623e-001	 2.214930886587255e+001
 1.084987792873053e+000	 1.811120497975321e-001	 2.203253592308480e+001
 1.083116152131570e+000	 1.919882138405656e-001	 2.190736332261813e+001
 1.081129038411128e+000	 2.028794122395463e-001	 2.177329728090142e+001
 1.079025691419437e+000	 2.137839656635191e-001	 2.162993010296177e+001
 1.101560955614317e+000	 1.061748847347095e-001	 2.245421258138907e+001
 1.100467457487831e+000	 1.169660342034704e-001	 2.237574512412859e+001
 1.099263897395078e+000	 1.277833761727112e-001	 2.229370740747755e+001
 1.097949327628892e+000	 1.386254139697389e-001	 2.220715374519288e+001
 1.096522823883646e+000	 1.494906221847133e-001	 2.211520557052494e+001
 1.094983486164163e+000	 1.603774470157416e-001	 2.201705481442930e+001
 1.093330439693156e+000	 1.712843066445071e-001	 2.191196726770331e+001
 1.091562835816092e+000	 1.822095916427233e-001	 2.179928591492005e+001
 1.089679852902367e+000	 1.931516654096603e-001	 2.167843422688391e+001
 1.087680697241672e+000	 2.041088646409560e-001	 2.154891939717295e+001
 1.085564603934357e+000	 2.150794998288730e-001	 2.141033550717201e+001
 1.108196215727121e+000	 1.068144298932171e-001	 2.220427008183016e+001
 1.107096130907212e+000	 1.176705799262584e-001	 2.212840761603128e+001
 1.105885321161910e+000	 1.285530802305332e-001	 2.204920126735775e+001
 1.104562833075548e+000	 1.394604251181213e-001	 2.196570373742111e+001
 1.103127736774956e+000	 1.503910799908570e-001	 2.187703536916006e+001
 1.101579126843853e+000	 1.613434816875018e-001	 2.178238756499473e+001
 1.099916123235745e+000	 1.723160388616364e-001	 2.168102619321196e+001
 1.098137872184243e+000	 1.833071323905622e-001	 2.157229497036228e+001
 1.096243547109668e+000	 1.943151158154643e-001	 2.145561880624834e+001
 1.094232349520812e+000	 2.053383158130456e-001	 2.133050709687053e+001
 1.092103509910670e+000	 2.163750326987972e-001	 2.119655694947894e+001
 1.114831470863391e+000	 1.074539745725134e-001	 2.196101276021876e+001
 1.113724799354973e+000	 1.183751251210680e-001	 2.188766183729354e+001
 1.112506739962550e+000	 1.293227837114847e-001	 2.181118348838740e+001
 1.111176333561957e+000	 1.402954356406242e-001	 2.173062988822456e+001
 1.109732644712486e+000	 1.512915371220031e-001	 2.164512139226759e+001
 1.108174762576749e+000	 1.623095156350454e-001	 2.155384999503453e+001
 1.106501801839048e+000	 1.733477703052374e-001	 2.145608278115705e+001
 1.104712903621141e+000	 1.844046723154772e-001	 2.135116535687063e+001
 1.102807236394275e+000	 1.954785653488730e-001	 2.123852524837218e+001
 1.100783996886342e+000	 2.065677660632019e-001	 2.111767525221118e+001
 1.098642410982984e+000	 2.176705645971922e-001	 2.098821672160434e+001
 1.121466722681864e+000	 1.080935189326152e-001	 2.172403277178141e+001
 1.120353464488183e+000	 1.190796699641537e-001	 2.165309953901567e+001
 1.119128155452241e+000	 1.300924868080971e-001	 2.157924632617312e+001
 1.117789830741375e+000	 1.411304457460927e-001	 2.150152585379071e+001
 1.116337549347337e+000	 1.521919938033452e-001	 2.141905957763032e+001
 1.114770395011633e+000	 1.632755490999475e-001	 2.133104118738678e+001
 1.113087477149361e+000	 1.743795012332977e-001	 2.123674010286144e+001
 1.111287931770423e+000	 1.855022116918965e-001	 2.113550495520421e+001
 1.109370922396989e+000	 1.966420143007822e-001	 2.102676703951728e+001
 1.107335640976057e+000	 2.077972156988120e-001	 2.091004372378495e+001
 1.105181308785909e+000	 2.189660958479585e-001	 2.078494179775753e+001
 1.128101972841275e+000	 1.087330631335390e-001	 2.149292993569318e+001
 1.126982127963913e+000	 1.197842146317701e-001	 2.142431979883280e+001
 1.125749569286228e+000	 1.308621897129018e-001	 2.135298903036631e+001
 1.124403326267059e+000	 1.419654556433717e-001	 2.127799195689551e+001
 1.122942452330613e+000	 1.530924502600770e-001	 2.119845220726926e+001
 1.121366025797290e+000	 1.642415823237833e-001	 2.111356625191823e+001
 1.119673150812978e+000	 1.754112319038044e-001	 2.102260694460393e+001
 1.117862958275722e+000	 1.865997507942483e-001	 2.092492705410161e+001
 1.115934606758614e+000	 1.978054629620873e-001	 2.081996277196739e+001
 1.113887283427750e+000	 2.090266650272629e-001	 2.070723718115184e+001
 1.111720204954052e+000	 2.202616267749964e-001	 2.058636366882350e+001
 1.046330973554413e+000	 2.073062640687906e-001	 2.282871373921763e+001
 1.044177607052323e+000	 2.178932926067863e-001	 2.264979248097089e+001
 1.041910107943235e+000	 2.284899410842093e-001	 2.246333452635928e+001
 1.039527827994735e+000	 2.390945051871895e-001	 2.226926287961017e+001
 1.037030150131326e+000	 2.497052575127223e-001	 2.206759381824735e+001
 1.034416489247346e+000	 2.603204482043598e-001	 2.185843898040850e+001
 1.031686293007040e+000	 2.709383056183087e-001	 2.164200725810239e+001
 1.028839042630563e+000	 2.815570370197589e-001	 2.141860647727180e+001
 1.025874253664687e+000	 2.921748293092218e-001	 2.118864484510036e+001
 1.022791476736971e+000	 3.027898497785945e-001	 2.095263214466925e+001
 1.019590298292188e+000	 3.134002468966224e-001	 2.071118065685711e+001
 1.052869943281504e+000	 2.086018095697990e-001	 2.257419685300508e+001
 1.050703119470998e+000	 2.192550009769878e-001	 2.240118857499920e+001
 1.048421449790088e+000	 2.299178724427004e-001	 2.222091252524186e+001
 1.046024281955267e+000	 2.405887090020831e-001	 2.203329238044253e+001
 1.043510995034660e+000	 2.512657724568544e-001	 2.183834595457020e+001
 1.040881000266023e+000	 2.619473020149687e-001	 2.163618734160650e+001
 1.038133741861805e+000	 2.726315149608756e-001	 2.142702886432988e+001
 1.035268697800079e+000	 2.833166073562020e-001	 2.121118280944240e+001
 1.032285380600047e+000	 2.940007547706283e-001	 2.098906292887651e+001
 1.029183338080940e+000	 3.046821130426786e-001	 2.076118568675020e+001
 1.025962154103039e+000	 3.153588190700910e-001	 2.052817123118441e+001
 1.059408898296942e+000	 2.098973521558755e-001	 2.232746113566286e+001
 1.057228617208352e+000	 2.206167062833925e-001	 2.216016937256339e+001
 1.054932776987560e+000	 2.313458005883875e-001	 2.198587331907906e+001
 1.052520721299978e+000	 2.420829094550495e-001	 2.180449700651743e+001
 1.049991825357360e+000	 2.528262838898459e-001	 2.161605937782248e+001
 1.047345496740881e+000	 2.635741521651587e-001	 2.142067648748892e+001
 1.044581176211209e+000	 2.743247204937079e-001	 2.121856350790660e+001
 1.041698338504331e+000	 2.850761737335841e-001	 2.101003652187924e+001
 1.038696493111893e+000	 2.958266761236637e-001	 2.079551408054242e+001
 1.035575185044799e+000	 3.065743720491249e-001	 2.057551850549359e+001
 1.032333995578839e+000	 3.173173868367261e-001	 2.035067691365397e+001
 1.065947840235338e+000	 2.111928921509209e-001	 2.208810270257551e+001
 1.063754101895628e+000	 2.219784088664360e-001	 2.192634003362721e+001
 1.061444091163351e+000	 2.327737258782584e-001	 2.175783016261539e+001
 1.059017147652842e+000	 2.435771069196422e-001	 2.158249714994661e+001
 1.056472642719491e+000	 2.543867922018260e-001	 2.140036065229521e+001
 1.053809980287900e+000	 2.652009990616432e-001	 2.121153818151185e+001
 1.051028597666957e+000	 2.760179226401070e-001	 2.101624717067529e+001
 1.048127966350573e+000	 2.868357365917952e-001	 2.081480682645247e+001
 1.045107592802839e+000	 2.976525938248044e-001	 2.060763974636596e+001
 1.041967019226337e+000	 3.084666272709911e-001	 2.039527327910978e+001
 1.038705824312371e+000	 3.192759506861582e-001	 2.017834060572045e+001
 1.072486770731300e+000	 2.124884298788353e-001	 2.185572330099684e+001
 1.070279575164070e+000	 2.233401090665541e-001	 2.169931099229720e+001
 1.067955393945159e+000	 2.342016486693012e-001	 2.153640126815598e+001
 1.065513562637833e+000	 2.450713017694148e-001	 2.136691788419606e+001
 1.062953448741119e+000	 2.559472977829249e-001	 2.119088078697116e+001
 1.060274452523056e+000	 2.668278431111357e-001	 2.100840843381080e+001
 1.057476007840754e+000	 2.777111218233742e-001	 2.081971992084289e+001
 1.054557582946055e+000	 2.885952963707256e-001	 2.062513689776841e+001
 1.051518681275496e+000	 2.994785083305274e-001	 2.042508524734622e+001
 1.048358842223344e+000	 3.103588791813349e-001	 2.022009650704164e+001
 1.045077641896419e+000	 3.212345111080174e-001	 2.001080900991271e+001
 1.079025691419437e+000	 2.137839656635191e-001	 2.162993010296177e+001
 1.076805038644923e+000	 2.247018072241827e-001	 2.147869776512224e+001
 1.074466686960685e+000	 2.356295693185038e-001	 2.132120962848864e+001
 1.072009967878922e+000	 2.465654943779209e-001	 2.115738880085986e+001
 1.069434245042312e+000	 2.575078010232722e-001	 2.098725508537559e+001
 1.066738915062326e+000	 2.684546847203496e-001	 2.081092736335014e+001
 1.063923408344307e+000	 2.794043184668105e-001	 2.062862578664767e+001
 1.060987189898027e+000	 2.903548535102650e-001	 2.044067375757033e+001
 1.057929760132478e+000	 3.013044200973088e-001	 2.024749967356116e+001
 1.054750655633610e+000	 3.122511282532140e-001	 2.004963841347039e+001
 1.051449449923766e+000	 3.231930685919333e-001	 1.984773254170801e+001
 1.085564603934357e+000	 2.150794998288730e-001	 2.141033550717201e+001
 1.083330493969430e+000	 2.260635036797578e-001	 2.126412076795437e+001
 1.080977971837627e+000	 2.370574881828541e-001	 2.111188284798587e+001
 1.078506365000086e+000	 2.480596851187143e-001	 2.095354385426594e+001
 1.075915033243134e+000	 2.590683023129977e-001	 2.078912300294390e+001
 1.073203369521688e+000	 2.700815242959982e-001	 2.061873906730653e+001
 1.070370800789320e+000	 2.810975129937173e-001	 2.044261263700865e+001
 1.067416788813741e+000	 2.921144084503037e-001	 2.026106816590118e+001
 1.064340830976396e+000	 3.031303295816257e-001	 2.007453578508789e+001
 1.061142461054927e+000	 3.141433749596863e-001	 1.988355285723626e+001
 1.057821249987196e+000	 3.251516236275364e-001	 1.968876524769370e+001
 1.092103509910670e+000	 2.163750326987972e-001	 2.119655694947894e+001
 1.089855942768836e+000	 2.274251987737151e-001	 2.105520514101062e+001
 1.087489250203683e+000	 2.384854056193400e-001	 2.090805298154394e+001
 1.085002755625295e+000	 2.495538743653484e-001	 2.075502121358576e+001
 1.082395814963654e+000	 2.606288020422316e-001	 2.059612801159054e+001
 1.079667817517119e+000	 2.717083622447951e-001	 2.043149149738188e+001
 1.076818186787501e+000	 2.827907058273957e-001	 2.026133206886355e+001
 1.073846381300447e+000	 2.938739616307315e-001	 2.008597451874412e+001
 1.070751895409864e+000	 3.049562372399547e-001	 1.990584991922074e+001
 1.067534260085082e+000	 3.160356197738095e-001	 1.972149724790531e+001
 1.064193043679492e+000	 3.271101767044565e-001	 1.953356472975282e+001
 1.098642410982984e+000	 2.176705645971922e-001	 2.098821672160434e+001
 1.096381386674383e+000	 2.287868928464906e-001	 2.085158058179366e+001
 1.094000523686553e+000	 2.399133219849495e-001	 2.070935638103185e+001
 1.091499141378525e+000	 2.510480624913769e-001	 2.056146312213433e+001
 1.088876591823937e+000	 2.621893006011032e-001	 2.040791747117890e+001
 1.086132260664596e+000	 2.733351989734535e-001	 2.024883634275743e+001
 1.083265567950552e+000	 2.844838973911467e-001	 2.008443930091702e+001
 1.080275968965396e+000	 2.956335134914386e-001	 1.991505075187116e+001
 1.077162955035492e+000	 3.067821435287720e-001	 1.974110190372317e+001
 1.073926054321867e+000	 3.179278631686413e-001	 1.956313246772589e+001
 1.070564832593438e+000	 3.290687283123238e-001	 1.938179207502249e+001
 1.105181308785909e+000	 2.189660958479585e-001	 2.078494179775753e+001
 1.102906827317317e+000	 2.301485862385200e-001	 2.065288118554572e+001
 1.100511793913937e+000	 2.413412376366705e-001	 2.051543354893852e+001
 1.097995523883749e+000	 2.525422498703536e-001	 2.037251576356285e+001
 1.095357365444049e+000	 2.637497983797427e-001	 2.022414250760615e+001
 1.092596700580097e+000	 2.749620348886868e-001	 2.007042891941303e+001
 1.089712945890182e+000	 2.861770881082720e-001	 1.991159307353298e+001
 1.086705553415838e+000	 2.973930644723152e-001	 1.974795825064283e+001
 1.083574011455895e+000	 3.086080489045548e-001	 1.957995497586554e+001
 1.080317845363071e+000	 3.198201056172396e-001	 1.940812279923096e+001
 1.076936618321817e+000	 3.310272789407683e-001	 1.923311179138622e+001
 1.111720204954052e+000	 2.202616267749964e-001	 2.058636366882350e+001
 1.109432266328881e+000	 2.315102792902392e-001	 2.045874529292452e+001
 1.107023062513533e+000	 2.427691529314909e-001	 2.032592899892136e+001
 1.104491904764940e+000	 2.540364368758318e-001	 2.018782913465919e+001
 1.101838137444058e+000	 2.653102957682796e-001	 2.004445789723018e+001
 1.099061138879598e+000	 2.765888703972085e-001	 1.989592806554997e+001
 1.096160322218095e+000	 2.878702784020723e-001	 1.974245555451807e+001
 1.093135136259025e+000	 2.991526150132511e-001	 1.958436176551307e+001
 1.089985066273683e+000	 3.104339538237795e-001	 1.942207570700854e+001
 1.086709634806486e+000	 3.217123475926619e-001	 1.925613585825417e+001
 1.083308402457412e+000	 3.329858290794202e-001	 1.908719174827225e+001
 1.019590298292188e+000	 3.134002468966224e-001	 2.071118065685711e+001
 1.016270341054748e+000	 3.240041509680922e-001	 2.046260348631274e+001
 1.012831263959774e+000	 3.345996744956820e-001	 2.020514614176937e+001
 1.009272763592686e+000	 3.451849134900504e-001	 1.993945651794480e+001
 1.005594575098846e+000	 3.557579485199885e-001	 1.966626180812768e+001
 1.001796472814765e+000	 3.663168456381125e-001	 1.938636780760277e+001
 9.978782708743237e-001	 3.768596573328684e-001	 1.910065787085275e+001
 9.938398237888124e-001	 3.873844235061286e-001	 1.881009150572270e+001
 9.896810269996652e-001	 3.978891724756004e-001	 1.851570258867562e+001
 9.854018174027490e-001	 4.083719220012180e-001	 1.821859718639563e+001
 9.810021738431126e-001	 4.188306803346251e-001	 1.791995097030869e+001
 1.025962154103039e+000	 3.153588190700910e-001	 2.052817123118441e+001
 1.022621449032989e+000	 3.260289914731288e-001	 2.028817495919903e+001
 1.019160879674458e+000	 3.366907309586894e-001	 2.003928885222479e+001
 1.015580140716707e+000	 3.473421216385829e-001	 1.978217709129987e+001
 1.011878965649917e+000	 3.579812320862496e-001	 1.951758482211184e+001
 1.008057127400339e+000	 3.686061162682363e-001	 1.924633748461750e+001
 1.004114438940307e+000	 3.792148145021522e-001	 1.896933978900464e+001
 1.000050753871896e+000	 3.898053544403731e-001	 1.868757432035620e+001
 9.958659669831210e-001	 4.003757520787162e-001	 1.840209975532660e+001
 9.915600147754914e-001	 4.109240127892444e-001	 1.811404867527643e+001
 9.871328759618585e-001	 4.214481323763099e-001	 1.782462496164554e+001
 1.032333995578839e+000	 3.173173868367261e-001	 2.035067691365397e+001
 1.028972542722899e+000	 3.280538274222357e-001	 2.011898908632561e+001
 1.025490481149196e+000	 3.387817827167959e-001	 1.987839723105392e+001
 1.021887503650834e+000	 3.494993249333950e-001	 1.962958346037614e+001
 1.018163342062814e+000	 3.602045106501481e-001	 1.937331266070544e+001
 1.014317767901132e+000	 3.708953817475604e-001	 1.911043185098540e+001
 1.010350592976570e+000	 3.815699663724302e-001	 1.884186917997192e+001
 1.006261669981995e+000	 3.922262799276644e-001	 1.856863254364555e+001
 1.002050893051997e+000	 4.028623260872160e-001	 1.829180780520733e+001
 9.977181982937291e-001	 4.134760978353049e-001	 1.801255660126054e+001
 9.932635642878445e-001	 4.240655785290188e-001	 1.773211371913202e+001
 1.038705824312371e+000	 3.192759506861582e-001	 2.017834060572045e+001
 1.035323623712072e+000	 3.300786593216034e-001	 1.995468922690330e+001
 1.031820069966206e+000	 3.408728302927376e-001	 1.972211654711722e+001
 1.028194853971724e+000	 3.516565239137509e-001	 1.948132421001201e+001
 1.024447705908449e+000	 3.624277847674573e-001	 1.923309858414487e+001
 1.020578395882120e+000	 3.731846426483437e-001	 1.897831015366889e+001
 1.016586734541975e+000	 3.839251135324219e-001	 1.871791253966177e+001
 1.012472573671668e+000	 3.946472005731540e-001	 1.845294113270173e+001
 1.008235806752366e+000	 4.053488951226541e-001	 1.818451131825248e+001
 1.003876369496865e+000	 4.160281777773232e-001	 1.791381627757933e+001
 9.993942403536174e-001	 4.266830194470083e-001	 1.764212434828584e+001
 1.045077641896419e+000	 3.212345111080174e-001	 2.001080900991271e+001
 1.041674693588099e+000	 3.321034876774224e-001	 1.979492252273403e+001
 1.038149647707703e+000	 3.429638742092506e-001	 1.957009580399860e+001
 1.034502193256031e+000	 3.538137191189148e-001	 1.933705158224223e+001
 1.030732058757729e+000	 3.646510549939495e-001	 1.909659940242479e+001
 1.026839012908283e+000	 3.754738995428443e-001	 1.884963505181834e+001
 1.022822865195384e+000	 3.862802565708465e-001	 1.859713960827591e+001
 1.018683466493476e+000	 3.970681169819943e-001	 1.834017809055918e+001
 1.014420709630302e+000	 4.078354598065851e-001	 1.807989769135619e+001
 1.010034529924301e+000	 4.185802532532225e-001	 1.781752557479267e+001
 1.005524905691725e+000	 4.293004557845356e-001	 1.755436622162903e+001
 1.051449449923766e+000	 3.231930685919333e-001	 1.984773254170801e+001
 1.048025753938572e+000	 3.341283129958826e-001	 1.963933981858541e+001
 1.044479215955903e+000	 3.450549149890706e-001	 1.942198766991636e+001
 1.040809523080410e+000	 3.559709110881510e-001	 1.919642141674873e+001
 1.037016402181564e+000	 3.668743218853973e-001	 1.896347542726277e+001
 1.033099620544599e+000	 3.777631530033208e-001	 1.872407258118948e+001
 1.029058986495659e+000	 3.886353960764227e-001	 1.847922334808731e+001
 1.024894349999979e+000	 3.994890297593372e-001	 1.823002445818328e+001
 1.020605603231880e+000	 4.103220207605629e-001	 1.797765714544422e+001
 1.016192681115441e+000	 4.211323249009262e-001	 1.772338494372531e+001
 1.011655561834714e+000	 4.319178881958571e-001	 1.746855101824803e+001
 1.057821249987196e+000	 3.251516236275364e-001	 1.968876524769370e+001
 1.054376806351084e+000	 3.361531357831747e-001	 1.948759558872273e+001
 1.050808776293023e+000	 3.471459531549336e-001	 1.927744841362296e+001
 1.047116845021517e+000	 3.581281003607237e-001	 1.905909309709826e+001
 1.043300737750864e+000	 3.690975859975734e-001	 1.883339042961133e+001
 1.039360220356044e+000	 3.800524036020316e-001	 1.860129212383674e+001
 1.035295100001661e+000	 3.909905326378698e-001	 1.836383992618680e+001
 1.031105225743738e+000	 4.019099395103344e-001	 1.812216431110773e+001
 1.026790489103172e+000	 4.128085786061421e-001	 1.787748273680680e+001
 1.022350824609688e+000	 4.236843933583578e-001	 1.763109744226046e+001
 1.017786210315132e+000	 4.345353173352295e-001	 1.738439276677906e+001
 1.064193043679492e+000	 3.271101767044565e-001	 1.953356472975282e+001
 1.060727852413227e+000	 3.381779565454890e-001	 1.933934786933878e+001
 1.057138330301280e+000	 3.492369892295757e-001	 1.913613784604372e+001
 1.053424160656007e+000	 3.602852874758972e-001	 1.892472950252342e+001
 1.049585067036537e+000	 3.713208478862503e-001	 1.870601160248652e+001
 1.045620813907598e+000	 3.823416519112352e-001	 1.848096638286125e+001
 1.041531207272252e+000	 3.933456668439073e-001	 1.825066870199084e+001
 1.037316095277311e+000	 4.043308468401382e-001	 1.801628476050970e+001
 1.032975368790253e+000	 4.152951339648769e-001	 1.777907037251223e+001
 1.028508961946442e+000	 4.262364592634404e-001	 1.754036876583025e+001
 1.023916852665525e+000	 4.371527438569092e-001	 1.730160789167552e+001
 1.070564832593438e+000	 3.290687283123238e-001	 1.938179207502249e+001
 1.067078893712593e+000	 3.402027757890157e-001	 1.919425819663684e+001
 1.063467879562889e+000	 3.513280237357326e-001	 1.899771926741455e+001
 1.059731471560536e+000	 3.624424729729358e-001	 1.879299696501714e+001
 1.055869391609492e+000	 3.735441081072007e-001	 1.858100952889073e+001
 1.051881402764239e+000	 3.846308985031900e-001	 1.836277136200303e+001
 1.047767309866292e+000	 3.957007992832538e-001	 1.813939221931315e+001
 1.043526960153260e+000	 4.067517523539003e-001	 1.791207595853682e+001
 1.039160243839196e+000	 4.177816874583215e-001	 1.768211882973314e+001
 1.034667094665108e+000	 4.287885232540981e-001	 1.745090728144946e+001
 1.030047490418440e+000	 4.397701684151531e-001	 1.721991526262283e+001
 1.076936618321817e+000	 3.310272789407683e-001	 1.923311179138622e+001
 1.073429931836776e+000	 3.422275940199455e-001	 1.905199155033278e+001
 1.069797425660067e+000	 3.534190571961404e-001	 1.886185941969177e+001
 1.066038779311758e+000	 3.645996573911034e-001	 1.866356523152058e+001
 1.062153713040640e+000	 3.757673672161970e-001	 1.845805815461950e+001
 1.058141988490943e+000	 3.869201439501546e-001	 1.824638634987844e+001
 1.054003409342645e+000	 3.980559305446286e-001	 1.802969620281156e+001
 1.049737821924144e+000	 4.091726566567728e-001	 1.780923110771198e+001
 1.045345115796075e+000	 4.202682397080301e-001	 1.758632977882366e+001
 1.040825224305087e+000	 4.313405859682537e-001	 1.736242406514604e+001
 1.036178125106425e+000	 4.423875916642178e-001	 1.713903624696984e+001
 1.083308402457412e+000	 3.329858290794202e-001	 1.908719174827225e+001
 1.079780968373366e+000	 3.442524117444685e-001	 1.891221630235270e+001
 1.076126970175029e+000	 3.555100901335350e-001	 1.872822844401694e+001
 1.072346085486329e+000	 3.667568412696645e-001	 1.853610743099491e+001
 1.068438032900888e+000	 3.779906257690122e-001	 1.833683476575179e+001
 1.064402572652689e+000	 3.892093888243871e-001	 1.813149390867011e+001
 1.060239507260171e+000	 4.004110612167509e-001	 1.792126955863000e+001
 1.055948682142524e+000	 4.115935603539074e-001	 1.770744647424719e+001
 1.051529986206963e+000	 4.227547913355571e-001	 1.749140780999339e+001
 1.046983352405783e+000	 4.338926480438310e-001	 1.727463294265086e+001
 1.042308758262027e+000	 4.450050142583599e-001	 1.705869476505416e+001
 9.810021738431126e-001	 4.188306803346251e-001	 1.791995097030869e+001
 9.764828047075795e-001	 4.292618845903969e-001	 1.761653010907860e+001
 9.718431238218865e-001	 4.396650991708302e-001	 1.730511756393456e+001
 9.670832392392218e-001	 4.500383117743657e-001	 1.698714010917426e+001
 9.622033025948158e-001	 4.603795050253364e-001	 1.666407542131584e+001
 9.572035094363700e-001	 4.706866576225989e-001	 1.633744713393989e+001
 9.520840995190897e-001	 4.809577455047829e-001	 1.600881945167539e+001
 9.468453570644847e-001	 4.911907430309179e-001	 1.567979132481938e+001
 9.414876109821542e-001	 5.013836241751539e-001	 1.535199018878946e+001
 9.360112350538159e-001	 5.115343637342538e-001	 1.502706527545079e+001
 9.304166480789026e-001	 5.216409385464856e-001	 1.470668050632579e+001
 9.871328759618585e-001	 4.214481323763099e-001	 1.782462496164554e+001
 9.825852633560629e-001	 4.319445256884886e-001	 1.753055464591940e+001
 9.779165871205763e-001	 4.424127544058430e-001	 1.722856586347968e+001
 9.731269559838418e-001	 4.528507936510823e-001	 1.692008824141851e+001
 9.682165225287075e-001	 4.632566134410979e-001	 1.660660175335963e+001
 9.631854835249192e-001	 4.736281798427740e-001	 1.628963171522121e+001
 9.580340802259996e-001	 4.839634561455170e-001	 1.597074332957601e+001
 9.527625986296655e-001	 4.942604040492620e-001	 1.565153577966487e+001
 9.473713697009942e-001	 5.045169848666595e-001	 1.533363587690020e+001
 9.418607695576092e-001	 5.147311607381127e-001	 1.501869126861781e+001
 9.362312196161845e-001	 5.249008958582897e-001	 1.470836321588442e+001
 9.932635642878445e-001	 4.240655785290188e-001	 1.773211371913202e+001
 9.886877082751898e-001	 4.346271607509846e-001	 1.744715372199086e+001
 9.839900367549843e-001	 4.451604034590352e-001	 1.715433585596782e+001
 9.791706591309307e-001	 4.556632692001785e-001	 1.685509135443085e+001
 9.742297289334985e-001	 4.661337153838935e-001	 1.655090115583426e+001
 9.691674441544828e-001	 4.765696954451200e-001	 1.624329084374141e+001
 9.639840475457245e-001	 4.869691600240705e-001	 1.593382512479538e+001
 9.586798268811472e-001	 4.973300581616141e-001	 1.562410184523233e+001
 9.532551151813121e-001	 5.076503385089313e-001	 1.531574554938396e+001
 9.477102908997493e-001	 5.179279505500952e-001	 1.501040058661542e+001
 9.420457780703714e-001	 5.281608458362019e-001	 1.470972377628254e+001
 9.993942403536174e-001	 4.266830194470083e-001	 1.764212434828584e+001
 9.947901409904685e-001	 4.373097904484328e-001	 1.736604588098092e+001
 9.900634742433956e-001	 4.479080470172055e-001	 1.708215580634301e+001
 9.852143501913654e-001	 4.584757391246574e-001	 1.679188573813595e+001
 9.802429233124705e-001	 4.690108115728803e-001	 1.649671627123887e+001
 9.751493928205582e-001	 4.795112051648953e-001	 1.619817186938385e+001
 9.699340029657909e-001	 4.899748578917460e-001	 1.589781528008037e+001
 9.645970432983018e-001	 5.003997061352615e-001	 1.559724147682944e+001
 9.591388488941353e-001	 5.107836858851768e-001	 1.529807113165530e+001
 9.535598005427274e-001	 5.211247339692603e-001	 1.500194362406164e+001
 9.478603248952329e-001	 5.314207892950618e-001	 1.471050959574680e+001
 1.005524905691725e+000	 4.293004557845356e-001	 1.755436622162903e+001
 1.000892563027408e+000	 4.399924154513824e-001	 1.728695164579275e+001
 9.961369011040955e-001	 4.506556857671526e-001	 1.701175570556728e+001
 9.912580306760201e-001	 4.612882041275213e-001	 1.673020918825212e+001
 9.862561071689030e-001	 4.718879027272156e-001	 1.644379105898462e+001
 9.811313310186437e-001	 4.824527097373583e-001	 1.615402329976802e+001
 9.758839479737284e-001	 4.929805504998467e-001	 1.586246526480325e+001
 9.705142493605007e-001	 5.034693487374914e-001	 1.557070755170466e+001
 9.650225723104889e-001	 5.139170277786029e-001	 1.528036539117740e+001
 9.594092999490360e-001	 5.243215117946671e-001	 1.499307156089859e+001
 9.536748615445378e-001	 5.346807270497089e-001	 1.471046883265708e+001
 1.011655561834714e+000	 4.319178881958571e-001	 1.746855101824802e+001
 1.006994975911515e+000	 4.426750364303818e-001	 1.720959357444258e+001
 1.002210318855367e+000	 4.534033203956745e-001	 1.694286734156362e+001
 9.973017020957710e-001	 4.641006649117728e-001	 1.666980109099962e+001
 9.922692820060759e-001	 4.747649895660558e-001	 1.639187089260253e+001
 9.871132602442367e-001	 4.853942098977674e-001	 1.611059490870678e+001
 9.818338840570650e-001	 4.959862385996756e-001	 1.582752769343687e+001
 9.764314465471150e-001	 5.065389867355905e-001	 1.554425399632746e+001
 9.709062869013992e-001	 5.170503649724165e-001	 1.526238207235519e+001
 9.652587905811674e-001	 5.275182848253748e-001	 1.498353650372713e+001
 9.594893894720562e-001	 5.379406599149837e-001	 1.470935054217690e+001
 1.017786210315132e+000	 4.345353173352295e-001	 1.738439276677906e+001
 1.013097381168299e+000	 4.453576540559800e-001	 1.713369631895765e+001
 1.008283729015496e+000	 4.561509515895701e-001	 1.687522437277699e+001
 1.003345365961493e+000	 4.669131221804144e-001	 1.661040251008710e+001
 9.982824493272693e-001	 4.776420728085586e-001	 1.634070265893143e+001
 9.930951819928362e-001	 4.883357063813811e-001	 1.606763784638735e+001
 9.877838127033295e-001	 4.989919229425355e-001	 1.579275644553521e+001
 9.823486363375157e-001	 5.096086208968456e-001	 1.551763591499387e+001
 9.767899941378910e-001	 5.201836982498246e-001	 1.524387603260934e+001
 9.711082739016134e-001	 5.307150538604427e-001	 1.497309162821555e+001
 9.653039101315574e-001	 5.412005887057253e-001	 1.470690482388405e+001
 1.023916852665525e+000	 4.371527438569092e-001	 1.730160789167552e+001
 1.019199780323268e+000	 4.480402689987253e-001	 1.705898668714972e+001
 1.014357133102766e+000	 4.588985800356378e-001	 1.680856240424574e+001
 1.009389023784061e+000	 4.697255766364484e-001	 1.655175627588334e+001
 1.004295610635763e+000	 4.805191531738802e-001	 1.629003485920579e+001
 9.990770977599388e-001	 4.912771999234576e-001	 1.602490475120396e+001
 9.937337354000502e-001	 5.019976042797296e-001	 1.575790678715623e+001
 9.882658202110743e-001	 5.126782519885444e-001	 1.549060971970103e+001
 9.826736954909916e-001	 5.233170283940343e-001	 1.522460337958359e+001
 9.769577513728665e-001	 5.339118196989298e-001	 1.496149132253875e+001
 9.711184249768111e-001	 5.444605142367740e-001	 1.470288297036298e+001
 1.030047490418440e+000	 4.397701684151531e-001	 1.721991526262283e+001
 1.025302174901930e+000	 4.507228819291669e-001	 1.698519370714554e+001
 1.020430532635463e+000	 4.616462064206762e-001	 1.674261906607876e+001
 1.015432677074352e+000	 4.725380289828776e-001	 1.649360707668337e+001
 1.010308767434837e+000	 4.833962313811783e-001	 1.623961771196394e+001
 1.005059009041043e+000	 4.942186912592553e-001	 1.598214986317522e+001
 9.996836536347549e-001	 5.050032833625604e-001	 1.572273549366902e+001
 9.941829996471617e-001	 5.157478807779733e-001	 1.546293326124085e+001
 9.885573924317267e-001	 5.264503561882526e-001	 1.520432160943866e+001
 9.828072244574182e-001	 5.371085831398950e-001	 1.494849133180593e+001
 9.769329354615869e-001	 5.477204373229693e-001	 1.469703761671908e+001
 1.036178125106425e+000	 4.423875916642178e-001	 1.713903624696984e+001
 1.031404566429793e+000	 4.534054935178529e-001	 1.691204869456024e+001
 1.026503929131870e+000	 4.643938314314838e-001	 1.667713409424018e+001
 1.021476327343239e+000	 4.753504799227044e-001	 1.643570155198370e+001
 1.016321921227772e+000	 4.862733081496097e-001	 1.618920325770343e+001
 1.011040917331646e+000	 4.971601811240325e-001	 1.593912913888116e+001
 1.005633568894973e+000	 5.080089609423314e-001	 1.568700097388862e+001
 1.000100176125150e+000	 5.188175080324198e-001	 1.543436596146322e+001
 9.944410864311213e-001	 5.295836824156863e-001	 1.518278974619025e+001
 9.886566946177605e-001	 5.403053449823977e-001	 1.493384890343739e+001
 9.827474430396535e-001	 5.509803587791509e-001	 1.468912289097836e+001
 1.042308758262027e+000	 4.450050142583599e-001	 1.705869476505416e+001
 1.037506956432366e+000	 4.560881044353323e-001	 1.683928532220615e+001
 1.032577324110273e+000	 4.671414557548592e-001	 1.661184941354799e+001
 1.027519976101599e+000	 4.781629301589312e-001	 1.637778838768436e+001
 1.022335073517847e+000	 4.891503841983316e-001	 1.613854546521186e+001
 1.017022824127247e+000	 5.001016702530479e-001	 1.589560036785954e+001
 1.011583482668233e+000	 5.110146377703450e-001	 1.565046339548530e+001
 1.006017351124410e+000	 5.218871345191709e-001	 1.540466894666117e+001
 1.000324778960203e+000	 5.327170078595428e-001	 1.515976848204846e+001
 9.945061633163868e-001	 5.435021060254974e-001	 1.491732293345312e+001
 9.885619491647814e-001	 5.542402794201590e-001	 1.467889456533762e+001
 9.304166480789026e-001	 5.216409385464856e-001	 1.470668050632579e+001
 9.247034483627793e-001	 5.317028344607302e-001	 1.438580872905938e+001
 9.188729762948830e-001	 5.417165161740593e-001	 1.405901228094081e+001
 9.129257872143954e-001	 5.516799737568476e-001	 1.372715166759793e+001
 9.068624816840354e-001	 5.615912043072900e-001	 1.339101273180393e+001
 9.006837054341905e-001	 5.714482132060662e-001	 1.305129863340540e+001
 8.943901492657200e-001	 5.812490153734854e-001	 1.270862165532722e+001
 8.879825489111826e-001	 5.909916365275353e-001	 1.236349486742734e+001
 8.814616848543042e-001	 6.006741144412503e-001	 1.201632368285611e+001
 8.748283821075730e-001	 6.102945001977893e-001	 1.166739734437157e+001
 8.680835099479130e-001	 6.198508594416141e-001	 1.131688038075069e+001
 9.362312196161845e-001	 5.249008958582897e-001	 1.470836321588442e+001
 9.304823156717123e-001	 5.350256728629237e-001	 1.439724765479254e+001
 9.246154064903093e-001	 5.451019343554696e-001	 1.407958080692046e+001
 9.186310508817270e-001	 5.551276578453964e-001	 1.375630262546079e+001
 9.125298531618775e-001	 5.651008279139121e-001	 1.342828119574378e+001
 9.063124630966118e-001	 5.750194374764717e-001	 1.309630443587259e+001
 8.999795758039179e-001	 5.848814890477754e-001	 1.276107160381293e+001
 8.935319316142809e-001	 5.946849960076830e-001	 1.242318464338173e+001
 8.869703158890229e-001	 6.044279838664362e-001	 1.208313940460326e+001
 8.802955587965075e-001	 6.141084915275836e-001	 1.174131677683848e+001
 8.735085350461601e-001	 6.237245725469760e-001	 1.139797377591650e+001
 9.420457780703714e-001	 5.281608458362019e-001	 1.470972377628254e+001
 9.362611699778098e-001	 5.383485037898442e-001	 1.440796260093973e+001
 9.303578237648393e-001	 5.484873449209083e-001	 1.409906172478253e+001
 9.243363017117704e-001	 5.585753341779821e-001	 1.378404796573950e+001
 9.181972118876943e-001	 5.686104436253139e-001	 1.346387944050483e+001
 9.119412080939141e-001	 5.785906537131572e-001	 1.313943697314485e+001
 9.055689897655316e-001	 5.885139545506302e-001	 1.281151528928161e+001
 8.990813018309456e-001	 5.983783471794885e-001	 1.248081402898665e+001
 8.924789345290570e-001	 6.081818448472069e-001	 1.214792861468422e+001
 8.857627231840892e-001	 6.179224742777476e-001	 1.181334101344819e+001
 8.789335479379550e-001	 6.275982769383739e-001	 1.147741043604749e+001
 9.478603248952329e-001	 5.314207892950618e-001	 1.471050959574680e+001
 9.420400127259289e-001	 5.416713280720396e-001	 1.441769901248032e+001
 9.361002295542299e-001	 5.518727487165535e-001	 1.411720191941826e+001
 9.300415411309952e-001	 5.620230036163344e-001	 1.381013931373125e+001
 9.238645592784844e-001	 5.721200523186920e-001	 1.349756702828702e+001
 9.175699418334398e-001	 5.821618628087035e-001	 1.318046683558975e+001
 9.111583925480667e-001	 5.921464127899264e-001	 1.285973731515837e+001
 9.046306609486619e-001	 6.020716909660352e-001	 1.253618451817509e+001
 8.979875421516954e-001	 6.119356983217603e-001	 1.221051246655390e+001
 8.912298766372340e-001	 6.217364494015001e-001	 1.188331352681969e+001
 8.843585499796631e-001	 6.314719735839530e-001	 1.155505870230310e+001
 9.536748615445378e-001	 5.346807270497089e-001	 1.471046883265708e+001
 9.478188453609252e-001	 5.449941465400575e-001	 1.442620301006273e+001
 9.418426252942369e-001	 5.552581465885836e-001	 1.413374877926387e+001
 9.357467705658704e-001	 5.654706670221815e-001	 1.383432853083248e+001
 9.295318967512446e-001	 5.756296548712437e-001	 1.352910339708793e+001
 9.231986657225305e-001	 5.857330656556907e-001	 1.321916403883294e+001
 9.167477855490266e-001	 5.957788646735407e-001	 1.290552117211553e+001
 9.101800103549163e-001	 6.057650282904066e-001	 1.258909586955997e+001
 9.034961401342255e-001	 6.156895452282952e-001	 1.227070967428823e+001
 8.966970205228557e-001	 6.255504178520606e-001	 1.195107456784740e+001
 8.897835425276497e-001	 6.353456634518566e-001	 1.163078283683907e+001
 9.594893894720562e-001	 5.379406599149837e-001	 1.470935054217690e+001
 9.535976693276570e-001	 5.483169600244462e-001	 1.443322154260303e+001
 9.475850124206173e-001	 5.586435393831772e-001	 1.414845035728944e+001
 9.414519914428656e-001	 5.689183252572523e-001	 1.385636788624670e+001
 9.351992257229722e-001	 5.791392521601656e-001	 1.355824804536906e+001
 9.288273811685280e-001	 5.893042631466993e-001	 1.325529822352748e+001
 9.223371701659145e-001	 5.994113111093489e-001	 1.294864945499376e+001
 9.157293514371939e-001	 6.094583600756858e-001	 1.263934634246027e+001
 9.090047298539377e-001	 6.194433865050097e-001	 1.232833676956467e+001
 9.021641562078695e-001	 6.293643805826485e-001	 1.201646144539057e+001
 8.952085269382796e-001	 6.392193475102295e-001	 1.170444332685177e+001
 9.653039101315574e-001	 5.412005887057253e-001	 1.470690482388405e+001
 9.593764860709807e-001	 5.516397693557534e-001	 1.443850254078244e+001
 9.533273923691268e-001	 5.620289279465123e-001	 1.416105553268569e+001
 9.471572051884509e-001	 5.723659791832759e-001	 1.387601022910050e+001
 9.408665476106650e-001	 5.826488450626549e-001	 1.358476071674941e+001
 9.344560895787747e-001	 5.928754561743090e-001	 1.328863885468439e+001
 9.279265477962357e-001	 6.030437530052284e-001	 1.298890407873752e+001
 9.212786855829814e-001	 6.131516872449564e-001	 1.268673293131175e+001
 9.145133126881202e-001	 6.231972230901023e-001	 1.238320835632757e+001
 9.076312850591891e-001	 6.331783385464836e-001	 1.207930880286798e+001
 9.006335045679182e-001	 6.430930267272152e-001	 1.177589718468447e+001
 9.711184249768111e-001	 5.444605142367740e-001	 1.470288297036298e+001
 9.651552970357530e-001	 5.549625753645266e-001	 1.444179507140497e+001
 9.590697665755227e-001	 5.654143131247673e-001	 1.417131417322203e+001
 9.528624132290952e-001	 5.758136296619807e-001	 1.389300916095008e+001
 9.465338638313204e-001	 5.861584344559083e-001	 1.360840158472717e+001
 9.400847923606115e-001	 5.964466456311005e-001	 1.331895542058600e+001
 9.335159198374937e-001	 6.066761912690550e-001	 1.302606649338618e+001
 9.268280141797645e-001	 6.168450107213014e-001	 1.273105159853481e+001
 9.200218900140618e-001	 6.269510559217716e-001	 1.243513736323304e+001
 9.130984084437296e-001	 6.369922926967850e-001	 1.213944889189323e+001
 9.060584767729306e-001	 6.469667020709586e-001	 1.184499824416424e+001
 9.769329354615869e-001	 5.477204373229693e-001	 1.469703761671908e+001
 9.709341036668303e-001	 5.582853788813141e-001	 1.444284949258272e+001
 9.648121364755610e-001	 5.687996957641206e-001	 1.417897729824792e+001
 9.585676169912680e-001	 5.792612775550958e-001	 1.390711920866651e+001
 9.522011758019360e-001	 5.896680212171226e-001	 1.362893143742927e+001
 9.457134909213811e-001	 6.000178324096539e-001	 1.334601763129851e+001
 9.391052876871932e-001	 6.103086268087055e-001	 1.305991789816286e+001
 9.323773386150284e-001	 6.205383314278041e-001	 1.277209750592115e+001
 9.255304632090506e-001	 6.307048859382155e-001	 1.248393529397080e+001
 9.185655277284058e-001	 6.408062439867723e-001	 1.219671184307145e+001
 9.114834449096819e-001	 6.508403745096034e-001	 1.191159745332566e+001
 9.827474430396535e-001	 5.509803587791509e-001	 1.468912289097836e+001
 9.767129074090700e-001	 5.616081807366634e-001	 1.444141760971406e+001
 9.705545035049973e-001	 5.721850767107506e-001	 1.418379724231413e+001
 9.642728179014387e-001	 5.827089237243498e-001	 1.391809599768258e+001
 9.578684849395088e-001	 5.931776062234953e-001	 1.364611186239003e+001
 9.513421866684246e-001	 6.035890174025493e-001	 1.336959561680480e+001
 9.446946527428373e-001	 6.139410605320561e-001	 1.309023945469966e+001
 9.379266602762590e-001	 6.242316502875478e-001	 1.280966524460624e+001
 9.310390336503758e-001	 6.344587140776324e-001	 1.252941247554977e+001
 9.240326442801321e-001	 6.446201933696649e-001	 1.225092593407951e+001
 9.169084103345374e-001	 6.547140450112940e-001	 1.197554316367480e+001
 9.885619491647814e-001	 5.542402794201590e-001	 1.467889456533762e+001
 9.824917097073290e-001	 5.649309817611228e-001	 1.443725283222599e+001
 9.762968690995890e-001	 5.755704568108352e-001	 1.418552781938826e+001
 9.699780173860767e-001	 5.861565690314716e-001	 1.392569642559005e+001
 9.635357926610374e-001	 5.966871903522223e-001	 1.365970543135872e+001
 9.569708810090841e-001	 6.071602015023673e-001	 1.338946012477251e+001
 9.502840164019309e-001	 6.175734933469834e-001	 1.311681249943584e+001
 9.434759805509428e-001	 6.279249682236161e-001	 1.284354906368565e+001
 9.365476027153261e-001	 6.382125412782214e-001	 1.257137830463559e+001
 9.294997594658225e-001	 6.484341417986819e-001	 1.230191785514236e+001
 9.223333744038621e-001	 6.585877145441748e-001	 1.203668141613743e+001
 8.680835099479130e-001	 6.198508594416141e-001	 1.131688038075069e+001
 8.612279813655368e-001	 6.293412734143905e-001	 1.097092461460130e+001
 8.542627519879941e-001	 6.387638395514256e-001	 1.063688403544840e+001
 8.471888204381821e-001	 6.481166733187914e-001	 1.031658800444235e+001
 8.400072281517993e-001	 6.573979096404267e-001	 1.001180346131862e+001
 8.327190589071605e-001	 6.666057041068111e-001	 9.724223170755485e+000
 8.253254383142842e-001	 6.757382341700818e-001	 9.439646107215992e+000
 8.178275332637144e-001	 6.847937003240027e-001	 9.143166717046782e+000
 8.102265513355921e-001	 6.937703272672137e-001	 8.836349502365648e+000
 8.025237401695791e-001	 7.026663650481889e-001	 8.520805667730379e+000
 7.947203867962918e-001	 7.114800901903866e-001	 8.198190297106445e+000
 8.735085350461601e-001	 6.237245725469760e-001	 1.139797377591649e+001
 8.666101633338729e-001	 6.332742961751409e-001	 1.105998741029020e+001
 8.596014052593092e-001	 6.427557479574492e-001	 1.073538637832828e+001
 8.524832656861682e-001	 6.521670315827175e-001	 1.042601413008776e+001
 8.452567925585081e-001	 6.615062703192322e-001	 1.013364731454226e+001
 8.379230764276171e-001	 6.707716082309716e-001	 9.856815525883240e+000
 8.304832499379156e-001	 6.799612113801955e-001	 9.572747130549825e+000
 8.229384872723257e-001	 6.890732690147887e-001	 9.277842167340022e+000
 8.152900035576537e-001	 6.981059947387768e-001	 8.973638092758010e+000
 8.075390542305773e-001	 7.070576276644425e-001	 8.661715683205152e+000
 7.996869343648978e-001	 7.159264335445058e-001	 8.343697887925213e+000
 8.789335479379550e-001	 6.275982769383739e-001	 1.147741043604749e+001
 8.719923331922083e-001	 6.372073100885021e-001	 1.114772037218952e+001
 8.649400465186129e-001	 6.467476473835925e-001	 1.083294212577274e+001
 8.577776990216597e-001	 6.562173807352369e-001	 1.053492258180122e+001
 8.505063451537499e-001	 6.656146217560931e-001	 1.025543684053933e+001
 8.431270822391361e-001	 6.749375029836685e-001	 9.983281643143274e+000
 8.356410499566216e-001	 6.841841790903721e-001	 9.700104281594273e+000
 8.280494297814941e-001	 6.933528280782360e-001	 9.407136421993927e+000
 8.203534443872105e-001	 7.024416524566974e-001	 9.105872095914682e+000
 8.125543570074461e-001	 7.114488804018744e-001	 8.797846395860150e+000
 8.046534707591729e-001	 7.203727668957749e-001	 8.484634425716884e+000
 8.843585499796631e-001	 6.314719735839530e-001	 1.155505870230310e+001
 8.773744922861855e-001	 6.411403161374444e-001	 1.123401434265859e+001
 8.702786771006543e-001	 6.507395388275513e-001	 1.092945757821107e+001
 8.630721217683391e-001	 6.602677217886619e-001	 1.064322833237170e+001
 8.557558872499758e-001	 6.697229649778331e-001	 1.037537838826193e+001
 8.483310776427658e-001	 6.791033894061228e-001	 1.010364083781848e+001
 8.407988396598859e-001	 6.884071383561142e-001	 9.821734565090955e+000
 8.331603620689753e-001	 6.976323785840092e-001	 9.531056450365350e+000
 8.254168750901276e-001	 7.067773015046820e-001	 9.233042587279819e+000
 8.175696497540029e-001	 7.158401243581070e-001	 8.929167394656426e+000
 8.096199972207286e-001	 7.248190913556027e-001	 8.620942691747548e+000
 8.897835425276497e-001	 6.353456634518566e-001	 1.163078283683907e+001
 8.827566419614469e-001	 6.450733153049384e-001	 1.131875527352886e+001
 8.756172983401800e-001	 6.547314232870192e-001	 1.102483349472582e+001
 8.683665352498886e-001	 6.643180557553057e-001	 1.075084031789099e+001
 8.610054201596336e-001	 6.738313010112742e-001	 1.048906317848946e+001
 8.535350639395547e-001	 6.832692685395544e-001	 1.021791881783488e+001
 8.459566203371921e-001	 6.926300902329239e-001	 9.937659848138763e+000
 8.382712854125242e-001	 7.019119216017750e-001	 9.649614303235657e+000
 8.304802969322704e-001	 7.111129429664369e-001	 9.355146079810048e+000
 8.225849337240644e-001	 7.202313606307627e-001	 9.055654192635965e+000
 8.145865149911749e-001	 7.292654080353987e-001	 8.752572001711300e+000
 8.952085269382796e-001	 6.392193475102295e-001	 1.170444332685177e+001
 8.881387835636345e-001	 6.490063085739545e-001	 1.140182455249588e+001
 8.809559115719381e-001	 6.587233017596905e-001	 1.111896543630569e+001
 8.736609407899915e-001	 6.683683836474812e-001	 1.085715285680104e+001
 8.662549451951725e-001	 6.779396308832394e-001	 1.059629912200463e+001
 8.587390424305520e-001	 6.874351414251838e-001	 1.032614610361417e+001
 8.511143932780236e-001	 6.968530357763036e-001	 1.004790688325600e+001
 8.433822010898957e-001	 7.061914582011980e-001	 9.762827128943322e+000
 8.355437111795052e-001	 7.154485779256691e-001	 9.472184529192280e+000
 8.276002101714470e-001	 7.246225903174626e-001	 9.177288217437409e+000
 8.195530253121230e-001	 7.337117180465720e-001	 8.879478177951267e+000
 9.006335045679182e-001	 6.430930267272152e-001	 1.177589718468448e+001
 8.935209184383905e-001	 6.529392969274620e-001	 1.148309932479296e+001
 8.862945181306751e-001	 6.627151752432591e-001	 1.121174410379162e+001
 8.789553397123300e-001	 6.724187064775015e-001	 1.095766923144951e+001
 8.715044636690420e-001	 6.820479556205513e-001	 1.069711933162073e+001
 8.639430144168067e-001	 6.916010091042313e-001	 1.042835804794516e+001
 8.562721597718637e-001	 7.010759760417556e-001	 1.015250732560090e+001
 8.484931103788458e-001	 7.104709894519441e-001	 9.870717183935710e+000
 8.406071190976969e-001	 7.197842074660846e-001	 9.584165333894564e+000
 8.326154803499684e-001	 7.290138145158300e-001	 9.294056797197802e+000
 8.245195294251837e-001	 7.381580225005316e-001	 9.001623517756764e+000
 9.060584767729306e-001	 6.469667020709586e-001	 1.184499824416424e+001
 8.989030479313578e-001	 6.568722813484320e-001	 1.156245281034650e+001
 8.916331193511397e-001	 6.667070447354198e-001	 1.130305565366011e+001
 8.842497333405870e-001	 6.764690252576789e-001	 1.105138043955665e+001
 8.767539768936911e-001	 6.861562762500328e-001	 1.079156183595052e+001
 8.691469811993678e-001	 6.957668726179176e-001	 1.052459485015893e+001
 8.614299211081966e-001	 7.052989120847824e-001	 1.025149774459634e+001
 8.536040145571291e-001	 7.147505164236784e-001	 9.973311837975000e+000
 8.456705219527116e-001	 7.241198326713901e-001	 9.691101330264106e+000
 8.376307455134441e-001	 7.334050343234865e-001	 9.405953142033249e+000
 8.294860285719685e-001	 7.426043225086872e-001	 9.118976757903269e+000
 9.114834449096819e-001	 6.508403745096034e-001	 1.191159745332566e+001
 9.042851733881780e-001	 6.608052628198342e-001	 1.163975461660188e+001
 8.969717165680791e-001	 6.706989112338671e-001	 1.138997239723346e+001
 8.895441229984449e-001	 6.805193410003271e-001	 1.113832144212326e+001
 8.820034861815690e-001	 6.902645937985061e-001	 1.087966958669083e+001
 8.743509440792836e-001	 6.999327330074622e-001	 1.061490156484692e+001
 8.665876785765052e-001	 7.095218449608861e-001	 1.034491963019111e+001
 8.587149149025006e-001	 7.190300401860672e-001	 1.007064357422337e+001
 8.507339210104147e-001	 7.284554546252924e-001	 9.793010782881918e+000
 8.426460069156920e-001	 7.377962508380541e-001	 9.512976321287518e+000
 8.344525239940882e-001	 7.470506191824476e-001	 9.231513035592368e+000
 9.169084103345374e-001	 6.547140450112940e-001	 1.197554316367481e+001
 9.096672961544936e-001	 6.647382423246392e-001	 1.171487104720326e+001
 9.023103111162404e-001	 6.746907757362944e-001	 1.146969083425036e+001
 8.948385100095865e-001	 6.845696547177584e-001	 1.121853232628534e+001
 8.872529928451248e-001	 6.943729092927946e-001	 1.096149046072966e+001
 8.795549043576029e-001	 7.040985913140858e-001	 1.069932810534895e+001
 8.717454334662736e-001	 7.137447757255694e-001	 1.043281939398475e+001
 8.638258126927161e-001	 7.233095618087753e-001	 1.016274998441825e+001
 8.557973175366715e-001	 7.327910744114978e-001	 9.889917370371643e+000
 8.476612658105285e-001	 7.421874651571557e-001	 9.615131236721611e+000
 8.394190169331532e-001	 7.514969136332221e-001	 9.339213845942263e+000
 9.223333744038621e-001	 6.585877145441748e-001	 1.203668141613743e+001
 9.150494175759466e-001	 6.686712208458169e-001	 1.178700505743191e+001
 9.076489043303718e-001	 6.786826392403966e-001	 1.154224274844193e+001
 9.001328956976941e-001	 6.886199674222856e-001	 1.129205829736899e+001
 8.925024981968082e-001	 6.984812237597207e-001	 1.103707725728956e+001
 8.847588633353754e-001	 7.082644485790088e-001	 1.077792924222733e+001
 8.769031870669851e-001	 7.179677054343339e-001	 1.051524836542461e+001
 8.689367092055303e-001	 7.275890823614685e-001	 1.024967375934325e+001
 8.608607127973482e-001	 7.371266931137128e-001	 9.981850166850881e+000
 8.526765234517708e-001	 7.465786783784127e-001	 9.712428591813934e+000
 8.443855086307747e-001	 7.559432069724200e-001	 9.442066996171660e+000
 7.947203867962918e-001	 7.114800901903866e-001	 8.198190297106450e+000
 7.868190097466631e-001	 7.202085038994671e-001	 7.878587083871226e+000
 7.788198097054105e-001	 7.288512684601431e-001	 7.570296460049486e+000
 7.707241875392233e-001	 7.374067477751456e-001	 7.272445961229255e+000
 7.625335804254584e-001	 7.458733364915255e-001	 6.984123500648917e+000
 7.542494610032443e-001	 7.542494610032443e-001	 6.704380070729241e+000
 7.458733364915253e-001	 7.625335804254582e-001	 6.432232480371058e+000
 7.374067477751457e-001	 7.707241875392235e-001	 6.166666111666500e+000
 7.288512684601429e-001	 7.788198097054103e-001	 5.906637679567864e+000
 7.202085038994671e-001	 7.868190097466631e-001	 5.651077978092945e+000
 7.114800901903867e-001	 7.947203867962918e-001	 5.398894596808908e+000
 7.996869343648978e-001	 7.159264335445058e-001	 8.343697887925211e+000
 7.917361782309124e-001	 7.247093948438794e-001	 8.029148523033182e+000
 7.836869877675128e-001	 7.334061717367356e-001	 7.725822341776881e+000
 7.755407725960195e-001	 7.420151179011197e-001	 7.432771511979412e+000
 7.672989788753402e-001	 7.505346179515288e-001	 7.149007381534921e+000
 7.589630884477717e-001	 7.589630884477715e-001	 6.873503371416595e+000
 7.505346179515285e-001	 7.672989788753400e-001	 6.605197906311267e+000
 7.420151179011199e-001	 7.755407725960197e-001	 6.342997365662978e+000
 7.334061717367358e-001	 7.836869877675127e-001	 6.085779037782125e+000
 7.247093948438793e-001	 7.917361782309127e-001	 5.832394059712930e+000
 7.159264335445058e-001	 7.996869343648978e-001	 5.581670325703028e+000
 8.046534707591729e-001	 7.203727668957749e-001	 8.484634425716884e+000
 7.966533356520170e-001	 7.292102756626065e-001	 8.175270972297016e+000
 7.885541548790407e-001	 7.379610647660093e-001	 7.876972886784170e+000
 7.803573468161730e-001	 7.466234776593648e-001	 7.588726556609457e+000
 7.720643666038530e-001	 7.551958889246426e-001	 7.309476746797928e+000
 7.636767052875213e-001	 7.636767052875213e-001	 7.038129669076056e+000
 7.551958889246425e-001	 7.720643666038529e-001	 6.773556089844671e+000
 7.466234776593649e-001	 7.803573468161731e-001	 6.514594458940747e+000
 7.379610647660093e-001	 7.885541548790407e-001	 6.260054040991395e+000
 7.292102756626064e-001	 7.966533356520171e-001	 6.008718031167732e+000
 7.203727668957749e-001	 8.046534707591729e-001	 5.759346637325121e+000
 8.096199972207286e-001	 7.248190913556027e-001	 8.620942691747548e+000
 8.015704832392284e-001	 7.337111474807115e-001	 8.316870244503026e+000
 7.934213122567331e-001	 7.425159486865454e-001	 8.023641622078229e+000
 7.851739114037614e-001	 7.512318282018451e-001	 7.740186828016937e+000
 7.768297448022624e-001	 7.598571505760740e-001	 7.465393831441107e+000
 7.683903127008027e-001	 7.683903127008027e-001	 7.198111797151127e+000
 7.598571505760737e-001	 7.768297448022624e-001	 6.937154355210824e+000
 7.512318282018452e-001	 7.851739114037617e-001	 6.681302891108085e+000
 7.425159486865454e-001	 7.934213122567329e-001	 6.429309837442201e+000
 7.337111474807111e-001	 8.015704832392283e-001	 6.179901948101954e+000
 7.248190913556026e-001	 8.096199972207284e-001	 5.931783536058056e+000
 8.145865149911749e-001	 7.292654080353987e-001	 8.752572001711299e+000
 8.064876222217989e-001	 7.382120114232562e-001	 8.453869295080546e+000
 7.982884611173302e-001	 7.470708246369249e-001	 8.165729704935449e+000
 7.899904675628616e-001	 7.558401706805250e-001	 7.887036061021370e+000
 7.815951146618347e-001	 7.645184040710302e-001	 7.616629132556700e+000
 7.731039118659235e-001	 7.731039118659235e-001	 7.353311004483603e+000
 7.645184040710302e-001	 7.815951146618348e-001	 7.095848493215351e+000
 7.558401706805247e-001	 7.899904675628617e-001	 6.842976582154734e+000
 7.470708246369250e-001	 7.982884611173302e-001	 6.593401857103804e+000
 7.382120114232562e-001	 8.064876222217989e-001	 6.345805921690681e+000
 7.292654080353987e-001	 8.145865149911749e-001	 6.098848773110309e+000
 8.195530253121230e-001	 7.337117180465720e-001	 8.879478177951265e+000
 8.114047538289799e-001	 7.427128686153039e-001	 8.586198176192735e+000
 8.031556026775721e-001	 7.516256937557304e-001	 8.303145862767535e+000
 7.948070164975510e-001	 7.604485062473675e-001	 8.029165921602578e+000
 7.863604773738363e-001	 7.691796505747182e-001	 7.763061331439007e+000
 7.778175039611932e-001	 7.778175039611930e-001	 7.503596873652881e+000
 7.691796505747182e-001	 7.863604773738364e-001	 7.249502678988042e+000
 7.604485062473674e-001	 7.948070164975511e-001	 6.999477792671197e+000
 7.516256937557302e-001	 8.031556026775720e-001	 6.752193737216913e+000
 7.427128686153038e-001	 8.114047538289799e-001	 6.506298052232378e+000
 7.337117180465720e-001	 8.195530253121230e-001	 6.260417790694978e+000
 8.245195294251837e-001	 7.381580225005316e-001	 9.001623517756764e+000
 8.163218792900235e-001	 7.472137201819169e-001	 8.713793987647534e+000
 8.080227381541983e-001	 7.561805571815429e-001	 8.435806330310326e+000
 7.996235594119070e-001	 7.650568360543371e-001	 8.166475933891132e+000
 7.911258341295326e-001	 7.738408912523456e-001	 7.904577213758655e+000
 7.825310901649194e-001	 7.825310901649194e-001	 7.648847237570382e+000
 7.738408912523455e-001	 7.911258341295328e-001	 7.397989388083214e+000
 7.650568360543371e-001	 7.996235594119072e-001	 7.150677042382248e+000
 7.561805571815429e-001	 8.080227381541985e-001	 6.905557246042312e+000
 7.472137201819169e-001	 8.163218792900235e-001	 6.661254360725245e+000
 7.381580225005318e-001	 8.245195294251837e-001	 6.416373663888748e+000
 8.294860285719685e-001	 7.426043225086872e-001	 9.118976757903271e+000
 8.212389998341815e-001	 7.517145672481576e-001	 8.836600824711461e+000
 8.128898687639495e-001	 7.607354160529445e-001	 8.563634784248361e+000
 8.044400975100068e-001	 7.696651612533977e-001	 8.298873405009628e+000
 7.958911861201905e-001	 7.785021272691188e-001	 8.041071587885092e+000
 7.872446716554119e-001	 7.872446716554118e-001	 7.788948094406906e+000
 7.785021272691187e-001	 7.958911861201904e-001	 7.541189310991117e+000
 7.696651612533977e-001	 8.044400975100069e-001	 7.296453027076723e+000
 7.607354160529446e-001	 8.128898687639495e-001	 7.053372204884093e+000
 7.517145672481576e-001	 8.212389998341815e-001	 6.810558718513040e+000
 7.426043225086871e-001	 8.294860285719686e-001	 6.566607040270220e+000
 8.344525239940882e-001	 7.470506191824476e-001	 9.231513035592368e+000
 8.261561166907057e-001	 7.562154109390886e-001	 8.954569722955119e+000
 8.177569957235656e-001	 7.652902715085167e-001	 8.686562275385047e+000
 8.092566319959278e-001	 7.742734829965139e-001	 8.426273347852847e+000
 8.006565345370750e-001	 7.831633597902451e-001	 8.172447201433061e+000
 7.919582496109785e-001	 7.919582496109784e-001	 7.923793520920849e+000
 7.831633597902452e-001	 8.006565345370749e-001	 7.678991266127138e+000
 7.742734829965138e-001	 8.092566319959280e-001	 7.436692533990960e+000
 7.652902715085169e-001	 8.177569957235658e-001	 7.195526408459431e+000
 7.562154109390885e-001	 8.261561166907058e-001	 6.954102775081478e+000
 7.470506191824476e-001	 8.344525239940881e-001	 6.711016077433545e+000
 8.394190169331532e-001	 7.514969136332221e-001	 9.339213845942266e+000
 8.310732310888485e-001	 7.607162523797725e-001	 9.067658600256239e+000
 8.226241202497858e-001	 7.698451246868412e-001	 8.804527158459200e+000
 8.140731640737471e-001	 7.788818024356486e-001	 8.548598401895392e+000
 8.054218805714530e-001	 7.878245899809319e-001	 8.298614656106793e+000
 7.966718252099275e-001	 7.966718252099274e-001	 8.053285584257605e+000
 7.878245899809320e-001	 8.054218805714529e-001	 7.811292111364693e+000
 7.788818024356486e-001	 8.140731640737469e-001	 7.571290355718649e+000
 7.698451246868411e-001	 8.226241202497859e-001	 7.331915543687282e+000
 7.607162523797726e-001	 8.310732310888486e-001	 7.091785884083468e+000
 7.514969136332225e-001	 8.394190169331534e-001	 6.849506378462738e+000
 8.443855086307747e-001	 7.559432069724200e-001	 9.442066996171660e+000
 8.359903442578607e-001	 7.652170926952719e-001	 9.175832196077067e+000
 8.274912435593508e-001	 7.743999767264992e-001	 8.917475019706176e+000
 8.188896949475417e-001	 7.834901207227666e-001	 8.665778752106334e+000
 8.101872254145905e-001	 7.924858190063862e-001	 8.419492320914541e+000
 8.013853996305682e-001	 8.013853996305679e-001	 8.177334252280426e+000
 7.924858190063862e-001	 8.101872254145907e-001	 7.937996654171032e+000
 7.834901207227666e-001	 8.188896949475419e-001	 7.700149202705369e+000
 7.743999767264997e-001	 8.274912435593509e-001	 7.462443106958664e+000
 7.652170926952719e-001	 8.359903442578606e-001	 7.223515027666623e+000
 7.559432069724201e-001	 8.443855086307748e-001	 6.981990925454917e+000
 7.114800901903867e-001	 7.947203867962918e-001	 5.398894596808908e+000
 7.026663650481888e-001	 8.025237401695792e-001	 5.151814654781222e+000
 6.937703272672139e-001	 8.102265513355922e-001	 4.912277376925378e+000
 6.847937003240027e-001	 8.178275332637143e-001	 4.680128908797725e+000
 6.757382341700814e-001	 8.253254383142840e-001	 4.455214627527902e+000
 6.666057041068113e-001	 8.327190589071603e-001	 4.237379445035278e+000
 6.573979096404270e-001	 8.400072281517993e-001	 4.025117878378477e+000
 6.481166733187913e-001	 8.471888204381821e-001	 3.817545853778628e+000
 6.387638395514258e-001	 8.542627519879944e-001	 3.615444916739393e+000
 6.293412734143902e-001	 8.612279813655365e-001	 3.419711414285870e+000
 6.198508594416140e-001	 8.680835099479131e-001	 3.231348251293238e+000
 7.159264335445058e-001	 7.996869343648978e-001	 5.581670325703027e+000
 7.070576276644425e-001	 8.075390542305772e-001	 5.335415389697876e+000
 6.981059947387769e-001	 8.152900035576537e-001	 5.096236823051474e+000
 6.890732690147887e-001	 8.229384872723257e-001	 4.864036205952903e+000
 6.799612113801955e-001	 8.304832499379156e-001	 4.638717866486830e+000
 6.707716082309714e-001	 8.379230764276171e-001	 4.420189226581962e+000
 6.615062703192322e-001	 8.452567925585079e-001	 4.207917846197268e+000
 6.521670315827175e-001	 8.524832656861682e-001	 4.000054088152731e+000
 6.427557479574488e-001	 8.596014052593093e-001	 3.797146879636823e+000
 6.332742961751408e-001	 8.666101633338729e-001	 3.600167257106902e+000
 6.237245725469760e-001	 8.735085350461599e-001	 3.410198389819251e+000
 7.203727668957749e-001	 8.046534707591729e-001	 5.759346637325121e+000
 7.114488804018746e-001	 8.125543570074461e-001	 5.513857294198431e+000
 7.024416524566977e-001	 8.203534443872104e-001	 5.275040871832530e+000
 6.933528280782358e-001	 8.280494297814942e-001	 5.042844680286305e+000
 6.841841790903720e-001	 8.356410499566217e-001	 4.817222122998717e+000
 6.749375029836684e-001	 8.431270822391361e-001	 4.598132960474204e+000
 6.656146217560932e-001	 8.505063451537500e-001	 4.385523154994825e+000
 6.562173807352369e-001	 8.577776990216597e-001	 4.177726841226474e+000
 6.467476473835925e-001	 8.649400465186132e-001	 3.974360993072871e+000
 6.372073100885021e-001	 8.719923331922082e-001	 3.776460817762597e+000
 6.275982769383739e-001	 8.789335479379549e-001	 3.585179221868223e+000
 7.248190913556026e-001	 8.096199972207284e-001	 5.931783536058054e+000
 7.158401243581071e-001	 8.175696497540029e-001	 5.687007986465055e+000
 7.067773015046822e-001	 8.254168750901275e-001	 5.448561310623571e+000
 6.976323785840093e-001	 8.331603620689752e-001	 5.216427031006190e+000
 6.884071383561142e-001	 8.407988396598859e-001	 4.990597941494658e+000
 6.791033894061229e-001	 8.483310776427658e-001	 4.771076308591818e+000
 6.697229649778332e-001	 8.557558872499758e-001	 4.557873910029810e+000
 6.602677217886620e-001	 8.630721217683390e-001	 4.350337471901296e+000
 6.507395388275513e-001	 8.702786771006544e-001	 4.146857647541006e+000
 6.411403161374443e-001	 8.773744922861855e-001	 3.948357291419125e+000
 6.314719735839529e-001	 8.843585499796630e-001	 3.756048763703598e+000
 7.292654080353987e-001	 8.145865149911749e-001	 6.098848773110308e+000
 7.202313606307628e-001	 8.225849337240645e-001	 5.854742522335365e+000
 7.111129429664369e-001	 8.304802969322704e-001	 5.616677130402332e+000
 7.019119216017749e-001	 8.382712854125243e-001	 5.384662997250008e+000
 6.926300902329238e-001	 8.459566203371922e-001	 5.158722808117004e+000
 6.832692685395544e-001	 8.535350639395548e-001	 4.938891691963338e+000
 6.738313010112741e-001	 8.610054201596330e-001	 4.725217206968256e+000
 6.643180557553057e-001	 8.683665352498885e-001	 4.517661919094011e+000
 6.547314232870189e-001	 8.756172983401799e-001	 4.314409755651129e+000
 6.450733153049383e-001	 8.827566419614467e-001	 4.115624370937009e+000
 6.353456634518566e-001	 8.897835425276497e-001	 3.922567534976735e+000
 7.337117180465720e-001	 8.195530253121230e-001	 6.260417790694974e+000
 7.246225903174626e-001	 8.276002101714469e-001	 6.016943350104561e+000
 7.154485779256692e-001	 8.355437111795050e-001	 5.779274488930338e+000
 7.061914582011981e-001	 8.433822010898959e-001	 5.547439327464701e+000
 6.968530357763038e-001	 8.511143932780237e-001	 5.321481124310544e+000
 6.874351414251840e-001	 8.587390424305522e-001	 5.101458411594195e+000
 6.779396308832392e-001	 8.662549451951724e-001	 4.887444946996465e+000
 6.683683836474814e-001	 8.736609407899914e-001	 4.679529474049516e+000
 6.587233017596903e-001	 8.809559115719380e-001	 4.476793085257911e+000
 6.490063085739543e-001	 8.881387835636344e-001	 4.278032566051135e+000
 6.392193475102294e-001	 8.952085269382795e-001	 4.084498862580780e+000
 7.381580225005318e-001	 8.245195294251837e-001	 6.416373663888748e+000
 7.290138145158300e-001	 8.326154803499682e-001	 6.173500262710945e+000
 7.197842074660847e-001	 8.406071190976967e-001	 5.936246671079979e+000
 7.104709894519440e-001	 8.484931103788458e-001	 5.704649745820757e+000
 7.010759760417558e-001	 8.562721597718638e-001	 5.478764177393605e+000
 6.916010091042315e-001	 8.639430144168068e-001	 5.258662621388980e+000
 6.820479556205514e-001	 8.715044636690420e-001	 5.044435636639085e+000
 6.724187064775016e-001	 8.789553397123299e-001	 4.836191420973385e+000
 6.627151752432593e-001	 8.862945181306753e-001	 4.633786589969260e+000
 6.529392969274620e-001	 8.935209184383905e-001	 4.435355520173644e+000
 6.430930267272152e-001	 9.006335045679181e-001	 4.241609182418559e+000
 7.426043225086871e-001	 8.294860285719686e-001	 6.566607040270220e+000
 7.334050343234865e-001	 8.376307455134441e-001	 6.324310347412372e+000
 7.241198326713906e-001	 8.456705219527118e-001	 6.087494046451853e+000
 7.147505164236784e-001	 8.536040145571291e-001	 5.856194915787972e+000
 7.052989120847824e-001	 8.614299211081965e-001	 5.630470108234146e+000
 6.957668726179176e-001	 8.691469811993680e-001	 5.410397298194620e+000
 6.861562762500327e-001	 8.767539768936908e-001	 5.196074625314658e+000
 6.764690252576791e-001	 8.842497333405870e-001	 4.987620425141278e+000
 6.667070447354196e-001	 8.916331193511397e-001	 4.785172738865679e+000
 6.568722813484319e-001	 8.989030479313579e-001	 4.587370324922768e+000
 6.469667020709586e-001	 9.060584767729307e-001	 4.393668339172441e+000
 7.470506191824476e-001	 8.344525239940881e-001	 6.711016077433545e+000
 7.377962508380542e-001	 8.426460069156919e-001	 6.469277933063086e+000
 7.284554546252926e-001	 8.507339210104146e-001	 6.232924024392071e+000
 7.190300401860670e-001	 8.587149149025005e-001	 6.001982400991809e+000
 7.095218449608864e-001	 8.665876785765055e-001	 5.776503876155034e+000
 6.999327330074622e-001	 8.743509440792833e-001	 5.556562209083980e+000
 6.902645937985066e-001	 8.820034861815691e-001	 5.342254073447648e+000
 6.805193410003267e-001	 8.895441229984450e-001	 5.133698802306447e+000
 6.706989112338667e-001	 8.969717165680790e-001	 4.931037900984499e+000
 6.608052628198341e-001	 9.042851733881780e-001	 4.733857832476984e+000
 6.508403745096036e-001	 9.114834449096820e-001	 4.540449884164101e+000
 7.514969136332225e-001	 8.394190169331534e-001	 6.849506378462739e+000
 7.421874651571556e-001	 8.476612658105285e-001	 6.608314535087803e+000
 7.327910744114982e-001	 8.557973175366717e-001	 6.372451006523737e+000
 7.233095618087753e-001	 8.638258126927162e-001	 6.141926623463301e+000
 7.137447757255693e-001	 8.717454334662735e-001	 5.916777221184011e+000
 7.040985913140859e-001	 8.795549043576028e-001	 5.697063875996749e+000
 6.943729092927947e-001	 8.872529928451250e-001	 5.482872918007251e+000
 6.845696547177584e-001	 8.948385100095866e-001	 5.274315709577251e+000
 6.746907757362943e-001	 9.023103111162405e-001	 5.071528180521403e+000
 6.647382423246390e-001	 9.096672961544934e-001	 4.874602965844293e+000
 6.547140450112942e-001	 9.169084103345376e-001	 4.681731371385846e+000
 7.559432069724201e-001	 8.443855086307748e-001	 6.981990925454917e+000
 7.465786783784130e-001	 8.526765234517706e-001	 6.741338798252485e+000
 7.371266931137132e-001	 8.608607127973481e-001	 6.505996336889903e+000
 7.275890823614686e-001	 8.689367092055303e-001	 6.275948819392825e+000
 7.179677054343341e-001	 8.769031870669852e-001	 6.051208623757094e+000
 7.082644485790089e-001	 8.847588633353752e-001	 5.831815537846571e+000
 6.984812237597208e-001	 8.925024981968079e-001	 5.617836835580230e+000
 6.886199674222857e-001	 9.001328956976938e-001	 5.409367108130218e+000
 6.786826392403964e-001	 9.076489043303717e-001	 5.206527840552382e+000
 6.686712208458168e-001	 9.150494175759467e-001	 5.009466726092691e+000
 6.585877145441748e-001	 9.223333744038623e-001	 4.817294651781539e+000
 6.198508594416140e-001	 8.680835099479131e-001	 3.231348251293238e+000
 6.102945001977892e-001	 8.748283821075730e-001	 3.047930971014923e+000
 6.006741144412503e-001	 8.814616848543038e-001	 2.866982356692053e+000
 5.909916365275354e-001	 8.879825489111826e-001	 2.689562524433734e+000
 5.812490153734854e-001	 8.943901492657203e-001	 2.516806816892372e+000
 5.714482132060661e-001	 9.006837054341905e-001	 2.349917133181370e+000
 5.615912043072900e-001	 9.068624816840354e-001	 2.190153207405615e+000
 5.516799737568477e-001	 9.129257872143953e-001	 2.038823897506641e+000
 5.417165161740594e-001	 9.188729762948832e-001	 1.897278543961372e+000
 5.317028344607302e-001	 9.247034483627792e-001	 1.766898455310373e+000
 5.216409385464856e-001	 9.304166480789027e-001	 1.649088574552786e+000
 6.237245725469760e-001	 8.735085350461599e-001	 3.410198389819251e+000
 6.141084915275836e-001	 8.802955587965073e-001	 3.224875593266887e+000
 6.044279838664363e-001	 8.869703158890229e-001	 3.041739083682504e+000
 5.946849960076828e-001	 8.935319316142810e-001	 2.861871768973262e+000
 5.848814890477754e-001	 8.999795758039180e-001	 2.686434355854143e+000
 5.750194374764714e-001	 9.063124630966117e-001	 2.516656323216264e+000
 5.651008279139121e-001	 9.125298531618775e-001	 2.353826846529714e+000
 5.551276578453964e-001	 9.186310508817268e-001	 2.199285737438099e+000
 5.451019343554694e-001	 9.246154064903092e-001	 2.054414460437732e+000
 5.350256728629237e-001	 9.304823156717120e-001	 1.920627285843240e+000
 5.249008958582897e-001	 9.362312196161844e-001	 1.799362635181970e+000
 6.275982769383739e-001	 8.789335479379549e-001	 3.585179221868223e+000
 6.179224742777475e-001	 8.857627231840893e-001	 3.398194707411034e+000
 6.081818448472067e-001	 8.924789345290568e-001	 3.213060842806805e+000
 5.983783471794885e-001	 8.990813018309455e-001	 3.030891719625904e+000
 5.885139545506301e-001	 9.055689897655318e-001	 2.852881996531199e+000
 5.785906537131572e-001	 9.119412080939141e-001	 2.680297487833832e+000
 5.686104436253139e-001	 9.181972118876943e-001	 2.514465705637791e+000
 5.585753341779823e-001	 9.243363017117704e-001	 2.356766422294785e+000
 5.484873449209083e-001	 9.303578237648394e-001	 2.208622317523673e+000
 5.383485037898443e-001	 9.362611699778098e-001	 2.071489771732408e+000
 5.281608458362018e-001	 9.420457780703714e-001	 1.946849863881578e+000
 6.314719735839529e-001	 8.843585499796630e-001	 3.756048763703598e+000
 6.217364494015000e-001	 8.912298766372340e-001	 3.567639417450518e+000
 6.119356983217604e-001	 8.979875421516952e-001	 3.380694113030048e+000
 6.020716909660351e-001	 9.046306609486617e-001	 3.196366417332841e+000
 5.921464127899266e-001	 9.111583925480667e-001	 3.015893427126009e+000
 5.821618628087035e-001	 9.175699418334399e-001	 2.840585944328124e+000
 5.721200523186919e-001	 9.238645592784844e-001	 2.671818607563156e+000
 5.620230036163345e-001	 9.300415411309952e-001	 2.511020049401846e+000
 5.518727487165536e-001	 9.361002295542299e-001	 2.359663146205640e+000
 5.416713280720397e-001	 9.420400127259289e-001	 2.219255424563794e+000
 5.314207892950618e-001	 9.478603248952329e-001	 2.091329684953357e+000
 6.353456634518566e-001	 8.897835425276497e-001	 3.922567534976735e+000
 6.255504178520606e-001	 8.966970205228557e-001	 3.732963314319211e+000
 6.156895452282952e-001	 9.034961401342254e-001	 3.544387774990164e+000
 6.057650282904062e-001	 9.101800103549161e-001	 3.358042155729902e+000
 5.957788646735406e-001	 9.167477855490265e-001	 3.175214380950251e+000
 5.857330656556907e-001	 9.231986657225304e-001	 2.997268794042297e+000
 5.756296548712436e-001	 9.295318967512446e-001	 2.825635849801891e+000
 5.654706670221815e-001	 9.357467705658702e-001	 2.661801838178132e+000
 5.552581465885836e-001	 9.418426252942370e-001	 2.507298708949258e+000
 5.449941465400575e-001	 9.478188453609254e-001	 2.363694063858531e+000
 5.346807270497090e-001	 9.536748615445378e-001	 2.232581379246789e+000
 6.392193475102294e-001	 8.952085269382795e-001	 4.084498862580780e+000
 6.293643805826487e-001	 9.021641562078695e-001	 3.893922764683479e+000
 6.194433865050100e-001	 9.090047298539378e-001	 3.703893386499243e+000
 6.094583600756856e-001	 9.157293514371939e-001	 3.515667745008468e+000
 5.994113111093491e-001	 9.223371701659147e-001	 3.330592890214653e+000
 5.893042631466994e-001	 9.288273811685280e-001	 3.150095167567848e+000
 5.791392521601658e-001	 9.351992257229723e-001	 2.975669442501413e+000
 5.689183252572525e-001	 9.414519914428657e-001	 2.808868362206668e+000
 5.586435393831772e-001	 9.475850124206171e-001	 2.651291727045366e+000
 5.483169600244462e-001	 9.535976693276570e-001	 2.504576040792237e+000
 5.379406599149837e-001	 9.594893894720561e-001	 2.370384305250485e+000
 6.430930267272152e-001	 9.006335045679181e-001	 4.241609182418559e+000
 6.331783385464839e-001	 9.076312850591893e-001	 4.050277197933144e+000
 6.231972230901024e-001	 9.145133126881201e-001	 3.858965456439707e+000
 6.131516872449562e-001	 9.212786855829814e-001	 3.668994774315355e+000
 6.030437530052285e-001	 9.279265477962356e-001	 3.481779538443836e+000
 5.928754561743090e-001	 9.344560895787746e-001	 3.298816468595631e+000
 5.826488450626549e-001	 9.408665476106651e-001	 3.121673345085379e+000
 5.723659791832758e-001	 9.471572051884507e-001	 2.951977779872500e+000
 5.620289279465123e-001	 9.533273923691270e-001	 2.791406106411328e+000
 5.516397693557534e-001	 9.593764860709807e-001	 2.641672460217858e+000
 5.412005887057253e-001	 9.653039101315575e-001	 2.504518118303025e+000
 6.469667020709586e-001	 9.060584767729307e-001	 4.393668339172441e+000
 6.369922926967850e-001	 9.130984084437299e-001	 4.201789391435236e+000
 6.269510559217715e-001	 9.200218900140613e-001	 4.009361717123717e+000
 6.168450107213012e-001	 9.268280141797644e-001	 3.817777872756582e+000
 6.066761912690550e-001	 9.335159198374937e-001	 3.628527711577725e+000
 5.964466456311005e-001	 9.400847923606116e-001	 3.443186616482958e+000
 5.861584344559083e-001	 9.465338638313203e-001	 3.263403701569494e+000
 5.758136296619807e-001	 9.528624132290949e-001	 3.090890063627154e+000
 5.654143131247674e-001	 9.590697665755228e-001	 2.927407161915449e+000
 5.549625753645266e-001	 9.651552970357530e-001	 2.774755401070269e+000
 5.444605142367740e-001	 9.711184249768110e-001	 2.634762988009288e+000
 6.508403745096036e-001	 9.114834449096820e-001	 4.540449884164101e+000
 6.408062439867722e-001	 9.185655277284057e-001	 4.348225754133996e+000
 6.307048859382156e-001	 9.255304632090503e-001	 4.154843395188784e+000
 6.205383314278040e-001	 9.323773386150284e-001	 3.961774969065579e+000
 6.103086268087054e-001	 9.391052876871932e-001	 3.770593847812555e+000
 6.000178324096538e-001	 9.457134909213810e-001	 3.582962287591233e+000
 5.896680212171227e-001	 9.522011758019360e-001	 3.400619074630585e+000
 5.792612775550958e-001	 9.585676169912677e-001	 3.225367227942870e+000
 5.687996957641206e-001	 9.648121364755609e-001	 3.059061840286285e+000
 5.582853788813139e-001	 9.709341036668302e-001	 2.903598135218076e+000
 5.477204373229693e-001	 9.769329354615868e-001	 2.760899813932728e+000
 6.547140450112942e-001	 9.169084103345376e-001	 4.681731371385846e+000
 6.446201933696649e-001	 9.240326442801321e-001	 4.489356608559695e+000
 6.344587140776327e-001	 9.310390336503757e-001	 4.295175481083772e+000
 6.242316502875476e-001	 9.379266602762590e-001	 4.100747549992571e+000
 6.139410605320561e-001	 9.446946527428373e-001	 3.907737686242955e+000
 6.035890174025493e-001	 9.513421866684246e-001	 3.717903155444844e+000
 5.931776062234950e-001	 9.578684849395088e-001	 3.533080678478891e+000
 5.827089237243497e-001	 9.642728179014383e-001	 3.355173556011303e+000
 5.721850767107503e-001	 9.705545035049972e-001	 3.186138941669604e+000
 5.616081807366634e-001	 9.767129074090700e-001	 3.027975344829559e+000
 5.509803587791511e-001	 9.827474430396538e-001	 2.882710439643275e+000
 6.585877145441748e-001	 9.223333744038623e-001	 4.817294651781539e+000
 6.484341417986819e-001	 9.294997594658224e-001	 4.624956471321260e+000
 6.382125412782213e-001	 9.365476027153264e-001	 4.430126997215768e+000
 6.279249682236161e-001	 9.434759805509431e-001	 4.234460917474473e+000
 6.175734933469836e-001	 9.502840164019311e-001	 4.039722514349262e+000
 6.071602015023673e-001	 9.569708810090842e-001	 3.847772129766474e+000
 5.966871903522223e-001	 9.635357926610373e-001	 3.660552610586481e+000
 5.861565690314716e-001	 9.699780173860766e-001	 3.480075825238743e+000
 5.755704568108352e-001	 9.762968690995890e-001	 3.308409339889064e+000
 5.649309817611228e-001	 9.824917097073289e-001	 3.147663338317602e+000
 5.542402794201589e-001	 9.885619491647812e-001	 2.999977865183933e+000
 5.216409385464856e-001	 9.304166480789027e-001	 1.649088574552787e+000
 5.115343637342540e-001	 9.360112350538160e-001	 1.537477666710737e+000
 5.013836241751540e-001	 9.414876109821543e-001	 1.425512862493030e+000
 4.911907430309177e-001	 9.468453570644847e-001	 1.314378298860611e+000
 4.809577455047829e-001	 9.520840995190897e-001	 1.205238703907960e+000
 4.706866576225989e-001	 9.572035094363699e-001	 1.099234080955430e+000
 4.603795050253364e-001	 9.622033025948157e-001	 9.974748225519988e-001
 4.500383117743657e-001	 9.670832392392221e-001	 9.010372772554643e-001
 4.396650991708301e-001	 9.718431238218864e-001	 8.109597875854964e-001
 4.292618845903969e-001	 9.764828047075796e-001	 7.282392130822405e-001
 4.188306803346252e-001	 9.810021738431126e-001	 6.538279479348651e-001
 5.249008958582897e-001	 9.362312196161844e-001	 1.799362635181975e+000
 5.147311607381130e-001	 9.418607695576093e-001	 1.684120922727523e+000
 5.045169848666595e-001	 9.473713697009941e-001	 1.568230435978167e+000
 4.942604040492619e-001	 9.527625986296653e-001	 1.452924624421193e+000
 4.839634561455170e-001	 9.580340802259997e-001	 1.339417060777722e+000
 4.736281798427740e-001	 9.631854835249191e-001	 1.228895871984796e+000
 4.632566134410979e-001	 9.682165225287074e-001	 1.122518620860990e+000
 4.528507936510820e-001	 9.731269559838415e-001	 1.021407662251422e+000
 4.424127544058427e-001	 9.779165871205759e-001	 9.266459927935099e-001
 4.319445256884888e-001	 9.825852633560630e-001	 8.392736087820986e-001
 4.214481323763099e-001	 9.871328759618585e-001	 7.602843819637477e-001
 5.281608458362018e-001	 9.420457780703714e-001	 1.946849863881578e+000
 5.179279505500952e-001	 9.477102908997490e-001	 1.828082723145791e+000
 5.076503385089314e-001	 9.532551151813122e-001	 1.708397209354404e+000
 4.973300581616141e-001	 9.586798268811473e-001	 1.589072153604881e+000
 4.869691600240704e-001	 9.639840475457242e-001	 1.471365908601609e+000
 4.765696954451202e-001	 9.691674441544828e-001	 1.356510528095370e+000
 4.661337153838935e-001	 9.742297289334986e-001	 1.245706418566005e+000
 4.556632692001782e-001	 9.791706591309306e-001	 1.140117487889348e+000
 4.451604034590352e-001	 9.839900367549844e-001	 1.040866810872749e+000
 4.346271607509846e-001	 9.886877082751896e-001	 9.490328266784561e-001
 4.240655785290188e-001	 9.932635642878446e-001	 8.656460783320187e-001
 5.314207892950618e-001	 9.478603248952329e-001	 2.091329684953350e+000
 5.211247339692603e-001	 9.535598005427273e-001	 1.969152502831405e+000
 5.107836858851766e-001	 9.591388488941353e-001	 1.845811553284936e+000
 5.003997061352616e-001	 9.645970432983022e-001	 1.722627237417121e+000
 4.899748578917461e-001	 9.699340029657910e-001	 1.600898740264031e+000
 4.795112051648955e-001	 9.751493928205582e-001	 1.481897959955314e+000
 4.690108115728802e-001	 9.802429233124703e-001	 1.366863931501249e+000
 4.584757391246573e-001	 9.852143501913654e-001	 1.256997770885899e+000
 4.479080470172056e-001	 9.900634742433959e-001	 1.153458160102133e+000
 4.373097904484329e-001	 9.947901409904684e-001	 1.057357388693534e+000
 4.266830194470083e-001	 9.993942403536176e-001	 9.697579623392129e-001
 5.346807270497090e-001	 9.536748615445378e-001	 2.232581379246789e+000
 5.243215117946672e-001	 9.594092999490357e-001	 2.107119108721601e+000
 5.139170277786029e-001	 9.650225723104889e-001	 1.980270843580603e+000
 5.034693487374913e-001	 9.705142493605009e-001	 1.853394861684518e+000
 4.929805504998467e-001	 9.758839479737282e-001	 1.727827348697830e+000
 4.824527097373583e-001	 9.811313310186434e-001	 1.604876077943221e+000
 4.718879027272155e-001	 9.862561071689028e-001	 1.485814608098086e+000
 4.612882041275210e-001	 9.912580306760200e-001	 1.371877025371009e+000
 4.506556857671525e-001	 9.961369011040955e-001	 1.264253251543375e+000
 4.399924154513824e-001	 1.000892563027408e+000	 1.164084933983377e+000
 4.293004557845356e-001	 1.005524905691726e+000	 1.072461928502116e+000
 5.379406599149837e-001	 9.594893894720561e-001	 2.370384305250485e+000
 5.275182848253749e-001	 9.652587905811673e-001	 2.241771018289987e+000
 5.170503649724166e-001	 9.709062869013991e-001	 2.111571676165944e+000
 5.065389867355904e-001	 9.764314465471149e-001	 1.981178857722905e+000
 4.959862385996757e-001	 9.818338840570652e-001	 1.851962032540589e+000
 4.853942098977676e-001	 9.871132602442370e-001	 1.725260992150909e+000
 4.747649895660557e-001	 9.922692820060759e-001	 1.602379823173929e+000
 4.641006649117726e-001	 9.973017020957711e-001	 1.484581449983497e+000
 4.534033203956744e-001	 1.002210318855367e+000	 1.373082769034486e+000
 4.426750364303818e-001	 1.006994975911515e+000	 1.269050391503056e+000
 4.319178881958571e-001	 1.011655561834715e+000	 1.173597005435063e+000
 5.412005887057253e-001	 9.653039101315575e-001	 2.504518118303027e+000
 5.307150538604427e-001	 9.711082739016135e-001	 2.372896555953049e+000
 5.201836982498246e-001	 9.767899941378910e-001	 2.239510079836247e+000
 5.096086208968456e-001	 9.823486363375157e-001	 2.105782110682944e+000
 4.989919229425358e-001	 9.877838127033294e-001	 1.973111799380232e+000
 4.883357063813812e-001	 9.930951819928359e-001	 1.842867209918655e+000
 4.776420728085585e-001	 9.982824493272691e-001	 1.716379069222821e+000
 4.669131221804141e-001	 1.003345365961493e+000	 1.594935112455330e+000
 4.561509515895700e-001	 1.008283729015496e+000	 1.479775046683185e+000
 4.453576540559800e-001	 1.013097381168299e+000	 1.372086150098194e+000
 4.345353173352294e-001	 1.017786210315132e+000	 1.272999518303815e+000
 5.444605142367740e-001	 9.711184249768110e-001	 2.634762988009284e+000
 5.339118196989298e-001	 9.769577513728662e-001	 2.500284107502016e+000
 5.233170283940343e-001	 9.826736954909918e-001	 2.363881726901937e+000
 5.126782519885442e-001	 9.882658202110742e-001	 2.227006765672136e+000
 5.019976042797296e-001	 9.937337354000498e-001	 2.091084566694484e+000
 4.912771999234578e-001	 9.990770977599387e-001	 1.957507831008613e+000
 4.805191531738802e-001	 1.004295610635763e+000	 1.827630145310992e+000
 4.697255766364483e-001	 1.009389023784061e+000	 1.702760131791492e+000
 4.588985800356379e-001	 1.014357133102767e+000	 1.584156243966903e+000
 4.480402689987254e-001	 1.019199780323268e+000	 1.473022226230837e+000
 4.371527438569091e-001	 1.023916852665525e+000	 1.370503248953094e+000
 5.477204373229693e-001	 9.769329354615868e-001	 2.760899813932728e+000
 5.371085831398952e-001	 9.828072244574182e-001	 2.623722332649142e+000
 5.264503561882525e-001	 9.885573924317266e-001	 2.484482141808796e+000
 5.157478807779733e-001	 9.941829996471618e-001	 2.344654431745332e+000
 5.050032833625604e-001	 9.996836536347546e-001	 2.205687360581628e+000
 4.942186912592554e-001	 1.005059009041043e+000	 2.068994740516219e+000
 4.833962313811783e-001	 1.010308767434837e+000	 1.935949343679937e+000
 4.725380289828776e-001	 1.015432677074351e+000	 1.807876858148700e+000
 4.616462064206762e-001	 1.020430532635463e+000	 1.686050518538361e+000
 4.507228819291668e-001	 1.025302174901930e+000	 1.571686429436378e+000
 4.397701684151532e-001	 1.030047490418441e+000	 1.465939593808185e+000
 5.509803587791511e-001	 9.827474430396538e-001	 2.882710439643275e+000
 5.403053449823979e-001	 9.886566946177607e-001	 2.743000375764235e+000
 5.295836824156864e-001	 9.944410864311215e-001	 2.601106907818874e+000
 5.188175080324198e-001	 1.000100176125149e+000	 2.458526383855581e+000
 5.080089609423314e-001	 1.005633568894973e+000	 2.316726512376399e+000
 4.971601811240327e-001	 1.011040917331647e+000	 2.177138799613084e+000
 4.862733081496097e-001	 1.016321921227772e+000	 2.041151634152338e+000
 4.753504799227042e-001	 1.021476327343239e+000	 1.910104050506860e+000
 4.643938314314838e-001	 1.026503929131870e+000	 1.785280196836185e+000
 4.534054935178530e-001	 1.031404566429793e+000	 1.667904525609373e+000
 4.423875916642177e-001	 1.036178125106425e+000	 1.559137719640422e+000
 5.542402794201589e-001	 9.885619491647812e-001	 2.999977865183933e+000
 5.435021060254973e-001	 9.945061633163864e-001	 2.857908074879767e+000
 5.327170078595428e-001	 1.000324778960203e+000	 2.713551871835517e+000
 5.218871345191708e-001	 1.006017351124409e+000	 2.568423762850799e+000
 5.110146377703451e-001	 1.011583482668233e+000	 2.424007853235631e+000
 5.001016702530481e-001	 1.017022824127247e+000	 2.281750034213416e+000
 4.891503841983314e-001	 1.022335073517847e+000	 2.143050846433436e+000
 4.781629301589312e-001	 1.027519976101599e+000	 2.009259052226506e+000
 4.671414557548592e-001	 1.032577324110273e+000	 1.881665942585780e+000
 4.560881044353323e-001	 1.037506956432366e+000	 1.761500398204223e+000
 4.450050142583599e-001	 1.042308758262027e+000	 1.649924717288211e+000
 4.188306803346252e-001	 9.810021738431126e-001	 6.538279479348628e-001
 4.083719220012180e-001	 9.854018174027490e-001	 5.845639272999978e-001
 3.978891724756005e-001	 9.896810269996651e-001	 5.170612880000383e-001
 3.873844235061284e-001	 9.938398237888120e-001	 4.518282771495557e-001
 3.768596573328685e-001	 9.978782708743236e-001	 3.893172055714489e-001
 3.663168456381126e-001	 1.001796472814765e+000	 3.299250480359638e-001
 3.557579485199885e-001	 1.005594575098846e+000	 2.739944936123284e-001
 3.451849134900506e-001	 1.009272763592686e+000	 2.218154259009247e-001
 3.345996744956820e-001	 1.012831263959774e+000	 1.736268099095083e-001
 3.240041509680921e-001	 1.016270341054748e+000	 1.296189596294971e-001
 3.134002468966224e-001	 1.019590298292188e+000	 8.993615794848694e-002
 4.214481323763099e-001	 9.871328759618585e-001	 7.602843819637450e-001
 4.109240127892444e-001	 9.915600147754914e-001	 6.864578374184448e-001
 4.003757520787162e-001	 9.958659669831210e-001	 6.143408364021481e-001
 3.898053544403731e-001	 1.000050753871897e+000	 5.444649442732348e-001
 3.792148145021522e-001	 1.004114438940307e+000	 4.773037741652883e-001
 3.686061162682363e-001	 1.008057127400339e+000	 4.132735950429853e-001
 3.579812320862494e-001	 1.011878965649916e+000	 3.527344111244143e-001
 3.473421216385829e-001	 1.015580140716707e+000	 2.959914915711771e-001
 3.366907309586892e-001	 1.019160879674458e+000	 2.432973262180852e-001
 3.260289914731288e-001	 1.022621449032989e+000	 1.948539802934897e-001
 3.153588190700908e-001	 1.025962154103038e+000	 1.508158185528954e-001
 4.240655785290188e-001	 9.932635642878446e-001	 8.656460783320163e-001
 4.134760978353049e-001	 9.977181982937292e-001	 7.874228636142455e-001
 4.028623260872159e-001	 1.002050893051997e+000	 7.108427812163705e-001
 3.922262799276642e-001	 1.006261669981995e+000	 6.364630924177122e-001
 3.815699663724302e-001	 1.010350592976570e+000	 5.647810080315934e-001
 3.708953817475604e-001	 1.014317767901131e+000	 4.962343005876058e-001
 3.602045106501483e-001	 1.018163342062815e+000	 4.312024099938571e-001
 3.494993249333951e-001	 1.021887503650835e+000	 3.700080206944090e-001
 3.387817827167959e-001	 1.025490481149196e+000	 3.129190850824565e-001
 3.280538274222357e-001	 1.028972542722900e+000	 2.601512649730119e-001
 3.173173868367261e-001	 1.032333995578839e+000	 2.118707603129046e-001
 4.266830194470083e-001	 9.993942403536176e-001	 9.697579623392123e-001
 4.160281777773232e-001	 1.003876369496865e+000	 8.873088064259966e-001
 4.053488951226542e-001	 1.008235806752366e+000	 8.064228438191116e-001
 3.946472005731538e-001	 1.012472573671668e+000	 7.276853554396658e-001
 3.839251135324219e-001	 1.016586734541975e+000	 6.516193871416615e-001
 3.731846426483436e-001	 1.020578395882120e+000	 5.786863624103760e-001
 3.624277847674572e-001	 1.024447705908449e+000	 5.092872115407915e-001
 3.516565239137509e-001	 1.028194853971724e+000	 4.437639944034474e-001
 3.408728302927376e-001	 1.031820069966206e+000	 3.824019905122136e-001
 3.300786593216035e-001	 1.035323623712072e+000	 3.254322270259427e-001
 3.192759506861582e-001	 1.038705824312371e+000	 2.730344125757986e-001
 4.293004557845356e-001	 1.005524905691726e+000	 1.072461928502119e+000
 4.185802532532224e-001	 1.010034529924301e+000	 9.859622993748964e-001
 4.078354598065852e-001	 1.014420709630302e+000	 9.009334405907373e-001
 3.970681169819942e-001	 1.018683466493476e+000	 8.179909240652911e-001
 3.862802565708464e-001	 1.022822865195385e+000	 7.376858115456839e-001
 3.754738995428442e-001	 1.026839012908283e+000	 6.605052642999184e-001
 3.646510549939495e-001	 1.030732058757729e+000	 5.868736931921236e-001
 3.538137191189149e-001	 1.034502193256031e+000	 5.171544253252981e-001
 3.429638742092505e-001	 1.038149647707703e+000	 4.516518598823538e-001
 3.321034876774223e-001	 1.041674693588099e+000	 3.906140826005375e-001
 3.212345111080173e-001	 1.045077641896419e+000	 3.342359054403853e-001
 4.319178881958571e-001	 1.011655561834715e+000	 1.173597005435063e+000
 4.211323249009261e-001	 1.016192681115441e+000	 1.083226966410763e+000
 4.103220207605630e-001	 1.020605603231880e+000	 9.942238336073598e-001
 3.994890297593371e-001	 1.024894349999979e+000	 9.072356904759190e-001
 3.886353960764227e-001	 1.029058986495659e+000	 8.228437404724527e-001
 3.777631530033208e-001	 1.033099620544599e+000	 7.415629102924114e-001
 3.668743218853973e-001	 1.037016402181564e+000	 6.638430183338652e-001
 3.559709110881511e-001	 1.040809523080410e+000	 5.900704836065491e-001
 3.450549149890705e-001	 1.044479215955903e+000	 5.205705466175060e-001
 3.341283129958824e-001	 1.048025753938572e+000	 4.556099704253688e-001
 3.231930685919333e-001	 1.051449449923766e+000	 3.954001870644394e-001
 4.345353173352294e-001	 1.017786210315132e+000	 1.272999518303815e+000
 4.236843933583577e-001	 1.022350824609688e+000	 1.178943576970580e+000
 4.128085786061422e-001	 1.026790489103172e+000	 1.086140278968020e+000
 4.019099395103344e-001	 1.031105225743738e+000	 9.952723905397097e-001
 3.909905326378698e-001	 1.035295100001661e+000	 9.069533290673432e-001
 3.800524036020315e-001	 1.039360220356044e+000	 8.217277564916660e-001
 3.690975859975734e-001	 1.043300737750864e+000	 7.400727637522133e-001
 3.581281003607238e-001	 1.047116845021517e+000	 6.623996204847109e-001
 3.471459531549336e-001	 1.050808776293024e+000	 5.890560603671877e-001
 3.361531357831746e-001	 1.054376806351084e+000	 5.203290690308159e-001
 3.251516236275363e-001	 1.057821249987196e+000	 4.564481383382535e-001
 4.371527438569091e-001	 1.023916852665525e+000	 1.370503248953094e+000
 4.262364592634405e-001	 1.028508961946442e+000	 1.272950198753400e+000
 4.152951339648769e-001	 1.032975368790253e+000	 1.176526172862578e+000
 4.043308468401381e-001	 1.037316095277311e+000	 1.081950743788500e+000
 3.933456668439073e-001	 1.041531207272252e+000	 9.898715628715588e-001
 3.823416519112351e-001	 1.045620813907598e+000	 9.008649406075220e-001
 3.713208478862504e-001	 1.049585067036537e+000	 8.154370447635793e-001
 3.602852874758973e-001	 1.053424160656007e+000	 7.340256895080702e-001
 3.492369892295755e-001	 1.057138330301280e+000	 6.570026847822009e-001
 3.381779565454889e-001	 1.060727852413227e+000	 5.846767115147679e-001
 3.271101767044565e-001	 1.064193043679492e+000	 5.172966850375949e-001
 4.397701684151532e-001	 1.030047490418441e+000	 1.465939593808185e+000
 4.287885232540980e-001	 1.034667094665108e+000	 1.365082348304795e+000
 4.177816874583216e-001	 1.039160243839196e+000	 1.265222195469875e+000
 4.067517523539002e-001	 1.043526960153260e+000	 1.167117591236658e+000
 3.957007992832537e-001	 1.047767309866293e+000	 1.071452390133953e+000
 3.846308985031899e-001	 1.051881402764238e+000	 9.788364093121820e-001
 3.735441081072007e-001	 1.055869391609492e+000	 8.898066381324122e-001
 3.624424729729358e-001	 1.059731471560536e+000	 8.048290655029646e-001
 3.513280237357326e-001	 1.063467879562889e+000	 7.243010929901077e-001
 3.402027757890156e-001	 1.067078893712594e+000	 6.485544979503808e-001
 3.290687283123237e-001	 1.070564832593438e+000	 5.778589075604289e-001
 4.423875916642177e-001	 1.036178125106425e+000	 1.559137719640424e+000
 4.313405859682536e-001	 1.040825224305087e+000	 1.455173139504914e+000
 4.202682397080302e-001	 1.045345115796075e+000	 1.352066452781949e+000
 4.091726566567727e-001	 1.049737821924144e+000	 1.250617031128336e+000
 3.980559305446286e-001	 1.054003409342645e+000	 1.151546852048729e+000
 3.869201439501546e-001	 1.058141988490943e+000	 1.055501043501392e+000
 3.757673672161970e-001	 1.062153713040640e+000	 9.630491028652261e-001
 3.645996573911035e-001	 1.066038779311758e+000	 8.746867613812351e-001
 3.534190571961403e-001	 1.069797425660067e+000	 7.908384608638407e-001
 3.422275940199455e-001	 1.073429931836776e+000	 7.118604055383001e-001
 3.310272789407683e-001	 1.076936618321817e+000	 6.380441483461855e-001
 4.450050142583599e-001	 1.042308758262027e+000	 1.649924717288211e+000
 4.338926480438308e-001	 1.046983352405783e+000	 1.543053430043586e+000
 4.227547913355574e-001	 1.051529986206963e+000	 1.436894616435254e+000
 4.115935603539075e-001	 1.055948682142524e+000	 1.332290552702122e+000
 4.004110612167509e-001	 1.060239507260171e+000	 1.230003211001217e+000
 3.892093888243872e-001	 1.064402572652689e+000	 1.130714781549687e+000
 3.779906257690123e-001	 1.068438032900888e+000	 1.035028898972646e+000
 3.667568412696644e-001	 1.072346085486329e+000	 9.434725428777300e-001
 3.555100901335350e-001	 1.076126970175029e+000	 8.564985781788003e-001
 3.442524117444684e-001	 1.079780968373366e+000	 7.744888965913558e-001
 3.329858290794200e-001	 1.083308402457412e+000	 6.977581170746687e-001
 3.134002468966224e-001	 1.019590298292188e+000	 8.993615794848694e-002
 3.027898497785945e-001	 1.022791476736971e+000	 5.340979253506800e-002
 2.921748293092217e-001	 1.025874253664687e+000	 1.883804674294323e-002
 2.815570370197590e-001	 1.028839042630564e+000	-1.374572831818591e-002
 2.709383056183087e-001	 1.031686293007040e+000	-4.434279310971749e-002
 2.603204482043598e-001	 1.034416489247346e+000	-7.298490729529547e-002
 2.497052575127223e-001	 1.037030150131326e+000	-9.973007101194395e-002
 2.390945051871896e-001	 1.039527827994735e+000	-1.246581567872729e-001
 2.284899410842091e-001	 1.041910107943235e+000	-1.478664690341134e-001
 2.178932926067863e-001	 1.044177607052323e+000	-1.694652676857928e-001
 2.073062640687906e-001	 1.046330973554413e+000	-1.895732919092297e-001
 3.153588190700908e-001	 1.025962154103038e+000	 1.508158185528954e-001
 3.046821130426786e-001	 1.029183338080941e+000	 1.099969661040477e-001
 2.940007547706283e-001	 1.032285380600046e+000	 7.118465477072533e-002
 2.833166073562019e-001	 1.035268697800079e+000	 3.442956136722762e-002
 2.726315149608755e-001	 1.038133741861805e+000	-2.535200279565669e-004
 2.619473020149687e-001	 1.040881000266023e+000	-3.288141080708629e-002
 2.512657724568546e-001	 1.043510995034661e+000	-6.349812532020614e-002
 2.405887090020832e-001	 1.046024281955267e+000	-9.217033170565088e-002
 2.299178724427003e-001	 1.048421449790087e+000	-1.189827345832523e-001
 2.192550009769878e-001	 1.050703119470998e+000	-1.440334177577251e-001
 2.086018095697990e-001	 1.052869943281504e+000	-1.674291844336490e-001
 3.173173868367261e-001	 1.032333995578839e+000	 2.118707603129046e-001
 3.065743720491249e-001	 1.035575185044799e+000	 1.668754493145235e-001
 2.958266761236638e-001	 1.038696493111893e+000	 1.239406588768208e-001
 2.850761737335840e-001	 1.041698338504331e+000	 8.313307386336610e-002
 2.743247204937078e-001	 1.044581176211209e+000	 4.448216579688871e-002
 2.635741521651586e-001	 1.047345496740881e+000	 7.984622612876595e-003
 2.528262838898459e-001	 1.049991825357360e+000	-2.639105711548202e-002
 2.420829094550495e-001	 1.052520721299978e+000	-5.869984570726410e-002
 2.313458005883873e-001	 1.054932776987559e+000	-8.901538382760579e-002
 2.206167062833924e-001	 1.057228617208352e+000	-1.174251336489220e-001
 2.098973521558755e-001	 1.059408898296943e+000	-1.440255268478299e-001
 3.192759506861582e-001	 1.038705824312371e+000	 2.730344125757986e-001
 3.084666272709912e-001	 1.041967019226337e+000	 2.239910280423489e-001
 2.976525938248045e-001	 1.045107592802839e+000	 1.770644079969224e-001
 2.868357365917950e-001	 1.048127966350573e+000	 1.323358915283692e-001
 2.760179226401069e-001	 1.051028597666957e+000	 8.984821160812129e-002
 2.652009990616432e-001	 1.053809980287900e+000	 4.961009512872132e-002
 2.543867922018261e-001	 1.056472642719491e+000	 1.160103699536835e-002
 2.435771069196422e-001	 1.059017147652842e+000	-2.422379366299267e-002
 2.327737258782583e-001	 1.061444091163351e+000	-5.792855702802229e-002
 2.219784088664359e-001	 1.063754101895628e+000	-8.959169735933101e-002
 2.111928921509208e-001	 1.065947840235338e+000	-1.193008897991271e-001
 3.212345111080173e-001	 1.045077641896419e+000	 3.342359054403853e-001
 3.103588791813350e-001	 1.048358842223344e+000	 2.812850983405207e-001
 2.994785083305274e-001	 1.051518681275496e+000	 2.305097841320125e-001
 2.885952963707255e-001	 1.054557582946055e+000	 1.820045656067509e-001
 2.777111218233742e-001	 1.057476007840754e+000	 1.358239816839155e-001
 2.668278431111357e-001	 1.060274452523056e+000	 9.198728575302992e-002
 2.559472977829249e-001	 1.062953448741120e+000	 5.048340800297820e-002
 2.450713017694148e-001	 1.065513562637832e+000	 1.127605805394733e-002
 2.342016486693010e-001	 1.067955393945159e+000	-2.569107573711386e-002
 2.233401090665539e-001	 1.070279575164070e+000	-6.048907354717357e-002
 2.124884298788351e-001	 1.072486770731300e+000	-9.319852047108890e-002
 3.231930685919333e-001	 1.051449449923766e+000	 3.954001870644394e-001
 3.122511282532141e-001	 1.054750655633610e+000	 3.386947815780048e-001
 3.013044200973088e-001	 1.057929760132478e+000	 2.842263155596903e-001
 2.903548535102650e-001	 1.060987189898027e+000	 2.321012277494666e-001
 2.794043184668104e-001	 1.063923408344307e+000	 1.823843674121883e-001
 2.684546847203496e-001	 1.066738915062326e+000	 1.351039592128373e-001
 2.575078010232722e-001	 1.069434245042312e+000	 9.025676238879021e-002
 2.465654943779210e-001	 1.072009967878922e+000	 4.781337872122747e-002
 2.356295693185036e-001	 1.074466686960685e+000	 7.723663844513823e-003
 2.247018072241827e-001	 1.076805038644923e+000	-3.007780316847449e-002
 2.137839656635190e-001	 1.079025691419437e+000	-6.566623628511181e-002
 3.251516236275363e-001	 1.057821249987196e+000	 4.564481383382535e-001
 3.141433749596864e-001	 1.061142461054926e+000	 3.961530368758843e-001
 3.031303295816258e-001	 1.064340830976396e+000	 3.381592872725914e-001
 2.921144084503036e-001	 1.067416788813741e+000	 2.825836986987213e-001
 2.810975129937172e-001	 1.070370800789321e+000	 2.294998944547961e-001
 2.700815242959982e-001	 1.073203369521688e+000	 1.789434718314476e-001
 2.590683023129978e-001	 1.075915033243134e+000	 1.309173669630967e-001
 2.480596851187144e-001	 1.078506365000086e+000	 8.539737729423051e-002
 2.370574881828540e-001	 1.080977971837627e+000	 4.233779431337482e-002
 2.260635036797577e-001	 1.083330493969430e+000	 1.677099609579770e-003
 2.150794998288730e-001	 1.085564603934357e+000	-3.665632195098010e-002
 3.271101767044565e-001	 1.064193043679492e+000	 5.172966850375949e-001
 3.160356197738095e-001	 1.067534260085082e+000	 4.535887709578408e-001
 3.049562372399546e-001	 1.070751895409864e+000	 3.922498487638179e-001
 2.938739616307314e-001	 1.073846381300447e+000	 3.334055942450065e-001
 2.827907058273956e-001	 1.076818186787501e+000	 2.771368271195008e-001
 2.717083622447951e-001	 1.079667817517119e+000	 2.234848745551231e-001
 2.606288020422317e-001	 1.082395814963654e+000	 1.724571507773951e-001
 2.495538743653485e-001	 1.085002755625296e+000	 1.240329034368150e-001
 2.384854056193399e-001	 1.087489250203683e+000	 7.816907744128716e-002
 2.274251987737151e-001	 1.089855942768836e+000	 3.480624736098319e-002
 2.163750326987971e-001	 1.092103509910670e+000	-6.125429722574992e-003
 3.290687283123237e-001	 1.070564832593438e+000	 5.778589075604289e-001
 3.179278631686414e-001	 1.073926054321867e+000	 5.109269455171670e-001
 3.067821435287722e-001	 1.077162955035492e+000	 4.464351192661116e-001
 2.956335134914387e-001	 1.080275968965396e+000	 3.845164285791726e-001
 2.844838973911467e-001	 1.083265567950552e+000	 3.252572700614038e-001
 2.733351989734535e-001	 1.086132260664596e+000	 2.687030132388962e-001
 2.621893006011032e-001	 1.088876591823937e+000	 2.148638042321236e-001
 2.510480624913770e-001	 1.091499141378525e+000	 1.637205456827810e-001
 2.399133219849494e-001	 1.094000523686553e+000	 1.152310016179877e-001
 2.287868928464905e-001	 1.096381386674383e+000	 6.933597634636135e-002
 2.176705645971922e-001	 1.098642410982984e+000	 2.596551727290811e-002
 3.310272789407683e-001	 1.076936618321817e+000	 6.380441483461855e-001
 3.198201056172395e-001	 1.080317845363071e+000	 5.680886822081802e-001
 3.086080489045549e-001	 1.083574011455895e+000	 5.006482905534345e-001
 2.973930644723152e-001	 1.086705553415838e+000	 4.358617151427410e-001
 2.861770881082719e-001	 1.089712945890182e+000	 3.738192674212015e-001
 2.749620348886869e-001	 1.092596700580097e+000	 3.145686263080963e-001
 2.637497983797427e-001	 1.095357365444050e+000	 2.581208754956793e-001
 2.525422498703536e-001	 1.097995523883749e+000	 2.044567268449647e-001
 2.413412376366703e-001	 1.100511793913938e+000	 1.535328764769626e-001
 2.301485862385199e-001	 1.102906827317317e+000	 1.052884405805156e-001
 2.189660958479585e-001	 1.105181308785909e+000	 5.965141875740272e-002
 3.329858290794200e-001	 1.083308402457412e+000	 6.977581170746687e-001
 3.217123475926619e-001	 1.086709634806486e+000	 6.249913653582035e-001
 3.104339538237796e-001	 1.089985066273683e+000	 5.548187274039320e-001
 2.991526150132510e-001	 1.093135136259025e+000	 4.873830650805432e-001
 2.878702784020723e-001	 1.096160322218095e+000	 4.227768995042520e-001
 2.765888703972086e-001	 1.099061138879599e+000	 3.610484399034905e-001
 2.653102957682797e-001	 1.101838137444058e+000	 3.022078643482987e-001
 2.540364368758318e-001	 1.104491904764940e+000	 2.462337967847558e-001
 2.427691529314908e-001	 1.107023062513534e+000	 1.930799248209267e-001
 2.315102792902392e-001	 1.109432266328881e+000	 1.426817031345850e-001
 2.202616267749964e-001	 1.111720204954052e+000	 9.496308820250422e-002
 2.073062640687906e-001	 1.046330973554413e+000	-1.895732919092297e-001
 1.967321210341483e-001	 1.048370588664549e+000	-2.078108876031157e-001
 1.861709283643863e-001	 1.050297492397054e+000	-2.239114541348564e-001
 1.756243145063029e-001	 1.052112422007309e+000	-2.381538244088171e-001
 1.650938826503424e-001	 1.053816142520104e+000	-2.508075454830661e-001
 1.545812102484206e-001	 1.055409445871443e+000	-2.621288178243053e-001
 1.440878485620557e-001	 1.056893150044585e+000	-2.723566254766269e-001
 1.336153222406547e-001	 1.058268098201429e+000	-2.817090824821396e-001
 1.231651289297503e-001	 1.059535157810359e+000	-2.903800187240118e-001
 1.127387389089458e-001	 1.060695219771598e+000	-2.985358260863447e-001
 1.023375947592949e-001	 1.061749197541143e+000	-3.063125834836405e-001
 2.086018095697990e-001	 1.052869943281504e+000	-1.674291844336495e-001
 1.979615841929645e-001	 1.054922304819027e+000	-1.887858263113154e-001
 1.873343901133681e-001	 1.056861250597369e+000	-2.078437131827044e-001
 1.767218659546793e-001	 1.058687522479315e+000	-2.248851837783983e-001
 1.661256249263771e-001	 1.060401890270602e+000	-2.401825009826965e-001
 1.555472543385593e-001	 1.062005150856360e+000	-2.539935981960405e-001
 1.449883151472520e-001	 1.063498127331754e+000	-2.665580235153495e-001
 1.344503415300592e-001	 1.064881668127946e+000	-2.780931082576258e-001
 1.239348404919513e-001	 1.066156646134478e+000	-2.887903841004098e-001
 1.134432915009482e-001	 1.067323957819171e+000	-2.988122707451603e-001
 1.029771461534198e-001	 1.068384522346582e+000	-3.082890535748167e-001
 2.098973521558755e-001	 1.059408898296943e+000	-1.440255268478299e-001
 1.991910445855255e-001	 1.061474006233129e+000	-1.684284797694071e-001
 1.884978492445812e-001	 1.063424994030176e+000	-1.903801413397046e-001
 1.778194149335623e-001	 1.065262608158258e+000	-2.101651721054617e-001
 1.671573648809590e-001	 1.066987623204044e+000	-2.280573886447596e-001
 1.565132962550305e-001	 1.068600841001780e+000	-2.443153117323816e-001
 1.458887797062889e-001	 1.070103089758522e+000	-2.591779192619466e-001
 1.352853589405142e-001	 1.071495223174678e+000	-2.728606316833448e-001
 1.247045503220943e-001	 1.072778119560937e+000	-2.855515553708782e-001
 1.141478425074453e-001	 1.073952680952703e+000	-2.974080068783830e-001
 1.036166961082335e-001	 1.075019832223076e+000	-3.085533385065458e-001
 2.111928921509208e-001	 1.065947840235338e+000	-1.193008897991271e-001
 2.004205025192180e-001	 1.068025694544651e+000	-1.466649663345442e-001
 1.896613060489215e-001	 1.069988724336277e+000	-1.714348066342219e-001
 1.789169617173798e-001	 1.071837680687771e+000	-1.938963121654136e-001
 1.681891027720755e-001	 1.073573342966726e+000	-2.143237938198623e-001
 1.574793362394091e-001	 1.075196517956486e+000	-2.329753162908410e-001
 1.467892424643598e-001	 1.076708038975992e+000	-2.500882541859496e-001
 1.361203746808647e-001	 1.078108764994883e+000	-2.658750889126931e-001
 1.254742586127105e-001	 1.079399579744983e+000	-2.805194729328879e-001
 1.148523921046915e-001	 1.080581390829265e+000	-2.941725854364474e-001
 1.042562447837527e-001	 1.081655128829361e+000	-3.069498008476768e-001
 2.124884298788351e-001	 1.072486770731300e+000	-9.319852047108890e-002
 2.016499583014293e-001	 1.074577371391386e+000	-1.234260668348689e-001
 1.908247608172844e-001	 1.076552443156474e+000	-1.509264163165972e-001
 1.800145065805603e-001	 1.078412741711491e+000	-1.759857333426722e-001
 1.692208388577141e-001	 1.080159051204941e+000	-1.988778663561220e-001
 1.584453745332703e-001	 1.081792183369263e+000	-2.198594825200285e-001
 1.476897036466583e-001	 1.083312976635267e+000	-2.391654211853988e-001
 1.369553889599555e-001	 1.084722295241816e+000	-2.570042964761941e-001
 1.262439655563312e-001	 1.086021028341859e+000	-2.735543768176681e-001
 1.155569404689415e-001	 1.087210089105928e+000	-2.889597665899295e-001
 1.048957923399940e-001	 1.088290413824173e+000	-3.033269123420021e-001
 2.137839656635190e-001	 1.079025691419437e+000	-6.566623628511233e-002
 2.028794122395463e-001	 1.081129038411128e+000	-9.864711816181458e-002
 1.919882138405655e-001	 1.083116152131570e+000	-1.287782102427361e-001
 1.811120497975321e-001	 1.084987792873053e+000	-1.563450647526227e-001
 1.702525733958621e-001	 1.086744749564987e+000	-1.816202134467960e-001
 1.594114113781895e-001	 1.088387838888894e+000	-2.048580864650824e-001
 1.485901634783784e-001	 1.089917904387450e+000	-2.262901570236812e-001
 1.377904019866320e-001	 1.091335815568734e+000	-2.461203436690418e-001
 1.270136713454877e-001	 1.092642467006809e+000	-2.645206991911627e-001
 1.162614877764496e-001	 1.093838777439760e+000	-2.816274125432406e-001
 1.055353389369740e-001	 1.094925688866247e+000	-2.975371472795756e-001
 2.150794998288730e-001	 1.085564603934357e+000	-3.665632195098010e-002
 2.041088646409562e-001	 1.087680697241672e+000	-7.226791028285112e-002
 1.931516654096602e-001	 1.089679852902368e+000	-1.049178577495802e-001
 1.822095916427233e-001	 1.091562835816092e+000	-1.348903319191306e-001
 1.712843066445071e-001	 1.093330439693156e+000	-1.624557960956029e-001
 1.603774470157416e-001	 1.094983486164163e+000	-1.878657058436497e-001
 1.494906221847134e-001	 1.096522823883646e+000	-2.113474384832128e-001
 1.386254139697389e-001	 1.097949327628892e+000	-2.330994886923888e-001
 1.277833761727113e-001	 1.099263897395078e+000	-2.532869606292534e-001
 1.169660342034704e-001	 1.100467457487831e+000	-2.720373841397493e-001
 1.061748847347095e-001	 1.101560955614318e+000	-2.894368796621654e-001
 2.163750326987971e-001	 1.092103509910670e+000	-6.125429722574992e-003
 2.053383158130456e-001	 1.094232349520812e+000	-4.423258653309472e-002
 1.943151158154642e-001	 1.096243547109668e+000	-7.927735787551989e-002
 1.833071323905622e-001	 1.098137872184242e+000	-1.115418568623369e-001
 1.723160388616364e-001	 1.099916123235746e+000	-1.412938290465997e-001
 1.613434816875018e-001	 1.101579126843854e+000	-1.687811198385372e-001
 1.503910799908571e-001	 1.103127736774956e+000	-1.942263820812900e-001
 1.394604251181213e-001	 1.104562833075548e+000	-2.178220583877033e-001
 1.285530802305333e-001	 1.105885321161910e+000	-2.397256700154974e-001
 1.176705799262583e-001	 1.107096130907213e+000	-2.600554410984214e-001
 1.068144298932171e-001	 1.108196215727121e+000	-2.788862839991160e-001
 2.176705645971922e-001	 1.098642410982984e+000	 2.596551727290811e-002
 2.065677660632019e-001	 1.100783996886342e+000	-1.448954704585530e-002
 1.954785653488730e-001	 1.102807236394275e+000	-5.179294278740106e-002
 1.844046723154772e-001	 1.104712903621141e+000	-8.622416145196278e-002
 1.733477703052373e-001	 1.106501801839048e+000	-1.180476840381455e-001
 1.623095156350454e-001	 1.108174762576749e+000	-1.475072122633286e-001
 1.512915371220032e-001	 1.109732644712485e+000	-1.748201471961411e-001
 1.402954356406242e-001	 1.111176333561957e+000	-2.001723514192803e-001
 1.293227837114848e-001	 1.112506739962549e+000	-2.237132279047596e-001
 1.183751251210679e-001	 1.113724799354973e+000	-2.455511457314660e-001
 1.074539745725135e-001	 1.114831470863391e+000	-2.657492395865475e-001
 2.189660958479585e-001	 1.105181308785909e+000	 5.965141875740296e-002
 2.077972156988120e-001	 1.107335640976057e+000	 1.700864480382986e-002
 1.966420143007822e-001	 1.109370922396989e+000	-2.240498427962027e-002
 1.855022116918965e-001	 1.111287931770422e+000	-5.886587389198377e-002
 1.743795012332975e-001	 1.113087477149361e+000	-9.263479623930017e-002
 1.632755490999475e-001	 1.114770395011633e+000	-1.239508779557537e-001
 1.521919938033452e-001	 1.116337549347337e+000	-1.530258424654892e-001
 1.411304457460926e-001	 1.117789830741375e+000	-1.800385447557728e-001
 1.300924868080972e-001	 1.119128155452241e+000	-2.051298332139476e-001
 1.190796699641537e-001	 1.120353464488183e+000	-2.283977699985051e-001
 1.080935189326152e-001	 1.121466722681864e+000	-2.498932381211728e-001
 2.202616267749964e-001	 1.111720204954052e+000	 9.496308820250447e-002
 2.090266650272629e-001	 1.113887283427750e+000	 5.030535307002365e-002
 1.978054629620872e-001	 1.115934606758614e+000	 8.942096780832165e-003
 1.865997507942484e-001	 1.117862958275722e+000	-2.939963820786321e-002
 1.754112319038042e-001	 1.119673150812978e+000	-6.497657374051873e-002
 1.642415823237833e-001	 1.121366025797290e+000	-9.802293227395188e-002
 1.530924502600770e-001	 1.122942452330613e+000	-1.287444353210871e-001
 1.419654556433717e-001	 1.124403326267059e+000	-1.573126033220273e-001
 1.308621897129018e-001	 1.125749569286229e+000	-1.838593930984566e-001
 1.197842146317700e-001	 1.126982127963913e+000	-2.084722057598859e-001
 1.087330631335390e-001	 1.128101972841276e+000	-2.311892945159109e-001
 1.023375947592949e-001	 1.061749197541143e+000	-3.063125834836410e-001
 9.196156041119188e-002	 1.062698160787635e+000	-3.132300315549191e-001
 8.161360287930819e-002	 1.063542900019065e+000	-3.188969525877804e-001
 7.129510139779745e-002	 1.064284391785943e+000	-3.235333384628574e-001
 6.100740579791999e-002	 1.064923631719467e+000	-3.273196386921591e-001
 5.075183632053588e-002	 1.065461633653999e+000	-3.303955540363526e-001
 4.052968345630113e-002	 1.065899428754169e+000	-3.328591638044599e-001
 3.034220781303463e-002	 1.066238064647488e+000	-3.347663883623043e-001
 2.019064000970140e-002	 1.066478604563256e+000	-3.361307861138376e-001
 1.007618059643524e-002	 1.066622126478576e+000	-3.369236820336281e-001
 0.000000000000000e+000	 1.066669722272222e+000	-3.370831944795735e-001
 1.029771461534198e-001	 1.068384522346582e+000	-3.082890535748172e-001
 9.253626752940741e-002	 1.069339416070155e+000	-3.167358577578376e-001
 8.212364118570643e-002	 1.070189434438125e+000	-3.237666134758128e-001
 7.174065497586926e-002	 1.070935560103909e+000	-3.296076985608446e-001
 6.138866716680423e-002	 1.071578794920858e+000	-3.344435291230304e-001
 5.106900625009653e-002	 1.072120159059240e+000	-3.384152478265179e-001
 4.078297078120607e-002	 1.072560690127902e+000	-3.416197613678936e-001
 3.053182924600528e-002	 1.072901442301451e+000	-3.441091289175380e-001
 2.031681995409991e-002	 1.073143485453786e+000	-3.458903009264743e-001
 1.013915095835196e-002	 1.073287904298776e+000	-3.469252054125581e-001
 0.000000000000000e+000	 1.073335797538833e+000	-3.471392337335314e-001
 1.036166961082335e-001	 1.075019832223076e+000	-3.085533385065458e-001
 9.311097335415065e-002	 1.075980656410289e+000	-3.184984162814306e-001
 8.263367834408004e-002	 1.076835953902812e+000	-3.268635092128197e-001
 7.218620755096009e-002	 1.077586713456961e+000	-3.338814187854741e-001
 6.176992767733443e-002	 1.078233943148229e+000	-3.397404935056543e-001
 5.138617546550141e-002	 1.078778669482785e+000	-3.445832075953904e-001
 4.103625753571286e-002	 1.079221936513682e+000	-3.485051048612354e-001
 3.072145025188322e-002	 1.079564804962612e+000	-3.515541097503117e-001
 2.044299961424778e-002	 1.079808351348064e+000	-3.537302051366728e-001
 1.020212117838581e-002	 1.079953667120660e+000	-3.549854740014792e-001
 0.000000000000000e+000	 1.080001857806444e+000	-3.552320572712837e-001
 1.042562447837527e-001	 1.081655128829361e+000	-3.069498008476768e-001
 9.368567802923879e-002	 1.082621883468279e+000	-3.183579585785752e-001
 8.314371448208845e-002	 1.083482460074716e+000	-3.280247177872829e-001
 7.263175923461414e-002	 1.084237853507879e+000	-3.361894070593295e-001
 6.215118742498331e-002	 1.084889078065393e+000	-3.430443365464566e-001
 5.170334404619593e-002	 1.085437166589321e+000	-3.487332626487221e-001
 4.128954378328468e-002	 1.085883169576908e+000	-3.533502343103833e-001
 3.091107087819527e-002	 1.086228154296925e+000	-3.569388232034174e-001
 2.056917902178206e-002	 1.086473203912440e+000	-3.594917374988202e-001
 1.026509127233133e-002	 1.086619416610818e+000	-3.609508164438006e-001
 0.000000000000000e+000	 1.086667904741722e+000	-3.612144736460303e-001
 1.048957923399940e-001	 1.088290413824173e+000	-3.033269123420021e-001
 9.426038169848888e-002	 1.089263098904368e+000	-3.161587409000125e-001
 8.365374972739097e-002	 1.090128954615429e+000	-3.270912189818164e-001
 7.307731013837572e-002	 1.090888981919444e+000	-3.363703720693719e-001
 6.253244650522352e-002	 1.091544201336163e+000	-3.441925652519414e-001
 5.202051207162541e-002	 1.092095652043531e+000	-3.507028492728073e-001
 4.154282958738469e-002	 1.092544390982978e+000	-3.559937051063041e-001
 3.110069117246825e-002	 1.092891491970343e+000	-3.601041896151135e-001
 2.069535820833976e-002	 1.093138044813263e+000	-3.630194821584557e-001
 1.032806125598304e-002	 1.093285154435836e+000	-3.646708294286223e-001
 0.000000000000000e+000	 1.093333940011333e+000	-3.649424877947617e-001
 1.055353389369740e-001	 1.094925688866247e+000	-2.975371472795761e-001
 9.483508450571804e-002	 1.095904304378798e+000	-3.117489183527454e-001
 8.416378420764699e-002	 1.096775439186540e+000	-3.239077891148686e-001
 7.352286037378912e-002	 1.097540100354437e+000	-3.342667187127788e-001
 6.291370501352775e-002	 1.098199314624351e+000	-3.430262851249492e-001
 5.233767962123528e-002	 1.098754127510101e+000	-3.503329077497215e-001
 4.179611501147609e-002	 1.099205602397292e+000	-3.562774859331754e-001
 3.129031118222901e-002	 1.099554819648821e+000	-3.608944562781885e-001
 2.082153720555794e-002	 1.099802875716884e+000	-3.641612687824226e-001
 1.039103114513548e-002	 1.099950882262301e+000	-3.659982791515483e-001
 0.000000000000000e+000	 1.099999965281944e+000	-3.662752040166392e-001
 1.061748847347095e-001	 1.101560955614318e+000	-2.894368796621649e-001
 9.540978659474342e-002	 1.102545501551810e+000	-3.049804427424438e-001
 8.467381805051592e-002	 1.103421915449642e+000	-3.183228995532858e-001
 7.396841005239860e-002	 1.104191210475638e+000	-3.297244473002581e-001
 6.329496304536866e-002	 1.104854419593770e+000	-3.393901000989700e-001
 5.265484677447090e-002	 1.105412594653715e+000	-3.474677830869442e-001
 4.204940011902202e-002	 1.105866805485247e+000	-3.540468603834579e-001
 3.147993095500434e-002	 1.106218138998311e+000	-3.591571000511492e-001
 2.094771604507362e-002	 1.106467698289651e+000	-3.627680762973229e-001
 1.045400095558320e-002	 1.106616601756801e+000	-3.647890063396114e-001
 0.000000000000000e+000	 1.106665982220223e+000	-3.650747324604438e-001
 1.068144298932171e-001	 1.108196215727121e+000	-2.788862839991160e-001
 9.598448810938207e-002	 1.109186692083648e+000	-2.957089640402008e-001
 8.518385138365703e-002	 1.110068385066325e+000	-3.101886188430071e-001
 7.441395928574844e-002	 1.110842313945830e+000	-3.225930563601351e-001
 6.367622069621895e-002	 1.111509517908231e+000	-3.331320160553920e-001
 5.297201361077766e-002	 1.112071055139059e+000	-3.419551293095423e-001
 4.230268497348572e-002	 1.112528001912243e+000	-3.491503321052701e-001
 3.166955053832104e-002	 1.112881451684768e+000	-3.547427334660657e-001
 2.107389475852384e-002	 1.113132514197915e+000	-3.586939400895743e-001
 1.051697070312073e-002	 1.113282314585924e+000	-3.609018346901700e-001
 0.000000000000000e+000	 1.113331992492834e+000	-3.612060989744033e-001
 1.074539745725135e-001	 1.114831470863391e+000	-2.657492395865475e-001
 9.655918919345116e-002	 1.115827877634553e+000	-2.837937353243497e-001
 8.569388433472970e-002	 1.116714849698179e+000	-2.993605182999845e-001
 7.485950818538288e-002	 1.117493412427793e+000	-3.127254488940376e-001
 6.405747806155128e-002	 1.118164611231547e+000	-3.241033477738570e-001
 5.328918020960095e-002	 1.118729510630817e+000	-3.336458171603715e-001
 4.255596963833032e-002	 1.119189193343679e+000	-3.414395333342294e-001
 3.185916997970596e-002	 1.119544759374145e+000	-3.475050141920023e-001
 2.120007337754564e-002	 1.119797325108027e+000	-3.517958625195634e-001
 1.057994040354261e-002	 1.119948022416257e+000	-3.541984825818621e-001
 0.000000000000000e+000	 1.119997997766445e+000	-3.545371581777626e-001
 1.080935189326152e-001	 1.121466722681864e+000	-2.498932381211728e-001
 9.713388999076779e-002	 1.122469059864768e+000	-2.690975210522018e-001
 8.620391703139338e-002	 1.123361311006796e+000	-2.856975809241297e-001
 7.530505686284622e-002	 1.124144507584308e+000	-2.999778419369657e-001
 6.443873523683828e-002	 1.124819701227530e+000	-3.121586291722099e-001
 5.360634665038613e-002	 1.125387962793674e+000	-3.223938450734911e-001
 4.280925417701900e-002	 1.125850381444952e+000	-3.307691366687946e-001
 3.204878932668590e-002	 1.126208063732395e+000	-3.373005577103636e-001
 2.132625193377607e-002	 1.126462132686335e+000	-3.419337266152099e-001
 1.064291007264337e-002	 1.126613726914388e+000	-3.445434779226375e-001
 0.000000000000000e+000	 1.126663999707723e+000	-3.449385096205204e-001
 1.087330631335390e-001	 1.128101972841276e+000	-2.311892945159109e-001
 9.770859064514910e-002	 1.129110240434535e+000	-2.514865085240929e-001
 8.671394960130736e-002	 1.130007770653767e+000	-2.690621134957073e-001
 7.575060542968273e-002	 1.130795601078155e+000	-2.842096792930062e-001
 6.481999231755271e-002	 1.131474789559993e+000	-2.971555267047432e-001
 5.392351301257860e-002	 1.132046413292315e+000	-3.080562532784183e-001
 4.306253865301493e-002	 1.132511567881462e+000	-3.169967699579608e-001
 3.223840862678768e-002	 1.132871366425472e+000	-3.239888530728055e-001
 2.145243045885214e-002	 1.133126938599190e+000	-3.289702128112592e-001
 1.070587972621754e-002	 1.133279429746903e+000	-3.318040760036685e-001
 0.000000000000000e+000	 1.133329999983334e+000	-3.322834169045102e-001
 1.133329999983334e+000	 0.000000000000000e+000	 2.180371419036554e+001
 1.133279429746903e+000	 1.070587972621758e-002	 2.178683078976336e+001
 1.133126938599190e+000	 2.145243045885220e-002	 2.177073251820977e+001
 1.132871366425473e+000	 3.223840862678761e-002	 2.175386629253461e+001
 1.132511567881462e+000	 4.306253865301489e-002	 2.173471973042882e+001
 1.132046413292315e+000	 5.392351301257858e-002	 2.171182214679111e+001
 1.131474789559993e+000	 6.481999231755271e-002	 2.168374781674804e+001
 1.130795601078155e+000	 7.575060542968279e-002	 2.164911930013204e+001
 1.130007770653767e+000	 8.671394960130725e-002	 2.160661082488597e+001
 1.129110240434534e+000	 9.770859064514900e-002	 2.155495172600507e+001
 1.128101972841275e+000	 1.087330631335390e-001	 2.149292993569318e+001
 1.139996999982150e+000	 0.000000000000000e+000	 2.156846213260681e+001
 1.139946132257989e+000	 1.076885882381071e-002	 2.155151306655991e+001
 1.139792744056029e+000	 2.157862790779298e-002	 2.153561349049164e+001
 1.139535668436983e+000	 3.242805636533384e-002	 2.151920231067544e+001
 1.139173753318885e+000	 4.331586111564802e-002	 2.150075910694436e+001
 1.138705862381395e+000	 5.424072694206489e-002	 2.147880536153842e+001
 1.138130875978492e+000	 6.520130657750443e-002	 2.145190772600578e+001
 1.137447692058752e+000	 7.619622081778177e-002	 2.141868135388297e+001
 1.136655227092373e+000	 8.722405866335779e-002	 2.137779329692457e+001
 1.135752417004075e+000	 9.828337749012923e-002	 2.132796596176921e+001
 1.134738218110943e+000	 1.093727032498246e-001	 2.126798062296185e+001
 1.146663999981866e+000	 0.000000000000000e+000	 2.134010293703993e+001
 1.146612834769953e+000	 1.083183792161826e-002	 2.132311361160586e+001
 1.146458549513681e+000	 2.170482535712002e-002	 2.130742185288572e+001
 1.146199970449207e+000	 3.261770410439917e-002	 2.129145978580382e+001
 1.145835938756898e+000	 4.356918357889769e-002	 2.127370018962150e+001
 1.145365311470925e+000	 5.455794087223355e-002	 2.125265793970735e+001
 1.144786962397290e+000	 6.558262083817644e-002	 2.122689327592580e+001
 1.144099783039497e+000	 7.664183620661490e-002	 2.119501514129959e+001
 1.143302683530987e+000	 8.773416772613631e-002	 2.115568458903707e+001
 1.142394593573496e+000	 9.885816433581510e-002	 2.110761825510225e+001
 1.141374463380391e+000	 1.100123433667813e-001	 2.104959189250807e+001
 1.153330999982383e+000	 0.000000000000000e+000	 2.111830539183920e+001
 1.153279537282697e+000	 1.089481701958664e-002	 2.110130252948257e+001
 1.153124354972060e+000	 2.183102280673677e-002	 2.108582946078623e+001
 1.152864272462079e+000	 3.280735184385381e-002	 2.107031276968658e+001
 1.152498124195458e+000	 4.382250604260977e-002	 2.105321968087775e+001
 1.152024760560884e+000	 5.487515480291397e-002	 2.103305969540044e+001
 1.151443048816397e+000	 6.596393509938862e-002	 2.100838785805498e+001
 1.150751874020427e+000	 7.708745159599871e-002	 2.097780809976518e+001
 1.149950139969669e+000	 8.824427678946076e-002	 2.093997665332134e+001
 1.149036770142885e+000	 9.943295118203023e-002	 2.089360553998971e+001
 1.148010708649726e+000	 1.106519834842415e-001	 2.083746612344458e+001
 1.159997999983599e+000	 0.000000000000000e+000	 2.090274878774268e+001
 1.159946239796127e+000	 1.095779611766225e-002	 2.088575978048885e+001
 1.159790160431083e+000	 2.195722025654666e-002	 2.087051739360366e+001
 1.159528574475531e+000	 3.299699958356802e-002	 2.085544392207483e+001
 1.159160309634518e+000	 4.407582850663016e-002	 2.083900229120555e+001
 1.158684209651256e+000	 5.519236873393559e-002	 2.081969786741867e+001
 1.158099135235820e+000	 6.634524936096096e-002	 2.079608172216192e+001
 1.157403965001579e+000	 7.753306698574963e-002	 2.076675397562879e+001
 1.156597596408484e+000	 8.875438585314925e-002	 2.073036721908091e+001
 1.155678946712328e+000	 1.000077380285982e-001	 2.068563001358539e+001
 1.154646953919056e+000	 1.112916236020372e-001	 2.063131046191628e+001
 1.166664999985416e+000	 0.000000000000000e+000	 2.069312261796419e+001
 1.166612942310144e+000	 1.102077521579147e-002	 2.067617489147579e+001
 1.166455965890665e+000	 2.208341770645313e-002	 2.066117567677308e+001
 1.166192876489496e+000	 3.318664732341201e-002	 2.064654424412993e+001
 1.165822495074035e+000	 4.432915097080469e-002	 2.063074048425351e+001
 1.165343658742019e+000	 5.550958266512781e-002	 2.061226687623023e+001
 1.164755221655566e+000	 6.672656362271340e-002	 2.058967174531823e+001
 1.164056055982987e+000	 7.797868237568409e-002	 2.056155260561737e+001
 1.163245052847492e+000	 8.926449491701972e-002	 2.052655958677797e+001
 1.162321123281912e+000	 1.005825248753425e-001	 2.048339894290716e+001
 1.161283199188487e+000	 1.119312637200008e-001	 2.043083664073176e+001
 1.173331999987733e+000	 0.000000000000000e+000	 2.048912628833622e+001
 1.173279644824657e+000	 1.108375431392070e-002	 2.047224667654307e+001
 1.173121771350721e+000	 2.220961515635962e-002	 2.045750301325484e+001
 1.172857178503908e+000	 3.337629506325602e-002	 2.044331282097028e+001
 1.172484680513963e+000	 4.458247343497926e-002	 2.042813423065691e+001
 1.172003107833153e+000	 5.582679659632004e-002	 2.041046808931593e+001
 1.171411308075644e+000	 6.710787788446590e-002	 2.038886120898407e+001
 1.170708146964687e+000	 7.842429776561866e-002	 2.036190970587915e+001
 1.169892509286757e+000	 8.977460398089025e-002	 2.032826242924511e+001
 1.168963299851724e+000	 1.011573117220869e-001	 2.028662447841915e+001
 1.167919444458127e+000	 1.125709038379644e-001	 2.023576080550906e+001
 1.179998999990450e+000	 0.000000000000000e+000	 2.029046883727871e+001
 1.179946347339565e+000	 1.114673341199633e-002	 2.027368296720740e+001
 1.179787576811167e+000	 2.233581260616957e-002	 2.025920652415128e+001
 1.179521480518698e+000	 3.356594280297030e-002	 2.024545657297846e+001
 1.179146865954258e+000	 4.483579589899971e-002	 2.023089077027141e+001
 1.178662556924642e+000	 5.614401052734176e-002	 2.021400959456017e+001
 1.178067394496061e+000	 6.748919214603832e-002	 2.019335958378100e+001
 1.177360237946715e+000	 7.886991315536962e-002	 2.016753666835663e+001
 1.176539965726342e+000	 9.028471304457887e-002	 2.013518959986848e+001
 1.175605476421850e+000	 1.017320985686549e-001	 2.009502347422754e+001
 1.174555689728082e+000	 1.132105439557603e-001	 2.004580334707794e+001
 1.186665999993467e+000	 0.000000000000000e+000	 2.009686866520773e+001
 1.186613049854775e+000	 1.120971250996477e-002	 2.008020035167014e+001
 1.186453382271919e+000	 2.246201005578640e-002	 2.006600149808180e+001
 1.186185782533802e+000	 3.375559054242507e-002	 2.005269001552386e+001
 1.185809051394874e+000	 4.508911836271194e-002	 2.003872438247928e+001
 1.185322006016463e+000	 5.646122445802235e-002	 2.002260598137132e+001
 1.184723480916826e+000	 6.787050640725066e-002	 2.000288232165061e+001
 1.184012328929106e+000	 7.931552854475363e-002	 1.997815036420068e+001
 1.183187422166308e+000	 9.079482210790350e-002	 1.994705994746840e+001
 1.182247652992378e+000	 1.023068854148702e-001	 1.990831731463018e+001
 1.181191934998460e+000	 1.138501840732206e-001	 1.986068873989285e+001
 1.193332999996683e+000	 0.000000000000000e+000	 1.990805327301458e+001
 1.193279752370191e+000	 1.127269160777239e-002	 1.989152392282869e+001
 1.193119187732893e+000	 2.258820750511357e-002	 1.987761114897320e+001
 1.192850084549151e+000	 3.394523828149056e-002	 1.986473502677217e+001
 1.192471236835767e+000	 4.534244082596181e-002	 1.985135616425268e+001
 1.191981455108598e+000	 5.677843838819120e-002	 1.983597812922866e+001
 1.191379567337946e+000	 6.825182066792290e-002	 1.981715065510933e+001
 1.190664419911896e+000	 7.976114393358699e-002	 1.979347295395094e+001
 1.189834878606717e+000	 9.130493117068225e-002	 1.976359713761543e+001
 1.188889829563394e+000	 1.028816722605563e-001	 1.972623174677142e+001
 1.187828180269368e+000	 1.144898241901776e-001	 1.968014538622104e+001
 1.200000000000000e+000	 0.000000000000000e+000	 1.972375900926266e+001
 1.199946454885717e+000	 1.133567070536561e-002	 1.970738703469118e+001
 1.199784993194003e+000	 2.271440495405450e-002	 1.969376638193842e+001
 1.199514386564678e+000	 3.413488602003700e-002	 1.968132062326663e+001
 1.199133422276893e+000	 4.559576328859522e-002	 1.966851381567236e+001
 1.198640904201028e+000	 5.709565231767782e-002	 1.965385300336763e+001
 1.198035653759429e+000	 6.863313492787491e-002	 1.963589140332371e+001
 1.197316510895122e+000	 8.020675932168629e-002	 1.961323170421857e+001
 1.196482335047633e+000	 9.181504023273307e-002	 1.958452948013146e+001
 1.195532006134985e+000	 1.034564591055369e-001	 1.954849671916471e+001
 1.194464425540913e+000	 1.151294643064634e-001	 1.950390546588187e+001
 1.128101972841275e+000	 1.087330631335390e-001	 2.149292993569318e+001
 1.126982127963913e+000	 1.197842146317701e-001	 2.142431979883280e+001
 1.125749569286228e+000	 1.308621897129018e-001	 2.135298903036631e+001
 1.124403326267059e+000	 1.419654556433717e-001	 2.127799195689551e+001
 1.122942452330613e+000	 1.530924502600770e-001	 2.119845220726926e+001
 1.121366025797290e+000	 1.642415823237833e-001	 2.111356625191823e+001
 1.119673150812978e+000	 1.754112319038044e-001	 2.102260694460393e+001
 1.117862958275722e+000	 1.865997507942483e-001	 2.092492705410161e+001
 1.115934606758614e+000	 1.978054629620873e-001	 2.081996277196739e+001
 1.113887283427750e+000	 2.090266650272629e-001	 2.070723718115184e+001
 1.111720204954052e+000	 2.202616267749964e-001	 2.058636366882350e+001
 1.134738218110943e+000	 1.093727032498246e-001	 2.126798062296185e+001
 1.133611785561993e+000	 1.204888649630348e-001	 2.120160281827992e+001
 1.132371976155270e+000	 1.316320080532949e-001	 2.113269778592861e+001
 1.131017813640246e+000	 1.428005907704828e-001	 2.106032232677653e+001
 1.129548345872747e+000	 1.539930417618116e-001	 2.098360307712554e+001
 1.127962645751250e+000	 1.652077604273181e-001	 2.090174008822931e+001
 1.126259812151637e+000	 1.764431173068045e-001	 2.081401041346777e+001
 1.124438970859326e+000	 1.876974544985343e-001	 2.071977169061913e+001
 1.122499275497582e+000	 1.989690861099370e-001	 2.061846570524130e+001
 1.120439908450877e+000	 2.102562987405380e-001	 2.050962191972512e+001
 1.118260081782081e+000	 2.215573519972832e-001	 2.039286095111689e+001
 1.141374463380391e+000	 1.100123433667813e-001	 2.104959189250807e+001
 1.140241443159786e+000	 1.211935152949279e-001	 2.098536339393031e+001
 1.138994383023984e+000	 1.324018263942670e-001	 2.091879640457400e+001
 1.137632301013091e+000	 1.436357258981184e-001	 2.084895087855021e+001
 1.136154239414550e+000	 1.548936332640130e-001	 2.077495705885657e+001
 1.134559265704902e+000	 1.661739385312600e-001	 2.069601909595598e+001
 1.132846473490027e+000	 1.774750027101520e-001	 2.061141867961166e+001
 1.131014983442705e+000	 1.887951582031090e-001	 2.052051867135018e+001
 1.129063944236374e+000	 2.001327092580198e-001	 2.042276672343441e+001
 1.126992533473878e+000	 2.114859324539956e-001	 2.031769886871183e+001
 1.124799958610022e+000	 2.228530772197078e-001	 2.020494306417377e+001
 1.148010708649726e+000	 1.106519834842415e-001	 2.083746612344458e+001
 1.146871100757412e+000	 1.218981656272922e-001	 2.077530944032563e+001
 1.145616789892503e+000	 1.331716447356734e-001	 2.071099805510920e+001
 1.144246788385735e+000	 1.444708610261476e-001	 2.064359574691262e+001
 1.142760132956160e+000	 1.557942247665646e-001	 2.057223695581199e+001
 1.141155885658386e+000	 1.671401166355072e-001	 2.049613043938020e+001
 1.139433134828280e+000	 1.785068881137599e-001	 2.041456294845030e+001
 1.137590996025985e+000	 1.898928619079004e-001	 2.032690290941609e+001
 1.135628612975103e+000	 2.012963324062776e-001	 2.023260409882728e+001
 1.133545158496847e+000	 2.127155661675897e-001	 2.013120929445445e+001
 1.131339835437960e+000	 2.241488024422355e-001	 2.002235388539936e+001
 1.154646953919056e+000	 1.112916236020372e-001	 2.063131046191627e+001
 1.153500758354994e+000	 1.226028159599707e-001	 2.057115316941474e+001
 1.152239196760960e+000	 1.339414630773691e-001	 2.050901976900038e+001
 1.150861275758315e+000	 1.453059961544390e-001	 2.044397852929636e+001
 1.149366026497716e+000	 1.566948162693496e-001	 2.037516866886234e+001
 1.147752505611837e+000	 1.681062947399582e-001	 2.030180404961378e+001
 1.146019796166525e+000	 1.795387735175415e-001	 2.022317689581455e+001
 1.144167008609286e+000	 1.909905656128361e-001	 2.013866152590490e+001
 1.142193281713881e+000	 2.024599555546521e-001	 2.004771808280530e+001
 1.140097783519889e+000	 2.139451998812751e-001	 1.994989624668535e+001
 1.137879712265981e+000	 2.254445276648321e-001	 1.984483891251640e+001
 1.161283199188487e+000	 1.119312637200008e-001	 2.043083664073176e+001
 1.160130415952655e+000	 1.233074662928062e-001	 2.037261092306151e+001
 1.158861603629487e+000	 1.347112814192096e-001	 2.031258228545132e+001
 1.157475763130969e+000	 1.461411312828616e-001	 2.024982414320366e+001
 1.155971920039361e+000	 1.575954077722513e-001	 2.018348106566340e+001
 1.154349125565392e+000	 1.690724728445110e-001	 2.011277250546147e+001
 1.152606457504896e+000	 1.805706589214098e-001	 2.003699656007114e+001
 1.150743021192733e+000	 1.920882693178441e-001	 1.995553375289727e+001
 1.148757950452820e+000	 2.036235787030848e-001	 1.986785081943035e+001
 1.146650408543099e+000	 2.151748335950061e-001	 1.977350448227408e+001
 1.144419589094169e+000	 2.267402528874632e-001	 1.967214519710894e+001
 1.167919444458127e+000	 1.125709038379644e-001	 2.023576080550906e+001
 1.166760073550517e+000	 1.240121166256418e-001	 2.017940301170432e+001
 1.165484010498218e+000	 1.354810997610502e-001	 2.012140990228682e+001
 1.164090250503835e+000	 1.469762664112842e-001	 2.006086068901679e+001
 1.162577813581231e+000	 1.584959992751530e-001	 1.999690585508723e+001
 1.160945745519189e+000	 1.700386509490637e-001	 1.992877091915772e+001
 1.159193118843525e+000	 1.816025443252784e-001	 1.985576023884137e+001
 1.157319033776447e+000	 1.931859730228520e-001	 1.977726084083376e+001
 1.155322619192032e+000	 2.047872018515176e-001	 1.969274626311480e+001
 1.153203033566577e+000	 2.164044673087370e-001	 1.960178039285619e+001
 1.150959465922610e+000	 2.280359781100943e-001	 1.950402128184513e+001
 1.174555689728082e+000	 1.132105439557603e-001	 2.004580334707794e+001
 1.173389731148702e+000	 1.247167669583204e-001	 1.999125355892315e+001
 1.172106417367284e+000	 1.362509181027461e-001	 1.993523033241244e+001
 1.170704737877052e+000	 1.478114015395757e-001	 1.987681931806913e+001
 1.169183707123466e+000	 1.593965907779380e-001	 1.981517746661551e+001
 1.167542365473366e+000	 1.710048290535147e-001	 1.974953682678444e+001
 1.165779780182542e+000	 1.826344297290600e-001	 1.967920839013653e+001
 1.163895046360552e+000	 1.942836767277877e-001	 1.960358597005233e+001
 1.161887287931629e+000	 2.059508249998921e-001	 1.952215010023556e+001
 1.159755658590425e+000	 2.176341010224225e-001	 1.943447193619020e+001
 1.157499342751388e+000	 2.293317033326910e-001	 1.934021714123261e+001
 1.181191934998460e+000	 1.138501840732206e-001	 1.986068873989285e+001
 1.180019388747333e+000	 1.254214172906848e-001	 1.980789035168238e+001
 1.178728824236818e+000	 1.370207364441525e-001	 1.975377456563061e+001
 1.177319225250758e+000	 1.486465366676050e-001	 1.969743410577018e+001
 1.175789600666207e+000	 1.602971822804898e-001	 1.963803293450048e+001
 1.174138985428059e+000	 1.719710071577622e-001	 1.957481008318585e+001
 1.172366441522077e+000	 1.836663151326680e-001	 1.950708353773650e+001
 1.170471058945171e+000	 1.953813804325792e-001	 1.943425416633145e+001
 1.168451956671723e+000	 2.071144481481499e-001	 1.935580967453360e+001
 1.166308283614738e+000	 2.188637347360168e-001	 1.927132857109543e+001
 1.164039219580586e+000	 2.306274285552188e-001	 1.918048412576841e+001
 1.187828180269368e+000	 1.144898241901776e-001	 1.968014538622104e+001
 1.186649046346531e+000	 1.261260676225780e-001	 1.962904469602732e+001
 1.185351231106953e+000	 1.377905547851248e-001	 1.957677673560416e+001
 1.183933712625089e+000	 1.494816717952408e-001	 1.952244192958667e+001
 1.182395494209592e+000	 1.611977737826913e-001	 1.946521178650605e+001
 1.180735605383405e+000	 1.729371852617042e-001	 1.940433276120439e+001
 1.178953102862265e+000	 1.846982005360155e-001	 1.933913018064570e+001
 1.177047071530428e+000	 1.964790841371540e-001	 1.926901222028249e+001
 1.175016625412426e+000	 2.082780712962329e-001	 1.919347391615062e+001
 1.172860908639617e+000	 2.200933684494743e-001	 1.911210119583140e+001
 1.170579096410293e+000	 2.319231537776434e-001	 1.902457490934990e+001
 1.194464425540913e+000	 1.151294643064634e-001	 1.950390546588187e+001
 1.193278703946419e+000	 1.268307179538431e-001	 1.945445127802223e+001
 1.191973637977820e+000	 1.385603731255182e-001	 1.940397399176671e+001
 1.190548200000185e+000	 1.503168069223521e-001	 1.935158235169115e+001
 1.189001387753761e+000	 1.620983652844261e-001	 1.929645593705218e+001
 1.187332225339542e+000	 1.739033633652391e-001	 1.923784905506970e+001
 1.185539764203236e+000	 1.857300859390158e-001	 1.917509470646752e+001
 1.183623084116445e+000	 1.975767878414401e-001	 1.910760861044178e+001
 1.181581294153850e+000	 2.094416944440826e-001	 1.903489327416133e+001
 1.179413533665163e+000	 2.213230021627496e-001	 1.895654208978451e+001
 1.177118973240590e+000	 2.332188789999303e-001	 1.887224343982035e+001
 1.111720204954052e+000	 2.202616267749964e-001	 2.058636366882350e+001
 1.109432266328881e+000	 2.315102792902392e-001	 2.045874529292452e+001
 1.107023062513533e+000	 2.427691529314909e-001	 2.032592899892136e+001
 1.104491904764940e+000	 2.540364368758318e-001	 2.018782913465919e+001
 1.101838137444058e+000	 2.653102957682796e-001	 2.004445789723018e+001
 1.099061138879598e+000	 2.765888703972085e-001	 1.989592806554998e+001
 1.096160322218095e+000	 2.878702784020723e-001	 1.974245555451807e+001
 1.093135136259025e+000	 2.991526150132511e-001	 1.958436176551306e+001
 1.089985066273683e+000	 3.104339538237795e-001	 1.942207570700854e+001
 1.086709634806486e+000	 3.217123475926619e-001	 1.925613585825417e+001
 1.083308402457412e+000	 3.329858290794202e-001	 1.908719174827225e+001
 1.118260081782081e+000	 2.215573519972832e-001	 2.039286095111690e+001
 1.115958683982159e+000	 2.328721765597173e-001	 2.026956225679007e+001
 1.113535307629694e+000	 2.441972823756040e-001	 2.014124118408697e+001
 1.110989259929962e+000	 2.555308479695610e-001	 2.000780984760883e+001
 1.108319881387002e+000	 2.668710271898299e-001	 1.986927820415860e+001
 1.105526546672431e+000	 2.782159498876675e-001	 1.972575686264777e+001
 1.102608665480506e+000	 2.895637226292336e-001	 1.957745971902273e+001
 1.099565683368168e+000	 3.009124294397891e-001	 1.942470639027413e+001
 1.096397082578721e+000	 3.122601325799638e-001	 1.926792442055834e+001
 1.093102382847858e+000	 3.236048733537980e-001	 1.910765123155525e+001
 1.089681142190702e+000	 3.349446729481994e-001	 1.894453578843008e+001
 1.124799958610022e+000	 2.228530772197078e-001	 2.020494306417377e+001
 1.122485101635380e+000	 2.342340738292960e-001	 2.008584827782631e+001
 1.120047552745821e+000	 2.456254118197871e-001	 1.996189202709065e+001
 1.117486615094961e+000	 2.570252590633344e-001	 1.983298516738843e+001
 1.114801625329930e+000	 2.684317586114020e-001	 1.969913637374425e+001
 1.111991954465246e+000	 2.798430293781279e-001	 1.956045503007156e+001
 1.109057008742898e+000	 2.912571668563763e-001	 1.941715394715039e+001
 1.105996230477284e+000	 3.026722438662866e-001	 1.926955188265400e+001
 1.102809098883724e+000	 3.140863113360828e-001	 1.911807583547735e+001
 1.099495130889186e+000	 3.254973991148397e-001	 1.896326308564909e+001
 1.096053881923943e+000	 3.369035168168484e-001	 1.880576295028678e+001
 1.131339835437960e+000	 2.241488024422355e-001	 2.002235388539936e+001
 1.129011519288615e+000	 2.355959710989502e-001	 1.990734981424706e+001
 1.126559797861965e+000	 2.470535412640225e-001	 1.978763087651542e+001
 1.123983970259976e+000	 2.585196701571410e-001	 1.966310760397042e+001
 1.121283369272862e+000	 2.699924900329905e-001	 1.953378830810550e+001
 1.118457362258052e+000	 2.814701088685894e-001	 1.939978205098866e+001
 1.115505352005261e+000	 2.929506110835045e-001	 1.926130144871985e+001
 1.112426777586352e+000	 3.044320582927537e-001	 1.911866528013187e+001
 1.109221115188658e+000	 3.159124900921532e-001	 1.897230087219105e+001
 1.105887878930430e+000	 3.273899248758108e-001	 1.882274623251369e+001
 1.102426621657084e+000	 3.388623606853999e-001	 1.867065189852398e+001
 1.137879712265981e+000	 2.254445276648321e-001	 1.984483891251640e+001
 1.135537936941932e+000	 2.369578683686545e-001	 1.973381480502769e+001
 1.133072042978181e+000	 2.484816707082929e-001	 1.961820843677720e+001
 1.130481325425043e+000	 2.600140812509698e-001	 1.949793091256684e+001
 1.127765113215821e+000	 2.715532214545899e-001	 1.937299105801150e+001
 1.124922770050853e+000	 2.830971883590515e-001	 1.924349847426434e+001
 1.121953695267586e+000	 2.946440553106234e-001	 1.910966642952736e+001
 1.118857324695349e+000	 3.061918727192005e-001	 1.897181455923966e+001
 1.115633131493490e+000	 3.177386688481909e-001	 1.883037134558196e+001
 1.112280626971544e+000	 3.292824506367341e-001	 1.868587634582266e+001
 1.108799361390078e+000	 3.408212045538863e-001	 1.853898213807248e+001
 1.144419589094169e+000	 2.267402528874632e-001	 1.967214519710894e+001
 1.142064354595402e+000	 2.383197656383841e-001	 1.956499261310222e+001
 1.139584288094523e+000	 2.499098001525808e-001	 1.945337672105726e+001
 1.136978680590200e+000	 2.615084923448095e-001	 1.933721005635837e+001
 1.134246857158827e+000	 2.731139528761949e-001	 1.921650279544779e+001
 1.131388177843655e+000	 2.847242678495141e-001	 1.909136589688181e+001
 1.128402038529864e+000	 2.963374995377376e-001	 1.896201408361653e+001
 1.125287871804252e+000	 3.079516871456371e-001	 1.882876863765485e+001
 1.122045147798187e+000	 3.195648476042122e-001	 1.869205997685468e+001
 1.118673375012487e+000	 3.311749763976341e-001	 1.855242998250843e+001
 1.115172101122873e+000	 3.427800484223402e-001	 1.841053404527594e+001
 1.150959465922610e+000	 2.280359781100943e-001	 1.950402128184513e+001
 1.148590772249093e+000	 2.396816629081137e-001	 1.940063397204605e+001
 1.146096533211043e+000	 2.513379295968686e-001	 1.929288900752909e+001
 1.143476035755483e+000	 2.630029034386492e-001	 1.918070117232912e+001
 1.140728601101902e+000	 2.746746842977998e-001	 1.906408278910106e+001
 1.137853585636464e+000	 2.863513473399765e-001	 1.894314694909806e+001
 1.134850381792088e+000	 2.980309437648520e-001	 1.881811058810419e+001
 1.131718418913041e+000	 3.097115015720739e-001	 1.868929737867267e+001
 1.128457164102715e+000	 3.213910263602336e-001	 1.855714040760837e+001
 1.125066123053217e+000	 3.330675021585340e-001	 1.842218460636637e+001
 1.121544840855421e+000	 3.447388922907940e-001	 1.828508890093356e+001
 1.157499342751388e+000	 2.293317033326910e-001	 1.934021714123261e+001
 1.155117189903074e+000	 2.410435601778181e-001	 1.924049093610626e+001
 1.152608778327796e+000	 2.527660590411391e-001	 1.913649979874927e+001
 1.149973390920931e+000	 2.644973145324779e-001	 1.902816154008355e+001
 1.147210345045066e+000	 2.762354157193993e-001	 1.891549138264725e+001
 1.144318993429285e+000	 2.879784268304386e-001	 1.879860528222695e+001
 1.141298725054246e+000	 2.997243879919708e-001	 1.867772310046095e+001
 1.138148966021693e+000	 3.114713159985207e-001	 1.855317159796424e+001
 1.134869180407041e+000	 3.232172051162712e-001	 1.842538721603081e+001
 1.131458871093689e+000	 3.349600279194575e-001	 1.829491861361926e+001
 1.127917580587672e+000	 3.466977361592805e-001	 1.816242892514807e+001
 1.164039219580586e+000	 2.306274285552188e-001	 1.918048412576841e+001
 1.161643607557417e+000	 2.424054574474723e-001	 1.908431683344784e+001
 1.159121023444835e+000	 2.541941884853745e-001	 1.898396478408766e+001
 1.156470746086581e+000	 2.659917256262845e-001	 1.887934955352857e+001
 1.153692088988342e+000	 2.777961471409877e-001	 1.877048997573311e+001
 1.150784401222125e+000	 2.896055063209001e-001	 1.865750555894671e+001
 1.147747068316332e+000	 3.014178322190992e-001	 1.854061975814981e+001
 1.144579513130186e+000	 3.132311304249878e-001	 1.842016307253076e+001
 1.141281196711131e+000	 3.250433838723414e-001	 1.829657593512938e+001
 1.137851619133862e+000	 3.368525536804284e-001	 1.817041136036542e+001
 1.134290320319577e+000	 3.486565800278318e-001	 1.804233731390716e+001
 1.170579096410293e+000	 2.319231537776434e-001	 1.902457490934990e+001
 1.168170025212190e+000	 2.437673547170510e-001	 1.893186622249024e+001
 1.165633268562213e+000	 2.556223179295575e-001	 1.883504080507874e+001
 1.162968101252469e+000	 2.674861367200581e-001	 1.873402469530905e+001
 1.160173832931750e+000	 2.793568785625599e-001	 1.862884100754546e+001
 1.157249809014989e+000	 2.912325858113606e-001	 1.851961344603270e+001
 1.154195411578337e+000	 3.031112764462416e-001	 1.840656968053101e+001
 1.151010060238497e+000	 3.149909448514852e-001	 1.829004455176727e+001
 1.147693213014952e+000	 3.268695626284606e-001	 1.817048307292005e+001
 1.144244367173692e+000	 3.387450794414700e-001	 1.804844319183593e+001
 1.140663060051086e+000	 3.506154238964809e-001	 1.792459827733126e+001
 1.177118973240590e+000	 2.332188789999303e-001	 1.887224343982035e+001
 1.174696442867462e+000	 2.451292519865292e-001	 1.878289485121378e+001
 1.172145513679984e+000	 2.570504473736707e-001	 1.868948582357952e+001
 1.169465456418633e+000	 2.689805478137872e-001	 1.859194751388897e+001
 1.166655576875310e+000	 2.809176099841100e-001	 1.849030794286799e+001
 1.163715216807882e+000	 2.928596653018195e-001	 1.838469560942124e+001
 1.160643754840250e+000	 3.048047206734029e-001	 1.827534297294465e+001
 1.157440607346606e+000	 3.167507592780232e-001	 1.816258977055474e+001
 1.154105229318469e+000	 3.286957413846448e-001	 1.804688613449775e+001
 1.150637115213138e+000	 3.406376052026062e-001	 1.792879547339166e+001
 1.147035799782149e+000	 3.525742677652601e-001	 1.780899707952265e+001
 1.083308402457412e+000	 3.329858290794202e-001	 1.908719174827225e+001
 1.079780968373366e+000	 3.442524117444685e-001	 1.891221630235270e+001
 1.076126970175029e+000	 3.555100901335350e-001	 1.872822844401694e+001
 1.072346085486329e+000	 3.667568412696645e-001	 1.853610743099491e+001
 1.068438032900888e+000	 3.779906257690122e-001	 1.833683476575178e+001
 1.064402572652689e+000	 3.892093888243871e-001	 1.813149390867011e+001
 1.060239507260171e+000	 4.004110612167509e-001	 1.792126955863000e+001
 1.055948682142524e+000	 4.115935603539074e-001	 1.770744647424719e+001
 1.051529986206963e+000	 4.227547913355571e-001	 1.749140780999339e+001
 1.046983352405783e+000	 4.338926480438310e-001	 1.727463294265086e+001
 1.042308758262027e+000	 4.450050142583599e-001	 1.705869476505416e+001
 1.089681142190702e+000	 3.349446729481994e-001	 1.894453578843008e+001
 1.086132957396064e+000	 3.462775331374385e-001	 1.877546689548536e+001
 1.082457463952872e+000	 3.576014366698349e-001	 1.859739744600763e+001
 1.078654337588626e+000	 3.689143486679464e-001	 1.841123585181194e+001
 1.074723295241534e+000	 3.802142177509245e-001	 1.821799570527603e+001
 1.070664095735121e+000	 3.914989770238443e-001	 1.801879555563204e+001
 1.066476540426113e+000	 4.027665450951535e-001	 1.781485824282133e+001
 1.062160473824358e+000	 4.140148271214729e-001	 1.760750976095968e+001
 1.057715784183553e+000	 4.252417158789146e-001	 1.739817762442136e+001
 1.053142404061580e+000	 4.364450928600323e-001	 1.718838871078648e+001
 1.048440310849263e+000	 4.476228293954507e-001	 1.697976655641503e+001
 1.096053881923943e+000	 3.369035168168484e-001	 1.880576295028678e+001
 1.092484946418709e+000	 3.483026545302352e-001	 1.864239297715163e+001
 1.088787957730661e+000	 3.596927832059129e-001	 1.847005112766852e+001
 1.084962589690872e+000	 3.710718560659539e-001	 1.828967317510032e+001
 1.081008557582138e+000	 3.824378097325087e-001	 1.810230293249903e+001
 1.076925618817523e+000	 3.937885652229204e-001	 1.790909209840561e+001
 1.072713573592043e+000	 4.051220289731259e-001	 1.771129965043619e+001
 1.068372265506201e+000	 4.164360938885641e-001	 1.751029075754704e+001
 1.063901582160182e+000	 4.277286404217616e-001	 1.730753518272987e+001
 1.059301455717451e+000	 4.389975376756976e-001	 1.710460514913085e+001
 1.054571863436613e+000	 4.502406445319922e-001	 1.690317264412208e+001
 1.102426621657084e+000	 3.388623606853999e-001	 1.867065189852398e+001
 1.098836935441248e+000	 3.503277759229020e-001	 1.851277645610184e+001
 1.095118451508342e+000	 3.617841297418243e-001	 1.834597349249307e+001
 1.091270841793014e+000	 3.732293634637550e-001	 1.817120434633464e+001
 1.087293819922646e+000	 3.846614017138453e-001	 1.798954117994866e+001
 1.083187141899845e+000	 3.960781534217086e-001	 1.780216690093469e+001
 1.078950606757912e+000	 4.074775128507713e-001	 1.761037462212980e+001
 1.074584057188009e+000	 4.188573606552926e-001	 1.741556662943331e+001
 1.070087380136804e+000	 4.302155649642157e-001	 1.721925282794621e+001
 1.065460507373347e+000	 4.415499824909460e-001	 1.702304863812336e+001
 1.060703416024027e+000	 4.528584596681014e-001	 1.682867231518842e+001
 1.108799361390078e+000	 3.408212045538863e-001	 1.853898213807248e+001
 1.105188924463627e+000	 3.523528973154823e-001	 1.838640008265718e+001
 1.101448945285859e+000	 3.638754762776243e-001	 1.822494942039251e+001
 1.097579093894998e+000	 3.753868708614180e-001	 1.805561525416541e+001
 1.093579082263007e+000	 3.868849936950154e-001	 1.787949622034351e+001
 1.089448664982036e+000	 3.983677416203010e-001	 1.769780449293371e+001
 1.085187639923671e+000	 4.098329967281923e-001	 1.751186531675008e+001
 1.080795848869734e+000	 4.212786274217700e-001	 1.732311603774804e+001
 1.076273178113373e+000	 4.327024895063936e-001	 1.713310459963165e+001
 1.071619559029224e+000	 4.441024273058965e-001	 1.694348747708883e+001
 1.066834968611455e+000	 4.554762748038950e-001	 1.675602701757902e+001
 1.115172101122873e+000	 3.427800484223402e-001	 1.841053404527594e+001
 1.111540913485793e+000	 3.543780187080192e-001	 1.826304748900947e+001
 1.107779439063159e+000	 3.659668228133682e-001	 1.810676471631998e+001
 1.103887345996768e+000	 3.775443782590106e-001	 1.794269278656079e+001
 1.099864344603168e+000	 3.891085856760994e-001	 1.777195492945133e+001
 1.095710188064046e+000	 4.006573298187909e-001	 1.759579063866957e+001
 1.091424673089274e+000	 4.121884806054927e-001	 1.741555528525569e+001
 1.087007640551330e+000	 4.236998941881077e-001	 1.723271921760259e+001
 1.082458976089844e+000	 4.351894140484124e-001	 1.704886631574760e+001
 1.077778610685035e+000	 4.466548721206683e-001	 1.686569196893387e+001
 1.072966521198848e+000	 4.580940899394900e-001	 1.668500044699003e+001
 1.121544840855421e+000	 3.447388922907940e-001	 1.828508890093356e+001
 1.117892902507692e+000	 3.564031401005560e-001	 1.814250323125567e+001
 1.114109932840187e+000	 3.680581693491115e-001	 1.799120616051290e+001
 1.110195598098271e+000	 3.797018856566009e-001	 1.783222488847832e+001
 1.106149606943075e+000	 3.913321776571785e-001	 1.766670535041703e+001
 1.101971711145824e+000	 4.029469180172705e-001	 1.749591240717805e+001
 1.097661706254673e+000	 4.145439644827758e-001	 1.732122954606179e+001
 1.093219432232752e+000	 4.261211609544177e-001	 1.714415805781179e+001
 1.088644774066171e+000	 4.376763385903897e-001	 1.696631565600872e+001
 1.083937662340732e+000	 4.492073169353807e-001	 1.678943450639711e+001
 1.079098073786155e+000	 4.607119050750032e-001	 1.661535863527006e+001
 1.127917580587672e+000	 3.466977361592805e-001	 1.816242892514807e+001
 1.124244891529271e+000	 3.584282614931360e-001	 1.802455283309791e+001
 1.120440426616887e+000	 3.701495158849096e-001	 1.787806156028981e+001
 1.116503850199452e+000	 3.818593930542572e-001	 1.772400062100653e+001
 1.112434869282676e+000	 3.935557696383331e-001	 1.756353675950210e+001
 1.108233234227320e+000	 4.052365062158326e-001	 1.739795824386003e+001
 1.103898739419819e+000	 4.168994483601445e-001	 1.722867466175629e+001
 1.099431223913954e+000	 4.285424277208114e-001	 1.705721618200284e+001
 1.094830572042310e+000	 4.401632631324423e-001	 1.688523224666367e+001
 1.090096713996271e+000	 4.517597617501527e-001	 1.671448965978913e+001
 1.085229626373328e+000	 4.633297202105512e-001	 1.654687004041739e+001
 1.134290320319577e+000	 3.486565800278318e-001	 1.804233731390716e+001
 1.130596880550478e+000	 3.604533828858025e-001	 1.790898283114420e+001
 1.126770920393204e+000	 3.722408624208176e-001	 1.776711980334016e+001
 1.122812102300257e+000	 3.840169004520475e-001	 1.761781022191833e+001
 1.118720131621920e+000	 3.957793616196440e-001	 1.746223973317973e+001
 1.114494757308485e+000	 4.075260944145701e-001	 1.730171804340114e+001
 1.110135772584664e+000	 4.192549322377019e-001	 1.713767881713392e+001
 1.105643015594889e+000	 4.309636944874003e-001	 1.697167903105774e+001
 1.101016370018216e+000	 4.426501876746876e-001	 1.680539774664806e+001
 1.096255765651604e+000	 4.543122065651033e-001	 1.664063426616589e+001
 1.091361178960316e+000	 4.659475353462514e-001	 1.647930563809197e+001
 1.140663060051086e+000	 3.506154238964809e-001	 1.792459827733126e+001
 1.136948869571257e+000	 3.624785042785987e-001	 1.779558082174642e+001
 1.133101414169086e+000	 3.743322089568911e-001	 1.765817091244918e+001
 1.129120354400631e+000	 3.861744078500397e-001	 1.751344516758128e+001
 1.125005393960751e+000	 3.980029536011917e-001	 1.736260621653292e+001
 1.120756280389266e+000	 4.098156826135754e-001	 1.720698322396493e+001
 1.116372805749162e+000	 4.216104161155515e-001	 1.704803189849543e+001
 1.111854807275511e+000	 4.333849612542963e-001	 1.688733394683660e+001
 1.107202167993842e+000	 4.451371122172426e-001	 1.672659593505530e+001
 1.102414817306685e+000	 4.568646513803520e-001	 1.656764751987813e+001
 1.097492731547069e+000	 4.685653504822201e-001	 1.641243901458178e+001
 1.147035799782149e+000	 3.525742677652601e-001	 1.780899707952265e+001
 1.143300858591557e+000	 3.645036256715679e-001	 1.768413550931685e+001
 1.139431907944475e+000	 3.764235554931851e-001	 1.755100610160146e+001
 1.135428606500522e+000	 3.883319152483018e-001	 1.741069823617141e+001
 1.131290656299120e+000	 4.002265455830573e-001	 1.726442959290482e+001
 1.127017803469615e+000	 4.121052708129412e-001	 1.711354680260884e+001
 1.122609838913262e+000	 4.239658999937964e-001	 1.695952557416352e+001
 1.118066598955774e+000	 4.358062280216105e-001	 1.680397025713208e+001
 1.113387965969144e+000	 4.476240367602244e-001	 1.664861279987469e+001
 1.108573868961468e+000	 4.594170961960175e-001	 1.649531106444384e+001
 1.103624284133538e+000	 4.711831656185747e-001	 1.634604646116862e+001
 1.042308758262027e+000	 4.450050142583599e-001	 1.705869476505417e+001
 1.037506956432366e+000	 4.560881044353323e-001	 1.683928532220615e+001
 1.032577324110273e+000	 4.671414557548592e-001	 1.661184941354799e+001
 1.027519976101599e+000	 4.781629301589312e-001	 1.637778838768436e+001
 1.022335073517847e+000	 4.891503841983316e-001	 1.613854546521185e+001
 1.017022824127247e+000	 5.001016702530479e-001	 1.589560036785954e+001
 1.011583482668233e+000	 5.110146377703450e-001	 1.565046339548530e+001
 1.006017351124410e+000	 5.218871345191709e-001	 1.540466894666117e+001
 1.000324778960203e+000	 5.327170078595428e-001	 1.515976848204846e+001
 9.945061633163868e-001	 5.435021060254974e-001	 1.491732293345312e+001
 9.885619491647814e-001	 5.542402794201590e-001	 1.467889456533762e+001
 1.048440310849263e+000	 4.476228293954507e-001	 1.697976655641503e+001
 1.043610261630902e+000	 4.587711176722781e-001	 1.676778909424576e+001
 1.038651629936216e+000	 4.698894921480004e-001	 1.654765061698227e+001
 1.033564531246422e+000	 4.809758021871166e-001	 1.632074672933031e+001
 1.028349127620793e+000	 4.920278917312020e-001	 1.608851386901224e+001
 1.023005628049796e+000	 5.030436005265029e-001	 1.585242391317379e+001
 1.017534288770408e+000	 5.140207653692878e-001	 1.561397822016569e+001
 1.011935413542708e+000	 5.249572213676379e-001	 1.537470110166293e+001
 1.006209353886907e+000	 5.358508032182960e-001	 1.513613272363635e+001
 1.000356509280032e+000	 5.466993464971669e-001	 1.489982143847305e+001
 9.943773273115255e-001	 5.575006889620030e-001	 1.466731555453753e+001
 1.054571863436613e+000	 4.502406445319922e-001	 1.690317264412207e+001
 1.049713566829601e+000	 4.614541309086755e-001	 1.669847821516684e+001
 1.044725935762374e+000	 4.726375285406066e-001	 1.648544700242548e+001
 1.039609086391518e+000	 4.837886742147888e-001	 1.626547395074798e+001
 1.034363181724073e+000	 4.949053992635883e-001	 1.603999420186139e+001
 1.028988431972739e+000	 5.059855307995048e-001	 1.581047767721110e+001
 1.023485094873038e+000	 5.170268929678101e-001	 1.557842308259746e+001
 1.017853475961520e+000	 5.280273082157136e-001	 1.534535132875951e+001
 1.012093928814182e+000	 5.389845985766819e-001	 1.511279836569608e+001
 1.006206855244298e+000	 5.498965869684839e-001	 1.488230743239594e+001
 1.000192705458934e+000	 5.607610985034969e-001	 1.465542072775013e+001
 1.060703416024027e+000	 4.528584596681014e-001	 1.682867231518842e+001
 1.055816872028405e+000	 4.641371441446345e-001	 1.663110623858324e+001
 1.050800241588682e+000	 4.753855649327762e-001	 1.642499016691373e+001
 1.045653641536810e+000	 4.866015462420331e-001	 1.621172337105593e+001
 1.040377235827597e+000	 4.977829067955587e-001	 1.599274508330322e+001
 1.034971235895975e+000	 5.089274610721060e-001	 1.576952905601532e+001
 1.029435900976008e+000	 5.200330205659460e-001	 1.554357752738308e+001
 1.023771538380718e+000	 5.310973950634157e-001	 1.531641458760487e+001
 1.017978503741883e+000	 5.421183939347025e-001	 1.508957894250374e+001
 1.012057201209029e+000	 5.530938274394391e-001	 1.486461607559690e+001
 1.006008083606842e+000	 5.640215080446243e-001	 1.464306981384268e+001
 1.066834968611455e+000	 4.554762748038950e-001	 1.675602701757902e+001
 1.061920177227259e+000	 4.668201573802651e-001	 1.656542908202485e+001
 1.056874547415076e+000	 4.781336013246085e-001	 1.636603417822749e+001
 1.051698196682225e+000	 4.894144182689340e-001	 1.615925079164835e+001
 1.046391289931278e+000	 5.006604143271819e-001	 1.594652753235377e+001
 1.040954039819402e+000	 5.118693913443565e-001	 1.572934766905524e+001
 1.035386707079203e+000	 5.230391481637290e-001	 1.550922305447912e+001
 1.029689600800171e+000	 5.341674819107614e-001	 1.528768743446638e+001
 1.023863078669870e+000	 5.452521892923616e-001	 1.506628913702767e+001
 1.017907547174069e+000	 5.562910679100237e-001	 1.484658314167031e+001
 1.011823461755081e+000	 5.672819175853689e-001	 1.463012253364287e+001
 1.072966521198848e+000	 4.580940899394900e-001	 1.668500044699003e+001
 1.068023482426107e+000	 4.695031706156769e-001	 1.650120511669106e+001
 1.062948853241491e+000	 4.808816377162019e-001	 1.630833567010253e+001
 1.057742751827686e+000	 4.922272902955759e-001	 1.610781459928399e+001
 1.052405344035029e+000	 5.035379218585261e-001	 1.590110508082510e+001
 1.046936843742920e+000	 5.148113216163086e-001	 1.568970548507135e+001
 1.041337513182507e+000	 5.260452757611932e-001	 1.547514325978595e+001
 1.035607663219751e+000	 5.372375687577683e-001	 1.525896817970629e+001
 1.029747653597997e+000	 5.483859846496617e-001	 1.504274495737705e+001
 1.023757893139265e+000	 5.594883083802296e-001	 1.482804521484344e+001
 1.017638839903487e+000	 5.705423271257143e-001	 1.461643882024016e+001
 1.079098073786155e+000	 4.607119050750032e-001	 1.661535863527006e+001
 1.074126787624893e+000	 4.721861838509798e-001	 1.643819525890153e+001
 1.069023159067862e+000	 4.836296741076556e-001	 1.625165393910515e+001
 1.063787306973117e+000	 4.950401623220437e-001	 1.605717587072054e+001
 1.058419398138762e+000	 5.064154293896602e-001	 1.585624388798977e+001
 1.052919647666428e+000	 5.177532518880130e-001	 1.565037694897813e+001
 1.047288319285806e+000	 5.290514033583722e-001	 1.544112397642708e+001
 1.041525725639328e+000	 5.403076556044535e-001	 1.523005704550764e+001
 1.035632228526125e+000	 5.515197800066057e-001	 1.501876391297230e+001
 1.029608239104461e+000	 5.626855488500476e-001	 1.480883988651702e+001
 1.023454218051892e+000	 5.738027366656446e-001	 1.460187903774506e+001
 1.085229626373328e+000	 4.633297202105512e-001	 1.654687004041739e+001
 1.080230092823559e+000	 4.748691970862835e-001	 1.637616306317633e+001
 1.075097464894125e+000	 4.863777104990679e-001	 1.619575104310526e+001
 1.069831862118444e+000	 4.978530343484223e-001	 1.600709847883272e+001
 1.064433452242387e+000	 5.092929369206523e-001	 1.581171285653469e+001
 1.058902451589823e+000	 5.206951821595209e-001	 1.561113910978053e+001
 1.053239125388985e+000	 5.320575309553004e-001	 1.540695341668995e+001
 1.047443788058774e+000	 5.433777424508345e-001	 1.520075632383387e+001
 1.041516803454109e+000	 5.546535753631967e-001	 1.499416519044909e+001
 1.035458585069502e+000	 5.658827893194696e-001	 1.478880595096692e+001
 1.029269596200132e+000	 5.770631462051433e-001	 1.458630419856959e+001
 1.091361178960316e+000	 4.659475353462514e-001	 1.647930563809197e+001
 1.086333398022053e+000	 4.775522103216983e-001	 1.631487481688112e+001
 1.081171770720215e+000	 4.891257468905380e-001	 1.614039190128525e+001
 1.075876417263589e+000	 5.006659063747960e-001	 1.595734920015608e+001
 1.070447506345819e+000	 5.121704444515712e-001	 1.576728374975284e+001
 1.064885255513005e+000	 5.236371124308838e-001	 1.557177174946455e+001
 1.059189931491927e+000	 5.350636585520109e-001	 1.537242231460289e+001
 1.053361850477960e+000	 5.464478292969290e-001	 1.517087053461422e+001
 1.047401378381807e+000	 5.577873707194374e-001	 1.496876982930627e+001
 1.041308931034233e+000	 5.690800297884865e-001	 1.476778360024013e+001
 1.035084974348039e+000	 5.803235557441941e-001	 1.456957617928494e+001
 1.097492731547069e+000	 4.685653504822201e-001	 1.641243901458178e+001
 1.092436703220316e+000	 4.802352235573337e-001	 1.625409963637734e+001
 1.087246076546066e+000	 4.918737832821646e-001	 1.608534439562389e+001
 1.081920972408479e+000	 5.034787784012498e-001	 1.590769782380084e+001
 1.076461560448969e+000	 5.150479519824853e-001	 1.572273130992423e+001
 1.070868059435873e+000	 5.265790427021526e-001	 1.553205751282329e+001
 1.065140737594519e+000	 5.380697861485382e-001	 1.533732406912274e+001
 1.059279912896756e+000	 5.495179161427544e-001	 1.514020658414486e+001
 1.053285953309077e+000	 5.609211660753308e-001	 1.494240089730765e+001
 1.047159276998498e+000	 5.722772702570897e-001	 1.474561461827636e+001
 1.040900352495448e+000	 5.835839652827812e-001	 1.455155793511414e+001
 1.103624284133538e+000	 4.711831656185747e-001	 1.634604646116862e+001
 1.098540008418292e+000	 4.829182367932998e-001	 1.619360956461734e+001
 1.093320382371615e+000	 4.946218196740462e-001	 1.603037947379828e+001
 1.087965527553038e+000	 5.062916504278682e-001	 1.585791726168240e+001
 1.082475614551749e+000	 5.179254595134631e-001	 1.567783337784081e+001
 1.076850863358325e+000	 5.295209729733790e-001	 1.549178203818372e+001
 1.071091543696644e+000	 5.410759137449159e-001	 1.530145488791002e+001
 1.065197975315034e+000	 5.525880029883279e-001	 1.510857392369848e+001
 1.059170528235776e+000	 5.640549614308797e-001	 1.491488366564727e+001
 1.053009622962143e+000	 5.754745107252708e-001	 1.472214257428560e+001
 1.046715730642193e+000	 5.868443748208878e-001	 1.453211371311080e+001
 9.885619491647814e-001	 5.542402794201590e-001	 1.467889456533762e+001
 9.824917097073290e-001	 5.649309817611228e-001	 1.443725283222600e+001
 9.762968690995890e-001	 5.755704568108352e-001	 1.418552781938826e+001
 9.699780173860767e-001	 5.861565690314716e-001	 1.392569642559005e+001
 9.635357926610374e-001	 5.966871903522223e-001	 1.365970543135872e+001
 9.569708810090841e-001	 6.071602015023673e-001	 1.338946012477252e+001
 9.502840164019309e-001	 6.175734933469834e-001	 1.311681249943584e+001
 9.434759805509428e-001	 6.279249682236161e-001	 1.284354906368565e+001
 9.365476027153261e-001	 6.382125412782214e-001	 1.257137830463559e+001
 9.294997594658225e-001	 6.484341417986819e-001	 1.230191785514236e+001
 9.223333744038621e-001	 6.585877145441748e-001	 1.203668141613743e+001
 9.943773273115255e-001	 5.575006889620030e-001	 1.466731555453753e+001
 9.882713786726242e-001	 5.682542811167918e-001	 1.443139882477328e+001
 9.820400958967170e-001	 5.789563446273001e-001	 1.418531636754966e+001
 9.756840724993499e-001	 5.896047313930605e-001	 1.393118851989415e+001
 9.692039503284609e-001	 6.001973008245471e-001	 1.367111156928875e+001
 9.626004195046681e-001	 6.107319211840904e-001	 1.340714598463202e+001
 9.558742183173916e-001	 6.212064709294447e-001	 1.314130418752628e+001
 9.490261330765412e-001	 6.316188400583206e-001	 1.287553790370932e+001
 9.420569979195745e-001	 6.419669314521876e-001	 1.261172513921638e+001
 9.349676945738025e-001	 6.522486622176337e-001	 1.235165683053258e+001
 9.277591520738917e-001	 6.624619650235540e-001	 1.209702322256190e+001
 1.000192705458934e+000	 5.607610985034969e-001	 1.465542072775013e+001
 9.940510476386210e-001	 5.715775804720994e-001	 1.442498649836963e+001
 9.877833226945743e-001	 5.823422324433805e-001	 1.418440659986617e+001
 9.813901276133723e-001	 5.930528937542327e-001	 1.393593974018703e+001
 9.748721079966469e-001	 6.037074112964166e-001	 1.368182621505602e+001
 9.682299580010183e-001	 6.143036408653173e-001	 1.342427574710749e+001
 9.614644202336151e-001	 6.248394485113694e-001	 1.316545483368386e+001
 9.545762856028904e-001	 6.353127118924513e-001	 1.290747364388636e+001
 9.475663931245540e-001	 6.457213216255494e-001	 1.265237251043267e+001
 9.404356296824864e-001	 6.560631826359605e-001	 1.240210806675877e+001
 9.331849297445891e-001	 6.663362155023007e-001	 1.215853908457029e+001
 1.006008083606842e+000	 5.640215080446243e-001	 1.464306981384268e+001
 9.998307166051433e-001	 5.749008798270260e-001	 1.441789830282229e+001
 9.935265494929784e-001	 5.857281202590576e-001	 1.418269718639321e+001
 9.870961827279576e-001	 5.965010561149743e-001	 1.393985859024739e+001
 9.805402656654042e-001	 6.072175217678244e-001	 1.369176144310668e+001
 9.738594964979440e-001	 6.178753605460503e-001	 1.344075892699338e+001
 9.670546221504111e-001	 6.284724260927679e-001	 1.318916540467649e+001
 9.601264381298031e-001	 6.390065837260276e-001	 1.293924286564552e+001
 9.530757883300819e-001	 6.494757117983335e-001	 1.269318693712535e+001
 9.459035647916977e-001	 6.598777030536939e-001	 1.245311251174465e+001
 9.386107074157873e-001	 6.702104659804474e-001	 1.221905127660936e+001
 1.011823461755081e+000	 5.672819175853689e-001	 1.463012253364287e+001
 1.005610385572016e+000	 5.782241791815531e-001	 1.441001608234408e+001
 9.992697762917473e-001	 5.891140080743142e-001	 1.418008572423038e+001
 9.928022378429179e-001	 5.999492184752717e-001	 1.394285216074660e+001
 9.862084233345433e-001	 6.107276322387641e-001	 1.370082769877506e+001
 9.794890349952525e-001	 6.214470802262907e-001	 1.345650331497675e+001
 9.726448240675881e-001	 6.321054036736511e-001	 1.321233516596932e+001
 9.656765906570911e-001	 6.427004555590683e-001	 1.297073058644028e+001
 9.585851835359757e-001	 6.532301019705662e-001	 1.273403362266861e+001
 9.513714999012607e-001	 6.636922234708648e-001	 1.250451015423352e+001
 9.440364850873191e-001	 6.740847164580276e-001	 1.227564958935174e+001
 1.017638839903487e+000	 5.705423271257143e-001	 1.461643882024015e+001
 1.011390054539064e+000	 5.815474785356608e-001	 1.440122131750968e+001
 1.005013003090699e+000	 5.924998958891324e-001	 1.417646899683547e+001
 9.985082929580652e-001	 6.033973808351121e-001	 1.394482640168693e+001
 9.918765810038723e-001	 6.142377427092285e-001	 1.370893407968175e+001
 9.851185734927529e-001	 6.250187999060399e-001	 1.347141526390647e+001
 9.782350259849559e-001	 6.357383812540294e-001	 1.323486196885336e+001
 9.712267431845675e-001	 6.463943273915921e-001	 1.300182054380935e+001
 9.640945787420523e-001	 6.569844921422731e-001	 1.277477673212241e+001
 9.568394350109997e-001	 6.675067438875043e-001	 1.255603943375428e+001
 9.494622627590179e-001	 6.779589669350749e-001	 1.232830205251525e+001
 1.023454218051892e+000	 5.738027366656446e-001	 1.460187903774506e+001
 1.017169723506112e+000	 5.848707778893306e-001	 1.439139536503883e+001
 1.010756229889650e+000	 5.958857837034940e-001	 1.417174323067216e+001
 1.004214348073213e+000	 6.068455431944817e-001	 1.394568639181777e+001
 9.975447386732017e-001	 6.177478531792116e-001	 1.371598861389007e+001
 9.907481119902529e-001	 6.285905195852996e-001	 1.348539997173093e+001
 9.838252279023241e-001	 6.393713588339129e-001	 1.325664253428277e+001
 9.767768957120436e-001	 6.500881992236183e-001	 1.303239547631171e+001
 9.696039739481288e-001	 6.607388823134809e-001	 1.281527966654821e+001
 9.623073701207390e-001	 6.713212643036441e-001	 1.260459568394570e+001
 9.548880404307168e-001	 6.818332174116220e-001	 1.237700479357591e+001
 1.029269596200132e+000	 5.770631462051433e-001	 1.458630419856959e+001
 1.022949392472985e+000	 5.881940772425429e-001	 1.438041969549206e+001
 1.016499456688419e+000	 5.992716715173814e-001	 1.416580434929785e+001
 1.009920403188173e+000	 6.102937055533667e-001	 1.394533660515141e+001
 1.003212896342341e+000	 6.212579636487060e-001	 1.372189853494862e+001
 9.963776504875617e-001	 6.321622392640718e-001	 1.349836176123621e+001
 9.894154298195012e-001	 6.430043364133122e-001	 1.327757273355088e+001
 9.823270482393317e-001	 6.537820710551658e-001	 1.306233740145873e+001
 9.751133691540227e-001	 6.644932724842148e-001	 1.285540533459798e+001
 9.677753052303022e-001	 6.751357847193149e-001	 1.264879376223134e+001
 9.603138181022493e-001	 6.857074678877024e-001	 1.242176071610640e+001
 1.035084974348039e+000	 5.803235557441941e-001	 1.456957617928494e+001
 1.028729061439508e+000	 5.915173765952791e-001	 1.436817612896162e+001
 1.022242683486824e+000	 6.026575593307760e-001	 1.415854822499186e+001
 1.015626458302758e+000	 6.137418679117540e-001	 1.394368117468984e+001
 1.008881054011098e+000	 6.247680741177057e-001	 1.372657055394193e+001
 1.002007188984487e+000	 6.357339589423576e-001	 1.351020435671084e+001
 9.950056317362974e-001	 6.466373139922383e-001	 1.329754786592836e+001
 9.878772007662450e-001	 6.574759428862534e-001	 1.309152789076202e+001
 9.806227643595509e-001	 6.682476626545023e-001	 1.289466997712122e+001
 9.732432403395136e-001	 6.789503051345484e-001	 1.268866302151452e+001
 9.657395957734473e-001	 6.895817183633489e-001	 1.246257941276704e+001
 1.040900352495448e+000	 5.835839652827812e-001	 1.455155793511414e+001
 1.034508730405505e+000	 5.948406759475194e-001	 1.435454706883630e+001
 1.027985910284681e+000	 6.060434471436605e-001	 1.414987092802060e+001
 1.021332513416781e+000	 6.171900302696303e-001	 1.394062415347491e+001
 1.014549211679285e+000	 6.282781845862040e-001	 1.372991112866767e+001
 1.007636727480838e+000	 6.393056786201592e-001	 1.352083115765697e+001
 1.000595833652521e+000	 6.502702915707008e-001	 1.331646293338398e+001
 9.934273532925942e-001	 6.611698147169002e-001	 1.311984834200994e+001
 9.861321595645307e-001	 6.720020528243689e-001	 1.292998330416952e+001
 9.787111754481976e-001	 6.827648255493757e-001	 1.272423898083786e+001
 9.711653734441448e-001	 6.934559688385950e-001	 1.249947707660553e+001
 1.046715730642193e+000	 5.868443748208878e-001	 1.453211371311080e+001
 1.040288399370800e+000	 5.981639752992449e-001	 1.433941573371357e+001
 1.033729137081809e+000	 6.094293349560167e-001	 1.413966897363068e+001
 1.027038568530055e+000	 6.206381926269815e-001	 1.393606977306252e+001
 1.020217369346709e+000	 6.317882950541939e-001	 1.373182673005053e+001
 1.013266265976422e+000	 6.428773982974780e-001	 1.353014550966300e+001
 1.006186035567982e+000	 6.539032691487108e-001	 1.333421291250071e+001
 9.989775058181930e-001	 6.648636865471250e-001	 1.314718024888079e+001
 9.916415547687788e-001	 6.757564429938406e-001	 1.296069035226655e+001
 9.841791105561780e-001	 6.865793459638276e-001	 1.275556324890317e+001
 9.765911511141747e-001	 6.973302193134739e-001	 1.253247641073014e+001
 9.223333744038621e-001	 6.585877145441748e-001	 1.203668141613743e+001
 9.150494175759466e-001	 6.686712208458169e-001	 1.178700505743191e+001
 9.076489043303718e-001	 6.786826392403966e-001	 1.154224274844192e+001
 9.001328956976941e-001	 6.886199674222856e-001	 1.129205829736899e+001
 8.925024981968082e-001	 6.984812237597207e-001	 1.103707725728956e+001
 8.847588633353754e-001	 7.082644485790088e-001	 1.077792924222733e+001
 8.769031870669851e-001	 7.179677054343339e-001	 1.051524836542461e+001
 8.689367092055303e-001	 7.275890823614685e-001	 1.024967375934325e+001
 8.608607127973482e-001	 7.371266931137128e-001	 9.981850166850887e+000
 8.526765234517708e-001	 7.465786783784127e-001	 9.712428591813934e+000
 8.443855086307747e-001	 7.559432069724200e-001	 9.442066996171656e+000
 9.277591520738917e-001	 6.624619650235540e-001	 1.209702322256190e+001
 9.204323461727995e-001	 6.726047892082684e-001	 1.185429314401007e+001
 9.129882981917740e-001	 6.826751014169742e-001	 1.160975451238849e+001
 9.054280754030595e-001	 6.926708875651475e-001	 1.136095002734826e+001
 8.977527908348268e-001	 7.025901543637464e-001	 1.110837497852962e+001
 8.899636027686719e-001	 7.124309306109720e-001	 1.085252158817557e+001
 8.820617141935768e-001	 7.221912684695437e-001	 1.059387970365466e+001
 8.740483722168425e-001	 7.318692447277859e-001	 1.033293759002603e+001
 8.659248674325377e-001	 7.414629620428398e-001	 1.007018281131264e+001
 8.576925332481072e-001	 7.509705501643340e-001	 9.806103187818373e+000
 8.493527451698485e-001	 7.603901671368815e-001	 9.541187815585962e+000
 9.331849297445891e-001	 6.663362155023007e-001	 1.215853908457029e+001
 9.258152747702765e-001	 6.765383575700944e-001	 1.191817632390045e+001
 9.183276920537512e-001	 6.866675635929472e-001	 1.167425945509364e+001
 9.107232551089430e-001	 6.967218077074371e-001	 1.142714567033850e+001
 9.030030834733056e-001	 7.066990849672418e-001	 1.117720268147220e+001
 8.951683422023676e-001	 7.165974126424530e-001	 1.092478830037356e+001
 8.872202413205065e-001	 7.264148315043242e-001	 1.067025138446874e+001
 8.791600352284326e-001	 7.361494070937297e-001	 1.041393290030900e+001
 8.709890220679465e-001	 7.457992309716475e-001	 1.015616709308995e+001
 8.627085430446098e-001	 7.553624219499896e-001	 9.897282748554270e+000
 8.543199817090402e-001	 7.648371273011256e-001	 9.637604532392514e+000
 9.386107074157873e-001	 6.702104659804474e-001	 1.221905127660936e+001
 9.311982033682217e-001	 6.804719259313259e-001	 1.197860701394138e+001
 9.236670859161580e-001	 6.906600257683419e-001	 1.173569096522667e+001
 9.160184348152155e-001	 7.007727278491728e-001	 1.149056339142114e+001
 9.082533761121285e-001	 7.108080155702147e-001	 1.124346706189630e+001
 9.003730816363605e-001	 7.207638946734495e-001	 1.099462830456036e+001
 8.923787684476852e-001	 7.306383945386621e-001	 1.074425820314236e+001
 8.842716982402233e-001	 7.404295694592746e-001	 1.049255393031184e+001
 8.760531767035096e-001	 7.501354999001021e-001	 1.023970020369669e+001
 8.677245528412214e-001	 7.597542937353362e-001	 9.985870850343776e+000
 8.592872182482988e-001	 7.692840874651026e-001	 9.731230463737269e+000
 9.440364850873191e-001	 6.740847164580276e-001	 1.227564958935174e+001
 9.365811319664787e-001	 6.844054942919948e-001	 1.203554518012044e+001
 9.290064797788518e-001	 6.946524879431842e-001	 1.179399041093102e+001
 9.213136145217460e-001	 7.048236479903732e-001	 1.155112967415348e+001
 9.135036687511782e-001	 7.149169461726750e-001	 1.130708338302842e+001
 9.055778210705479e-001	 7.249303767039607e-001	 1.106194925421030e+001
 8.975372955750234e-001	 7.348619575725440e-001	 1.081580375569434e+001
 8.893833612521390e-001	 7.447097318243970e-001	 1.056870370808465e+001
 8.811173313391613e-001	 7.544717688281690e-001	 1.032068802545815e+001
 8.727405626378855e-001	 7.641461655203298e-001	 1.007177958045907e+001
 8.642544547875742e-001	 7.737310476287623e-001	 9.821987176735780e+000
 9.494622627590179e-001	 6.779589669350749e-001	 1.232830205251524e+001
 9.419640605648918e-001	 6.883390626521324e-001	 1.208895823965767e+001
 9.343458736416885e-001	 6.986449501175009e-001	 1.184910702835716e+001
 9.266087942284046e-001	 7.088745681310574e-001	 1.160877919838094e+001
 9.187539613903393e-001	 7.190258767746317e-001	 1.136797534542557e+001
 9.107825605048273e-001	 7.290968587339832e-001	 1.112666739524498e+001
 9.026958227024333e-001	 7.390855206059577e-001	 1.088480030114398e+001
 8.944950242641027e-001	 7.489898941890726e-001	 1.064229391208247e+001
 8.861814859748358e-001	 7.588080377558130e-001	 1.039904499682596e+001
 8.777565724345455e-001	 7.685380373049277e-001	 1.015492940785713e+001
 8.692216913268166e-001	 7.781780077920549e-001	 9.909804367149910e+000
 9.548880404307168e-001	 6.818332174116220e-001	 1.237700479357591e+001
 9.473469891633051e-001	 6.922726310117698e-001	 1.213882096171422e+001
 9.396852675045243e-001	 7.026374122913179e-001	 1.190099780926440e+001
 9.319039739350612e-001	 7.129254882712436e-001	 1.166345471746846e+001
 9.240042540294949e-001	 7.231348073760935e-001	 1.142607495654380e+001
 9.159872999390962e-001	 7.332633407635163e-001	 1.118870743060483e+001
 9.078543498298249e-001	 7.433090836388889e-001	 1.095116862371424e+001
 8.996066872760378e-001	 7.532700565532765e-001	 1.071324473358793e+001
 8.912456406104682e-001	 7.631443066829996e-001	 1.047469397756357e+001
 8.827725822311452e-001	 7.729299090890865e-001	 1.023524905361940e+001
 8.741889278659762e-001	 7.826249679549311e-001	 9.994619737524952e+000
 9.603138181022493e-001	 6.857074678877024e-001	 1.242176071610639e+001
 9.527299177615619e-001	 6.962061993709386e-001	 1.218511536678225e+001
 9.450246613672159e-001	 7.066298744646621e-001	 1.194962738772867e+001
 9.371991536415850e-001	 7.169764084109508e-001	 1.171510693497759e+001
 9.292545466685293e-001	 7.272437379770698e-001	 1.148132240000093e+001
 9.211920393732523e-001	 7.374298227925583e-001	 1.124800238468315e+001
 9.130128769571099e-001	 7.475326466713247e-001	 1.101483789498367e+001
 9.047183502878682e-001	 7.575502189169845e-001	 1.078148473908513e+001
 8.963097952459920e-001	 7.674805756096939e-001	 1.054756611380249e+001
 8.877885920276273e-001	 7.773217808727624e-001	 1.031267536110760e+001
 8.791561644050019e-001	 7.870719281173406e-001	 1.007637887481191e+001
 9.657395957734473e-001	 6.895817183633489e-001	 1.246257941276704e+001
 9.581128463595068e-001	 7.001397677296708e-001	 1.222783062480699e+001
 9.503640552296199e-001	 7.106223366375596e-001	 1.199496792599016e+001
 9.424943333478461e-001	 7.210273285501974e-001	 1.176369438080727e+001
 9.345048393073252e-001	 7.313526685775691e-001	 1.153366590454801e+001
 9.263967788071928e-001	 7.415963048211063e-001	 1.130449346763018e+001
 9.181714040841990e-001	 7.517562097032523e-001	 1.107574553598858e+001
 9.098300132995163e-001	 7.618303812801719e-001	 1.084695073258606e+001
 9.013739498813420e-001	 7.718168445358615e-001	 1.061760070297936e+001
 8.928046018239355e-001	 7.817136526559121e-001	 1.038715316584854e+001
 8.841234009438440e-001	 7.915188882792336e-001	 1.015503512749196e+001
 9.711653734441448e-001	 6.934559688385950e-001	 1.249947707660553e+001
 9.634957749569834e-001	 7.040733360879967e-001	 1.226696295209026e+001
 9.557034490915919e-001	 7.146147988100368e-001	 1.203699899947584e+001
 9.477895130537147e-001	 7.250782486890024e-001	 1.180918328682236e+001
 9.397551319457672e-001	 7.354615991776009e-001	 1.158306161276052e+001
 9.316015182408166e-001	 7.457627868491598e-001	 1.135812993953101e+001
 9.233299312110029e-001	 7.559797727346579e-001	 1.113383707927667e+001
 9.149416763109065e-001	 7.661105436428150e-001	 1.090958761791246e+001
 9.064381045164527e-001	 7.761531134614675e-001	 1.068474505865353e+001
 8.978206116200135e-001	 7.861055244384922e-001	 1.045863516515717e+001
 8.890906374824527e-001	 7.959658484405604e-001	 1.023054948222402e+001
 9.765911511141747e-001	 6.973302193134739e-001	 1.253247641073014e+001
 9.688787035538358e-001	 7.080069044459488e-001	 1.230251550702374e+001
 9.610428429529890e-001	 7.186072609821202e-001	 1.207570748102863e+001
 9.530846927590595e-001	 7.291291688273839e-001	 1.185154746198756e+001
 9.450054245837380e-001	 7.395705297771742e-001	 1.162947344945900e+001
 9.368062576740198e-001	 7.499292688767160e-001	 1.140886897446251e+001
 9.284884583374330e-001	 7.602033357655288e-001	 1.118906603091592e+001
 9.200533393219623e-001	 7.703907060048886e-001	 1.096934826093345e+001
 9.115022591512589e-001	 7.804893823864774e-001	 1.074895437521418e+001
 9.028366214158040e-001	 7.904973962204591e-001	 1.052708178750716e+001
 8.940578740207774e-001	 8.004128086012710e-001	 1.030289044003372e+001
 8.443855086307747e-001	 7.559432069724200e-001	 9.442066996171658e+000
 8.359903442578607e-001	 7.652170926952719e-001	 9.175832196077066e+000
 8.274912435593508e-001	 7.743999767264992e-001	 8.917475019706174e+000
 8.188896949475417e-001	 7.834901207227666e-001	 8.665778752106332e+000
 8.101872254145905e-001	 7.924858190063862e-001	 8.419492320914539e+000
 8.013853996305682e-001	 8.013853996305679e-001	 8.177334252280428e+000
 7.924858190063862e-001	 8.101872254145907e-001	 7.937996654171032e+000
 7.834901207227666e-001	 8.188896949475419e-001	 7.700149202705369e+000
 7.743999767264997e-001	 8.274912435593509e-001	 7.462443106958661e+000
 7.652170926952719e-001	 8.359903442578606e-001	 7.223515027666623e+000
 7.559432069724201e-001	 8.443855086307748e-001	 6.981990925454912e+000
 8.493527451698485e-001	 7.603901671368815e-001	 9.541187815585964e+000
 8.409081948628211e-001	 7.697186080166688e-001	 9.280116073122835e+000
 8.323590968076828e-001	 7.789555118724081e-001	 9.026373111395911e+000
 8.237069481725587e-001	 7.880991301346746e-001	 8.778751212264156e+000
 8.149532849323851e-001	 7.971477470918548e-001	 8.536010655491225e+000
 8.060996809616599e-001	 8.060996809616597e-001	 8.296883731007107e+000
 7.971477470918549e-001	 8.149532849323851e-001	 8.060078774946375e+000
 7.880991301346745e-001	 8.237069481725586e-001	 7.824284204360753e+000
 7.789555118724078e-001	 8.323590968076826e-001	 7.588172525291470e+000
 7.697186080166687e-001	 8.409081948628209e-001	 7.350404288875143e+000
 7.603901671368816e-001	 8.493527451698488e-001	 7.109631970355923e+000
 8.543199817090402e-001	 7.648371273011256e-001	 9.637604532392514e+000
 8.458260454678566e-001	 7.742201233378900e-001	 9.381469638435700e+000
 8.372269500560541e-001	 7.835110470181768e-001	 9.132140378029410e+000
 8.285242013975824e-001	 7.927081395464755e-001	 8.888419129475178e+000
 8.197193444501577e-001	 8.018096751772460e-001	 8.649078580153864e+000
 8.108139622927019e-001	 8.108139622927019e-001	 8.412865796011630e+000
 8.018096751772459e-001	 8.197193444501577e-001	 8.178506311392404e+000
 7.927081395464752e-001	 8.285242013975824e-001	 7.944708213340078e+000
 7.835110470181770e-001	 8.372269500560540e-001	 7.710166194278936e+000
 7.742201233378900e-001	 8.458260454678566e-001	 7.473565546965421e+000
 7.648371273011256e-001	 8.543199817090402e-001	 7.233586075807304e+000
 8.592872182482988e-001	 7.692840874651026e-001	 9.731230463737269e+000
 8.507438960729211e-001	 7.787216386588826e-001	 9.479817084858386e+000
 8.420948033044189e-001	 7.880665821637520e-001	 9.234710845544706e+000
 8.333414546225675e-001	 7.973171489581147e-001	 8.994725300329272e+000
 8.244854039678605e-001	 8.064716032625070e-001	 8.758646580333231e+000
 8.155282436236437e-001	 8.155282436236437e-001	 8.525237520972560e+000
 8.064716032625069e-001	 8.244854039678604e-001	 8.293241806754482e+000
 7.973171489581145e-001	 8.333414546225677e-001	 8.061388106497127e+000
 7.880665821637520e-001	 8.420948033044190e-001	 7.828394172077663e+000
 7.787216386588823e-001	 8.507438960729211e-001	 7.592970873793148e+000
 7.692840874651026e-001	 8.592872182482987e-001	 7.353826145632938e+000
 8.642544547875742e-001	 7.737310476287623e-001	 9.821987176735778e+000
 8.556617466779680e-001	 7.832231539795923e-001	 9.575090563971770e+000
 8.469626565527324e-001	 7.926221173090784e-001	 9.334026226949813e+000
 8.381587078474683e-001	 8.019261583695391e-001	 9.097619956562131e+000
 8.292514634854455e-001	 8.111335313475847e-001	 8.864672344565996e+000
 8.202425249544357e-001	 8.202425249544355e-001	 8.633962970612718e+000
 8.111335313475849e-001	 8.292514634854458e-001	 8.404254603295920e+000
 8.019261583695390e-001	 8.381587078474684e-001	 8.174297387732667e+000
 7.926221173090786e-001	 8.469626565527325e-001	 7.942832991956891e+000
 7.832231539795924e-001	 8.556617466779681e-001	 7.708598684377924e+000
 7.737310476287623e-001	 8.642544547875741e-001	 7.470331314769685e+000
 8.692216913268166e-001	 7.781780077920549e-001	 9.909804367149910e+000
 8.605795972829509e-001	 7.877246692999664e-001	 9.667230073775132e+000
 8.518305098009493e-001	 7.971776524541016e-001	 9.430035818637258e+000
 8.429759610722384e-001	 8.065351677806932e-001	 9.197060669621568e+000
 8.340175230028659e-001	 8.157954594324280e-001	 8.967120676910200e+000
 8.249568062850277e-001	 8.249568062850275e-001	 8.739013120550936e+000
 8.157954594324282e-001	 8.340175230028660e-001	 8.511520769157443e+000
 8.065351677806933e-001	 8.429759610722384e-001	 8.283416121415794e+000
 7.971776524541016e-001	 8.518305098009493e-001	 8.053465601824042e+000
 7.877246692999661e-001	 8.605795972829510e-001	 7.820433682056418e+000
 7.781780077920549e-001	 8.692216913268166e-001	 7.583086899565184e+000
 8.741889278659762e-001	 7.826249679549311e-001	 9.994619737524950e+000
 8.654974478878234e-001	 7.922261846199509e-001	 9.756183345554934e+000
 8.566983630490245e-001	 8.017331875987668e-001	 9.522696395633712e+000
 8.477932142968324e-001	 8.111441771915242e-001	 9.293012253928252e+000
 8.387835825200737e-001	 8.204573875169839e-001	 9.065963407838252e+000
 8.296710876153698e-001	 8.296710876153697e-001	 8.840365775431023e+000
 8.204573875169839e-001	 8.387835825200736e-001	 8.615023023311908e+000
 8.111441771915243e-001	 8.477932142968325e-001	 8.388730863741655e+000
 8.017331875987669e-001	 8.566983630490245e-001	 8.160281301544377e+000
 7.922261846199511e-001	 8.654974478878236e-001	 7.928466801315613e+000
 7.826249679549311e-001	 8.741889278659761e-001	 7.692084345655436e+000
 8.791561644050019e-001	 7.870719281173406e-001	 1.007637887481191e+001
 8.704152984925387e-001	 7.967276999394926e-001	 9.841905729973648e+000
 8.615662162969122e-001	 8.062887227430189e-001	 9.611972105820035e+000
 8.526104675212042e-001	 8.157531866019770e-001	 9.385446668882086e+000
 8.435496420370213e-001	 8.251193156011999e-001	 9.161179303666119e+000
 8.343853689454112e-001	 8.343853689454115e-001	 8.938005485396385e+000
 8.251193156012001e-001	 8.435496420370212e-001	 8.714750658693291e+000
 8.157531866019770e-001	 8.526104675212042e-001	 8.490234592107962e+000
 8.062887227430190e-001	 8.615662162969121e-001	 8.263275678148538e+000
 7.967276999394924e-001	 8.704152984925387e-001	 8.032695148395439e+000
 7.870719281173405e-001	 8.791561644050018e-001	 7.797321173516523e+000
 8.841234009438440e-001	 7.915188882792336e-001	 1.015503512749195e+001
 8.753331490970502e-001	 8.012292152585375e-001	 9.924360082409294e+000
 8.664340695445677e-001	 8.108442578868036e-001	 9.697834363169346e+000
 8.574277207453075e-001	 8.203621960119979e-001	 9.474342919665382e+000
 8.483157015536604e-001	 8.297812436850239e-001	 9.252753974576301e+000
 8.390996502751035e-001	 8.390996502751033e-001	 9.031923460974337e+000
 8.297812436850239e-001	 8.483157015536605e-001	 8.810699463568856e+000
 8.203621960119981e-001	 8.574277207453077e-001	 8.587926632588655e+000
 8.108442578868035e-001	 8.664340695445675e-001	 8.362450539004902e+000
 8.012292152585376e-001	 8.753331490970502e-001	 8.133121939747932e+000
 7.915188882792339e-001	 8.841234009438441e-001	 7.898800921784638e+000
 8.890906374824527e-001	 7.959658484405604e-001	 1.023054948222402e+001
 8.802509997013114e-001	 8.057307305770329e-001	 1.000351664757443e+001
 8.713019227919451e-001	 8.153997930300662e-001	 9.780261740036533e+000
 8.622449739690975e-001	 8.249712054215328e-001	 9.559686956888220e+000
 8.530817610699448e-001	 8.344431717684036e-001	 9.340679781290080e+000
 8.438139316043950e-001	 8.438139316043948e-001	 9.122117486432479e+000
 8.344431717684036e-001	 8.530817610699444e-001	 8.902871641223829e+000
 8.249712054215326e-001	 8.622449739690977e-001	 8.681812585578047e+000
 8.153997930300660e-001	 8.713019227919449e-001	 8.457813843042178e+000
 8.057307305770328e-001	 8.802509997013116e-001	 8.229756438440163e+000
 7.959658484405603e-001	 8.890906374824527e-001	 7.996533088428228e+000
 8.940578740207774e-001	 8.004128086012710e-001	 1.030289044003372e+001
 8.851688503052765e-001	 8.102322458949247e-001	 1.007935294344423e+001
 8.761697760389994e-001	 8.199553281727517e-001	 9.859239858538118e+000
 8.670622271925278e-001	 8.295802148305268e-001	 9.641471575121450e+000
 8.578478205858254e-001	 8.391050998512860e-001	 9.424955740441824e+000
 8.485282129332367e-001	 8.485282129332366e-001	 9.208591831668008e+000
 8.391050998512859e-001	 8.578478205858252e-001	 8.991275728025972e+000
 8.295802148305270e-001	 8.670622271925280e-001	 8.771904249678171e+000
 8.199553281727516e-001	 8.761697760389995e-001	 8.549379630092529e+000
 8.102322458949245e-001	 8.851688503052763e-001	 8.322613888575823e+000
 8.004128086012706e-001	 8.940578740207773e-001	 8.090533069859253e+000
 7.559432069724201e-001	 8.443855086307748e-001	 6.981990925454912e+000
 7.465786783784130e-001	 8.526765234517706e-001	 6.741338798252485e+000
 7.371266931137132e-001	 8.608607127973481e-001	 6.505996336889901e+000
 7.275890823614686e-001	 8.689367092055303e-001	 6.275948819392825e+000
 7.179677054343341e-001	 8.769031870669852e-001	 6.051208623757096e+000
 7.082644485790089e-001	 8.847588633353752e-001	 5.831815537846571e+000
 6.984812237597208e-001	 8.925024981968079e-001	 5.617836835580231e+000
 6.886199674222857e-001	 9.001328956976938e-001	 5.409367108130223e+000
 6.786826392403964e-001	 9.076489043303717e-001	 5.206527840552382e+000
 6.686712208458168e-001	 9.150494175759467e-001	 5.009466726092686e+000
 6.585877145441748e-001	 9.223333744038623e-001	 4.817294651781538e+000
 7.603901671368816e-001	 8.493527451698488e-001	 7.109631970355923e+000
 7.509705501643340e-001	 8.576925332481071e-001	 6.869552563002817e+000
 7.414629620428398e-001	 8.659248674325376e-001	 6.634791291628956e+000
 7.318692447277859e-001	 8.740483722168426e-001	 6.405301421495212e+000
 7.221912684695439e-001	 8.820617141935768e-001	 6.181065303231887e+000
 7.124309306109720e-001	 8.899636027686718e-001	 5.962094771921729e+000
 7.025901543637467e-001	 8.977527908348270e-001	 5.748431302441093e+000
 6.926708875651476e-001	 9.054280754030593e-001	 5.540145909061648e+000
 6.826751014169743e-001	 9.129882981917744e-001	 5.337338779065069e+000
 6.726047892082685e-001	 9.204323461727993e-001	 5.140138632018482e+000
 6.624619650235539e-001	 9.277591520738914e-001	 4.948396154415216e+000
 7.648371273011256e-001	 8.543199817090402e-001	 7.233586075807302e+000
 7.553624219499897e-001	 8.627085430446098e-001	 6.994147710163385e+000
 7.457992309716478e-001	 8.709890220679463e-001	 6.760053567202244e+000
 7.361494070937295e-001	 8.791600352284323e-001	 6.531220275837020e+000
 7.264148315043241e-001	 8.872202413205066e-001	 6.307595460143221e+000
 7.165974126424529e-001	 8.951683422023676e-001	 6.089158239934857e+000
 7.066990849672417e-001	 9.030030834733055e-001	 5.875919477527730e+000
 6.967218077074369e-001	 9.107232551089428e-001	 5.667921757909141e+000
 6.866675635929469e-001	 9.183276920537511e-001	 5.465239091364694e+000
 6.765383575700943e-001	 9.258152747702764e-001	 5.267976329553362e+000
 6.663362155023005e-001	 9.331849297445891e-001	 5.076265950185745e+000
 7.692840874651026e-001	 8.592872182482987e-001	 7.353826145632944e+000
 7.597542937353361e-001	 8.677245528412213e-001	 7.115096395919030e+000
 7.501354999001023e-001	 8.760531767035098e-001	 6.881752657248595e+000
 7.404295694592746e-001	 8.842716982402237e-001	 6.653670380994393e+000
 7.306383945386620e-001	 8.923787684476852e-001	 6.430757850020460e+000
 7.207638946734496e-001	 9.003730816363605e-001	 6.212956793086489e+000
 7.108080155702147e-001	 9.082533761121285e-001	 6.000242735306295e+000
 7.007727278491728e-001	 9.160184348152154e-001	 5.792625071068826e+000
 6.906600257683416e-001	 9.236670859161581e-001	 5.590146847699449e+000
 6.804719259313260e-001	 9.311982033682213e-001	 5.392884250173750e+000
 6.702104659804474e-001	 9.386107074157872e-001	 5.200945779343599e+000
 7.737310476287623e-001	 8.642544547875741e-001	 7.470331314769684e+000
 7.641461655203298e-001	 8.727405626378856e-001	 7.232376924138783e+000
 7.544717688281690e-001	 8.811173313391610e-001	 6.999864155601532e+000
 7.447097318243972e-001	 8.893833612521392e-001	 6.772622821894796e+000
 7.348619575725439e-001	 8.975372955750237e-001	 6.550517332228179e+000
 7.249303767039608e-001	 9.055778210705480e-001	 6.333447432865357e+000
 7.149169461726750e-001	 9.135036687511783e-001	 6.121348673579897e+000
 7.048236479903732e-001	 9.213136145217460e-001	 5.914192585514457e+000
 6.946524879431838e-001	 9.290064797788519e-001	 5.711986557918199e+000
 6.844054942919948e-001	 9.365811319664784e-001	 5.514773403334601e+000
 6.740847164580276e-001	 9.440364850873192e-001	 5.322630603032627e+000
 7.781780077920549e-001	 8.692216913268166e-001	 7.583086899565184e+000
 7.685380373049275e-001	 8.777565724345454e-001	 7.345973701064280e+000
 7.588080377558133e-001	 8.861814859748360e-001	 7.114369714385941e+000
 7.489898941890726e-001	 8.944950242641026e-001	 6.888054730395002e+000
 7.390855206059577e-001	 9.026958227024335e-001	 6.666844832137100e+000
 7.290968587339834e-001	 9.107825605048272e-001	 6.450593273981546e+000
 7.190258767746318e-001	 9.187539613903393e-001	 6.239191076393013e+000
 7.088745681310572e-001	 9.266087942284045e-001	 6.032567320941802e+000
 6.986449501175005e-001	 9.343458736416880e-001	 5.830689132168044e+000
 6.883390626521324e-001	 9.419640605648919e-001	 5.633561335085986e+000
 6.779589669350750e-001	 9.494622627590182e-001	 5.441225779414951e+000
 7.826249679549311e-001	 8.741889278659761e-001	 7.692084345655436e+000
 7.729299090890868e-001	 8.827725822311451e-001	 7.455877187508516e+000
 7.631443066829996e-001	 8.912456406104679e-001	 7.225256999597542e+000
 7.532700565532763e-001	 8.996066872760375e-001	 6.999949243339504e+000
 7.433090836388886e-001	 9.078543498298249e-001	 6.779717300814325e+000
 7.332633407635165e-001	 9.159872999390961e-001	 6.564363504881518e+000
 7.231348073760935e-001	 9.240042540294948e-001	 6.353729874619623e+000
 7.129254882712437e-001	 9.319039739350611e-001	 6.147698539719464e+000
 7.026374122913177e-001	 9.396852675045242e-001	 5.946191839547769e+000
 6.922726310117700e-001	 9.473469891633052e-001	 5.749172084823032e+000
 6.818332174116220e-001	 9.548880404307168e-001	 5.556640972242786e+000
 7.870719281173405e-001	 8.791561644050018e-001	 7.797321173516525e+000
 7.773217808727625e-001	 8.877885920276273e-001	 7.562083848662562e+000
 7.674805756096940e-001	 8.963097952459918e-001	 7.332519644256622e+000
 7.575502189169843e-001	 9.047183502878677e-001	 7.108295458200574e+000
 7.475326466713246e-001	 9.130128769571098e-001	 6.889117672328151e+000
 7.374298227925584e-001	 9.211920393732522e-001	 6.674733345946721e+000
 7.272437379770697e-001	 9.292545466685291e-001	 6.464931104324313e+000
 7.169764084109508e-001	 9.371991536415851e-001	 6.259541704733268e+000
 7.066298744646620e-001	 9.450246613672161e-001	 6.058438264801763e+000
 6.962061993709389e-001	 9.527299177615619e-001	 5.861536140239027e+000
 6.857074678877023e-001	 9.603138181022490e-001	 5.668792441462996e+000
 7.915188882792339e-001	 8.841234009438441e-001	 7.898800921784638e+000
 7.817136526559121e-001	 8.928046018239354e-001	 7.664596101606705e+000
 7.718168445358616e-001	 9.013739498813418e-001	 7.436157199236975e+000
 7.618303812801720e-001	 9.098300132995164e-001	 7.213088386393728e+000
 7.517562097032521e-001	 9.181714040841987e-001	 6.995034818764016e+000
 7.415963048211068e-001	 9.263967788071933e-001	 6.781684005462346e+000
 7.313526685775692e-001	 9.345048393073252e-001	 6.572766862986615e+000
 7.210273285501975e-001	 9.424943333478461e-001	 6.368058435207058e+000
 7.106223366375596e-001	 9.503640552296198e-001	 6.167378263127547e+000
 7.001397677296706e-001	 9.581128463595066e-001	 5.970590390553975e+000
 6.895817183633489e-001	 9.657395957734473e-001	 5.777602994346427e+000
 7.959658484405603e-001	 8.890906374824527e-001	 7.996533088428229e+000
 7.861055244384924e-001	 8.978206116200136e-001	 7.763422260613140e+000
 7.761531134614674e-001	 9.064381045164527e-001	 7.536175081858663e+000
 7.661105436428148e-001	 9.149416763109064e-001	 7.314328904360846e+000
 7.559797727346580e-001	 9.233299312110028e-001	 7.097463503038424e+000
 7.457627868491601e-001	 9.316015182408165e-001	 6.885202633447395e+000
 7.354615991776011e-001	 9.397551319457669e-001	 6.677215263670093e+000
 7.250782486890021e-001	 9.477895130537143e-001	 6.473216460580654e+000
 7.146147988100369e-001	 9.557034490915921e-001	 6.272967913171321e+000
 7.040733360879967e-001	 9.634957749569834e-001	 6.076278078084646e+000
 6.934559688385951e-001	 9.711653734441448e-001	 5.883001935132717e+000
 8.004128086012706e-001	 8.940578740207773e-001	 8.090533069859253e+000
 7.904973962204593e-001	 9.028366214158040e-001	 7.858576480327331e+000
 7.804893823864771e-001	 9.115022591512587e-001	 7.632584522332389e+000
 7.703907060048888e-001	 9.200533393219624e-001	 7.412023702506944e+000
 7.602033357655288e-001	 9.284884583374330e-001	 7.196404329597865e+000
 7.499292688767163e-001	 9.368062576740198e-001	 6.985282273426120e+000
 7.395705297771745e-001	 9.450054245837380e-001	 6.778260387216355e+000
 7.291291688273840e-001	 9.530846927590595e-001	 6.574989572518124e+000
 7.186072609821200e-001	 9.610428429529889e-001	 6.375169468285066e+000
 7.080069044459487e-001	 9.688787035538357e-001	 6.178548748223770e+000
 6.973302193134738e-001	 9.765911511141745e-001	 5.984925013246873e+000
 6.585877145441748e-001	 9.223333744038623e-001	 4.817294651781538e+000
 6.484341417986819e-001	 9.294997594658224e-001	 4.624956471321265e+000
 6.382125412782213e-001	 9.365476027153264e-001	 4.430126997215768e+000
 6.279249682236161e-001	 9.434759805509431e-001	 4.234460917474478e+000
 6.175734933469836e-001	 9.502840164019311e-001	 4.039722514349259e+000
 6.071602015023673e-001	 9.569708810090842e-001	 3.847772129766474e+000
 5.966871903522223e-001	 9.635357926610373e-001	 3.660552610586481e+000
 5.861565690314716e-001	 9.699780173860766e-001	 3.480075825238748e+000
 5.755704568108352e-001	 9.762968690995890e-001	 3.308409339889069e+000
 5.649309817611228e-001	 9.824917097073289e-001	 3.147663338317597e+000
 5.542402794201589e-001	 9.885619491647812e-001	 2.999977865183937e+000
 6.624619650235539e-001	 9.277591520738914e-001	 4.948396154415216e+000
 6.522486622176337e-001	 9.349676945738026e-001	 4.756315845713301e+000
 6.419669314521875e-001	 9.420569979195748e-001	 4.561030249050390e+000
 6.316188400583205e-001	 9.490261330765413e-001	 4.364294002119985e+000
 6.212064709294447e-001	 9.558742183173915e-001	 4.167975767452882e+000
 6.107319211840905e-001	 9.626004195046680e-001	 3.974044053394434e+000
 6.001973008245471e-001	 9.692039503284609e-001	 3.784553019084976e+000
 5.896047313930607e-001	 9.756840724993500e-001	 3.601628358643424e+000
 5.789563446273000e-001	 9.820400958967170e-001	 3.427453356221663e+000
 5.682542811167918e-001	 9.882713786726242e-001	 3.264255199441010e+000
 5.575006889620032e-001	 9.943773273115256e-001	 3.114291634040530e+000
 6.663362155023005e-001	 9.331849297445891e-001	 5.076265950185745e+000
 6.560631826359605e-001	 9.404356296824865e-001	 4.884698253142542e+000
 6.457213216255495e-001	 9.475663931245539e-001	 4.689189228857357e+000
 6.353127118924514e-001	 9.545762856028903e-001	 4.491595423484233e+000
 6.248394485113695e-001	 9.614644202336153e-001	 4.293891945683222e+000
 6.143036408653175e-001	 9.682299580010184e-001	 4.098157623170533e+000
 6.037074112964165e-001	 9.748721079966467e-001	 3.906560147700837e+000
 5.930528937542329e-001	 9.813901276133724e-001	 3.721341307448347e+000
 5.823422324433804e-001	 9.877833226945741e-001	 3.544802402058557e+000
 5.715775804720992e-001	 9.940510476386206e-001	 3.379289931325413e+000
 5.607610985034971e-001	 1.000192705458935e+000	 3.227181643557018e+000
 6.702104659804474e-001	 9.386107074157872e-001	 5.200945779343599e+000
 6.598777030536939e-001	 9.459035647916976e-001	 5.009904409592584e+000
 6.494757117983337e-001	 9.530757883300821e-001	 4.814396657132269e+000
 6.390065837260276e-001	 9.601264381298030e-001	 4.616150351262437e+000
 6.284724260927680e-001	 9.670546221504111e-001	 4.417249156827321e+000
 6.178753605460502e-001	 9.738594964979439e-001	 4.219884417175816e+000
 6.072175217678243e-001	 9.805402656654042e-001	 4.026339619021926e+000
 5.965010561149744e-001	 9.870961827279575e-001	 3.838974953271433e+000
 5.857281202590576e-001	 9.935265494929783e-001	 3.660212070808847e+000
 5.749008798270259e-001	 9.998307166051436e-001	 3.492519127729242e+000
 5.640215080446244e-001	 1.006008083606842e+000	 3.338396209417486e+000
 6.740847164580276e-001	 9.440364850873192e-001	 5.322630603032627e+000
 6.636922234708647e-001	 9.513714999012607e-001	 5.131740072795253e+000
 6.532301019705661e-001	 9.585851835359758e-001	 4.936450130209696e+000
 6.427004555590682e-001	 9.656765906570914e-001	 4.737748642299953e+000
 6.321054036736513e-001	 9.726448240675882e-001	 4.537829986468221e+000
 6.214470802262906e-001	 9.794890349952523e-001	 4.339000263380606e+000
 6.107276322387640e-001	 9.862084233345432e-001	 4.143661061160358e+000
 5.999492184752718e-001	 9.928022378429181e-001	 3.954293324512928e+000
 5.891140080743142e-001	 9.992697762917474e-001	 3.773441431591317e+000
 5.782241791815530e-001	 1.005610385572016e+000	 3.603697576733238e+000
 5.672819175853689e-001	 1.011823461755081e+000	 3.447686551898757e+000
 6.779589669350750e-001	 9.494622627590182e-001	 5.441225779414951e+000
 6.675067438875044e-001	 9.568394350109999e-001	 5.250028288940825e+000
 6.569844921422731e-001	 9.640945787420523e-001	 5.055152390042307e+000
 6.463943273915921e-001	 9.712267431845673e-001	 4.856185097884397e+000
 6.357383812540295e-001	 9.782350259849560e-001	 4.655421743165221e+000
 6.250187999060398e-001	 9.851185734927530e-001	 4.455285473087615e+000
 6.142377427092285e-001	 9.918765810038726e-001	 4.258298329846416e+000
 6.033973808351123e-001	 9.985082929580651e-001	 4.067064407485026e+000
 5.924998958891323e-001	 1.005013003090699e+000	 3.884253229795571e+000
 5.815474785356608e-001	 1.011390054539064e+000	 3.712583451130826e+000
 5.705423271257143e-001	 1.017638839903487e+000	 3.554806976491225e+000
 6.818332174116220e-001	 9.548880404307168e-001	 5.556640972242786e+000
 6.713212643036441e-001	 9.623073701207389e-001	 5.364959535457845e+000
 6.607388823134808e-001	 9.696039739481287e-001	 5.170311592683939e+000
 6.500881992236183e-001	 9.767768957120437e-001	 4.971259719909533e+000
 6.393713588339128e-001	 9.838252279023240e-001	 4.769816702652451e+000
 6.285905195852996e-001	 9.907481119902529e-001	 4.568525073533435e+000
 6.177478531792113e-001	 9.975447386732016e-001	 4.370029729798946e+000
 6.068455431944816e-001	 1.004214348073213e+000	 4.177060356930261e+000
 5.958857837034940e-001	 1.010756229889650e+000	 3.992414087127655e+000
 5.848707778893305e-001	 1.017169723506112e+000	 3.818938498386121e+000
 5.738027366656446e-001	 1.023454218051892e+000	 3.659515054155393e+000
 6.857074678877023e-001	 9.603138181022490e-001	 5.668792441462996e+000
 6.751357847193147e-001	 9.677753052303019e-001	 5.476592253760933e+000
 6.644932724842150e-001	 9.751133691540228e-001	 5.281741575529400e+000
 6.537820710551658e-001	 9.823270482393318e-001	 5.082777965951236e+000
 6.430043364133125e-001	 9.894154298195014e-001	 4.880812351097686e+000
 6.321622392640717e-001	 9.963776504875617e-001	 4.678509039677662e+000
 6.212579636487060e-001	 1.003212896342341e+000	 4.478638235403963e+000
 6.102937055533668e-001	 1.009920403188173e+000	 4.284057705950326e+000
 5.992716715173813e-001	 1.016499456688419e+000	 4.097694701157846e+000
 5.881940772425429e-001	 1.022949392472985e+000	 3.922528230171171e+000
 5.770631462051433e-001	 1.029269596200132e+000	 3.761571801227710e+000
 6.895817183633489e-001	 9.657395957734473e-001	 5.777602994346427e+000
 6.789503051345485e-001	 9.732432403395139e-001	 5.584834830619864e+000
 6.682476626545025e-001	 9.806227643595511e-001	 5.389306443399269e+000
 6.574759428862533e-001	 9.878772007662448e-001	 5.190551003303392e+000
 6.466373139922385e-001	 9.950056317362974e-001	 4.988211627458128e+000
 6.357339589423576e-001	 1.002007188984487e+000	 4.785032525215470e+000
 6.247680741177057e-001	 1.008881054011098e+000	 4.583911710728651e+000
 6.137418679117541e-001	 1.015626458302759e+000	 4.387837575371189e+000
 6.026575593307760e-001	 1.022242683486824e+000	 4.199870044391806e+000
 5.915173765952790e-001	 1.028729061439508e+000	 4.023122111506456e+000
 5.803235557441941e-001	 1.035084974348039e+000	 3.860741858993439e+000
 6.934559688385951e-001	 9.711653734441448e-001	 5.883001935132717e+000
 6.827648255493757e-001	 9.787111754481978e-001	 5.689602290273147e+000
 6.720020528243689e-001	 9.861321595645306e-001	 5.493243127197924e+000
 6.611698147169000e-001	 9.934273532925945e-001	 5.294395962010354e+000
 6.502702915707009e-001	 1.000595833652521e+000	 5.091823164966352e+000
 6.393056786201591e-001	 1.007636727480838e+000	 4.887896092843048e+000
 6.282781845862040e-001	 1.014549211679284e+000	 4.685643128894230e+000
 6.171900302696303e-001	 1.021332513416781e+000	 4.488185882563972e+000
 6.060434471436604e-001	 1.027985910284681e+000	 4.298719562883391e+000
 5.948406759475193e-001	 1.034508730405505e+000	 4.120493749512709e+000
 5.835839652827812e-001	 1.040900352495448e+000	 3.956793672933964e+000
 6.973302193134738e-001	 9.765911511141745e-001	 5.984925013246873e+000
 6.865793459638276e-001	 9.841791105561778e-001	 5.790816240872485e+000
 6.757564429938407e-001	 9.916415547687792e-001	 5.593544669933319e+000
 6.648636865471249e-001	 9.989775058181928e-001	 5.394136186936708e+000
 6.539032691487107e-001	 1.006186035567982e+000	 5.191461531783135e+000
 6.428773982974777e-001	 1.013266265976422e+000	 4.986905943802924e+000
 6.317882950541940e-001	 1.020217369346709e+000	 4.783630790836839e+000
 6.206381926269818e-001	 1.027038568530055e+000	 4.584893549744116e+000
 6.094293349560167e-001	 1.033729137081809e+000	 4.394027374406115e+000
 5.981639752992450e-001	 1.040288399370800e+000	 4.214421081795991e+000
 5.868443748208878e-001	 1.046715730642193e+000	 4.049499671666733e+000
 5.542402794201589e-001	 9.885619491647812e-001	 2.999977865183937e+000
 5.435021060254973e-001	 9.945061633163864e-001	 2.857908074879767e+000
 5.327170078595428e-001	 1.000324778960203e+000	 2.713551871835517e+000
 5.218871345191708e-001	 1.006017351124409e+000	 2.568423762850799e+000
 5.110146377703451e-001	 1.011583482668233e+000	 2.424007853235631e+000
 5.001016702530481e-001	 1.017022824127247e+000	 2.281750034213416e+000
 4.891503841983314e-001	 1.022335073517847e+000	 2.143050846433438e+000
 4.781629301589312e-001	 1.027519976101599e+000	 2.009259052226504e+000
 4.671414557548592e-001	 1.032577324110273e+000	 1.881665942585778e+000
 4.560881044353323e-001	 1.037506956432366e+000	 1.761500398204221e+000
 4.450050142583599e-001	 1.042308758262027e+000	 1.649924717288211e+000
 5.575006889620032e-001	 9.943773273115256e-001	 3.114291634040530e+000
 5.466993464971670e-001	 1.000356509280032e+000	 2.970012209161335e+000
 5.358508032182962e-001	 1.006209353886908e+000	 2.823342928587082e+000
 5.249572213676379e-001	 1.011935413542708e+000	 2.675816478174889e+000
 5.140207653692879e-001	 1.017534288770408e+000	 2.528933281353829e+000
 5.030436005265028e-001	 1.023005628049796e+000	 2.384153429438313e+000
 4.920278917312021e-001	 1.028349127620793e+000	 2.242889317820804e+000
 4.809758021871164e-001	 1.033564531246422e+000	 2.106499021738496e+000
 4.698894921480004e-001	 1.038651629936216e+000	 1.976280438402021e+000
 4.587711176722779e-001	 1.043610261630902e+000	 1.853466215362532e+000
 4.476228293954507e-001	 1.048440310849263e+000	 1.739219478132306e+000
 5.607610985034971e-001	 1.000192705458935e+000	 3.227181643557023e+000
 5.498965869684840e-001	 1.006206855244298e+000	 3.080814879452027e+000
 5.389845985766816e-001	 1.012093928814182e+000	 2.931937646404364e+000
 5.280273082157135e-001	 1.017853475961520e+000	 2.782103773074943e+000
 5.170268929678102e-001	 1.023485094873038e+000	 2.632832921094194e+000
 5.059855307995049e-001	 1.028988431972739e+000	 2.485602244869313e+000
 4.949053992635882e-001	 1.034363181724073e+000	 2.341838788061821e+000
 4.837886742147887e-001	 1.039609086391518e+000	 2.202912651530595e+000
 4.726375285406065e-001	 1.044725935762374e+000	 2.070130960368951e+000
 4.614541309086757e-001	 1.049713566829601e+000	 1.944732650480188e+000
 4.502406445319921e-001	 1.054571863436612e+000	 1.827884088024647e+000
 5.640215080446244e-001	 1.006008083606842e+000	 3.338396209417486e+000
 5.530938274394393e-001	 1.012057201209028e+000	 3.190062099395747e+000
 5.421183939347026e-001	 1.017978503741883e+000	 3.039080954195057e+000
 5.310973950634156e-001	 1.023771538380717e+000	 2.887030718232544e+000
 5.200330205659460e-001	 1.029435900976008e+000	 2.735453216379478e+000
 5.089274610721061e-001	 1.034971235895975e+000	 2.585845529638119e+000
 4.977829067955587e-001	 1.040377235827597e+000	 2.439652139328778e+000
 4.866015462420330e-001	 1.045653641536811e+000	 2.298257875728127e+000
 4.753855649327763e-001	 1.050800241588682e+000	 2.162981699648159e+000
 4.641371441446346e-001	 1.055816872028405e+000	 2.035071338011134e+000
 4.528584596681014e-001	 1.060703416024027e+000	 1.915698787073151e+000
 5.672819175853689e-001	 1.011823461755081e+000	 3.447686551898762e+000
 5.562910679100238e-001	 1.017907547174069e+000	 3.297502485973522e+000
 5.452521892923617e-001	 1.023863078669870e+000	 3.144520068294368e+000
 5.341674819107612e-001	 1.029689600800171e+000	 2.990344343316191e+000
 5.230391481637290e-001	 1.035386707079203e+000	 2.836542231208034e+000
 5.118693913443568e-001	 1.040954039819402e+000	 2.684633605566760e+000
 5.006604143271817e-001	 1.046391289931278e+000	 2.536083172556639e+000
 4.894144182689337e-001	 1.051698196682225e+000	 2.392293188598989e+000
 4.781336013246084e-001	 1.056874547415076e+000	 2.254597046011160e+000
 4.668201573802652e-001	 1.061920177227259e+000	 2.124253748265957e+000
 4.554762748038950e-001	 1.066834968611455e+000	 2.002443288879928e+000
 5.705423271257143e-001	 1.017638839903487e+000	 3.554806976491235e+000
 5.594883083802298e-001	 1.023757893139266e+000	 3.402887430903284e+000
 5.483859846496617e-001	 1.029747653597998e+000	 3.248004655338445e+000
 5.372375687577682e-001	 1.035607663219751e+000	 3.091793792011272e+000
 5.260452757611932e-001	 1.041337513182507e+000	 2.935849797516535e+000
 5.148113216163088e-001	 1.046936843742920e+000	 2.781718208529897e+000
 5.035379218585261e-001	 1.052405344035029e+000	 2.630886742953096e+000
 4.922272902955757e-001	 1.057742751827686e+000	 2.484777774856739e+000
 4.808816377162019e-001	 1.062948853241491e+000	 2.344741713558617e+000
 4.695031706156770e-001	 1.068023482426107e+000	 2.212051309160474e+000
 4.580940899394900e-001	 1.072966521198848e+000	 2.087896898914659e+000
 5.738027366656446e-001	 1.023454218051892e+000	 3.659515054155393e+000
 5.626855488500479e-001	 1.029608239104461e+000	 3.505971271730457e+000
 5.515197800066060e-001	 1.035632228526125e+000	 3.349286994861006e+000
 5.403076556044534e-001	 1.041525725639328e+000	 3.191130476787330e+000
 5.290514033583723e-001	 1.047288319285806e+000	 3.033127662772276e+000
 5.177532518880132e-001	 1.052919647666428e+000	 2.876852629516651e+000
 5.064154293896601e-001	 1.058419398138762e+000	 2.723818895168904e+000
 4.950401623220435e-001	 1.063787306973117e+000	 2.575471639558518e+000
 4.836296741076555e-001	 1.069023159067863e+000	 2.433180865960156e+000
 4.721861838509799e-001	 1.074126787624892e+000	 2.298235527395308e+000
 4.607119050750031e-001	 1.079098073786155e+000	 2.171838632215902e+000
 5.770631462051433e-001	 1.029269596200132e+000	 3.761571801227714e+000
 5.658827893194698e-001	 1.035458585069502e+000	 3.606511462621239e+000
 5.546535753631967e-001	 1.041516803454109e+000	 3.448122141623880e+000
 5.433777424508345e-001	 1.047443788058774e+000	 3.288108233410036e+000
 5.320575309553004e-001	 1.053239125388984e+000	 3.128129637304352e+000
 5.206951821595213e-001	 1.058902451589823e+000	 2.969791855409345e+000
 5.092929369206524e-001	 1.064433452242388e+000	 2.814636998141982e+000
 4.978530343484220e-001	 1.069831862118443e+000	 2.664135737623564e+000
 4.863777104990680e-001	 1.075097464894125e+000	 2.519680241241583e+000
 4.748691970862837e-001	 1.080230092823560e+000	 2.382578109091255e+000
 4.633297202105512e-001	 1.085229626373328e+000	 2.254047330445329e+000
 5.803235557441941e-001	 1.035084974348039e+000	 3.860741858993434e+000
 5.690800297884867e-001	 1.041308931034233e+000	 3.704268744869850e+000
 5.577873707194374e-001	 1.047401378381807e+000	 3.544268087690887e+000
 5.464478292969289e-001	 1.053361850477960e+000	 3.382483475209273e+000
 5.350636585520111e-001	 1.059189931491927e+000	 3.220611741384229e+000
 5.236371124308838e-001	 1.064885255513005e+000	 3.060292709487859e+000
 5.121704444515711e-001	 1.070447506345819e+000	 2.903099879626264e+000
 5.006659063747958e-001	 1.075876417263589e+000	 2.750532102979435e+000
 4.891257468905379e-001	 1.081171770720215e+000	 2.604006276128025e+000
 4.775522103216985e-001	 1.086333398022053e+000	 2.464851079902353e+000
 4.659475353462514e-001	 1.091361178960316e+000	 2.334301778320902e+000
 5.835839652827812e-001	 1.040900352495448e+000	 3.956793672933965e+000
 5.722772702570900e-001	 1.047159276998498e+000	 3.799007317130013e+000
 5.609211660753308e-001	 1.053285953309077e+000	 3.637485924257792e+000
 5.495179161427544e-001	 1.059279912896756e+000	 3.474015347113372e+000
 5.380697861485384e-001	 1.065140737594519e+000	 3.310332352066608e+000
 5.265790427021528e-001	 1.070868059435873e+000	 3.148113991671645e+000
 5.150479519824853e-001	 1.076461560448969e+000	 2.988967960421537e+000
 5.034787784012496e-001	 1.081920972408479e+000	 2.834423977355193e+000
 4.918737832821646e-001	 1.087246076546066e+000	 2.685926229968752e+000
 4.802352235573338e-001	 1.092436703220316e+000	 2.544826904623439e+000
 4.685653504822201e-001	 1.097492731547069e+000	 2.412380819455224e+000
 5.868443748208878e-001	 1.046715730642193e+000	 4.049499671666732e+000
 5.754745107252709e-001	 1.053009622962143e+000	 3.890495005383944e+000
 5.640549614308797e-001	 1.059170528235776e+000	 3.727540003243927e+000
 5.525880029883279e-001	 1.065197975315034e+000	 3.562465879456888e+000
 5.410759137449159e-001	 1.071091543696645e+000	 3.397052349797673e+000
 5.295209729733791e-001	 1.076850863358325e+000	 3.233016618506756e+000
 5.179254595134631e-001	 1.082475614551749e+000	 3.072003388311644e+000
 5.062916504278681e-001	 1.087965527553038e+000	 2.915575938733674e+000
 4.946218196740463e-001	 1.093320382371615e+000	 2.765208308254473e+000
 4.829182367932998e-001	 1.098540008418292e+000	 2.622278606316350e+000
 4.711831656185745e-001	 1.103624284133538e+000	 2.488063471618326e+000
 4.450050142583599e-001	 1.042308758262027e+000	 1.649924717288211e+000
 4.338926480438308e-001	 1.046983352405783e+000	 1.543053430043588e+000
 4.227547913355574e-001	 1.051529986206963e+000	 1.436894616435254e+000
 4.115935603539075e-001	 1.055948682142524e+000	 1.332290552702122e+000
 4.004110612167509e-001	 1.060239507260171e+000	 1.230003211001217e+000
 3.892093888243872e-001	 1.064402572652689e+000	 1.130714781549685e+000
 3.779906257690123e-001	 1.068438032900888e+000	 1.035028898972643e+000
 3.667568412696644e-001	 1.072346085486329e+000	 9.434725428777300e-001
 3.555100901335350e-001	 1.076126970175029e+000	 8.564985781788026e-001
 3.442524117444684e-001	 1.079780968373366e+000	 7.744888965913558e-001
 3.329858290794200e-001	 1.083308402457412e+000	 6.977581170746708e-001
 4.476228293954507e-001	 1.048440310849263e+000	 1.739219478132306e+000
 4.364450928600323e-001	 1.053142404061580e+000	 1.629578700523386e+000
 4.252417158789147e-001	 1.057715784183553e+000	 1.520507605997461e+000
 4.140148271214728e-001	 1.062160473824358e+000	 1.412891117773338e+000
 4.027665450951534e-001	 1.066476540426113e+000	 1.307530784732363e+000
 3.914989770238443e-001	 1.070664095735122e+000	 1.205145282700543e+000
 3.802142177509245e-001	 1.074723295241534e+000	 1.106371650839257e+000
 3.689143486679464e-001	 1.078654337588626e+000	 1.011767232031371e+000
 3.576014366698349e-001	 1.082457463952872e+000	 9.218122814636002e-001
 3.462775331374384e-001	 1.086132957396065e+000	 8.369132033547945e-001
 3.349446729481994e-001	 1.089681142190702e+000	 7.574063719699667e-001
 4.502406445319921e-001	 1.054571863436612e+000	 1.827884088024649e+000
 4.389975376756976e-001	 1.059301455717451e+000	 1.715552177123962e+000
 4.277286404217619e-001	 1.063901582160182e+000	 1.603657660211384e+000
 4.164360938885639e-001	 1.068372265506202e+000	 1.493125646368244e+000
 4.051220289731260e-001	 1.072713573592043e+000	 1.384794597872271e+000
 3.937885652229204e-001	 1.076925618817524e+000	 1.279416816822476e+000
 3.824378097325087e-001	 1.081008557582138e+000	 1.177659698828000e+000
 3.710718560659539e-001	 1.084962589690872e+000	 1.080107721464802e+000
 3.596927832059128e-001	 1.088787957730661e+000	 9.872651303300595e-001
 3.483026545302353e-001	 1.092484946418709e+000	 8.995592811040065e-001
 3.369035168168484e-001	 1.096053881923943e+000	 8.173445920651365e-001
 4.528584596681014e-001	 1.060703416024027e+000	 1.915698787073151e+000
 4.415499824909459e-001	 1.065460507373348e+000	 1.800763036901468e+000
 4.302155649642157e-001	 1.070087380136803e+000	 1.686142438737244e+000
 4.188573606552924e-001	 1.074584057188009e+000	 1.572799867787069e+000
 4.074775128507713e-001	 1.078950606757912e+000	 1.461608073508770e+000
 3.960781534217086e-001	 1.083187141899845e+000	 1.353350157767257e+000
 3.846614017138454e-001	 1.087293819922646e+000	 1.248720853095687e+000
 3.732293634637551e-001	 1.091270841793014e+000	 1.148328567520851e+000
 3.617841297418241e-001	 1.095118451508342e+000	 1.052698157367455e+000
 3.503277759229020e-001	 1.098836935441248e+000	 9.622743848435534e-001
 3.388623606853999e-001	 1.102426621657084e+000	 8.774260131024437e-001
 4.554762748038950e-001	 1.066834968611455e+000	 2.002443288879928e+000
 4.441024273058964e-001	 1.071619559029224e+000	 1.884999588376403e+000
 4.327024895063937e-001	 1.076273178113373e+000	 1.767758429741616e+000
 4.212786274217699e-001	 1.080795848869734e+000	 1.651718075438493e+000
 4.098329967281922e-001	 1.085187639923671e+000	 1.537782972377257e+000
 3.983677416203011e-001	 1.089448664982036e+000	 1.426764227783481e+000
 3.868849936950153e-001	 1.093579082263007e+000	 1.319380919314928e+000
 3.753868708614180e-001	 1.097579093894998e+000	 1.216262204603922e+000
 3.638754762776242e-001	 1.101448945285860e+000	 1.117950190152083e+000
 3.523528973154823e-001	 1.105188924463627e+000	 1.024903514726806e+000
 3.408212045538864e-001	 1.108799361390078e+000	 9.375015981242232e-001
 4.580940899394900e-001	 1.072966521198848e+000	 2.087896898914659e+000
 4.466548721206684e-001	 1.077778610685035e+000	 1.968049386585176e+000
 4.351894140484124e-001	 1.082458976089843e+000	 1.848301061166582e+000
 4.236998941881077e-001	 1.087007640551330e+000	 1.729683233901454e+000
 4.121884806054926e-001	 1.091424673089274e+000	 1.613129495326916e+000
 4.006573298187909e-001	 1.095710188064046e+000	 1.499476195025013e+000
 3.891085856760995e-001	 1.099864344603167e+000	 1.389463790901034e+000
 3.775443782590107e-001	 1.103887345996768e+000	 1.283739031830058e+000
 3.659668228133681e-001	 1.107779439063160e+000	 1.182857932059405e+000
 3.543780187080192e-001	 1.111540913485793e+000	 1.087289490793264e+000
 3.427800484223401e-001	 1.115172101122873e+000	 9.974201059340169e-001
 4.607119050750031e-001	 1.079098073786155e+000	 2.171838632215904e+000
 4.492073169353806e-001	 1.083937662340732e+000	 2.049699347357025e+000
 4.376763385903898e-001	 1.088644774066171e+000	 1.927564811146429e+000
 4.261211609544175e-001	 1.093219432232752e+000	 1.806497085078362e+000
 4.145439644827756e-001	 1.097661706254673e+000	 1.687456384837727e+000
 4.029469180172703e-001	 1.101971711145824e+000	 1.571301570095966e+000
 3.913321776571787e-001	 1.106149606943075e+000	 1.458791540274364e+000
 3.797018856566011e-001	 1.110195598098271e+000	 1.350587498731751e+000
 3.680581693491115e-001	 1.114109932840187e+000	 1.247256042163256e+000
 3.564031401005560e-001	 1.117892902507692e+000	 1.149273026847673e+000
 3.447388922907940e-001	 1.121544840855421e+000	 1.057028158769295e+000
 4.633297202105512e-001	 1.085229626373328e+000	 2.254047330445329e+000
 4.517597617501526e-001	 1.090096713996271e+000	 2.129735860847872e+000
 4.401632631324425e-001	 1.094830572042311e+000	 2.005343317606459e+000
 4.285424277208113e-001	 1.099431223913954e+000	 1.881960253475169e+000
 4.168994483601443e-001	 1.103898739419819e+000	 1.760571025631023e+000
 4.052365062158326e-001	 1.108233234227321e+000	 1.642054301669247e+000
 3.935557696383331e-001	 1.112434869282676e+000	 1.527184509199849e+000
 3.818593930542573e-001	 1.116503850199452e+000	 1.416634190058884e+000
 3.701495158849095e-001	 1.120440426616887e+000	 1.310977214266758e+000
 3.584282614931360e-001	 1.124244891529271e+000	 1.210692803520103e+000
 3.466977361592805e-001	 1.127917580587672e+000	 1.116170309212130e+000
 4.659475353462514e-001	 1.091361178960316e+000	 2.334301778320900e+000
 4.543122065651033e-001	 1.096255765651604e+000	 2.207944904360427e+000
 4.426501876746877e-001	 1.101016370018216e+000	 2.081429487073867e+000
 4.309636944874001e-001	 1.105643015594888e+000	 1.955872350640041e+000
 4.192549322377017e-001	 1.110135772584664e+000	 1.832279544404023e+000
 4.075260944145701e-001	 1.114494757308485e+000	 1.711546871217067e+000
 3.957793616196440e-001	 1.118720131621919e+000	 1.594461398238468e+000
 3.840169004520477e-001	 1.122812102300257e+000	 1.481703909706193e+000
 3.722408624208176e-001	 1.126770920393205e+000	 1.373852255093852e+000
 3.604533828858025e-001	 1.130596880550478e+000	 1.271385540530771e+000
 3.486565800278319e-001	 1.134290320319577e+000	 1.174689106373098e+000
 4.685653504822201e-001	 1.097492731547069e+000	 2.412380819455224e+000
 4.568646513803520e-001	 1.102414817306685e+000	 2.284112154478529e+000
 4.451371122172427e-001	 1.107202167993842e+000	 2.155615602733660e+000
 4.333849612542961e-001	 1.111854807275511e+000	 2.028032078798373e+000
 4.216104161155513e-001	 1.116372805749161e+000	 1.902386908727134e+000
 4.098156826135754e-001	 1.120756280389267e+000	 1.779590386885084e+000
 3.980029536011918e-001	 1.125005393960752e+000	 1.660439355344924e+000
 3.861744078500397e-001	 1.129120354400631e+000	 1.545619763805679e+000
 3.743322089568910e-001	 1.133101414169086e+000	 1.435710161674944e+000
 3.624785042785985e-001	 1.136948869571257e+000	 1.331186068199427e+000
 3.506154238964809e-001	 1.140663060051086e+000	 1.232425161371956e+000
 4.711831656185745e-001	 1.103624284133538e+000	 2.488063471618326e+000
 4.594170961960175e-001	 1.108573868961468e+000	 2.358023098540174e+000
 4.476240367602246e-001	 1.113387965969144e+000	 2.227693431758743e+000
 4.358062280216104e-001	 1.118066598955774e+000	 2.098237333709662e+000
 4.239658999937963e-001	 1.122609838913262e+000	 1.970697025134347e+000
 4.121052708129413e-001	 1.127017803469615e+000	 1.845994676546208e+000
 4.002265455830573e-001	 1.131290656299120e+000	 1.724934063642645e+000
 3.883319152483020e-001	 1.135428606500521e+000	 1.608203243015460e+000
 3.764235554931850e-001	 1.139431907944475e+000	 1.496378197961064e+000
 3.645036256715677e-001	 1.143300858591557e+000	 1.389927398221909e+000
 3.525742677652601e-001	 1.147035799782149e+000	 1.289217212145871e+000
 3.329858290794200e-001	 1.083308402457412e+000	 6.977581170746708e-001
 3.217123475926619e-001	 1.086709634806486e+000	 6.249913653582059e-001
 3.104339538237796e-001	 1.089985066273683e+000	 5.548187274039341e-001
 2.991526150132510e-001	 1.093135136259025e+000	 4.873830650805432e-001
 2.878702784020723e-001	 1.096160322218095e+000	 4.227768995042497e-001
 2.765888703972086e-001	 1.099061138879599e+000	 3.610484399034905e-001
 2.653102957682797e-001	 1.101838137444058e+000	 3.022078643482987e-001
 2.540364368758318e-001	 1.104491904764940e+000	 2.462337967847558e-001
 2.427691529314908e-001	 1.107023062513534e+000	 1.930799248209267e-001
 2.315102792902392e-001	 1.109432266328881e+000	 1.426817031345850e-001
 2.202616267749964e-001	 1.111720204954052e+000	 9.496308820250655e-002
 3.349446729481994e-001	 1.089681142190702e+000	 7.574063719699667e-001
 3.236048733537980e-001	 1.093102382847857e+000	 6.819612064218341e-001
 3.122601325799639e-001	 1.096397082578721e+000	 6.091831131477891e-001
 3.009124294397890e-001	 1.099565683368168e+000	 5.392196450735309e-001
 2.895637226292336e-001	 1.102608665480506e+000	 4.721660321710430e-001
 2.782159498876675e-001	 1.105526546672431e+000	 4.080714469529834e-001
 2.668710271898299e-001	 1.108319881387002e+000	 3.469455347050530e-001
 2.555308479695611e-001	 1.110989259929961e+000	 2.887651506873720e-001
 2.441972823756038e-001	 1.113535307629695e+000	 2.334812465328527e-001
 2.328721765597172e-001	 1.115958683982159e+000	 1.810258484965333e-001
 2.215573519972832e-001	 1.118260081782081e+000	 1.313190710682682e-001
 3.369035168168484e-001	 1.096053881923943e+000	 8.173445920651365e-001
 3.254973991148399e-001	 1.099495130889186e+000	 7.392720349526860e-001
 3.140863113360830e-001	 1.102809098883723e+000	 6.639239767251230e-001
 3.026722438662864e-001	 1.105996230477284e+000	 5.914553699635488e-001
 2.912571668563761e-001	 1.109057008742898e+000	 5.219668022760183e-001
 2.798430293781279e-001	 1.111991954465246e+000	 4.555110001408204e-001
 2.684317586114020e-001	 1.114801625329929e+000	 3.920996109639364e-001
 2.570252590633344e-001	 1.117486615094961e+000	 3.317102033100257e-001
 2.456254118197869e-001	 1.120047552745821e+000	 2.742934252541406e-001
 2.342340738292959e-001	 1.122485101635380e+000	 2.197802612377867e-001
 2.228530772197077e-001	 1.124799958610022e+000	 1.680893286812873e-001
 3.388623606853999e-001	 1.102426621657084e+000	 8.774260131024437e-001
 3.273899248758108e-001	 1.105887878930429e+000	 7.967837096776216e-001
 3.159124900921533e-001	 1.109221115188658e+000	 7.189092413810740e-001
 3.044320582927534e-001	 1.112426777586352e+000	 6.439675484721372e-001
 2.929506110835044e-001	 1.115505352005261e+000	 5.720671008072982e-001
 2.814701088685893e-001	 1.118457362258053e+000	 5.032666420773101e-001
 2.699924900329904e-001	 1.121283369272862e+000	 4.375822263457633e-001
 2.585196701571411e-001	 1.123983970259976e+000	 3.749944845168744e-001
 2.470535412640223e-001	 1.126559797861965e+000	 3.154560583388085e-001
 2.355959710989501e-001	 1.129011519288615e+000	 2.588991399863549e-001
 2.241488024422355e-001	 1.131339835437960e+000	 2.052430561580503e-001
 3.408212045538864e-001	 1.108799361390078e+000	 9.375015981242232e-001
 3.292824506367342e-001	 1.112280626971544e+000	 8.543538092987444e-001
 3.177386688481909e-001	 1.115633131493490e+000	 7.740045338425476e-001
 3.061918727192004e-001	 1.118857324695348e+000	 6.966311684268837e-001
 2.946440553106233e-001	 1.121953695267586e+000	 6.223524668160398e-001
 2.830971883590516e-001	 1.124922770050854e+000	 5.512355268677136e-001
 2.715532214545899e-001	 1.127765113215821e+000	 4.833030845446381e-001
 2.600140812509698e-001	 1.130481325425043e+000	 4.185410501783192e-001
 2.484816707082928e-001	 1.133072042978181e+000	 3.569062221734441e-001
 2.369578683686545e-001	 1.135537936941932e+000	 2.983341138029086e-001
 2.254445276648321e-001	 1.137879712265981e+000	 2.427468296440385e-001
 3.427800484223401e-001	 1.115172101122873e+000	 9.974201059340169e-001
 3.311749763976341e-001	 1.118673375012488e+000	 9.118376950823767e-001
 3.195648476042123e-001	 1.122045147798187e+000	 8.290732419847836e-001
 3.079516871456370e-001	 1.125287871804252e+000	 7.493189504073403e-001
 2.963374995377376e-001	 1.128402038529865e+000	 6.727061378891397e-001
 2.847242678495141e-001	 1.131388177843655e+000	 5.993124682037267e-001
 2.731139528761948e-001	 1.134246857158827e+000	 5.291695061800558e-001
 2.615084923448095e-001	 1.136978680590200e+000	 4.622705276641139e-001
 2.499098001525807e-001	 1.139584288094523e+000	 3.985785173398108e-001
 2.383197656383840e-001	 1.142064354595402e+000	 3.380342875864180e-001
 2.267402528874632e-001	 1.144419589094170e+000	 2.805646524759830e-001
 3.447388922907940e-001	 1.121544840855421e+000	 1.057028158769295e+000
 3.330675021585340e-001	 1.125066123053216e+000	 9.690885727162553e-001
 3.213910263602337e-001	 1.128457164102716e+000	 8.839765718048634e-001
 3.097115015720737e-001	 1.131718418913041e+000	 8.019014007098864e-001
 2.980309437648518e-001	 1.134850381792088e+000	 7.230090999310679e-001
 2.863513473399765e-001	 1.137853585636464e+000	 6.473899867388339e-001
 2.746746842977998e-001	 1.140728601101902e+000	 5.750864744830608e-001
 2.630029034386492e-001	 1.143476035755484e+000	 5.061011605098135e-001
 2.513379295968685e-001	 1.146096533211043e+000	 4.404051128758698e-001
 2.396816629081136e-001	 1.148590772249092e+000	 3.779462864865316e-001
 2.280359781100943e-001	 1.150959465922610e+000	 3.186580002534399e-001
 3.466977361592805e-001	 1.127917580587672e+000	 1.116170309212130e+000
 3.349600279194575e-001	 1.131458871093689e+000	 1.025957553468139e+000
 3.232172051162713e-001	 1.134869180407041e+000	 9.385736037267342e-001
 3.114713159985207e-001	 1.138148966021693e+000	 8.542468636573146e-001
 2.997243879919708e-001	 1.141298725054246e+000	 7.731401362823953e-001
 2.879784268304388e-001	 1.144318993429285e+000	 6.953583567700841e-001
 2.762354157193992e-001	 1.147210345045066e+000	 6.209566802464345e-001
 2.644973145324779e-001	 1.149973390920931e+000	 5.499488522889519e-001
 2.527660590411389e-001	 1.152608778327796e+000	 4.823157896690607e-001
 2.410435601778181e-001	 1.155117189903075e+000	 4.180142993666973e-001
 2.293317033326910e-001	 1.157499342751387e+000	 3.569858648625203e-001
 3.486565800278319e-001	 1.134290320319577e+000	 1.174689106373098e+000
 3.368525536804284e-001	 1.137851619133862e+000	 1.082293714666858e+000
 3.250433838723416e-001	 1.141281196711131e+000	 9.927213482652199e-001
 3.132311304249877e-001	 1.144579513130186e+000	 9.062215732768152e-001
 3.014178322190991e-001	 1.147747068316332e+000	 8.229758762013718e-001
 2.896055063209000e-001	 1.150784401222125e+000	 7.431056522572030e-001
 2.777961471409878e-001	 1.153692088988341e+000	 6.666805660718803e-001
 2.659917256262847e-001	 1.156470746086580e+000	 5.937272097231069e-001
 2.541941884853743e-001	 1.159121023444835e+000	 5.242379830173338e-001
 2.424054574474722e-001	 1.161643607557417e+000	 4.581801213510732e-001
 2.306274285552188e-001	 1.164039219580587e+000	 3.955047974947126e-001
 3.506154238964809e-001	 1.140663060051086e+000	 1.232425161371956e+000
 3.387450794414700e-001	 1.144244367173692e+000	 1.137944159537959e+000
 3.268695626284607e-001	 1.147693213014952e+000	 1.046274801073777e+000
 3.149909448514852e-001	 1.151010060238497e+000	 9.576897043759077e-001
 3.031112764462416e-001	 1.154195411578337e+000	 8.723908427295379e-001
 2.912325858113605e-001	 1.157249809014989e+000	 7.905177922040001e-001
 2.793568785625599e-001	 1.160173832931749e+000	 7.121563699364640e-001
 2.674861367200581e-001	 1.162968101252468e+000	 6.373475850579261e-001
 2.556223179295574e-001	 1.165633268562213e+000	 5.660968243886170e-001
 2.437673547170509e-001	 1.168170025212190e+000	 4.983831954927606e-001
 2.319231537776434e-001	 1.170579096410293e+000	 4.341689506970056e-001
 3.525742677652601e-001	 1.147035799782149e+000	 1.289217212145871e+000
 3.406376052026061e-001	 1.150637115213137e+000	 1.192754076416298e+000
 3.286957413846450e-001	 1.154105229318470e+000	 1.099086997399315e+000
 3.167507592780232e-001	 1.157440607346606e+000	 1.008513423032355e+000
 3.048047206734029e-001	 1.160643754840250e+000	 9.212574999726837e-001
 2.928596653018194e-001	 1.163715216807882e+000	 8.374785854283491e-001
 2.809176099841100e-001	 1.166655576875311e+000	 7.572801681087964e-001
 2.689805478137873e-001	 1.169465456418633e+000	 6.807191177364467e-001
 2.570504473736705e-001	 1.172145513679984e+000	 6.078151824129029e-001
 2.451292519865291e-001	 1.174696442867462e+000	 5.385606535985241e-001
 2.332188789999302e-001	 1.177118973240590e+000	 4.729301194958361e-001
 2.202616267749964e-001	 1.111720204954052e+000	 9.496308820250680e-002
 2.090266650272629e-001	 1.113887283427750e+000	 5.030535307002365e-002
 1.978054629620872e-001	 1.115934606758614e+000	 8.942096780832165e-003
 1.865997507942484e-001	 1.117862958275722e+000	-2.939963820786554e-002
 1.754112319038042e-001	 1.119673150812978e+000	-6.497657374052106e-002
 1.642415823237833e-001	 1.121366025797290e+000	-9.802293227395188e-002
 1.530924502600770e-001	 1.122942452330613e+000	-1.287444353210847e-001
 1.419654556433717e-001	 1.124403326267059e+000	-1.573126033220273e-001
 1.308621897129018e-001	 1.125749569286229e+000	-1.838593930984566e-001
 1.197842146317700e-001	 1.126982127963913e+000	-2.084722057598835e-001
 1.087330631335390e-001	 1.128101972841276e+000	-2.311892945159109e-001
 2.215573519972832e-001	 1.118260081782081e+000	 1.313190710682682e-001
 2.102562987405381e-001	 1.120439908450877e+000	 8.473672538983862e-002
 1.989690861099369e-001	 1.122499275497582e+000	 4.151101071379974e-002
 1.876974544985343e-001	 1.124438970859325e+000	 1.372239448117471e-003
 1.764431173068044e-001	 1.126259812151637e+000	-3.593245389339048e-002
 1.652077604273180e-001	 1.127962645751250e+000	-7.063258901809512e-002
 1.539930417618117e-001	 1.129548345872747e+000	-1.029280858089943e-001
 1.428005907704827e-001	 1.131017813640245e+000	-1.329833208773902e-001
 1.316320080532950e-001	 1.132371976155270e+000	-1.609215324319630e-001
 1.204888649630348e-001	 1.133611785561993e+000	-1.868196077752727e-001
 1.093727032498246e-001	 1.134738218110943e+000	-2.107032842017454e-001
 2.228530772197077e-001	 1.124799958610022e+000	 1.680893286812873e-001
 2.114859324539956e-001	 1.126992533473878e+000	 1.195925586652765e-001
 2.001327092580198e-001	 1.129063944236374e+000	 7.452032804979779e-002
 1.887951582031090e-001	 1.131014983442705e+000	 3.260551057527834e-002
 1.774750027101518e-001	 1.132846473490027e+000	-6.401623866444028e-003
 1.661739385312600e-001	 1.134559265704902e+000	-4.272661601677404e-002
 1.548936332640131e-001	 1.136154239414550e+000	-7.656430129390175e-002
 1.436357258981184e-001	 1.137632301013091e+000	-1.080726137883401e-001
 1.324018263942671e-001	 1.138994383023983e+000	-1.373667495478761e-001
 1.211935152949278e-001	 1.140241443159786e+000	-1.645137249585596e-001
 1.100123433667814e-001	 1.141374463380391e+000	-1.895273623589585e-001
 2.241488024422355e-001	 1.131339835437960e+000	 2.052430561580505e-001
 2.127155661675898e-001	 1.133545158496847e+000	 1.548570590694443e-001
 2.012963324062775e-001	 1.135628612975103e+000	 1.079689389581413e-001
 1.898928619079004e-001	 1.137590996025985e+000	 6.431333411981380e-002
 1.785068881137598e-001	 1.139433134828279e+000	 2.364284042879740e-002
 1.671401166355073e-001	 1.141155885658386e+000	-1.426491603192697e-002
 1.557942247665647e-001	 1.142760132956160e+000	-4.960049136058826e-002
 1.444708610261475e-001	 1.144246788385735e+000	-8.251616572907071e-002
 1.331716447356734e-001	 1.145616789892503e+000	-1.131198557842670e-001
 1.218981656272921e-001	 1.146871100757412e+000	-1.414694349091409e-001
 1.106519834842415e-001	 1.148010708649726e+000	-1.675674948994838e-001
 2.254445276648321e-001	 1.137879712265981e+000	 2.427468296440362e-001
 2.139451998812752e-001	 1.140097783519888e+000	 1.905117698578318e-001
 2.024599555546520e-001	 1.142193281713881e+000	 1.418530375861382e-001
 1.909905656128361e-001	 1.144167008609286e+000	 9.650615020171791e-002
 1.795387735175414e-001	 1.146019796166525e+000	 5.422513116703787e-002
 1.681062947399582e-001	 1.147752505611837e+000	 1.478987227681095e-002
 1.566948162693496e-001	 1.149366026497717e+000	-2.198679701782107e-002
 1.453059961544390e-001	 1.150861275758315e+000	-5.625237953880184e-002
 1.339414630773692e-001	 1.152239196760960e+000	-8.810836228717257e-002
 1.226028159599706e-001	 1.153500758354994e+000	-1.176042892860935e-001
 1.112916236020373e-001	 1.154646953919056e+000	-1.447322903699014e-001
 2.267402528874632e-001	 1.144419589094170e+000	 2.805646524759830e-001
 2.151748335950061e-001	 1.146650408543099e+000	 2.265356185889336e-001
 2.036235787030848e-001	 1.148757950452820e+000	 1.761661704490800e-001
 1.920882693178441e-001	 1.150743021192732e+000	 1.291917297606083e-001
 1.805706589214098e-001	 1.152606457504896e+000	 8.536675957757296e-002
 1.690724728445109e-001	 1.154349125565392e+000	 4.447242668351074e-002
 1.575954077722513e-001	 1.155971920039361e+000	 6.323963012681313e-003
 1.461411312828616e-001	 1.157475763130970e+000	-2.922232213162104e-002
 1.347112814192097e-001	 1.158861603629487e+000	-6.226242357214849e-002
 1.233074662928061e-001	 1.160130415952655e+000	-9.283845607090703e-002
 1.119312637200009e-001	 1.161283199188487e+000	-1.209329409934112e-001
 2.280359781100943e-001	 1.150959465922610e+000	 3.186580002534399e-001
 2.164044673087371e-001	 1.153203033566577e+000	 2.629049631512649e-001
 2.047872018515176e-001	 1.155322619192032e+000	 2.108992835238245e-001
 1.931859730228520e-001	 1.157319033776447e+000	 1.623752228094698e-001
 1.816025443252783e-001	 1.159193118843525e+000	 1.170866054257670e-001
 1.700386509490637e-001	 1.160945745519189e+000	 7.481479215062095e-002
 1.584959992751531e-001	 1.162577813581231e+000	 3.537634435051652e-002
 1.469762664112842e-001	 1.164090250503836e+000	-1.369671147136287e-003
 1.354810997610503e-001	 1.165484010498218e+000	-3.551478289872515e-002
 1.240121166256417e-001	 1.166760073550517e+000	-6.709466371466900e-002
 1.125709038379645e-001	 1.167919444458127e+000	-9.608316565470743e-002
 2.293317033326910e-001	 1.157499342751387e+000	 3.569858648625203e-001
 2.176341010224225e-001	 1.159755658590424e+000	 2.995936366430317e-001
 2.059508249998919e-001	 1.161887287931629e+000	 2.460407681031463e-001
 1.942836767277878e-001	 1.163895046360552e+000	 1.960592053528474e-001
 1.826344297290599e-001	 1.165779780182541e+000	 1.494009650696889e-001
 1.710048290535148e-001	 1.167542365473366e+000	 1.058464300734796e-001
 1.593965907779382e-001	 1.169183707123466e+000	 6.521232741362301e-002
 1.478114015395757e-001	 1.170704737877053e+000	 2.735933672835474e-002
 1.362509181027461e-001	 1.172106417367284e+000	-7.800719390284965e-003
 1.247167669583203e-001	 1.173389731148703e+000	-4.029814709318123e-002
 1.132105439557603e-001	 1.174555689728082e+000	-7.009915475513057e-002
 2.306274285552188e-001	 1.164039219580587e+000	 3.955047974947128e-001
 2.188637347360168e-001	 1.166308283614738e+000	 3.365729911523736e-001
 2.071144481481499e-001	 1.168451956671723e+000	 2.815765054527394e-001
 1.953813804325791e-001	 1.170471058945171e+000	 2.302437250227040e-001
 1.836663151326679e-001	 1.172366441522078e+000	 1.823235981451630e-001
 1.719710071577622e-001	 1.174138985428059e+000	 1.375942660697098e-001
 1.602971822804898e-001	 1.175789600666207e+000	 9.587136634597022e-002
 1.486465366676049e-001	 1.177319225250758e+000	 5.701595583484968e-002
 1.370207364441526e-001	 1.178728824236818e+000	 2.094200317329093e-002
 1.254214172906847e-001	 1.180019388747333e+000	-1.237659520113052e-002
 1.138501840732206e-001	 1.181191934998460e+000	-4.289951686265409e-002
 2.319231537776434e-001	 1.170579096410293e+000	 4.341689506970056e-001
 2.200933684494744e-001	 1.172860908639617e+000	 3.738119404782141e-001
 2.082780712962328e-001	 1.175016625412426e+000	 3.174899103236382e-001
 1.964790841371540e-001	 1.177047071530428e+000	 2.649263454778733e-001
 1.846982005360155e-001	 1.178953102862265e+000	 2.158657729347953e-001
 1.729371852617042e-001	 1.180735605383406e+000	 1.700827363744223e-001
 1.611977737826915e-001	 1.182395494209592e+000	 1.273904364715636e-001
 1.494816717952408e-001	 1.183933712625089e+000	 8.764898006764460e-002
 1.377905547851249e-001	 1.185351231106953e+000	 5.077318595358572e-002
 1.261260676225780e-001	 1.186649046346531e+000	 1.673989948579263e-002
 1.144898241901776e-001	 1.187828180269368e+000	-1.440522708553619e-002
 2.332188789999302e-001	 1.177118973240590e+000	 4.729301194958359e-001
 2.213230021627496e-001	 1.179413533665163e+000	 4.112770018349582e-001
 2.094416944440826e-001	 1.181581294153850e+000	 3.537619733611094e-001
 1.975767878414401e-001	 1.183623084116445e+000	 3.001021896203860e-001
 1.857300859390157e-001	 1.185539764203235e+000	 2.500363104718030e-001
 1.739033633652391e-001	 1.187332225339542e+000	 2.033338328912402e-001
 1.620983652844263e-001	 1.189001387753761e+000	 1.598040803356774e-001
 1.503168069223521e-001	 1.190548200000185e+000	 1.193047899262606e-001
 1.385603731255183e-001	 1.191973637977820e+000	 8.175024310473572e-002
 1.268307179538430e-001	 1.193278703946419e+000	 4.711889004178275e-002
 1.151294643064635e-001	 1.194464425540913e+000	 1.546042289457575e-002
 1.087330631335390e-001	 1.128101972841276e+000	-2.311892945159109e-001
 9.770859064514910e-002	 1.129110240434535e+000	-2.514865085240929e-001
 8.671394960130736e-002	 1.130007770653767e+000	-2.690621134957073e-001
 7.575060542968273e-002	 1.130795601078155e+000	-2.842096792930062e-001
 6.481999231755271e-002	 1.131474789559993e+000	-2.971555267047408e-001
 5.392351301257860e-002	 1.132046413292315e+000	-3.080562532784183e-001
 4.306253865301493e-002	 1.132511567881462e+000	-3.169967699579608e-001
 3.223840862678768e-002	 1.132871366425472e+000	-3.239888530728055e-001
 2.145243045885214e-002	 1.133126938599190e+000	-3.289702128112592e-001
 1.070587972621754e-002	 1.133279429746903e+000	-3.318040760036685e-001
 0.000000000000000e+000	 1.133329999983334e+000	-3.322834169045102e-001
 1.093727032498246e-001	 1.134738218110943e+000	-2.107032842017454e-001
 9.828337749012930e-002	 1.135752417004074e+000	-2.320427331195875e-001
 8.722405866335789e-002	 1.136655227092374e+000	-2.505475819325093e-001
 7.619622081778173e-002	 1.137447692058752e+000	-2.665210054015399e-001
 6.520130657750442e-002	 1.138130875978492e+000	-2.801957021501145e-001
 5.424072694206489e-002	 1.138705862381395e+000	-2.917312636126777e-001
 4.331586111564807e-002	 1.139173753318886e+000	-3.012120744070402e-001
 3.242805636533392e-002	 1.139535668436983e+000	-3.086457490686891e-001
 2.157862790779291e-002	 1.139792744056029e+000	-3.139621065364695e-001
 1.076885882381067e-002	 1.139946132257989e+000	-3.170126803454076e-001
 0.000000000000000e+000	 1.139996999982150e+000	-3.175745467178169e-001
 1.100123433667814e-001	 1.141374463380391e+000	-1.895273623589585e-001
 9.885816433581518e-002	 1.142394593573496e+000	-2.118723217058240e-001
 8.773416772613640e-002	 1.143302683530986e+000	-2.312696471304098e-001
 7.664183620661486e-002	 1.144099783039497e+000	-2.480324566063414e-001
 6.558262083817641e-002	 1.144786962397290e+000	-2.624001019572482e-001
 5.455794087223356e-002	 1.145365311470925e+000	-2.745353743596207e-001
 4.356918357889775e-002	 1.145835938756898e+000	-2.845222624309670e-001
 3.261770410439924e-002	 1.146199970449207e+000	-2.923642682562644e-001
 2.170482535711995e-002	 1.146458549513681e+000	-2.979832830177894e-001
 1.083183792161823e-002	 1.146612834769953e+000	-3.012190203235914e-001
 0.000000000000000e+000	 1.146663999981866e+000	-3.018324552103708e-001
 1.106519834842415e-001	 1.148010708649726e+000	-1.675674948994840e-001
 9.943295118203033e-002	 1.149036770142885e+000	-1.908735035244557e-001
 8.824427678946088e-002	 1.149950139969669e+000	-2.111201308986413e-001
 7.708745159599865e-002	 1.150751874020427e+000	-2.286308548319822e-001
 6.596393509938860e-002	 1.151443048816397e+000	-2.436520312910802e-001
 5.487515480291399e-002	 1.152024760560885e+000	-2.563499296667051e-001
 4.382250604260982e-002	 1.152498124195458e+000	-2.668083423502100e-001
 3.280735184385388e-002	 1.152864272462079e+000	-2.750267744055339e-001
 2.183102280673670e-002	 1.153124354972060e+000	-2.809192152932404e-001
 1.089481701958661e-002	 1.153279537282697e+000	-2.843134908952364e-001
 0.000000000000000e+000	 1.153330999982383e+000	-2.849543269069174e-001
 1.112916236020373e-001	 1.154646953919056e+000	-1.447322903699014e-001
 1.000077380285982e-001	 1.155678946712327e+000	-1.689471124053146e-001
 8.875438585314933e-002	 1.156597596408483e+000	-1.899934140089032e-001
 7.753306698574956e-002	 1.157403965001579e+000	-2.082055284591000e-001
 6.634524936096094e-002	 1.158099135235820e+000	-2.238372430781352e-001
 5.519236873393561e-002	 1.158684209651256e+000	-2.370586572477228e-001
 4.407582850663021e-002	 1.159160309634518e+000	-2.479536370308720e-001
 3.299699958356809e-002	 1.159528574475531e+000	-2.565178726439303e-001
 2.195722025654659e-002	 1.159790160431083e+000	-2.626575410438777e-001
 1.095779611766221e-002	 1.159946239796126e+000	-2.661885720416692e-001
 0.000000000000000e+000	 1.159997999983599e+000	-2.668393493876547e-001
 1.119312637200009e-001	 1.161283199188487e+000	-1.209329409934112e-001
 1.005825248753426e-001	 1.162321123281912e+000	-1.459965267289607e-001
 8.926449491701982e-002	 1.163245052847492e+000	-1.677863752976467e-001
 7.797868237568405e-002	 1.164056055982987e+000	-1.866482508062164e-001
 6.672656362271337e-002	 1.164755221655566e+000	-2.028438761319961e-001
 5.550958266512782e-002	 1.165343658742019e+000	-2.165476064368102e-001
 4.432915097080474e-002	 1.165822495074035e+000	-2.278437221751417e-001
 3.318664732341208e-002	 1.166192876489496e+000	-2.367243483162746e-001
 2.208341770645305e-002	 1.166455965890665e+000	-2.430880023768561e-001
 1.102077521579144e-002	 1.166612942310145e+000	-2.467387698482937e-001
 0.000000000000000e+000	 1.166664999985416e+000	-2.473886560570069e-001
 1.125709038379645e-001	 1.167919444458127e+000	-9.608316565470743e-002
 1.011573117220870e-001	 1.168963299851724e+000	-1.219276113890364e-001
 8.977460398089038e-002	 1.169892509286757e+000	-1.443983328100804e-001
 7.842429776561860e-002	 1.170708146964687e+000	-1.638531806847001e-001
 6.710787788446587e-002	 1.171411308075644e+000	-1.805623953712021e-001
 5.582679659632005e-002	 1.172003107833153e+000	-1.947050883459355e-001
 4.458247343497931e-002	 1.172484680513963e+000	-2.063663667140244e-001
 3.337629506325611e-002	 1.172857178503908e+000	-2.155351079297173e-001
 2.220961515635955e-002	 1.173121771350721e+000	-2.221023876625800e-001
 1.108375431392067e-002	 1.173279644824656e+000	-2.258605595920031e-001
 0.000000000000000e+000	 1.173331999987733e+000	-2.265052708641348e-001
 1.132105439557603e-001	 1.174555689728082e+000	-7.009915475513057e-002
 1.017320985686550e-001	 1.175605476421850e+000	-9.664866167495247e-002
 9.028471304457898e-002	 1.176539965726342e+000	-1.197309869065642e-001
 7.886991315536961e-002	 1.177360237946715e+000	-1.397168049465853e-001
 6.748919214603828e-002	 1.178067394496061e+000	-1.568855340503963e-001
 5.614401052734176e-002	 1.178662556924641e+000	-1.714216180402171e-001
 4.483579589899976e-002	 1.179146865954257e+000	-1.834114752138760e-001
 3.356594280297038e-002	 1.179521480518698e+000	-1.928411220969818e-001
 2.233581260616950e-002	 1.179787576811168e+000	-1.995944753407232e-001
 1.114673341199630e-002	 1.179946347339565e+000	-2.034523307592493e-001
 0.000000000000000e+000	 1.179998999990450e+000	-2.040940548967790e-001
 1.138501840732206e-001	 1.181191934998460e+000	-4.289951686265384e-002
 1.023068854148703e-001	 1.182247652992378e+000	-7.007034899760643e-002
 9.079482210790363e-002	 1.183187422166307e+000	-9.368836525100648e-002
 7.931552854475356e-002	 1.184012328929106e+000	-1.141378829464191e-001
 6.787050640725066e-002	 1.184723480916826e+000	-1.317082379231961e-001
 5.646122445802236e-002	 1.185322006016463e+000	-1.465898586559519e-001
 4.508911836271199e-002	 1.185809051394874e+000	-1.588710322202267e-001
 3.375559054242515e-002	 1.186185782533802e+000	-1.685353704004581e-001
 2.246201005578633e-002	 1.186453382271919e+000	-1.754599796204855e-001
 1.120971250996473e-002	 1.186613049854775e+000	-1.794143339153329e-001
 0.000000000000000e+000	 1.186665999993467e+000	-1.800616547757131e-001
 1.144898241901776e-001	 1.187828180269368e+000	-1.440522708553619e-002
 1.028816722605564e-001	 1.188889829563394e+000	-4.210566838970509e-002
 9.130493117068236e-002	 1.189834878606717e+000	-6.617676961269177e-002
 7.976114393358696e-002	 1.190664419911896e+000	-8.701739284068746e-002
 6.825182066792289e-002	 1.191379567337946e+000	-1.049276112626685e-001
 5.677843838819124e-002	 1.191981455108598e+000	-1.201045673807809e-001
 4.534244082596187e-002	 1.192471236835767e+000	-1.326390484618745e-001
 3.394523828149064e-002	 1.192850084549151e+000	-1.425127881040736e-001
 2.258820750511350e-002	 1.193119187732893e+000	-1.495964980005599e-001
 1.127269160777236e-002	 1.193279752370191e+000	-1.536486293570586e-001
 0.000000000000000e+000	 1.193332999996683e+000	-1.543164527795120e-001
 1.151294643064635e-001	 1.194464425540913e+000	 1.546042289457575e-002
 1.034564591055369e-001	 1.195532006134985e+000	-1.266988770745293e-002
 9.181504023273319e-002	 1.196482335047633e+000	-3.710472440662888e-002
 8.020675932168628e-002	 1.197316510895122e+000	-5.825847965569814e-002
 6.863313492787490e-002	 1.198035653759429e+000	-7.644286466552887e-002
 5.709565231767782e-002	 1.198640904201028e+000	-9.186254322740461e-002
 4.559576328859526e-002	 1.199133422276893e+000	-1.046115088439615e-001
 3.413488602003709e-002	 1.199514386564678e+000	-1.146702146366194e-001
 2.271440495405443e-002	 1.199784993194003e+000	-1.219034605375940e-001
 1.133567070536557e-002	 1.199946454885717e+000	-1.260590374747695e-001
 0.000000000000000e+000	 1.200000000000000e+000	-1.267685186308071e-001
 1.200000000000000e+000	 0.000000000000000e+000	 1.972375900926266e+001
 1.199946454885717e+000	 1.133567070536561e-002	 1.970738703469118e+001
 1.199784993194003e+000	 2.271440495405450e-002	 1.969376638193842e+001
 1.199514386564678e+000	 3.413488602003700e-002	 1.968132062326663e+001
 1.199133422276893e+000	 4.559576328859522e-002	 1.966851381567236e+001
 1.198640904201028e+000	 5.709565231767782e-002	 1.965385300336763e+001
 1.198035653759429e+000	 6.863313492787491e-002	 1.963589140332371e+001
 1.197316510895122e+000	 8.020675932168629e-002	 1.961323170421857e+001
 1.196482335047633e+000	 9.181504023273307e-002	 1.958452948013146e+001
 1.195532006134985e+000	 1.034564591055369e-001	 1.954849671916471e+001
 1.194464425540913e+000	 1.151294643064634e-001	 1.950390546588187e+001
 1.206667000003317e+000	 0.000000000000000e+000	 1.954416463497029e+001
 1.206613157401256e+000	 1.139864980270443e-002	 1.952796676155294e+001
 1.206450798655161e+000	 2.284060240253764e-002	 1.951464056937146e+001
 1.206178688580310e+000	 3.432453375796890e-002	 1.950261493843891e+001
 1.205795607718194e+000	 4.584908575049948e-002	 1.949035915140323e+001
 1.205300353293716e+000	 5.741286624635845e-002	 1.947638545573871e+001
 1.204691740181260e+000	 6.901444918697730e-002	 1.945925222479461e+001
 1.203968601878787e+000	 8.065237470892074e-002	 1.943756723864915e+001
 1.203129791489080e+000	 9.232514929392761e-002	 1.940999108661714e+001
 1.202174182707195e+000	 1.040312459496886e-001	 1.937524069206055e+001
 1.201100670813155e+000	 1.157691044219621e-001	 1.933209295881915e+001
 1.213334000006534e+000	 0.000000000000000e+000	 1.936947037207601e+001
 1.213279859916706e+000	 1.146162889980340e-002	 1.935346692793327e+001
 1.213116604116268e+000	 2.296679985059136e-002	 1.934043863216256e+001
 1.212842990595942e+000	 3.451418149532757e-002	 1.932882195174370e+001
 1.212457793159563e+000	 4.610240821172792e-002	 1.931709361939901e+001
 1.211959802386551e+000	 5.773008017429710e-002	 1.930377323928772e+001
 1.211347826603324e+000	 6.939576344530313e-002	 1.928742641809622e+001
 1.210620692862775e+000	 8.109799009537091e-002	 1.926666802258383e+001
 1.209777247930941e+000	 9.283525835435197e-002	 1.924016556596402e+001
 1.208816359279900e+000	 1.046060327931011e-001	 1.920664272426582e+001
 1.207736916085966e+000	 1.164087445367639e-001	 1.916488298244699e+001
 1.220001000009551e+000	 0.000000000000000e+000	 1.919945699660447e+001
 1.219946562431968e+000	 1.152460799669068e-002	 1.918367225138334e+001
 1.219782409577216e+000	 2.309299729826907e-002	 1.917094907668590e+001
 1.219507292611463e+000	 3.470382923218868e-002	 1.915973380671870e+001
 1.219119978600882e+000	 4.635573067237534e-002	 1.914851284707656e+001
 1.218619251479407e+000	 5.804729410160456e-002	 1.913581530837748e+001
 1.218003913025485e+000	 6.977707770297610e-002	 1.912021610186936e+001
 1.217272783846940e+000	 8.154360548117015e-002	 1.910033916839786e+001
 1.216424704373056e+000	 9.334536741414577e-002	 1.907486084367599e+001
 1.215458535852934e+000	 1.051808196359168e-001	 1.904251336152367e+001
 1.214373161359173e+000	 1.170483846510113e-001	 1.900208849532827e+001
 1.226668000012267e+000	 0.000000000000000e+000	 1.903391278169639e+001
 1.226613264946940e+000	 1.158758709339442e-002	 1.901837420606338e+001
 1.226448215037900e+000	 2.321919474562415e-002	 1.900596645932837e+001
 1.226171594626763e+000	 3.489347696862784e-002	 1.899514802500830e+001
 1.225782164042033e+000	 4.660905313253649e-002	 1.898441720346835e+001
 1.225278700572155e+000	 5.836450802839168e-002	 1.897231475857961e+001
 1.224659999447606e+000	 7.015839196011998e-002	 1.895742697225080e+001
 1.223924874831135e+000	 8.198922086645173e-002	 1.893838883949266e+001
 1.223072160815268e+000	 9.385547647344870e-002	 1.891388740754407e+001
 1.222100712426131e+000	 1.057556064782785e-001	 1.888266526127929e+001
 1.221009406632600e+000	 1.176880247648462e-001	 1.884352415565451e+001
 1.233335000014584e+000	 0.000000000000000e+000	 1.887263329497413e+001
 1.233279967461519e+000	 1.165056618994280e-002	 1.885737083300555e+001
 1.233114020498216e+000	 2.334539219271000e-002	 1.884529120945099e+001
 1.232835896641729e+000	 3.508312470472070e-002	 1.883486734180905e+001
 1.232444349482895e+000	 4.686237559230622e-002	 1.882461164692592e+001
 1.231938149664668e+000	 5.868172195476933e-002	 1.881307868639613e+001
 1.231316085869550e+000	 7.053970621685843e-002	 1.879886817436089e+001
 1.230576965815212e+000	 8.243483625134906e-002	 1.878062813328464e+001
 1.229719617257423e+000	 9.436558553240043e-002	 1.875705820185702e+001
 1.228742888999325e+000	 1.063303933203288e-001	 1.872691309781907e+001
 1.227645651906074e+000	 1.183276648784110e-001	 1.868900623700652e+001
 1.240002000016401e+000	 0.000000000000000e+000	 1.871542120244419e+001
 1.239946669975606e+000	 1.171354528636398e-002	 1.870046655650128e+001
 1.239779825958058e+000	 2.347158963957999e-002	 1.868872945807523e+001
 1.239500198656252e+000	 3.527277244054283e-002	 1.867869954665452e+001
 1.239106534923351e+000	 4.711569805177929e-002	 1.866890557779108e+001
 1.238597598756819e+000	 5.899893588084832e-002	 1.865791805359300e+001
 1.237972172291179e+000	 7.092102047331519e-002	 1.864435217806212e+001
 1.237229056799023e+000	 8.288045163599547e-002	 1.862687096813837e+001
 1.236367073699361e+000	 9.487569459114065e-002	 1.860418852524606e+001
 1.235385065572350e+000	 1.069051801622104e-001	 1.857507347075008e+001
 1.234281897179420e+000	 1.189673049918478e-001	 1.853835254717766e+001
 1.246669000017617e+000	 0.000000000000000e+000	 1.856208607869202e+001
 1.246613372489098e+000	 1.177652438268612e-002	 1.854747200638315e+001
 1.246445631417321e+000	 2.359778708628755e-002	 1.853609287207960e+001
 1.246164500670219e+000	 3.546242017616987e-002	 1.852645732934003e+001
 1.245768720363282e+000	 4.736902051105048e-002	 1.851711269584982e+001
 1.245257047848480e+000	 5.931614980673954e-002	 1.850664755597255e+001
 1.244628258712357e+000	 7.130233472961398e-002	 1.849369465782777e+001
 1.243881147782423e+000	 8.332606702052429e-002	 1.847693397409628e+001
 1.243014530140927e+000	 9.538580364980900e-002	 1.845509593202737e+001
 1.242027242145039e+000	 1.074799670040657e-001	 1.842696481669447e+001
 1.240918142452463e+000	 1.196069451052987e-001	 1.839138234994559e+001
 1.253336000018134e+000	 0.000000000000000e+000	 1.841244422313459e+001
 1.253280075001894e+000	 1.183950347893738e-002	 1.839820384598272e+001
 1.253111436875900e+000	 2.372398453288602e-002	 1.838719849370222e+001
 1.252828802683519e+000	 3.565206791167744e-002	 1.837795813079529e+001
 1.252430905802570e+000	 4.762234297021459e-002	 1.836905086239018e+001
 1.251916496939524e+000	 5.963336373255378e-002	 1.835908549641991e+001
 1.251284345132945e+000	 7.168364898587851e-002	 1.834671437656788e+001
 1.250533238765264e+000	 8.377168240506890e-002	 1.833063638726353e+001
 1.249661986581963e+000	 9.589591270854520e-002	 1.830960013691295e+001
 1.248669418717227e+000	 1.080547538460376e-001	 1.828240732407955e+001
 1.247554387725030e+000	 1.202465852189060e-001	 1.824791628968231e+001
 1.260003000017850e+000	 0.000000000000000e+000	 1.826631848210671e+001
 1.259946777513892e+000	 1.190248257514593e-002	 1.825248460555316e+001
 1.259777242333688e+000	 2.385018197942882e-002	 1.824186858515168e+001
 1.259493104696041e+000	 3.584171564714115e-002	 1.823302399872215e+001
 1.259093091241095e+000	 4.787566542936642e-002	 1.822454196669392e+001
 1.258575946029822e+000	 5.995057765840189e-002	 1.821505366206468e+001
 1.257940431552808e+000	 7.206496324223248e-002	 1.820323307326606e+001
 1.257185329747398e+000	 8.421729778976256e-002	 1.818779994771288e+001
 1.256309443022313e+000	 9.640602176748886e-002	 1.816752292296386e+001
 1.255311595288746e+000	 1.086295406882687e-001	 1.814122285090840e+001
 1.254190632996945e+000	 1.208862253328119e-001	 1.810777631869756e+001
 1.266670000016666e+000	 0.000000000000000e+000	 1.812353807656571e+001
 1.266613480024992e+000	 1.196546167133993e-002	 1.811014252095599e+001
 1.266443047790582e+000	 2.397637942596935e-002	 1.809993047813916e+001
 1.266157406707675e+000	 3.603136338263665e-002	 1.809148144782162e+001
 1.265755276678737e+000	 4.812898788860075e-002	 1.808341179679838e+001
 1.265235395119249e+000	 6.026779158439477e-002	 1.807437720540673e+001
 1.264596517971808e+000	 7.244627749879959e-002	 1.806307535428670e+001
 1.263837420728680e+000	 8.466291317473874e-002	 1.804824880077958e+001
 1.262956899461820e+000	 9.691613082677968e-002	 1.802868805266767e+001
 1.261953771859432e+000	 1.092043275309016e-001	 1.800323484540162e+001
 1.260826878268034e+000	 1.215258654471585e-001	 1.797078562721489e+001
 1.194464425540913e+000	 1.151294643064634e-001	 1.950390546588187e+001
 1.193278703946419e+000	 1.268307179538431e-001	 1.945445127802223e+001
 1.191973637977820e+000	 1.385603731255182e-001	 1.940397399176671e+001
 1.190548200000185e+000	 1.503168069223521e-001	 1.935158235169115e+001
 1.189001387753761e+000	 1.620983652844261e-001	 1.929645593705218e+001
 1.187332225339542e+000	 1.739033633652391e-001	 1.923784905506970e+001
 1.185539764203236e+000	 1.857300859390158e-001	 1.917509470646752e+001
 1.183623084116445e+000	 1.975767878414401e-001	 1.910760861044178e+001
 1.181581294153850e+000	 2.094416944440826e-001	 1.903489327416133e+001
 1.179413533665163e+000	 2.213230021627496e-001	 1.895654208978451e+001
 1.177118973240590e+000	 2.332188789999303e-001	 1.887224343982035e+001
 1.201100670813155e+000	 1.157691044219621e-001	 1.933209295881915e+001
 1.199908361547070e+000	 1.275353682843720e-001	 1.928423076019017e+001
 1.198596044849500e+000	 1.393301914652340e-001	 1.923548472702012e+001
 1.197162687376130e+000	 1.511519420488499e-001	 1.918497266051866e+001
 1.195607281298800e+000	 1.629989567856154e-001	 1.913188283490209e+001
 1.193928845296552e+000	 1.748695414682985e-001	 1.907547792004239e+001
 1.192126425545067e+000	 1.867619713416107e-001	 1.901509898570709e+001
 1.190199096703294e+000	 1.986744915453892e-001	 1.895016957458326e+001
 1.188145962896061e+000	 2.106053175916603e-001	 1.888019982913003e+001
 1.185966158691430e+000	 2.225526358758121e-001	 1.880479065509798e+001
 1.183658850071527e+000	 2.345146042220564e-001	 1.872363790230570e+001
 1.207736916085966e+000	 1.164087445367639e-001	 1.916488298244698e+001
 1.206538019148351e+000	 1.282400186142539e-001	 1.911855505817014e+001
 1.205218451721860e+000	 1.401000098043578e-001	 1.907147842160956e+001
 1.203777174752788e+000	 1.519870771748144e-001	 1.902278078099435e+001
 1.202213174844572e+000	 1.638995482863324e-001	 1.897165982585765e+001
 1.200525465254301e+000	 1.758357195709474e-001	 1.891738717700549e+001
 1.198713086887629e+000	 1.877938567438565e-001	 1.885931242790340e+001
 1.196775109290849e+000	 1.997721952490488e-001	 1.879686726471174e+001
 1.194710631638938e+000	 2.117689407390045e-001	 1.872956964996644e+001
 1.192518783718309e+000	 2.237822695886923e-001	 1.865702805260510e+001
 1.190198726903006e+000	 2.358103294440449e-001	 1.857894570469837e+001
 1.214373161359173e+000	 1.170483846510113e-001	 1.900208849532827e+001
 1.213167676750082e+000	 1.289446689436272e-001	 1.895723923384856e+001
 1.211840858594711e+000	 1.408698281430210e-001	 1.891177183279478e+001
 1.210391662129970e+000	 1.528222123003676e-001	 1.886482474446468e+001
 1.208819068390886e+000	 1.648001397866880e-001	 1.881560577873401e+001
 1.207122085212600e+000	 1.768018976732844e-001	 1.876339607832991e+001
 1.205299748230736e+000	 1.888257421458386e-001	 1.870755419585549e+001
 1.203351121878933e+000	 2.008698989524904e-001	 1.864752025984934e+001
 1.201275300382315e+000	 2.129325638861734e-001	 1.858282021483947e+001
 1.199071408745647e+000	 2.250119033014357e-001	 1.851307011796386e+001
 1.196738603734889e+000	 2.371060546659301e-001	 1.843798047229051e+001
 1.221009406632600e+000	 1.176880247648462e-001	 1.884352415565451e+001
 1.219797334352083e+000	 1.296493192726302e-001	 1.880009967737059e+001
 1.218463265467869e+000	 1.416396464813551e-001	 1.875618271732097e+001
 1.217006149507486e+000	 1.536573474256321e-001	 1.871092329556642e+001
 1.215424961937553e+000	 1.657007312867934e-001	 1.866354003192756e+001
 1.213718705171260e+000	 1.777680757754080e-001	 1.861332414457802e+001
 1.211886409574204e+000	 1.898576275476420e-001	 1.855964356124260e+001
 1.209927134467368e+000	 2.019676026557856e-001	 1.850194713034986e+001
 1.207839969126025e+000	 2.140961870332251e-001	 1.843976891707513e+001
 1.205624033773291e+000	 2.262415370140881e-001	 1.837273256672509e+001
 1.203278480567044e+000	 2.384017798877465e-001	 1.830055571537850e+001
 1.227645651906074e+000	 1.183276648784110e-001	 1.868900623700652e+001
 1.226426991954171e+000	 1.303539696014012e-001	 1.864695403314891e+001
 1.225085672341149e+000	 1.424094648194918e-001	 1.860452976724200e+001
 1.223620636885148e+000	 1.544924825507298e-001	 1.856089583742093e+001
 1.222030855484382e+000	 1.666013227867597e-001	 1.851528234752695e+001
 1.220315325130093e+000	 1.787342538774170e-001	 1.846699112706707e+001
 1.218473070917847e+000	 1.908895129493519e-001	 1.841539987516435e+001
 1.216503147055976e+000	 2.030653063590058e-001	 1.835996641593019e+001
 1.214404637869900e+000	 2.152598101802176e-001	 1.830023305018156e+001
 1.212176658801087e+000	 2.274711707266946e-001	 1.823583098584461e+001
 1.209818357399334e+000	 2.396975051095285e-001	 1.816648482674347e+001
 1.234281897179420e+000	 1.189673049918478e-001	 1.853835254717766e+001
 1.233056649556165e+000	 1.310586199300786e-001	 1.849762112867620e+001
 1.231708079214362e+000	 1.431792831575624e-001	 1.845663254830985e+001
 1.230235124262765e+000	 1.553276176757833e-001	 1.841456237917712e+001
 1.228636749031183e+000	 1.675019142866980e-001	 1.837065286757644e+001
 1.226911945088909e+000	 1.797004319794096e-001	 1.832421697240877e+001
 1.225059732261483e+000	 1.919213983510535e-001	 1.827464254050281e+001
 1.223079159644581e+000	 2.041630100622224e-001	 1.822139660538969e+001
 1.220969306613775e+000	 2.164234333272091e-001	 1.816402979445156e+001
 1.218729283828883e+000	 2.287008044393010e-001	 1.810218082668186e+001
 1.216358234231624e+000	 2.409932303313104e-001	 1.803558108054986e+001
 1.240918142452463e+000	 1.196069451052987e-001	 1.839138234994559e+001
 1.239686307157884e+000	 1.317632702588007e-001	 1.835192090603751e+001
 1.238330486087321e+000	 1.439491014956986e-001	 1.831231144083381e+001
 1.236849611640148e+000	 1.561627528009146e-001	 1.827174348581476e+001
 1.235242642577766e+000	 1.684025057867194e-001	 1.822947207240993e+001
 1.233508565047521e+000	 1.806666100814845e-001	 1.818482178895111e+001
 1.231646393604925e+000	 1.929532837528319e-001	 1.813719098603779e+001
 1.229655172233005e+000	 2.052607137655070e-001	 1.808605611795544e+001
 1.227533975357481e+000	 2.175870564742576e-001	 1.803097620508203e+001
 1.225281908856526e+000	 2.299304381519529e-001	 1.797159739942946e+001
 1.222898111063778e+000	 2.422889555531269e-001	 1.790765763260934e+001
 1.247554387725030e+000	 1.202465852189060e-001	 1.824791628968231e+001
 1.246315964759146e+000	 1.324679205877058e-001	 1.820967435602081e+001
 1.244952892959844e+000	 1.447189198340320e-001	 1.817138758291790e+001
 1.243464099017107e+000	 1.569978879262462e-001	 1.813226023012427e+001
 1.241848536123940e+000	 1.693030972869349e-001	 1.809156074097953e+001
 1.240105185005738e+000	 1.816327881837402e-001	 1.804862581505133e+001
 1.238233054947990e+000	 1.939851691547721e-001	 1.800286464225077e+001
 1.236231184821070e+000	 2.063584174689310e-001	 1.795376328619188e+001
 1.234098644100853e+000	 2.187506796214214e-001	 1.790088920175544e+001
 1.231834533883864e+000	 2.311600718646958e-001	 1.784389586892069e+001
 1.229437987895662e+000	 2.435846807750120e-001	 1.778252752195858e+001
 1.254190632996945e+000	 1.208862253328119e-001	 1.810777631869755e+001
 1.252945622359772e+000	 1.331725709169322e-001	 1.807070345473037e+001
 1.251575299831740e+000	 1.454887381726938e-001	 1.803368281598780e+001
 1.250078586393454e+000	 1.578330230519001e-001	 1.799593414678235e+001
 1.248454429669515e+000	 1.702036887874557e-001	 1.795673991310423e+001
 1.246701804963373e+000	 1.825989662862754e-001	 1.791544938911260e+001
 1.244819716290493e+000	 1.950170545569596e-001	 1.787148291875380e+001
 1.242807197408601e+000	 2.074561211725660e-001	 1.782433634041734e+001
 1.240663312843723e+000	 2.199143027687583e-001	 1.777358555962791e+001
 1.238387158910742e+000	 2.323897055775752e-001	 1.771889125176345e+001
 1.235977864727140e+000	 2.448804059970006e-001	 1.766000367370302e+001
 1.260826878268034e+000	 1.215258654471585e-001	 1.797078562721489e+001
 1.259575279959579e+000	 1.338772212466185e-001	 1.793483110261035e+001
 1.258197706702826e+000	 1.462585565118158e-001	 1.789901963252390e+001
 1.256693073768999e+000	 1.586681581779989e-001	 1.786258718844625e+001
 1.255060323214301e+000	 1.711042802883929e-001	 1.782483085356811e+001
 1.253298424920236e+000	 1.835651443891883e-001	 1.778511292131917e+001
 1.251406377632250e+000	 1.960489399594794e-001	 1.774286518328485e+001
 1.249383209995418e+000	 2.085538248764833e-001	 1.769759339457208e+001
 1.247227981585924e+000	 2.210779259163266e-001	 1.764888190167292e+001
 1.244939783937008e+000	 2.336193392906365e-001	 1.759639841475217e+001
 1.242517741558077e+000	 2.461761312191269e-001	 1.753989890307917e+001
 1.177118973240590e+000	 2.332188789999303e-001	 1.887224343982035e+001
 1.174696442867462e+000	 2.451292519865292e-001	 1.878289485121378e+001
 1.172145513679984e+000	 2.570504473736707e-001	 1.868948582357952e+001
 1.169465456418633e+000	 2.689805478137872e-001	 1.859194751388897e+001
 1.166655576875310e+000	 2.809176099841100e-001	 1.849030794286799e+001
 1.163715216807882e+000	 2.928596653018195e-001	 1.838469560942124e+001
 1.160643754840250e+000	 3.048047206734029e-001	 1.827534297294465e+001
 1.157440607346606e+000	 3.167507592780232e-001	 1.816258977055474e+001
 1.154105229318469e+000	 3.286957413846448e-001	 1.804688613449775e+001
 1.150637115213138e+000	 3.406376052026062e-001	 1.792879547339166e+001
 1.147035799782149e+000	 3.525742677652601e-001	 1.780899707952265e+001
 1.183658850071527e+000	 2.345146042220564e-001	 1.872363790230570e+001
 1.181222860523273e+000	 2.464911492558901e-001	 1.863756151169207e+001
 1.178657758798178e+000	 2.584785768177023e-001	 1.854747132568505e+001
 1.175962811585093e+000	 2.704749589074649e-001	 1.845330411809402e+001
 1.173137320819037e+000	 2.824783414056346e-001	 1.835509331055587e+001
 1.170180624600808e+000	 2.944867447922768e-001	 1.825297269177059e+001
 1.167092098102068e+000	 3.064981649005864e-001	 1.814718001089513e+001
 1.163871154454499e+000	 3.185105737046083e-001	 1.803806041123759e+001
 1.160517245621666e+000	 3.305219201409052e-001	 1.792606966853402e+001
 1.157029863252175e+000	 3.425301309638526e-001	 1.781177719638389e+001
 1.153408539512741e+000	 3.545331116341913e-001	 1.769586877990268e+001
 1.190198726903006e+000	 2.358103294440449e-001	 1.857894570469837e+001
 1.187749278179539e+000	 2.478530465251502e-001	 1.849606180389305e+001
 1.185170003916729e+000	 2.599067062616638e-001	 1.840920374352837e+001
 1.182460166751805e+000	 2.719693700010984e-001	 1.831831425700633e+001
 1.179619064762902e+000	 2.840390728271374e-001	 1.822343253260662e+001
 1.176646032393761e+000	 2.961138242827326e-001	 1.812469804255320e+001
 1.173540441363803e+000	 3.081916091277885e-001	 1.802235425279547e+001
 1.170301701562208e+000	 3.202703881312340e-001	 1.791675217873467e+001
 1.166929261924586e+000	 3.323480988972305e-001	 1.780835375016475e+001
 1.163422611290857e+000	 3.444226567251935e-001	 1.769773494689582e+001
 1.159781279242920e+000	 3.564919555032524e-001	 1.758558866491655e+001
 1.196738603734889e+000	 2.371060546659301e-001	 1.843798047229051e+001
 1.194275695836146e+000	 2.492149437943351e-001	 1.835820748752376e+001
 1.191682249035548e+000	 2.613348357055731e-001	 1.827449422427272e+001
 1.188957521918703e+000	 2.734637810946987e-001	 1.818678968110607e+001
 1.186100808706870e+000	 2.855998042486236e-001	 1.809513913873556e+001
 1.183111440186731e+000	 2.977409037731875e-001	 1.799968810407093e+001
 1.179988784625471e+000	 3.098850533550047e-001	 1.790068614184674e+001
 1.176732248669769e+000	 3.220302025578902e-001	 1.779849055811216e+001
 1.173341278227287e+000	 3.341742776536049e-001	 1.769356989780979e+001
 1.169815359329259e+000	 3.463151824866051e-001	 1.758650721676935e+001
 1.166154018972769e+000	 3.584507993724112e-001	 1.747800308673453e+001
 1.203278480567044e+000	 2.384017798877465e-001	 1.830055571537850e+001
 1.200802113492981e+000	 2.505768410634697e-001	 1.822381023173142e+001
 1.198194494154544e+000	 2.627629651494473e-001	 1.814315384723491e+001
 1.195454877085725e+000	 2.749581921882768e-001	 1.805854209342040e+001
 1.192582552650905e+000	 2.871605356700989e-001	 1.797002662864997e+001
 1.189576847979709e+000	 2.993679832636415e-001	 1.787775930245811e+001
 1.186437127887089e+000	 3.115784975822304e-001	 1.778199611463668e+001
 1.183162795777224e+000	 3.237900169845663e-001	 1.768310103238677e+001
 1.179753294529829e+000	 3.360004564100119e-001	 1.758154962668938e+001
 1.176208107367455e+000	 3.482077082480641e-001	 1.747793248704403e+001
 1.172526758702372e+000	 3.604096432416351e-001	 1.737295837191707e+001
 1.209818357399334e+000	 2.396975051095285e-001	 1.816648482674347e+001
 1.207328531149930e+000	 2.519387383325792e-001	 1.809268161857726e+001
 1.204706739273630e+000	 2.641910945933041e-001	 1.801499363391625e+001
 1.201952232252809e+000	 2.764526032818440e-001	 1.793338316666070e+001
 1.199064296594971e+000	 2.887212670915688e-001	 1.784790849682670e+001
 1.196042255772687e+000	 3.009950627540954e-001	 1.775872808061707e+001
 1.192885471148673e+000	 3.132719418094608e-001	 1.766610464273375e+001
 1.189593342884612e+000	 3.255498314112529e-001	 1.757040913326101e+001
 1.186165310832270e+000	 3.378266351664351e-001	 1.747212450916533e+001
 1.182600855405517e+000	 3.501002340095467e-001	 1.737184929834865e+001
 1.178899498431811e+000	 3.623684871108916e-001	 1.727030090228196e+001
 1.216358234231624e+000	 2.409932303313104e-001	 1.803558108054986e+001
 1.213854948806878e+000	 2.533006356016886e-001	 1.796463314786374e+001
 1.211218984392714e+000	 2.656192240371608e-001	 1.788982455930860e+001
 1.208449587419890e+000	 2.779470143754111e-001	 1.781112456154287e+001
 1.205546040539032e+000	 2.902819985130387e-001	 1.772859825836733e+001
 1.202507663565653e+000	 3.026221422445490e-001	 1.764241093211245e+001
 1.199333814410241e+000	 3.149653860366913e-001	 1.755283227510824e+001
 1.196023889991972e+000	 3.273096458379393e-001	 1.746024049254130e+001
 1.192577327134670e+000	 3.396528139228580e-001	 1.736512623560760e+001
 1.188993603443521e+000	 3.519927597710294e-001	 1.726809632164899e+001
 1.185272238161169e+000	 3.643273309801479e-001	 1.716987719594615e+001
 1.222898111063778e+000	 2.422889555531269e-001	 1.790765763260934e+001
 1.220381366463713e+000	 2.546625328708232e-001	 1.783947624326502e+001
 1.217731229511710e+000	 2.670473534810352e-001	 1.776745756442778e+001
 1.214946942586906e+000	 2.794414254689893e-001	 1.769157794624668e+001
 1.212027784483051e+000	 2.918427299345141e-001	 1.761190947589064e+001
 1.208973071358602e+000	 3.042492217350032e-001	 1.752862443598871e+001
 1.205782157671806e+000	 3.166588302639170e-001	 1.744199968134993e+001
 1.202454437099345e+000	 3.290694602646155e-001	 1.735242089421329e+001
 1.198989343437087e+000	 3.414789926792650e-001	 1.726038667576692e+001
 1.195386351481539e+000	 3.538852855324883e-001	 1.716651242933851e+001
 1.191644977890528e+000	 3.662861748493719e-001	 1.707153398853584e+001
 1.229437987895662e+000	 2.435846807750120e-001	 1.778252752195858e+001
 1.226907784120320e+000	 2.560244301400080e-001	 1.771702225971123e+001
 1.224243474630525e+000	 2.684754829249444e-001	 1.764770357002871e+001
 1.221444297753794e+000	 2.809358365625896e-001	 1.757455501697133e+001
 1.218509528426994e+000	 2.934034613560003e-001	 1.749765578742382e+001
 1.215438479151522e+000	 3.058763012254581e-001	 1.741718529247634e+001
 1.212230500933388e+000	 3.183522744911332e-001	 1.733342769565206e+001
 1.208884984206768e+000	 3.308292746912715e-001	 1.724677632714961e+001
 1.205401359739581e+000	 3.433051714356393e-001	 1.715773794063427e+001
 1.201779099519646e+000	 3.557778112939002e-001	 1.706693676665904e+001
 1.198017717619971e+000	 3.682450187185308e-001	 1.697511831455825e+001
 1.235977864727140e+000	 2.448804059970006e-001	 1.766000367370302e+001
 1.233434201776585e+000	 2.573863274092683e-001	 1.759708249198130e+001
 1.230755719749071e+000	 2.699036123689061e-001	 1.753037349145865e+001
 1.227941652920490e+000	 2.824302476562229e-001	 1.745986751954695e+001
 1.224991272370823e+000	 2.949641927775030e-001	 1.738565093525532e+001
 1.221903886944404e+000	 3.075033807159139e-001	 1.730791035955349e+001
 1.218678844195001e+000	 3.200457187183354e-001	 1.722693736153371e+001
 1.215315531314282e+000	 3.325890891178971e-001	 1.714313303842707e+001
 1.211813376042210e+000	 3.451313501919647e-001	 1.705701244476963e+001
 1.208171847557914e+000	 3.576703370552409e-001	 1.696920882343926e+001
 1.204390457349580e+000	 3.702038625875919e-001	 1.688047758892963e+001
 1.242517741558077e+000	 2.461761312191269e-001	 1.753989890307917e+001
 1.239960619432395e+000	 2.587482246786292e-001	 1.747946818445863e+001
 1.237267964867259e+000	 2.713317418129376e-001	 1.741527825460607e+001
 1.234439008086931e+000	 2.839246587499007e-001	 1.734732727206285e+001
 1.231473016314503e+000	 2.965249241990277e-001	 1.727570879571402e+001
 1.228369294737240e+000	 3.091304602063712e-001	 1.720061669033234e+001
 1.225127187456663e+000	 3.217391629455186e-001	 1.712234997727290e+001
 1.221746078421927e+000	 3.343489035444824e-001	 1.704131758723036e+001
 1.218225392345035e+000	 3.469575289482249e-001	 1.695804296908217e+001
 1.214564595596419e+000	 3.595628628164873e-001	 1.687316850613950e+001
 1.210763197079440e+000	 3.721627064565229e-001	 1.678745968865319e+001
 1.147035799782149e+000	 3.525742677652601e-001	 1.780899707952265e+001
 1.143300858591557e+000	 3.645036256715679e-001	 1.768413550931685e+001
 1.139431907944475e+000	 3.764235554931851e-001	 1.755100610160146e+001
 1.135428606500522e+000	 3.883319152483018e-001	 1.741069823617141e+001
 1.131290656299120e+000	 4.002265455830573e-001	 1.726442959290482e+001
 1.127017803469615e+000	 4.121052708129412e-001	 1.711354680260884e+001
 1.122609838913262e+000	 4.239658999937964e-001	 1.695952557416352e+001
 1.118066598955774e+000	 4.358062280216105e-001	 1.680397025713208e+001
 1.113387965969144e+000	 4.476240367602244e-001	 1.664861279987469e+001
 1.108573868961468e+000	 4.594170961960175e-001	 1.649531106444384e+001
 1.103624284133538e+000	 4.711831656185747e-001	 1.634604646116862e+001
 1.153408539512741e+000	 3.545331116341913e-001	 1.769586877990268e+001
 1.149652847611346e+000	 3.665287470647388e-001	 1.757500908616429e+001
 1.145762401719341e+000	 3.785149020297367e-001	 1.744601502348242e+001
 1.141736858599893e+000	 3.904894226468796e-001	 1.730998664567005e+001
 1.137575918636990e+000	 4.024501375652946e-001	 1.716815448637425e+001
 1.133279326549498e+000	 4.143948590127299e-001	 1.702188034454180e+001
 1.128846872076932e+000	 4.263213838725058e-001	 1.687265753805882e+001
 1.124278390635644e+000	 4.382274947894189e-001	 1.672211058306555e+001
 1.119573763944086e+000	 4.501109613037127e-001	 1.657199425729539e+001
 1.114732920615915e+000	 4.619695410121816e-001	 1.642419200702256e+001
 1.109755836719682e+000	 4.738009807553952e-001	 1.628071365883582e+001
 1.159781279242920e+000	 3.564919555032524e-001	 1.758558866491655e+001
 1.156004836630688e+000	 3.685538684580830e-001	 1.746860656197572e+001
 1.152092895493741e+000	 3.806062485665094e-001	 1.734363209230548e+001
 1.148045110698800e+000	 3.926469300457278e-001	 1.721177367577547e+001
 1.143861180974407e+000	 4.046737295478509e-001	 1.707427224179421e+001
 1.139540849628945e+000	 4.166844472128812e-001	 1.693250215709817e+001
 1.135083905240194e+000	 4.286768677516142e-001	 1.678797161390239e+001
 1.130490182315132e+000	 4.406487615576512e-001	 1.664232243419865e+001
 1.125759561918668e+000	 4.525978858476361e-001	 1.649732924681274e+001
 1.120891972270021e+000	 4.645219858287749e-001	 1.635489799505820e+001
 1.115887389305492e+000	 4.764187958926180e-001	 1.621706373445897e+001
 1.166154018972769e+000	 3.584507993724112e-001	 1.747800308673453e+001
 1.162356825649667e+000	 3.705789898515569e-001	 1.736478165868285e+001
 1.158423389267759e+000	 3.826975951034477e-001	 1.724371655797176e+001
 1.154353362797314e+000	 3.948044374447787e-001	 1.711592224881176e+001
 1.150146443311432e+000	 4.068973215306460e-001	 1.698264758642238e+001
 1.145802372708010e+000	 4.189740354133045e-001	 1.684527689508264e+001
 1.141320938403083e+000	 4.310323516310217e-001	 1.670533049904469e+001
 1.136701973994260e+000	 4.430700283262014e-001	 1.656446466033133e+001
 1.131945359892904e+000	 4.550848103918861e-001	 1.642447087823995e+001
 1.127051023923789e+000	 4.670744306456894e-001	 1.628727450658780e+001
 1.122018941890968e+000	 4.790366110301420e-001	 1.615493264637421e+001
 1.172526758702372e+000	 3.604096432416351e-001	 1.737295837191707e+001
 1.168708814668366e+000	 3.726041112451172e-001	 1.726338807859290e+001
 1.164753883041476e+000	 3.847889416404962e-001	 1.714612770492905e+001
 1.160661614895509e+000	 3.969619448439649e-001	 1.702229542229846e+001
 1.156431705648128e+000	 4.091209135136007e-001	 1.689314552807490e+001
 1.152063895786738e+000	 4.212636236139091e-001	 1.676006968212241e+001
 1.147557971565633e+000	 4.333878355106287e-001	 1.662459758896478e+001
 1.142913765673050e+000	 4.454912950949638e-001	 1.648839707783955e+001
 1.138131157866803e+000	 4.575717349363536e-001	 1.635327353361692e+001
 1.133210075577222e+000	 4.696268754628187e-001	 1.622116863276148e+001
 1.128150494476111e+000	 4.816544261678670e-001	 1.609415834015623e+001
 1.178899498431811e+000	 3.623684871108916e-001	 1.727030090228196e+001
 1.175060803686873e+000	 3.746292326387209e-001	 1.716427959535827e+001
 1.171084376814971e+000	 3.868802881775999e-001	 1.705072495208830e+001
 1.166969866993460e+000	 3.991194522432187e-001	 1.693075649666205e+001
 1.162716967984558e+000	 4.113445054966350e-001	 1.680563146948593e+001
 1.158325418865181e+000	 4.235532118146044e-001	 1.667674623053325e+001
 1.153795004727882e+000	 4.357433193903352e-001	 1.654563710150739e+001
 1.149125557351524e+000	 4.479125618638322e-001	 1.641398059715580e+001
 1.144316955840377e+000	 4.600586594809299e-001	 1.628359299681705e+001
 1.139369127230325e+000	 4.721793202800552e-001	 1.615642920846619e+001
 1.134282047060920e+000	 4.842722413056925e-001	 1.603458087916268e+001
 1.185272238161169e+000	 3.643273309801479e-001	 1.716987719594615e+001
 1.181412792705272e+000	 3.766543540323245e-001	 1.706731014495246e+001
 1.177414870588328e+000	 3.889716347147038e-001	 1.695736795261704e+001
 1.173278119091240e+000	 4.012769596424727e-001	 1.684116912273219e+001
 1.169002230320782e+000	 4.135680974796692e-001	 1.671997132239649e+001
 1.164586941943386e+000	 4.258428000152994e-001	 1.659517296089550e+001
 1.160032037889863e+000	 4.380988032700419e-001	 1.646831420084729e+001
 1.155337349029706e+000	 4.503338286327006e-001	 1.634107735002994e+001
 1.150502753813638e+000	 4.625455840255059e-001	 1.621528658302017e+001
 1.145528178883100e+000	 4.747317650972915e-001	 1.609290694293708e+001
 1.140413599645397e+000	 4.868900564435182e-001	 1.597604257521982e+001
 1.191644977890528e+000	 3.662861748493719e-001	 1.707153398853584e+001
 1.187764781723647e+000	 3.786794754258847e-001	 1.697233391665290e+001
 1.183745364361628e+000	 3.910629812517525e-001	 1.686591669361383e+001
 1.179586371188922e+000	 4.034344670416589e-001	 1.675339740903020e+001
 1.175287492656865e+000	 4.157916894626237e-001	 1.663603162138229e+001
 1.170848465021405e+000	 4.281323882159039e-001	 1.651521712135157e+001
 1.166269071051614e+000	 4.404542871496486e-001	 1.639249512119154e+001
 1.161549140707617e+000	 4.527550954014630e-001	 1.626955081657806e+001
 1.156688551786596e+000	 4.650325085699735e-001	 1.614821326805771e+001
 1.151687230535551e+000	 4.772842099144207e-001	 1.603045455035677e+001
 1.146545152229541e+000	 4.895078715812432e-001	 1.591838811944391e+001
 1.198017717619971e+000	 3.682450187185308e-001	 1.697511831455825e+001
 1.194116770742085e+000	 3.807045968193585e-001	 1.687920544402928e+001
 1.190075858134952e+000	 3.931543277886904e-001	 1.677623159566806e+001
 1.185894623286580e+000	 4.055919744407099e-001	 1.666730602885745e+001
 1.181572754992868e+000	 4.180152814454189e-001	 1.655367963743066e+001
 1.177109988099285e+000	 4.304219764163272e-001	 1.643674690663470e+001
 1.172506104213168e+000	 4.428097710290560e-001	 1.631804729022893e+001
 1.167760932385280e+000	 4.551763621700133e-001	 1.619926595212734e+001
 1.162874349759262e+000	 4.675194331142233e-001	 1.608223381763418e+001
 1.157846282187681e+000	 4.798366547313354e-001	 1.596892688044309e+001
 1.152676704813351e+000	 4.921256867187672e-001	 1.586146471319379e+001
 1.204390457349580e+000	 3.702038625875919e-001	 1.688047758892963e+001
 1.200468759760668e+000	 3.827297182127025e-001	 1.678777969593816e+001
 1.196406351908382e+000	 3.952456743254629e-001	 1.668817361231038e+001
 1.192202875384288e+000	 4.077494818395578e-001	 1.658276032719154e+001
 1.187858017328854e+000	 4.202388734279750e-001	 1.647278349127540e+001
 1.183371511177076e+000	 4.327115646164784e-001	 1.635963157683947e+001
 1.178743137374562e+000	 4.451652549081643e-001	 1.624483945233669e+001
 1.173972724062717e+000	 4.575976289382454e-001	 1.613008931386466e+001
 1.169060147731649e+000	 4.700063576581465e-001	 1.601721091643006e+001
 1.164005333839493e+000	 4.823890995479283e-001	 1.590818104902577e+001
 1.158808257396830e+000	 4.947435018559896e-001	 1.580512219914940e+001
 1.210763197079440e+000	 3.721627064565229e-001	 1.678745968865319e+001
 1.206820748779484e+000	 3.847548396058735e-001	 1.669791216752297e+001
 1.202736845682000e+000	 3.973370208620146e-001	 1.660160432935635e+001
 1.198511127482119e+000	 4.099069892381354e-001	 1.649962642739681e+001
 1.194143279664885e+000	 4.224624654102122e-001	 1.639321226649925e+001
 1.189633034254827e+000	 4.350011528162668e-001	 1.628374157594315e+001
 1.184980170535832e+000	 4.475207387868736e-001	 1.617274179155265e+001
 1.180184515739950e+000	 4.600188957060534e-001	 1.606188918729567e+001
 1.175245945703767e+000	 4.724932822016346e-001	 1.595300929708994e+001
 1.170164385490992e+000	 4.849415443640924e-001	 1.584807656861232e+001
 1.164939809979976e+000	 4.973613169928101e-001	 1.574921319251156e+001
 1.103624284133538e+000	 4.711831656185747e-001	 1.634604646116862e+001
 1.098540008418292e+000	 4.829182367932998e-001	 1.619360956461734e+001
 1.093320382371615e+000	 4.946218196740462e-001	 1.603037947379828e+001
 1.087965527553038e+000	 5.062916504278682e-001	 1.585791726168240e+001
 1.082475614551749e+000	 5.179254595134631e-001	 1.567783337784081e+001
 1.076850863358325e+000	 5.295209729733790e-001	 1.549178203818372e+001
 1.071091543696644e+000	 5.410759137449159e-001	 1.530145488791002e+001
 1.065197975315034e+000	 5.525880029883279e-001	 1.510857392369848e+001
 1.059170528235776e+000	 5.640549614308797e-001	 1.491488366564727e+001
 1.053009622962143e+000	 5.754745107252708e-001	 1.472214257428560e+001
 1.046715730642193e+000	 5.868443748208878e-001	 1.453211371311080e+001
 1.109755836719682e+000	 4.738009807553952e-001	 1.628071365883582e+001
 1.104643313615936e+000	 4.856012500296728e-001	 1.613400800684239e+001
 1.099394688196809e+000	 4.973698560662537e-001	 1.597611978264692e+001
 1.094010082697206e+000	 5.091045224547136e-001	 1.580865127217860e+001
 1.088489668654092e+000	 5.208029670445574e-001	 1.563325705216002e+001
 1.082833667280287e+000	 5.324629032446049e-001	 1.545163835764343e+001
 1.077042349798221e+000	 5.440820413411761e-001	 1.526553669910494e+001
 1.071116037732701e+000	 5.556580898336719e-001	 1.507672671389109e+001
 1.065055103161805e+000	 5.671887567860980e-001	 1.488700824141064e+001
 1.058859968925060e+000	 5.786717511930366e-001	 1.469819761641594e+001
 1.052531108788160e+000	 5.901047843585172e-001	 1.451211817999836e+001
 1.115887389305492e+000	 4.764187958926180e-001	 1.621706373445897e+001
 1.110746618813241e+000	 4.882842632663987e-001	 1.607593241982730e+001
 1.105468994021646e+000	 5.001178924587447e-001	 1.592321862444416e+001
 1.100054637840989e+000	 5.119173944817586e-001	 1.576057086000242e+001
 1.094503722756014e+000	 5.236804745757574e-001	 1.558969324448562e+001
 1.088816471201787e+000	 5.354048335158375e-001	 1.541233984727839e+001
 1.082993155899291e+000	 5.470881689373441e-001	 1.523030825899422e+001
 1.077034100149815e+000	 5.587281766788284e-001	 1.504543236952781e+001
 1.070939678087233e+000	 5.703225521410430e-001	 1.485957434256186e+001
 1.064710314887335e+000	 5.818689916604577e-001	 1.467461577985247e+001
 1.058346486933445e+000	 5.933651938957494e-001	 1.449244807405082e+001
 1.122018941890968e+000	 4.790366110301420e-001	 1.615493264637421e+001
 1.116849924010209e+000	 4.909672765033883e-001	 1.601920985345468e+001
 1.111543299846135e+000	 5.028659288514479e-001	 1.587149717128254e+001
 1.106099192984409e+000	 5.147302665089530e-001	 1.571349424054853e+001
 1.100517776857554e+000	 5.265579821070365e-001	 1.554696002383338e+001
 1.094799275122880e+000	 5.383467637870755e-001	 1.537370712832608e+001
 1.088943961999928e+000	 5.500942965334422e-001	 1.519559532722562e+001
 1.082952162566470e+000	 5.617982635238442e-001	 1.501452426199279e+001
 1.076824253012177e+000	 5.734563474957832e-001	 1.483242531247368e+001
 1.070560660849099e+000	 5.850662321276201e-001	 1.465125262715091e+001
 1.064161865078198e+000	 5.966256034326836e-001	 1.447297331137638e+001
 1.128150494476111e+000	 4.816544261678670e-001	 1.609415834015623e+001
 1.122953229206843e+000	 4.936502897405545e-001	 1.596366969599675e+001
 1.117617605670288e+000	 5.056139652442927e-001	 1.582077920745284e+001
 1.112143748127488e+000	 5.175431385362475e-001	 1.566724243853491e+001
 1.106531830958747e+000	 5.294354896383687e-001	 1.550487838975171e+001
 1.100782079043621e+000	 5.412886940583167e-001	 1.533556379872901e+001
 1.094894768100207e+000	 5.531004241294942e-001	 1.516122661227969e+001
 1.088870224982760e+000	 5.648683503687664e-001	 1.498383861069821e+001
 1.082708827936749e+000	 5.765901428503867e-001	 1.480540717004057e+001
 1.076411006810486e+000	 5.882634725946104e-001	 1.462796615353507e+001
 1.069977243222568e+000	 5.998860129694195e-001	 1.445356592903035e+001
 1.134282047060920e+000	 4.842722413056925e-001	 1.603458087916268e+001
 1.129056534403145e+000	 4.963333029778084e-001	 1.590914380495912e+001
 1.123691911494114e+000	 5.083620016372084e-001	 1.577089126239621e+001
 1.118188303270249e+000	 5.203560105635913e-001	 1.562163942481519e+001
 1.112545885059632e+000	 5.323129971697274e-001	 1.546327241468553e+001
 1.106764882964066e+000	 5.442306243295596e-001	 1.529773658267959e+001
 1.100845574200202e+000	 5.561065517255233e-001	 1.512703392976354e+001
 1.094788287398780e+000	 5.679384372136416e-001	 1.495321465162846e+001
 1.088593402861064e+000	 5.797239382049222e-001	 1.477836878990990e+001
 1.082261352771629e+000	 5.914607130615146e-001	 1.460461698018402e+001
 1.075792621366704e+000	 6.031464225060556e-001	 1.443410029265826e+001
 1.140413599645397e+000	 4.868900564435182e-001	 1.597604257521982e+001
 1.135159839599118e+000	 4.990163162150624e-001	 1.585546663820525e+001
 1.129766217317625e+000	 5.111100380301240e-001	 1.572166274401482e+001
 1.124232858412714e+000	 5.231688825909355e-001	 1.557651225356609e+001
 1.118559939160247e+000	 5.351905047010860e-001	 1.542196938667332e+001
 1.112747686884270e+000	 5.471725546008028e-001	 1.526005548040014e+001
 1.106796380299988e+000	 5.591126793215521e-001	 1.509285236078548e+001
 1.100706349814623e+000	 5.710085240585168e-001	 1.492249480575881e+001
 1.094477977785235e+000	 5.828577335594575e-001	 1.475116208232859e+001
 1.088111698732658e+000	 5.946579535284184e-001	 1.458106854682606e+001
 1.081607999510756e+000	 6.064068320426921e-001	 1.441445330309001e+001
 1.146545152229541e+000	 4.895078715812432e-001	 1.591838811944391e+001
 1.141263144794765e+000	 5.016993294522283e-001	 1.580247538534938e+001
 1.135840523140828e+000	 5.138580744229687e-001	 1.567292607232475e+001
 1.130277413554903e+000	 5.259817546182297e-001	 1.553169119983405e+001
 1.124573993260627e+000	 5.380680122324181e-001	 1.538079995236399e+001
 1.118730490804286e+000	 5.501144848720440e-001	 1.522235391814860e+001
 1.112747186399639e+000	 5.621188069176042e-001	 1.505852041040772e+001
 1.106624412230385e+000	 5.740786109034390e-001	 1.489152484735241e+001
 1.100362552709377e+000	 5.859915289140608e-001	 1.472364217262019e+001
 1.093962044693708e+000	 5.978551939954088e-001	 1.455718730366657e+001
 1.087423377654871e+000	 6.096672415794279e-001	 1.439450460192301e+001
 1.152676704813351e+000	 4.921256867187672e-001	 1.586146471319378e+001
 1.147366449990089e+000	 5.043823426892181e-001	 1.575001009940984e+001
 1.141914828963736e+000	 5.166061108156720e-001	 1.562451681344132e+001
 1.136321968696841e+000	 5.287946266454243e-001	 1.548700989742942e+001
 1.130588047360811e+000	 5.409455197636974e-001	 1.533959826034298e+001
 1.124713294724171e+000	 5.530564151432816e-001	 1.518446889844155e+001
 1.118697992499228e+000	 5.651249345137025e-001	 1.502388016617430e+001
 1.112542474646159e+000	 5.771486977484549e-001	 1.486015407214124e+001
 1.106247127633605e+000	 5.891253242688013e-001	 1.469566758030501e+001
 1.099812390654912e+000	 6.010524344625714e-001	 1.453284290267246e+001
 1.093238755799201e+000	 6.129276511163621e-001	 1.437413677613378e+001
 1.158808257396830e+000	 4.947435018559896e-001	 1.580512219914940e+001
 1.153469755185090e+000	 5.070653559259436e-001	 1.569791382871157e+001
 1.147989134786358e+000	 5.193541472081626e-001	 1.557627381388200e+001
 1.142366523838548e+000	 5.316074986724692e-001	 1.544230547715453e+001
 1.136602101460835e+000	 5.438230272948974e-001	 1.529820210475482e+001
 1.130696098643979e+000	 5.559983454145145e-001	 1.514624115048712e+001
 1.124648798598832e+000	 5.681310621098703e-001	 1.498877745671198e+001
 1.118460537062040e+000	 5.802187845936114e-001	 1.482823546539457e+001
 1.112131702558031e+000	 5.922591196237463e-001	 1.466710039787763e+001
 1.105662736616400e+000	 6.042496749299925e-001	 1.450790838823921e+001
 1.099054133943893e+000	 6.161880606535946e-001	 1.435323556175252e+001
 1.164939809979976e+000	 4.973613169928101e-001	 1.574921319251156e+001
 1.159573060379774e+000	 5.097483691623166e-001	 1.564603274902962e+001
 1.154063440608705e+000	 5.221021836003701e-001	 1.552803933517683e+001
 1.148411078980047e+000	 5.344203706993145e-001	 1.539741870535341e+001
 1.142616155560737e+000	 5.467005348259916e-001	 1.525645306921242e+001
 1.136678902563766e+000	 5.589402756857403e-001	 1.510751528081867e+001
 1.130599604698522e+000	 5.711371897061304e-001	 1.495306201039983e+001
 1.124378599478121e+000	 5.832888714389555e-001	 1.479562586987931e+001
 1.118016277482770e+000	 5.953929149789649e-001	 1.463780646925416e+001
 1.111513082578307e+000	 6.074469153977584e-001	 1.448226038726189e+001
 1.104869512089097e+000	 6.194484701912240e-001	 1.433169004663612e+001
 1.046715730642193e+000	 5.868443748208878e-001	 1.453211371311080e+001
 1.040288399370800e+000	 5.981639752992449e-001	 1.433941573371357e+001
 1.033729137081809e+000	 6.094293349560167e-001	 1.413966897363068e+001
 1.027038568530055e+000	 6.206381926269815e-001	 1.393606977306252e+001
 1.020217369346709e+000	 6.317882950541939e-001	 1.373182673005053e+001
 1.013266265976422e+000	 6.428773982974780e-001	 1.353014550966300e+001
 1.006186035567982e+000	 6.539032691487108e-001	 1.333421291250071e+001
 9.989775058181930e-001	 6.648636865471250e-001	 1.314718024888079e+001
 9.916415547687788e-001	 6.757564429938406e-001	 1.296069035226655e+001
 9.841791105561780e-001	 6.865793459638276e-001	 1.275556324890317e+001
 9.765911511141747e-001	 6.973302193134739e-001	 1.253247641073014e+001
 1.052531108788160e+000	 5.901047843585172e-001	 1.451211817999836e+001
 1.046068068335276e+000	 6.014872746504577e-001	 1.432370191766457e+001
 1.039472363878085e+000	 6.128152227678481e-001	 1.412890275132548e+001
 1.032744623642452e+000	 6.240863549838150e-001	 1.393101297845255e+001
 1.025885527013243e+000	 6.352984055216872e-001	 1.373333930552950e+001
 1.018895804471111e+000	 6.464491179743309e-001	 1.353918729399407e+001
 1.011776237482553e+000	 6.575362467262914e-001	 1.335184503445462e+001
 1.004527658342915e+000	 6.685575583769569e-001	 1.317410340301486e+001
 9.971509499721742e-001	 6.795108331629519e-001	 1.298801321756602e+001
 9.896470456633376e-001	 6.903938663779422e-001	 1.278383352378644e+001
 9.820169287834258e-001	 7.012044697880243e-001	 1.256273416509261e+001
 1.058346486933445e+000	 5.933651938957494e-001	 1.449244807405082e+001
 1.051847737299039e+000	 6.048105740012431e-001	 1.430832360535153e+001
 1.045215590673622e+000	 6.162011105792424e-001	 1.411852694970084e+001
 1.038450678754095e+000	 6.275345173402180e-001	 1.392643914220049e+001
 1.031553684679011e+000	 6.388085159887689e-001	 1.373545740920933e+001
 1.024525342965032e+000	 6.500208376507993e-001	 1.354897925917980e+001
 1.017366439396360e+000	 6.611692243035183e-001	 1.337038577074195e+001
 1.010077810866886e+000	 6.722514302064664e-001	 1.319897366883436e+001
 1.002660345174838e+000	 6.832652233317685e-001	 1.301315125036556e+001
 9.951149807697941e-001	 6.942083867917818e-001	 1.281022166972149e+001
 9.874427064520090e-001	 7.050787202623076e-001	 1.259137842413628e+001
 1.064161865078198e+000	 5.966256034326836e-001	 1.447297331137638e+001
 1.057627406262252e+000	 6.081338733517084e-001	 1.429316328607642e+001
 1.050958817468596e+000	 6.195869983903091e-001	 1.410843109249890e+001
 1.044156733865162e+000	 6.309826796962981e-001	 1.392223941943155e+001
 1.037221842344201e+000	 6.423186264555413e-001	 1.373806856928597e+001
 1.030154881458374e+000	 6.535925573269785e-001	 1.355940020192188e+001
 1.022956641309592e+000	 6.648022018804798e-001	 1.338970024468413e+001
 1.015627963390292e+000	 6.759453020357341e-001	 1.322137856707050e+001
 1.008169740376953e+000	 6.870196135003639e-001	 1.303613533953840e+001
 1.000582915875723e+000	 6.980229072054153e-001	 1.283474022014164e+001
 9.928684841200919e-001	 7.089529707363905e-001	 1.261839923888798e+001
 1.069977243222568e+000	 5.998860129694195e-001	 1.445356592903035e+001
 1.063407075225076e+000	 6.114571727019601e-001	 1.427810527376537e+001
 1.056702044263178e+000	 6.229728862011573e-001	 1.409850632817347e+001
 1.049862788975838e+000	 6.344308420521626e-001	 1.391830648298397e+001
 1.042890000008998e+000	 6.458287369221080e-001	 1.374106181404085e+001
 1.035784419951326e+000	 6.571642770029659e-001	 1.357033048717071e+001
 1.028546843222441e+000	 6.684351794572643e-001	 1.340928461046993e+001
 1.021178115913322e+000	 6.796391738648412e-001	 1.324136913952332e+001
 1.013679135578703e+000	 6.907740036688119e-001	 1.305700277236160e+001
 1.006050850981300e+000	 7.018374276189107e-001	 1.285740849192231e+001
 9.982942617878406e-001	 7.128272212103395e-001	 1.264379391642222e+001
 1.075792621366704e+000	 6.031464225060556e-001	 1.443410029265826e+001
 1.069186744187677e+000	 6.147804720521047e-001	 1.426303592796476e+001
 1.062445271057544e+000	 6.263587740118962e-001	 1.408864566102036e+001
 1.055568844086303e+000	 6.378790044079197e-001	 1.391453476152676e+001
 1.048558157673590e+000	 6.493388473885715e-001	 1.374432791387785e+001
 1.041413958444078e+000	 6.607359966788566e-001	 1.358165229109010e+001
 1.034137045135093e+000	 6.720681570339605e-001	 1.342665211625269e+001
 1.026728268436162e+000	 6.833330456938671e-001	 1.325900244203514e+001
 1.019188530780268e+000	 6.945283938371860e-001	 1.307579713380785e+001
 1.011518786086701e+000	 7.056519480323377e-001	 1.287825247213643e+001
 1.003720039455423e+000	 7.167014716842222e-001	 1.266756689196004e+001
 1.081607999510756e+000	 6.064068320426921e-001	 1.441445330309001e+001
 1.074966413150215e+000	 6.181037714022500e-001	 1.424784387345684e+001
 1.068188497851865e+000	 6.297446618226351e-001	 1.407874418069376e+001
 1.061274899196738e+000	 6.413271667636769e-001	 1.391082067592672e+001
 1.054226315338164e+000	 6.528489578550352e-001	 1.374775962156212e+001
 1.047043496936819e+000	 6.643077163547476e-001	 1.359324984226867e+001
 1.039727247047741e+000	 6.757011346106565e-001	 1.344142505862253e+001
 1.032278420959000e+000	 6.870269175228932e-001	 1.327434145268040e+001
 1.024697925981833e+000	 6.982827840055605e-001	 1.309256820471511e+001
 1.016986721192101e+000	 7.094664684457648e-001	 1.289730470405720e+001
 1.009145817123004e+000	 7.205757221581045e-001	 1.268972960065817e+001
 1.087423377654871e+000	 6.096672415794279e-001	 1.439450460192301e+001
 1.080746082112854e+000	 6.214270707525014e-001	 1.423242021854785e+001
 1.073931724646317e+000	 6.331305496334835e-001	 1.406869929017152e+001
 1.066980954307326e+000	 6.447753291195418e-001	 1.390706287392992e+001
 1.059894473002906e+000	 6.563590683216020e-001	 1.375125191072928e+001
 1.052673035429740e+000	 6.678794360307347e-001	 1.360485408361529e+001
 1.045317448960573e+000	 6.793341121874412e-001	 1.345368105869265e+001
 1.037828573482022e+000	 6.907207893519999e-001	 1.328745497859332e+001
 1.030207321183581e+000	 7.020371741740087e-001	 1.310737185887619e+001
 1.022454656297678e+000	 7.132809888592604e-001	 1.291460417243690e+001
 1.014571594790753e+000	 7.244499726320536e-001	 1.271030034910115e+001
 1.093238755799201e+000	 6.129276511163621e-001	 1.437413677613378e+001
 1.086525751075758e+000	 6.247503701029669e-001	 1.421665877207717e+001
 1.079674951441073e+000	 6.365164374445501e-001	 1.405841093222459e+001
 1.072687009418248e+000	 6.482234914756219e-001	 1.390316246322011e+001
 1.065562630668003e+000	 6.598691787883746e-001	 1.375470221272846e+001
 1.058302573923028e+000	 6.714511557069139e-001	 1.361436419336598e+001
 1.050907650873779e+000	 6.829670897644030e-001	 1.346350330333492e+001
 1.043378726005418e+000	 6.944146611812677e-001	 1.329841756148454e+001
 1.035716716385692e+000	 7.057915643426040e-001	 1.312026995908834e+001
 1.027922591403607e+000	 7.170955092728941e-001	 1.293019618808806e+001
 1.019997372458836e+000	 7.283242231061367e-001	 1.272930418650688e+001
 1.099054133943893e+000	 6.161880606535946e-001	 1.435323556175252e+001
 1.092305420039088e+000	 6.280736694537524e-001	 1.420045625919575e+001
 1.085418178236306e+000	 6.399023252559447e-001	 1.404778181444877e+001
 1.078393064529686e+000	 6.516716538320250e-001	 1.389902324291456e+001
 1.071230788333643e+000	 6.633792892554562e-001	 1.375801065186129e+001
 1.063932112416875e+000	 6.750228753833825e-001	 1.362122279768295e+001
 1.056497852787547e+000	 6.866000673416297e-001	 1.347098045661773e+001
 1.048928878529372e+000	 6.981085330107775e-001	 1.330730938189558e+001
 1.041226111588352e+000	 7.095459545114209e-001	 1.313133025220174e+001
 1.033390526510062e+000	 7.209100296867335e-001	 1.294413227179268e+001
 1.025423150127420e+000	 7.321984735804198e-001	 1.274677277565598e+001
 1.104869512089097e+000	 6.194484701912240e-001	 1.433169004663612e+001
 1.098085089003007e+000	 6.313969688049652e-001	 1.418371253595817e+001
 1.091161405032191e+000	 6.432882130677760e-001	 1.403671763290886e+001
 1.084099119641821e+000	 6.551198161888586e-001	 1.389455193355547e+001
 1.076898946000012e+000	 6.668893997229497e-001	 1.376107660158378e+001
 1.069561650911468e+000	 6.785945950602359e-001	 1.362552825595346e+001
 1.062088054702069e+000	 6.902330449192106e-001	 1.347620656984751e+001
 1.054479031054074e+000	 7.018024048406095e-001	 1.331421616223692e+001
 1.046735506791741e+000	 7.133003446805322e-001	 1.314062626320247e+001
 1.038858461617222e+000	 7.247245501008480e-001	 1.295647003756571e+001
 1.030848927796671e+000	 7.360727240549706e-001	 1.276274426355636e+001
 9.765911511141747e-001	 6.973302193134739e-001	 1.253247641073014e+001
 9.688787035538358e-001	 7.080069044459488e-001	 1.230251550702374e+001
 9.610428429529890e-001	 7.186072609821202e-001	 1.207570748102863e+001
 9.530846927590595e-001	 7.291291688273839e-001	 1.185154746198756e+001
 9.450054245837380e-001	 7.395705297771742e-001	 1.162947344945900e+001
 9.368062576740198e-001	 7.499292688767160e-001	 1.140886897446251e+001
 9.284884583374330e-001	 7.602033357655288e-001	 1.118906603091592e+001
 9.200533393219623e-001	 7.703907060048886e-001	 1.096934826093345e+001
 9.115022591512589e-001	 7.804893823864774e-001	 1.074895437521418e+001
 9.028366214158040e-001	 7.904973962204591e-001	 1.052708178750716e+001
 8.940578740207774e-001	 8.004128086012710e-001	 1.030289044003372e+001
 9.820169287834258e-001	 7.012044697880243e-001	 1.256273416509261e+001
 9.742616321499599e-001	 7.119404728035643e-001	 1.233559059304862e+001
 9.663822368137147e-001	 7.225997231538436e-001	 1.211213331864026e+001
 9.583798724637950e-001	 7.331800889653712e-001	 1.189175894922425e+001
 9.502557172211614e-001	 7.436794603763114e-001	 1.167380242680028e+001
 9.420109971067352e-001	 7.540957509037904e-001	 1.145753991256370e+001
 9.336469854634308e-001	 7.644268987958722e-001	 1.124219195849795e+001
 9.251650023326336e-001	 7.746708683663928e-001	 1.102692694883237e+001
 9.165664137857175e-001	 7.848256513108827e-001	 1.081086479173328e+001
 9.078526312112717e-001	 7.948892680017987e-001	 1.059308083925114e+001
 8.990251105587875e-001	 8.048597687613458e-001	 1.037261001133411e+001
 9.874427064520090e-001	 7.050787202623076e-001	 1.259137842413628e+001
 9.796445607454600e-001	 7.158740411609053e-001	 1.236725961732504e+001
 9.717216306738654e-001	 7.265921853252729e-001	 1.214728422373772e+001
 9.636750521680070e-001	 7.372310091030350e-001	 1.193075705316123e+001
 9.555060098581151e-001	 7.477883909750888e-001	 1.171691710259054e+001
 9.472157365390326e-001	 7.582622329304661e-001	 1.150494065543768e+001
 9.388055125890581e-001	 7.686504618257768e-001	 1.129394468411891e+001
 9.302766653429756e-001	 7.789510307274222e-001	 1.108299053810923e+001
 9.216305684198799e-001	 7.891619202347835e-001	 1.087108789698332e+001
 9.128686410064646e-001	 7.992811397826130e-001	 1.065719896550485e+001
 9.039923470965305e-001	 8.093067289208878e-001	 1.044024288551405e+001
 9.928684841200919e-001	 7.089529707363905e-001	 1.261839923888797e+001
 9.850274893404919e-001	 7.198076095180407e-001	 1.239749041340384e+001
 9.770610245335857e-001	 7.305846474964822e-001	 1.218111027547658e+001
 9.689702318718272e-001	 7.412819292404559e-001	 1.196847844906632e+001
 9.607563024947161e-001	 7.518973215735962e-001	 1.175874498034592e+001
 9.524204759710170e-001	 7.624287149568423e-001	 1.155099364293232e+001
 9.439640397144077e-001	 7.728740248553527e-001	 1.134424556244454e+001
 9.353883283530711e-001	 7.832311930880958e-001	 1.113746314174612e+001
 9.266947230538203e-001	 7.934981891583056e-001	 1.092955426555093e+001
 9.178846508014517e-001	 8.036730115630334e-001	 1.071937676050423e+001
 9.089595836340730e-001	 8.137536890800305e-001	 1.050574308442728e+001
 9.982942617878406e-001	 7.128272212103395e-001	 1.264379391642221e+001
 9.904104179352118e-001	 7.237411778750391e-001	 1.242625853592156e+001
 9.824004183930175e-001	 7.345771096675439e-001	 1.221356964058027e+001
 9.742654115753860e-001	 7.453328493777152e-001	 1.200486817036651e+001
 9.660065951310830e-001	 7.560062521719246e-001	 1.179922209916652e+001
 9.576252154027919e-001	 7.665951969830188e-001	 1.159562993752387e+001
 9.491225668395724e-001	 7.770975878847094e-001	 1.139302457027535e+001
 9.404999913630022e-001	 7.875113554485316e-001	 1.119027740972435e+001
 9.317588776876122e-001	 7.978344580815755e-001	 1.098620284219684e+001
 9.229006605963006e-001	 8.080648833431917e-001	 1.077956294314457e+001
 9.139268201714819e-001	 8.182006492389065e-001	 1.056907243343303e+001
 1.003720039455423e+000	 7.167014716842222e-001	 1.266756689196004e+001
 9.957933465297756e-001	 7.276747462319689e-001	 1.245354711849982e+001
 9.877398122523056e-001	 7.385695718385319e-001	 1.224462841996382e+001
 9.795605912788146e-001	 7.493837695148937e-001	 1.203987944684962e+001
 9.712568877673322e-001	 7.601151827701622e-001	 1.183829286630159e+001
 9.628299548344628e-001	 7.707616790090960e-001	 1.163878905395465e+001
 9.542810939646446e-001	 7.813211509139567e-001	 1.144022013588847e+001
 9.456116543728508e-001	 7.917915178088486e-001	 1.124137436062427e+001
 9.368230323213300e-001	 8.021707270047190e-001	 1.104098077818020e+001
 9.279166703910808e-001	 8.124567551232179e-001	 1.083771420041136e+001
 9.188940567088242e-001	 8.226476093976495e-001	 1.063020041422744e+001
 1.009145817123004e+000	 7.205757221581045e-001	 1.268972960065817e+001
 1.001176275124340e+000	 7.316083145888987e-001	 1.247934673177027e+001
 9.930792061115937e-001	 7.425620340095204e-001	 1.227426049582727e+001
 9.848557709822429e-001	 7.534346896520723e-001	 1.207347354359635e+001
 9.765071804035815e-001	 7.642241133684004e-001	 1.187590989061888e+001
 9.680346942661333e-001	 7.749281610351730e-001	 1.168041878986770e+001
 9.594396210897169e-001	 7.855447139432040e-001	 1.148577896939136e+001
 9.507233173827000e-001	 7.960716801691662e-001	 1.129070321417123e+001
 9.418871869550484e-001	 8.065069959278629e-001	 1.109384326839144e+001
 9.329326801858613e-001	 8.168486269032448e-001	 1.089379503141294e+001
 9.238612932461664e-001	 8.270945695563926e-001	 1.068910401799931e+001
 1.014571594790753e+000	 7.244499726320536e-001	 1.271030034910115e+001
 1.006559203719060e+000	 7.355418829458971e-001	 1.250365524151919e+001
 9.984185999710260e-001	 7.465544961805822e-001	 1.230244737920300e+001
 9.901509506858019e-001	 7.574856097893317e-001	 1.210561960061459e+001
 9.817574730399482e-001	 7.683330439667283e-001	 1.191203381694427e+001
 9.732394336979082e-001	 7.790946430613496e-001	 1.172047505740169e+001
 9.645981482148813e-001	 7.897682769725606e-001	 1.152965589404728e+001
 9.558349803926308e-001	 8.003518425296019e-001	 1.133822122469378e+001
 9.469513415888404e-001	 8.108432648511328e-001	 1.114475338926782e+001
 9.379486899807105e-001	 8.212404986834028e-001	 1.094777759199212e+001
 9.288285297835752e-001	 8.315415297152686e-001	 1.074576759889792e+001
 1.019997372458836e+000	 7.283242231061367e-001	 1.272930418650688e+001
 1.011942132314092e+000	 7.394754513030325e-001	 1.252647766694894e+001
 1.003757993830746e+000	 7.505469583517913e-001	 1.232917805793891e+001
 9.954461303896223e-001	 7.615365299267528e-001	 1.213629447314936e+001
 9.870077656765497e-001	 7.724419745652361e-001	 1.194663316123973e+001
 9.784441731298926e-001	 7.832611250877258e-001	 1.175892171570969e+001
 9.697566753402312e-001	 7.939918400021370e-001	 1.157181367853849e+001
 9.609466434027266e-001	 8.046320048902754e-001	 1.138389351546123e+001
 9.520154962227809e-001	 8.151795337746550e-001	 1.119368193745757e+001
 9.429646997756973e-001	 8.256323704638234e-001	 1.099964153989589e+001
 9.337957663211176e-001	 8.359884898744111e-001	 1.080018272780203e+001
 1.025423150127420e+000	 7.321984735804198e-001	 1.274677277565598e+001
 1.017325060909592e+000	 7.434090196603739e-001	 1.254782603905061e+001
 1.009097387690897e+000	 7.545394205232207e-001	 1.235444884510117e+001
 1.000741310093835e+000	 7.655874500644163e-001	 1.216548257264357e+001
 9.922580583135038e-001	 7.765509051640137e-001	 1.197968414658816e+001
 9.836489125621899e-001	 7.874276071144014e-001	 1.179573040436674e+001
 9.749152024658588e-001	 7.982154030320419e-001	 1.161222287013011e+001
 9.660583064130688e-001	 8.089121672513051e-001	 1.142769291386476e+001
 9.570796508569435e-001	 8.195158026985560e-001	 1.124060726920807e+001
 9.479807095708903e-001	 8.300242422446380e-001	 1.104937388048098e+001
 9.387630028588608e-001	 8.404354500339538e-001	 1.085234804637782e+001
 1.030848927796671e+000	 7.360727240549706e-001	 1.276274426355636e+001
 1.022707989505717e+000	 7.473425880179891e-001	 1.256771925908406e+001
 1.014436781551623e+000	 7.585318826949443e-001	 1.237826322778186e+001
 1.006036489798570e+000	 7.696383702024040e-001	 1.219317570832705e+001
 9.975083509509269e-001	 7.806598357631507e-001	 1.201117053995488e+001
 9.888536519949061e-001	 7.915940891414762e-001	 1.183088037763677e+001
 9.800737295918565e-001	 8.024389660623850e-001	 1.165086162870388e+001
 9.711699694237401e-001	 8.131923296128095e-001	 1.146959978741503e+001
 9.621438054914021e-001	 8.238520716229617e-001	 1.128551514045035e+001
 9.529967193663581e-001	 8.344161140259776e-001	 1.109696881293757e+001
 9.437302393968710e-001	 8.448824101940288e-001	 1.090226912141523e+001
 8.940578740207774e-001	 8.004128086012710e-001	 1.030289044003372e+001
 8.851688503052765e-001	 8.102322458949247e-001	 1.007935294344423e+001
 8.761697760389994e-001	 8.199553281727517e-001	 9.859239858538118e+000
 8.670622271925278e-001	 8.295802148305268e-001	 9.641471575121450e+000
 8.578478205858254e-001	 8.391050998512860e-001	 9.424955740441824e+000
 8.485282129332367e-001	 8.485282129332366e-001	 9.208591831668008e+000
 8.391050998512859e-001	 8.578478205858252e-001	 8.991275728025972e+000
 8.295802148305270e-001	 8.670622271925280e-001	 8.771904249678171e+000
 8.199553281727516e-001	 8.761697760389995e-001	 8.549379630092529e+000
 8.102322458949245e-001	 8.851688503052763e-001	 8.322613888575823e+000
 8.004128086012706e-001	 8.940578740207773e-001	 8.090533069859253e+000
 8.990251105587875e-001	 8.048597687613458e-001	 1.037261001133411e+001
 8.900867009089170e-001	 8.147337612121904e-001	 1.015239782013057e+001
 8.810376292857055e-001	 8.245108633148357e-001	 9.935284144391595e+000
 8.718794804155734e-001	 8.341892242389558e-001	 9.720206750156446e+000
 8.626138801012782e-001	 8.437670279336463e-001	 9.506092562031677e+000
 8.532424942616038e-001	 8.532424942616034e-001	 9.291862309237942e+000
 8.437670279336464e-001	 8.626138801012785e-001	 9.076435169692687e+000
 8.341892242389555e-001	 8.718794804155735e-001	 8.858733378206843e+000
 8.245108633148356e-001	 8.810376292857054e-001	 8.637686764512681e+000
 8.147337612121903e-001	 8.900867009089171e-001	 8.412237186754194e+000
 8.048597687613456e-001	 8.990251105587874e-001	 8.181342826280227e+000
 9.039923470965305e-001	 8.093067289208878e-001	 1.044024288551405e+001
 8.950045515122835e-001	 8.192352765289310e-001	 1.022316662699586e+001
 8.859054825321169e-001	 8.290663984564143e-001	 1.000889991844663e+001
 8.766967336382945e-001	 8.387982336469084e-001	 9.796395364843088e+000
 8.673799396163706e-001	 8.484289560155671e-001	 9.584596531865719e+000
 8.579567755895703e-001	 8.579567755895702e-001	 9.372442674150207e+000
 8.484289560155672e-001	 8.673799396163706e-001	 9.158873460271265e+000
 8.387982336469085e-001	 8.766967336382948e-001	 8.942833659483396e+000
 8.290663984564142e-001	 8.859054825321169e-001	 8.723277754861524e+000
 8.192352765289310e-001	 8.950045515122834e-001	 8.499174447382062e+000
 8.093067289208880e-001	 9.039923470965304e-001	 8.269511015689774e+000
 9.089595836340730e-001	 8.137536890800305e-001	 1.050574308442729e+001
 8.999224021154439e-001	 8.237367918452774e-001	 1.029162769409837e+001
 8.907733357783069e-001	 8.336219335976136e-001	 1.008006830605369e+001
 8.815139868607729e-001	 8.434072430545051e-001	 9.870029867799895e+000
 8.721459991311925e-001	 8.530908840971585e-001	 9.660469991305918e+000
 8.626710569172368e-001	 8.626710569172366e-001	 9.450343772160831e+000
 8.530908840971585e-001	 8.721459991311927e-001	 9.238608604478777e+000
 8.434072430545051e-001	 8.815139868607727e-001	 9.024228955483466e+000
 8.336219335976136e-001	 8.907733357783068e-001	 8.806181063291168e+000
 8.237367918452772e-001	 8.999224021154441e-001	 8.583457521294575e+000
 8.137536890800304e-001	 9.089595836340730e-001	 8.355071712748886e+000
 9.139268201714819e-001	 8.182006492389065e-001	 1.056907243343303e+001
 9.048402527184671e-001	 8.282383071613607e-001	 1.035775681289529e+001
 8.956411890243501e-001	 8.381774687385607e-001	 1.014877758261830e+001
 8.863312400830887e-001	 8.480162524618640e-001	 9.941109575870147e+000
 8.769120586458342e-001	 8.577528121785301e-001	 9.733721896319217e+000
 8.673853382447037e-001	 8.673853382447037e-001	 9.525582836863107e+000
 8.577528121785302e-001	 8.769120586458341e-001	 9.315664793548601e+000
 8.480162524618637e-001	 8.863312400830886e-001	 9.102949137373971e+000
 8.381774687385606e-001	 8.956411890243499e-001	 8.886431006322408e+000
 8.282383071613606e-001	 9.048402527184672e-001	 8.665123979842555e+000
 8.182006492389066e-001	 9.139268201714819e-001	 8.438064598184646e+000
 9.188940567088242e-001	 8.226476093976495e-001	 1.063020041422744e+001
 9.097581033214214e-001	 8.327398224773125e-001	 1.042153709928099e+001
 9.005090422703189e-001	 8.427330038793813e-001	 1.021502304624667e+001
 8.911484933053233e-001	 8.526252618691034e-001	 1.000964055579907e+001
 8.816781181603857e-001	 8.624147402597918e-001	 9.804367707630505e+000
 8.720996195720705e-001	 8.720996195720701e-001	 9.598183387787472e+000
 8.624147402597919e-001	 8.816781181603854e-001	 9.390072310771705e+000
 8.526252618691032e-001	 8.911484933053233e-001	 9.179029998013304e+000
 8.427330038793816e-001	 9.005090422703190e-001	 8.964067673845282e+000
 8.327398224773127e-001	 9.097581033214215e-001	 8.744217039961722e+000
 8.226476093976495e-001	 9.188940567088240e-001	 8.518534889519467e+000
 9.238612932461664e-001	 8.270945695563926e-001	 1.068910401799931e+001
 9.146759539243760e-001	 8.372413377932647e-001	 1.048295885665250e+001
 9.053768955162885e-001	 8.472885390202022e-001	 1.027880689014545e+001
 8.959657465275581e-001	 8.572342712763431e-001	 1.007563550541297e+001
 8.864441776749370e-001	 8.670766683410537e-001	 9.872429280152698e+000
 8.768139008994371e-001	 8.768139008994369e-001	 9.668175127573619e+000
 8.670766683410539e-001	 8.864441776749371e-001	 9.461867435925365e+000
 8.572342712763431e-001	 8.959657465275581e-001	 9.252513163174715e+000
 8.472885390202019e-001	 9.053768955162883e-001	 9.039136846699584e+000
 8.372413377932649e-001	 9.146759539243761e-001	 8.820785487693492e+000
 8.270945695563925e-001	 9.238612932461663e-001	 8.596533270141421e+000
 9.288285297835752e-001	 8.315415297152686e-001	 1.074576759889792e+001
 9.195938045273991e-001	 8.417428531093485e-001	 1.054201943899968e+001
 9.102447487623314e-001	 8.518440741611488e-001	 1.034013807478219e+001
 9.007829997498735e-001	 8.618432806837015e-001	 1.013911363432119e+001
 8.912102371895790e-001	 8.717385964224255e-001	 9.937934751718686e+000
 8.815281822269039e-001	 8.815281822269039e-001	 9.735593838247189e+000
 8.717385964224255e-001	 8.912102371895786e-001	 9.531092348629025e+000
 8.618432806837018e-001	 9.007829997498740e-001	 9.323446001539194e+000
 8.518440741611489e-001	 9.102447487623314e-001	 9.111689912884495e+000
 8.417428531093484e-001	 9.195938045273991e-001	 8.894883600214520e+000
 8.315415297152689e-001	 9.288285297835753e-001	 8.672115816778128e+000
 9.337957663211176e-001	 8.359884898744111e-001	 1.080018272780203e+001
 9.245116551305598e-001	 8.462443684256946e-001	 1.059872311402096e+001
 9.151126020085214e-001	 8.563996093023485e-001	 1.039903219981827e+001
 9.056002529723518e-001	 8.664522900912982e-001	 1.020010054415661e+001
 8.959762967044006e-001	 8.764005245040168e-001	 1.000091843114439e+001
 8.862424635545708e-001	 8.862424635545707e-001	 9.800481276636248e+000
 8.764005245040168e-001	 8.959762967044006e-001	 9.597795030670207e+000
 8.664522900912983e-001	 9.056002529723519e-001	 9.391881533506590e+000
 8.563996093023485e-001	 9.151126020085215e-001	 9.181783782450642e+000
 8.462443684256946e-001	 9.245116551305599e-001	 8.966571066429490e+000
 8.359884898744114e-001	 9.337957663211177e-001	 8.745343925432229e+000
 9.387630028588608e-001	 8.404354500339538e-001	 1.085234804637782e+001
 9.294295057339259e-001	 8.507458837424352e-001	 1.065308092626041e+001
 9.199804552549330e-001	 8.609551444439272e-001	 1.045551137582015e+001
 9.104175061950732e-001	 8.710612994992514e-001	 1.025862810837335e+001
 9.007423562194932e-001	 8.810624525859377e-001	 1.006142068564424e+001
 8.909567448825375e-001	 8.909567448825372e-001	 9.862885068958791e+000
 8.810624525859379e-001	 9.007423562194930e-001	 9.662029167336849e+000
 8.710612994992515e-001	 9.104175061950734e-001	 9.457878338865481e+000
 8.609551444439271e-001	 9.199804552549327e-001	 9.249480801123667e+000
 8.507458837424350e-001	 9.294295057339259e-001	 9.035912906183055e+000
 8.404354500339534e-001	 9.387630028588607e-001	 8.816284235835655e+000
 9.437302393968710e-001	 8.448824101940288e-001	 1.090226912141523e+001
 9.343473563375667e-001	 8.552473990597010e-001	 1.070511056027084e+001
 9.248483085016389e-001	 8.655106795860112e-001	 1.050960409575865e+001
 9.152347594181193e-001	 8.756703089076804e-001	 1.031473435161738e+001
 9.055084157349460e-001	 8.857243806682982e-001	 1.011948782762531e+001
 8.956710262109042e-001	 8.956710262109041e-001	 9.922858604612413e+000
 8.857243806682983e-001	 9.055084157349460e-001	 9.723854047791964e+000
 8.756703089076804e-001	 9.152347594181193e-001	 9.521500463365443e+000
 8.655106795860115e-001	 9.248483085016390e-001	 9.314848662704559e+000
 8.552473990597013e-001	 9.343473563375669e-001	 9.102979388137618e+000
 8.448824101940289e-001	 9.437302393968712e-001	 8.885008554478667e+000
 8.004128086012706e-001	 8.940578740207773e-001	 8.090533069859253e+000
 7.904973962204593e-001	 9.028366214158040e-001	 7.858576480327331e+000
 7.804893823864771e-001	 9.115022591512587e-001	 7.632584522332389e+000
 7.703907060048888e-001	 9.200533393219624e-001	 7.412023702506944e+000
 7.602033357655288e-001	 9.284884583374330e-001	 7.196404329597865e+000
 7.499292688767163e-001	 9.368062576740198e-001	 6.985282273426120e+000
 7.395705297771745e-001	 9.450054245837380e-001	 6.778260387216355e+000
 7.291291688273840e-001	 9.530846927590595e-001	 6.574989572518124e+000
 7.186072609821200e-001	 9.610428429529889e-001	 6.375169468285066e+000
 7.080069044459487e-001	 9.688787035538357e-001	 6.178548748223770e+000
 6.973302193134738e-001	 9.765911511141745e-001	 5.984925013246873e+000
 8.048597687613456e-001	 8.990251105587874e-001	 8.181342826280229e+000
 7.948892680017989e-001	 9.078526312112717e-001	 7.950593365791973e+000
 7.848256513108828e-001	 9.165664137857176e-001	 7.725907806570929e+000
 7.746708683663930e-001	 9.251650023326336e-001	 7.506680259738462e+000
 7.644268987958722e-001	 9.336469854634308e-001	 7.292349973623019e+000
 7.540957509037907e-001	 9.420109971067353e-001	 7.082403302002073e+000
 7.436794603763114e-001	 9.502557172211616e-001	 6.876375325029239e+000
 7.331800889653711e-001	 9.583798724637946e-001	 6.673851100838019e+000
 7.225997231538436e-001	 9.663822368137148e-001	 6.474466528229494e+000
 7.119404728035642e-001	 9.742616321499600e-001	 6.277908803478820e+000
 7.012044697880243e-001	 9.820169287834258e-001	 6.083916457106352e+000
 8.093067289208880e-001	 9.039923470965304e-001	 8.269511015689774e+000
 7.992811397826130e-001	 9.128686410064647e-001	 8.040015855039915e+000
 7.891619202347836e-001	 9.216305684198799e-001	 7.816677528446800e+000
 7.789510307274221e-001	 9.302766653429757e-001	 7.598818623777158e+000
 7.686504618257768e-001	 9.388055125890579e-001	 7.385808171755570e+000
 7.582622329304659e-001	 9.472157365390325e-001	 7.177063827436056e+000
 7.477883909750888e-001	 9.555060098581147e-001	 6.972053693587361e+000
 7.372310091030349e-001	 9.636750521680069e-001	 6.770297762714615e+000
 7.265921853252728e-001	 9.717216306738659e-001	 6.571368956934820e+000
 7.158740411609051e-001	 9.796445607454598e-001	 6.374893747626071e+000
 7.050787202623076e-001	 9.874427064520092e-001	 6.180552339675359e+000
 8.137536890800304e-001	 9.089595836340730e-001	 8.355071712748886e+000
 8.036730115630335e-001	 9.178846508014517e-001	 8.126879117118243e+000
 7.934981891583057e-001	 9.266947230538201e-001	 7.904928814365650e+000
 7.832311930880956e-001	 9.353883283530714e-001	 7.688472726158633e+000
 7.728740248553526e-001	 9.439640397144080e-001	 7.476810494809206e+000
 7.624287149568421e-001	 9.524204759710164e-001	 7.269291882061222e+000
 7.518973215735962e-001	 9.607563024947160e-001	 7.065318798932603e+000
 7.412819292404561e-001	 9.689702318718272e-001	 6.864346942026585e+000
 7.305846474964821e-001	 9.770610245335858e-001	 6.665887014302527e+000
 7.198076095180406e-001	 9.850274893404918e-001	 6.469505511074719e+000
 7.089529707363904e-001	 9.928684841200918e-001	 6.274825055012617e+000
 8.182006492389066e-001	 9.139268201714819e-001	 8.438064598184646e+000
 8.080648833431916e-001	 9.229006605963006e-001	 8.211223830753598e+000
 7.978344580815755e-001	 9.317588776876121e-001	 7.990702221701672e+000
 7.875113554485315e-001	 9.404999913630022e-001	 7.775681868132517e+000
 7.770975878847094e-001	 9.491225668395724e-001	 7.565393839263641e+000
 7.665951969830188e-001	 9.576252154027919e-001	 7.359120796767417e+000
 7.560062521719247e-001	 9.660065951310830e-001	 7.156199235208923e+000
 7.453328493777151e-001	 9.742654115753862e-001	 6.956021316656596e+000
 7.345771096675436e-001	 9.824004183930175e-001	 6.758036276185454e+000
 7.237411778750392e-001	 9.904104179352118e-001	 6.561751377859120e+000
 7.128272212103395e-001	 9.982942617878406e-001	 6.366732403872669e+000
 8.226476093976495e-001	 9.188940567088240e-001	 8.518534889519462e+000
 8.124567551232180e-001	 9.279166703910811e-001	 8.293096120350954e+000
 8.021707270047190e-001	 9.368230323213301e-001	 8.074043679671123e+000
 7.917915178088487e-001	 9.456116543728511e-001	 7.860490665993312e+000
 7.813211509139568e-001	 9.542810939646449e-001	 7.651600376628868e+000
 7.707616790090960e-001	 9.628299548344628e-001	 7.446589153962857e+000
 7.601151827701622e-001	 9.712568877673321e-001	 7.244728840773062e+000
 7.493837695148937e-001	 9.795605912788143e-001	 7.045348817288567e+000
 7.385695718385317e-001	 9.877398122523057e-001	 6.847837595398503e+000
 7.276747462319690e-001	 9.957933465297759e-001	 6.651643948376854e+000
 7.167014716842219e-001	 1.003720039455422e+000	 6.456277557681886e+000
 8.270945695563925e-001	 9.238612932461663e-001	 8.596533270141416e+000
 8.168486269032447e-001	 9.329326801858612e-001	 8.372547490240477e+000
 8.065069959278631e-001	 9.418871869550483e-001	 8.155004428370654e+000
 7.960716801691661e-001	 9.507233173826999e-001	 7.942948994518485e+000
 7.855447139432040e-001	 9.594396210897170e-001	 7.735477500874525e+000
 7.749281610351729e-001	 9.680346942661333e-001	 7.531740738573384e+000
 7.642241133684004e-001	 9.765071804035813e-001	 7.330946652329955e+000
 7.534346896520722e-001	 9.848557709822429e-001	 7.132362584236257e+000
 7.425620340095203e-001	 9.930792061115941e-001	 6.935317060784594e+000
 7.316083145888987e-001	 1.001176275124340e+000	 6.739201100228330e+000
 7.205757221581045e-001	 1.009145817123005e+000	 6.543469020670516e+000
 8.315415297152689e-001	 9.288285297835753e-001	 8.672115816778128e+000
 8.212404986834028e-001	 9.379486899807105e-001	 8.449634757237741e+000
 8.108432648511330e-001	 9.469513415888402e-001	 8.233640956056700e+000
 8.003518425296021e-001	 9.558349803926309e-001	 8.023111928588149e+000
 7.897682769725606e-001	 9.645981482148813e-001	 7.817077773995450e+000
 7.790946430613499e-001	 9.732394336979086e-001	 7.614624487151429e+000
 7.683330439667285e-001	 9.817574730399483e-001	 7.414896857169648e+000
 7.574856097893313e-001	 9.901509506858018e-001	 7.217100922378825e+000
 7.465544961805821e-001	 9.984185999710260e-001	 7.020505954411470e+000
 7.355418829458970e-001	 1.006559203719059e+000	 6.824445947222685e+000
 7.244499726320537e-001	 1.014571594790753e+000	 6.628320590231007e+000
 8.359884898744114e-001	 9.337957663211177e-001	 8.745343925432225e+000
 8.256323704638237e-001	 9.429646997756973e-001	 8.524419981576896e+000
 8.151795337746554e-001	 9.520154962227808e-001	 8.310014934728208e+000
 8.046320048902754e-001	 9.609466434027266e-001	 8.101039683048155e+000
 7.939918400021369e-001	 9.697566753402316e-001	 7.896458869783769e+000
 7.832611250877259e-001	 9.784441731298925e-001	 7.695294435165528e+000
 7.724419745652361e-001	 9.870077656765497e-001	 7.496628743573641e+000
 7.615365299267528e-001	 9.954461303896223e-001	 7.299607254274228e+000
 7.505469583517910e-001	 1.003757993830746e+000	 7.103440706966651e+000
 7.394754513030325e-001	 1.011942132314092e+000	 6.907406796622361e+000
 7.283242231061368e-001	 1.019997372458836e+000	 6.710851315568022e+000
 8.404354500339534e-001	 9.387630028588607e-001	 8.816284235835655e+000
 8.300242422446381e-001	 9.479807095708903e-001	 8.596970396281938e+000
 8.195158026985561e-001	 9.570796508569432e-001	 8.384193154073749e+000
 8.089121672513049e-001	 9.660583064130689e-001	 8.176797550889260e+000
 7.982154030320419e-001	 9.749152024658589e-001	 7.973683515873222e+000
 7.874276071144015e-001	 9.836489125621905e-001	 7.773809662538189e+000
 7.765509051640136e-001	 9.922580583135034e-001	 7.576196649460891e+000
 7.655874500644164e-001	 1.000741310093835e+000	 7.379930071514957e+000
 7.545394205232205e-001	 1.009097387690897e+000	 7.184162851418308e+000
 7.434090196603738e-001	 1.017325060909592e+000	 6.988117104690721e+000
 7.321984735804198e-001	 1.025423150127420e+000	 6.791085454702088e+000
 8.448824101940289e-001	 9.437302393968712e-001	 8.885008554478667e+000
 8.344161140259777e-001	 9.529967193663582e-001	 8.667358335029689e+000
 8.238520716229620e-001	 9.621438054914022e-001	 8.456247453847547e+000
 8.131923296128095e-001	 9.711699694237402e-001	 8.250455839797846e+000
 8.024389660623853e-001	 9.800737295918567e-001	 8.048819434119110e+000
 7.915940891414762e-001	 9.888536519949059e-001	 7.850234237496535e+000
 7.806598357631508e-001	 9.975083509509268e-001	 7.653659909337794e+000
 7.696383702024038e-001	 1.006036489798570e+000	 7.458122884396319e+000
 7.585318826949441e-001	 1.014436781551623e+000	 7.262718975006390e+000
 7.473425880179889e-001	 1.022707989505716e+000	 7.066615430602888e+000
 7.360727240549704e-001	 1.030848927796671e+000	 6.869052429890202e+000
 6.973302193134738e-001	 9.765911511141745e-001	 5.984925013246873e+000
 6.865793459638276e-001	 9.841791105561778e-001	 5.790816240872485e+000
 6.757564429938407e-001	 9.916415547687792e-001	 5.593544669933319e+000
 6.648636865471249e-001	 9.989775058181928e-001	 5.394136186936708e+000
 6.539032691487107e-001	 1.006186035567982e+000	 5.191461531783135e+000
 6.428773982974777e-001	 1.013266265976422e+000	 4.986905943802924e+000
 6.317882950541940e-001	 1.020217369346709e+000	 4.783630790836839e+000
 6.206381926269818e-001	 1.027038568530055e+000	 4.584893549744116e+000
 6.094293349560167e-001	 1.033729137081809e+000	 4.394027374406115e+000
 5.981639752992450e-001	 1.040288399370800e+000	 4.214421081795991e+000
 5.868443748208878e-001	 1.046715730642193e+000	 4.049499671666733e+000
 7.012044697880243e-001	 9.820169287834258e-001	 6.083916457106352e+000
 6.903938663779422e-001	 9.896470456633377e-001	 5.889075730826033e+000
 6.795108331629520e-001	 9.971509499721744e-001	 5.690879711091950e+000
 6.685575583769566e-001	 1.004527658342915e+000	 5.490513490473769e+000
 6.575362467262915e-001	 1.011776237482553e+000	 5.287896144645264e+000
 6.464491179743307e-001	 1.018895804471111e+000	 5.082926201015029e+000
 6.352984055216870e-001	 1.025885527013243e+000	 4.878832789753637e+000
 6.240863549838152e-001	 1.032744623642452e+000	 4.679007966328841e+000
 6.128152227678479e-001	 1.039472363878085e+000	 4.486921530866763e+000
 6.014872746504577e-001	 1.046068068335276e+000	 4.306100214730601e+000
 5.901047843585173e-001	 1.052531108788160e+000	 4.140107425980547e+000
 7.050787202623076e-001	 9.874427064520092e-001	 6.180552339675359e+000
 6.942083867917818e-001	 9.951149807697939e-001	 5.985013769316756e+000
 6.832652233317688e-001	 1.002660345174838e+000	 5.785951899314826e+000
 6.722514302064664e-001	 1.010077810866886e+000	 5.584645720317525e+000
 6.611692243035184e-001	 1.017366439396360e+000	 5.381930307434006e+000
 6.500208376507992e-001	 1.024525342965033e+000	 5.176852852155462e+000
 6.388085159887688e-001	 1.031553684679011e+000	 4.972236341977840e+000
 6.275345173402185e-001	 1.038450678754095e+000	 4.771602273213686e+000
 6.162011105792423e-001	 1.045215590673622e+000	 4.578551923352770e+000
 6.048105740012429e-001	 1.051847737299039e+000	 4.396744730443980e+000
 5.933651938957493e-001	 1.058346486933445e+000	 4.229877257380331e+000
 7.089529707363904e-001	 9.928684841200918e-001	 6.274825055012617e+000
 6.980229072054152e-001	 1.000582915875723e+000	 6.078611938406536e+000
 6.870196135003641e-001	 1.008169740376953e+000	 5.878730738118853e+000
 6.759453020357341e-001	 1.015627963390292e+000	 5.676548326571899e+000
 6.648022018804798e-001	 1.022956641309593e+000	 5.473438363462435e+000
 6.535925573269784e-001	 1.030154881458374e+000	 5.268548404651901e+000
 6.423186264555412e-001	 1.037221842344201e+000	 5.063691503533315e+000
 6.309826796962978e-001	 1.044156733865162e+000	 4.862513649319647e+000
 6.195869983903091e-001	 1.050958817468596e+000	 4.668742615773622e+000
 6.081338733517085e-001	 1.057627406262252e+000	 4.486165525115652e+000
 5.966256034326836e-001	 1.064161865078198e+000	 4.318607023647125e+000
 7.128272212103395e-001	 9.982942617878406e-001	 6.366732403872669e+000
 7.018374276189108e-001	 1.006050850981300e+000	 6.169857296514145e+000
 6.907740036688120e-001	 1.013679135578703e+000	 5.969191293178511e+000
 6.796391738648413e-001	 1.021178115913322e+000	 5.766183248061509e+000
 6.684351794572643e-001	 1.028546843222441e+000	 5.562356114507804e+000
 6.571642770029660e-001	 1.035784419951326e+000	 5.357881089449825e+000
 6.458287369221077e-001	 1.042890000008998e+000	 5.153053778336195e+000
 6.344308420521626e-001	 1.049862788975838e+000	 4.951584454631327e+000
 6.229728862011571e-001	 1.056702044263178e+000	 4.757322594381377e+000
 6.114571727019600e-001	 1.063407075225076e+000	 4.574178165923619e+000
 5.998860129694195e-001	 1.069977243222568e+000	 4.406099008807502e+000
 7.167014716842219e-001	 1.003720039455422e+000	 6.456277557681886e+000
 7.056519480323378e-001	 1.011518786086701e+000	 6.258742343081457e+000
 6.945283938371861e-001	 1.019188530780268e+000	 6.057314157133323e+000
 6.833330456938668e-001	 1.026728268436161e+000	 5.853518049383686e+000
 6.720681570339605e-001	 1.034137045135093e+000	 5.648957642523645e+000
 6.607359966788565e-001	 1.041413958444078e+000	 5.444725109702838e+000
 6.493388473885715e-001	 1.048558157673590e+000	 5.240184354469206e+000
 6.378790044079199e-001	 1.055568844086303e+000	 5.038662453796557e+000
 6.263587740118961e-001	 1.062445271057544e+000	 4.844125978521956e+000
 6.147804720521048e-001	 1.069186744187677e+000	 4.660603088850822e+000
 6.031464225060558e-001	 1.075792621366704e+000	 4.492160107982392e+000
 7.205757221581045e-001	 1.009145817123005e+000	 6.543469020670516e+000
 7.094664684457646e-001	 1.016986721192101e+000	 6.345264981473857e+000
 6.982827840055605e-001	 1.024697925981833e+000	 6.143085412723631e+000
 6.870269175228931e-001	 1.032278420959000e+000	 5.938525883805438e+000
 6.757011346106565e-001	 1.039727247047741e+000	 5.733265065431220e+000
 6.643077163547475e-001	 1.047043496936819e+000	 5.528960888168308e+000
 6.528489578550352e-001	 1.054226315338164e+000	 5.324950339319336e+000
 6.413271667636771e-001	 1.061274899196738e+000	 5.123601038748872e+000
 6.297446618226349e-001	 1.068188497851865e+000	 4.928992230568627e+000
 6.181037714022498e-001	 1.074966413150215e+000	 4.745265795840885e+000
 6.064068320426922e-001	 1.081607999510756e+000	 4.576602011758783e+000
 7.244499726320537e-001	 1.014571594790753e+000	 6.628320590231007e+000
 7.132809888592606e-001	 1.022454656297678e+000	 6.429428480182902e+000
 7.020371741740088e-001	 1.030207321183580e+000	 6.226496594321241e+000
 6.907207893519997e-001	 1.037828573482023e+000	 6.021185454658301e+000
 6.793341121874413e-001	 1.045317448960573e+000	 5.815243269283102e+000
 6.678794360307346e-001	 1.052673035429740e+000	 5.610500606593330e+000
 6.563590683216020e-001	 1.059894473002906e+000	 5.407224993615458e+000
 6.447753291195421e-001	 1.066980954307326e+000	 5.206259450381412e+000
 6.331305496334834e-001	 1.073931724646318e+000	 5.011766365067146e+000
 6.214270707525015e-001	 1.080746082112855e+000	 4.827997051329130e+000
 6.096672415794278e-001	 1.087423377654871e+000	 4.659241390095912e+000
 7.283242231061368e-001	 1.019997372458836e+000	 6.710851315568022e+000
 7.170955092728941e-001	 1.027922591403607e+000	 6.511241432388617e+000
 7.057915643426040e-001	 1.035716716385692e+000	 6.307544647909938e+000
 6.944146611812675e-001	 1.043378726005417e+000	 6.101480975292968e+000
 6.829670897644029e-001	 1.050907650873778e+000	 5.894862757492519e+000
 6.714511557069139e-001	 1.058302573923028e+000	 5.689589182585404e+000
 6.598691787883746e-001	 1.065562630668003e+000	 5.486887964411812e+000
 6.482234914756222e-001	 1.072687009418248e+000	 5.286502999312766e+000
 6.365164374445500e-001	 1.079674951441073e+000	 5.092299157125014e+000
 6.247503701029669e-001	 1.086525751075758e+000	 4.908633078170145e+000
 6.129276511163623e-001	 1.093238755799201e+000	 4.739900075787418e+000
 7.321984735804198e-001	 1.025423150127420e+000	 6.791085454702088e+000
 7.209100296867333e-001	 1.033390526510062e+000	 6.590717713948943e+000
 7.095459545114207e-001	 1.041226111588351e+000	 6.386231889577574e+000
 6.981085330107774e-001	 1.048928878529372e+000	 6.179402127642241e+000
 6.866000673416297e-001	 1.056497852787547e+000	 5.972099609087543e+000
 6.750228753833824e-001	 1.063932112416875e+000	 5.766286917566645e+000
 6.633792892554562e-001	 1.071230788333643e+000	 5.563825517054488e+000
 6.516716538320250e-001	 1.078393064529686e+000	 5.364203285776943e+000
 6.399023252559447e-001	 1.085418178236306e+000	 5.170447350068397e+000
 6.280736694537525e-001	 1.092305420039088e+000	 4.987015752985045e+000
 6.161880606535946e-001	 1.099054133943893e+000	 4.818405247494326e+000
 7.360727240549704e-001	 1.030848927796671e+000	 6.869052429890202e+000
 7.247245501008481e-001	 1.038858461617221e+000	 6.667876439868686e+000
 7.133003446805322e-001	 1.046735506791741e+000	 6.462565962571330e+000
 7.018024048406094e-001	 1.054479031054074e+000	 6.254944019446695e+000
 6.902330449192106e-001	 1.062088054702070e+000	 6.046935435736411e+000
 6.785945950602358e-001	 1.069561650911468e+000	 5.840561072168268e+000
 6.668893997229497e-001	 1.076898946000012e+000	 5.637931419753938e+000
 6.551198161888586e-001	 1.084099119641821e+000	 5.439238418667690e+000
 6.432882130677762e-001	 1.091161405032191e+000	 5.246073862398439e+000
 6.313969688049654e-001	 1.098085089003007e+000	 5.062992800952223e+000
 6.194484701912242e-001	 1.104869512089097e+000	 4.894589612365325e+000
 5.868443748208878e-001	 1.046715730642193e+000	 4.049499671666732e+000
 5.754745107252709e-001	 1.053009622962143e+000	 3.890495005383944e+000
 5.640549614308797e-001	 1.059170528235776e+000	 3.727540003243927e+000
 5.525880029883279e-001	 1.065197975315034e+000	 3.562465879456888e+000
 5.410759137449159e-001	 1.071091543696645e+000	 3.397052349797673e+000
 5.295209729733791e-001	 1.076850863358325e+000	 3.233016618506756e+000
 5.179254595134631e-001	 1.082475614551749e+000	 3.072003388311644e+000
 5.062916504278681e-001	 1.087965527553038e+000	 2.915575938733674e+000
 4.946218196740463e-001	 1.093320382371615e+000	 2.765208308254473e+000
 4.829182367932998e-001	 1.098540008418292e+000	 2.622278606316350e+000
 4.711831656185745e-001	 1.103624284133538e+000	 2.488063471618326e+000
 5.901047843585173e-001	 1.052531108788160e+000	 4.140107425980547e+000
 5.786717511930367e-001	 1.058859968925060e+000	 3.980011588585587e+000
 5.671887567860980e-001	 1.065055103161805e+000	 3.815724584491075e+000
 5.556580898336716e-001	 1.071116037732701e+000	 3.649128380970478e+000
 5.440820413411763e-001	 1.077042349798221e+000	 3.482050958661243e+000
 5.324629032446050e-001	 1.082833667280287e+000	 3.316254893100752e+000
 5.208029670445573e-001	 1.088489668654092e+000	 3.153427000694558e+000
 5.091045224547135e-001	 1.094010082697206e+000	 2.995169095798897e+000
 4.973698560662537e-001	 1.099394688196809e+000	 2.842989895651073e+000
 4.856012500296730e-001	 1.104643313615936e+000	 2.698298099945403e+000
 4.738009807553952e-001	 1.109755836719682e+000	 2.562396661996876e+000
 5.933651938957493e-001	 1.058346486933445e+000	 4.229877257380331e+000
 5.818689916604579e-001	 1.064710314887335e+000	 4.068844917252823e+000
 5.703225521410431e-001	 1.070939678087233e+000	 3.903337679571612e+000
 5.587281766788282e-001	 1.077034100149815e+000	 3.735295902126452e+000
 5.470881689373441e-001	 1.082993155899291e+000	 3.566603394827332e+000
 5.354048335158376e-001	 1.088816471201787e+000	 3.399075571825152e+000
 5.236804745757573e-001	 1.094503722756014e+000	 3.234448710802238e+000
 5.119173944817583e-001	 1.100054637840989e+000	 3.074370367685789e+000
 5.001178924587446e-001	 1.105468994021645e+000	 2.920390984737994e+000
 4.882842632663986e-001	 1.110746618813241e+000	 2.773956719685963e+000
 4.764187958926178e-001	 1.115887389305492e+000	 2.636403513338078e+000
 5.966256034326836e-001	 1.064161865078198e+000	 4.318607023647130e+000
 5.850662321276202e-001	 1.070560660849099e+000	 4.156780773295808e+000
 5.734563474957833e-001	 1.076824253012177e+000	 3.990154638502610e+000
 5.617982635238441e-001	 1.082952162566470e+000	 3.820734959097891e+000
 5.500942965334423e-001	 1.088943961999928e+000	 3.650468887908838e+000
 5.383467637870756e-001	 1.094799275122880e+000	 3.481232089228300e+000
 5.265579821070365e-001	 1.100517776857554e+000	 3.314817588645898e+000
 5.147302665089530e-001	 1.106099192984409e+000	 3.152925824124829e+000
 5.028659288514479e-001	 1.111543299846135e+000	 2.997155937557538e+000
 4.909672765033884e-001	 1.116849924010210e+000	 2.848998335362469e+000
 4.790366110301419e-001	 1.122018941890968e+000	 2.709828536119958e+000
 5.998860129694195e-001	 1.069977243222568e+000	 4.406099008807502e+000
 5.882634725946107e-001	 1.076411006810486e+000	 4.243609111707544e+000
 5.765901428503867e-001	 1.082708827936749e+000	 4.075954710805971e+000
 5.648683503687664e-001	 1.088870224982760e+000	 3.905215677292918e+000
 5.531004241294943e-001	 1.094894768100207e+000	 3.733409973445164e+000
 5.412886940583167e-001	 1.100782079043621e+000	 3.562480873015432e+000
 5.294354896383688e-001	 1.106531830958747e+000	 3.394285378655778e+000
 5.175431385362471e-001	 1.112143748127488e+000	 3.230583887964408e+000
 5.056139652442926e-001	 1.117617605670288e+000	 3.073031148708812e+000
 4.936502897405545e-001	 1.122953229206843e+000	 2.923168532745480e+000
 4.816544261678670e-001	 1.128150494476111e+000	 2.782417647202293e+000
 6.031464225060558e-001	 1.075792621366704e+000	 4.492160107982392e+000
 5.914607130615146e-001	 1.082261352771629e+000	 4.329124232915172e+000
 5.797239382049221e-001	 1.088593402861064e+000	 4.160521206195164e+000
 5.679384372136416e-001	 1.094788287398780e+000	 3.988511941167062e+000
 5.561065517255234e-001	 1.100845574200203e+000	 3.815192632584105e+000
 5.442306243295598e-001	 1.106764882964066e+000	 3.642581474292653e+000
 5.323129971697274e-001	 1.112545885059633e+000	 3.472606621133309e+000
 5.203560105635914e-001	 1.118188303270249e+000	 3.307095448422696e+000
 5.083620016372082e-001	 1.123691911494114e+000	 3.147765150948316e+000
 4.963333029778085e-001	 1.129056534403145e+000	 2.996214711991327e+000
 4.842722413056925e-001	 1.134282047060920e+000	 2.853918261550390e+000
 6.064068320426922e-001	 1.081607999510756e+000	 4.576602011758783e+000
 5.946579535284186e-001	 1.088111698732658e+000	 4.413124954806671e+000
 5.828577335594574e-001	 1.094477977785235e+000	 4.243641655073645e+000
 5.710085240585168e-001	 1.100706349814624e+000	 4.070401543955610e+000
 5.591126793215522e-001	 1.106796380299988e+000	 3.895586431768612e+000
 5.471725546008029e-001	 1.112747686884270e+000	 3.721296697886801e+000
 5.351905047010859e-001	 1.118559939160247e+000	 3.549538773831791e+000
 5.231688825909353e-001	 1.124232858412713e+000	 3.382213974512489e+000
 5.111100380301239e-001	 1.129766217317624e+000	 3.221108720988293e+000
 4.990163162150625e-001	 1.135159839599118e+000	 3.067886186299098e+000
 4.868900564435181e-001	 1.140413599645397e+000	 2.924079384183157e+000
 6.096672415794278e-001	 1.087423377654871e+000	 4.659241390095912e+000
 5.978551939954088e-001	 1.093962044693708e+000	 4.495414784448124e+000
 5.859915289140609e-001	 1.100362552709378e+000	 4.325107968844037e+000
 5.740786109034388e-001	 1.106624412230385e+000	 4.150666337326022e+000
 5.621188069176043e-001	 1.112747186399639e+000	 3.974364662434133e+000
 5.501144848720442e-001	 1.118730490804286e+000	 3.798392732742746e+000
 5.380680122324182e-001	 1.124573993260627e+000	 3.624842333665093e+000
 5.259817546182297e-001	 1.130277413554903e+000	 3.455695628630280e+000
 5.138580744229687e-001	 1.135840523140828e+000	 3.292814985487428e+000
 5.016993294522284e-001	 1.141263144794765e+000	 3.137934280773932e+000
 4.895078715812429e-001	 1.146545152229540e+000	 2.992651702333899e+000
 6.129276511163623e-001	 1.093238755799201e+000	 4.739900075787418e+000
 6.010524344625714e-001	 1.099812390654911e+000	 4.575802089499156e+000
 5.891253242688013e-001	 1.106247127633605e+000	 4.404716600043986e+000
 5.771486977484548e-001	 1.112542474646159e+000	 4.229092380955166e+000
 5.651249345137026e-001	 1.118697992499229e+000	 4.051304480709915e+000
 5.530564151432820e-001	 1.124713294724171e+000	 3.873639282389563e+000
 5.409455197636974e-001	 1.130588047360811e+000	 3.698280958540284e+000
 5.287946266454241e-001	 1.136321968696841e+000	 3.527299380303373e+000
 5.166061108156720e-001	 1.141914828963736e+000	 3.362639527222378e+000
 5.043823426892181e-001	 1.147366449990088e+000	 3.206112431489067e+000
 4.921256867187671e-001	 1.152676704813351e+000	 3.059387677821233e+000
 6.161880606535946e-001	 1.099054133943893e+000	 4.818405247494326e+000
 6.042496749299927e-001	 1.105662736616400e+000	 4.654100269338331e+000
 5.922591196237464e-001	 1.112131702558031e+000	 4.482268702309072e+000
 5.802187845936114e-001	 1.118460537062040e+000	 4.305470092032879e+000
 5.681310621098703e-001	 1.124648798598832e+000	 4.126187047126741e+000
 5.559983454145147e-001	 1.130696098643979e+000	 3.946809695479126e+000
 5.438230272948973e-001	 1.136602101460835e+000	 3.769621589305780e+000
 5.316074986724690e-001	 1.142366523838548e+000	 3.596787120092189e+000
 5.193541472081625e-001	 1.147989134786358e+000	 3.430340491440407e+000
 5.070653559259435e-001	 1.153469755185090e+000	 3.272176284741469e+000
 4.947435018559895e-001	 1.158808257396830e+000	 3.124041639613650e+000
 6.194484701912242e-001	 1.104869512089097e+000	 4.894589612365325e+000
 6.074469153977586e-001	 1.111513082578307e+000	 4.730127925914137e+000
 5.953929149789650e-001	 1.118016277482769e+000	 4.557570290171580e+000
 5.832888714389555e-001	 1.124378599478121e+000	 4.379594394694272e+000
 5.711371897061307e-001	 1.130599604698523e+000	 4.198797666333471e+000
 5.589402756857406e-001	 1.136678902563766e+000	 4.017681096391163e+000
 5.467005348259916e-001	 1.142616155560737e+000	 3.838634571813374e+000
 5.344203706993144e-001	 1.148411078980047e+000	 3.663923773638150e+000
 5.221021836003700e-001	 1.154063440608706e+000	 3.495678692380570e+000
 5.097483691623167e-001	 1.159573060379774e+000	 3.335883796489903e+000
 4.973613169928101e-001	 1.164939809979976e+000	 3.186369876591509e+000
 4.711831656185745e-001	 1.103624284133538e+000	 2.488063471618326e+000
 4.594170961960175e-001	 1.108573868961468e+000	 2.358023098540174e+000
 4.476240367602246e-001	 1.113387965969144e+000	 2.227693431758743e+000
 4.358062280216104e-001	 1.118066598955774e+000	 2.098237333709662e+000
 4.239658999937963e-001	 1.122609838913262e+000	 1.970697025134347e+000
 4.121052708129413e-001	 1.127017803469615e+000	 1.845994676546208e+000
 4.002265455830573e-001	 1.131290656299120e+000	 1.724934063642645e+000
 3.883319152483020e-001	 1.135428606500521e+000	 1.608203243015460e+000
 3.764235554931850e-001	 1.139431907944475e+000	 1.496378197961064e+000
 3.645036256715677e-001	 1.143300858591557e+000	 1.389927398221909e+000
 3.525742677652601e-001	 1.147035799782149e+000	 1.289217212145871e+000
 4.738009807553952e-001	 1.109755836719682e+000	 2.562396661996876e+000
 4.619695410121816e-001	 1.114732920615915e+000	 2.430681440258277e+000
 4.501109613037128e-001	 1.119573763944086e+000	 2.298625145189306e+000
 4.382274947894187e-001	 1.124278390635644e+000	 2.167410630306719e+000
 4.263213838725058e-001	 1.128846872076933e+000	 2.038094854708798e+000
 4.143948590127299e-001	 1.133279326549498e+000	 1.911609514212568e+000
 4.024501375652947e-001	 1.137575918636991e+000	 1.788762779072606e+000
 3.904894226468796e-001	 1.141736858599893e+000	 1.670242092973135e+000
 3.785149020297368e-001	 1.145762401719342e+000	 1.556617981194259e+000
 3.665287470647387e-001	 1.149652847611347e+000	 1.448348809667261e+000
 3.545331116341912e-001	 1.153408539512741e+000	 1.345786431089660e+000
 4.764187958926178e-001	 1.115887389305492e+000	 2.636403513338078e+000
 4.645219858287748e-001	 1.120891972270021e+000	 2.503064222722706e+000
 4.525978858476362e-001	 1.125759561918668e+000	 2.369344196929203e+000
 4.406487615576510e-001	 1.130490182315132e+000	 2.236444503591069e+000
 4.286768677516142e-001	 1.135083905240194e+000	 2.105434902810349e+000
 4.166844472128812e-001	 1.139540849628946e+000	 1.977254521917026e+000
 4.046737295478510e-001	 1.143861180974407e+000	 1.852713680675079e+000
 3.926469300457279e-001	 1.148045110698799e+000	 1.732496819909110e+000
 3.806062485665093e-001	 1.152092895493742e+000	 1.617166479499605e+000
 3.685538684580829e-001	 1.156004836630688e+000	 1.507168265276406e+000
 3.564919555032524e-001	 1.159781279242920e+000	 1.402836738601837e+000
 4.790366110301419e-001	 1.122018941890968e+000	 2.709828536119958e+000
 4.670744306456894e-001	 1.127051023923789e+000	 2.574917645898794e+000
 4.550848103918862e-001	 1.131945359892904e+000	 2.439599521401271e+000
 4.430700283262014e-001	 1.136701973994260e+000	 2.305091696723389e+000
 4.310323516310217e-001	 1.141320938403083e+000	 2.172474818566793e+000
 4.189740354133045e-001	 1.145802372708010e+000	 2.042693368596242e+000
 4.068973215306461e-001	 1.150146443311432e+000	 1.916557581360952e+000
 3.948044374447789e-001	 1.154353362797313e+000	 1.794746508996230e+000
 3.826975951034476e-001	 1.158423389267759e+000	 1.677812176631265e+000
 3.705789898515568e-001	 1.162356825649666e+000	 1.566184765791356e+000
 3.584507993724112e-001	 1.166154018972769e+000	 1.460178757125483e+000
 4.816544261678670e-001	 1.128150494476111e+000	 2.782417647202293e+000
 4.696268754628187e-001	 1.133210075577222e+000	 2.645989016484621e+000
 4.575717349363537e-001	 1.138131157866803e+000	 2.509140871003897e+000
 4.454912950949637e-001	 1.142913765673050e+000	 2.373105492947655e+000
 4.333878355106287e-001	 1.147557971565633e+000	 2.238972524043500e+000
 4.212636236139090e-001	 1.152063895786738e+000	 2.107689739507487e+000
 4.091209135136008e-001	 1.156431705648128e+000	 1.980065063966792e+000
 3.969619448439651e-001	 1.160661614895509e+000	 1.856769778758404e+000
 3.847889416404962e-001	 1.164753883041476e+000	 1.738342862450925e+000
 3.726041112451171e-001	 1.168708814668366e+000	 1.625196399564928e+000
 3.604096432416351e-001	 1.172526758702372e+000	 1.517621986301893e+000
 4.842722413056925e-001	 1.134282047060920e+000	 2.853918261550390e+000
 4.721793202800552e-001	 1.139369127230325e+000	 2.716026833309307e+000
 4.600586594809300e-001	 1.144316955840377e+000	 2.577718895572818e+000
 4.479125618638321e-001	 1.149125557351524e+000	 2.440239789529577e+000
 4.357433193903352e-001	 1.153795004727881e+000	 2.304686283089015e+000
 4.235532118146043e-001	 1.158325418865181e+000	 2.172007400435776e+000
 4.113445054966349e-001	 1.162716967984557e+000	 2.043006541292425e+000
 3.991194522432189e-001	 1.166969866993460e+000	 1.918344837425549e+000
 3.868802881775998e-001	 1.171084376814971e+000	 1.798545686097020e+000
 3.746292326387208e-001	 1.175060803686873e+000	 1.684000393064532e+000
 3.623684871108915e-001	 1.178899498431811e+000	 1.574974851335378e+000
 4.868900564435181e-001	 1.140413599645397e+000	 2.924079384183152e+000
 4.747317650972915e-001	 1.145528178883100e+000	 2.784780872955178e+000
 4.625455840255062e-001	 1.150502753813638e+000	 2.645085222062786e+000
 4.503338286327004e-001	 1.155337349029706e+000	 2.506249171902612e+000
 4.380988032700417e-001	 1.160032037889863e+000	 2.369374770372094e+000
 4.258428000152994e-001	 1.164586941943386e+000	 2.235410262063058e+000
 4.135680974796693e-001	 1.169002230320782e+000	 2.105152316264717e+000
 4.012769596424727e-001	 1.173278119091240e+000	 1.979249539367979e+000
 3.889716347147036e-001	 1.177414870588328e+000	 1.858207209186666e+000
 3.766543540323243e-001	 1.181412792705272e+000	 1.742393161344200e+000
 3.643273309801479e-001	 1.185272238161169e+000	 1.632044751257702e+000
 4.895078715812429e-001	 1.146545152229540e+000	 2.992651702333894e+000
 4.772842099144207e-001	 1.151687230535551e+000	 2.852002275594998e+000
 4.650325085699736e-001	 1.156688551786596e+000	 2.710992534439186e+000
 4.527550954014628e-001	 1.161549140707617e+000	 2.570888988013917e+000
 4.404542871496485e-001	 1.166269071051613e+000	 2.432797140597443e+000
 4.281323882159039e-001	 1.170848465021405e+000	 2.297662444494956e+000
 4.157916894626238e-001	 1.175287492656865e+000	 2.166272642225514e+000
 4.034344670416590e-001	 1.179586371188922e+000	 2.039261441616456e+000
 3.910629812517523e-001	 1.183745364361628e+000	 1.917113459049653e+000
 3.786794754258847e-001	 1.187764781723647e+000	 1.800170358492009e+000
 3.662861748493719e-001	 1.191644977890528e+000	 1.688638107096195e+000
 4.921256867187671e-001	 1.152676704813351e+000	 3.059387677821233e+000
 4.798366547313354e-001	 1.157846282187681e+000	 2.917443631038597e+000
 4.675194331142233e-001	 1.162874349759263e+000	 2.775194653774314e+000
 4.551763621700131e-001	 1.167760932385280e+000	 2.633915422861658e+000
 4.428097710290558e-001	 1.172506104213168e+000	 2.494713097900511e+000
 4.304219764163272e-001	 1.177109988099284e+000	 2.358528341935389e+000
 4.180152814454191e-001	 1.181572754992868e+000	 2.226137783337107e+000
 4.055919744407099e-001	 1.185894623286580e+000	 2.098157860459014e+000
 3.931543277886905e-001	 1.190075858134952e+000	 1.975049981991638e+000
 3.807045968193585e-001	 1.194116770742085e+000	 1.857126928049806e+000
 3.682450187185307e-001	 1.198017717619970e+000	 1.744560409950764e+000
 4.947435018559895e-001	 1.158808257396830e+000	 3.124041639613649e+000
 4.823890995479283e-001	 1.164005333839493e+000	 2.980859064979122e+000
 4.700063576581465e-001	 1.169060147731649e+000	 2.837446618539160e+000
 4.575976289382453e-001	 1.173972724062717e+000	 2.695085573219624e+000
 4.451652549081642e-001	 1.178743137374562e+000	 2.554882965406010e+000
 4.327115646164784e-001	 1.183371511177076e+000	 2.417772687508138e+000
 4.202388734279750e-001	 1.187858017328854e+000	 2.284518075100414e+000
 4.077494818395579e-001	 1.192202875384287e+000	 2.155715928111468e+000
 3.952456743254628e-001	 1.196406351908383e+000	 2.031801896587800e+000
 3.827297182127025e-001	 1.200468759760668e+000	 1.913057153405067e+000
 3.702038625875918e-001	 1.204390457349580e+000	 1.799616268979842e+000
 4.973613169928101e-001	 1.164939809979976e+000	 3.186369876591513e+000
 4.849415443640922e-001	 1.170164385490992e+000	 3.042004325431692e+000
 4.724932822016347e-001	 1.175245945703767e+000	 2.897504765083273e+000
 4.600188957060533e-001	 1.180184515739950e+000	 2.754157522539383e+000
 4.475207387868734e-001	 1.184980170535832e+000	 2.613067754952892e+000
 4.350011528162667e-001	 1.189633034254827e+000	 2.475160618216613e+000
 4.224624654102122e-001	 1.194143279664885e+000	 2.341183984986398e+000
 4.099069892381355e-001	 1.198511127482119e+000	 2.211712649463818e+000
 3.973370208620145e-001	 1.202736845682000e+000	 2.087153947001172e+000
 3.847548396058734e-001	 1.206820748779484e+000	 1.967754708161727e+000
 3.721627064565229e-001	 1.210763197079439e+000	 1.853609459301679e+000
 3.525742677652601e-001	 1.147035799782149e+000	 1.289217212145871e+000
 3.406376052026061e-001	 1.150637115213137e+000	 1.192754076416298e+000
 3.286957413846450e-001	 1.154105229318470e+000	 1.099086997399315e+000
 3.167507592780232e-001	 1.157440607346606e+000	 1.008513423032355e+000
 3.048047206734029e-001	 1.160643754840250e+000	 9.212574999726837e-001
 2.928596653018194e-001	 1.163715216807882e+000	 8.374785854283491e-001
 2.809176099841100e-001	 1.166655576875311e+000	 7.572801681087964e-001
 2.689805478137873e-001	 1.169465456418633e+000	 6.807191177364467e-001
 2.570504473736705e-001	 1.172145513679984e+000	 6.078151824129029e-001
 2.451292519865291e-001	 1.174696442867462e+000	 5.385606535985241e-001
 2.332188789999302e-001	 1.177118973240590e+000	 4.729301194958361e-001
 3.545331116341912e-001	 1.153408539512741e+000	 1.345786431089660e+000
 3.425301309638525e-001	 1.157029863252174e+000	 1.247431432866587e+000
 3.305219201409053e-001	 1.160517245621667e+000	 1.151856840391028e+000
 3.185105737046082e-001	 1.163871154454500e+000	 1.059385001340704e+000
 3.064981649005862e-001	 1.167092098102068e+000	 9.702621853509740e-001
 2.944867447922767e-001	 1.170180624600808e+000	 8.846673678248047e-001
 2.824783414056346e-001	 1.173137320819037e+000	 8.027214422757850e-001
 2.704749589074650e-001	 1.175962811585093e+000	 7.244967777506751e-001
 2.584785768177021e-001	 1.178657758798178e+000	 6.500270377109624e-001
 2.464911492558900e-001	 1.181222860523273e+000	 5.793171772131796e-001
 2.345146042220564e-001	 1.183658850071527e+000	 5.123535362869733e-001
 3.564919555032524e-001	 1.159781279242920e+000	 1.402836738601837e+000
 3.444226567251935e-001	 1.163422611290857e+000	 1.302670973197419e+000
 3.323480988972307e-001	 1.166929261924586e+000	 1.205273269786956e+000
 3.202703881312339e-001	 1.170301701562208e+000	 1.110989278412873e+000
 3.081916091277884e-001	 1.173540441363803e+000	 1.020085643997569e+000
 2.961138242827327e-001	 1.176646032393761e+000	 9.327590738089755e-001
 2.840390728271373e-001	 1.179619064762902e+000	 8.491458535368204e-001
 2.719693700010984e-001	 1.182460166751805e+000	 7.693317255425851e-001
 2.599067062616637e-001	 1.185170003916729e+000	 6.933620426513090e-001
 2.478530465251502e-001	 1.187749278179539e+000	 6.212521113223352e-001
 2.358103294440449e-001	 1.190198726903006e+000	 5.529976391120157e-001
 3.584507993724112e-001	 1.166154018972769e+000	 1.460178757125483e+000
 3.463151824866052e-001	 1.169815359329259e+000	 1.358295633907060e+000
 3.341742776536050e-001	 1.173341278227287e+000	 1.259171794861918e+000
 3.220302025578900e-001	 1.176732248669769e+000	 1.163174542073522e+000
 3.098850533550046e-001	 1.179988784625471e+000	 1.070589091157315e+000
 2.977409037731876e-001	 1.183111440186731e+000	 9.816279343494674e-001
 2.855998042486236e-001	 1.186100808706870e+000	 8.964406729589574e-001
 2.734637810946988e-001	 1.188957521918704e+000	 8.151242296734274e-001
 2.613348357055730e-001	 1.191682249035549e+000	 7.377333509859622e-001
 2.492149437943350e-001	 1.194275695836146e+000	 6.642913104818448e-001
 2.371060546659301e-001	 1.196738603734890e+000	 5.948007248181632e-001
 3.604096432416351e-001	 1.172526758702372e+000	 1.517621986301893e+000
 3.482077082480642e-001	 1.176208107367455e+000	 1.414127034160343e+000
 3.360004564100119e-001	 1.179753294529828e+000	 1.313386436969989e+000
 3.237900169845663e-001	 1.183162795777225e+000	 1.215787445182135e+000
 3.115784975822304e-001	 1.186437127887090e+000	 1.121631983120352e+000
 2.993679832636415e-001	 1.189576847979709e+000	 1.031146319944964e+000
 2.871605356700990e-001	 1.192582552650905e+000	 9.444912314355057e-001
 2.749581921882768e-001	 1.195454877085726e+000	 8.617725598977787e-001
 2.627629651494472e-001	 1.198194494154544e+000	 7.830520792845089e-001
 2.505768410634696e-001	 1.200802113492981e+000	 7.083585730612024e-001
 2.384017798877464e-001	 1.203278480567044e+000	 6.376990334883134e-001
 3.623684871108915e-001	 1.178899498431811e+000	 1.574974851335378e+000
 3.501002340095467e-001	 1.182600855405517e+000	 1.469985522323849e+000
 3.378266351664351e-001	 1.186165310832270e+000	 1.367749774330850e+000
 3.255498314112528e-001	 1.189593342884613e+000	 1.268673048748768e+000
 3.132719418094607e-001	 1.192885471148674e+000	 1.173072058734504e+000
 3.009950627540954e-001	 1.196042255772686e+000	 1.081184780601455e+000
 2.887212670915688e-001	 1.199064296594971e+000	 9.931809581880214e-001
 2.764526032818441e-001	 1.201952232252809e+000	 9.091730242454934e-001
 2.641910945933040e-001	 1.204706739273630e+000	 8.292273426405178e-001
 2.519387383325791e-001	 1.207328531149930e+000	 7.533756756161336e-001
 2.396975051095284e-001	 1.209818357399334e+000	 6.816267815102656e-001
 3.643273309801479e-001	 1.185272238161169e+000	 1.632044751257702e+000
 3.519927597710295e-001	 1.188993603443521e+000	 1.525690222329520e+000
 3.396528139228582e-001	 1.192577327134670e+000	 1.422092986574702e+000
 3.273096458379391e-001	 1.196023889991973e+000	 1.321674864741261e+000
 3.149653860366912e-001	 1.199333814410241e+000	 1.224765380555319e+000
 3.026221422445491e-001	 1.202507663565654e+000	 1.131612085390983e+000
 2.902819985130387e-001	 1.205546040539032e+000	 1.042391418801231e+000
 2.779470143754111e-001	 1.208449587419890e+000	 9.572200055903508e-001
 2.656192240371608e-001	 1.211218984392715e+000	 8.761662898296619e-001
 2.533006356016885e-001	 1.213854948806878e+000	 7.992624066781194e-001
 2.409932303313104e-001	 1.216358234231624e+000	 7.265161940365312e-001
 3.662861748493719e-001	 1.191644977890528e+000	 1.688638107096195e+000
 3.538852855324884e-001	 1.195386351481539e+000	 1.581059079868412e+000
 3.414789926792650e-001	 1.198989343437087e+000	 1.476245899054569e+000
 3.290694602646153e-001	 1.202454437099344e+000	 1.374634898600025e+000
 3.166588302639168e-001	 1.205782157671807e+000	 1.276566375641487e+000
 3.042492217350033e-001	 1.208973071358602e+000	 1.182295261607821e+000
 2.918427299345140e-001	 1.212027784483051e+000	 1.092002352809325e+000
 2.794414254689893e-001	 1.214946942586906e+000	 1.005805997729444e+000
 2.670473534810350e-001	 1.217731229511709e+000	 9.237741379370719e-001
 2.546625328708231e-001	 1.220381366463713e+000	 8.459365999843228e-001
 2.422889555531268e-001	 1.222898111063778e+000	 7.722975368577466e-001
 3.682450187185307e-001	 1.198017717619970e+000	 1.744560409950764e+000
 3.557778112939002e-001	 1.201779099519646e+000	 1.635908908426871e+000
 3.433051714356394e-001	 1.205401359739581e+000	 1.530037026933846e+000
 3.308292746912714e-001	 1.208884984206768e+000	 1.427393691468258e+000
 3.183522744911331e-001	 1.212230500933388e+000	 1.328327876013804e+000
 3.058763012254581e-001	 1.215438479151522e+000	 1.233099633536332e+000
 2.934034613560003e-001	 1.218509528426993e+000	 1.141891710845857e+000
 2.809358365625896e-001	 1.221444297753793e+000	 1.054821640987979e+000
 2.684754829249443e-001	 1.224243474630525e+000	 9.719542064791770e-001
 2.560244301400080e-001	 1.226907784120320e+000	 8.933141671674389e-001
 2.435846807750120e-001	 1.229437987895662e+000	 8.188991477098689e-001
 3.702038625875918e-001	 1.204390457349580e+000	 1.799616268979842e+000
 3.576703370552410e-001	 1.208171847557914e+000	 1.690055435166386e+000
 3.451313501919650e-001	 1.211813376042211e+000	 1.583293619058339e+000
 3.325890891178971e-001	 1.215315531314283e+000	 1.479790362148880e+000
 3.200457187183353e-001	 1.218678844195001e+000	 1.379901158789525e+000
 3.075033807159139e-001	 1.221903886944404e+000	 1.283888860845430e+000
 2.949641927775030e-001	 1.224991272370823e+000	 1.191935691380489e+000
 2.824302476562230e-001	 1.227941652920489e+000	 1.104155757367088e+000
 2.699036123689059e-001	 1.230755719749071e+000	 1.020607951032190e+000
 2.573863274092683e-001	 1.233434201776585e+000	 9.413091299273759e-001
 2.448804059970006e-001	 1.235977864727140e+000	 8.662474670403769e-001
 3.721627064565229e-001	 1.210763197079439e+000	 1.853609459301679e+000
 3.595628628164873e-001	 1.214564595596418e+000	 1.743313346654221e+000
 3.469575289482251e-001	 1.218225392345035e+000	 1.635841701617720e+000
 3.343489035444823e-001	 1.221746078421927e+000	 1.531662648799449e+000
 3.217391629455186e-001	 1.225127187456663e+000	 1.431135986001234e+000
 3.091304602063712e-001	 1.228369294737240e+000	 1.334524976622180e+000
 2.965249241990276e-001	 1.231473016314503e+000	 1.242008777050768e+000
 2.839246587499008e-001	 1.234439008086931e+000	 1.153695385255515e+000
 2.713317418129375e-001	 1.237267964867259e+000	 1.069634996391673e+000
 2.587482246786292e-001	 1.239960619432395e+000	 9.898336517015695e-001
 2.461761312191269e-001	 1.242517741558077e+000	 9.142670682475312e-001
 2.332188789999302e-001	 1.177118973240590e+000	 4.729301194958359e-001
 2.213230021627496e-001	 1.179413533665163e+000	 4.112770018349582e-001
 2.094416944440826e-001	 1.181581294153850e+000	 3.537619733611094e-001
 1.975767878414401e-001	 1.183623084116445e+000	 3.001021896203860e-001
 1.857300859390157e-001	 1.185539764203235e+000	 2.500363104718030e-001
 1.739033633652391e-001	 1.187332225339542e+000	 2.033338328912402e-001
 1.620983652844263e-001	 1.189001387753761e+000	 1.598040803356774e-001
 1.503168069223521e-001	 1.190548200000185e+000	 1.193047899262606e-001
 1.385603731255183e-001	 1.191973637977820e+000	 8.175024310473572e-002
 1.268307179538430e-001	 1.193278703946419e+000	 4.711889004178275e-002
 1.151294643064635e-001	 1.194464425540913e+000	 1.546042289457575e-002
 2.345146042220564e-001	 1.183658850071527e+000	 5.123535362869733e-001
 2.225526358758121e-001	 1.185966158691430e+000	 4.494824393211414e-001
 2.106053175916603e-001	 1.188145962896061e+000	 3.908454482327899e-001
 1.986744915453892e-001	 1.190199096703295e+000	 3.361536452243584e-001
 1.867619713416105e-001	 1.192126425545067e+000	 2.851400510569699e-001
 1.748695414682985e-001	 1.193928845296552e+000	 2.375693257451026e-001
 1.629989567856155e-001	 1.195607281298800e+000	 1.932471169267477e-001
 1.511519420488499e-001	 1.197162687376130e+000	 1.520289948671840e-001
 1.393301914652341e-001	 1.198596044849500e+000	 1.138289175899061e-001
 1.275353682843719e-001	 1.199908361547070e+000	 7.862717441242724e-002
 1.157691044219621e-001	 1.201100670813155e+000	 4.647776114165259e-002
 2.358103294440449e-001	 1.190198726903006e+000	 5.529976391120157e-001
 2.237822695886924e-001	 1.192518783718310e+000	 4.889341741578515e-001
 2.117689407390044e-001	 1.194710631638938e+000	 4.291834114590148e-001
 1.997721952490489e-001	 1.196775109290849e+000	 3.734522632447943e-001
 1.877938567438564e-001	 1.198713086887629e+000	 3.214699736982565e-001
 1.758357195709473e-001	 1.200525465254301e+000	 2.729981953853459e-001
 1.638995482863325e-001	 1.202213174844571e+000	 2.278407044877398e-001
 1.519870771748143e-001	 1.203777174752788e+000	 1.858526914233714e-001
 1.401000098043579e-001	 1.205218451721859e+000	 1.469495681321656e-001
 1.282400186142539e-001	 1.206538019148351e+000	 1.111152382382250e-001
 1.164087445367640e-001	 1.207736916085966e+000	 7.840978144604438e-002
 2.371060546659301e-001	 1.196738603734890e+000	 5.948007248181632e-001
 2.250119033014359e-001	 1.199071408745647e+000	 5.295828824371284e-001
 2.129325638861733e-001	 1.201275300382315e+000	 4.687390037128276e-001
 2.008698989524904e-001	 1.203351121878933e+000	 4.119735822610677e-001
 1.888257421458385e-001	 1.205299748230736e+000	 3.590137959795318e-001
 1.768018976732843e-001	 1.207122085212600e+000	 3.096199674658735e-001
 1.648001397866881e-001	 1.208819068390886e+000	 2.635956543751725e-001
 1.528222123003677e-001	 1.210391662129970e+000	 2.207973038560979e-001
 1.408698281430211e-001	 1.211840858594711e+000	 1.811434100617970e-001
 1.289446689436271e-001	 1.213167676750082e+000	 1.446231188183954e-001
 1.170483846510113e-001	 1.214373161359173e+000	 1.113042288517050e-001
 2.384017798877464e-001	 1.203278480567044e+000	 6.376990334883134e-001
 2.262415370140882e-001	 1.205624033773291e+000	 5.713771943866070e-001
 2.140961870332250e-001	 1.207839969126025e+000	 5.094733362598765e-001
 2.019676026557856e-001	 1.209927134467368e+000	 4.516911339603346e-001
 1.898576275476419e-001	 1.211886409574204e+000	 3.977572576139531e-001
 1.777680757754081e-001	 1.213718705171260e+000	 3.474322257007424e-001
 1.657007312867935e-001	 1.215424961937553e+000	 3.005208792063352e-001
 1.536573474256321e-001	 1.217006149507486e+000	 2.568824084806768e-001
 1.416396464813552e-001	 1.218463265467869e+000	 2.164398694357346e-001
 1.296493192726302e-001	 1.219797334352083e+000	 1.791891309873930e-001
 1.176880247648463e-001	 1.221009406632600e+000	 1.452072011172636e-001
 2.396975051095284e-001	 1.209818357399334e+000	 6.816267815102656e-001
 2.274711707266947e-001	 1.212176658801087e+000	 6.142637263210752e-001
 2.152598101802175e-001	 1.214404637869900e+000	 5.513455220995998e-001
 2.030653063590058e-001	 1.216503147055976e+000	 4.925764737231757e-001
 1.908895129493518e-001	 1.218473070917847e+000	 4.376841506785405e-001
 1.787342538774169e-001	 1.220315325130092e+000	 3.864306418976550e-001
 1.666013227867598e-001	 1.222030855484382e+000	 3.386234227922624e-001
 1.544924825507298e-001	 1.223620636885147e+000	 2.941257635434773e-001
 1.424094648194919e-001	 1.225085672341149e+000	 2.528666128546613e-001
 1.303539696014012e-001	 1.226426991954170e+000	 2.148498968187537e-001
 1.183276648784110e-001	 1.227645651906074e+000	 1.801631782002483e-001
 2.409932303313104e-001	 1.216358234231624e+000	 7.265161940365312e-001
 2.287008044393011e-001	 1.218729283828884e+000	 6.581871119571526e-001
 2.164234333272090e-001	 1.220969306613775e+000	 5.943127064388373e-001
 2.041630100622224e-001	 1.223079159644581e+000	 5.345992105079044e-001
 1.919213983510534e-001	 1.225059732261483e+000	 4.787763491110007e-001
 1.797004319794096e-001	 1.226911945088909e+000	 4.266090052210485e-001
 1.675019142866981e-001	 1.228636749031183e+000	 3.779084892649962e-001
 1.553276176757833e-001	 1.230235124262765e+000	 3.325433382661207e-001
 1.431792831575625e-001	 1.231708079214361e+000	 2.904495764236331e-001
 1.310586199300785e-001	 1.233056649556165e+000	 2.516403744529769e-001
 1.189673049918478e-001	 1.234281897179420e+000	 2.162150508512948e-001
 2.422889555531268e-001	 1.222898111063778e+000	 7.722975368577466e-001
 2.299304381519530e-001	 1.225281908856527e+000	 7.030900331152138e-001
 2.175870564742576e-001	 1.227533975357481e+000	 6.383300965212080e-001
 2.052607137655070e-001	 1.229655172233005e+000	 5.777270360601581e-001
 1.929532837528318e-001	 1.231646393604925e+000	 5.210138374990924e-001
 1.806666100814845e-001	 1.233508565047521e+000	 4.679592507120647e-001
 1.684025057867195e-001	 1.235242642577766e+000	 4.183794714319902e-001
 1.561627528009146e-001	 1.236849611640148e+000	 3.721493410873912e-001
 1.439491014956988e-001	 1.238330486087322e+000	 3.292129938867404e-001
 1.317632702588006e-001	 1.239686307157884e+000	 2.895938860776973e-001
 1.196069451052988e-001	 1.240918142452463e+000	 2.534041483516705e-001
 2.435846807750120e-001	 1.229437987895662e+000	 8.188991477098689e-001
 2.311600718646959e-001	 1.231834533883864e+000	 7.489132498304432e-001
 2.187506796214213e-001	 1.234098644100853e+000	 6.833509908385798e-001
 2.063584174689311e-001	 1.236231184821071e+000	 6.219257534707813e-001
 1.939851691547721e-001	 1.238233054947990e+000	 5.643747391867892e-001
 1.816327881837402e-001	 1.240105185005738e+000	 5.104714870949416e-001
 1.693030972869350e-001	 1.241848536123940e+000	 4.600379783864766e-001
 1.569978879262462e-001	 1.243464099017107e+000	 4.129562471331492e-001
 1.447189198340320e-001	 1.244952892959844e+000	 3.691794239642097e-001
 1.324679205877057e-001	 1.246315964759147e+000	 3.287421450980194e-001
 1.202465852189061e-001	 1.247554387725030e+000	 2.917702654242319e-001
 2.448804059970006e-001	 1.235977864727140e+000	 8.662474670403769e-001
 2.323897055775752e-001	 1.238387158910742e+000	 7.955956298972309e-001
 2.199143027687582e-001	 1.240663312843723e+000	 7.293268077466865e-001
 2.074561211725660e-001	 1.242807197408601e+000	 6.671593051091181e-001
 1.950170545569596e-001	 1.244819716290493e+000	 6.088353437241274e-001
 1.825989662862753e-001	 1.246701804963373e+000	 5.541340238947413e-001
 1.702036887874558e-001	 1.248454429669516e+000	 5.028838624001043e-001
 1.578330230519001e-001	 1.250078586393454e+000	 4.549748249420858e-001
 1.454887381726939e-001	 1.251575299831740e+000	 4.103697769257664e-001
 1.331725709169322e-001	 1.252945622359772e+000	 3.691152825188205e-001
 1.208862253328119e-001	 1.254190632996945e+000	 3.313516883537541e-001
 2.461761312191269e-001	 1.242517741558077e+000	 9.142670682475312e-001
 2.336193392906366e-001	 1.244939783937008e+000	 8.430741778653247e-001
 2.210779259163265e-001	 1.247227981585924e+000	 7.762071135056424e-001
 2.085538248764833e-001	 1.249383209995418e+000	 7.133897999525910e-001
 1.960489399594793e-001	 1.251406377632249e+000	 6.543701336826507e-001
 1.835651443891883e-001	 1.253298424920236e+000	 5.989333978931399e-001
 1.711042802883929e-001	 1.255060323214301e+000	 5.469152451243204e-001
 1.586681581779989e-001	 1.256693073768999e+000	 4.982141624762287e-001
 1.462585565118158e-001	 1.258197706702826e+000	 4.528033404242953e-001
 1.338772212466184e-001	 1.259575279959579e+000	 4.107418725778555e-001
 1.215258654471585e-001	 1.260826878268034e+000	 3.721852203385877e-001
 1.151294643064635e-001	 1.194464425540913e+000	 1.546042289457575e-002
 1.034564591055369e-001	 1.195532006134985e+000	-1.266988770745293e-002
 9.181504023273319e-002	 1.196482335047633e+000	-3.710472440662888e-002
 8.020675932168628e-002	 1.197316510895122e+000	-5.825847965569814e-002
 6.863313492787490e-002	 1.198035653759429e+000	-7.644286466552887e-002
 5.709565231767782e-002	 1.198640904201028e+000	-9.186254322740461e-002
 4.559576328859526e-002	 1.199133422276893e+000	-1.046115088439615e-001
 3.413488602003709e-002	 1.199514386564678e+000	-1.146702146366194e-001
 2.271440495405443e-002	 1.199784993194003e+000	-1.219034605375940e-001
 1.133567070536557e-002	 1.199946454885717e+000	-1.260590374747695e-001
 0.000000000000000e+000	 1.200000000000000e+000	-1.267685186308071e-001
 1.157691044219621e-001	 1.201100670813155e+000	 4.647776114165259e-002
 1.040312459496887e-001	 1.202174182707194e+000	 1.793488681931219e-002
 9.232514929392774e-002	 1.203129791489081e+000	-6.850949803499412e-003
 8.065237470892070e-002	 1.203968601878787e+000	-2.830883585040601e-002
 6.901444918697729e-002	 1.204691740181260e+000	-4.676121662054219e-002
 5.741286624635846e-002	 1.205300353293715e+000	-6.241929884666533e-002
 4.584908575049953e-002	 1.205795607718194e+000	-7.537922390060992e-002
 3.432453375796898e-002	 1.206178688580310e+000	-8.561902103904075e-002
 2.284060240253756e-002	 1.206450798655162e+000	-9.299634564078831e-002
 1.139864980270439e-002	 1.206613157401256e+000	-9.724700241471954e-002
 0.000000000000000e+000	 1.206667000003317e+000	-9.798546087414109e-002
 1.164087445367640e-001	 1.207736916085966e+000	 7.840978144604438e-002
 1.046060327931011e-001	 1.208816359279900e+000	 4.938826015272805e-002
 9.283525835435209e-002	 1.209777247930941e+000	 2.418681442442397e-002
 8.109799009537087e-002	 1.210620692862776e+000	 2.364274885979115e-003
 6.939576344530311e-002	 1.211347826603324e+000	-1.640987352315984e-002
 5.773008017429712e-002	 1.211959802386552e+000	-3.235066032466381e-002
 4.610240821172797e-002	 1.212457793159563e+000	-4.555359535190226e-002
 3.451418149532765e-002	 1.212842990595942e+000	-5.599144241352905e-002
 2.296679985059128e-002	 1.213116604116268e+000	-6.351180618749291e-002
 1.146162889980336e-002	 1.213279859916706e+000	-6.783553260431163e-002
 0.000000000000000e+000	 1.213334000006534e+000	-6.855696283917280e-002
 1.170483846510113e-001	 1.214373161359173e+000	 1.113042288517050e-001
 1.051808196359169e-001	 1.215458535852934e+000	 8.174466182312604e-002
 9.334536741414588e-002	 1.216424704373055e+000	 5.606874136100749e-002
 8.154360548117007e-002	 1.217272783846940e+000	 3.382567748264952e-002
 6.977707770297609e-002	 1.218003913025485e+000	 1.467940223752952e-002
 5.804729410160458e-002	 1.218619251479407e+000	-1.586360359652836e-003
 4.635573067237538e-002	 1.219119978600882e+000	-1.506384910224788e-002
 3.470382923218876e-002	 1.219507292611463e+000	-2.571785648015259e-002
 2.309299729826899e-002	 1.219782409577216e+000	-3.338316158342727e-002
 1.152460799669064e-002	 1.219946562431969e+000	-3.776280558447798e-002
 0.000000000000000e+000	 1.220001000009551e+000	-3.842809792634927e-002
 1.176880247648463e-001	 1.221009406632600e+000	 1.452072011172636e-001
 1.057556064782786e-001	 1.222100712426131e+000	 1.150569527916336e-001
 9.385547647344883e-002	 1.223072160815268e+000	 8.885351309855566e-002
 8.198922086645168e-002	 1.223924874831135e+000	 6.613878280513437e-002
 7.015839196011997e-002	 1.224659999447606e+000	 4.657351096835500e-002
 5.836450802839169e-002	 1.225278700572155e+000	 2.994260811711516e-002
 4.660905313253656e-002	 1.225782164042033e+000	 1.615960657465036e-002
 3.489347696862794e-002	 1.226171594626763e+000	 5.270255816418395e-003
 2.321919474562407e-002	 1.226448215037900e+000	-2.544753544125454e-003
 1.158758709339438e-002	 1.226613264946940e+000	-6.967938015765284e-003
 0.000000000000000e+000	 1.226668000012267e+000	-7.544792632449625e-003
 1.183276648784110e-001	 1.227645651906074e+000	 1.801631782002483e-001
 1.063303933203289e-001	 1.228742888999325e+000	 1.493764546939434e-001
 9.436558553240053e-002	 1.229719617257423e+000	 1.225983498023259e-001
 8.243483625134901e-002	 1.230576965815211e+000	 9.936561654366281e-002
 7.053970621685841e-002	 1.231316085869550e+000	 7.933804433157005e-002
 5.868172195476935e-002	 1.231938149664668e+000	 6.230402026345239e-002
 4.686237559230626e-002	 1.232444349482895e+000	 4.818520885564658e-002
 3.508312470472078e-002	 1.232835896641730e+000	 3.704033739873141e-002
 2.334539219270992e-002	 1.233114020498216e+000	 2.906807999752779e-002
 1.165056618994276e-002	 1.233279967461519e+000	 2.460903908548391e-002
 0.000000000000000e+000	 1.233335000014584e+000	 2.414619650517033e-002
 1.189673049918478e-001	 1.234281897179420e+000	 2.162150508512948e-001
 1.069051801622104e-001	 1.235385065572350e+000	 1.847529781844174e-001
 9.487569459114074e-002	 1.236367073699361e+000	 1.573590378689400e-001
 8.288045163599542e-002	 1.237229056799023e+000	 1.335668471926534e-001
 7.092102047331518e-002	 1.237972172291179e+000	 1.130373130959567e-001
 5.899893588084834e-002	 1.238597598756819e+000	 9.556444674274141e-002
 4.711569805177934e-002	 1.239106534923351e+000	 8.108026729123849e-002
 3.527277244054292e-002	 1.239500198656252e+000	 6.965878127964219e-002
 2.347158963957991e-002	 1.239779825958058e+000	 6.151903014475683e-002
 1.171354528636394e-002	 1.239946669975606e+000	 5.702720431352078e-002
 0.000000000000000e+000	 1.240002000016401e+000	 5.669730522064520e-002
 1.196069451052988e-001	 1.240918142452463e+000	 2.534041483516707e-001
 1.074799670040658e-001	 1.242027242145039e+000	 2.212348504181017e-001
 9.538580364980913e-002	 1.243014530140927e+000	 1.931899572143429e-001
 8.332606702052425e-002	 1.243881147782423e+000	 1.688018131542174e-001
 7.130233472961396e-002	 1.244628258712357e+000	 1.477343740091566e-001
 5.931614980673955e-002	 1.245257047848480e+000	 1.297892802693791e-001
 4.736902051105052e-002	 1.245768720363282e+000	 1.149109898729025e-001
 3.546242017616995e-002	 1.246164500670219e+000	 1.031909559430062e-001
 2.359778708628747e-002	 1.246445631417321e+000	 9.487084147939182e-002
 1.177652438268608e-002	 1.246613372489098e+000	 9.034476907132112e-002
 0.000000000000000e+000	 1.246669000017617e+000	 9.016018311602772e-002
 1.202465852189061e-001	 1.247554387725030e+000	 2.917702654242319e-001
 1.080547538460377e-001	 1.248669418717227e+000	 2.588689416975212e-001
 9.589591270854529e-002	 1.249661986581963e+000	 2.301441077224126e-001
 8.377168240506883e-002	 1.250533238765264e+000	 2.051285489974620e-001
 7.168364898587848e-002	 1.251284345132945e+000	 1.834910558298844e-001
 5.963336373255377e-002	 1.251916496939524e+000	 1.650427613169399e-001
 4.762234297021464e-002	 1.252430905802570e+000	 1.497425082710042e-001
 3.565206791167753e-002	 1.252828802683519e+000	 1.377012299185789e-001
 2.372398453288595e-002	 1.253111436875899e+000	 1.291853357252689e-001
 1.183950347893734e-002	 1.253280075001894e+000	 1.246191000270900e-001
 0.000000000000000e+000	 1.253336000018134e+000	 1.245857145683420e-001
 1.208862253328119e-001	 1.254190632996945e+000	 3.313516883537541e-001
 1.086295406882688e-001	 1.255311595288746e+000	 2.977006913202192e-001
 9.640602176748894e-002	 1.256309443022313e+000	 2.682731348850767e-001
 8.421729778976253e-002	 1.257185329747398e+000	 2.426038109070601e-001
 7.206496324223245e-002	 1.257940431552808e+000	 2.203679845438488e-001
 5.995057765840191e-002	 1.258575946029822e+000	 2.013880030157219e-001
 4.787566542936647e-002	 1.259093091241094e+000	 1.856389022765615e-001
 3.584171564714124e-002	 1.259493104696042e+000	 1.732529955773321e-001
 2.385018197942875e-002	 1.259777242333688e+000	 1.645234346605742e-001
 1.190248257514589e-002	 1.259946777513892e+000	 1.599067408586235e-001
 0.000000000000000e+000	 1.260003000017850e+000	 1.600240389726697e-001
 1.215258654471585e-001	 1.260826878268034e+000	 3.721852203385877e-001
 1.092043275309017e-001	 1.261953771859433e+000	 3.377741326531784e-001
 9.691613082677979e-002	 1.262956899461820e+000	 3.076273546643684e-001
 8.466291317473867e-002	 1.263837420728680e+000	 2.812831013492497e-001
 7.244627749879956e-002	 1.264596517971808e+000	 2.584246078002749e-001
 6.026779158439477e-002	 1.265235395119248e+000	 2.388870152755177e-001
 4.812898788860080e-002	 1.265755276678738e+000	 2.226632234757693e-001
 3.603136338263674e-002	 1.266157406707675e+000	 2.099086921780919e-001
 2.397637942596927e-002	 1.266443047790582e+000	 2.009451823090193e-001
 1.196546167133989e-002	 1.266613480024992e+000	 1.962634333110424e-001
 0.000000000000000e+000	 1.266670000016666e+000	 1.965245703461318e-001
 1.266670000016666e+000	 0.000000000000000e+000	 1.812353807656571e+001
 1.266613480024992e+000	 1.196546167133993e-002	 1.811014252095599e+001
 1.266443047790582e+000	 2.397637942596935e-002	 1.809993047813916e+001
 1.266157406707675e+000	 3.603136338263665e-002	 1.809148144782161e+001
 1.265755276678737e+000	 4.812898788860075e-002	 1.808341179679838e+001
 1.265235395119249e+000	 6.026779158439477e-002	 1.807437720540673e+001
 1.264596517971808e+000	 7.244627749879959e-002	 1.806307535428670e+001
 1.263837420728680e+000	 8.466291317473874e-002	 1.804824880077958e+001
 1.262956899461820e+000	 9.691613082677968e-002	 1.802868805266767e+001
 1.261953771859432e+000	 1.092043275309016e-001	 1.800323484540162e+001
 1.260826878268034e+000	 1.215258654471585e-001	 1.797078562721489e+001
 1.273336000014533e+000	 0.000000000000000e+000	 1.798424747390374e+001
 1.273279182579763e+000	 1.202843132115452e-002	 1.797132658707550e+001
 1.273107853425699e+000	 2.410255794388701e-002	 1.796153906487022e+001
 1.272820709123039e+000	 3.622098267249431e-002	 1.795349241422790e+001
 1.272416462837583e+000	 4.838227235153148e-002	 1.794583029653795e+001
 1.271893845340308e+000	 6.058495793091617e-002	 1.793723490139843e+001
 1.271251606026819e+000	 7.282753456140230e-002	 1.792642955270026e+001
 1.270488513945260e+000	 8.510846172113706e-002	 1.791218151360772e+001
 1.269603358831772e+000	 9.742616337399153e-002	 1.789330499894079e+001
 1.268594952152506e+000	 1.097790281603267e-001	 1.786866440186818e+001
 1.267462128151162e+000	 1.221654096208289e-001	 1.783717774001773e+001
 1.280002000011600e+000	 0.000000000000000e+000	 1.784855616164928e+001
 1.279944885133735e+000	 1.209140097100544e-002	 1.783614813986630e+001
 1.279772659060017e+000	 2.422873646188870e-002	 1.782680980643571e+001
 1.279484011537602e+000	 3.641060196249200e-002	 1.781917855411939e+001
 1.279077648995626e+000	 4.863555681466329e-002	 1.781192721995219e+001
 1.278552295560567e+000	 6.090212427770170e-002	 1.780376637914349e+001
 1.277906694081026e+000	 7.320879162433074e-002	 1.779344686732627e+001
 1.277139607161034e+000	 8.555401026791813e-002	 1.777976251124615e+001
 1.276249818200917e+000	 9.793619592163502e-002	 1.776155307722831e+001
 1.275236132444767e+000	 1.103537287902210e-001	 1.773770744511660e+001
 1.274097378033473e+000	 1.228049537949910e-001	 1.770716701352470e+001
 1.286668000008066e+000	 0.000000000000000e+000	 1.771631345299934e+001
 1.286610587687107e+000	 1.215437062091539e-002	 1.770445036307287e+001
 1.286437464693734e+000	 2.435491498000737e-002	 1.769558124601112e+001
 1.286147313951564e+000	 3.660022125266233e-002	 1.768837527851671e+001
 1.285738835153068e+000	 4.888884127802010e-002	 1.768153636993992e+001
 1.285210745780221e+000	 6.121929062475997e-002	 1.767380536961239e+001
 1.284561782134628e+000	 7.359004868757393e-002	 1.766396250198986e+001
 1.283790700376198e+000	 8.599955881504895e-002	 1.765083002007707e+001
 1.282896277569445e+000	 9.844622846965515e-002	 1.763327508733080e+001
 1.281877312736405e+000	 1.109284294205094e-001	 1.761021289654876e+001
 1.280732627915153e+000	 1.234444979695540e-001	 1.758061003234159e+001
 1.293334000004133e+000	 0.000000000000000e+000	 1.758737435659774e+001
 1.293276290240078e+000	 1.221734027090708e-002	 1.757608157387767e+001
 1.293102270327051e+000	 2.448109349827594e-002	 1.756769650364261e+001
 1.292810616365125e+000	 3.678984054303802e-002	 1.756092202459564e+001
 1.292400021310106e+000	 4.914212574162577e-002	 1.755449503109386e+001
 1.291869195999470e+000	 6.153645697209958e-002	 1.754718854762126e+001
 1.291216870187819e+000	 7.397130575112082e-002	 1.753781407344279e+001
 1.290441793590945e+000	 8.644510736249655e-002	 1.752522415568937e+001
 1.289542736937548e+000	 9.895626101799682e-002	 1.750831520195891e+001
 1.288518493027608e+000	 1.115031300511167e-001	 1.748603054178020e+001
 1.287367877796385e+000	 1.240840421444269e-001	 1.745736374431991e+001
 1.300000000000000e+000	 0.000000000000000e+000	 1.746159943051313e+001
 1.299941992792850e+000	 1.228030992100324e-002	 1.745089508457281e+001
 1.299767075960168e+000	 2.460727201672739e-002	 1.744300314621953e+001
 1.299473918778485e+000	 3.697945983365172e-002	 1.743666213456299e+001
 1.299061207466941e+000	 4.939541020550416e-002	 1.743064385807774e+001
 1.298527646218511e+000	 6.185362331972914e-002	 1.742375543030547e+001
 1.297871958240795e+000	 7.435256281496032e-002	 1.741484152052233e+001
 1.297092886805471e+000	 8.689065591022803e-002	 1.740278684330694e+001
 1.296189196305420e+000	 9.946629356660502e-002	 1.738651889900851e+001
 1.295159673318565e+000	 1.120778306819678e-001	 1.736501097533141e+001
 1.294003127677352e+000	 1.247235863195187e-001	 1.733728541822551e+001
 1.306665999995867e+000	 0.000000000000000e+000	 1.733885464068653e+001
 1.306607695345621e+000	 1.234327957122657e-002	 1.732874906846918e+001
 1.306431881593283e+000	 2.473345053539462e-002	 1.732135306144060e+001
 1.306137221191842e+000	 3.716907912453604e-002	 1.731544273826930e+001
 1.305722393623771e+000	 4.964869466967915e-002	 1.730982676747316e+001
 1.305186096437542e+000	 6.217078966765730e-002	 1.730334827878255e+001
 1.304527046293756e+000	 7.473381987908150e-002	 1.729488701620934e+001
 1.303743980019968e+000	 8.733620445821037e-002	 1.728336174081406e+001
 1.302835655673249e+000	 9.997632611542476e-002	 1.726773289611882e+001
 1.301800853609464e+000	 1.126525313129877e-001	 1.724700554727745e+001
 1.300638377558238e+000	 1.253631304947386e-001	 1.722023260303043e+001
 1.313331999991934e+000	 0.000000000000000e+000	 1.721901122368972e+001
 1.313273397898593e+000	 1.240624922159980e-002	 1.720950642989175e+001
 1.313096687226598e+000	 2.485962905431060e-002	 1.720260233563057e+001
 1.312800523605397e+000	 3.735869841572368e-002	 1.719711463942572e+001
 1.312383579780795e+000	 4.990197913417459e-002	 1.719189083297149e+001
 1.311844546656761e+000	 6.248795601589267e-002	 1.718581200289186e+001
 1.311182134346894e+000	 7.511507694347333e-002	 1.717779488248152e+001
 1.310395073234634e+000	 8.778175300641061e-002	 1.716679416428408e+001
 1.309482115041231e+000	 1.004863586644009e-001	 1.715180508743213e+001
 1.308442033900491e+000	 1.132272319441013e-001	 1.713186631178673e+001
 1.307273627439228e+000	 1.260026746699954e-001	 1.710606308876992e+001
 1.319997999988401e+000	 0.000000000000000e+000	 1.710194555364205e+001
 1.319939100451964e+000	 1.246921887214562e-002	 1.709303467811803e+001
 1.319761492860313e+000	 2.498580757350825e-002	 1.708661113527254e+001
 1.319463826019349e+000	 3.754831770724729e-002	 1.708153220529771e+001
 1.319044765938211e+000	 5.015526359901441e-002	 1.707668618379395e+001
 1.318502996876366e+000	 6.280512236444387e-002	 1.707099406890108e+001
 1.317837222400410e+000	 7.549633400812474e-002	 1.706341150786374e+001
 1.317046166449661e+000	 8.822730155479584e-002	 1.705293101592428e+001
 1.316128574409554e+000	 1.009963912134785e-001	 1.703858448247759e+001
 1.315083214191836e+000	 1.138019325752334e-001	 1.701944597748145e+001
 1.313908877320505e+000	 1.266422188451984e-001	 1.699463486891034e+001
 1.326663999985467e+000	 0.000000000000000e+000	 1.698753901313949e+001
 1.326604803005934e+000	 1.253218852288676e-002	 1.697920580511941e+001
 1.326426298494626e+000	 2.511198609302054e-002	 1.697324359212410e+001
 1.326127128433897e+000	 3.773793699913954e-002	 1.696855325975285e+001
 1.325705952096220e+000	 5.040854806422242e-002	 1.696406590622515e+001
 1.325161447096555e+000	 6.312228871331949e-002	 1.695874441007641e+001
 1.324492310454498e+000	 7.587759107302469e-002	 1.695158526758017e+001
 1.323697259665244e+000	 8.867285010333309e-002	 1.694162071435092e+001
 1.322775033778411e+000	 1.015064237626025e-001	 1.692792114710437e+001
 1.321724394483688e+000	 1.143766332063090e-001	 1.690959785955661e+001
 1.320544127202253e+000	 1.272817630202566e-001	 1.688580610417326e+001
 1.333329999983334e+000	 0.000000000000000e+000	 1.687567789618477e+001
 1.333270505560705e+000	 1.259515817384592e-002	 1.686789616697338e+001
 1.333091104129737e+000	 2.523816461288039e-002	 1.686236769179281e+001
 1.332790430849242e+000	 3.792755629143307e-002	 1.685803897954624e+001
 1.332367138255019e+000	 5.066183252982254e-002	 1.685388594815206e+001
 1.331819897317526e+000	 6.343945506252818e-002	 1.684891534001542e+001
 1.331147398509354e+000	 7.625884813816217e-002	 1.684216644621752e+001
 1.330348352881577e+000	 8.911839865198935e-002	 1.683271312711369e+001
 1.329421493147995e+000	 1.020164563117177e-001	 1.681966614639210e+001
 1.328365574776235e+000	 1.149513338372529e-001	 1.680217583359490e+001
 1.327179377084656e+000	 1.279213071950790e-001	 1.677943508776625e+001
 1.260826878268034e+000	 1.215258654471585e-001	 1.797078562721489e+001
 1.259575279959579e+000	 1.338772212466185e-001	 1.793483110261035e+001
 1.258197706702826e+000	 1.462585565118158e-001	 1.789901963252390e+001
 1.256693073768999e+000	 1.586681581779989e-001	 1.786258718844625e+001
 1.255060323214301e+000	 1.711042802883929e-001	 1.782483085356811e+001
 1.253298424920236e+000	 1.835651443891883e-001	 1.778511292131917e+001
 1.251406377632250e+000	 1.960489399594794e-001	 1.774286518328485e+001
 1.249383209995418e+000	 2.085538248764833e-001	 1.769759339457208e+001
 1.247227981585924e+000	 2.210779259163266e-001	 1.764888190167292e+001
 1.244939783937008e+000	 2.336193392906365e-001	 1.759639841475217e+001
 1.242517741558077e+000	 2.461761312191269e-001	 1.753989890307917e+001
 1.267462128151162e+000	 1.221654096208289e-001	 1.783717774001773e+001
 1.266203943159526e+000	 1.345817658845979e-001	 1.780230390120843e+001
 1.264819120261608e+000	 1.470282593845123e-001	 1.776765795684836e+001
 1.263306569020112e+000	 1.595031680406209e-001	 1.773249259560598e+001
 1.261665225923675e+000	 1.720047367078512e-001	 1.769611983032462e+001
 1.259894055432673e+000	 1.845311775730764e-001	 1.765791510667841e+001
 1.257992051023324e+000	 1.970806705873169e-001	 1.761732161611366e+001
 1.255958236228826e+000	 2.096513639334076e-001	 1.757385480132384e+001
 1.253791665676258e+000	 2.222413745294195e-001	 1.752710703937258e+001
 1.251491426117940e+000	 2.348487885680753e-001	 1.747675248433866e+001
 1.249056637455896e+000	 2.474716620923479e-001	 1.742255204802593e+001
 1.274097378033473e+000	 1.228049537949910e-001	 1.770716701352470e+001
 1.272832606358652e+000	 1.352863105230743e-001	 1.767335560399738e+001
 1.271440533819566e+000	 1.477979622576952e-001	 1.763985081396201e+001
 1.269920064270398e+000	 1.603381779037054e-001	 1.760592229757337e+001
 1.268270128632225e+000	 1.729051931277369e-001	 1.757089703843356e+001
 1.266489685944298e+000	 1.854972107573488e-001	 1.753416346631498e+001
 1.264577724413605e+000	 1.981124012154900e-001	 1.749517579379116e+001
 1.262533262461468e+000	 2.107489029906158e-001	 1.745345856122035e+001
 1.260355349765869e+000	 2.234048231427441e-001	 1.740861137527855e+001
 1.258043068298207e+000	 2.360782378456961e-001	 1.736031382287515e+001
 1.255595533353124e+000	 2.487671929657066e-001	 1.730833053882786e+001
 1.280732627915153e+000	 1.234444979695540e-001	 1.758061003234159e+001
 1.279461269557136e+000	 1.359908551619469e-001	 1.754785090365835e+001
 1.278061947376870e+000	 1.485676651312594e-001	 1.751547035936915e+001
 1.276533559520022e+000	 1.611731877671476e-001	 1.748275526238536e+001
 1.274875031340109e+000	 1.738056495479502e-001	 1.744904760099649e+001
 1.273085316455256e+000	 1.864632439419134e-001	 1.741374861164232e+001
 1.271163397803229e+000	 1.991441318439169e-001	 1.737632313794391e+001
 1.269108288693471e+000	 2.118464420480375e-001	 1.733630421465563e+001
 1.266919033854871e+000	 2.245682717562428e-001	 1.729329786183382e+001
 1.264594710477906e+000	 2.373076871234534e-001	 1.724698807102702e+001
 1.262134429249846e+000	 2.500627238391685e-001	 1.719714196170692e+001
 1.287367877796385e+000	 1.240840421444269e-001	 1.745736374431991e+001
 1.286089932755156e+000	 1.366953998011148e-001	 1.742565438539456e+001
 1.284683360933694e+000	 1.493373680050998e-001	 1.739438822276734e+001
 1.283147054769149e+000	 1.620081976308432e-001	 1.736286956604043e+001
 1.281479934047482e+000	 1.747061059683912e-001	 1.733045543455675e+001
 1.279680946965695e+000	 1.874292771266784e-001	 1.729655968423423e+001
 1.277749071192331e+000	 2.001758624725156e-001	 1.726065738775369e+001
 1.275683314924959e+000	 2.129439811056030e-001	 1.722228945700029e+001
 1.273482717943375e+000	 2.257317203698579e-001	 1.718106749316847e+001
 1.271146352657140e+000	 2.385371364013019e-001	 1.713667884632193e+001
 1.268673325146146e+000	 2.513582547126994e-001	 1.708889186247742e+001
 1.294003127677352e+000	 1.247235863195187e-001	 1.733728541822551e+001
 1.292718595952890e+000	 1.373999444404773e-001	 1.730663049755350e+001
 1.291304774490208e+000	 1.501070708791112e-001	 1.727647549102234e+001
 1.289760550017942e+000	 1.628432074946875e-001	 1.724614238722191e+001
 1.288084836754500e+000	 1.756065623889601e-001	 1.721500325496239e+001
 1.286276577475762e+000	 1.883953103115517e-001	 1.718248437221493e+001
 1.284334744581047e+000	 2.012075931012045e-001	 1.714807062625892e+001
 1.282258341156058e+000	 2.140415201632420e-001	 1.711131017419455e+001
 1.280046402031495e+000	 2.268951689835316e-001	 1.707181934936152e+001
 1.277697994836005e+000	 2.397665856791959e-001	 1.702928779545480e+001
 1.275212221042108e+000	 2.526537855862646e-001	 1.698348380626533e+001
 1.300638377558238e+000	 1.253631304947386e-001	 1.722023260303043e+001
 1.299347259150517e+000	 1.381044890799334e-001	 1.719064352354456e+001
 1.297926188046585e+000	 1.508767737531886e-001	 1.716160269213488e+001
 1.296374045266569e+000	 1.636782173585764e-001	 1.713245000273350e+001
 1.294689739461321e+000	 1.765070188095572e-001	 1.710257258368651e+001
 1.292872207985603e+000	 1.893613434964411e-001	 1.707140892687628e+001
 1.290920417969516e+000	 2.022393237299017e-001	 1.703845330667709e+001
 1.288833367386893e+000	 2.151390592208845e-001	 1.700326047818112e+001
 1.286610086119343e+000	 2.280586175972063e-001	 1.696545064038546e+001
 1.284249637014603e+000	 2.409960349570901e-001	 1.692471464614195e+001
 1.281751116937819e+000	 2.539493164598298e-001	 1.688081943666723e+001
 1.307273627439228e+000	 1.260026746699954e-001	 1.710606308876993e+001
 1.305975922348214e+000	 1.388090337193822e-001	 1.707755755500479e+001
 1.304547601602998e+000	 1.516464766272270e-001	 1.704963978016295e+001
 1.302987540515192e+000	 1.645132272224049e-001	 1.702166778362120e+001
 1.301294642168099e+000	 1.774074752300823e-001	 1.699304375458817e+001
 1.299467838495365e+000	 1.903273766812550e-001	 1.696321817951369e+001
 1.297506091357872e+000	 2.032710543585255e-001	 1.693169427874740e+001
 1.295408393617587e+000	 2.162365982784606e-001	 1.689803274218289e+001
 1.293173770207031e+000	 2.292220662108245e-001	 1.686185674974374e+001
 1.290801279193031e+000	 2.422254842349390e-001	 1.682285725854008e+001
 1.288290012833362e+000	 2.552448473333605e-001	 1.678079853436875e+001
 1.313908877320505e+000	 1.266422188451984e-001	 1.699463486891034e+001
 1.312604585546162e+000	 1.395135783587231e-001	 1.696723646617001e+001
 1.311169015159617e+000	 1.524161795011211e-001	 1.694045612106620e+001
 1.309601035763976e+000	 1.653482370860691e-001	 1.691367019195782e+001
 1.307899544874992e+000	 1.783079316504358e-001	 1.688629592109919e+001
 1.306063469005196e+000	 1.912934098659010e-001	 1.685779555847323e+001
 1.304091764746253e+000	 2.043027849869941e-001	 1.682768081509331e+001
 1.301983419848268e+000	 2.173341373359000e-001	 1.679551763583141e+001
 1.299737454294674e+000	 2.303855148243285e-001	 1.676093127781291e+001
 1.297352921371389e+000	 2.434549335126970e-001	 1.672361167624542e+001
 1.294828908728823e+000	 2.565403782068224e-001	 1.668331907524146e+001
 1.320544127202253e+000	 1.272817630202566e-001	 1.688580610417326e+001
 1.319233248744538e+000	 1.402181229978549e-001	 1.685954388940812e+001
 1.317790428716616e+000	 1.531858823747659e-001	 1.683392047944034e+001
 1.316214531013087e+000	 1.661832469494639e-001	 1.680833077826609e+001
 1.314504447582156e+000	 1.792083880705177e-001	 1.678220706382077e+001
 1.312659099515241e+000	 1.922594430502873e-001	 1.675502310640240e+001
 1.310677438134795e+000	 2.053345156152258e-001	 1.672629863760356e+001
 1.308558446079059e+000	 2.184316763931329e-001	 1.669560416015135e+001
 1.306301138382382e+000	 2.315489634376604e-001	 1.666256608489917e+001
 1.303904563549776e+000	 2.446843827903187e-001	 1.662687217688833e+001
 1.301367804624286e+000	 2.578359090801811e-001	 1.658827728793678e+001
 1.327179377084656e+000	 1.279213071950790e-001	 1.677943508776625e+001
 1.325861911943521e+000	 1.409226676366771e-001	 1.675434319187379e+001
 1.324411842274167e+000	 1.539555852480564e-001	 1.672990100610967e+001
 1.322828026262688e+000	 1.670182568124853e-001	 1.670552217955889e+001
 1.321109350289747e+000	 1.801088444902282e-001	 1.668065399851639e+001
 1.319254730025648e+000	 1.932254762343219e-001	 1.665478149769747e+001
 1.317263111523635e+000	 2.063662462431386e-001	 1.662743194383167e+001
 1.315133472310086e+000	 2.195292154500891e-001	 1.659817968240598e+001
 1.312864822470269e+000	 2.327124120507629e-001	 1.656665133401972e+001
 1.310456205728293e+000	 2.459138320677585e-001	 1.653253132233640e+001
 1.307906700519837e+000	 2.591314399534021e-001	 1.649556771099442e+001
 1.242517741558077e+000	 2.461761312191269e-001	 1.753989890307917e+001
 1.239960619432395e+000	 2.587482246786292e-001	 1.747946818445863e+001
 1.237267964867259e+000	 2.713317418129376e-001	 1.741527825460607e+001
 1.234439008086931e+000	 2.839246587499007e-001	 1.734732727206285e+001
 1.231473016314503e+000	 2.965249241990277e-001	 1.727570879571402e+001
 1.228369294737240e+000	 3.091304602063712e-001	 1.720061669033234e+001
 1.225127187456663e+000	 3.217391629455186e-001	 1.712234997727290e+001
 1.221746078421927e+000	 3.343489035444824e-001	 1.704131758723036e+001
 1.218225392345035e+000	 3.469575289482249e-001	 1.695804296908217e+001
 1.214564595596419e+000	 3.595628628164873e-001	 1.687316850613950e+001
 1.210763197079440e+000	 3.721627064565229e-001	 1.678745968865319e+001
 1.249056637455896e+000	 2.474716620923479e-001	 1.742255204802593e+001
 1.246486058173964e+000	 2.601099176737307e-001	 1.736451965037242e+001
 1.243779233197095e+000	 2.727596570483445e-001	 1.730275840702826e+001
 1.240935388698524e+000	 2.854188456931735e-001	 1.723727422104863e+001
 1.237953788045028e+000	 2.980854215225694e-001	 1.716816820837307e+001
 1.234833732767343e+000	 3.107572956471091e-001	 1.709564176257394e+001
 1.231574563515257e+000	 3.234323531687461e-001	 1.702000157459543e+001
 1.228175660995893e+000	 3.361084540120542e-001	 1.694166456322747e+001
 1.224636446893741e+000	 3.487834337912915e-001	 1.686116266903560e+001
 1.220956384770955e+000	 3.614551047129524e-001	 1.677914746163800e+001
 1.217134980946447e+000	 3.741212565134122e-001	 1.669639450762040e+001
 1.255595533353124e+000	 2.487671929657066e-001	 1.730833053882786e+001
 1.253011496915032e+000	 2.614716106689328e-001	 1.725260837382826e+001
 1.250290501526536e+000	 2.741875722838214e-001	 1.719318696244622e+001
 1.247431769309838e+000	 2.869130326364903e-001	 1.713008077955717e+001
 1.244434559775391e+000	 2.996459188461332e-001	 1.706339917398662e+001
 1.241298170797401e+000	 3.123841310878485e-001	 1.699335159439099e+001
 1.238021939573915e+000	 3.251255433919548e-001	 1.692025278054821e+001
 1.234605243570019e+000	 3.378680044795857e-001	 1.684452787461377e+001
 1.231047501442685e+000	 3.506093386342928e-001	 1.676671740373993e+001
 1.227348173945781e+000	 3.633473466093230e-001	 1.668748208248982e+001
 1.223506764813771e+000	 3.760798065701715e-001	 1.660760738074961e+001
 1.262134429249846e+000	 2.500627238391685e-001	 1.719714196170692e+001
 1.259536935655672e+000	 2.628333036642103e-001	 1.714364320322726e+001
 1.256801769855638e+000	 2.756154875193508e-001	 1.708647337900771e+001
 1.253928149920911e+000	 2.884072195798404e-001	 1.702565629981555e+001
 1.250915331505615e+000	 3.012064161697133e-001	 1.696131015830127e+001
 1.247762608827421e+000	 3.140109665285888e-001	 1.689365291814813e+001
 1.244469315632632e+000	 3.268187336151491e-001	 1.682300767964114e+001
 1.241034826144292e+000	 3.396275549470866e-001	 1.674980797500709e+001
 1.237458555991849e+000	 3.524352434772453e-001	 1.667460294357316e+001
 1.233739963120879e+000	 3.652395885056229e-001	 1.659806233368970e+001
 1.229878548681392e+000	 3.780383566268333e-001	 1.652098127550033e+001
 1.268673325146146e+000	 2.513582547126994e-001	 1.708889186247742e+001
 1.266062374395950e+000	 2.641949966595379e-001	 1.703753097422004e+001
 1.263313038184454e+000	 2.770434027549149e-001	 1.698252517252631e+001
 1.260424530531780e+000	 2.899014065232126e-001	 1.692390830455695e+001
 1.257396103235723e+000	 3.027669134933045e-001	 1.686180795243243e+001
 1.254227046857416e+000	 3.156378019693298e-001	 1.679645098799391e+001
 1.250916691691409e+000	 3.285119238383342e-001	 1.672816911560252e+001
 1.247464408718702e+000	 3.413871054145676e-001	 1.665740435510137e+001
 1.243869610541214e+000	 3.542611483201652e-001	 1.658471441361516e+001
 1.240131752296229e+000	 3.671318304018756e-001	 1.651077789161668e+001
 1.236250332549294e+000	 3.799969066834299e-001	 1.643639926568994e+001
 1.275212221042108e+000	 2.526537855862646e-001	 1.698348380626533e+001
 1.272587813135937e+000	 2.655566896548908e-001	 1.693417657625200e+001
 1.269824306513037e+000	 2.784713179904967e-001	 1.688124798928779e+001
 1.266920911142484e+000	 2.913955934665959e-001	 1.682474256550179e+001
 1.263876874965741e+000	 3.043274108169011e-001	 1.676479775640857e+001
 1.260691484887394e+000	 3.172646374100713e-001	 1.670164966783475e+001
 1.257364067750244e+000	 3.302051140615146e-001	 1.663563878312504e+001
 1.253893991293237e+000	 3.431466558820383e-001	 1.656721563750489e+001
 1.250280665090766e+000	 3.560870531630688e-001	 1.649694639087561e+001
 1.246523541471813e+000	 3.690240722981045e-001	 1.642551824292598e+001
 1.242622116417461e+000	 3.819554567399942e-001	 1.635374463130212e+001
 1.281751116937819e+000	 2.539493164598298e-001	 1.688081943666723e+001
 1.279113251875702e+000	 2.669183826502437e-001	 1.683348301846111e+001
 1.276335574841441e+000	 2.798992332260784e-001	 1.678254567814436e+001
 1.273417291753062e+000	 2.928897804099790e-001	 1.672806318108219e+001
 1.270357646695690e+000	 3.058879081404976e-001	 1.667018326193804e+001
 1.267155922917366e+000	 3.188914728508127e-001	 1.660915151853247e+001
 1.263811443809134e+000	 3.318983042846949e-001	 1.654531731886051e+001
 1.260323573867888e+000	 3.449062063495089e-001	 1.647913967087528e+001
 1.256691719640487e+000	 3.579129580059724e-001	 1.641119300088990e+001
 1.252915330647610e+000	 3.709163141943335e-001	 1.634217278290481e+001
 1.248993900285875e+000	 3.839140067965583e-001	 1.627290095787929e+001
 1.288290012833362e+000	 2.552448473333605e-001	 1.678079853436875e+001
 1.285638690615317e+000	 2.682800756455714e-001	 1.673535149495113e+001
 1.282846843169720e+000	 2.813271484616426e-001	 1.668632036192097e+001
 1.279913672363551e+000	 2.943839673533512e-001	 1.663377265343708e+001
 1.276838418425593e+000	 3.074484054640888e-001	 1.657786673442580e+001
 1.273620360947340e+000	 3.205183082915538e-001	 1.651885788435345e+001
 1.270258819868077e+000	 3.335914945078801e-001	 1.645710439168916e+001
 1.266753156442643e+000	 3.466657568169896e-001	 1.639307362337505e+001
 1.263102774190359e+000	 3.597388628488922e-001	 1.632734801370506e+001
 1.259307119823602e+000	 3.728085560905861e-001	 1.626063091331077e+001
 1.255365684154520e+000	 3.858725568531549e-001	 1.619375223551380e+001
 1.294828908728823e+000	 2.565403782068224e-001	 1.668331907524146e+001
 1.292164129354848e+000	 2.696417686408488e-001	 1.663968144946279e+001
 1.289358111497927e+000	 2.827550636971719e-001	 1.659247250815872e+001
 1.286410052973988e+000	 2.958781542967013e-001	 1.654177196470358e+001
 1.283319190155475e+000	 3.090089027876691e-001	 1.648774909426670e+001
 1.280084798977327e+000	 3.221451437322941e-001	 1.643066897869531e+001
 1.276706195927072e+000	 3.352846847310744e-001	 1.637089879228962e+001
 1.273182739017491e+000	 3.484253072844907e-001	 1.630891407547275e+001
 1.269513828740366e+000	 3.615647676918448e-001	 1.624530493927794e+001
 1.265698908999770e+000	 3.747007979868861e-001	 1.618078213971115e+001
 1.261737468023377e+000	 3.878311069098167e-001	 1.611618295745206e+001
 1.301367804624286e+000	 2.578359090801811e-001	 1.658827728793678e+001
 1.298689568094366e+000	 2.710034616360509e-001	 1.654637063946418e+001
 1.295869379826117e+000	 2.841829789326488e-001	 1.650090099921829e+001
 1.292906433584414e+000	 2.973723412400182e-001	 1.645196065262947e+001
 1.289799961885357e+000	 3.105694001112327e-001	 1.639972999744053e+001
 1.286549237007336e+000	 3.237719791730334e-001	 1.634448396911671e+001
 1.283153571986116e+000	 3.369778749542830e-001	 1.628659852203397e+001
 1.279612321592421e+000	 3.501848577520221e-001	 1.622655711211184e+001
 1.275924883290491e+000	 3.633906725348460e-001	 1.616495712230528e+001
 1.272090698176094e+000	 3.765930398832567e-001	 1.610251616834094e+001
 1.268109251892432e+000	 3.897896569665759e-001	 1.604007821832505e+001
 1.307906700519837e+000	 2.591314399534021e-001	 1.649556771099442e+001
 1.305215006833941e+000	 2.723651546311524e-001	 1.645531519967963e+001
 1.302380648154344e+000	 2.856108941680557e-001	 1.641150320176610e+001
 1.299402814194865e+000	 2.988665281832908e-001	 1.636423688553048e+001
 1.296280733615264e+000	 3.121298974347746e-001	 1.631370791543372e+001
 1.293013675037378e+000	 3.253988146137714e-001	 1.626020106169501e+001
 1.289600948045209e+000	 3.386710651775105e-001	 1.620410088123158e+001
 1.286041904167421e+000	 3.519444082195941e-001	 1.614589841426997e+001
 1.282335937840718e+000	 3.652165773779125e-001	 1.608619783650676e+001
 1.278482487352557e+000	 3.784852817797219e-001	 1.602572300249629e+001
 1.274481035761665e+000	 3.917482070234652e-001	 1.596532381201893e+001
 1.210763197079440e+000	 3.721627064565229e-001	 1.678745968865319e+001
 1.206820748779484e+000	 3.847548396058735e-001	 1.669791216752297e+001
 1.202736845682000e+000	 3.973370208620146e-001	 1.660160432935635e+001
 1.198511127482119e+000	 4.099069892381354e-001	 1.649962642739681e+001
 1.194143279664885e+000	 4.224624654102122e-001	 1.639321226649925e+001
 1.189633034254827e+000	 4.350011528162668e-001	 1.628374157594315e+001
 1.184980170535832e+000	 4.475207387868736e-001	 1.617274179155265e+001
 1.180184515739950e+000	 4.600188957060534e-001	 1.606188918729567e+001
 1.175245945703767e+000	 4.724932822016346e-001	 1.595300929708994e+001
 1.170164385490992e+000	 4.849415443640924e-001	 1.584807656861232e+001
 1.164939809979976e+000	 4.973613169928101e-001	 1.574921319251156e+001
 1.217134980946447e+000	 3.741212565134122e-001	 1.669639450762040e+001
 1.213171785047885e+000	 3.867796572458214e-001	 1.660992994657921e+001
 1.209066389929284e+000	 3.994280537120125e-001	 1.651684665427143e+001
 1.204818433389631e+000	 4.120641730264683e-001	 1.641822228315024e+001
 1.200427599258805e+000	 4.246857238699562e-001	 1.631527893317048e+001
 1.195893618151086e+000	 4.372903975945734e-001	 1.620938574847207e+001
 1.191216268188817e+000	 4.498758693602014e-001	 1.610206091822342e+001
 1.186395375694846e+000	 4.624397993015102e-001	 1.599497301958170e+001
 1.181430815852335e+000	 4.749798337245844e-001	 1.588994164123664e+001
 1.176322513330638e+000	 4.874936063321756e-001	 1.578893722704530e+001
 1.171070442875903e+000	 4.999787394765238e-001	 1.569408008085365e+001
 1.223506764813771e+000	 3.760798065701715e-001	 1.660760738074961e+001
 1.219522821316593e+000	 3.888044748855961e-001	 1.652414670749285e+001
 1.215395934176838e+000	 4.015190865617895e-001	 1.643420346521902e+001
 1.211125739297355e+000	 4.142213568145306e-001	 1.633884142477348e+001
 1.206711918852863e+000	 4.269089823293816e-001	 1.623926984729437e+001
 1.202154202047399e+000	 4.395796423725173e-001	 1.613684631729862e+001
 1.197452365841776e+000	 4.522309999331303e-001	 1.603307897465915e+001
 1.192606235649638e+000	 4.648607028965430e-001	 1.592962808113898e+001
 1.187615686000735e+000	 4.774663852470990e-001	 1.582830685761113e+001
 1.182480641170070e+000	 4.900456682998303e-001	 1.573108152910244e+001
 1.177201075771599e+000	 5.025961619598356e-001	 1.564007051637477e+001
 1.229878548681392e+000	 3.780383566268333e-001	 1.652098127550033e+001
 1.225873857585599e+000	 3.908292925252413e-001	 1.644043870359489e+001
 1.221725478424662e+000	 4.036101194114011e-001	 1.635354607621901e+001
 1.217433045205305e+000	 4.163785406023902e-001	 1.626135195419825e+001
 1.212996238447089e+000	 4.291322407885680e-001	 1.616505157671120e+001
 1.208414785943816e+000	 4.418688871501895e-001	 1.606598994356790e+001
 1.203688463494770e+000	 4.545861305057600e-001	 1.596566429099405e+001
 1.198817095604402e+000	 4.672816064912578e-001	 1.586572589422001e+001
 1.193800556149054e+000	 4.799529367692876e-001	 1.576798113058656e+001
 1.188638769009385e+000	 4.925977302671635e-001	 1.567439173785630e+001
 1.183331708667162e+000	 5.052135844428459e-001	 1.558707420397967e+001
 1.236250332549294e+000	 3.799969066834299e-001	 1.643639926568994e+001
 1.232224893854889e+000	 3.928541101647999e-001	 1.635868269516069e+001
 1.228055022672758e+000	 4.057011522609021e-001	 1.627474668139136e+001
 1.223740351113495e+000	 4.185357243901146e-001	 1.618562319783543e+001
 1.219280558041513e+000	 4.313554992475949e-001	 1.609249222801300e+001
 1.214675369840381e+000	 4.441581319276804e-001	 1.599668511003184e+001
 1.209924561147862e+000	 4.569412610781907e-001	 1.589968726912068e+001
 1.205027955559215e+000	 4.697025100857605e-001	 1.580314026902717e+001
 1.199985426297380e+000	 4.824394882912582e-001	 1.570884311349726e+001
 1.194796896848678e+000	 4.951497922342820e-001	 1.561875272999171e+001
 1.189462341562692e+000	 5.078310069256553e-001	 1.553498356934258e+001
 1.242622116417461e+000	 3.819554567399942e-001	 1.635374463130212e+001
 1.238575930124457e+000	 3.948789278043152e-001	 1.627875605018261e+001
 1.234384566921126e+000	 4.077921851103480e-001	 1.619767845754303e+001
 1.230047657021941e+000	 4.206929081777715e-001	 1.611152581181852e+001
 1.225564877636165e+000	 4.335787577065424e-001	 1.602146155527411e+001
 1.220935953737142e+000	 4.464473767050806e-001	 1.592880223408631e+001
 1.216160658801114e+000	 4.592963916505214e-001	 1.583502050084032e+001
 1.211238815514154e+000	 4.721234136801573e-001	 1.574174742777097e+001
 1.206170296445803e+000	 4.849260398131203e-001	 1.565077405938483e+001
 1.200955024688047e+000	 4.977018542012932e-001	 1.556405213400560e+001
 1.195592974458290e+000	 5.104484294083644e-001	 1.548369390531150e+001
 1.248993900285875e+000	 3.839140067965583e-001	 1.627290095787929e+001
 1.244926966394291e+000	 3.969037454438305e-001	 1.620053684484612e+001
 1.240714111169767e+000	 4.098832179597941e-001	 1.612221566655440e+001
 1.236354962930655e+000	 4.228500919654281e-001	 1.603893188711581e+001
 1.231849197231075e+000	 4.358020161654896e-001	 1.595183106869473e+001
 1.227196537634143e+000	 4.487366214824807e-001	 1.586221378073968e+001
 1.222396756454587e+000	 4.616515222228523e-001	 1.577153888593886e+001
 1.217449675469295e+000	 4.745443172745541e-001	 1.568142612862132e+001
 1.212355166594411e+000	 4.874125913349823e-001	 1.559365795158039e+001
 1.207113152527589e+000	 5.002539161683046e-001	 1.551018046816035e+001
 1.201723607354055e+000	 5.130658518910735e-001	 1.543310351795807e+001
 1.255365684154520e+000	 3.858725568531549e-001	 1.619375223551380e+001
 1.251278002664382e+000	 3.989285630833892e-001	 1.612390396372087e+001
 1.247043655418682e+000	 4.119742508092951e-001	 1.604823375757135e+001
 1.242662268839654e+000	 4.250072757531525e-001	 1.596771505451558e+001
 1.238133516826273e+000	 4.380252746245166e-001	 1.588347414315997e+001
 1.233457121531434e+000	 4.510258662599718e-001	 1.579679437551566e+001
 1.228632854108345e+000	 4.640066527952828e-001	 1.570911975019001e+001
 1.223660535424715e+000	 4.769652208690567e-001	 1.562205778955606e+001
 1.218540036743293e+000	 4.898991428569531e-001	 1.553738163412799e+001
 1.213271280367399e+000	 5.028059781354234e-001	 1.545703127819901e+001
 1.207854240250086e+000	 5.156832743738828e-001	 1.538311387228551e+001
 1.261737468023377e+000	 3.878311069098167e-001	 1.611618295745206e+001
 1.257629038934719e+000	 4.009533807230342e-001	 1.604873719967614e+001
 1.253373199667872e+000	 4.140652836589066e-001	 1.597560946901055e+001
 1.248969574748952e+000	 4.271644595410121e-001	 1.589775058948903e+001
 1.244417836421790e+000	 4.402485330837030e-001	 1.581626612671814e+001
 1.239717705429057e+000	 4.533151110376436e-001	 1.573242091729221e+001
 1.234868951762449e+000	 4.663617833679126e-001	 1.564764296328923e+001
 1.229871395380491e+000	 4.793861244637716e-001	 1.556352661210982e+001
 1.224724906892536e+000	 4.923856943791414e-001	 1.548183494205608e+001
 1.219429408207575e+000	 5.053580401027564e-001	 1.540450127483119e+001
 1.213984873146484e+000	 5.183006968568933e-001	 1.533362973760673e+001
 1.268109251892432e+000	 3.897896569665759e-001	 1.604007821832505e+001
 1.263980075205293e+000	 4.029781983628091e-001	 1.597491735353098e+001
 1.259702743917337e+000	 4.161563165086835e-001	 1.590422093038412e+001
 1.255276880658563e+000	 4.293216433290745e-001	 1.582891551693522e+001
 1.250702156017655e+000	 4.424717915431283e-001	 1.575008444898032e+001
 1.245978289327063e+000	 4.556043558155878e-001	 1.566897269107972e+001
 1.241105049416963e+000	 4.687169139408416e-001	 1.558699105672016e+001
 1.236082255336699e+000	 4.818070280588044e-001	 1.550571970502698e+001
 1.230909777042229e+000	 4.948722459016561e-001	 1.542691083150110e+001
 1.225587536048212e+000	 5.079101020704109e-001	 1.535249047099746e+001
 1.220115506043348e+000	 5.209181193402052e-001	 1.528455933260459e+001
 1.274481035761665e+000	 3.917482070234652e-001	 1.596532381201893e+001
 1.270331111476093e+000	 4.050030160027568e-001	 1.590232633344758e+001
 1.266032288167079e+000	 4.182473493586814e-001	 1.583394776395024e+001
 1.261584186568501e+000	 4.314788271174073e-001	 1.576108871581216e+001
 1.256986475613899e+000	 4.446950500028725e-001	 1.568480872944491e+001
 1.252238873225494e+000	 4.578936005938943e-001	 1.560633148073909e+001
 1.247341147071948e+000	 4.710720445141692e-001	 1.552704934155622e+001
 1.242293115293416e+000	 4.842279316542610e-001	 1.544852720782262e+001
 1.237094647192461e+000	 4.973587974246059e-001	 1.537250550968942e+001
 1.231745663889408e+000	 5.104621640384943e-001	 1.530090231892030e+001
 1.226246138940778e+000	 5.235355418239187e-001	 1.523581447008463e+001
 1.164939809979976e+000	 4.973613169928101e-001	 1.574921319251156e+001
 1.159573060379774e+000	 5.097483691623166e-001	 1.564603274902962e+001
 1.154063440608705e+000	 5.221021836003701e-001	 1.552803933517683e+001
 1.148411078980047e+000	 5.344203706993145e-001	 1.539741870535341e+001
 1.142616155560737e+000	 5.467005348259916e-001	 1.525645306921242e+001
 1.136678902563766e+000	 5.589402756857403e-001	 1.510751528081867e+001
 1.130599604698522e+000	 5.711371897061304e-001	 1.495306201039983e+001
 1.124378599478121e+000	 5.832888714389555e-001	 1.479562586987931e+001
 1.118016277482770e+000	 5.953929149789649e-001	 1.463780646925416e+001
 1.111513082578307e+000	 6.074469153977584e-001	 1.448226038726189e+001
 1.104869512089097e+000	 6.194484701912240e-001	 1.433169004663612e+001
 1.171070442875903e+000	 4.999787394765238e-001	 1.569408008085365e+001
 1.165675450124151e+000	 5.124309799664151e-001	 1.559473796423981e+001
 1.160136835330482e+000	 5.248498078073975e-001	 1.548022334824657e+001
 1.154454727483430e+000	 5.372328208162187e-001	 1.535280624721126e+001
 1.148629307597547e+000	 5.495776107524130e-001	 1.521485980143160e+001
 1.142660809107865e+000	 5.618817646894811e-001	 1.506885445515829e+001
 1.136549518222081e+000	 5.741428664059041e-001	 1.491735108180786e+001
 1.130295774229504e+000	 5.863584977945160e-001	 1.476299302577223e+001
 1.123899969765807e+000	 5.985262402887011e-001	 1.460849703623859e+001
 1.117362551032718e+000	 6.106436763038349e-001	 1.445664307499431e+001
 1.110684017971820e+000	 6.227083906923381e-001	 1.431026298724631e+001
 1.177201075771599e+000	 5.025961619598356e-001	 1.564007051637477e+001
 1.171777839868310e+000	 5.151135907701613e-001	 1.554441579475906e+001
 1.166210230052084e+000	 5.275974320141417e-001	 1.543325780924913e+001
 1.160498375986703e+000	 5.400452709329231e-001	 1.530895040740923e+001
 1.154642459634335e+000	 5.524546866787284e-001	 1.517395720231872e+001
 1.148642715652043e+000	 5.648232536932150e-001	 1.503084574450406e+001
 1.142499431745828e+000	 5.771485431057705e-001	 1.488228060526837e+001
 1.136212948981187e+000	 5.894281241502639e-001	 1.473101533892073e+001
 1.129783662049258e+000	 6.016595655987103e-001	 1.457988329761103e+001
 1.123212019487647e+000	 6.138404372102553e-001	 1.443178727922127e+001
 1.116498523855155e+000	 6.259683111938493e-001	 1.428968799602015e+001
 1.183331708667162e+000	 5.052135844428459e-001	 1.558707420397967e+001
 1.177880229612348e+000	 5.177962015736433e-001	 1.549496301092792e+001
 1.172283624773600e+000	 5.303450562206736e-001	 1.538704444625887e+001
 1.166542024489947e+000	 5.428577210494781e-001	 1.526575572243693e+001
 1.160655611671164e+000	 5.553317626049648e-001	 1.513365043006638e+001
 1.154624622196344e+000	 5.677647426969438e-001	 1.499339270914474e+001
 1.148449345269787e+000	 5.801542198057058e-001	 1.484775029542582e+001
 1.142130123733177e+000	 5.924977505061526e-001	 1.469958640746118e+001
 1.135667354333106e+000	 6.047928909089242e-001	 1.455185044625568e+001
 1.129061487943063e+000	 6.170371981169346e-001	 1.440756748640604e+001
 1.122313029739053e+000	 6.292282316956586e-001	 1.426982654505715e+001
 1.189462341562692e+000	 5.078310069256553e-001	 1.553498356934258e+001
 1.183982619356362e+000	 5.204788123769490e-001	 1.544627920716789e+001
 1.178357019495120e+000	 5.330926804270639e-001	 1.534148794451903e+001
 1.172585672993239e+000	 5.456701711659333e-001	 1.522312984764442e+001
 1.166668763708096e+000	 5.582088385311481e-001	 1.509384795085048e+001
 1.160606528740812e+000	 5.707062317006687e-001	 1.495640243273927e+001
 1.154399258793986e+000	 5.831598965056877e-001	 1.481366363079128e+001
 1.148047298485480e+000	 5.955673768621349e-001	 1.466860385786258e+001
 1.141551046617341e+000	 6.079262162192751e-001	 1.452428799070258e+001
 1.134910956398930e+000	 6.202339590237861e-001	 1.438386280772093e+001
 1.128127535623464e+000	 6.324881521976661e-001	 1.425054506090801e+001
 1.195592974458290e+000	 5.104484294083644e-001	 1.548369390531150e+001
 1.190085009100449e+000	 5.231614231801667e-001	 1.539826695643260e+001
 1.184430414216734e+000	 5.358403046333834e-001	 1.529649610788033e+001
 1.178629321496656e+000	 5.484826212823389e-001	 1.518098372459546e+001
 1.172681915745194e+000	 5.610859144573051e-001	 1.505446171101507e+001
 1.166588435285495e+000	 5.736477207043924e-001	 1.491978569824281e+001
 1.160349172318449e+000	 5.861655732056925e-001	 1.477992803230910e+001
 1.153964473238100e+000	 5.986370032181640e-001	 1.463796952502596e+001
 1.147434738901945e+000	 6.110595415296941e-001	 1.449708993564872e+001
 1.140760424855218e+000	 6.234307199307239e-001	 1.436055715887311e+001
 1.133942041508339e+000	 6.357480726997732e-001	 1.423171510258588e+001
 1.201723607354055e+000	 5.130658518910735e-001	 1.543310351795807e+001
 1.196187398844709e+000	 5.258440339833845e-001	 1.535083196419924e+001
 1.190503808938531e+000	 5.385879288397029e-001	 1.525198001970295e+001
 1.184672970000277e+000	 5.512950713987442e-001	 1.513923174783770e+001
 1.178695067782521e+000	 5.639629903834621e-001	 1.501540730865754e+001
 1.172570341830435e+000	 5.765892097081160e-001	 1.488345716324360e+001
 1.166299085843203e+000	 5.891712499056977e-001	 1.474645504137569e+001
 1.159881647991045e+000	 6.017066295741933e-001	 1.460758963190813e+001
 1.153318431186906e+000	 6.141928668401130e-001	 1.447015496210189e+001
 1.146609893311894e+000	 6.266274808376617e-001	 1.433753943968117e+001
 1.139756547393629e+000	 6.390079932018798e-001	 1.421321353948478e+001
 1.207854240250086e+000	 5.156832743738828e-001	 1.538311387228551e+001
 1.202289788589236e+000	 5.285266447866904e-001	 1.530388322201612e+001
 1.196577203660602e+000	 5.413355530460930e-001	 1.520785420324108e+001
 1.190716618504179e+000	 5.541075215151995e-001	 1.509779193111015e+001
 1.184708219820140e+000	 5.668400663096455e-001	 1.497660416463495e+001
 1.178552248375679e+000	 5.795306987118412e-001	 1.484733553473382e+001
 1.172248999368273e+000	 5.921769266056794e-001	 1.471316049733166e+001
 1.165798822744318e+000	 6.047762559301756e-001	 1.457737496868474e+001
 1.159202123472210e+000	 6.173261921504637e-001	 1.444338660716067e+001
 1.152459361768924e+000	 6.298242417445134e-001	 1.431470371341146e+001
 1.145571053279286e+000	 6.422679137038877e-001	 1.419492272920902e+001
 1.213984873146484e+000	 5.183006968568933e-001	 1.533362973760673e+001
 1.208392178334129e+000	 5.312092555901723e-001	 1.525733316062236e+001
 1.202650598383037e+000	 5.440831772526249e-001	 1.516403678152908e+001
 1.196760267008440e+000	 5.569199716317547e-001	 1.505658607300906e+001
 1.190721371858112e+000	 5.697171422358817e-001	 1.493797569301126e+001
 1.184534154921272e+000	 5.824721877155700e-001	 1.481134374333205e+001
 1.178198912893685e+000	 5.951826033056150e-001	 1.467996471444403e+001
 1.171715997497927e+000	 6.078458822860643e-001	 1.454724107147094e+001
 1.165085815757842e+000	 6.204595174606781e-001	 1.441669344344330e+001
 1.158308830226277e+000	 6.330210026511924e-001	 1.429194938588287e+001
 1.151385559165260e+000	 6.455278342056968e-001	 1.417673069531695e+001
 1.220115506043348e+000	 5.209181193402052e-001	 1.528455933260459e+001
 1.214494568079485e+000	 5.338918663939185e-001	 1.521109780265456e+001
 1.208723993105924e+000	 5.468308014593692e-001	 1.512044963678591e+001
 1.202803915513139e+000	 5.597324217484591e-001	 1.501553992212981e+001
 1.196734523896502e+000	 5.725942181621972e-001	 1.489944947096662e+001
 1.190516061467258e+000	 5.854136767193038e-001	 1.477540911697828e+001
 1.184148826419464e+000	 5.981882800054812e-001	 1.464679265839870e+001
 1.177633172251877e+000	 6.109155086418121e-001	 1.451710840061340e+001
 1.170969508043789e+000	 6.235928427706871e-001	 1.438998925817846e+001
 1.164158298683920e+000	 6.362177635576132e-001	 1.426918138434799e+001
 1.157200065051501e+000	 6.487877547072080e-001	 1.415853130498206e+001
 1.226246138940778e+000	 5.235355418239187e-001	 1.523581447008463e+001
 1.220596957825401e+000	 5.365744771980168e-001	 1.516509691495484e+001
 1.214797387829354e+000	 5.495784256663966e-001	 1.507701856935539e+001
 1.208847564018351e+000	 5.625448718653632e-001	 1.497458334170451e+001
 1.202747675935371e+000	 5.754712940886186e-001	 1.486095740818603e+001
 1.196497968013682e+000	 5.883551657230444e-001	 1.473946355411932e+001
 1.190098739945637e+000	 6.011939567052549e-001	 1.461357412231834e+001
 1.183550347006174e+000	 6.139851349973728e-001	 1.448690251857055e+001
 1.176853200330036e+000	 6.267261680804233e-001	 1.436319323196902e+001
 1.170007767141820e+000	 6.394145244636895e-001	 1.424631033615871e+001
 1.163014570937961e+000	 6.520476752083219e-001	 1.414022444657374e+001
 1.104869512089097e+000	 6.194484701912240e-001	 1.433169004663612e+001
 1.098085089003007e+000	 6.313969688049652e-001	 1.418371253595817e+001
 1.091161405032191e+000	 6.432882130677760e-001	 1.403671763290886e+001
 1.084099119641821e+000	 6.551198161888586e-001	 1.389455193355547e+001
 1.076898946000012e+000	 6.668893997229497e-001	 1.376107660158378e+001
 1.069561650911468e+000	 6.785945950602359e-001	 1.362552825595346e+001
 1.062088054702069e+000	 6.902330449192106e-001	 1.347620656984751e+001
 1.054479031054074e+000	 7.018024048406095e-001	 1.331421616223692e+001
 1.046735506791741e+000	 7.133003446805322e-001	 1.314062626320247e+001
 1.038858461617222e+000	 7.247245501008480e-001	 1.295647003756571e+001
 1.030848927796671e+000	 7.360727240549706e-001	 1.276274426355636e+001
 1.110684017971820e+000	 6.227083906923381e-001	 1.431026298724631e+001
 1.103863891060642e+000	 6.347197696866972e-001	 1.416718914053570e+001
 1.096903770387911e+000	 6.466735930223382e-001	 1.402595752650585e+001
 1.089804318889317e+000	 6.585674613477011e-001	 1.389044645577443e+001
 1.082566253486110e+000	 6.703989837006782e-001	 1.376322397790614e+001
 1.075190345018397e+000	 6.821657790063734e-001	 1.362805741448431e+001
 1.067677418129123e+000	 6.938654775778139e-001	 1.347988700694231e+001
 1.060028351098407e+000	 7.054957226177467e-001	 1.331976523152606e+001
 1.052244075628034e+000	 7.170541717196199e-001	 1.314870433733565e+001
 1.044325576575955e+000	 7.285384983658311e-001	 1.296767573171380e+001
 1.036273891640754e+000	 7.399463934213199e-001	 1.277760974132759e+001
 1.116498523855155e+000	 6.259683111938493e-001	 1.428968799602015e+001
 1.109642693118966e+000	 6.380425705688563e-001	 1.415160334123459e+001
 1.102646135744382e+000	 6.500589729773376e-001	 1.401618497868749e+001
 1.095509518137610e+000	 6.620151065069738e-001	 1.388734138626132e+001
 1.088233560973034e+000	 6.739085676788197e-001	 1.376409981067993e+001
 1.080819039126168e+000	 6.857369629528982e-001	 1.362951838875332e+001
 1.073266781557023e+000	 6.974979102367745e-001	 1.348265888176189e+001
 1.065577671143576e+000	 7.091890403952124e-001	 1.332451957284698e+001
 1.057752644465140e+000	 7.208079987590110e-001	 1.315605371565606e+001
 1.049792691535468e+000	 7.323524466311011e-001	 1.297816898523706e+001
 1.041698855485570e+000	 7.438200627879527e-001	 1.279172732565993e+001
 1.122313029739053e+000	 6.292282316956586e-001	 1.426982654505715e+001
 1.115421495177916e+000	 6.413653714513357e-001	 1.413680258871126e+001
 1.108388501101529e+000	 6.534443529326649e-001	 1.400723373644474e+001
 1.101214717386616e+000	 6.654627516665709e-001	 1.388505711610673e+001
 1.093900868460696e+000	 6.774181516572718e-001	 1.376371219770675e+001
 1.086447733234689e+000	 6.893081468997160e-001	 1.362991451686794e+001
 1.078856144985671e+000	 7.011303428960078e-001	 1.348452155273289e+001
 1.071126991189482e+000	 7.128823581729308e-001	 1.332847539386168e+001
 1.063261213302960e+000	 7.245618257986404e-001	 1.316266833060938e+001
 1.055259806495660e+000	 7.361663948966014e-001	 1.298794237517726e+001
 1.047123819331021e+000	 7.476937321548193e-001	 1.280508919981333e+001
 1.128127535623464e+000	 6.324881521976661e-001	 1.425054506090801e+001
 1.121200297237431e+000	 6.446881723340283e-001	 1.412263961061888e+001
 1.114130866459280e+000	 6.568297328882105e-001	 1.399894311088661e+001
 1.106919916636253e+000	 6.689103968263843e-001	 1.388300412675481e+001
 1.099568175949008e+000	 6.809277356359336e-001	 1.376207640637757e+001
 1.092076427343866e+000	 6.928793308467319e-001	 1.362925637287143e+001
 1.084445508414973e+000	 7.047627755554290e-001	 1.348548166270069e+001
 1.076676311236026e+000	 7.165756759508273e-001	 1.333163621694662e+001
 1.068769782141392e+000	 7.283156528384416e-001	 1.316854944112106e+001
 1.060726921456431e+000	 7.399803431622750e-001	 1.299699579792414e+001
 1.052548783177006e+000	 7.515674015218691e-001	 1.281769483997743e+001
 1.133942041508339e+000	 6.357480726997732e-001	 1.423171510258588e+001
 1.126979099297446e+000	 6.480109732168279e-001	 1.410897258737156e+001
 1.119873231817559e+000	 6.602151128438663e-001	 1.399115815102195e+001
 1.112625115886439e+000	 6.723580419863071e-001	 1.387962997363924e+001
 1.105235483437879e+000	 6.844373196147020e-001	 1.375921472871672e+001
 1.097705121453605e+000	 6.964505147938525e-001	 1.362756161670194e+001
 1.090034871844829e+000	 7.083952082149518e-001	 1.348555298450031e+001
 1.082225631283110e+000	 7.202689937288271e-001	 1.333401272109608e+001
 1.074278350980340e+000	 7.320694798783510e-001	 1.317370547157166e+001
 1.066194036417681e+000	 7.437942914280661e-001	 1.300533630602282e+001
 1.057973747023426e+000	 7.554410708890517e-001	 1.282955085069133e+001
 1.139756547393629e+000	 6.390079932018798e-001	 1.421321353948478e+001
 1.132757901357898e+000	 6.513337740996277e-001	 1.409566532798021e+001
 1.125615597176293e+000	 6.636004927995228e-001	 1.398372981776394e+001
 1.118330315137091e+000	 6.758056871462320e-001	 1.387483556675070e+001
 1.110902790927220e+000	 6.879469035934759e-001	 1.375515633690069e+001
 1.103333815563813e+000	 7.000216987409836e-001	 1.362485484472802e+001
 1.095624235275144e+000	 7.120276408744931e-001	 1.348475626719114e+001
 1.087774951330634e+000	 7.239623115068550e-001	 1.333562258455741e+001
 1.079786919819701e+000	 7.358233069183022e-001	 1.317815185155584e+001
 1.071661151379311e+000	 7.476082396939175e-001	 1.301297794579944e+001
 1.063398710870180e+000	 7.593147402563173e-001	 1.284067080109601e+001
 1.145571053279286e+000	 6.422679137038877e-001	 1.419492272920902e+001
 1.138536703418726e+000	 6.546565749823208e-001	 1.408258744595768e+001
 1.131357962535409e+000	 6.669858727550705e-001	 1.397650909407494e+001
 1.124035514388128e+000	 6.792533323060525e-001	 1.386866200149718e+001
 1.116570098416944e+000	 6.914564875721528e-001	 1.374993713923373e+001
 1.108962509674396e+000	 7.035928826880307e-001	 1.362116744084153e+001
 1.101213598705821e+000	 7.156600735339670e-001	 1.348311908293135e+001
 1.093324271378501e+000	 7.276556292848364e-001	 1.333649032817359e+001
 1.085295488659378e+000	 7.395771339582308e-001	 1.318191085639872e+001
 1.077128266341220e+000	 7.514221879597718e-001	 1.301994159577517e+001
 1.068823674717169e+000	 7.631884096236151e-001	 1.285107506198996e+001
 1.151385559165260e+000	 6.455278342056968e-001	 1.417673069531695e+001
 1.144315505479866e+000	 6.579793758648005e-001	 1.406961453529058e+001
 1.137100327894832e+000	 6.703712527104010e-001	 1.396843234075999e+001
 1.129740713639465e+000	 6.827009774656603e-001	 1.386115690426601e+001
 1.122237405906962e+000	 6.949660715506317e-001	 1.374359963656374e+001
 1.114591203785260e+000	 7.071640666348995e-001	 1.361653742808691e+001
 1.106802962136764e+000	 7.192925061932889e-001	 1.348067567446966e+001
 1.098873591426612e+000	 7.313489470626965e-001	 1.333664715940706e+001
 1.090804057499271e+000	 7.433309609980714e-001	 1.318501144840135e+001
 1.082595381303308e+000	 7.552361362255734e-001	 1.302625480584192e+001
 1.074248638564292e+000	 7.670620789908953e-001	 1.286079064365896e+001
 1.157200065051501e+000	 6.487877547072080e-001	 1.415853130498206e+001
 1.150094307541256e+000	 6.613021767469599e-001	 1.405662834647564e+001
 1.142842693254488e+000	 6.737566326654046e-001	 1.395883476571953e+001
 1.135445912891022e+000	 6.861486226249490e-001	 1.385237429457471e+001
 1.127904713397183e+000	 6.984756555288100e-001	 1.373619277912477e+001
 1.120219897896312e+000	 7.107352505814967e-001	 1.361100932080861e+001
 1.112392325567875e+000	 7.229249388523745e-001	 1.347746680323308e+001
 1.104422911474868e+000	 7.350422648403597e-001	 1.333613081702224e+001
 1.096312626339280e+000	 7.470847880377582e-001	 1.318748911879091e+001
 1.088062496265477e+000	 7.590500844912654e-001	 1.303195163717111e+001
 1.079673602411449e+000	 7.709357483581074e-001	 1.286985103445299e+001
 1.163014570937961e+000	 6.520476752083219e-001	 1.414022444657374e+001
 1.155873109602832e+000	 6.646249776286929e-001	 1.404351696261824e+001
 1.148585058614304e+000	 6.771420126199730e-001	 1.394778223034619e+001
 1.141151112142714e+000	 6.895962677838111e-001	 1.384237444752806e+001
 1.133572020887520e+000	 7.019852395065859e-001	 1.372777182378905e+001
 1.125848592007459e+000	 7.143064345277265e-001	 1.360463397729805e+001
 1.117981688999059e+000	 7.265573715111380e-001	 1.347353959798912e+001
 1.109972231523171e+000	 7.387355826177517e-001	 1.333498541640215e+001
 1.101821195179304e+000	 7.508386150772266e-001	 1.318938573035005e+001
 1.093529611227624e+000	 7.628640327567903e-001	 1.303707250283157e+001
 1.085098566258542e+000	 7.748094177252014e-001	 1.287829604008510e+001
 1.030848927796671e+000	 7.360727240549706e-001	 1.276274426355636e+001
 1.022707989505717e+000	 7.473425880179891e-001	 1.256771925908406e+001
 1.014436781551623e+000	 7.585318826949443e-001	 1.237826322778187e+001
 1.006036489798570e+000	 7.696383702024040e-001	 1.219317570832704e+001
 9.975083509509269e-001	 7.806598357631507e-001	 1.201117053995488e+001
 9.888536519949061e-001	 7.915940891414762e-001	 1.183088037763677e+001
 9.800737295918565e-001	 8.024389660623850e-001	 1.165086162870388e+001
 9.711699694237401e-001	 8.131923296128095e-001	 1.146959978741503e+001
 9.621438054914021e-001	 8.238520716229617e-001	 1.128551514045035e+001
 9.529967193663581e-001	 8.344161140259776e-001	 1.109696881293757e+001
 9.437302393968710e-001	 8.448824101940288e-001	 1.090226912141523e+001
 1.036273891640754e+000	 7.399463934213199e-001	 1.277760974132759e+001
 1.028090110703659e+000	 7.512755663701751e-001	 1.258648460960892e+001
 1.019775374543992e+000	 7.625237460276317e-001	 1.240089891804908e+001
 1.011330875266677e+000	 7.736886827331343e-001	 1.221961511662329e+001
 1.002757856084381e+000	 7.847681500539400e-001	 1.204130892069164e+001
 9.940576107562282e-001	 7.957599462279669e-001	 1.186457396887551e+001
 9.852314829779033e-001	 8.066618955904691e-001	 1.168792691606238e+001
 9.762808657236762e-001	 8.174718499826220e-001	 1.150981293736992e+001
 9.672072005409863e-001	 8.281876901401470e-001	 1.132861161525861e+001
 9.580119767982906e-001	 8.388073270601095e-001	 1.114264317848227e+001
 9.486967308869592e-001	 8.493287033440607e-001	 1.095017505824706e+001
 1.041698855485570e+000	 7.438200627879527e-001	 1.279172732565993e+001
 1.033472231902282e+000	 7.552085447226570e-001	 1.260443063592513e+001
 1.025113967536979e+000	 7.665156093606413e-001	 1.242262724508515e+001
 1.016625260735336e+000	 7.777389952642229e-001	 1.224504614006151e+001
 1.008007361218321e+000	 7.888764643451286e-001	 1.207032861674131e+001
 9.992615695179733e-001	 7.999258033149022e-001	 1.189703307637167e+001
 9.903892363643124e-001	 8.108848251190414e-001	 1.172364027100606e+001
 9.813917620239231e-001	 8.217513703529624e-001	 1.154855897317234e+001
 9.722705955908413e-001	 8.325233086578918e-001	 1.137013204115284e+001
 9.630272342304665e-001	 8.431985400948195e-001	 1.118664284764634e+001
 9.536632223772814e-001	 8.537749964946746e-001	 1.099632203613903e+001
 1.047123819331021e+000	 7.476937321548193e-001	 1.280508919981333e+001
 1.038854353101484e+000	 7.591415230753883e-001	 1.262155010849567e+001
 1.030452560530485e+000	 7.705074726939275e-001	 1.244344250901389e+001
 1.021919646204449e+000	 7.817893077956220e-001	 1.226946550188631e+001
 1.013256866352648e+000	 7.929847786366678e-001	 1.209822961619629e+001
 1.004465528280040e+000	 8.040916604022279e-001	 1.192826174038858e+001
 9.955469897509849e-001	 8.151077546480426e-001	 1.175801051630281e+001
 9.865026583243810e-001	 8.260308907237651e-001	 1.158585217094679e+001
 9.773339906408669e-001	 8.368589271761237e-001	 1.141009675660459e+001
 9.680424916627864e-001	 8.475897531300306e-001	 1.122899476612243e+001
 9.586297138677377e-001	 8.582212896457886e-001	 1.104074408664400e+001
 1.052548783177006e+000	 7.515674015218691e-001	 1.281769483997743e+001
 1.044236474301167e+000	 7.630745014283223e-001	 1.263784304500825e+001
 1.035791153524410e+000	 7.744993360274444e-001	 1.246334619330970e+001
 1.027214031673916e+000	 7.858396203272857e-001	 1.229287702790623e+001
 1.018506371487263e+000	 7.970930929285075e-001	 1.212501891324848e+001
 1.009669487042330e+000	 8.082575174898905e-001	 1.195827089636372e+001
 1.000704743137819e+000	 8.193306841774135e-001	 1.179105324569919e+001
 9.916135546249502e-001	 8.303104110949647e-001	 1.162171344150105e+001
 9.823973856909621e-001	 8.411945456947709e-001	 1.144853258752051e+001
 9.730577490951501e-001	 8.519809661656644e-001	 1.126973220995801e+001
 9.635962053582278e-001	 8.626675827973180e-001	 1.108348140585722e+001
 1.057973747023426e+000	 7.554410708890517e-001	 1.282955085069133e+001
 1.049618595501230e+000	 7.670074797814130e-001	 1.265331654519495e+001
 1.041129746518654e+000	 7.784911993611470e-001	 1.248234679978056e+001
 1.032508417143636e+000	 7.898899328591671e-001	 1.231529148237572e+001
 1.023755876622064e+000	 8.012014072205981e-001	 1.215071034567970e+001
 1.014873445804742e+000	 8.124233745778354e-001	 1.198707821468251e+001
 1.005862496524717e+000	 8.235536137070948e-001	 1.182279066662499e+001
 9.967244509255303e-001	 8.345899314664957e-001	 1.165617017657536e+001
 9.874607807410282e-001	 8.455301642137624e-001	 1.148547269761462e+001
 9.780730065274571e-001	 8.563721792016433e-001	 1.130889464059911e+001
 9.685626968486518e-001	 8.671138759491810e-001	 1.112458021464160e+001
 1.063398710870180e+000	 7.593147402563173e-001	 1.284067080109601e+001
 1.055000716701573e+000	 7.709404581346138e-001	 1.266798462647931e+001
 1.046468339513117e+000	 7.824830626949891e-001	 1.250045968435681e+001
 1.037802802613509e+000	 7.939402453912196e-001	 1.233672640464545e+001
 1.029005381756952e+000	 8.053097215128897e-001	 1.217532443306205e+001
 1.020077404567176e+000	 8.165892316660085e-001	 1.201470794109262e+001
 1.011020249911577e+000	 8.277765432370262e-001	 1.185325144345128e+001
 1.001835347226022e+000	 8.388694518382924e-001	 1.168925609554457e+001
 9.925241757909649e-001	 8.498657827330259e-001	 1.152095643912429e+001
 9.830882639596080e-001	 8.607633922378900e-001	 1.134652756015245e+001
 9.735291883389100e-001	 8.715601691012934e-001	 1.116409261893794e+001
 1.068823674717169e+000	 7.631884096236151e-001	 1.285107506198996e+001
 1.060382837902096e+000	 7.748734364878774e-001	 1.268186806042315e+001
 1.051806932507698e+000	 7.864749260289258e-001	 1.251770689365765e+001
 1.043097188083436e+000	 7.979905579233964e-001	 1.235720594654987e+001
 1.034254886891827e+000	 8.094180358053328e-001	 1.219888821564382e+001
 1.025281363329533e+000	 8.207550887543560e-001	 1.204119073773303e+001
 1.016178003298301e+000	 8.319994727671491e-001	 1.188247054128197e+001
 1.006946243526324e+000	 8.431489722102895e-001	 1.172101109255841e+001
 9.975875708406714e-001	 8.542014012524897e-001	 1.155502920385403e+001
 9.881035213915023e-001	 8.651546052743258e-001	 1.138268236685791e+001
 9.784956798289021e-001	 8.760064622535720e-001	 1.120207647015576e+001
 1.074248638564292e+000	 7.670620789908953e-001	 1.286079064365896e+001
 1.065764959102699e+000	 7.788064148411578e-001	 1.269499420994329e+001
 1.057145525502298e+000	 7.904667893629110e-001	 1.253411700230648e+001
 1.048391573553316e+000	 8.020408704556507e-001	 1.237676071050854e+001
 1.039504392026589e+000	 8.135263500978776e-001	 1.222143509389548e+001
 1.030485322091712e+000	 8.249209458428238e-001	 1.206656352475894e+001
 1.021335756684786e+000	 8.362224022974037e-001	 1.191048907025936e+001
 1.012057139826338e+000	 8.474284925824217e-001	 1.175148108410397e+001
 1.002650965890049e+000	 8.585370197720823e-001	 1.158774227453878e+001
 9.931187788230408e-001	 8.695458183108743e-001	 1.141741621076537e+001
 9.834621713185283e-001	 8.804527554059347e-001	 1.123859522564362e+001
 1.079673602411449e+000	 7.709357483581074e-001	 1.286985103445300e+001
 1.071147080303283e+000	 7.827393931944082e-001	 1.270739686727240e+001
 1.062484118496817e+000	 7.944586526969000e-001	 1.254972495097069e+001
 1.053685959023049e+000	 8.060911829879361e-001	 1.239542758831519e+001
 1.044753897161138e+000	 8.176346643904751e-001	 1.224300466869391e+001
 1.035689280853614e+000	 8.290868029313576e-001	 1.209086932253848e+001
 1.026493510070935e+000	 8.404453318277302e-001	 1.193735413036713e+001
 1.017168036125963e+000	 8.517080129546233e-001	 1.178071785697440e+001
 1.007714360938997e+000	 8.628726382917317e-001	 1.161915267651321e+001
 9.981340362541230e-001	 8.739370313474563e-001	 1.145079184960583e+001
 9.884286628076887e-001	 8.848990485582965e-001	 1.127371780923433e+001
 1.085098566258542e+000	 7.748094177252014e-001	 1.287829604008510e+001
 1.076529201503747e+000	 7.866723715475821e-001	 1.271911609263643e+001
 1.067822711491155e+000	 7.984505160308466e-001	 1.256457188509863e+001
 1.058980344492536e+000	 8.101414955202057e-001	 1.241324960059046e+001
 1.050003402295374e+000	 8.217429786830747e-001	 1.226364258212156e+001
 1.040893239615138e+000	 8.332526600199040e-001	 1.211415709440485e+001
 1.031651263456647e+000	 8.446682613580696e-001	 1.196311865671100e+001
 1.022278932425099e+000	 8.559875333268288e-001	 1.180877891663248e+001
 1.012777755987415e+000	 8.672082568113665e-001	 1.164932302967736e+001
 1.003149293684649e+000	 8.783282443839943e-001	 1.148287750485310e+001
 9.933951542962829e-001	 8.893453417105752e-001	 1.130751847186441e+001
 9.437302393968710e-001	 8.448824101940288e-001	 1.090226912141523e+001
 9.343473563375667e-001	 8.552473990597010e-001	 1.070511056027084e+001
 9.248483085016389e-001	 8.655106795860112e-001	 1.050960409575865e+001
 9.152347594181193e-001	 8.756703089076804e-001	 1.031473435161739e+001
 9.055084157349460e-001	 8.857243806682982e-001	 1.011948782762531e+001
 8.956710262109042e-001	 8.956710262109041e-001	 9.922858604612411e+000
 8.857243806682983e-001	 9.055084157349460e-001	 9.723854047791964e+000
 8.756703089076804e-001	 9.152347594181193e-001	 9.521500463365442e+000
 8.655106795860115e-001	 9.248483085016390e-001	 9.314848662704559e+000
 8.552473990597013e-001	 9.343473563375669e-001	 9.102979388137618e+000
 8.448824101940289e-001	 9.437302393968712e-001	 8.885008554478667e+000
 9.486967308869592e-001	 8.493287033440607e-001	 1.095017505824706e+001
 9.392644693008143e-001	 8.597482391840500e-001	 1.075505127276356e+001
 9.297154316072044e-001	 8.700655314325843e-001	 1.056155549185405e+001
 9.200512900896849e-001	 8.802786269998228e-001	 1.036866605357795e+001
 9.102737603776350e-001	 8.903856094969239e-001	 1.017536412084789e+001
 9.003846004328947e-001	 9.003846004328946e-001	 9.980639549424026e+000
 8.903856094969240e-001	 9.102737603776351e-001	 9.783496755985130e+000
 8.802786269998226e-001	 9.200512900896849e-001	 9.582960539753632e+000
 8.700655314325844e-001	 9.297154316072043e-001	 9.378081810459921e+000
 8.597482391840496e-001	 9.392644693008142e-001	 9.167943175120017e+000
 8.493287033440606e-001	 9.486967308869591e-001	 8.951664336199093e+000
 9.536632223772814e-001	 8.537749964946746e-001	 1.099632203613903e+001
 9.441815822643049e-001	 8.642490793089671e-001	 1.080316672599015e+001
 9.345825547130385e-001	 8.746203832796977e-001	 1.061163268531882e+001
 9.248678207615561e-001	 8.848869450924649e-001	 1.042068981376778e+001
 9.150391050206755e-001	 8.950468383260026e-001	 1.022931172266256e+001
 9.050981746552862e-001	 9.050981746552862e-001	 1.003648177514278e+001
 8.950468383260025e-001	 9.150391050206754e-001	 9.841199128442495e+000
 8.848869450924650e-001	 9.248678207615562e-001	 9.642484730271642e+000
 8.746203832796977e-001	 9.345825547130385e-001	 9.439387220506696e+000
 8.642490793089671e-001	 9.441815822643049e-001	 9.230988689065494e+000
 8.537749964946746e-001	 9.536632223772812e-001	 9.016410240909695e+000
 9.586297138677377e-001	 8.582212896457886e-001	 1.104074408664400e+001
 9.490986952279386e-001	 8.687499194343656e-001	 1.084949780291632e+001
 9.394496778190408e-001	 8.791752351272595e-001	 1.065988252827424e+001
 9.296843514336336e-001	 8.894952631855135e-001	 1.047085759785848e+001
 9.198044496639684e-001	 8.997080671554369e-001	 1.028138688308511e+001
 9.098117488779829e-001	 9.098117488779827e-001	 1.009044501316375e+001
 8.997080671554371e-001	 9.198044496639686e-001	 9.897023601159386e+000
 8.894952631855135e-001	 9.296843514336336e-001	 9.700137424972990e+000
 8.791752351272593e-001	 9.394496778190407e-001	 9.498830512821600e+000
 8.687499194343655e-001	 9.490986952279387e-001	 9.292182082431317e+000
 8.582212896457886e-001	 9.586297138677375e-001	 9.079312283206482e+000
 9.635962053582278e-001	 8.626675827973180e-001	 1.108348140585722e+001
 9.540158081916156e-001	 8.732507595601574e-001	 1.089409139087829e+001
 9.443168009251123e-001	 8.837300869751786e-001	 1.070635773564117e+001
 9.345008821058185e-001	 8.941035812788736e-001	 1.051922711035427e+001
 9.245697943074160e-001	 9.043692959851324e-001	 1.033165148355677e+001
 9.145253231008851e-001	 9.145253231008849e-001	 1.014259453437045e+001
 9.043692959851323e-001	 9.245697943074160e-001	 9.951038072023071e+000
 8.941035812788736e-001	 9.345008821058184e-001	 9.755988411382516e+000
 8.837300869751789e-001	 9.443168009251123e-001	 9.556482652403998e+000
 8.732507595601573e-001	 9.540158081916156e-001	 9.351594810988271e+000
 8.626675827973181e-001	 9.635962053582274e-001	 9.140441748772117e+000
 9.685626968486518e-001	 8.671138759491810e-001	 1.112458021464161e+001
 9.589329211552358e-001	 8.777515996862553e-001	 1.093700024712356e+001
 9.491839240311524e-001	 8.882849388233640e-001	 1.075111675578889e+001
 9.393174127780104e-001	 8.987118993724509e-001	 1.056586167015472e+001
 9.293351389509182e-001	 9.090305248149910e-001	 1.038017291724015e+001
 9.192388973238956e-001	 9.192388973238954e-001	 1.019300103400051e+001
 9.090305248149909e-001	 9.293351389509182e-001	 1.000331579009791e+001
 8.987118993724508e-001	 9.393174127780105e-001	 9.810112768060424e+000
 8.882849388233639e-001	 9.491839240311523e-001	 9.612419846996883e+000
 8.777515996862554e-001	 9.589329211552359e-001	 9.409303535591038e+000
 8.671138759491809e-001	 9.685626968486518e-001	 9.199875100096554e+000
 9.735291883389100e-001	 8.715601691012934e-001	 1.116409261893795e+001
 9.638500341186992e-001	 8.822524398125708e-001	 1.097828286430365e+001
 9.540510471370610e-001	 8.928397906717235e-001	 1.079422364101321e+001
 9.441339434501102e-001	 9.033202174661514e-001	 1.061083008583606e+001
 9.341004835943767e-001	 9.136917536449165e-001	 1.042702396893514e+001
 9.239524715469168e-001	 9.239524715469170e-001	 1.024174051603844e+001
 9.136917536449166e-001	 9.341004835943765e-001	 1.005393524435287e+001
 9.033202174661514e-001	 9.441339434501103e-001	 9.862590757538037e+000
 8.928397906717234e-001	 9.540510471370609e-001	 9.666723444113975e+000
 8.822524398125704e-001	 9.638500341186989e-001	 9.465390023191199e+000
 8.715601691012934e-001	 9.735291883389100e-001	 9.257693881390178e+000
 9.784956798289021e-001	 8.760064622535720e-001	 1.120207647015576e+001
 9.687671470819058e-001	 8.867532799390160e-001	 1.101800333591958e+001
 9.589181702427395e-001	 8.973946425201665e-001	 1.083574791785101e+001
 9.489504741220182e-001	 9.079285355598812e-001	 1.065420653066050e+001
 9.388658282376924e-001	 9.183529824748138e-001	 1.047228269462460e+001
 9.286660457698506e-001	 9.286660457698507e-001	 1.028889417715193e+001
 9.183529824748138e-001	 9.388658282376924e-001	 1.010298005185424e+001
 9.079285355598811e-001	 9.489504741220182e-001	 9.913507718645398e+000
 8.973946425201665e-001	 9.589181702427395e-001	 9.719479827394613e+000
 8.867532799390161e-001	 9.687671470819059e-001	 9.519941047126524e+000
 8.760064622535722e-001	 9.784956798289021e-001	 9.313984622720268e+000
 9.834621713185283e-001	 8.804527554059347e-001	 1.123859522564361e+001
 9.736842600447556e-001	 8.912541200655042e-001	 1.105623122172221e+001
 9.637852933480873e-001	 9.019494943686012e-001	 1.087576445723502e+001
 9.537670047936347e-001	 9.125368536535453e-001	 1.069607041732501e+001
 9.436311728807664e-001	 9.230142113045854e-001	 1.051603230066522e+001
 9.333796199925991e-001	 9.333796199925990e-001	 1.033454829018760e+001
 9.230142113045853e-001	 9.436311728807661e-001	 1.015053884544154e+001
 9.125368536535454e-001	 9.537670047936350e-001	 9.962953958254419e+000
 9.019494943686012e-001	 9.637852933480871e-001	 9.770780312312789e+000
 8.912541200655043e-001	 9.736842600447561e-001	 9.573048286705738e+000
 8.804527554059345e-001	 9.834621713185284e-001	 9.368838743397575e+000
 9.884286628076887e-001	 8.848990485582965e-001	 1.127371780923432e+001
 9.786013730071491e-001	 8.957549601919467e-001	 1.109304141306919e+001
 9.686524164530039e-001	 9.065043462169358e-001	 1.091435334449720e+001
 9.585835354648612e-001	 9.171451717470502e-001	 1.073650627245672e+001
 9.483965175234997e-001	 9.276754401341349e-001	 1.055836102263487e+001
 9.380931942150645e-001	 9.380931942150644e-001	 1.037879408724158e+001
 9.276754401341348e-001	 9.483965175234996e-001	 1.019670516090419e+001
 9.171451717470505e-001	 9.585835354648611e-001	 1.001102464245558e+001
 9.065043462169357e-001	 9.686524164530038e-001	 9.820721041261388e+000
 8.957549601919469e-001	 9.786013730071496e-001	 9.624808226117375e+000
 8.848990485582966e-001	 9.884286628076888e-001	 9.422352454637698e+000
 9.933951542962829e-001	 8.893453417105752e-001	 1.130751847186441e+001
 9.835184859689858e-001	 9.002558003182557e-001	 1.112851399823957e+001
 9.735195395573906e-001	 9.110591980650797e-001	 1.095159974922356e+001
 9.634000661355969e-001	 9.217534898403010e-001	 1.077560361086428e+001
 9.531618621657936e-001	 9.323366689633666e-001	 1.059936200384957e+001
 9.428067684371487e-001	 9.428067684371487e-001	 1.042172764232006e+001
 9.323366689633666e-001	 9.531618621657936e-001	 1.024157732367691e+001
 9.217534898403014e-001	 9.634000661355970e-001	 1.005781968719090e+001
 9.110591980650801e-001	 9.735195395573908e-001	 9.869402878034316e+000
 9.002558003182558e-001	 9.835184859689861e-001	 9.675322052686115e+000
 8.893453417105754e-001	 9.933951542962831e-001	 9.474626661526141e+000
 8.448824101940289e-001	 9.437302393968712e-001	 8.885008554478667e+000
 8.344161140259777e-001	 9.529967193663582e-001	 8.667358335029688e+000
 8.238520716229620e-001	 9.621438054914022e-001	 8.456247453847547e+000
 8.131923296128095e-001	 9.711699694237402e-001	 8.250455839797846e+000
 8.024389660623853e-001	 9.800737295918567e-001	 8.048819434119109e+000
 7.915940891414762e-001	 9.888536519949059e-001	 7.850234237496539e+000
 7.806598357631508e-001	 9.975083509509268e-001	 7.653659909337799e+000
 7.696383702024038e-001	 1.006036489798570e+000	 7.458122884396315e+000
 7.585318826949441e-001	 1.014436781551623e+000	 7.262718975006390e+000
 7.473425880179889e-001	 1.022707989505716e+000	 7.066615430602888e+000
 7.360727240549704e-001	 1.030848927796671e+000	 6.869052429890202e+000
 8.493287033440606e-001	 9.486967308869591e-001	 8.951664336199093e+000
 8.388073270601094e-001	 9.580119767982903e-001	 8.735703142186917e+000
 8.281876901401469e-001	 9.672072005409864e-001	 8.526267735934786e+000
 8.174718499826219e-001	 9.762808657236761e-001	 8.322075460582914e+000
 8.066618955904692e-001	 9.852314829779032e-001	 8.121900845785861e+000
 7.957599462279668e-001	 9.940576107562282e-001	 7.924579906687892e+000
 7.847681500539400e-001	 1.002757856084381e+000	 7.729013983294049e+000
 7.736886827331343e-001	 1.011330875266676e+000	 7.534173083743211e+000
 7.625237460276317e-001	 1.019775374543992e+000	 7.339098698201021e+000
 7.512755663701749e-001	 1.028090110703659e+000	 7.142906053583852e+000
 7.399463934213199e-001	 1.036273891640754e+000	 6.944785783139038e+000
 8.537749964946746e-001	 9.536632223772812e-001	 9.016410240909695e+000
 8.431985400948194e-001	 9.630272342304667e-001	 8.802135455646761e+000
 8.325233086578918e-001	 9.722705955908412e-001	 8.594356313888037e+000
 8.217513703529624e-001	 9.813917620239232e-001	 8.391731826567696e+000
 8.108848251190414e-001	 9.903892363643124e-001	 8.192979480626841e+000
 7.999258033149023e-001	 9.992615695179731e-001	 7.996879788306963e+000
 7.888764643451287e-001	 1.008007361218321e+000	 7.802280364708913e+000
 7.777389952642227e-001	 1.016625260735336e+000	 7.608099495460702e+000
 7.665156093606410e-001	 1.025113967536979e+000	 7.413329159624163e+000
 7.552085447226569e-001	 1.033472231902282e+000	 7.217037476582092e+000
 7.438200627879529e-001	 1.041698855485570e+000	 7.018370549543285e+000
 8.582212896457886e-001	 9.586297138677375e-001	 9.079312283206477e+000
 8.475897531300307e-001	 9.680424916627867e-001	 8.866721112554487e+000
 8.368589271761239e-001	 9.773339906408669e-001	 8.660579371797988e+000
 8.260308907237651e-001	 9.865026583243810e-001	 8.459491920186554e+000
 8.151077546480426e-001	 9.955469897509850e-001	 8.262123497841708e+000
 8.040916604022279e-001	 1.004465528280041e+000	 8.067203524017248e+000
 7.929847786366677e-001	 1.013256866352648e+000	 7.873530411169878e+000
 7.817893077956223e-001	 1.021919646204450e+000	 7.679975354989566e+000
 7.705074726939272e-001	 1.030452560530486e+000	 7.485485563908722e+000
 7.591415230753880e-001	 1.038854353101484e+000	 7.289086895316763e+000
 7.476937321548192e-001	 1.047123819331021e+000	 7.089885869726035e+000
 8.626675827973181e-001	 9.635962053582274e-001	 9.140441748772117e+000
 8.519809661656643e-001	 9.730577490951501e-001	 8.929531184672122e+000
 8.411945456947708e-001	 9.823973856909618e-001	 8.725008275317844e+000
 8.303104110949648e-001	 9.916135546249503e-001	 8.525427836584317e+000
 8.193306841774136e-001	 1.000704743137819e+000	 8.329406085484720e+000
 8.082575174898905e-001	 1.009669487042330e+000	 8.135625686277733e+000
 7.970930929285076e-001	 1.018506371487263e+000	 7.942840299609104e+000
 7.858396203272857e-001	 1.027214031673916e+000	 7.749878593101812e+000
 7.744993360274443e-001	 1.035791153524410e+000	 7.555647675275733e+000
 7.630745014283221e-001	 1.044236474301167e+000	 7.359135918481873e+000
 7.515674015218692e-001	 1.052548783177006e+000	 7.159415140670635e+000
 8.671138759491809e-001	 9.685626968486518e-001	 9.199875100096554e+000
 8.563721792016433e-001	 9.780730065274570e-001	 8.990641888287271e+000
 8.455301642137625e-001	 9.874607807410281e-001	 8.787719486293312e+000
 8.345899314664957e-001	 9.967244509255303e-001	 8.589616703460115e+000
 8.235536137070946e-001	 1.005862496524717e+000	 8.394905385971557e+000
 8.124233745778354e-001	 1.014873445804742e+000	 8.202225709924001e+000
 8.012014072205979e-001	 1.023755876622064e+000	 8.010290964327407e+000
 7.898899328591672e-001	 1.032508417143636e+000	 7.817891780688213e+000
 7.784911993611466e-001	 1.041129746518654e+000	 7.623899769372656e+000
 7.670074797814130e-001	 1.049618595501230e+000	 7.427270526872366e+000
 7.554410708890518e-001	 1.057973747023426e+000	 7.227045982332578e+000
 8.715601691012934e-001	 9.735291883389100e-001	 9.257693881390180e+000
 8.607633922378900e-001	 9.830882639596080e-001	 9.050134493258289e+000
 8.498657827330257e-001	 9.925241757909645e-001	 8.848794476459778e+000
 8.388694518382923e-001	 1.001835347226022e+000	 8.652140599895898e+000
 8.277765432370263e-001	 1.011020249911578e+000	 8.458704420481841e+000
 8.165892316660086e-001	 1.020077404567176e+000	 8.267087822541765e+000
 8.053097215128898e-001	 1.029005381756952e+000	 8.075968033699096e+000
 7.939402453912194e-001	 1.037802802613509e+000	 7.884102072112691e+000
 7.824830626949888e-001	 1.046468339513116e+000	 7.690330583550611e+000
 7.709404581346137e-001	 1.055000716701573e+000	 7.493581030818915e+000
 7.593147402563171e-001	 1.063398710870180e+000	 7.292870202423790e+000
 8.760064622535722e-001	 9.784956798289021e-001	 9.313984622720268e+000
 8.651546052743261e-001	 9.881035213915024e-001	 9.108095231229262e+000
 8.542014012524900e-001	 9.975875708406715e-001	 8.908319640242608e+000
 8.431489722102895e-001	 1.006946243526324e+000	 8.713086474211860e+000
 8.319994727671490e-001	 1.016178003298301e+000	 8.520891012296792e+000
 8.207550887543560e-001	 1.025281363329533e+000	 8.330300973678982e+000
 8.094180358053328e-001	 1.034254886891827e+000	 8.139961765606529e+000
 7.979905579233962e-001	 1.043097188083436e+000	 7.948601147180540e+000
 7.864749260289256e-001	 1.051806932507698e+000	 7.755033265635561e+000
 7.748734364878774e-001	 1.060382837902096e+000	 7.558162025989532e+000
 7.631884096236152e-001	 1.068823674717169e+000	 7.356983759433202e+000
 8.804527554059345e-001	 9.834621713185284e-001	 9.368838743397575e+000
 8.695458183108742e-001	 9.931187788230407e-001	 9.164615203041958e+000
 8.585370197720824e-001	 1.002650965890049e+000	 8.966386206690579e+000
 8.474284925824215e-001	 1.012057139826338e+000	 8.772546060877808e+000
 8.362224022974037e-001	 1.021335756684787e+000	 8.581557709110003e+000
 8.249209458428238e-001	 1.030485322091712e+000	 8.391958762935577e+000
 8.135263500978778e-001	 1.039504392026589e+000	 8.202366981650606e+000
 8.020408704556508e-001	 1.048391573553316e+000	 8.011485151771538e+000
 7.904667893629112e-001	 1.057145525502298e+000	 7.818105321247619e+000
 7.788064148411577e-001	 1.065764959102699e+000	 7.621112347619841e+000
 7.670620789908954e-001	 1.074248638564292e+000	 7.419486723948213e+000
 8.848990485582966e-001	 9.884286628076888e-001	 9.422352454637698e+000
 8.739370313474562e-001	 9.981340362541229e-001	 9.219790285374105e+000
 8.628726382917320e-001	 1.007714360938997e+000	 9.023090150573765e+000
 8.517080129546235e-001	 1.017168036125963e+000	 8.830615796517623e+000
 8.404453318277300e-001	 1.026493510070935e+000	 8.640801704346332e+000
 8.290868029313578e-001	 1.035689280853614e+000	 8.452159366969543e+000
 8.176346643904749e-001	 1.044753897161138e+000	 8.263283000179373e+000
 8.060911829879359e-001	 1.053685959023049e+000	 8.072854637184788e+000
 7.944586526968999e-001	 1.062484118496817e+000	 7.879648559718985e+000
 7.827393931944081e-001	 1.071147080303283e+000	 7.682535023220720e+000
 7.709357483581073e-001	 1.079673602411449e+000	 7.480483238333470e+000
 8.893453417105754e-001	 9.933951542962831e-001	 9.474626661526139e+000
 8.783282443839946e-001	 1.003149293684649e+000	 9.273721036631985e+000
 8.672082568113666e-001	 1.012777755987415e+000	 9.078532102674769e+000
 8.559875333268284e-001	 1.022278932425099e+000	 8.887396735036248e+000
 8.446682613580697e-001	 1.031651263456647e+000	 8.698724757525891e+000
 8.332526600199038e-001	 1.040893239615138e+000	 8.511005465459672e+000
 8.217429786830746e-001	 1.050003402295374e+000	 8.322813568174443e+000
 8.101414955202058e-001	 1.058980344492536e+000	 8.132814498240215e+000
 7.984505160308463e-001	 1.067822711491155e+000	 7.939769038660471e+000
 7.866723715475820e-001	 1.076529201503747e+000	 7.742537223822573e+000
 7.748094177252015e-001	 1.085098566258542e+000	 7.540081474827669e+000
 7.360727240549704e-001	 1.030848927796671e+000	 6.869052429890202e+000
 7.247245501008481e-001	 1.038858461617221e+000	 6.667876439868686e+000
 7.133003446805322e-001	 1.046735506791741e+000	 6.462565962571334e+000
 7.018024048406094e-001	 1.054479031054074e+000	 6.254944019446699e+000
 6.902330449192106e-001	 1.062088054702070e+000	 6.046935435736411e+000
 6.785945950602358e-001	 1.069561650911468e+000	 5.840561072168268e+000
 6.668893997229497e-001	 1.076898946000012e+000	 5.637931419753938e+000
 6.551198161888586e-001	 1.084099119641821e+000	 5.439238418667686e+000
 6.432882130677762e-001	 1.091161405032191e+000	 5.246073862398443e+000
 6.313969688049654e-001	 1.098085089003007e+000	 5.062992800952223e+000
 6.194484701912242e-001	 1.104869512089097e+000	 4.894589612365320e+000
 7.399463934213199e-001	 1.036273891640754e+000	 6.944785783139038e+000
 7.285384983658308e-001	 1.044325576575955e+000	 6.742796070608284e+000
 7.170541717196202e-001	 1.052244075628034e+000	 6.536683925728690e+000
 7.054957226177469e-001	 1.060028351098407e+000	 6.328313574815543e+000
 6.938654775778140e-001	 1.067677418129124e+000	 6.119655781022689e+000
 6.821657790063734e-001	 1.075190345018397e+000	 5.912781956889211e+000
 6.703989837006784e-001	 1.082566253486109e+000	 5.709857615529272e+000
 6.585674613477011e-001	 1.089804318889317e+000	 5.512098272931807e+000
 6.466735930223382e-001	 1.096903770387911e+000	 5.319755797727224e+000
 6.347197696866973e-001	 1.103863891060642e+000	 5.137223966875636e+000
 6.227083906923382e-001	 1.110684017971820e+000	 4.969188039200192e+000
 7.438200627879529e-001	 1.041698855485570e+000	 7.018370549543285e+000
 7.323524466311011e-001	 1.049792691535468e+000	 6.815613251246167e+000
 7.208079987590111e-001	 1.057752644465140e+000	 6.608786077129712e+000
 7.091890403952122e-001	 1.065577671143576e+000	 6.399784442189061e+000
 6.974979102367745e-001	 1.073266781557023e+000	 6.190614898536331e+000
 6.857369629528982e-001	 1.080819039126168e+000	 5.983389151268872e+000
 6.739085676788197e-001	 1.088233560973034e+000	 5.780317388094981e+000
 6.620151065069740e-001	 1.095509518137610e+000	 5.583340637215667e+000
 6.500589729773375e-001	 1.102646135744382e+000	 5.392134570886108e+000
 6.380425705688562e-001	 1.109642693118966e+000	 5.210428404136805e+000
 6.259683111938496e-001	 1.116498523855156e+000	 5.042988694627620e+000
 7.476937321548192e-001	 1.047123819331021e+000	 7.089885869726035e+000
 7.361663948966012e-001	 1.055259806495660e+000	 6.886407184857121e+000
 7.245618257986405e-001	 1.063261213302959e+000	 6.678948123391974e+000
 7.128823581729309e-001	 1.071126991189482e+000	 6.469425448939052e+000
 7.011303428960075e-001	 1.078856144985671e+000	 6.259871534124739e+000
 6.893081468997159e-001	 1.086447733234689e+000	 6.052428302148890e+000
 6.774181516572720e-001	 1.093900868460696e+000	 5.849340456793398e+000
 6.654627516665709e-001	 1.101214717386616e+000	 5.652921850991571e+000
 6.534443529326648e-001	 1.108388501101529e+000	 5.463145175933238e+000
 6.413653714513354e-001	 1.115421495177917e+000	 5.282517961526111e+000
 6.292282316956586e-001	 1.122313029739053e+000	 5.115878753776872e+000
 7.515674015218692e-001	 1.052548783177006e+000	 7.159415140670635e+000
 7.399803431622750e-001	 1.060726921456431e+000	 6.955261201639786e+000
 7.283156528384416e-001	 1.068769782141392e+000	 6.747249830537180e+000
 7.165756759508271e-001	 1.076676311236026e+000	 6.537309471649223e+000
 7.047627755554287e-001	 1.084445508414972e+000	 6.327488526162763e+000
 6.928793308467321e-001	 1.092076427343866e+000	 6.119949241695967e+000
 6.809277356359335e-001	 1.099568175949008e+000	 5.916960864523258e+000
 6.689103968263844e-001	 1.106919916636253e+000	 5.720892069339018e+000
 6.568297328882107e-001	 1.114130866459280e+000	 5.532728521646346e+000
 6.446881723340283e-001	 1.121200297237431e+000	 5.353410171253701e+000
 6.324881521976661e-001	 1.128127535623464e+000	 5.187750885970764e+000
 7.554410708890518e-001	 1.057973747023426e+000	 7.227045982332578e+000
 7.437942914280661e-001	 1.066194036417681e+000	 7.022262732231916e+000
 7.320694798783510e-001	 1.074278350980339e+000	 6.813775002333212e+000
 7.202689937288270e-001	 1.082225631283110e+000	 6.603513417887203e+000
 7.083952082149517e-001	 1.090034871844829e+000	 6.393532789250378e+000
 6.964505147938526e-001	 1.097705121453605e+000	 6.186005971595245e+000
 6.844373196147021e-001	 1.105235483437879e+000	 5.983216961097122e+000
 6.723580419863073e-001	 1.112625115886439e+000	 5.787553242262236e+000
 6.602151128438665e-001	 1.119873231817559e+000	 5.600831662803422e+000
 6.480109732168280e-001	 1.126979099297446e+000	 5.423028465064543e+000
 6.357480726997732e-001	 1.133942041508339e+000	 5.258503454772511e+000
 7.593147402563171e-001	 1.063398710870180e+000	 7.292870202423790e+000
 7.476082396939174e-001	 1.071661151379311e+000	 7.087503279086511e+000
 7.358233069183023e-001	 1.079786919819701e+000	 6.878611456638481e+000
 7.239623115068550e-001	 1.087774951330634e+000	 6.668118205973073e+000
 7.120276408744931e-001	 1.095624235275144e+000	 6.458075295939402e+000
 7.000216987409835e-001	 1.103333815563813e+000	 6.250656645359071e+000
 6.879469035934759e-001	 1.110902790927220e+000	 6.048151384832430e+000
 6.758056871462324e-001	 1.118330315137091e+000	 5.852956142748547e+000
 6.636004927995226e-001	 1.125615597176293e+000	 5.667408030052688e+000
 6.513337740996277e-001	 1.132757901357899e+000	 5.491302389175058e+000
 6.390079932018798e-001	 1.139756547393630e+000	 5.328040717106320e+000
 7.631884096236152e-001	 1.068823674717169e+000	 7.356983759433202e+000
 7.514221879597717e-001	 1.077128266341220e+000	 7.151078385979358e+000
 7.395771339582310e-001	 1.085295488659378e+000	 6.941850999819106e+000
 7.276556292848365e-001	 1.093324271378501e+000	 6.731208742811054e+000
 7.156600735339670e-001	 1.101213598705821e+000	 6.521191056561883e+000
 7.035928826880307e-001	 1.108962509674396e+000	 6.313963548813674e+000
 6.914564875721528e-001	 1.116570098416944e+000	 6.111811042440738e+000
 6.792533323060526e-001	 1.124035514388128e+000	 5.917129821165526e+000
 6.669858727550704e-001	 1.131357962535409e+000	 5.732419091892996e+000
 6.546565749823209e-001	 1.138536703418727e+000	 5.558167818067980e+000
 6.422679137038875e-001	 1.145571053279286e+000	 5.396273021487662e+000
 7.670620789908954e-001	 1.074248638564292e+000	 7.419486723948213e+000
 7.552361362255734e-001	 1.082595381303309e+000	 7.213087605711560e+000
 7.433309609980717e-001	 1.090804057499271e+000	 7.003589399310065e+000
 7.313489470626963e-001	 1.098873591426612e+000	 6.792873899855910e+000
 7.192925061932891e-001	 1.106802962136764e+000	 6.582959097228880e+000
 7.071640666348995e-001	 1.114591203785260e+000	 6.375993078831831e+000
 6.949660715506316e-001	 1.122237405906962e+000	 6.174247087275719e+000
 6.827009774656603e-001	 1.129740713639465e+000	 5.980107746734952e+000
 6.703712527104010e-001	 1.137100327894832e+000	 5.796068477686674e+000
 6.579793758648006e-001	 1.144315505479867e+000	 5.623567167190295e+000
 6.455278342056967e-001	 1.151385559165260e+000	 5.463117005391151e+000
 7.709357483581073e-001	 1.079673602411449e+000	 7.480483238333470e+000
 7.590500844912653e-001	 1.088062496265476e+000	 7.273634466073607e+000
 7.470847880377584e-001	 1.096312626339279e+000	 7.063926354381865e+000
 7.350422648403597e-001	 1.104422911474868e+000	 6.853206487278162e+000
 7.229249388523744e-001	 1.112392325567876e+000	 6.643462436060163e+000
 7.107352505814967e-001	 1.120219897896312e+000	 6.436815720369438e+000
 6.984756555288101e-001	 1.127904713397183e+000	 6.235514895995561e+000
 6.861486226249490e-001	 1.135445912891022e+000	 6.041927782714877e+000
 6.737566326654046e-001	 1.142842693254488e+000	 5.858532851646216e+000
 6.613021767469600e-001	 1.150094307541256e+000	 5.687449604589105e+000
 6.487877547072080e-001	 1.157200065051501e+000	 5.528495791789833e+000
 7.748094177252015e-001	 1.085098566258542e+000	 7.540081474827669e+000
 7.628640327567904e-001	 1.093529611227624e+000	 7.332826434128007e+000
 7.508386150772266e-001	 1.101821195179304e+000	 7.122965465178820e+000
 7.387355826177516e-001	 1.109972231523171e+000	 6.912303226392154e+000
 7.265573715111381e-001	 1.117981688999059e+000	 6.702788057709523e+000
 7.143064345277267e-001	 1.125848592007459e+000	 6.496506021870745e+000
 7.019852395065859e-001	 1.133572020887520e+000	 6.295674043698257e+000
 6.895962677838112e-001	 1.141151112142714e+000	 6.102632160193906e+000
 6.771420126199729e-001	 1.148585058614304e+000	 5.919834900622149e+000
 6.646249776286930e-001	 1.155873109602832e+000	 5.749771261525293e+000
 6.520476752083220e-001	 1.163014570937961e+000	 5.592339184893016e+000
 6.194484701912242e-001	 1.104869512089097e+000	 4.894589612365320e+000
 6.074469153977586e-001	 1.111513082578307e+000	 4.730127925914142e+000
 5.953929149789650e-001	 1.118016277482769e+000	 4.557570290171585e+000
 5.832888714389555e-001	 1.124378599478121e+000	 4.379594394694277e+000
 5.711371897061307e-001	 1.130599604698523e+000	 4.198797666333471e+000
 5.589402756857406e-001	 1.136678902563766e+000	 4.017681096391159e+000
 5.467005348259916e-001	 1.142616155560737e+000	 3.838634571813369e+000
 5.344203706993144e-001	 1.148411078980047e+000	 3.663923773638155e+000
 5.221021836003700e-001	 1.154063440608706e+000	 3.495678692380570e+000
 5.097483691623167e-001	 1.159573060379774e+000	 3.335883796489899e+000
 4.973613169928101e-001	 1.164939809979976e+000	 3.186369876591509e+000
 6.227083906923382e-001	 1.110684017971820e+000	 4.969188039200188e+000
 6.106436763038349e-001	 1.117362551032718e+000	 4.804685996828306e+000
 5.985262402887011e-001	 1.123899969765807e+000	 4.631480104165524e+000
 5.863584977945159e-001	 1.130295774229504e+000	 4.452374087597565e+000
 5.741428664059041e-001	 1.136549518222081e+000	 4.270088023754380e+000
 5.618817646894811e-001	 1.142660809107865e+000	 4.087241509764820e+000
 5.495776107524130e-001	 1.148629307597547e+000	 3.906338394446067e+000
 5.372328208162185e-001	 1.154454727483429e+000	 3.729753135833292e+000
 5.248498078073973e-001	 1.160136835330483e+000	 3.559718836453814e+000
 5.124309799664153e-001	 1.165675450124152e+000	 3.398316993747930e+000
 4.999787394765237e-001	 1.171070442875904e+000	 3.247468989161050e+000
 6.259683111938496e-001	 1.116498523855156e+000	 5.042988694627620e+000
 6.138404372102554e-001	 1.123212019487647e+000	 4.878622381310144e+000
 6.016595655987103e-001	 1.129783662049258e+000	 4.704898220961852e+000
 5.894281241502638e-001	 1.136212948981187e+000	 4.524754415265346e+000
 5.771485431057702e-001	 1.142499431745827e+000	 4.341042118322721e+000
 5.648232536932151e-001	 1.148642715652043e+000	 4.156507920019607e+000
 5.524546866787283e-001	 1.154642459634335e+000	 3.973777948833497e+000
 5.400452709329230e-001	 1.160498375986704e+000	 3.795343661762453e+000
 5.275974320141417e-001	 1.166210230052084e+000	 3.623549374569426e+000
 5.151135907701613e-001	 1.171777839868310e+000	 3.460581571065951e+000
 5.025961619598355e-001	 1.177201075771599e+000	 3.308460015819136e+000
 6.292282316956586e-001	 1.122313029739053e+000	 5.115878753776872e+000
 6.170371981169345e-001	 1.129061487943062e+000	 4.951800321741551e+000
 6.047928909089244e-001	 1.135667354333106e+000	 4.777666754268299e+000
 5.924977505061525e-001	 1.142130123733177e+000	 4.596559133445330e+000
 5.801542198057059e-001	 1.148449345269787e+000	 4.411468078551907e+000
 5.677647426969439e-001	 1.154624622196344e+000	 4.225275512313732e+000
 5.553317626049646e-001	 1.160655611671164e+000	 4.040738106768145e+000
 5.428577210494782e-001	 1.166542024489948e+000	 3.860472478758545e+000
 5.303450562206735e-001	 1.172283624773600e+000	 3.686942190116388e+000
 5.177962015736434e-001	 1.177880229612347e+000	 3.522446592639315e+000
 5.052135844428459e-001	 1.183331708667162e+000	 3.369111543137909e+000
 6.324881521976661e-001	 1.128127535623464e+000	 5.187750885970764e+000
 6.202339590237862e-001	 1.134910956398930e+000	 5.024088364334473e+000
 6.079262162192751e-001	 1.141551046617340e+000	 4.849632890781138e+000
 5.955673768621347e-001	 1.148047298485480e+000	 4.667616803368610e+000
 5.831598965056877e-001	 1.154399258793986e+000	 4.481178538022318e+000
 5.707062317006689e-001	 1.160606528740813e+000	 4.293343647235771e+000
 5.582088385311482e-001	 1.166668763708096e+000	 4.107007560232988e+000
 5.456701711659332e-001	 1.172585672993239e+000	 3.924920157040045e+000
 5.330926804270640e-001	 1.178357019495120e+000	 3.749672213457488e+000
 5.204788123769490e-001	 1.183982619356362e+000	 3.583683758479759e+000
 5.078310069256554e-001	 1.189462341562693e+000	 3.429194370373647e+000
 6.357480726997732e-001	 1.133942041508339e+000	 5.258503454772511e+000
 6.234307199307241e-001	 1.140760424855218e+000	 5.095360543371639e+000
 6.110595415296942e-001	 1.147434738901945e+000	 4.920649059952597e+000
 5.986370032181640e-001	 1.153964473238100e+000	 4.737760948330211e+000
 5.861655732056927e-001	 1.160349172318449e+000	 4.549990780021049e+000
 5.736477207043924e-001	 1.166588435285495e+000	 4.360515994703881e+000
 5.610859144573051e-001	 1.172681915745194e+000	 4.172378945717252e+000
 5.484826212823386e-001	 1.178629321496656e+000	 3.988470825554497e+000
 5.358403046333832e-001	 1.184430414216734e+000	 3.811517530358369e+000
 5.231614231801670e-001	 1.190085009100450e+000	 3.644067506444030e+000
 5.104484294083644e-001	 1.195592974458290e+000	 3.488481606055434e+000
 6.390079932018798e-001	 1.139756547393630e+000	 5.328040717106320e+000
 6.266274808376618e-001	 1.146609893311894e+000	 5.165496564773511e+000
 6.141928668401129e-001	 1.153318431186906e+000	 4.990573103294327e+000
 6.017066295741932e-001	 1.159881647991045e+000	 4.806830209981005e+000
 5.891712499056977e-001	 1.166299085843203e+000	 4.617726882034257e+000
 5.765892097081161e-001	 1.172570341830435e+000	 4.426600667827459e+000
 5.639629903834620e-001	 1.178695067782521e+000	 4.236648968569333e+000
 5.512950713987439e-001	 1.184672970000277e+000	 4.050912287903425e+000
 5.385879288397028e-001	 1.190503808938531e+000	 3.872259490518842e+000
 5.258440339833846e-001	 1.196187398844709e+000	 3.703375114355491e+000
 5.130658518910735e-001	 1.201723607354055e+000	 3.546748764633924e+000
 6.422679137038875e-001	 1.145571053279286e+000	 5.396273021487662e+000
 6.298242417445136e-001	 1.152459361768924e+000	 5.234381989014766e+000
 6.173261921504638e-001	 1.159202123472209e+000	 5.059268443234347e+000
 6.047762559301755e-001	 1.165798822744318e+000	 4.874668504343253e+000
 5.921769266056797e-001	 1.172248999368273e+000	 4.684213860096099e+000
 5.795306987118414e-001	 1.178552248375679e+000	 4.491410356725406e+000
 5.668400663096455e-001	 1.184708219820140e+000	 4.299618527382727e+000
 5.541075215151993e-001	 1.190716618504179e+000	 4.112036138343376e+000
 5.413355530460930e-001	 1.196577203660602e+000	 3.931682816196613e+000
 5.285266447866905e-001	 1.202289788589236e+000	 3.761386802212756e+000
 5.156832743738828e-001	 1.207854240250086e+000	 3.603773863188660e+000
 6.455278342056967e-001	 1.151385559165260e+000	 5.463117005391156e+000
 6.330210026511927e-001	 1.158308830226277e+000	 5.301908413411679e+000
 6.204595174606779e-001	 1.165085815757842e+000	 5.126604251543967e+000
 6.078458822860643e-001	 1.171715997497927e+000	 4.941125177556672e+000
 5.951826033056150e-001	 1.178198912893685e+000	 4.749283813000017e+000
 5.824721877155701e-001	 1.184534154921272e+000	 4.554762462309467e+000
 5.697171422358817e-001	 1.190721371858112e+000	 4.361092838413630e+000
 5.569199716317543e-001	 1.196760267008440e+000	 4.171637877863928e+000
 5.440831772526249e-001	 1.202650598383037e+000	 3.989575710926167e+000
 5.312092555901725e-001	 1.208392178334129e+000	 3.817885834485276e+000
 5.183006968568933e-001	 1.213984873146484e+000	 3.659337518191791e+000
 6.487877547072080e-001	 1.157200065051501e+000	 5.528495791789834e+000
 6.362177635576135e-001	 1.164158298683920e+000	 5.367973653805739e+000
 6.235928427706872e-001	 1.170969508043789e+000	 5.192455617347530e+000
 6.109155086418121e-001	 1.177633172251877e+000	 5.006055161365566e+000
 5.981882800054812e-001	 1.184148826419464e+000	 4.812774066377125e+000
 5.854136767193040e-001	 1.190516061467257e+000	 4.616479230027987e+000
 5.725942181621971e-001	 1.196734523896502e+000	 4.420881560028562e+000
 5.597324217484589e-001	 1.202803915513138e+000	 4.229517030337492e+000
 5.468308014593691e-001	 1.208723993105924e+000	 4.045729968324475e+000
 5.338918663939186e-001	 1.214494568079485e+000	 3.872658622489077e+000
 5.209181193402052e-001	 1.220115506043348e+000	 3.713223042325565e+000
 6.520476752083220e-001	 1.163014570937961e+000	 5.592339184893026e+000
 6.394145244636896e-001	 1.170007767141820e+000	 5.432481925659740e+000
 6.267261680804235e-001	 1.176853200330036e+000	 5.256703714730850e+000
 6.139851349973728e-001	 1.183550347006173e+000	 5.069319128357780e+000
 6.011939567052548e-001	 1.190098739945637e+000	 4.874527316646699e+000
 5.883551657230446e-001	 1.196497968013681e+000	 4.676387883576795e+000
 5.754712940886185e-001	 1.202747675935370e+000	 4.478798917184908e+000
 5.625448718653630e-001	 1.208847564018352e+000	 4.285477258738008e+000
 5.495784256663967e-001	 1.214797387829354e+000	 4.099941080983490e+000
 5.365744771980170e-001	 1.220596957825402e+000	 3.925494826844340e+000
 5.235355418239186e-001	 1.226246138940778e+000	 3.765216541352208e+000
 4.973613169928101e-001	 1.164939809979976e+000	 3.186369876591513e+000
 4.849415443640922e-001	 1.170164385490992e+000	 3.042004325431692e+000
 4.724932822016347e-001	 1.175245945703767e+000	 2.897504765083278e+000
 4.600188957060533e-001	 1.180184515739950e+000	 2.754157522539383e+000
 4.475207387868734e-001	 1.184980170535832e+000	 2.613067754952892e+000
 4.350011528162667e-001	 1.189633034254827e+000	 2.475160618216613e+000
 4.224624654102122e-001	 1.194143279664885e+000	 2.341183984986398e+000
 4.099069892381355e-001	 1.198511127482119e+000	 2.211712649463823e+000
 3.973370208620145e-001	 1.202736845682000e+000	 2.087153947001177e+000
 3.847548396058734e-001	 1.206820748779484e+000	 1.967754708161727e+000
 3.721627064565229e-001	 1.210763197079439e+000	 1.853609459301678e+000
 4.999787394765237e-001	 1.171070442875904e+000	 3.247468989161050e+000
 4.874936063321755e-001	 1.176322513330638e+000	 3.101987941019005e+000
 4.749798337245845e-001	 1.181430815852335e+000	 2.956484851600040e+000
 4.624397993015102e-001	 1.186395375694847e+000	 2.812247160163976e+000
 4.498758693602014e-001	 1.191216268188818e+000	 2.670373933370719e+000
 4.372903975945733e-001	 1.195893618151085e+000	 2.531777119170439e+000
 4.246857238699564e-001	 1.200427599258805e+000	 2.397184406521472e+000
 4.120641730264684e-001	 1.204818433389632e+000	 2.267143626017688e+000
 3.994280537120125e-001	 1.209066389929284e+000	 2.142028616948717e+000
 3.867796572458213e-001	 1.213171785047885e+000	 2.022046477604485e+000
 3.741212565134123e-001	 1.217134980946448e+000	 1.907246107809379e+000
 5.025961619598355e-001	 1.177201075771599e+000	 3.308460015819136e+000
 4.900456682998302e-001	 1.182480641170070e+000	 3.161943499429968e+000
 4.774663852470992e-001	 1.187615686000735e+000	 3.015527202203835e+000
 4.648607028965427e-001	 1.192606235649638e+000	 2.870493389108355e+000
 4.522309999331303e-001	 1.197452365841777e+000	 2.727928423243347e+000
 4.395796423725173e-001	 1.202154202047399e+000	 2.588724119472965e+000
 4.269089823293816e-001	 1.206711918852863e+000	 2.453580761810379e+000
 4.142213568145308e-001	 1.211125739297355e+000	 2.323011717332032e+000
 4.015190865617894e-001	 1.215395934176837e+000	 2.197349569507785e+000
 3.888044748855962e-001	 1.219522821316593e+000	 2.076753684840891e+000
 3.760798065701715e-001	 1.223506764813771e+000	 1.961219118618648e+000
 5.052135844428459e-001	 1.183331708667162e+000	 3.369111543137914e+000
 4.925977302671635e-001	 1.188638769009385e+000	 3.221639941880184e+000
 4.799529367692876e-001	 1.193800556149054e+000	 3.074400570586831e+000
 4.672816064912577e-001	 1.198817095604402e+000	 2.928664342486498e+000
 4.545861305057600e-001	 1.203688463494771e+000	 2.785498406745821e+000
 4.418688871501896e-001	 1.208414785943816e+000	 2.645767616205775e+000
 4.291322407885680e-001	 1.212996238447089e+000	 2.510137718384566e+000
 4.163785406023902e-001	 1.217433045205305e+000	 2.379080200124803e+000
 4.036101194114010e-001	 1.221725478424662e+000	 2.252878706052391e+000
 3.908292925252412e-001	 1.225873857585598e+000	 2.131636941720409e+000
 3.780383566268333e-001	 1.229878548681392e+000	 2.015287963951113e+000
 5.078310069256554e-001	 1.189462341562693e+000	 3.429194370373647e+000
 4.951497922342820e-001	 1.194796896848678e+000	 3.280848019522383e+000
 4.824394882912584e-001	 1.199985426297380e+000	 3.132875167467646e+000
 4.697025100857603e-001	 1.205027955559215e+000	 2.986529305902786e+000
 4.569412610781906e-001	 1.209924561147862e+000	 2.842851960792267e+000
 4.441581319276803e-001	 1.214675369840381e+000	 2.702674288515592e+000
 4.313554992475949e-001	 1.219280558041513e+000	 2.566620456410633e+000
 4.185357243901147e-001	 1.223740351113495e+000	 2.435112735613536e+000
 4.057011522609020e-001	 1.228055022672757e+000	 2.308378223551583e+000
 3.928541101647999e-001	 1.232224893854889e+000	 2.186457103839292e+000
 3.799969066834300e-001	 1.236250332549295e+000	 2.069212342703388e+000
 5.104484294083644e-001	 1.195592974458290e+000	 3.488481606055433e+000
 4.977018542012933e-001	 1.200955024688048e+000	 3.339340384754039e+000
 4.849260398131204e-001	 1.206170296445803e+000	 3.190722746049006e+000
 4.721234136801572e-001	 1.211238815514154e+000	 3.043858796549213e+000
 4.592963916505213e-001	 1.216160658801114e+000	 2.899758129326005e+000
 4.464473767050806e-001	 1.220935953737142e+000	 2.759211562703881e+000
 4.335787577065425e-001	 1.225564877636165e+000	 2.622794726244397e+000
 4.206929081777716e-001	 1.230047657021941e+000	 2.490873419255997e+000
 4.077921851103478e-001	 1.234384566921126e+000	 2.363610656273531e+000
 3.948789278043151e-001	 1.238575930124457e+000	 2.240975304043472e+000
 3.819554567399942e-001	 1.242622116417461e+000	 2.122752205634699e+000
 5.130658518910735e-001	 1.201723607354055e+000	 3.546748764633924e+000
 5.002539161683045e-001	 1.207113152527589e+000	 3.396891682553528e+000
 4.874125913349823e-001	 1.212355166594411e+000	 3.247716687495552e+000
 4.745443172745539e-001	 1.217449675469295e+000	 3.100424642340327e+000
 4.616515222228522e-001	 1.222396756454587e+000	 2.955986995679864e+000
 4.487366214824807e-001	 1.227196537634143e+000	 2.815147677438145e+000
 4.358020161654897e-001	 1.231849197231075e+000	 2.678426906177838e+000
 4.228500919654282e-001	 1.236354962930655e+000	 2.546126830770032e+000
 4.098832179597938e-001	 1.240714111169767e+000	 2.418338917871593e+000
 3.969037454438305e-001	 1.244926966394291e+000	 2.294952986421288e+000
 3.839140067965583e-001	 1.248993900285875e+000	 2.175667781168331e+000
 5.156832743738828e-001	 1.207854240250086e+000	 3.603773863188655e+000
 5.028059781354233e-001	 1.213271280367399e+000	 3.453278641846342e+000
 4.898991428569532e-001	 1.218540036743292e+000	 3.303632086436407e+000
 4.769652208690566e-001	 1.223660535424715e+000	 3.156000061083710e+000
 4.640066527952827e-001	 1.228632854108345e+000	 3.011309755005565e+000
 4.510258662599716e-001	 1.233457121531433e+000	 2.870251749087466e+000
 4.380252746245167e-001	 1.238133516826273e+000	 2.733284060376337e+000
 4.250072757531527e-001	 1.242662268839654e+000	 2.600638084425326e+000
 4.119742508092950e-001	 1.247043655418682e+000	 2.472326343834337e+000
 3.989285630833890e-001	 1.251278002664381e+000	 2.348151940773324e+000
 3.858725568531548e-001	 1.255365684154519e+000	 2.227719601783747e+000
 5.183006968568933e-001	 1.213984873146484e+000	 3.659337518191791e+000
 5.053580401027563e-001	 1.219429408207575e+000	 3.508280166896276e+000
 4.923856943791415e-001	 1.224724906892536e+000	 3.358245836486320e+000
 4.793861244637714e-001	 1.229871395380491e+000	 3.210359739686820e+000
 4.663617833679127e-001	 1.234868951762450e+000	 3.065498786772148e+000
 4.533151110376437e-001	 1.239717705429057e+000	 2.924293837171596e+000
 4.402485330837031e-001	 1.244417836421790e+000	 2.787133996996579e+000
 4.271644595410123e-001	 1.248969574748952e+000	 2.654172879596322e+000
 4.140652836589063e-001	 1.253373199667872e+000	 2.525336734291632e+000
 4.009533807230341e-001	 1.257629038934719e+000	 2.400334337537583e+000
 3.878311069098167e-001	 1.261737468023377e+000	 2.278668530982197e+000
 5.209181193402052e-001	 1.220115506043348e+000	 3.713223042325569e+000
 5.079101020704109e-001	 1.225587536048212e+000	 3.561677428727874e+000
 4.948722459016564e-001	 1.230909777042229e+000	 3.411336715789763e+000
 4.818070280588042e-001	 1.236082255336699e+000	 3.263279913394232e+000
 4.687169139408416e-001	 1.241105049416963e+000	 3.118327727326864e+000
 4.556043558155877e-001	 1.245978289327062e+000	 2.977045009925836e+000
 4.424717915431284e-001	 1.250702156017655e+000	 2.839745326481979e+000
 4.293216433290747e-001	 1.255276880658563e+000	 2.706497551569310e+000
 4.161563165086835e-001	 1.259702743917338e+000	 2.577134397163219e+000
 4.029781983628090e-001	 1.263980075205293e+000	 2.451262763156919e+000
 3.897896569665759e-001	 1.268109251892432e+000	 2.328275790799746e+000
 5.235355418239186e-001	 1.226246138940778e+000	 3.765216541352208e+000
 5.104621640384944e-001	 1.231745663889408e+000	 3.613253956570499e+000
 4.973587974246062e-001	 1.237094647192462e+000	 3.462685472581143e+000
 4.842279316542609e-001	 1.242293115293416e+000	 3.314538445060729e+000
 4.710720445141691e-001	 1.247341147071947e+000	 3.169571542520354e+000
 4.578936005938943e-001	 1.252238873225494e+000	 3.028277409971677e+000
 4.446950500028725e-001	 1.256986475613899e+000	 2.890887520025268e+000
 4.314788271174074e-001	 1.261584186568501e+000	 2.757379122589826e+000
 4.182473493586813e-001	 1.266032288167079e+000	 2.627484191633290e+000
 4.050030160027568e-001	 1.270331111476093e+000	 2.500700255873458e+000
 3.917482070234653e-001	 1.274481035761665e+000	 2.376302989854894e+000
 3.721627064565229e-001	 1.210763197079439e+000	 1.853609459301678e+000
 3.595628628164873e-001	 1.214564595596418e+000	 1.743313346654221e+000
 3.469575289482251e-001	 1.218225392345035e+000	 1.635841701617720e+000
 3.343489035444823e-001	 1.221746078421927e+000	 1.531662648799449e+000
 3.217391629455186e-001	 1.225127187456663e+000	 1.431135986001230e+000
 3.091304602063712e-001	 1.228369294737240e+000	 1.334524976622180e+000
 2.965249241990276e-001	 1.231473016314503e+000	 1.242008777050768e+000
 2.839246587499008e-001	 1.234439008086931e+000	 1.153695385255510e+000
 2.713317418129375e-001	 1.237267964867259e+000	 1.069634996391669e+000
 2.587482246786292e-001	 1.239960619432395e+000	 9.898336517015695e-001
 2.461761312191269e-001	 1.242517741558077e+000	 9.142670682475359e-001
 3.741212565134123e-001	 1.217134980946448e+000	 1.907246107809379e+000
 3.614551047129524e-001	 1.220956384770954e+000	 1.796241549348235e+000
 3.487834337912915e-001	 1.224636446893741e+000	 1.688070883166138e+000
 3.361084540120542e-001	 1.228175660995894e+000	 1.583214649660471e+000
 3.234323531687461e-001	 1.231574563515257e+000	 1.482040629196213e+000
 3.107572956471090e-001	 1.234833732767343e+000	 1.384816025830258e+000
 2.980854215225695e-001	 1.237953788045028e+000	 1.291720312975599e+000
 2.854188456931736e-001	 1.240935388698524e+000	 1.202858623357598e+000
 2.727596570483444e-001	 1.243779233197095e+000	 1.118275565177558e+000
 2.601099176737307e-001	 1.246486058173964e+000	 1.037969346863324e+000
 2.474716620923479e-001	 1.249056637455896e+000	 9.619060940686853e-001
 3.760798065701715e-001	 1.223506764813771e+000	 1.961219118618648e+000
 3.633473466093230e-001	 1.227348173945781e+000	 1.849378721942732e+000
 3.506093386342929e-001	 1.231047501442685e+000	 1.740345258399267e+000
 3.378680044795857e-001	 1.234605243570019e+000	 1.634621256142784e+000
 3.251255433919547e-001	 1.238021939573915e+000	 1.532591925916387e+000
 3.123841310878484e-001	 1.241298170797400e+000	 1.434537729385178e+000
 2.996459188461332e-001	 1.244434559775390e+000	 1.340647637593248e+000
 2.869130326364904e-001	 1.247431769309838e+000	 1.251032957928620e+000
 2.741875722838213e-001	 1.250290501526536e+000	 1.165741607554519e+000
 2.614716106689327e-001	 1.253011496915032e+000	 1.084772711686993e+000
 2.487671929657066e-001	 1.255595533353124e+000	 1.008091406432095e+000
 3.780383566268333e-001	 1.229878548681392e+000	 2.015287963951113e+000
 3.652395885056231e-001	 1.233739963120879e+000	 1.902484867953752e+000
 3.524352434772453e-001	 1.237458555991848e+000	 1.792428353510928e+000
 3.396275549470866e-001	 1.241034826144292e+000	 1.685652262961914e+000
 3.268187336151491e-001	 1.244469315632632e+000	 1.582568434562786e+000
 3.140109665285887e-001	 1.247762608827421e+000	 1.483479649244080e+000
 3.012064161697134e-001	 1.250915331505614e+000	 1.388593296887057e+000
 2.884072195798406e-001	 1.253928149920910e+000	 1.298035636491789e+000
 2.756154875193506e-001	 1.256801769855639e+000	 1.211866524122480e+000
 2.628333036642103e-001	 1.259536935655672e+000	 1.130094482950333e+000
 2.500627238391685e-001	 1.262134429249846e+000	 1.052691991052151e+000
 3.799969066834300e-001	 1.236250332549295e+000	 2.069212342703388e+000
 3.671318304018756e-001	 1.240131752296229e+000	 1.955320202733278e+000
 3.542611483201653e-001	 1.243869610541214e+000	 1.844083865298299e+000
 3.413871054145674e-001	 1.247464408718702e+000	 1.736077571252866e+000
 3.285119238383341e-001	 1.250916691691410e+000	 1.631748736186277e+000
 3.156378019693297e-001	 1.254227046857416e+000	 1.531431269913183e+000
 3.027669134933046e-001	 1.257396103235724e+000	 1.435359646135551e+000
 2.899014065232127e-001	 1.260424530531780e+000	 1.343683592535587e+000
 2.770434027549148e-001	 1.263313038184454e+000	 1.256483271037282e+000
 2.641949966595379e-001	 1.266062374395950e+000	 1.173784818401545e+000
 2.513582547126994e-001	 1.268673325146146e+000	 1.095576118679823e+000
 3.819554567399942e-001	 1.242622116417461e+000	 2.122752205634699e+000
 3.690240722981045e-001	 1.246523541471813e+000	 2.007645171056331e+000
 3.560870531630689e-001	 1.250280665090766e+000	 1.895075672581347e+000
 3.431466558820381e-001	 1.253893991293237e+000	 1.785667195164414e+000
 3.302051140615145e-001	 1.257364067750244e+000	 1.679911437477414e+000
 3.172646374100713e-001	 1.260691484887395e+000	 1.578181998964498e+000
 3.043274108169011e-001	 1.263876874965741e+000	 1.480748848972411e+000
 2.913955934665959e-001	 1.266920911142484e+000	 1.387793444035567e+000
 2.784713179904966e-001	 1.269824306513037e+000	 1.299424358801720e+000
 2.655566896548907e-001	 1.272587813135937e+000	 1.215693296528377e+000
 2.526537855862645e-001	 1.275212221042108e+000	 1.136611346440617e+000
 3.839140067965583e-001	 1.248993900285875e+000	 2.175667781168331e+000
 3.709163141943336e-001	 1.252915330647610e+000	 2.059220465426939e+000
 3.579129580059725e-001	 1.256691719640487e+000	 1.945167848417659e+000
 3.449062063495089e-001	 1.260323573867889e+000	 1.834191269275233e+000
 3.318983042846948e-001	 1.263811443809134e+000	 1.726835174589573e+000
 3.188914728508125e-001	 1.267155922917366e+000	 1.623521168358954e+000
 3.058879081404977e-001	 1.270357646695690e+000	 1.524562877209718e+000
 2.928897804099790e-001	 1.273417291753062e+000	 1.430181492669652e+000
 2.798992332260782e-001	 1.276335574841441e+000	 1.340521851666442e+000
 2.669183826502436e-001	 1.279113251875703e+000	 1.255668916828288e+000
 2.539493164598297e-001	 1.281751116937818e+000	 1.175664519567044e+000
 3.858725568531548e-001	 1.255365684154519e+000	 2.227719601783747e+000
 3.728085560905861e-001	 1.259307119823602e+000	 2.109807045082103e+000
 3.597388628488922e-001	 1.263102774190358e+000	 1.994124673076744e+000
 3.466657568169896e-001	 1.266753156442644e+000	 1.881420056810249e+000
 3.335914945078799e-001	 1.270258819868077e+000	 1.772298617762877e+000
 3.205183082915538e-001	 1.273620360947340e+000	 1.667238036555083e+000
 3.074484054640888e-001	 1.276838418425593e+000	 1.566603511398185e+000
 2.943839673533513e-001	 1.279913672363551e+000	 1.470663723705893e+000
 2.813271484616424e-001	 1.282846843169720e+000	 1.379607367615952e+000
 2.682800756455714e-001	 1.285638690615317e+000	 1.293560100571412e+000
 2.552448473333605e-001	 1.288290012833362e+000	 1.212601773508752e+000
 3.878311069098167e-001	 1.261737468023377e+000	 2.278668530982197e+000
 3.747007979868861e-001	 1.265698908999770e+000	 2.159166155663151e+000
 3.615647676918447e-001	 1.269513828740366e+000	 2.041710647751456e+000
 3.484253072844906e-001	 1.273182739017491e+000	 1.927123958625608e+000
 3.352846847310744e-001	 1.276706195927072e+000	 1.816080476725243e+000
 3.221451437322941e-001	 1.280084798977327e+000	 1.709121791366689e+000
 3.090089027876690e-001	 1.283319190155474e+000	 1.606672342096653e+000
 2.958781542967014e-001	 1.286410052973988e+000	 1.509055806532905e+000
 2.827550636971718e-001	 1.289358111497928e+000	 1.416512078922594e+000
 2.696417686408488e-001	 1.292164129354848e+000	 1.329214692033257e+000
 2.565403782068224e-001	 1.294828908728823e+000	 1.247288536408168e+000
 3.897896569665759e-001	 1.268109251892432e+000	 2.328275790799746e+000
 3.765930398832567e-001	 1.272090698176095e+000	 2.207059349536300e+000
 3.633906725348460e-001	 1.275924883290492e+000	 2.087690508978425e+000
 3.501848577520221e-001	 1.279612321592420e+000	 1.971073522934628e+000
 3.369778749542830e-001	 1.283153571986116e+000	 1.857959506837948e+000
 3.237719791730334e-001	 1.286549237007336e+000	 1.748961553550531e+000
 3.105694001112328e-001	 1.289799961885357e+000	 1.644570771826848e+000
 2.973723412400183e-001	 1.292906433584414e+000	 1.545173095820157e+000
 2.841829789326487e-001	 1.295869379826117e+000	 1.451066713245073e+000
 2.710034616360508e-001	 1.298689568094366e+000	 1.362479960182225e+000
 2.578359090801811e-001	 1.301367804624286e+000	 1.279589531928977e+000
 3.917482070234653e-001	 1.274481035761665e+000	 2.376302989854894e+000
 3.784852817797219e-001	 1.278482487352557e+000	 2.253248506735263e+000
 3.652165773779126e-001	 1.282335937840718e+000	 2.131829243743345e+000
 3.519444082195939e-001	 1.286041904167421e+000	 2.013039455752593e+000
 3.386710651775104e-001	 1.289600948045209e+000	 1.897714515964104e+000
 3.253988146137712e-001	 1.293013675037378e+000	 1.786546381095180e+000
 3.121298974347747e-001	 1.296280733615264e+000	 1.680100017689931e+000
 2.988665281832910e-001	 1.299402814194865e+000	 1.578830633274474e+000
 2.856108941680556e-001	 1.302380648154343e+000	 1.483101555255851e+000
 2.723651546311524e-001	 1.305215006833941e+000	 1.393202600806715e+000
 2.591314399534020e-001	 1.307906700519837e+000	 1.309368782424182e+000
 2.461761312191269e-001	 1.242517741558077e+000	 9.142670682475312e-001
 2.336193392906366e-001	 1.244939783937008e+000	 8.430741778653293e-001
 2.210779259163265e-001	 1.247227981585924e+000	 7.762071135056471e-001
 2.085538248764833e-001	 1.249383209995418e+000	 7.133897999525910e-001
 1.960489399594793e-001	 1.251406377632249e+000	 6.543701336826554e-001
 1.835651443891883e-001	 1.253298424920236e+000	 5.989333978931353e-001
 1.711042802883929e-001	 1.255060323214301e+000	 5.469152451243204e-001
 1.586681581779989e-001	 1.256693073768999e+000	 4.982141624762287e-001
 1.462585565118158e-001	 1.258197706702826e+000	 4.528033404242953e-001
 1.338772212466184e-001	 1.259575279959579e+000	 4.107418725778555e-001
 1.215258654471585e-001	 1.260826878268034e+000	 3.721852203385830e-001
 2.474716620923479e-001	 1.249056637455896e+000	 9.619060940686853e-001
 2.348487885680754e-001	 1.251491426117940e+000	 8.901933095390148e-001
 2.222413745294195e-001	 1.253791665676258e+000	 8.227614334239567e-001
 2.096513639334077e-001	 1.255958236228826e+000	 7.593383327719976e-001
 1.970806705873169e-001	 1.257992051023325e+000	 6.996758635528837e-001
 1.845311775730764e-001	 1.259894055432673e+000	 6.435637543817986e-001
 1.720047367078512e-001	 1.261665225923674e+000	 5.908430487251806e-001
 1.595031680406209e-001	 1.263306569020112e+000	 5.414190175308252e-001
 1.470282593845124e-001	 1.264819120261609e+000	 4.952734604137724e-001
 1.345817658845979e-001	 1.266203943159526e+000	 4.524763200601020e-001
 1.221654096208289e-001	 1.267462128151162e+000	 4.131965413336672e-001
 2.487671929657066e-001	 1.255595533353124e+000	 1.008091406432095e+000
 2.360782378456962e-001	 1.258043068298206e+000	 9.357801037910720e-001
 2.234048231427441e-001	 1.260355349765869e+000	 8.677455512219455e-001
 2.107489029906158e-001	 1.262533262461468e+000	 8.037155518981787e-001
 1.981124012154900e-001	 1.264577724413606e+000	 7.434418843110442e-001
 1.854972107573487e-001	 1.266489685944298e+000	 6.867146735631996e-001
 1.729051931277370e-001	 1.268270128632225e+000	 6.333763117751644e-001
 1.603381779037054e-001	 1.269920064270398e+000	 5.833348363982774e-001
 1.477979622576953e-001	 1.271440533819566e+000	 5.365766816054395e-001
 1.352863105230743e-001	 1.272832606358652e+000	 4.931787246639079e-001
 1.228049537949910e-001	 1.274097378033473e+000	 4.533195562179041e-001
 2.500627238391685e-001	 1.262134429249846e+000	 1.052691991052150e+000
 2.373076871234534e-001	 1.264594710477906e+000	 9.797220133318929e-001
 2.245682717562427e-001	 1.266919033854871e+000	 9.110650435216374e-001
 2.118464420480375e-001	 1.269108288693471e+000	 8.464447341689683e-001
 1.991441318439168e-001	 1.271163397803228e+000	 7.856086675020615e-001
 1.864632439419134e-001	 1.273085316455257e+000	 7.283432335698864e-001
 1.738056495479503e-001	 1.274875031340109e+000	 6.744880478666991e-001
 1.611731877671476e-001	 1.276533559520021e+000	 6.239498139928198e-001
 1.485676651312594e-001	 1.278061947376870e+000	 5.767155434776130e-001
 1.359908551619469e-001	 1.279461269557136e+000	 5.328650518208152e-001
 1.234444979695541e-001	 1.280732627915154e+000	 4.925826570537767e-001
 2.513582547126994e-001	 1.268673325146146e+000	 1.095576118679823e+000
 2.385371364013019e-001	 1.271146352657140e+000	 1.021905650041764e+000
 2.257317203698578e-001	 1.273482717943375e+000	 9.526245389673915e-001
 2.129439811056030e-001	 1.275683314924959e+000	 8.874481186416955e-001
 2.001758624725155e-001	 1.277749071192331e+000	 8.261155730145242e-001
 1.874292771266784e-001	 1.279680946965695e+000	 7.684053414759422e-001
 1.747061059683913e-001	 1.281479934047481e+000	 7.141500531221561e-001
 1.620081976308431e-001	 1.283147054769148e+000	 6.632508928329631e-001
 1.493373680050998e-001	 1.284683360933694e+000	 6.156913081457591e-001
 1.366953998011148e-001	 1.286089932755156e+000	 5.715499730546302e-001
 1.240840421444269e-001	 1.287367877796385e+000	 5.310129323271520e-001
 2.526537855862645e-001	 1.275212221042108e+000	 1.136611346440617e+000
 2.397665856791959e-001	 1.277697994836005e+000	 1.062216788153831e+000
 2.268951689835315e-001	 1.280046402031495e+000	 9.923277232632158e-001
 2.140415201632420e-001	 1.282258341156058e+000	 9.266469134903475e-001
 2.012075931012044e-001	 1.284334744581047e+000	 8.649008578415017e-001
 1.883953103115516e-001	 1.286276577475762e+000	 8.068557439207797e-001
 1.756065623889603e-001	 1.288084836754500e+000	 7.523329186757131e-001
 1.628432074946875e-001	 1.289760550017942e+000	 7.012237773682948e-001
 1.501070708791112e-001	 1.291304774490208e+000	 6.535039765189897e-001
 1.373999444404772e-001	 1.292718595952890e+000	 6.092468839458777e-001
 1.247235863195188e-001	 1.294003127677352e+000	 5.686361866958386e-001
 2.539493164598297e-001	 1.281751116937818e+000	 1.175664519567044e+000
 2.409960349570902e-001	 1.284249637014603e+000	 1.100540367712070e+000
 2.280586175972063e-001	 1.286610086119343e+000	 1.030077344373720e+000
 2.151390592208846e-001	 1.288833367386893e+000	 9.639613029629727e-001
 2.022393237299016e-001	 1.290920417969516e+000	 9.019016848016482e-001
 1.893613434964411e-001	 1.292872207985603e+000	 8.436480375969780e-001
 1.765070188095572e-001	 1.294689739461321e+000	 7.890060429279641e-001
 1.636782173585763e-001	 1.296374045266569e+000	 7.378529479941316e-001
 1.508767737531887e-001	 1.297926188046585e+000	 6.901523040632813e-001
 1.381044890799333e-001	 1.299347259150517e+000	 6.459679216259530e-001
 1.253631304947386e-001	 1.300638377558239e+000	 6.054769601885878e-001
 2.552448473333605e-001	 1.288290012833362e+000	 1.212601773508752e+000
 2.422254842349390e-001	 1.290801279193031e+000	 1.136760498295751e+000
 2.292220662108245e-001	 1.293173770207031e+000	 1.065775217884146e+000
 2.162365982784606e-001	 1.295408393617587e+000	 9.993104543950199e-001
 2.032710543585254e-001	 1.297506091357872e+000	 9.370541312183781e-001
 1.903273766812550e-001	 1.299467838495365e+000	 8.787346796063728e-001
 1.774074752300824e-001	 1.301294642168099e+000	 8.241376435778992e-001
 1.645132272224049e-001	 1.302987540515192e+000	 7.731216747607543e-001
 1.516464766272271e-001	 1.304547601602997e+000	 7.256338161798819e-001
 1.388090337193821e-001	 1.305975922348215e+000	 6.817239818109021e-001
 1.260026746699955e-001	 1.307273627439228e+000	 6.415585468787000e-001
 2.565403782068224e-001	 1.294828908728823e+000	 1.247288536408168e+000
 2.434549335126970e-001	 1.297352921371389e+000	 1.170760463002151e+000
 2.303855148243285e-001	 1.299737454294674e+000	 1.099322232515711e+000
 2.173341373359000e-001	 1.301983419848267e+000	 1.032612525277853e+000
 2.043027849869940e-001	 1.304091764746253e+000	 9.702931975622083e-001
 1.912934098659010e-001	 1.306063469005196e+000	 9.120669976849654e-001
 1.783079316504359e-001	 1.307899544874993e+000	 8.576947694451022e-001
 1.653482370860691e-001	 1.309601035763976e+000	 8.070120307919568e-001
 1.524161795011212e-001	 1.311169015159617e+000	 7.599448232165419e-001
 1.395135783587230e-001	 1.312604585546162e+000	 7.165247353987039e-001
 1.266422188451985e-001	 1.313908877320505e+000	 6.769030130497202e-001
 2.578359090801811e-001	 1.301367804624286e+000	 1.279589531928977e+000
 2.446843827903188e-001	 1.303904563549777e+000	 1.202422722675528e+000
 2.315489634376604e-001	 1.306301138382382e+000	 1.130618355786818e+000
 2.184316763931329e-001	 1.308558446079059e+000	 1.063784670382040e+000
 2.053345156152256e-001	 1.310677438134795e+000	 1.001552816055242e+000
 1.922594430502873e-001	 1.312659099515241e+000	 9.435952003101322e-001
 1.792083880705178e-001	 1.314504447582156e+000	 8.896433120852897e-001
 1.661832469494639e-001	 1.316214531013087e+000	 8.395049054177138e-001
 1.531858823747661e-001	 1.317790428716616e+000	 7.930804351213897e-001
 1.402181229978549e-001	 1.319233248744538e+000	 7.503786446381617e-001
 1.272817630202567e-001	 1.320544127202253e+000	 7.115312148689326e-001
 2.591314399534020e-001	 1.307906700519837e+000	 1.309368782424182e+000
 2.459138320677586e-001	 1.310456205728292e+000	 1.231628920377074e+000
 2.327124120507628e-001	 1.312864822470269e+000	 1.159562639820000e+000
 2.195292154500892e-001	 1.315133472310086e+000	 1.092743048929695e+000
 2.063662462431385e-001	 1.317263111523635e+000	 1.030765859238088e+000
 1.932254762343219e-001	 1.319254730025648e+000	 9.732683866819470e-001
 1.801088444902284e-001	 1.321109350289747e+000	 9.199480172076399e-001
 1.670182568124852e-001	 1.322828026262688e+000	 8.705800170380706e-001
 1.539555852480564e-001	 1.324411842274167e+000	 8.250345757557859e-001
 1.409226676366770e-001	 1.325861911943520e+000	 7.832929788881303e-001
 1.279213071950790e-001	 1.327179377084656e+000	 7.454628155881031e-001
 1.215258654471585e-001	 1.260826878268034e+000	 3.721852203385830e-001
 1.092043275309017e-001	 1.261953771859433e+000	 3.377741326531784e-001
 9.691613082677979e-002	 1.262956899461820e+000	 3.076273546643684e-001
 8.466291317473867e-002	 1.263837420728680e+000	 2.812831013492497e-001
 7.244627749879956e-002	 1.264596517971808e+000	 2.584246078002749e-001
 6.026779158439477e-002	 1.265235395119248e+000	 2.388870152755131e-001
 4.812898788860080e-002	 1.265755276678738e+000	 2.226632234757739e-001
 3.603136338263674e-002	 1.266157406707675e+000	 2.099086921780872e-001
 2.397637942596927e-002	 1.266443047790582e+000	 2.009451823090193e-001
 1.196546167133989e-002	 1.266613480024992e+000	 1.962634333110424e-001
 0.000000000000000e+000	 1.266670000016666e+000	 1.965245703461318e-001
 1.221654096208289e-001	 1.267462128151162e+000	 4.131965413336672e-001
 1.097790281603268e-001	 1.268594952152505e+000	 3.780941507232092e-001
 9.742616337399165e-002	 1.269603358831772e+000	 3.472957811462110e-001
 8.510846172113702e-002	 1.270488513945260e+000	 3.203412212494036e-001
 7.282753456140229e-002	 1.271251606026819e+000	 2.969199233573495e-001
 6.058495793091617e-002	 1.271893845340308e+000	 2.768781781114797e-001
 4.838227235153152e-002	 1.272416462837583e+000	 2.602252228490417e-001
 3.622098267249440e-002	 1.272820709123038e+000	 2.471382659517965e-001
 2.410255794388693e-002	 1.273107853425699e+000	 2.379664165761365e-001
 1.202843132115448e-002	 1.273279182579763e+000	 2.332335161683141e-001
 0.000000000000000e+000	 1.273336000014533e+000	 2.336397156205549e-001
 1.228049537949910e-001	 1.274097378033473e+000	 4.533195562179041e-001
 1.103537287902211e-001	 1.275236132444767e+000	 4.176761075400192e-001
 9.793619592163512e-002	 1.276249818200917e+000	 3.863795798473225e-001
 8.555401026791810e-002	 1.277139607161034e+000	 3.589662880749960e-001
 7.320879162433072e-002	 1.277906694081026e+000	 3.351269705242835e-001
 6.090212427770172e-002	 1.278552295560567e+000	 3.147142682390854e-001
 4.863555681466335e-002	 1.279077648995626e+000	 2.977491046406876e-001
 3.641060196249207e-002	 1.279484011537602e+000	 2.844259467078860e-001
 2.422873646188863e-002	 1.279772659060017e+000	 2.751169364176652e-001
 1.209140097100540e-002	 1.279944885133735e+000	 2.703748883749119e-001
 0.000000000000000e+000	 1.280002000011600e+000	 2.709350382660075e-001
 1.234444979695541e-001	 1.280732627915154e+000	 4.925826570537767e-001
 1.109284294205094e-001	 1.281877312736405e+000	 4.565594054166394e-001
 9.844622846965527e-002	 1.282896277569445e+000	 4.249273452590865e-001
 8.599955881504889e-002	 1.283790700376198e+000	 3.972142210143988e-001
 7.359004868757393e-002	 1.284561782134628e+000	 3.731070789775232e-001
 6.121929062475998e-002	 1.285210745780222e+000	 3.524600678445180e-001
 4.888884127802014e-002	 1.285738835153067e+000	 3.353011050095354e-001
 3.660022125266242e-002	 1.286147313951564e+000	 3.218373889378824e-001
 2.435491498000729e-002	 1.286437464693734e+000	 3.124597455916365e-001
 1.215437062091535e-002	 1.286610587687107e+000	 3.077458043427397e-001
 0.000000000000000e+000	 1.286668000008066e+000	 3.084619201120534e-001
 1.240840421444269e-001	 1.287367877796385e+000	 5.310129323271520e-001
 1.115031300511167e-001	 1.288518493027609e+000	 4.947821457551294e-001
 9.895626101799694e-002	 1.289542736937548e+000	 4.629863910626486e-001
 8.644510736249651e-002	 1.290441793590945e+000	 4.351396939205168e-001
 7.397130575112079e-002	 1.291216870187819e+000	 4.109203818564193e-001
 6.153645697209958e-002	 1.291869195999470e+000	 3.901792226598007e-001
 4.914212574162582e-002	 1.292400021310106e+000	 3.729463930180521e-001
 3.678984054303811e-002	 1.292810616365125e+000	 3.594372566833638e-001
 2.448109349827586e-002	 1.293102270327051e+000	 3.500569393876211e-001
 1.221734027090705e-002	 1.293276290240078e+000	 3.454036954136511e-001
 0.000000000000000e+000	 1.293334000004133e+000	 3.462710069076633e-001
 1.247235863195188e-001	 1.294003127677352e+000	 5.686361866958386e-001
 1.120778306819679e-001	 1.295159673318565e+000	 5.323811503605972e-001
 9.946629356660514e-002	 1.296189196305419e+000	 5.006027726238039e-001
 8.689065591022796e-002	 1.297092886805471e+000	 4.727961586054263e-001
 7.435256281496031e-002	 1.297871958240795e+000	 4.486258394805776e-001
 6.185362331972916e-002	 1.298527646218511e+000	 4.279342657411331e-001
 4.939541020550421e-002	 1.299061207466941e+000	 4.107490941114033e-001
 3.697945983365180e-002	 1.299473918778485e+000	 3.972892463665030e-001
 2.460727201672730e-002	 1.299767075960167e+000	 3.879697264668907e-001
 1.228030992100320e-002	 1.299941992792850e+000	 3.834051903775572e-001
 0.000000000000000e+000	 1.300000000000000e+000	 3.844122271920345e-001
 1.253631304947386e-001	 1.300638377558239e+000	 6.054769601885878e-001
 1.126525313129878e-001	 1.301800853609463e+000	 5.693919821471889e-001
 9.997632611542487e-002	 1.302835655673249e+000	 5.378213088294366e-001
 8.733620445821029e-002	 1.303743980019968e+000	 5.102358674398528e-001
 7.473381987908148e-002	 1.304527046293756e+000	 4.862812623554662e-001
 6.217078966765732e-002	 1.305186096437542e+000	 4.657866405251769e-001
 4.964869466967921e-002	 1.305722393623771e+000	 4.487723128825937e-001
 3.716907912453613e-002	 1.306137221191842e+000	 4.354561089237229e-001
 2.473345053539453e-002	 1.306431881593283e+000	 4.262584500349285e-001
 1.234327957122654e-002	 1.306607695345621e+000	 4.218061353608957e-001
 0.000000000000000e+000	 1.306665999995867e+000	 4.229348105870825e-001
 1.260026746699955e-001	 1.307273627439228e+000	 6.415585468786997e-001
 1.132272319441014e-001	 1.308442033900490e+000	 6.058489652556157e-001
 1.004863586644010e-001	 1.309482115041230e+000	 5.746856032893782e-001
 8.778175300641054e-002	 1.310395073234634e+000	 5.475098952872022e-001
 7.511507694347330e-002	 1.311182134346895e+000	 5.239433334905083e-001
 6.248795601589269e-002	 1.311844546656761e+000	 5.037967231933025e-001
 4.990197913417467e-002	 1.312383579780795e+000	 4.870781551467626e-001
 3.735869841572378e-002	 1.312800523605397e+000	 4.739996712675357e-001
 2.485962905431051e-002	 1.313096687226598e+000	 4.649826083707247e-001
 1.240624922159976e-002	 1.313273397898592e+000	 4.606616131129334e-001
 0.000000000000000e+000	 1.313331999991934e+000	 4.618873055329362e-001
 1.266422188451985e-001	 1.313908877320505e+000	 6.769030130497202e-001
 1.138019325752335e-001	 1.315083214191837e+000	 6.417852046041198e-001
 1.009963912134786e-001	 1.316128574409554e+000	 6.112380649271023e-001
 8.822730155479577e-002	 1.317046166449661e+000	 5.846681607931121e-001
 7.549633400812469e-002	 1.317837222400410e+000	 5.616676300548855e-001
 6.280512236444388e-002	 1.318502996876366e+000	 5.420238443650084e-001
 5.015526359901446e-002	 1.319044765938211e+000	 5.257277493521866e-001
 3.754831770724738e-002	 1.319463826019349e+000	 5.129808570991242e-001
 2.498580757350817e-002	 1.319761492860312e+000	 5.042008747340977e-001
 1.246921887214558e-002	 1.319939100451963e+000	 5.000259617047320e-001
 0.000000000000000e+000	 1.319997999988401e+000	 5.013175964864163e-001
 1.272817630202567e-001	 1.320544127202253e+000	 7.115312148689328e-001
 1.143766332063090e-001	 1.321724394483688e+000	 6.772326048903792e-001
 1.015064237626026e-001	 1.322775033778411e+000	 6.475199279787116e-001
 8.867285010333303e-002	 1.323697259665244e+000	 6.217594470535461e-001
 7.587759107302468e-002	 1.324492310454497e+000	 5.995086443926129e-001
 6.312228871331950e-002	 1.325161447096555e+000	 5.805263101445440e-001
 5.040854806422248e-002	 1.325705952096220e+000	 5.647812673510573e-001
 3.773793699913963e-002	 1.326127128433897e+000	 5.524597070966811e-001
 2.511198609302046e-002	 1.326426298494625e+000	 5.439711166734521e-001
 1.253218852288672e-002	 1.326604803005934e+000	 5.399527926641254e-001
 0.000000000000000e+000	 1.326663999985467e+000	 5.412729206006677e-001
 1.279213071950790e-001	 1.327179377084656e+000	 7.454628155881031e-001
 1.149513338372529e-001	 1.328365574776235e+000	 7.122218890681672e-001
 1.020164563117179e-001	 1.329421493147995e+000	 6.835712714215959e-001
 8.911839865198931e-002	 1.330348352881577e+000	 6.588314216834975e-001
 7.625884813816214e-002	 1.331147398509354e+000	 6.375198044218600e-001
 6.343945506252818e-002	 1.331819897317526e+000	 6.193614225479668e-001
 5.066183252982257e-002	 1.332367138255019e+000	 6.042979445493945e-001
 3.792755629143316e-002	 1.332790430849241e+000	 5.924953984994307e-001
 2.523816461288030e-002	 1.333091104129737e+000	 5.843504147551833e-001
 1.259515817384588e-002	 1.333270505560705e+000	 5.804950085705468e-001
 0.000000000000000e+000	 1.333329999983334e+000	 5.817997202956149e-001
 1.333329999983334e+000	 0.000000000000000e+000	 1.687567789618477e+001
 1.333270505560705e+000	 1.259515817384592e-002	 1.686789616697338e+001
 1.333091104129737e+000	 2.523816461288039e-002	 1.686236769179281e+001
 1.332790430849242e+000	 3.792755629143307e-002	 1.685803897954624e+001
 1.332367138255019e+000	 5.066183252982254e-002	 1.685388594815206e+001
 1.331819897317526e+000	 6.343945506252818e-002	 1.684891534001542e+001
 1.331147398509354e+000	 7.625884813816217e-002	 1.684216644621752e+001
 1.330348352881577e+000	 8.911839865198935e-002	 1.683271312711369e+001
 1.329421493147995e+000	 1.020164563117177e-001	 1.681966614639210e+001
 1.328365574776235e+000	 1.149513338372529e-001	 1.680217583359490e+001
 1.327179377084656e+000	 1.279213071950790e-001	 1.677943508776625e+001
 1.339996999982150e+000	 0.000000000000000e+000	 1.676644465206606e+001
 1.339937208071804e+000	 1.265813727142634e-002	 1.675915394638999e+001
 1.339756909586625e+000	 2.536436206177347e-002	 1.675395265007235e+001
 1.339454732860854e+000	 3.811720402987907e-002	 1.674983531925025e+001
 1.339029323692610e+000	 5.091515499229016e-002	 1.674582919880968e+001
 1.338479346406849e+000	 6.375666899177583e-002	 1.674099579230607e+001
 1.337803484928172e+000	 7.664016239779914e-002	 1.673443258037262e+001
 1.337000443862567e+000	 8.956401403969964e-002	 1.672527489449228e+001
 1.336068949587062e+000	 1.025265653733129e-001	 1.671269795597846e+001
 1.335007751346290e+000	 1.155261206817234e-001	 1.669591909027674e+001
 1.333815622354874e+000	 1.285609473108182e-001	 1.667420012694090e+001
 1.346663999981866e+000	 0.000000000000000e+000	 1.665993572602767e+001
 1.346603910583804e+000	 1.272111636919941e-002	 1.665310197461785e+001
 1.346422715044412e+000	 2.549055951097095e-002	 1.664820383933722e+001
 1.346119034873362e+000	 3.830685176867194e-002	 1.664428000487804e+001
 1.345691509131092e+000	 5.116847745508962e-002	 1.664040167135546e+001
 1.345138795497052e+000	 6.407388292129493e-002	 1.663567406669731e+001
 1.344459571347860e+000	 7.702147665761393e-002	 1.662923810712237e+001
 1.343652534844408e+000	 9.000962942747341e-002	 1.662027221309852e+001
 1.342716406026956e+000	 1.030366744348489e-001	 1.660799429085841e+001
 1.341649927917139e+000	 1.161009075260168e-001	 1.659166388984486e+001
 1.340451867625848e+000	 1.292005874262800e-001	 1.657058454672314e+001
 1.353330999982383e+000	 0.000000000000000e+000	 1.655604944610067e+001
 1.353270613096603e+000	 1.278409546711693e-002	 1.654964450410290e+001
 1.353088520502998e+000	 2.561675696039653e-002	 1.654503097496282e+001
 1.352783336886667e+000	 3.849649950772439e-002	 1.654129220231280e+001
 1.352353694570366e+000	 5.142179991813674e-002	 1.653754372137274e+001
 1.351798244588041e+000	 6.439109685101513e-002	 1.653293470900452e+001
 1.351115657768319e+000	 7.740279091755783e-002	 1.652664958148333e+001
 1.350304625827005e+000	 9.045524481528788e-002	 1.651790974789804e+001
 1.349363862467584e+000	 1.035467834963302e-001	 1.650597552950124e+001
 1.348292104488696e+000	 1.166756943701628e-001	 1.649014825565056e+001
 1.347088112897492e+000	 1.298402275415133e-001	 1.646977254727728e+001
 1.359997999983599e+000	 0.000000000000000e+000	 1.645468399160178e+001
 1.359937315610102e+000	 1.284707456513073e-002	 1.644868567429372e+001
 1.359754325962284e+000	 2.574295440997401e-002	 1.644434235422608e+001
 1.359447638900670e+000	 3.868614724694920e-002	 1.644078255088017e+001
 1.359015880010333e+000	 5.167512238134727e-002	 1.643716650265775e+001
 1.358457693679716e+000	 6.470831078086613e-002	 1.643268754984129e+001
 1.357771744189456e+000	 7.778410517758207e-002	 1.642657366492398e+001
 1.356956716810264e+000	 9.090086020312037e-002	 1.641808913874611e+001
 1.356011318908855e+000	 1.040568925577615e-001	 1.640653643301175e+001
 1.354934281060870e+000	 1.172504812141908e-001	 1.639125821010747e+001
 1.353724358169724e+000	 1.304798676565676e-001	 1.637163955147005e+001
 1.366664999985416e+000	 0.000000000000000e+000	 1.635573739676064e+001
 1.366604018124201e+000	 1.291005366319264e-002	 1.635012954564706e+001
 1.366420131422168e+000	 2.586915185962713e-002	 1.634604629367627e+001
 1.366111940915269e+000	 3.887579498625917e-002	 1.634266183969229e+001
 1.365678065450894e+000	 5.192844484463698e-002	 1.633918148163311e+001
 1.365117142771979e+000	 6.502552471077756e-002	 1.633484292768404e+001
 1.364427830611170e+000	 7.816541943763790e-002	 1.632891775447361e+001
 1.363608807794090e+000	 9.134647559094825e-002	 1.632071302127756e+001
 1.362658775350676e+000	 1.045670016191473e-001	 1.630957305106677e+001
 1.361576457633574e+000	 1.178252680581307e-001	 1.629488138961350e+001
 1.360360603442459e+000	 1.311195077714921e-001	 1.627606295422298e+001
 1.373331999987733e+000	 0.000000000000000e+000	 1.625910755424141e+001
 1.373270720638800e+000	 1.297303276125448e-002	 1.625388010556754e+001
 1.373085936882552e+000	 2.599534930927962e-002	 1.625005113647652e+001
 1.372776242930367e+000	 3.906544272556702e-002	 1.624684101537084e+001
 1.372340250891950e+000	 5.218176730792168e-002	 1.624350044442901e+001
 1.371776591864732e+000	 6.534273864067913e-002	 1.623931169428550e+001
 1.371083917033369e+000	 7.854673369767661e-002	 1.623358998544136e+001
 1.370260898778388e+000	 9.179209097874876e-002	 1.622568502590395e+001
 1.369306231792957e+000	 1.050771106804921e-001	 1.621498271616416e+001
 1.368218634206720e+000	 1.184000549020120e-001	 1.620090703302643e+001
 1.366996848715614e+000	 1.317591478863360e-001	 1.618292210419232e+001
 1.379998999990449e+000	 0.000000000000000e+000	 1.616469221856224e+001
 1.379937423153799e+000	 1.303601185926808e-002	 1.615984127417379e+001
 1.379751742343335e+000	 2.612154675885525e-002	 1.615626525952667e+001
 1.379440544945863e+000	 3.925509046478554e-002	 1.615323118953219e+001
 1.379002436333403e+000	 5.243508977111712e-002	 1.615003550373375e+001
 1.378436040957878e+000	 6.565995257050049e-002	 1.614600521989190e+001
 1.377740003455954e+000	 7.892804795764939e-002	 1.614049923399956e+001
 1.376912989763065e+000	 9.223770636649928e-002	 1.613290977676318e+001
 1.375953688235605e+000	 1.055872197418005e-001	 1.612266403793819e+001
 1.374860810780218e+000	 1.189748417458644e-001	 1.610922597034702e+001
 1.373633093989104e+000	 1.323987880011485e-001	 1.609209828582403e+001
 1.386665999993466e+000	 0.000000000000000e+000	 1.607238900941616e+001
 1.386604125669099e+000	 1.309899095718526e-002	 1.606791690989667e+001
 1.386417547804418e+000	 2.624774420827780e-002	 1.606459708037375e+001
 1.386104846961657e+000	 3.944473820382747e-002	 1.606174364604227e+001
 1.385664621775152e+000	 5.268841223413907e-002	 1.605869910542180e+001
 1.385095490051318e+000	 6.597716650017133e-002	 1.605483539827053e+001
 1.384396089878828e+000	 7.930936221750755e-002	 1.604955511963674e+001
 1.383565080748026e+000	 9.268332175417705e-002	 1.604229289062259e+001
 1.382601144678529e+000	 1.060973288030771e-001	 1.603251689753928e+001
 1.381502987353983e+000	 1.195496285897177e-001	 1.601973061160280e+001
 1.380269339262846e+000	 1.330384281159790e-001	 1.600347470177152e+001
 1.393332999996683e+000	 0.000000000000000e+000	 1.598209541489651e+001
 1.393270828184598e+000	 1.316197005495783e-002	 1.597801081491531e+001
 1.393083353265701e+000	 2.637394165747098e-002	 1.597495506391847e+001
 1.392769148977652e+000	 3.963438594260560e-002	 1.597228984804943e+001
 1.392326807217099e+000	 5.294173469690337e-002	 1.596940403496625e+001
 1.391754939144953e+000	 6.629438042962124e-002	 1.596571465155378e+001
 1.391052176301896e+000	 7.969067647720234e-002	 1.596066800748345e+001
 1.390217171733176e+000	 9.312893714175946e-002	 1.595374097573741e+001
 1.389248601121635e+000	 1.066074378643263e-001	 1.594444244207553e+001
 1.388145163927923e+000	 1.201244154336013e-001	 1.593231493592551e+001
 1.386905584536755e+000	 1.336780682308766e-001	 1.591693645566409e+001
 1.400000000000000e+000	 0.000000000000000e+000	 1.589370879463050e+001
 1.399937530700196e+000	 1.322494915253764e-002	 1.589002674043596e+001
 1.399749158727085e+000	 2.650013910635858e-002	 1.588724772892325e+001
 1.399433450993745e+000	 3.982403368103266e-002	 1.588478144480180e+001
 1.398988992659146e+000	 5.319505715932572e-002	 1.588206342364321e+001
 1.398414388238686e+000	 6.661159435877999e-002	 1.587855593490605e+001
 1.397708262725060e+000	 8.007199073668501e-002	 1.587374901051629e+001
 1.396869262718420e+000	 9.357455252922370e-002	 1.586716163066595e+001
 1.395896057564835e+000	 1.071175469255528e-001	 1.585834307911446e+001
 1.394787340501952e+000	 1.206992022775451e-001	 1.584687448081576e+001
 1.393541829810749e+000	 1.343177083458907e-001	 1.583237053521379e+001
 1.327179377084656e+000	 1.279213071950790e-001	 1.677943508776625e+001
 1.325861911943521e+000	 1.409226676366771e-001	 1.675434319187379e+001
 1.324411842274167e+000	 1.539555852480564e-001	 1.672990100610967e+001
 1.322828026262688e+000	 1.670182568124853e-001	 1.670552217955889e+001
 1.321109350289747e+000	 1.801088444902282e-001	 1.668065399851639e+001
 1.319254730025648e+000	 1.932254762343219e-001	 1.665478149769747e+001
 1.317263111523635e+000	 2.063662462431386e-001	 1.662743194383167e+001
 1.315133472310086e+000	 2.195292154500891e-001	 1.659817968240598e+001
 1.312864822470269e+000	 2.327124120507629e-001	 1.656665133401972e+001
 1.310456205728293e+000	 2.459138320677585e-001	 1.653253132233640e+001
 1.307906700519837e+000	 2.591314399534021e-001	 1.649556771099442e+001
 1.333815622354874e+000	 1.285609473108182e-001	 1.667420012694090e+001
 1.332491569542165e+000	 1.416273179673805e-001	 1.665033943427329e+001
 1.331034249143765e+000	 1.547254035878931e-001	 1.662714261108984e+001
 1.329442513636407e+000	 1.678533919390620e-001	 1.660403299714853e+001
 1.327715243832375e+000	 1.810094359914642e-001	 1.658047300839448e+001
 1.325851349980052e+000	 1.941916543374044e-001	 1.655595898158202e+001
 1.323849772862681e+000	 2.073981316457405e-001	 1.653002567465146e+001
 1.321709484894016e+000	 2.206269191540353e-001	 1.650225115319929e+001
 1.319429491209501e+000	 2.338760351983323e-001	 1.647226204973269e+001
 1.317008830751625e+000	 2.471434657808105e-001	 1.643973917776204e+001
 1.314446577348017e+000	 2.604271651755172e-001	 1.640442347799819e+001
 1.340451867625848e+000	 1.292005874262800e-001	 1.657058454672314e+001
 1.339121227141517e+000	 1.423319682977339e-001	 1.654745876219190e+001
 1.337656656014014e+000	 1.554952219273348e-001	 1.652507434891693e+001
 1.336057001010716e+000	 1.686885270652219e-001	 1.650292666489146e+001
 1.334321137375528e+000	 1.819100274922824e-001	 1.648053798718418e+001
 1.332447969934912e+000	 1.951578324400848e-001	 1.645743601668057e+001
 1.330436434202115e+000	 2.084300170479688e-001	 1.643300932660531e+001
 1.328285497478265e+000	 2.217246228576455e-001	 1.640680491694626e+001
 1.325994159948987e+000	 2.350396583456089e-001	 1.637844997074894e+001
 1.323561455775152e+000	 2.483730994936152e-001	 1.634762231424163e+001
 1.320986454176337e+000	 2.617228903974281e-001	 1.631405647963198e+001
 1.347088112897492e+000	 1.298402275415133e-001	 1.646977254727728e+001
 1.345750884741497e+000	 1.430366186277980e-001	 1.644742227903338e+001
 1.344279062884841e+000	 1.562650402664456e-001	 1.642574896626922e+001
 1.342671488385547e+000	 1.695236621910270e-001	 1.640427487014258e+001
 1.340927030919145e+000	 1.828106189927365e-001	 1.638254677882944e+001
 1.339044589890175e+000	 1.961240105424044e-001	 1.636013863169915e+001
 1.337023095541889e+000	 2.094619024498504e-001	 1.633665442742616e+001
 1.334861510062792e+000	 2.228223265609310e-001	 1.631173143004495e+001
 1.332558828688690e+000	 2.362032814925881e-001	 1.628502639014346e+001
 1.330114080798836e+000	 2.496027332061524e-001	 1.625599479655790e+001
 1.327526331004762e+000	 2.630186156191023e-001	 1.622428685270765e+001
 1.353724358169724e+000	 1.304798676565676e-001	 1.637163955147005e+001
 1.352380542342027e+000	 1.437412689576333e-001	 1.635011779912730e+001
 1.350901469756175e+000	 1.570348586052899e-001	 1.632920085295697e+001
 1.349285975760837e+000	 1.703587973165388e-001	 1.630843809319244e+001
 1.347532924463167e+000	 1.837112104928801e-001	 1.628740119458493e+001
 1.345641209845789e+000	 1.970901886444053e-001	 1.626568668200329e+001
 1.343609756881957e+000	 2.104937878514123e-001	 1.624291877504096e+001
 1.341437522647555e+000	 2.239200302639025e-001	 1.621875253623394e+001
 1.339123497428572e+000	 2.373669046392645e-001	 1.619287733736584e+001
 1.336666705822646e+000	 2.508323669184024e-001	 1.616502065810480e+001
 1.334066207833258e+000	 2.643143408405080e-001	 1.613495223086595e+001
 1.360360603442459e+000	 1.311195077714921e-001	 1.627606295422298e+001
 1.359010199943027e+000	 1.444459192873007e-001	 1.625541276771646e+001
 1.357523876627944e+000	 1.578046769439323e-001	 1.623528991413730e+001
 1.355900463136519e+000	 1.711939324418187e-001	 1.621527110989200e+001
 1.354138818007536e+000	 1.846118019927668e-001	 1.619495329146878e+001
 1.352237829801701e+000	 1.980563667461289e-001	 1.617395610496476e+001
 1.350196418222271e+000	 2.115256732526815e-001	 1.615192468943832e+001
 1.348013535232513e+000	 2.250177339665709e-001	 1.612853276928344e+001
 1.345688166168596e+000	 2.385305277856329e-001	 1.610348607072319e+001
 1.343219330846545e+000	 2.520620006303451e-001	 1.607652607731492e+001
 1.340606084661794e+000	 2.656100660616129e-001	 1.604743413903308e+001
 1.366996848715614e+000	 1.317591478863360e-001	 1.618292210419232e+001
 1.365639857544422e+000	 1.451505696168609e-001	 1.616317692555392e+001
 1.364146283500072e+000	 1.585744952824371e-001	 1.614387864173685e+001
 1.362514950512526e+000	 1.720290675669288e-001	 1.612463152369332e+001
 1.360744711552191e+000	 1.855123934924504e-001	 1.610505814464993e+001
 1.358834449757856e+000	 1.990225448476168e-001	 1.608480180599842e+001
 1.356783079562785e+000	 2.125575586536849e-001	 1.606352926157403e+001
 1.354589547817624e+000	 2.261154376689472e-001	 1.604093375610708e+001
 1.352252834908725e+000	 2.396941509316883e-001	 1.601673839356326e+001
 1.349771955870499e+000	 2.532916343419605e-001	 1.599069985091177e+001
 1.347145961490334e+000	 2.669057912823845e-001	 1.596261245255961e+001
 1.373633093989104e+000	 1.323987880011485e-001	 1.609209828582403e+001
 1.372269515146129e+000	 1.458552199463743e-001	 1.607328228433221e+001
 1.370768690372490e+000	 1.593443136208687e-001	 1.605483208425282e+001
 1.369129437888794e+000	 1.728642026919303e-001	 1.603637973082438e+001
 1.367350605097073e+000	 1.864129849919844e-001	 1.601757380900192e+001
 1.365431069714203e+000	 1.999887229489109e-001	 1.599808180808072e+001
 1.363369740903453e+000	 2.135894440544495e-001	 1.597759278901228e+001
 1.361165560402846e+000	 2.272131413710424e-001	 1.595582037078114e+001
 1.358817503648921e+000	 2.408577740774254e-001	 1.593250605217512e+001
 1.356324580894474e+000	 2.545212680532286e-001	 1.590742288513269e+001
 1.353685838318846e+000	 2.682015165027911e-001	 1.588037951557887e+001
 1.380269339262846e+000	 1.330384281159790e-001	 1.600347470177152e+001
 1.378899172748071e+000	 1.465598702759018e-001	 1.598560310263408e+001
 1.377391097245123e+000	 1.601141319592913e-001	 1.596801781720363e+001
 1.375743925265254e+000	 1.736993378168850e-001	 1.595037888621005e+001
 1.373956498642124e+000	 1.873135764914223e-001	 1.593236128146704e+001
 1.372027689670689e+000	 2.009549010500525e-001	 1.591365721153315e+001
 1.369956402244226e+000	 2.146213294550026e-001	 1.589397873410628e+001
 1.367741572988138e+000	 2.283108450728675e-001	 1.587306069210190e+001
 1.365382172389146e+000	 2.420213972228390e-001	 1.585066399036032e+001
 1.362877205918434e+000	 2.557509017641294e-001	 1.582657922981112e+001
 1.360225715147297e+000	 2.694972417228001e-001	 1.580063071568015e+001
 1.386905584536755e+000	 1.336780682308766e-001	 1.591693645566409e+001
 1.385528830350171e+000	 1.472645206055041e-001	 1.590001586238794e+001
 1.384013504117901e+000	 1.608839502977697e-001	 1.588330591420754e+001
 1.382358412641842e+000	 1.745344729418547e-001	 1.586649487011345e+001
 1.380562392187283e+000	 1.882141679908180e-001	 1.584928446420407e+001
 1.378624309627261e+000	 2.019210791510837e-001	 1.583139215462128e+001
 1.376543063585058e+000	 2.156532148553707e-001	 1.581255368299612e+001
 1.374317585573459e+000	 2.294085487744333e-001	 1.579252596193093e+001
 1.371946841129365e+000	 2.431850203679240e-001	 1.577109030807509e+001
 1.369429830942346e+000	 2.569805354746430e-001	 1.574805603826567e+001
 1.366765591975652e+000	 2.707929669423796e-001	 1.572326444599303e+001
 1.393541829810749e+000	 1.343177083458907e-001	 1.583237053521379e+001
 1.392158487952350e+000	 1.479691709352418e-001	 1.581639924581096e+001
 1.390635910990750e+000	 1.616537686363681e-001	 1.580056891866801e+001
 1.388972900018493e+000	 1.753696080669007e-001	 1.578459625547434e+001
 1.387168285732491e+000	 1.891147594902250e-001	 1.576821012849256e+001
 1.385220929583866e+000	 2.028872572520458e-001	 1.575115377494157e+001
 1.383129724925903e+000	 2.166851002555812e-001	 1.573318730539577e+001
 1.380893598158766e+000	 2.305062524757509e-001	 1.571409054430164e+001
 1.378511509869538e+000	 2.443486435126755e-001	 1.569366622077672e+001
 1.375982455966176e+000	 2.582101691847494e-001	 1.567174352780657e+001
 1.373305468803879e+000	 2.720886921614973e-001	 1.564818206777432e+001
 1.307906700519837e+000	 2.591314399534021e-001	 1.649556771099442e+001
 1.305215006833941e+000	 2.723651546311524e-001	 1.645531519967963e+001
 1.302380648154344e+000	 2.856108941680557e-001	 1.641150320176610e+001
 1.299402814194865e+000	 2.988665281832908e-001	 1.636423688553048e+001
 1.296280733615264e+000	 3.121298974347746e-001	 1.631370791543372e+001
 1.293013675037378e+000	 3.253988146137714e-001	 1.626020106169501e+001
 1.289600948045209e+000	 3.386710651775105e-001	 1.620410088123158e+001
 1.286041904167421e+000	 3.519444082195941e-001	 1.614589841426997e+001
 1.282335937840718e+000	 3.652165773779125e-001	 1.608619783650676e+001
 1.278482487352557e+000	 3.784852817797219e-001	 1.602572300249629e+001
 1.274481035761665e+000	 3.917482070234652e-001	 1.596532381201893e+001
 1.314446577348017e+000	 2.604271651755172e-001	 1.640442347799819e+001
 1.311741424487327e+000	 2.737270519005023e-001	 1.636583974828920e+001
 1.308892893270573e+000	 2.870390236120768e-001	 1.632370162232877e+001
 1.305900169359915e+000	 3.003609392769588e-001	 1.627812506304266e+001
 1.302762477558189e+000	 3.136906288562903e-001	 1.622931072499200e+001
 1.299479082830132e+000	 3.270258941042208e-001	 1.617755075570124e+001
 1.296049291307467e+000	 3.403645094046873e-001	 1.612323568477464e+001
 1.292472451276313e+000	 3.537042226461742e-001	 1.606686134371762e+001
 1.288747954145378e+000	 3.670427561341693e-001	 1.600903575476847e+001
 1.284875235393391e+000	 3.803778075409664e-001	 1.595048592266953e+001
 1.280853775494218e+000	 3.937070508923963e-001	 1.589206445921144e+001
 1.320986454176337e+000	 2.617228903974281e-001	 1.631405647963198e+001
 1.318267842140804e+000	 2.750889491696858e-001	 1.627725118796555e+001
 1.315405138386855e+000	 2.884671530559646e-001	 1.623690470888091e+001
 1.312397524524987e+000	 3.018553503705233e-001	 1.619313935701509e+001
 1.309244221501116e+000	 3.152513602777307e-001	 1.614616012468613e+001
 1.305944490622876e+000	 3.286529735946223e-001	 1.609626168642393e+001
 1.302497634569714e+000	 3.420579536318444e-001	 1.604383550867768e+001
 1.298902998385200e+000	 3.554640370727650e-001	 1.598937700618887e+001
 1.295159970450051e+000	 3.688689348904707e-001	 1.593349268172547e+001
 1.291267983434265e+000	 3.822703333022945e-001	 1.587690718130889e+001
 1.287226515226850e+000	 3.956658947614563e-001	 1.582047019279509e+001
 1.327526331004762e+000	 2.630186156191023e-001	 1.622428685270765e+001
 1.324794259794340e+000	 2.764508464386623e-001	 1.618937730298987e+001
 1.321917383503154e+000	 2.898952824996736e-001	 1.615094777993946e+001
 1.318894879690042e+000	 3.033497614639366e-001	 1.610912251130150e+001
 1.315725965443999e+000	 3.168120916990478e-001	 1.606410617731570e+001
 1.312409898415560e+000	 3.302800530849295e-001	 1.601619113006847e+001
 1.308945977831890e+000	 3.437513978589381e-001	 1.596576473638722e+001
 1.305333545494019e+000	 3.572238514993261e-001	 1.591331678430680e+001
 1.301571986754666e+000	 3.706951136467797e-001	 1.585944688814861e+001
 1.297660731475104e+000	 3.841628590636720e-001	 1.580487182250142e+001
 1.293599254959479e+000	 3.976247386306125e-001	 1.575043271093777e+001
 1.334066207833258e+000	 2.643143408405080e-001	 1.613495223086596e+001
 1.331320677447898e+000	 2.778127437073906e-001	 1.610204575420244e+001
 1.328429628619433e+000	 2.913234119431576e-001	 1.606566604442980e+001
 1.325392234855040e+000	 3.048441725571505e-001	 1.602591720743119e+001
 1.322207709386794e+000	 3.183728231201935e-001	 1.598299896200146e+001
 1.318875306208132e+000	 3.319071325750965e-001	 1.593719648706920e+001
 1.315394321093939e+000	 3.454448420859252e-001	 1.588888801056247e+001
 1.311764092602703e+000	 3.589836659258176e-001	 1.583855247971151e+001
 1.307984003059153e+000	 3.725212924030594e-001	 1.578677724613266e+001
 1.304053479515829e+000	 3.860553848250641e-001	 1.573426569409050e+001
 1.299971994692022e+000	 3.995835824998310e-001	 1.568184473569101e+001
 1.340606084661794e+000	 2.656100660616129e-001	 1.604743413903308e+001
 1.337847095101447e+000	 2.791746409758307e-001	 1.601568927954069e+001
 1.334941873735656e+000	 2.927515413863712e-001	 1.598097067561644e+001
 1.331889590019940e+000	 3.063385836501171e-001	 1.594336611193583e+001
 1.328689453329455e+000	 3.199335545411200e-001	 1.590268862947234e+001
 1.325340714000539e+000	 3.335342120650767e-001	 1.585913534506567e+001
 1.321842664355803e+000	 3.471382863127622e-001	 1.581307030348384e+001
 1.318194639711190e+000	 3.607434803521993e-001	 1.576495639066006e+001
 1.314396019363438e+000	 3.743474711592730e-001	 1.571536331366197e+001
 1.310446227556364e+000	 3.879479105864364e-001	 1.566497553899788e+001
 1.306344734424396e+000	 4.015424263690787e-001	 1.561460011087428e+001
 1.347145961490334e+000	 2.669057912823845e-001	 1.596261245255961e+001
 1.344373512754951e+000	 2.805365382439415e-001	 1.593194503613784e+001
 1.341454118851785e+000	 2.941796708292684e-001	 1.589836487130138e+001
 1.338386945184701e+000	 3.078329947427883e-001	 1.586202061047446e+001
 1.335171197271936e+000	 3.214942859617793e-001	 1.582311710049009e+001
 1.331806121792732e+000	 3.351612915548239e-001	 1.578186554186949e+001
 1.328291007617424e+000	 3.488317305394058e-001	 1.573817698736882e+001
 1.324625186819415e+000	 3.625032947784311e-001	 1.569240138945978e+001
 1.320808035667453e+000	 3.761736499153836e-001	 1.564508541894501e+001
 1.316838975596630e+000	 3.898404363477547e-001	 1.559688908625712e+001
 1.312717474156519e+000	 4.035012702383219e-001	 1.554859389962170e+001
 1.353685838318846e+000	 2.682015165027911e-001	 1.588037951557887e+001
 1.350899930408376e+000	 2.818984355116824e-001	 1.585083106547937e+001
 1.347966363967785e+000	 2.956078002718034e-001	 1.581842624822497e+001
 1.344884300349283e+000	 3.093274058351162e-001	 1.578331745663883e+001
 1.341652941214191e+000	 3.230550173821236e-001	 1.574571026011734e+001
 1.338271529584657e+000	 3.367883710442921e-001	 1.570586909512007e+001
 1.334739350878743e+000	 3.505251747658126e-001	 1.566412340025205e+001
 1.331055733927312e+000	 3.642631092044733e-001	 1.562076099974143e+001
 1.327220051971125e+000	 3.779998286713540e-001	 1.557582474452521e+001
 1.323231723636551e+000	 3.917329621089841e-001	 1.552989514176903e+001
 1.319090213888307e+000	 4.054601141075276e-001	 1.548372248160165e+001
 1.360225715147297e+000	 2.694972417228001e-001	 1.580063071568015e+001
 1.357426348061687e+000	 2.832603327790126e-001	 1.577225479881304e+001
 1.354478609083619e+000	 2.970359297139307e-001	 1.574107349568080e+001
 1.351381655513645e+000	 3.108218169270527e-001	 1.570723968415065e+001
 1.348134685156176e+000	 3.246157488021045e-001	 1.567095625052771e+001
 1.344736937376264e+000	 3.384154505334348e-001	 1.563248177806287e+001
 1.341187694139704e+000	 3.522186189919392e-001	 1.559213669289185e+001
 1.337486281034819e+000	 3.660229236302852e-001	 1.555030987853720e+001
 1.333632068274384e+000	 3.798260074271477e-001	 1.550746576846864e+001
 1.329624471676048e+000	 3.936254878700904e-001	 1.546388367878785e+001
 1.325462953619678e+000	 4.074189579766622e-001	 1.541988364992125e+001
 1.366765591975652e+000	 2.707929669423796e-001	 1.572326444599303e+001
 1.363952765714852e+000	 2.846222300458915e-001	 1.569612655925210e+001
 1.360990854199249e+000	 2.984640591556040e-001	 1.566622809429112e+001
 1.357879010677747e+000	 3.123162280185499e-001	 1.563371920531603e+001
 1.354616429097844e+000	 3.261764802216743e-001	 1.559879673754039e+001
 1.351202345167504e+000	 3.400425300222060e-001	 1.556170991510401e+001
 1.347636037400247e+000	 3.539120632177420e-001	 1.552276649960689e+001
 1.343916828141869e+000	 3.677827380558271e-001	 1.548233943126494e+001
 1.340044084577158e+000	 3.816521861827275e-001	 1.544087396304675e+001
 1.336017219715046e+000	 3.955180136310391e-001	 1.539889529627748e+001
 1.331835693350548e+000	 4.093778018456922e-001	 1.535697670772555e+001
 1.373305468803879e+000	 2.720886921614973e-001	 1.564818206777432e+001
 1.370479183367836e+000	 2.859841273122784e-001	 1.562235952666997e+001
 1.367503099314640e+000	 2.998921885967780e-001	 1.559381428276324e+001
 1.364376365841549e+000	 3.138106391095596e-001	 1.556269060401675e+001
 1.361098173039150e+000	 3.277372116407852e-001	 1.552917598367377e+001
 1.357667752958321e+000	 3.416696095105594e-001	 1.549350682888046e+001
 1.354084380660317e+000	 3.556055074431779e-001	 1.545597463345163e+001
 1.350347375248399e+000	 3.695425524810588e-001	 1.541693264768145e+001
 1.346456100879377e+000	 3.834783649380567e-001	 1.537680305644777e+001
 1.342409967753466e+000	 3.974105393917957e-001	 1.533608467497180e+001
 1.338208433080836e+000	 4.113366457145844e-001	 1.529536116946267e+001
 1.274481035761665e+000	 3.917482070234652e-001	 1.596532381201893e+001
 1.270331111476093e+000	 4.050030160027568e-001	 1.590232633344758e+001
 1.266032288167079e+000	 4.182473493586814e-001	 1.583394776395024e+001
 1.261584186568501e+000	 4.314788271174073e-001	 1.576108871581216e+001
 1.256986475613899e+000	 4.446950500028725e-001	 1.568480872944491e+001
 1.252238873225494e+000	 4.578936005938943e-001	 1.560633148073909e+001
 1.247341147071948e+000	 4.710720445141692e-001	 1.552704934155621e+001
 1.242293115293416e+000	 4.842279316542610e-001	 1.544852720782262e+001
 1.237094647192461e+000	 4.973587974246059e-001	 1.537250550968942e+001
 1.231745663889408e+000	 5.104621640384943e-001	 1.530090231892030e+001
 1.226246138940778e+000	 5.235355418239187e-001	 1.523581447008463e+001
 1.280853775494218e+000	 3.937070508923963e-001	 1.589206445921144e+001
 1.276683100497812e+000	 4.070281373959295e-001	 1.583115653845651e+001
 1.272362781943674e+000	 4.203386958952362e-001	 1.576501875030369e+001
 1.267892438669269e+000	 4.336363345159897e-001	 1.569452613453832e+001
 1.263271737952744e+000	 4.469186419851159e-001	 1.562071488619067e+001
 1.258500396305879e+000	 4.601831887936905e-001	 1.554478791945748e+001
 1.253578180235638e+000	 4.734275283928874e-001	 1.546811977873039e+001
 1.248504906972856e+000	 4.866491984220788e-001	 1.539226080817034e+001
 1.243280445166594e+000	 4.998457219681045e-001	 1.531894049120289e+001
 1.237904715542784e+000	 5.130146088546692e-001	 1.525006987195572e+001
 1.232377691525745e+000	 5.261533569607503e-001	 1.518774297205129e+001
 1.287226515226850e+000	 3.956658947614563e-001	 1.582047019279509e+001
 1.283035089519661e+000	 4.090532587892841e-001	 1.576163161657105e+001
 1.278693275720454e+000	 4.224300424320308e-001	 1.569769849162008e+001
 1.274200690770286e+000	 4.357938419148706e-001	 1.562952271367530e+001
 1.269557000291902e+000	 4.491422339677152e-001	 1.555811956028434e+001
 1.264761919386638e+000	 4.624727769938941e-001	 1.548467361699363e+001
 1.259815213399763e+000	 4.757830122720565e-001	 1.541054404461842e+001
 1.254716698652781e+000	 4.890704651903787e-001	 1.533726909594597e+001
 1.249466243141255e+000	 5.023326465121009e-001	 1.526656979008476e+001
 1.244063767196715e+000	 5.155670536713387e-001	 1.520035265326884e+001
 1.238509244111277e+000	 5.287711720980507e-001	 1.514071143629012e+001
 1.293599254959479e+000	 3.976247386306125e-001	 1.575043271093777e+001
 1.289387078541550e+000	 4.110783801827868e-001	 1.569364971207326e+001
 1.285023769497329e+000	 4.245213889690289e-001	 1.563189120020025e+001
 1.280508942871458e+000	 4.379513493140114e-001	 1.556598822820833e+001
 1.275842262631276e+000	 4.513658259506280e-001	 1.549693745654628e+001
 1.271023442467676e+000	 4.647623651944605e-001	 1.542590744775269e+001
 1.266052246564224e+000	 4.781384961516295e-001	 1.535424429606926e+001
 1.260928490333093e+000	 4.914917319591130e-001	 1.528347649732300e+001
 1.255652041116344e+000	 5.048195710565490e-001	 1.521531896405438e+001
 1.250222818851101e+000	 5.181194984884608e-001	 1.515167609141261e+001
 1.244640796697276e+000	 5.313889872357854e-001	 1.509464378067467e+001
 1.299971994692022e+000	 3.995835824998310e-001	 1.568184473569101e+001
 1.295739067563394e+000	 4.131035015764033e-001	 1.562711023011782e+001
 1.291354263274208e+000	 4.266127355061942e-001	 1.556750260378627e+001
 1.286817194972689e+000	 4.401088567133724e-001	 1.550383424055468e+001
 1.282127524970770e+000	 4.535894179338115e-001	 1.543708535646655e+001
 1.277284965548894e+000	 4.670519533953436e-001	 1.536841066910443e+001
 1.272289279728921e+000	 4.804939800315584e-001	 1.529914539604935e+001
 1.267140282013694e+000	 4.939129987282336e-001	 1.523081048439826e+001
 1.261837839091760e+000	 5.073064956014023e-001	 1.516511697300561e+001
 1.256381870505843e+000	 5.206719433059938e-001	 1.510396938960608e+001
 1.250772349283640e+000	 5.340068023739211e-001	 1.504946808627835e+001
 1.306344734424396e+000	 4.015424263690787e-001	 1.561460011087428e+001
 1.302091056585105e+000	 4.151286229700997e-001	 1.556191394096157e+001
 1.297684757051000e+000	 4.287040820434901e-001	 1.550444005585610e+001
 1.293125447073886e+000	 4.422663641129139e-001	 1.544297421660156e+001
 1.288412787310288e+000	 4.558130099172235e-001	 1.537848223962223e+001
 1.283546488630194e+000	 4.693415415964984e-001	 1.531210704777443e+001
 1.278526312893757e+000	 4.828494639117961e-001	 1.524517504455999e+001
 1.273352073694481e+000	 4.963342654976929e-001	 1.517920171014545e+001
 1.268023637067405e+000	 5.097934201466150e-001	 1.511589631746595e+001
 1.262540922160840e+000	 5.232243881238962e-001	 1.505716566712684e+001
 1.256903901870271e+000	 5.366246175124240e-001	 1.500511674108685e+001
 1.312717474156519e+000	 4.035012702383219e-001	 1.554859389962170e+001
 1.308443045606594e+000	 4.171537443638418e-001	 1.549796308381264e+001
 1.304015250827613e+000	 4.307954285808809e-001	 1.544261264550466e+001
 1.299433699174955e+000	 4.444238715125973e-001	 1.538332364130693e+001
 1.294698049649734e+000	 4.580366019008214e-001	 1.532104940464451e+001
 1.289808011711478e+000	 4.716311297978786e-001	 1.525692298578321e+001
 1.284763346058632e+000	 4.852049477922950e-001	 1.519226390911350e+001
 1.279563865375358e+000	 4.987555322674430e-001	 1.512858414295252e+001
 1.274209435043177e+000	 5.122803446921408e-001	 1.506759317667754e+001
 1.268699973815992e+000	 5.257768329421260e-001	 1.501120210037851e+001
 1.263035454457067e+000	 5.392424326512596e-001	 1.496152658345458e+001
 1.319090213888307e+000	 4.054601141075276e-001	 1.548372248160165e+001
 1.314795034627774e+000	 4.191788657575951e-001	 1.543516147031235e+001
 1.310345744603956e+000	 4.328867751183299e-001	 1.538193130692498e+001
 1.305741951275802e+000	 4.465813789123832e-001	 1.532480013387741e+001
 1.300983311989010e+000	 4.602601938845619e-001	 1.526471058975089e+001
 1.296069534792650e+000	 4.739207179994396e-001	 1.520278764594957e+001
 1.291000379223446e+000	 4.875604316730077e-001	 1.514034575478405e+001
 1.285775657056222e+000	 5.011767990374352e-001	 1.507889520075647e+001
 1.280395233018978e+000	 5.147672692379334e-001	 1.502014754631315e+001
 1.274859025471199e+000	 5.283292777606418e-001	 1.496602006364464e+001
 1.269167007043930e+000	 5.418602477903944e-001	 1.491863904531408e+001
 1.325462953619678e+000	 4.074189579766622e-001	 1.541988364992125e+001
 1.321147023648559e+000	 4.212039871513260e-001	 1.537341458766182e+001
 1.316676238379938e+000	 4.349781216558010e-001	 1.532230892850300e+001
 1.312050203376333e+000	 4.487388863122319e-001	 1.526732356253796e+001
 1.307268574328022e+000	 4.624837858684034e-001	 1.520939209285689e+001
 1.302331057873609e+000	 4.762103062011355e-001	 1.514963307697181e+001
 1.297237412388103e+000	 4.899159155538866e-001	 1.508935757384699e+001
 1.291987448736975e+000	 5.035980658076227e-001	 1.503007588478971e+001
 1.286581030994707e+000	 5.172541937839468e-001	 1.497350337583910e+001
 1.281018077126362e+000	 5.308817225794016e-001	 1.492156526953918e+001
 1.275298559630759e+000	 5.444780629297946e-001	 1.487640029514641e+001
 1.331835693350548e+000	 4.093778018456922e-001	 1.535697670772555e+001
 1.327499012668862e+000	 4.232291085450001e-001	 1.531262970140525e+001
 1.323006732155468e+000	 4.370694681932577e-001	 1.526366046153929e+001
 1.318358455476455e+000	 4.508963937121044e-001	 1.521081615890727e+001
 1.313553836666673e+000	 4.647073778523029e-001	 1.515502289128156e+001
 1.308592580954259e+000	 4.784998944029210e-001	 1.509739433810193e+001
 1.303474445552502e+000	 4.922713994348845e-001	 1.503923971502073e+001
 1.298199240417519e+000	 5.060193325779568e-001	 1.498207091295060e+001
 1.292766828970265e+000	 5.197411183301344e-001	 1.492760870553708e+001
 1.287177128781380e+000	 5.334341673983635e-001	 1.487778790916397e+001
 1.281430112217454e+000	 5.470958780694262e-001	 1.483476138072100e+001
 1.338208433080836e+000	 4.113366457145844e-001	 1.529536116946267e+001
 1.333851001688592e+000	 4.252542299385834e-001	 1.525272124810328e+001
 1.329337225930455e+000	 4.391608147306638e-001	 1.520590302860944e+001
 1.324666707576071e+000	 4.530539011119613e-001	 1.515520263199120e+001
 1.319839099004865e+000	 4.669309698362181e-001	 1.510153476106035e+001
 1.314854104034503e+000	 4.807894826047506e-001	 1.504600962342540e+001
 1.309711478716544e+000	 4.946268833159535e-001	 1.498993601232438e+001
 1.304411032097752e+000	 5.084405993483900e-001	 1.493482885281105e+001
 1.298952626945552e+000	 5.222280428764503e-001	 1.488241580319642e+001
 1.293336180436153e+000	 5.359866122174863e-001	 1.483464279198310e+001
 1.287561664803915e+000	 5.497136932092553e-001	 1.479367837161186e+001
 1.226246138940778e+000	 5.235355418239187e-001	 1.523581447008463e+001
 1.220596957825401e+000	 5.365744771980168e-001	 1.516509691495484e+001
 1.214797387829354e+000	 5.495784256663966e-001	 1.507701856935539e+001
 1.208847564018351e+000	 5.625448718653632e-001	 1.497458334170451e+001
 1.202747675935371e+000	 5.754712940886186e-001	 1.486095740818603e+001
 1.196497968013682e+000	 5.883551657230444e-001	 1.473946355411932e+001
 1.190098739945637e+000	 6.011939567052549e-001	 1.461357412231834e+001
 1.183550347006174e+000	 6.139851349973728e-001	 1.448690251857055e+001
 1.176853200330036e+000	 6.267261680804233e-001	 1.436319323196902e+001
 1.170007767141820e+000	 6.394145244636895e-001	 1.424631033615871e+001
 1.163014570937961e+000	 6.520476752083219e-001	 1.414022444657374e+001
 1.232377691525745e+000	 5.261533569607503e-001	 1.518774297205129e+001
 1.226700263021949e+000	 5.392574904344009e-001	 1.511969605369552e+001
 1.220871693653703e+000	 5.523264620586145e-001	 1.503412751452427e+001
 1.214892119162068e+000	 5.653577438922185e-001	 1.493411766467063e+001
 1.208761730037767e+000	 5.783488016197220e-001	 1.482291565701794e+001
 1.202480771936284e+000	 5.912970959942786e-001	 1.470393388440123e+001
 1.196049546048495e+000	 6.042000843015227e-001	 1.458074094330687e+001
 1.189468409425784e+000	 6.170552218427235e-001	 1.445705311169603e+001
 1.182737775258663e+000	 6.298599634356477e-001	 1.433672429636853e+001
 1.175858113107952e+000	 6.426117649314611e-001	 1.422373441382176e+001
 1.168829949087690e+000	 6.553080847459571e-001	 1.412217617781350e+001
 1.238509244111277e+000	 5.287711720980507e-001	 1.514071143629012e+001
 1.232803568219056e+000	 5.419405036712032e-001	 1.507527130108277e+001
 1.226945999478585e+000	 5.550744984511792e-001	 1.499216326304506e+001
 1.220936674306278e+000	 5.681706159193329e-001	 1.489453999206670e+001
 1.214775784140606e+000	 5.812263091509863e-001	 1.478572963551773e+001
 1.208463575859269e+000	 5.942390262655702e-001	 1.466923028522385e+001
 1.202000352151671e+000	 6.072062118977436e-001	 1.454870296985325e+001
 1.195386471845647e+000	 6.201253086879278e-001	 1.442796311774440e+001
 1.188622350187476e+000	 6.329937587906361e-001	 1.431097044318534e+001
 1.181708459074210e+000	 6.458090053989225e-001	 1.420181721790916e+001
 1.174645327237490e+000	 6.585684942832285e-001	 1.410471489906389e+001
 1.244640796697276e+000	 5.313889872357854e-001	 1.509464378067467e+001
 1.238906873416620e+000	 5.446235169084013e-001	 1.503174378606070e+001
 1.233020305303900e+000	 5.578225348440832e-001	 1.495104304924150e+001
 1.226981229450880e+000	 5.709834879467168e-001	 1.485576254660828e+001
 1.220789838243787e+000	 5.841038166824406e-001	 1.474930543034825e+001
 1.214446379782539e+000	 5.971809565369676e-001	 1.463525157941337e+001
 1.207951158255066e+000	 6.102123394939857e-001	 1.451735063420357e+001
 1.201304534265663e+000	 6.231953955330730e-001	 1.439951345730627e+001
 1.194506925116377e+000	 6.361275541454937e-001	 1.428580197080511e+001
 1.187558805040492e+000	 6.490062458661944e-001	 1.418041732964613e+001
 1.180460705387259e+000	 6.618289038202686e-001	 1.408768640028483e+001
 1.250772349283640e+000	 5.340068023739211e-001	 1.504946808627835e+001
 1.245010178614542e+000	 5.473065301459731e-001	 1.498903920076685e+001
 1.239094611129547e+000	 5.605705712373188e-001	 1.491068907632203e+001
 1.233025784595776e+000	 5.737963599743795e-001	 1.481770292915757e+001
 1.226803892347210e+000	 5.869813242141136e-001	 1.471355491704511e+001
 1.220429183705992e+000	 6.001228868085193e-001	 1.460190278877867e+001
 1.213901964358580e+000	 6.132184670903178e-001	 1.448658097503299e+001
 1.207222596685732e+000	 6.262654823782473e-001	 1.437159206017491e+001
 1.200391500045263e+000	 6.392613495003259e-001	 1.426109658295088e+001
 1.193409151006699e+000	 6.522034863333969e-001	 1.415940112317345e+001
 1.186276083536898e+000	 6.650893133572102e-001	 1.407094464151189e+001
 1.256903901870271e+000	 5.366246175124240e-001	 1.500511674108685e+001
 1.251113483812722e+000	 5.499895433838962e-001	 1.494708794601628e+001
 1.245168916955427e+000	 5.633186076308789e-001	 1.487102866318525e+001
 1.239070339740865e+000	 5.766092320023309e-001	 1.478028426640838e+001
 1.232817946450777e+000	 5.898588317460343e-001	 1.467839590814866e+001
 1.226411987629527e+000	 6.030648170802745e-001	 1.456909528226836e+001
 1.219852770462114e+000	 6.162245946868086e-001	 1.445629778521635e+001
 1.213140659105751e+000	 6.293355692235377e-001	 1.434409401232970e+001
 1.206276074974036e+000	 6.423951448552380e-001	 1.423673953449126e+001
 1.199259496972731e+000	 6.554007268006509e-001	 1.413864290980648e+001
 1.192091461686306e+000	 6.683497228941863e-001	 1.405423338334024e+001
 1.263035454457067e+000	 5.392424326512596e-001	 1.496152658345458e+001
 1.257216789011060e+000	 5.526725566221481e-001	 1.490582527661190e+001
 1.251243222781439e+000	 5.660666440247560e-001	 1.483199439114446e+001
 1.245114894886047e+000	 5.794221040305814e-001	 1.474343535859291e+001
 1.238832000554385e+000	 5.927363392782314e-001	 1.464375230146943e+001
 1.232394791553046e+000	 6.060067473522817e-001	 1.453674692438075e+001
 1.225803576565566e+000	 6.192307222835267e-001	 1.442641175997848e+001
 1.219058721525625e+000	 6.324056560690328e-001	 1.431692170343457e+001
 1.212160649902596e+000	 6.455289402103351e-001	 1.421262377790519e+001
 1.205109842938485e+000	 6.585979672680770e-001	 1.411802508309702e+001
 1.197906839835384e+000	 6.716101324313292e-001	 1.403679629359514e+001
 1.269167007043930e+000	 5.418602477903944e-001	 1.491863904531408e+001
 1.263320094209456e+000	 5.553555698607069e-001	 1.486519144648772e+001
 1.257317528607485e+000	 5.688146804189427e-001	 1.479352425057399e+001
 1.251159450031222e+000	 5.822349760591403e-001	 1.470709082720874e+001
 1.244846054657936e+000	 5.956138468107336e-001	 1.460955422848151e+001
 1.238377595476449e+000	 6.089486776245893e-001	 1.450478222381786e+001
 1.231754382668837e+000	 6.222368498805404e-001	 1.439684064541264e+001
 1.224976783945250e+000	 6.354757429148198e-001	 1.428998497483363e+001
 1.218045224830843e+000	 6.486627355657232e-001	 1.418865011038075e+001
 1.210960188903866e+000	 6.617952077357959e-001	 1.409743826467108e+001
 1.203722217984031e+000	 6.748705419687716e-001	 1.401856392234317e+001
 1.275298559630759e+000	 5.444780629297946e-001	 1.487640029514641e+001
 1.269423399407810e+000	 5.580385830995502e-001	 1.482513185368984e+001
 1.263391834433463e+000	 5.715627168134314e-001	 1.475556178748079e+001
 1.257204005176290e+000	 5.850478480880179e-001	 1.467119126276665e+001
 1.250860108761329e+000	 5.984913543435702e-001	 1.457573820284055e+001
 1.244360399399635e+000	 6.118906078972457e-001	 1.447313248237529e+001
 1.237705188771828e+000	 6.252429774779184e-001	 1.436750938735347e+001
 1.230894846364528e+000	 6.385458297609863e-001	 1.426320126802844e+001
 1.223929799758676e+000	 6.517965309215072e-001	 1.416472732152621e+001
 1.216810534868771e+000	 6.649924482039284e-001	 1.407678145081622e+001
 1.209537596132148e+000	 6.781309515066470e-001	 1.399959239005340e+001
 1.281430112217454e+000	 5.470958780694262e-001	 1.483476138072100e+001
 1.275526704606021e+000	 5.607215963386558e-001	 1.478559718520105e+001
 1.269466140259273e+000	 5.743107532082148e-001	 1.471805625000219e+001
 1.263248560321152e+000	 5.878607201172238e-001	 1.463568337255764e+001
 1.256874162864464e+000	 6.013688618767694e-001	 1.454224726902133e+001
 1.250343203322505e+000	 6.148325381703006e-001	 1.444173594406058e+001
 1.243655994874438e+000	 6.282491050757292e-001	 1.433835028059350e+001
 1.236812908783358e+000	 6.416159166076205e-001	 1.423649577361955e+001
 1.229814374685995e+000	 6.549303262777925e-001	 1.414077234167389e+001
 1.222660880833101e+000	 6.681896886725949e-001	 1.405589689772259e+001
 1.215352974279634e+000	 6.813913610450872e-001	 1.397994404136328e+001
 1.287561664803915e+000	 5.497136932092553e-001	 1.479367837161186e+001
 1.281630009803991e+000	 5.634046095780015e-001	 1.474654356161428e+001
 1.275540446084816e+000	 5.770587896032857e-001	 1.468096273483436e+001
 1.269293115465706e+000	 5.906735921467680e-001	 1.460052012843865e+001
 1.262888216967242e+000	 6.042463694103605e-001	 1.450903115107177e+001
 1.256326007244957e+000	 6.177744684438015e-001	 1.441053794443189e+001
 1.249606800976565e+000	 6.312552326740413e-001	 1.430930311843159e+001
 1.242730971201641e+000	 6.446860034548100e-001	 1.420980158069743e+001
 1.235698949612701e+000	 6.580641216346842e-001	 1.411671039075594e+001
 1.228511226796755e+000	 6.713869291419161e-001	 1.403430912529995e+001
 1.221168352426389e+000	 6.846517705842250e-001	 1.395968729553720e+001
 1.163014570937961e+000	 6.520476752083219e-001	 1.414022444657374e+001
 1.155873109602832e+000	 6.646249776286929e-001	 1.404351696261824e+001
 1.148585058614304e+000	 6.771420126199730e-001	 1.394778223034619e+001
 1.141151112142714e+000	 6.895962677838111e-001	 1.384237444752806e+001
 1.133572020887520e+000	 7.019852395065859e-001	 1.372777182378905e+001
 1.125848592007459e+000	 7.143064345277265e-001	 1.360463397729805e+001
 1.117981688999059e+000	 7.265573715111380e-001	 1.347353959798913e+001
 1.109972231523171e+000	 7.387355826177517e-001	 1.333498541640215e+001
 1.101821195179304e+000	 7.508386150772266e-001	 1.318938573035005e+001
 1.093529611227624e+000	 7.628640327567903e-001	 1.303707250283157e+001
 1.085098566258542e+000	 7.748094177252014e-001	 1.287829604008510e+001
 1.168829949087690e+000	 6.553080847459571e-001	 1.412217617781350e+001
 1.161652778571524e+000	 6.679482769799122e-001	 1.403051253691951e+001
 1.154328285415150e+000	 6.805279004318178e-001	 1.393573371552678e+001
 1.146857167259933e+000	 6.930444301406756e-001	 1.383156266814780e+001
 1.139240178559023e+000	 7.054953499741441e-001	 1.371868380579772e+001
 1.131478130507162e+000	 7.178781542047006e-001	 1.359769753468861e+001
 1.123571890918583e+000	 7.301903490889223e-001	 1.346911870460608e+001
 1.115522384052679e+000	 7.424294544479033e-001	 1.333337562074749e+001
 1.107330590387213e+000	 7.545930052468109e-001	 1.319080963741224e+001
 1.098997546338916e+000	 7.666785531715749e-001	 1.304167534747680e+001
 1.090524343931437e+000	 7.786836682006677e-001	 1.288614137689496e+001
 1.174645327237490e+000	 6.585684942832285e-001	 1.410471489906389e+001
 1.167432447540242e+000	 6.712715763307389e-001	 1.401701455575873e+001
 1.160071512215981e+000	 6.839137882432631e-001	 1.392310677928870e+001
 1.152563222377106e+000	 6.964925924971537e-001	 1.382030326178759e+001
 1.144908336230456e+000	 7.090054604413443e-001	 1.370923591258009e+001
 1.137107669006771e+000	 7.214498738813563e-001	 1.359044814470760e+001
 1.129162092837993e+000	 7.338233266664368e-001	 1.346439333880809e+001
 1.121072536582053e+000	 7.461233262778365e-001	 1.333143389397390e+001
 1.112839985594964e+000	 7.583473954162310e-001	 1.319184088467157e+001
 1.104465481450024e+000	 7.704930735862463e-001	 1.304579433819169e+001
 1.095950121604115e+000	 7.825579186760658e-001	 1.289338414223743e+001
 1.180460705387259e+000	 6.618289038202686e-001	 1.408768640028483e+001
 1.173212116508882e+000	 6.745948756813138e-001	 1.400277692386999e+001
 1.165814739016700e+000	 6.872996760544552e-001	 1.390990988091053e+001
 1.158269277494137e+000	 6.999407548533922e-001	 1.380860032686871e+001
 1.150576493901720e+000	 7.125155709083308e-001	 1.369942973332915e+001
 1.142737207506194e+000	 7.250215935578347e-001	 1.358288673686814e+001
 1.134752294757199e+000	 7.374563042438156e-001	 1.345936561419841e+001
 1.126622689111209e+000	 7.498171981076808e-001	 1.332916536798123e+001
 1.118349380802482e+000	 7.621017855856068e-001	 1.319248944310961e+001
 1.109933416560885e+000	 7.743075940009153e-001	 1.304944608848891e+001
 1.101375899276528e+000	 7.864321691514963e-001	 1.290004937431678e+001
 1.186276083536898e+000	 6.650893133572102e-001	 1.407094464151189e+001
 1.178991785477346e+000	 6.779181750317777e-001	 1.398782139566869e+001
 1.171557965817204e+000	 6.906855638655393e-001	 1.389615862379830e+001
 1.163975332610925e+000	 7.033889172095377e-001	 1.379646512762385e+001
 1.156244651572721e+000	 7.160256813752506e-001	 1.368927400742775e+001
 1.148366746005336e+000	 7.285933132342778e-001	 1.357502133892075e+001
 1.140342496676112e+000	 7.410892818211960e-001	 1.345404465531165e+001
 1.132172841640063e+000	 7.535110699375641e-001	 1.332658206391669e+001
 1.123858776009693e+000	 7.658561757550579e-001	 1.319277201786374e+001
 1.115401351671433e+000	 7.781221144156914e-001	 1.305265375850400e+001
 1.106801676948623e+000	 7.903064196270588e-001	 1.290616843894213e+001
 1.192091461686306e+000	 6.683497228941863e-001	 1.405423338334024e+001
 1.184771454445534e+000	 6.812414743822718e-001	 1.397217664866406e+001
 1.177301192617397e+000	 6.940714516766612e-001	 1.388187558850840e+001
 1.169681387727372e+000	 7.068370795657385e-001	 1.378391592236906e+001
 1.161912809243362e+000	 7.195357918422488e-001	 1.367878444911770e+001
 1.153996284504104e+000	 7.321650329108280e-001	 1.356686689906521e+001
 1.145932698594644e+000	 7.447222593987140e-001	 1.344844641850456e+001
 1.137722994168534e+000	 7.572049417676150e-001	 1.332370271286925e+001
 1.129368171216523e+000	 7.696105659247043e-001	 1.319271186984112e+001
 1.120869286781606e+000	 7.819366348306854e-001	 1.305544687863003e+001
 1.112227454620352e+000	 7.941806701028538e-001	 1.291177885627304e+001
 1.197906839835384e+000	 6.716101324313292e-001	 1.403679629359514e+001
 1.190551123413346e+000	 6.845647737329372e-001	 1.395587812348297e+001
 1.183044419417176e+000	 6.974573394879658e-001	 1.386709016697294e+001
 1.175387442843380e+000	 7.102852419221407e-001	 1.377097779305577e+001
 1.167580966913544e+000	 7.230459023094709e-001	 1.366798357350227e+001
 1.159625823002403e+000	 7.357367525876272e-001	 1.355844510951681e+001
 1.151522900512705e+000	 7.483552369765053e-001	 1.344259351419279e+001
 1.143273146696537e+000	 7.608988135979621e-001	 1.332055257787666e+001
 1.134877566422896e+000	 7.733649560946659e-001	 1.319233863858149e+001
 1.126337221891338e+000	 7.857511552460075e-001	 1.305786117431219e+001
 1.117653232291664e+000	 7.980549205789822e-001	 1.291692412860691e+001
 1.203722217984031e+000	 6.748705419687716e-001	 1.401856392234317e+001
 1.196330792380682e+000	 6.878880730839148e-001	 1.393896786495067e+001
 1.188787646216445e+000	 7.008432272996003e-001	 1.385183839788750e+001
 1.181093497958850e+000	 7.137334042788914e-001	 1.375768247606329e+001
 1.173249124583171e+000	 7.265560127770632e-001	 1.365690052383576e+001
 1.165255361500140e+000	 7.393084722648167e-001	 1.354978423138136e+001
 1.157113102430205e+000	 7.519882145547062e-001	 1.343651503039117e+001
 1.148823299223990e+000	 7.645926854287342e-001	 1.331716327719951e+001
 1.140386961628738e+000	 7.771193462650626e-001	 1.319168816632675e+001
 1.131805157000568e+000	 7.895656756617677e-001	 1.305993839196198e+001
 1.123079009962507e+000	 8.019291710555436e-001	 1.292165356917329e+001
 1.209537596132148e+000	 6.781309515066470e-001	 1.399959239005340e+001
 1.202110461347441e+000	 6.912113724353453e-001	 1.392149436419223e+001
 1.194530873015101e+000	 7.042291151117091e-001	 1.383616280322063e+001
 1.186799553073684e+000	 7.171815666361385e-001	 1.374406819418833e+001
 1.178917282252147e+000	 7.300661232451708e-001	 1.364557090005848e+001
 1.170884899997221e+000	 7.428801919425390e-001	 1.354091892079466e+001
 1.162703304347055e+000	 7.556211921334526e-001	 1.343024635750989e+001
 1.154373451750810e+000	 7.682865572600593e-001	 1.331357260882074e+001
 1.145896356833974e+000	 7.808737364360138e-001	 1.319080232325759e+001
 1.137273092109230e+000	 7.933801960780769e-001	 1.306172612595266e+001
 1.128504787632834e+000	 8.058034215326391e-001	 1.292602213189947e+001
 1.215352974279634e+000	 6.813913610450872e-001	 1.397994404136328e+001
 1.207890130313525e+000	 6.945346717873699e-001	 1.390351240172003e+001
 1.200274099813047e+000	 7.076150029244384e-001	 1.382011222580968e+001
 1.192505608187781e+000	 7.206297289940284e-001	 1.373017948979152e+001
 1.184585439920374e+000	 7.335762337139400e-001	 1.363403658853340e+001
 1.176514438493552e+000	 7.464519116209352e-001	 1.353189005628388e+001
 1.168293506263165e+000	 7.592541697128802e-001	 1.342382901436880e+001
 1.159923604276914e+000	 7.719804290920662e-001	 1.330982437612950e+001
 1.151405752038531e+000	 7.846281266076394e-001	 1.318972883385628e+001
 1.142741027217261e+000	 7.971947164950446e-001	 1.306327764666177e+001
 1.133930565302592e+000	 8.096776720103682e-001	 1.293009024211833e+001
 1.221168352426389e+000	 6.846517705842250e-001	 1.395968729553720e+001
 1.213669799278833e+000	 6.978579711401302e-001	 1.388508289147493e+001
 1.206017326610182e+000	 7.110008907379337e-001	 1.380374166800486e+001
 1.198211663301045e+000	 7.240778913527084e-001	 1.371606705906189e+001
 1.190253597587755e+000	 7.370863441835159e-001	 1.362234559294611e+001
 1.182143976989039e+000	 7.500236313001479e-001	 1.352274456731102e+001
 1.173883708178447e+000	 7.628871472931258e-001	 1.341731047538491e+001
 1.165473756802219e+000	 7.756743009248834e-001	 1.330596821474833e+001
 1.156915147242332e+000	 7.883825167800594e-001	 1.318852110435969e+001
 1.148208962324598e+000	 8.010092369127815e-001	 1.306465172952309e+001
 1.139356342971731e+000	 8.135519224888317e-001	 1.293392362818308e+001
 1.085098566258542e+000	 7.748094177252014e-001	 1.287829604008510e+001
 1.076529201503747e+000	 7.866723715475821e-001	 1.271911609263644e+001
 1.067822711491155e+000	 7.984505160308466e-001	 1.256457188509863e+001
 1.058980344492536e+000	 8.101414955202057e-001	 1.241324960059045e+001
 1.050003402295374e+000	 8.217429786830747e-001	 1.226364258212156e+001
 1.040893239615138e+000	 8.332526600199040e-001	 1.211415709440485e+001
 1.031651263456647e+000	 8.446682613580696e-001	 1.196311865671100e+001
 1.022278932425099e+000	 8.559875333268288e-001	 1.180877891663248e+001
 1.012777755987415e+000	 8.672082568113665e-001	 1.164932302967736e+001
 1.003149293684649e+000	 8.783282443839943e-001	 1.148287750485310e+001
 9.933951542962829e-001	 8.893453417105752e-001	 1.130751847186441e+001
 1.090524343931437e+000	 7.786836682006677e-001	 1.288614137689496e+001
 1.081912130102921e+000	 7.906059399064089e-001	 1.273013509794916e+001
 1.073162105354262e+000	 8.024429782041105e-001	 1.257861747850868e+001
 1.064275524198938e+000	 8.141924156600732e-001	 1.243017066373492e+001
 1.055253694933738e+000	 8.258519092844207e-001	 1.228328351209365e+001
 1.046097979048090e+000	 8.374191420494838e-001	 1.213635746292526e+001
 1.036809790582231e+000	 8.488918243911607e-001	 1.198771299200675e+001
 1.027390595434792e+000	 8.602676956912462e-001	 1.183559662430548e+001
 1.017841910620453e+000	 8.715445257387533e-001	 1.167818846801486e+001
 1.008165303478405e+000	 8.827201161682627e-001	 1.151361022904299e+001
 9.983623908324757e-001	 8.937923018733837e-001	 1.133993366042942e+001
 1.095950121604115e+000	 7.825579186760658e-001	 1.289338414223743e+001
 1.087295058701843e+000	 7.945395082652035e-001	 1.274042346947542e+001
 1.078501499217072e+000	 8.064354403773669e-001	 1.259181184378693e+001
 1.069570703904998e+000	 8.182433357999499e-001	 1.244612829577861e+001
 1.060503987571714e+000	 8.299608398857832e-001	 1.230185802786502e+001
 1.051302718480609e+000	 8.415856240790786e-001	 1.215739838795245e+001
 1.041968317707342e+000	 8.531153874242557e-001	 1.201106544874336e+001
 1.032502258443979e+000	 8.645478580556495e-001	 1.186110116118699e+001
 1.022906065252958e+000	 8.758807946660987e-001	 1.170568104532257e+001
 1.013181313271613e+000	 8.871119879524556e-001	 1.154292237667642e+001
 1.003329627368119e+000	 8.982392620360757e-001	 1.137089282152263e+001
 1.101375899276528e+000	 7.864321691514963e-001	 1.290004937431678e+001
 1.092677987300476e+000	 7.984730766240552e-001	 1.275001523887700e+001
 1.083840893079570e+000	 8.104279025506974e-001	 1.260419737793581e+001
 1.074865883610720e+000	 8.222942559399072e-001	 1.246117263024331e+001
 1.065754280209328e+000	 8.340697704872252e-001	 1.231942336836266e+001
 1.056507457912742e+000	 8.457521061087439e-001	 1.217734357884766e+001
 1.047126844832045e+000	 8.573389504574061e-001	 1.203324556636455e+001
 1.037613921452742e+000	 8.688280204200858e-001	 1.188536724960050e+001
 1.027970219885028e+000	 8.802170635934490e-001	 1.173188001134769e+001
 1.018197323064383e+000	 8.915038597366195e-001	 1.157089705989874e+001
 1.008296863903329e+000	 9.026862221987012e-001	 1.140048225386857e+001
 1.106801676948623e+000	 7.903064196270588e-001	 1.290616843894213e+001
 1.098060915898787e+000	 8.024066449830550e-001	 1.275895053916663e+001
 1.089180286941740e+000	 8.144203647241820e-001	 1.261582236965232e+001
 1.080161063316109e+000	 8.263451760800170e-001	 1.247535949957817e+001
 1.071004572846603e+000	 8.381787010888107e-001	 1.233604229579496e+001
 1.061712197344534e+000	 8.499185881385367e-001	 1.219626210990269e+001
 1.052285371956406e+000	 8.615625134906624e-001	 1.205432810830455e+001
 1.042725584461163e+000	 8.731081827846019e-001	 1.190847471238811e+001
 1.033034374516761e+000	 8.845533325208502e-001	 1.175686961035399e+001
 1.023213332856823e+000	 8.958957315208017e-001	 1.159762229678091e+001
 1.013264100438222e+000	 9.071331823613102e-001	 1.142879309082787e+001
 1.112227454620352e+000	 7.941806701028538e-001	 1.291177885627304e+001
 1.103443844496742e+000	 8.063402133422929e-001	 1.276727543506759e+001
 1.094519680803567e+000	 8.184128268979014e-001	 1.262674083323308e+001
 1.085456243021168e+000	 8.303960962203504e-001	 1.248875027253607e+001
 1.076254865483564e+000	 8.422876316906022e-001	 1.235178293642297e+001
 1.066916936776029e+000	 8.540850701685137e-001	 1.221422826442697e+001
 1.057443899080488e+000	 8.657860765240758e-001	 1.207439290930770e+001
 1.047837247469324e+000	 8.773883451492456e-001	 1.193050832337649e+001
 1.038098529148254e+000	 8.888896014483473e-001	 1.178073893464194e+001
 1.028229342649043e+000	 9.002876033050488e-001	 1.162319086780122e+001
 1.018231336972914e+000	 9.115801425239533e-001	 1.145592115973948e+001
 1.117653232291664e+000	 7.980549205789822e-001	 1.291692412860691e+001
 1.108826773094307e+000	 8.102737817018594e-001	 1.277504175429022e+001
 1.099859074665035e+000	 8.224052890719364e-001	 1.263701234327459e+001
 1.090751422725903e+000	 8.344470163609796e-001	 1.250141169223223e+001
 1.081505158120238e+000	 8.463965622926637e-001	 1.236671862190909e+001
 1.072121676207273e+000	 8.582515521987304e-001	 1.223132137931392e+001
 1.062602426204357e+000	 8.700096395576972e-001	 1.209352472313799e+001
 1.052948910477308e+000	 8.816685075140641e-001	 1.195155765815005e+001
 1.043162683779604e+000	 8.932258703759864e-001	 1.180358177830222e+001
 1.033245352441153e+000	 9.046794750894069e-001	 1.164770017249043e+001
 1.023198573507524e+000	 9.160271026866799e-001	 1.148196684136568e+001
 1.123079009962507e+000	 8.019291710555436e-001	 1.292165356917330e+001
 1.114209701691448e+000	 8.142073500618448e-001	 1.278230691969075e+001
 1.105198468526130e+000	 8.263977512463679e-001	 1.264670187014137e+001
 1.096046602430319e+000	 8.384979365019762e-001	 1.251341571486326e+001
 1.086755450756648e+000	 8.505054928950590e-001	 1.238092773122414e+001
 1.077326415638312e+000	 8.624180342292440e-001	 1.224762569007097e+001
 1.067760953328076e+000	 8.742332025915777e-001	 1.211181307066308e+001
 1.058060573485198e+000	 8.859486698791049e-001	 1.197171694511709e+001
 1.048226838410909e+000	 8.975621393038130e-001	 1.182549649118962e+001
 1.038261362233259e+000	 9.090713468739226e-001	 1.167125208623306e+001
 1.028165810042165e+000	 9.204740628495401e-001	 1.150703492943790e+001
 1.128504787632834e+000	 8.058034215326391e-001	 1.292602213189947e+001
 1.119592630288131e+000	 8.181409184223392e-001	 1.278913378228530e+001
 1.110537862386833e+000	 8.303902134212757e-001	 1.265587961617724e+001
 1.101341782134418e+000	 8.425488566434111e-001	 1.252483934906183e+001
 1.092005743392820e+000	 8.546144234978502e-001	 1.239449353309174e+001
 1.082531155069191e+000	 8.665845162601109e-001	 1.226323017629622e+001
 1.072919480451713e+000	 8.784567656257682e-001	 1.212935208830170e+001
 1.063172236493076e+000	 8.902288322444147e-001	 1.199108491686416e+001
 1.053290993042266e+000	 9.018984082318732e-001	 1.184658583311365e+001
 1.043277372025473e+000	 9.134632186586423e-001	 1.169395281722240e+001
 1.033133046576956e+000	 9.249210230125845e-001	 1.153123449029712e+001
 1.133930565302592e+000	 8.096776720103682e-001	 1.293009024211833e+001
 1.124975558884321e+000	 8.220744867834334e-001	 1.279559045508913e+001
 1.115877256247132e+000	 8.343826755967413e-001	 1.266462085263338e+001
 1.106636961838206e+000	 8.465997767853563e-001	 1.253576449586910e+001
 1.097256036028779e+000	 8.587233541011022e-001	 1.240750402895534e+001
 1.087735894499954e+000	 8.707509982913869e-001	 1.227822840758827e+001
 1.078078007575330e+000	 8.826803286603194e-001	 1.214624037682240e+001
 1.068283899501023e+000	 8.945089946100412e-001	 1.200976466178409e+001
 1.058355147673773e+000	 9.062346771602122e-001	 1.186695682823595e+001
 1.048293381817903e+000	 9.178550904436129e-001	 1.171591276356119e+001
 1.038100283112013e+000	 9.293679831758626e-001	 1.155467872262839e+001
 1.139356342971731e+000	 8.135519224888317e-001	 1.293392362818308e+001
 1.130358487479987e+000	 8.260080551452174e-001	 1.280175014775434e+001
 1.121216650107010e+000	 8.383751377728456e-001	 1.267300575729065e+001
 1.111932141541688e+000	 8.506506969278836e-001	 1.254627778930112e+001
 1.102506328664550e+000	 8.628322847048778e-001	 1.242005179644738e+001
 1.092940633930648e+000	 8.749174803231294e-001	 1.229271838987344e+001
 1.083236534698992e+000	 8.869038916952824e-001	 1.216258085048075e+001
 1.073395562509123e+000	 8.987891569760318e-001	 1.202786347597252e+001
 1.063419302305526e+000	 9.105709460888763e-001	 1.188672061966972e+001
 1.053309391610658e+000	 9.222469622288806e-001	 1.173724637050461e+001
 1.043067519647452e+000	 9.338149433394247e-001	 1.157748481728426e+001
 9.933951542962829e-001	 8.893453417105752e-001	 1.130751847186441e+001
 9.835184859689858e-001	 9.002558003182557e-001	 1.112851399823957e+001
 9.735195395573906e-001	 9.110591980650797e-001	 1.095159974922356e+001
 9.634000661355969e-001	 9.217534898403010e-001	 1.077560361086428e+001
 9.531618621657936e-001	 9.323366689633666e-001	 1.059936200384957e+001
 9.428067684371487e-001	 9.428067684371487e-001	 1.042172764232006e+001
 9.323366689633666e-001	 9.531618621657936e-001	 1.024157732367691e+001
 9.217534898403014e-001	 9.634000661355970e-001	 1.005781968719090e+001
 9.110591980650801e-001	 9.735195395573908e-001	 9.869402878034316e+000
 9.002558003182558e-001	 9.835184859689861e-001	 9.675322052686113e+000
 8.893453417105754e-001	 9.933951542962831e-001	 9.474626661526139e+000
 9.983623908324757e-001	 8.937923018733837e-001	 1.133993366042942e+001
 9.884363365709108e-001	 9.047573156379061e-001	 1.116258060158994e+001
 9.783873928026629e-001	 9.156147332090736e-001	 1.098742621801967e+001
 9.682173193576339e-001	 9.263624992500780e-001	 1.081327244105299e+001
 9.579279216807665e-001	 9.369985970464639e-001	 1.063893008363730e+001
 9.475210497656301e-001	 9.475210497656299e-001	 1.046322685685785e+001
 9.369985970464638e-001	 9.579279216807664e-001	 1.028501542265672e+001
 9.263624992500781e-001	 9.682173193576340e-001	 1.010318141853397e+001
 9.156147332090737e-001	 9.783873928026630e-001	 9.916651388764491e+000
 9.047573156379061e-001	 9.884363365709107e-001	 9.724400555946493e+000
 8.937923018733837e-001	 9.983623908324757e-001	 9.525460366526033e+000
 1.003329627368119e+000	 8.982392620360757e-001	 1.137089282152263e+001
 9.933541871722980e-001	 9.092588309573922e-001	 1.119516344784338e+001
 9.832552460474230e-001	 9.201702683528507e-001	 1.102174395971002e+001
 9.730345725791934e-001	 9.309715086595817e-001	 1.084940994758248e+001
 9.626939811953059e-001	 9.416605251292318e-001	 1.067694623339678e+001
 9.522353310937285e-001	 9.522353310937285e-001	 1.050315515209586e+001
 9.416605251292319e-001	 9.626939811953059e-001	 1.032686487482561e+001
 9.309715086595817e-001	 9.730345725791934e-001	 1.014693770751272e+001
 9.201702683528505e-001	 9.832552460474229e-001	 9.962278297217859e+000
 9.092588309573920e-001	 9.933541871722980e-001	 9.771841677883982e+000
 8.982392620360759e-001	 1.003329627368119e+000	 9.574641086895772e+000
 1.008296863903329e+000	 9.026862221987012e-001	 1.140048225386857e+001
 9.982720377732672e-001	 9.137603462767701e-001	 1.122635168146715e+001
 9.881230992917871e-001	 9.247258034964742e-001	 1.105464496373059e+001
 9.778518258003882e-001	 9.355805180688869e-001	 1.088411095764754e+001
 9.674600407095173e-001	 9.463224532117566e-001	 1.071350810304572e+001
 9.569496124215389e-001	 9.569496124215388e-001	 1.054161297656745e+001
 9.463224532117563e-001	 9.674600407095172e-001	 1.036722889306661e+001
 9.355805180688868e-001	 9.778518258003882e-001	 1.018919448601689e+001
 9.247258034964744e-001	 9.881230992917869e-001	 1.000639219712580e+001
 9.137603462767698e-001	 9.982720377732671e-001	 9.817756604523343e+000
 9.026862221987012e-001	 1.008296863903329e+000	 9.622282518647429e+000
 1.013264100438222e+000	 9.071331823613102e-001	 1.142879309082787e+001
 1.003189888373937e+000	 9.182618615960960e-001	 1.125623922060862e+001
 9.929909525358738e-001	 9.292813386400107e-001	 1.108622593543194e+001
 9.826690790213313e-001	 9.401895274780689e-001	 1.091747495937288e+001
 9.722261002235053e-001	 9.509843812941224e-001	 1.074871795077835e+001
 9.616638937491582e-001	 9.616638937491581e-001	 1.057870533627935e+001
 9.509843812941226e-001	 9.722261002235054e-001	 1.040621519827327e+001
 9.401895274780689e-001	 9.826690790213314e-001	 1.023006214528483e+001
 9.292813386400108e-001	 9.929909525358741e-001	 1.004910609314505e+001
 9.182618615960960e-001	 1.003189888373937e+000	 9.862260884043478e+000
 9.071331823613102e-001	 1.013264100438222e+000	 9.668502670224768e+000
 1.018231336972914e+000	 9.115801425239533e-001	 1.145592115973948e+001
 1.008107738974426e+000	 9.227633769154262e-001	 1.128492461935820e+001
 9.978588057798009e-001	 9.338368737835240e-001	 1.111658816149042e+001
 9.874863322421351e-001	 9.447985368872026e-001	 1.094960597059370e+001
 9.769921597373756e-001	 9.556463093764158e-001	 1.078268251543743e+001
 9.663781750766814e-001	 9.663781750766810e-001	 1.061454167089458e+001
 9.556463093764158e-001	 9.769921597373759e-001	 1.044393589955831e+001
 9.447985368872026e-001	 9.874863322421351e-001	 1.026965542034954e+001
 9.338368737835242e-001	 9.978588057798010e-001	 1.009053728974670e+001
 9.227633769154262e-001	 1.008107738974426e+000	 9.905474320314276e+000
 9.115801425239533e-001	 1.018231336972915e+000	 9.713423760886672e+000
 1.023198573507524e+000	 9.160271026866799e-001	 1.148196684136568e+001
 1.013025589574854e+000	 9.272648922348176e-001	 1.131251093006025e+001
 1.002726659023686e+000	 9.383924089270798e-001	 1.114583737530702e+001
 9.923035854629124e-001	 9.494075462963626e-001	 1.098061240756511e+001
 9.817582192512335e-001	 9.603082374587222e-001	 1.081551288875232e+001
 9.710924564042047e-001	 9.710924564042044e-001	 1.064923572971582e+001
 9.603082374587223e-001	 9.817582192512335e-001	 1.048050737419434e+001
 9.494075462963627e-001	 9.923035854629125e-001	 1.030809327414719e+001
 9.383924089270798e-001	 1.002726659023686e+000	 1.013080727969992e+001
 9.272648922348177e-001	 1.013025589574854e+000	 9.947520865954248e+000
 9.160271026866796e-001	 1.023198573507524e+000	 9.757172118534928e+000
 1.028165810042165e+000	 9.204740628495401e-001	 1.150703492943790e+001
 1.017943440175341e+000	 9.317664075543262e-001	 1.133910556566761e+001
 1.007594512267646e+000	 9.429479440707428e-001	 1.117408362239242e+001
 9.971208386837761e-001	 9.540165557056242e-001	 1.101060695359790e+001
 9.865242787651832e-001	 9.649701655411264e-001	 1.084732438744397e+001
 9.758067377318234e-001	 9.758067377318230e-001	 1.068290544747252e+001
 9.649701655411265e-001	 9.865242787651832e-001	 1.051605014729751e+001
 9.540165557056242e-001	 9.971208386837762e-001	 1.034549878130257e+001
 9.429479440707428e-001	 1.007594512267646e+000	 1.017004163216107e+001
 9.317664075543263e-001	 1.017943440175341e+000	 9.988528514923569e+000
 9.204740628495404e-001	 1.028165810042166e+000	 9.799878077004562e+000
 1.033133046576956e+000	 9.249210230125845e-001	 1.153123449029713e+001
 1.022861290776004e+000	 9.362679228740091e-001	 1.136482016213962e+001
 1.012462365511799e+000	 9.475034792145779e-001	 1.120144112574306e+001
 1.001938091904838e+000	 9.586255651150618e-001	 1.103970642762876e+001
 9.912903382793308e-001	 9.696320936237141e-001	 1.087823642520440e+001
 9.805210190596337e-001	 9.805210190596339e-001	 1.071567281992389e+001
 9.696320936237144e-001	 9.912903382793309e-001	 1.055068877125943e+001
 9.586255651150618e-001	 1.001938091904838e+000	 1.038199901159845e+001
 9.475034792145778e-001	 1.012462365511799e+000	 1.020836988038222e+001
 9.362679228740091e-001	 1.022861290776005e+000	 1.002862919466812e+001
 9.249210230125846e-001	 1.033133046576956e+000	 9.841675872834754e+000
 1.038100283112013e+000	 9.293679831758626e-001	 1.155467872262839e+001
 1.027779141376965e+000	 9.407694381939217e-001	 1.138977044088202e+001
 1.017330218756263e+000	 9.520590143586497e-001	 1.122802815120337e+001
 1.006755345126213e+000	 9.632345745247507e-001	 1.106803165272278e+001
 9.960563977937810e-001	 9.742940217065712e-001	 1.090837238455259e+001
 9.852353003877321e-001	 9.852353003877318e-001	 1.074766377927845e+001
 9.742940217065713e-001	 9.960563977937811e-001	 1.058455170494063e+001
 9.632345745247505e-001	 1.006755345126213e+000	 1.041772491314371e+001
 9.520590143586497e-001	 1.017330218756263e+000	 1.024592540905359e+001
 9.407694381939216e-001	 1.027779141376965e+000	 1.006795865782999e+001
 9.293679831758627e-001	 1.038100283112013e+000	 9.882703541536952e+000
 1.043067519647452e+000	 9.338149433394247e-001	 1.157748481728426e+001
 1.032696991978341e+000	 9.452709535141213e-001	 1.141407607122651e+001
 1.022198072001155e+000	 9.566145495030239e-001	 1.125396687281833e+001
 1.011572598348012e+000	 9.678435839347662e-001	 1.109570732451249e+001
 1.000822457308639e+000	 9.789559497897831e-001	 1.093785948857268e+001
 9.899495817162132e-001	 9.899495817162133e-001	 1.077900806944039e+001
 9.789559497897830e-001	 1.000822457308639e+000	 1.061777119262838e+001
 9.678435839347661e-001	 1.011572598348011e+000	 1.045281119524630e+001
 9.566145495030243e-001	 1.022198072001155e+000	 1.028284534128856e+001
 9.452709535141209e-001	 1.032696991978341e+000	 1.010665637353793e+001
 9.338149433394248e-001	 1.043067519647452e+000	 9.923102813379558e+000
 8.893453417105754e-001	 9.933951542962831e-001	 9.474626661526139e+000
 8.783282443839946e-001	 1.003149293684649e+000	 9.273721036631983e+000
 8.672082568113666e-001	 1.012777755987415e+000	 9.078532102674775e+000
 8.559875333268284e-001	 1.022278932425099e+000	 8.887396735036248e+000
 8.446682613580697e-001	 1.031651263456647e+000	 8.698724757525891e+000
 8.332526600199038e-001	 1.040893239615138e+000	 8.511005465459672e+000
 8.217429786830746e-001	 1.050003402295374e+000	 8.322813568174443e+000
 8.101414955202058e-001	 1.058980344492536e+000	 8.132814498240219e+000
 7.984505160308463e-001	 1.067822711491155e+000	 7.939769038660471e+000
 7.866723715475820e-001	 1.076529201503747e+000	 7.742537223822573e+000
 7.748094177252015e-001	 1.085098566258542e+000	 7.540081474827673e+000
 8.937923018733837e-001	 9.983623908324757e-001	 9.525460366526033e+000
 8.827201161682626e-001	 1.008165303478404e+000	 9.326198852629322e+000
 8.715445257387531e-001	 1.017841910620452e+000	 9.132500121996179e+000
 8.602676956912464e-001	 1.027390595434792e+000	 8.942677218169321e+000
 8.488918243911606e-001	 1.036809790582231e+000	 8.755118439399197e+000
 8.374191420494836e-001	 1.046097979048090e+000	 8.568294109725208e+000
 8.258519092844205e-001	 1.055253694933738e+000	 8.380762754421127e+000
 8.141924156600734e-001	 1.064275524198938e+000	 8.191176625060820e+000
 8.024429782041104e-001	 1.073162105354262e+000	 7.998286523597037e+000
 7.906059399064089e-001	 1.081912130102921e+000	 7.800945879426179e+000
 7.786836682006676e-001	 1.090524343931436e+000	 7.598114038418054e+000
 8.982392620360759e-001	 1.003329627368119e+000	 9.574641086895772e+000
 8.871119879524554e-001	 1.013181313271613e+000	 9.377005026476331e+000
 8.758807946660990e-001	 1.022906065252958e+000	 9.184773243658594e+000
 8.645478580556493e-001	 1.032502258443979e+000	 8.996237359319341e+000
 8.531153874242556e-001	 1.041968317707342e+000	 8.809766624672315e+000
 8.415856240790786e-001	 1.051302718480609e+000	 8.623814943606398e+000
 8.299608398857833e-001	 1.060503987571715e+000	 8.436927284045662e+000
 8.182433357999499e-001	 1.069570703904998e+000	 8.247745421533397e+000
 8.064354403773668e-001	 1.078501499217072e+000	 8.055012962483316e+000
 7.945395082652034e-001	 1.087295058701842e+000	 7.857579599239342e+000
 7.825579186760656e-001	 1.095950121604114e+000	 7.654404554233383e+000
 9.026862221987012e-001	 1.008296863903329e+000	 9.622282518647429e+000
 8.915038597366195e-001	 1.018197323064383e+000	 9.426255677207097e+000
 8.802170635934493e-001	 1.027970219885028e+000	 9.235469893473153e+000
 8.688280204200855e-001	 1.037613921452742e+000	 9.048197726311168e+000
 8.573389504574059e-001	 1.047126844832045e+000	 8.862791810392476e+000
 8.457521061087441e-001	 1.056507457912742e+000	 8.677692133277784e+000
 8.340697704872252e-001	 1.065754280209328e+000	 8.491432685907617e+000
 8.222942559399072e-001	 1.074865883610720e+000	 8.302647427594412e+000
 8.104279025506973e-001	 1.083840893079570e+000	 8.110075510963005e+000
 7.984730766240554e-001	 1.092677987300476e+000	 7.912565717106428e+000
 7.864321691514962e-001	 1.101375899276527e+000	 7.709080056500992e+000
 9.071331823613102e-001	 1.013264100438222e+000	 9.668502670224767e+000
 8.958957315208017e-001	 1.023213332856823e+000	 9.474071184832217e+000
 8.845533325208500e-001	 1.033034374516761e+000	 9.284712704730373e+000
 8.731081827846016e-001	 1.042725584461163e+000	 9.098683038971409e+000
 8.615625134906623e-001	 1.052285371956406e+000	 8.914320588206934e+000
 8.499185881385368e-001	 1.061712197344533e+000	 8.730053880242512e+000
 8.381787010888104e-001	 1.071004572846602e+000	 8.544408463103514e+000
 8.263451760800170e-001	 1.080161063316109e+000	 8.356013094559467e+000
 8.144203647241820e-001	 1.089180286941740e+000	 8.163605171496295e+000
 8.024066449830547e-001	 1.098060915898786e+000	 7.966035347482393e+000
 7.903064196270588e-001	 1.106801676948623e+000	 7.762271292288792e+000
 9.115801425239533e-001	 1.018231336972915e+000	 9.713423760886672e+000
 9.002876033050489e-001	 1.028229342649043e+000	 9.520576093767199e+000
 8.888896014483472e-001	 1.038098529148253e+000	 9.332628426854340e+000
 8.773883451492457e-001	 1.047837247469324e+000	 9.147822083169872e+000
 8.657860765240759e-001	 1.057443899080488e+000	 8.964483563930836e+000
 8.540850701685137e-001	 1.066916936776029e+000	 8.781032346536390e+000
 8.422876316906023e-001	 1.076254865483564e+000	 8.595988023899214e+000
 8.303960962203505e-001	 1.085456243021168e+000	 8.407976721851192e+000
 8.184128268979012e-001	 1.094519680803568e+000	 8.215736735921412e+000
 8.063402133422929e-001	 1.103443844496742e+000	 8.018123333850424e+000
 7.941806701028539e-001	 1.112227454620352e+000	 7.814112675773230e+000
 9.160271026866796e-001	 1.023198573507524e+000	 9.757172118534928e+000
 9.046794750894069e-001	 1.033245352441152e+000	 9.565899015624218e+000
 8.932258703759863e-001	 1.043162683779604e+000	 9.379347833342639e+000
 8.816685075140642e-001	 1.052948910477309e+000	 9.195747624065435e+000
 8.700096395576972e-001	 1.062602426204357e+000	 9.013415276231630e+000
 8.582515521987303e-001	 1.072121676207273e+000	 8.830763578968799e+000
 8.463965622926639e-001	 1.081505158120238e+000	 8.646308611613383e+000
 8.344470163609796e-001	 1.090751422725903e+000	 8.458676392591739e+000
 8.224052890719366e-001	 1.099859074665036e+000	 8.266608726801684e+000
 8.102737817018594e-001	 1.108826773094307e+000	 8.068968195839965e+000
 7.980549205789823e-001	 1.117653232291664e+000	 7.864742241123722e+000
 9.204740628495404e-001	 1.028165810042166e+000	 9.799878077004564e+000
 9.090713468739228e-001	 1.038261362233259e+000	 9.610172531392720e+000
 8.975621393038131e-001	 1.048226838410909e+000	 9.425005629015379e+000
 8.859486698791049e-001	 1.058060573485198e+000	 9.242596318581082e+000
 8.742332025915781e-001	 1.067760953328077e+000	 9.061254114466264e+000
 8.624180342292440e-001	 1.077326415638311e+000	 8.879387432429656e+000
 8.505054928950588e-001	 1.086755450756648e+000	 8.695511233488068e+000
 8.384979365019760e-001	 1.096046602430318e+000	 8.508253908100905e+000
 8.263977512463675e-001	 1.105198468526129e+000	 8.316363337593593e+000
 8.142073500618446e-001	 1.114209701691448e+000	 8.118712075087275e+000
 8.019291710555438e-001	 1.123079009962507e+000	 7.914301594053245e+000
 9.249210230125846e-001	 1.033133046576956e+000	 9.841675872834756e+000
 9.134632186586426e-001	 1.043277372025473e+000	 9.653533093027720e+000
 9.018984082318733e-001	 1.053290993042266e+000	 9.469740356597240e+000
 8.902288322444149e-001	 1.063172236493076e+000	 9.288508627134325e+000
 8.784567656257680e-001	 1.072919480451713e+000	 9.108142235694551e+000
 8.665845162601106e-001	 1.082531155069190e+000	 8.927047492298655e+000
 8.546144234978504e-001	 1.092005743392820e+000	 8.743740588578602e+000
 8.425488566434111e-001	 1.101341782134418e+000	 8.556854721335784e+000
 8.303902134212757e-001	 1.110537862386834e+000	 8.365146371680538e+000
 8.181409184223392e-001	 1.119592630288131e+000	 8.167500679882252e+000
 8.058034215326392e-001	 1.128504787632834e+000	 7.962935862077635e+000
 9.293679831758627e-001	 1.038100283112013e+000	 9.882703541536952e+000
 9.178550904436130e-001	 1.048293381817903e+000	 9.696120924464916e+000
 9.062346771602124e-001	 1.058355147673773e+000	 9.513694302654633e+000
 8.945089946100413e-001	 1.068283899501023e+000	 9.333628724650792e+000
 8.826803286603192e-001	 1.078078007575330e+000	 9.154225480899271e+000
 8.707509982913870e-001	 1.087735894499954e+000	 8.973890995982531e+000
 8.587233541011023e-001	 1.097256036028779e+000	 8.791144994698046e+000
 8.465997767853564e-001	 1.106636961838207e+000	 8.604627869308418e+000
 8.343826755967414e-001	 1.115877256247132e+000	 8.413107180305842e+000
 8.220744867834335e-001	 1.124975558884322e+000	 8.215483228641631e+000
 8.096776720103682e-001	 1.133930565302592e+000	 8.010793643528563e+000
 9.338149433394248e-001	 1.043067519647452e+000	 9.923102813379552e+000
 9.222469622288808e-001	 1.053309391610658e+000	 9.738079922082822e+000
 9.105709460888766e-001	 1.063419302305526e+000	 9.557013402909508e+000
 8.987891569760318e-001	 1.073395562509123e+000	 9.378104410881567e+000
 8.869038916952824e-001	 1.083236534698992e+000	 9.199653290438523e+000
 8.749174803231293e-001	 1.092940633930648e+000	 9.020068753611216e+000
 8.628322847048777e-001	 1.102506328664550e+000	 8.837876314446506e+000
 8.506506969278835e-001	 1.111932141541688e+000	 8.651725904512398e+000
 8.383751377728452e-001	 1.121216650107010e+000	 8.460398599445426e+000
 8.260080551452174e-001	 1.130358487479987e+000	 8.262812392248410e+000
 8.135519224888317e-001	 1.139356342971731e+000	 8.058026955360226e+000
 7.748094177252015e-001	 1.085098566258542e+000	 7.540081474827673e+000
 7.628640327567904e-001	 1.093529611227624e+000	 7.332826434128007e+000
 7.508386150772266e-001	 1.101821195179304e+000	 7.122965465178820e+000
 7.387355826177516e-001	 1.109972231523171e+000	 6.912303226392154e+000
 7.265573715111381e-001	 1.117981688999059e+000	 6.702788057709523e+000
 7.143064345277267e-001	 1.125848592007459e+000	 6.496506021870745e+000
 7.019852395065859e-001	 1.133572020887520e+000	 6.295674043698257e+000
 6.895962677838112e-001	 1.141151112142714e+000	 6.102632160193906e+000
 6.771420126199729e-001	 1.148585058614304e+000	 5.919834900622149e+000
 6.646249776286930e-001	 1.155873109602832e+000	 5.749771261525288e+000
 6.520476752083220e-001	 1.163014570937961e+000	 5.592339184893022e+000
 7.786836682006676e-001	 1.090524343931436e+000	 7.598114038418054e+000
 7.666785531715749e-001	 1.098997546338916e+000	 7.390498703528706e+000
 7.545930052468111e-001	 1.107330590387213e+000	 7.180541977363601e+000
 7.424294544479030e-001	 1.115522384052680e+000	 6.969999358332585e+000
 7.301903490889224e-001	 1.123571890918583e+000	 6.760773682806923e+000
 7.178781542047006e-001	 1.131478130507162e+000	 6.554909263715108e+000
 7.054953499741441e-001	 1.139240178559023e+000	 6.354585097835178e+000
 6.930444301406760e-001	 1.146857167259933e+000	 6.162107154016415e+000
 6.805279004318179e-001	 1.154328285415150e+000	 5.979899761155793e+000
 6.679482769799123e-001	 1.161652778571525e+000	 5.810496121271420e+000
 6.553080847459574e-001	 1.168829949087691e+000	 5.654654738917972e+000
 7.825579186760656e-001	 1.095950121604114e+000	 7.654404554233383e+000
 7.704930735862464e-001	 1.104465481450025e+000	 7.446477229064255e+000
 7.583473954162309e-001	 1.112839985594964e+000	 7.236482561206992e+000
 7.461233262778366e-001	 1.121072536582053e+000	 7.026123098586776e+000
 7.338233266664367e-001	 1.129162092837993e+000	 6.817252404319388e+000
 7.214498738813561e-001	 1.137107669006771e+000	 6.611869305025858e+000
 7.090054604413444e-001	 1.144908336230456e+000	 6.412111177858193e+000
 6.964925924971539e-001	 1.152563222377107e+000	 6.220246287864642e+000
 6.839137882432630e-001	 1.160071512215981e+000	 6.038665194130847e+000
 6.712715763307390e-001	 1.167432447540242e+000	 5.869871249859236e+000
 6.585684942832285e-001	 1.174645327237490e+000	 5.715476960189037e+000
 7.864321691514962e-001	 1.101375899276527e+000	 7.709080056500992e+000
 7.743075940009153e-001	 1.109933416560885e+000	 7.500887666769554e+000
 7.621017855856068e-001	 1.118349380802482e+000	 7.290909886341869e+000
 7.498171981076808e-001	 1.126622689111209e+000	 7.080792592375656e+000
 7.374563042438157e-001	 1.134752294757199e+000	 6.872336378401408e+000
 7.250215935578346e-001	 1.142737207506194e+000	 6.667490924789603e+000
 7.125155709083311e-001	 1.150576493901721e+000	 6.468348377268480e+000
 6.999407548533921e-001	 1.158269277494137e+000	 6.277135744470071e+000
 6.872996760544550e-001	 1.165814739016700e+000	 6.096206332509338e+000
 6.745948756813137e-001	 1.173212116508882e+000	 5.928030241541763e+000
 6.618289038202687e-001	 1.180460705387259e+000	 5.774814205944926e+000
 7.903064196270588e-001	 1.106801676948623e+000	 7.762271292288792e+000
 7.781221144156915e-001	 1.115401351671433e+000	 7.553859327305135e+000
 7.658561757550582e-001	 1.123858776009693e+000	 7.343950238149493e+000
 7.535110699375642e-001	 1.132172841640063e+000	 7.134129579215709e+000
 7.410892818211962e-001	 1.140342496676113e+000	 6.926141349568487e+000
 7.285933132342778e-001	 1.148366746005336e+000	 6.721882498046985e+000
 7.160256813752505e-001	 1.156244651572722e+000	 6.523396405068291e+000
 7.033889172095378e-001	 1.163975332610925e+000	 6.332865351413705e+000
 6.906855638655390e-001	 1.171557965817204e+000	 6.152601991521769e+000
 6.779181750317775e-001	 1.178991785477346e+000	 5.985039855995254e+000
 6.650893133572102e-001	 1.186276083536898e+000	 5.832681169851504e+000
 7.941806701028539e-001	 1.112227454620352e+000	 7.814112675773230e+000
 7.819366348306852e-001	 1.120869286781606e+000	 7.605525135775667e+000
 7.696105659247045e-001	 1.129368171216522e+000	 7.395733482569778e+000
 7.572049417676151e-001	 1.137722994168534e+000	 7.186259362189710e+000
 7.447222593987140e-001	 1.145932698594644e+000	 6.978786623922911e+000
 7.321650329108282e-001	 1.153996284504104e+000	 6.775155972594965e+000
 7.195357918422488e-001	 1.161912809243362e+000	 6.577358565489575e+000
 7.068370795657383e-001	 1.169681387727372e+000	 6.387528563455557e+000
 6.940714516766607e-001	 1.177301192617397e+000	 6.207934653207854e+000
 6.812414743822718e-001	 1.184771454445535e+000	 6.040970565241806e+000
 6.683497228941862e-001	 1.192091461686306e+000	 5.889144619089218e+000
 7.980549205789823e-001	 1.117653232291664e+000	 7.864742241123722e+000
 7.857511552460074e-001	 1.126337221891338e+000	 7.656021590093437e+000
 7.733649560946661e-001	 1.134877566422896e+000	 7.446393029404846e+000
 7.608988135979622e-001	 1.143273146696537e+000	 7.237310775670099e+000
 7.483552369765054e-001	 1.151522900512705e+000	 7.030395040810950e+000
 7.357367525876271e-001	 1.159625823002403e+000	 6.827426844112878e+000
 7.230459023094710e-001	 1.167580966913544e+000	 6.630341736146858e+000
 7.102852419221404e-001	 1.175387442843380e+000	 6.441222443307012e+000
 6.974573394879657e-001	 1.183044419417177e+000	 6.262290449421839e+000
 6.845647737329372e-001	 1.190551123413346e+000	 6.095896538536513e+000
 6.716101324313291e-001	 1.197906839835384e+000	 5.944510330508095e+000
 8.019291710555438e-001	 1.123079009962507e+000	 7.914301594053245e+000
 7.895656756617676e-001	 1.131805157000568e+000	 7.705488717939200e+000
 7.771193462650629e-001	 1.140386961628738e+000	 7.496065794162358e+000
 7.645926854287342e-001	 1.148823299223991e+000	 7.287416151551119e+000
 7.519882145547064e-001	 1.157113102430205e+000	 7.081092942960035e+000
 7.393084722648167e-001	 1.165255361500140e+000	 6.878814129756986e+000
 7.265560127770631e-001	 1.173249124583170e+000	 6.682456344668182e+000
 7.137334042788917e-001	 1.181093497958850e+000	 6.494047640895547e+000
 7.008432272996001e-001	 1.188787646216445e+000	 6.315759143359076e+000
 6.878880730839149e-001	 1.196330792380682e+000	 6.149895625806822e+000
 6.748705419687716e-001	 1.203722217984031e+000	 5.998885045320165e+000
 8.058034215326392e-001	 1.128504787632834e+000	 7.962935862077635e+000
 7.933801960780769e-001	 1.137273092109230e+000	 7.754070032363412e+000
 7.808737364360139e-001	 1.145896356833975e+000	 7.544892158493457e+000
 7.682865572600591e-001	 1.154373451750810e+000	 7.336711284033020e+000
 7.556211921334525e-001	 1.162703304347055e+000	 7.131010145154494e+000
 7.428801919425387e-001	 1.170884899997221e+000	 6.929440340285211e+000
 7.300661232451707e-001	 1.178917282252146e+000	 6.733816343854695e+000
 7.171815666361384e-001	 1.186799553073683e+000	 6.546108371173760e+000
 7.042291151117088e-001	 1.194530873015102e+000	 6.368434109651046e+000
 6.912113724353454e-001	 1.202110461347441e+000	 6.203049339697916e+000
 6.781309515066470e-001	 1.209537596132148e+000	 6.052337476701659e+000
 8.096776720103682e-001	 1.133930565302592e+000	 8.010793643528563e+000
 7.971947164950446e-001	 1.142741027217261e+000	 7.801912486078706e+000
 7.846281266076395e-001	 1.151405752038531e+000	 7.593015929268916e+000
 7.719804290920660e-001	 1.159923604276914e+000	 7.385335393012444e+000
 7.592541697128803e-001	 1.168293506263165e+000	 7.180279901489823e+000
 7.464519116209351e-001	 1.176514438493552e+000	 6.979431450754899e+000
 7.335762337139400e-001	 1.184585439920374e+000	 6.784539185419920e+000
 7.206297289940287e-001	 1.192505608187781e+000	 6.597512390520430e+000
 7.076150029244382e-001	 1.200274099813047e+000	 6.420412313076502e+000
 6.945346717873701e-001	 1.207890130313525e+000	 6.255442836266070e+000
 6.813913610450871e-001	 1.215352974279634e+000	 6.104940037417761e+000
 8.135519224888317e-001	 1.139356342971731e+000	 8.058026955360226e+000
 8.010092369127815e-001	 1.148208962324598e+000	 7.849166424481037e+000
 7.883825167800594e-001	 1.156915147242333e+000	 7.640584296338717e+000
 7.756743009248837e-001	 1.165473756802219e+000	 7.433431086123949e+000
 7.628871472931256e-001	 1.173883708178447e+000	 7.229038871260915e+000
 7.500236313001479e-001	 1.182143976989039e+000	 7.028916869842559e+000
 7.370863441835159e-001	 1.190253597587755e+000	 6.834745792352166e+000
 7.240778913527087e-001	 1.198211663301045e+000	 6.648370971782042e+000
 7.110008907379337e-001	 1.206017326610182e+000	 6.471794285937850e+000
 6.978579711401304e-001	 1.213669799278833e+000	 6.307164894369877e+000
 6.846517705842252e-001	 1.221168352426390e+000	 6.156768820931136e+000
 6.520476752083220e-001	 1.163014570937961e+000	 5.592339184893026e+000
 6.394145244636896e-001	 1.170007767141820e+000	 5.432481925659740e+000
 6.267261680804235e-001	 1.176853200330036e+000	 5.256703714730856e+000
 6.139851349973728e-001	 1.183550347006173e+000	 5.069319128357780e+000
 6.011939567052548e-001	 1.190098739945637e+000	 4.874527316646699e+000
 5.883551657230446e-001	 1.196497968013681e+000	 4.676387883576794e+000
 5.754712940886185e-001	 1.202747675935370e+000	 4.478798917184908e+000
 5.625448718653630e-001	 1.208847564018352e+000	 4.285477258738008e+000
 5.495784256663967e-001	 1.214797387829354e+000	 4.099941080983490e+000
 5.365744771980170e-001	 1.220596957825402e+000	 3.925494826844340e+000
 5.235355418239186e-001	 1.226246138940778e+000	 3.765216541352208e+000
 6.553080847459574e-001	 1.168829949087691e+000	 5.654654738917972e+000
 6.426117649314612e-001	 1.175858113107952e+000	 5.495532975809446e+000
 6.298599634356479e-001	 1.182737775258663e+000	 5.319559314628084e+000
 6.170552218427237e-001	 1.189468409425784e+000	 5.131251662332974e+000
 6.042000843015226e-001	 1.196049546048495e+000	 4.935008563047322e+000
 5.912970959942788e-001	 1.202480771936284e+000	 4.735084122763375e+000
 5.783488016197220e-001	 1.208761730037767e+000	 4.535565159028483e+000
 5.653577438922183e-001	 1.214892119162068e+000	 4.340350667446052e+000
 5.523264620586147e-001	 1.220871693653703e+000	 4.153133677493142e+000
 5.392574904344010e-001	 1.226700263021949e+000	 3.977385550838176e+000
 5.261533569607503e-001	 1.232377691525745e+000	 3.816342756175466e+000
 6.585684942832285e-001	 1.174645327237490e+000	 5.715476960189037e+000
 6.458090053989228e-001	 1.181708459074210e+000	 5.557258446162099e+000
 6.329937587906362e-001	 1.188622350187476e+000	 5.381267699655982e+000
 6.201253086879276e-001	 1.195386471845647e+000	 5.192222215500270e+000
 6.072062118977436e-001	 1.202000352151671e+000	 4.994715839197422e+000
 5.942390262655704e-001	 1.208463575859270e+000	 4.793192728906436e+000
 5.812263091509863e-001	 1.214775784140606e+000	 4.591923619333285e+000
 5.681706159193327e-001	 1.220936674306278e+000	 4.394984482405743e+000
 5.550744984511793e-001	 1.226945999478585e+000	 4.206237659662578e+000
 5.419405036712033e-001	 1.232803568219056e+000	 4.029315521373524e+000
 5.287711720980506e-001	 1.238509244111277e+000	 3.867606687622331e+000
 6.618289038202687e-001	 1.180460705387259e+000	 5.774814205944931e+000
 6.490062458661946e-001	 1.187558805040492e+000	 5.617648223868418e+000
 6.361275541454936e-001	 1.194506925116376e+000	 5.441798934044847e+000
 6.231953955330729e-001	 1.201304534265663e+000	 5.252179863449789e+000
 6.102123394939858e-001	 1.207951158255066e+000	 5.053576248530159e+000
 5.971809565369678e-001	 1.214446379782539e+000	 4.850618026556751e+000
 5.841038166824406e-001	 1.220789838243787e+000	 4.647755207953543e+000
 5.709834879467165e-001	 1.226981229450880e+000	 4.449235727564984e+000
 5.578225348440833e-001	 1.233020305303900e+000	 4.259085852249429e+000
 5.446235169084013e-001	 1.238906873416620e+000	 4.081093201644152e+000
 5.313889872357853e-001	 1.244640796697276e+000	 3.918792418551278e+000
 6.650893133572102e-001	 1.186276083536898e+000	 5.832681169851504e+000
 6.522034863333970e-001	 1.193409151006699e+000	 5.676698036073726e+000
 6.392613495003260e-001	 1.200391500045263e+000	 5.501128471504357e+000
 6.262654823782471e-001	 1.207222596685732e+000	 5.311078666511896e+000
 6.132184670903177e-001	 1.213901964358580e+000	 5.111521520004087e+000
 6.001228868085198e-001	 1.220429183705992e+000	 4.907268651724645e+000
 5.869813242141138e-001	 1.226803892347210e+000	 4.702944876788091e+000
 5.737963599743791e-001	 1.233025784595776e+000	 4.502965243535358e+000
 5.605705712373186e-001	 1.239094611129547e+000	 4.311514714577290e+000
 5.473065301459732e-001	 1.245010178614542e+000	 4.132530549715349e+000
 5.340068023739212e-001	 1.250772349283641e+000	 3.969687428396902e+000
 6.683497228941862e-001	 1.192091461686306e+000	 5.889144619089218e+000
 6.554007268006509e-001	 1.199259496972730e+000	 5.734409659809206e+000
 6.423951448552381e-001	 1.206276074974036e+000	 5.559237354474869e+000
 6.293355692235376e-001	 1.213140659105751e+000	 5.368877857612493e+000
 6.162245946868087e-001	 1.219852770462114e+000	 5.168488183864570e+000
 6.030648170802748e-001	 1.226411987629527e+000	 4.963057714912276e+000
 5.898588317460345e-001	 1.232817946450777e+000	 4.757381769511905e+000
 5.766092320023306e-001	 1.239070339740865e+000	 4.556037823504133e+000
 5.633186076308788e-001	 1.245168916955427e+000	 4.363364462172976e+000
 5.499895433838962e-001	 1.251113483812722e+000	 4.183443125494689e+000
 5.366246175124240e-001	 1.256903901870271e+000	 4.020082685140214e+000
 6.716101324313291e-001	 1.197906839835384e+000	 5.944510330508095e+000
 6.585979672680772e-001	 1.205109842938485e+000	 5.790791130496750e+000
 6.455289402103352e-001	 1.212160649902596e+000	 5.616112412083840e+000
 6.324056560690328e-001	 1.219058721525625e+000	 5.425542028947046e+000
 6.192307222835267e-001	 1.225803576565566e+000	 5.224417746360797e+000
 6.060067473522817e-001	 1.232394791553047e+000	 5.017902963261133e+000
 5.927363392782314e-001	 1.238832000554385e+000	 4.810959370598349e+000
 5.794221040305811e-001	 1.245114894886047e+000	 4.608322348637797e+000
 5.660666440247560e-001	 1.251243222781440e+000	 4.414479188115433e+000
 5.526725566221482e-001	 1.257216789011060e+000	 4.233650197649487e+000
 5.392424326512596e-001	 1.263035454457068e+000	 4.069772737470635e+000
 6.748705419687716e-001	 1.203722217984031e+000	 5.998885045320161e+000
 6.617952077357960e-001	 1.210960188903866e+000	 5.845856949114637e+000
 6.486627355657232e-001	 1.218045224830843e+000	 5.671746456849735e+000
 6.354757429148196e-001	 1.224976783945250e+000	 5.481041317511326e+000
 6.222368498805404e-001	 1.231754382668837e+000	 5.279256863456100e+000
 6.089486776245892e-001	 1.238377595476449e+000	 5.071726941845816e+000
 5.956138468107337e-001	 1.244846054657936e+000	 4.863575653662282e+000
 5.822349760591402e-001	 1.251159450031222e+000	 4.659691922999565e+000
 5.688146804189426e-001	 1.257317528607485e+000	 4.464706984109543e+000
 5.553555698607069e-001	 1.263320094209456e+000	 4.282974850469970e+000
 5.418602477903944e-001	 1.269167007043930e+000	 4.118555807138785e+000
 6.781309515066470e-001	 1.209537596132148e+000	 6.052337476701655e+000
 6.649924482039283e-001	 1.216810534868771e+000	 5.899628288070167e+000
 6.517965309215071e-001	 1.223929799758676e+000	 5.726138480174642e+000
 6.385458297609863e-001	 1.230894846364528e+000	 5.535351589530541e+000
 6.252429774779184e-001	 1.237705188771828e+000	 5.332957513559130e+000
 6.118906078972459e-001	 1.244360399399635e+000	 5.124457154140186e+000
 5.984913543435699e-001	 1.250860108761329e+000	 4.915133229145940e+000
 5.850478480880177e-001	 1.257204005176291e+000	 4.710024007994337e+000
 5.715627168134314e-001	 1.263391834433463e+000	 4.513900061285786e+000
 5.580385830995502e-001	 1.269423399407810e+000	 4.331244090683247e+000
 5.444780629297945e-001	 1.275298559630759e+000	 4.166233881486068e+000
 6.813913610450871e-001	 1.215352974279634e+000	 6.104940037417761e+000
 6.681896886725949e-001	 1.222660880833101e+000	 5.952169147839082e+000
 6.549303262777922e-001	 1.229814374685995e+000	 5.779293846669404e+000
 6.416159166076205e-001	 1.236812908783358e+000	 5.588454623820610e+000
 6.282491050757294e-001	 1.243655994874437e+000	 5.385477169316103e+000
 6.148325381703006e-001	 1.250343203322504e+000	 5.176026221685627e+000
 6.013688618767693e-001	 1.256874162864464e+000	 4.965539491368665e+000
 5.878607201172236e-001	 1.263248560321152e+000	 4.759200556359096e+000
 5.743107532082147e-001	 1.269466140259273e+000	 4.561914870746501e+000
 5.607215963386559e-001	 1.275526704606021e+000	 4.378288954217308e+000
 5.470958780694262e-001	 1.281430112217454e+000	 4.212612806154250e+000
 6.846517705842252e-001	 1.221168352426390e+000	 6.156768820931136e+000
 6.713869291419162e-001	 1.228511226796755e+000	 6.003770760746315e+000
 6.580641216346844e-001	 1.235698949612701e+000	 5.831224487346008e+000
 6.446860034548100e-001	 1.242730971201640e+000	 5.640338294117379e+000
 6.312552326740415e-001	 1.249606800976566e+000	 5.436778968491703e+000
 6.177744684438016e-001	 1.256326007244957e+000	 5.226372042988706e+000
 6.042463694103604e-001	 1.262888216967242e+000	 5.014706764960466e+000
 5.906735921467679e-001	 1.269293115465707e+000	 4.807108145709648e+000
 5.770587896032855e-001	 1.275540446084816e+000	 4.608612223855256e+000
 5.634046095780015e-001	 1.281630009803991e+000	 4.423944612918452e+000
 5.497136932092552e-001	 1.287561664803915e+000	 4.257502377960495e+000
 5.235355418239186e-001	 1.226246138940778e+000	 3.765216541352213e+000
 5.104621640384944e-001	 1.231745663889408e+000	 3.613253956570499e+000
 4.973587974246062e-001	 1.237094647192462e+000	 3.462685472581143e+000
 4.842279316542609e-001	 1.242293115293416e+000	 3.314538445060729e+000
 4.710720445141691e-001	 1.247341147071947e+000	 3.169571542520354e+000
 4.578936005938943e-001	 1.252238873225494e+000	 3.028277409971673e+000
 4.446950500028725e-001	 1.256986475613899e+000	 2.890887520025272e+000
 4.314788271174074e-001	 1.261584186568501e+000	 2.757379122589830e+000
 4.182473493586813e-001	 1.266032288167079e+000	 2.627484191633286e+000
 4.050030160027568e-001	 1.270331111476093e+000	 2.500700255873458e+000
 3.917482070234653e-001	 1.274481035761665e+000	 2.376302989854894e+000
 5.261533569607503e-001	 1.232377691525745e+000	 3.816342756175466e+000
 5.130146088546691e-001	 1.237904715542784e+000	 3.664031115679369e+000
 4.998457219681046e-001	 1.243280445166595e+000	 3.513281701892198e+000
 4.866491984220787e-001	 1.248504906972856e+000	 3.365077267763807e+000
 4.734275283928873e-001	 1.253578180235638e+000	 3.220121275580206e+000
 4.601831887936905e-001	 1.258500396305879e+000	 3.078840762847214e+000
 4.469186419851158e-001	 1.263271737952744e+000	 2.941391469381743e+000
 4.336363345159897e-001	 1.267892438669269e+000	 2.807665133724804e+000
 4.203386958952361e-001	 1.272362781943674e+000	 2.677298853882928e+000
 4.070281373959293e-001	 1.276683100497812e+000	 2.549686395451283e+000
 3.937070508923962e-001	 1.280853775494218e+000	 2.423991319436078e+000
 5.287711720980506e-001	 1.238509244111277e+000	 3.867606687622331e+000
 5.155670536713385e-001	 1.244063767196715e+000	 3.714998562496538e+000
 5.023326465121009e-001	 1.249466243141255e+000	 3.564075608232670e+000
 4.890704651903785e-001	 1.254716698652781e+000	 3.415795287883962e+000
 4.757830122720564e-001	 1.259815213399763e+000	 3.270825112184815e+000
 4.624727769938942e-001	 1.264761919386638e+000	 3.129545672292317e+000
 4.491422339677152e-001	 1.269557000291902e+000	 2.992056009819506e+000
 4.357938419148707e-001	 1.274200690770285e+000	 2.858181229221647e+000
 4.224300424320306e-001	 1.278693275720454e+000	 2.727482244066708e+000
 4.090532587892840e-001	 1.283035089519661e+000	 2.599267536412166e+000
 3.956658947614563e-001	 1.287226515226850e+000	 2.472606797421820e+000
 5.313889872357853e-001	 1.244640796697276e+000	 3.918792418551278e+000
 5.181194984884607e-001	 1.250222818851101e+000	 3.765919267232742e+000
 5.048195710565490e-001	 1.255652041116343e+000	 3.614815335601566e+000
 4.914917319591128e-001	 1.260928490333094e+000	 3.466431827168023e+000
 4.781384961516293e-001	 1.266052246564224e+000	 3.321419263010039e+000
 4.647623651944605e-001	 1.271023442467676e+000	 3.180130646364050e+000
 4.513658259506281e-001	 1.275842262631276e+000	 3.042627042951563e+000
 4.379513493140115e-001	 1.280508942871457e+000	 2.908685479023010e+000
 4.245213889690288e-001	 1.285023769497329e+000	 2.777809045183425e+000
 4.110783801827867e-001	 1.289387078541550e+000	 2.649239081336511e+000
 3.976247386306124e-001	 1.293599254959479e+000	 2.521969306681894e+000
 5.340068023739212e-001	 1.250772349283641e+000	 3.969687428396902e+000
 5.206719433059939e-001	 1.256381870505843e+000	 3.816559476792726e+000
 5.073064956014023e-001	 1.261837839091760e+000	 3.665252105366930e+000
 4.939129987282335e-001	 1.267140282013694e+000	 3.516729012476225e+000
 4.804939800315585e-001	 1.272289279728921e+000	 3.371642405082213e+000
 4.670519533953437e-001	 1.277284965548894e+000	 3.230336260543942e+000
 4.535894179338115e-001	 1.282127524970770e+000	 3.092852084967100e+000
 4.401088567133724e-001	 1.286817194972689e+000	 2.958937067031197e+000
 4.266127355061940e-001	 1.291354263274209e+000	 2.828054511845874e+000
 4.131035015764032e-001	 1.295739067563394e+000	 2.699396426287913e+000
 3.995835824998310e-001	 1.299971994692022e+000	 2.571898115481716e+000
 5.366246175124240e-001	 1.256903901870271e+000	 4.020082685140214e+000
 5.232243881238962e-001	 1.262540922160840e+000	 3.866688792970967e+000
 5.097934201466150e-001	 1.268023637067405e+000	 3.715140283360299e+000
 4.963342654976928e-001	 1.273352073694482e+000	 3.566431834306615e+000
 4.828494639117959e-001	 1.278526312893757e+000	 3.421235734134049e+000
 4.693415415964982e-001	 1.283546488630194e+000	 3.279905206177682e+000
 4.558130099172236e-001	 1.288412787310289e+000	 3.142480313277001e+000
 4.422663641129142e-001	 1.293125447073886e+000	 3.008696337926663e+000
 4.287040820434900e-001	 1.297684757051000e+000	 2.877994519109238e+000
 4.151286229700996e-001	 1.302091056585104e+000	 2.749535013332697e+000
 4.015424263690787e-001	 1.306344734424396e+000	 2.622211935230258e+000
 5.392424326512596e-001	 1.263035454457068e+000	 4.069772737470635e+000
 5.257768329421260e-001	 1.268699973815992e+000	 3.916080251060526e+000
 5.122803446921409e-001	 1.274209435043177e+000	 3.764237447529305e+000
 4.987555322674426e-001	 1.279563865375357e+000	 3.615288205959680e+000
 4.852049477922950e-001	 1.284763346058632e+000	 3.469943017610066e+000
 4.716311297978787e-001	 1.289808011711478e+000	 3.328582339522147e+000
 4.580366019008214e-001	 1.294698049649734e+000	 3.191262613660622e+000
 4.444238715125974e-001	 1.299433699174956e+000	 3.057724844342901e+000
 4.307954285808808e-001	 1.304015250827613e+000	 2.927405611452377e+000
 4.171537443638417e-001	 1.308443045606594e+000	 2.799450382971350e+000
 4.035012702383219e-001	 1.312717474156519e+000	 2.672728977866515e+000
 5.418602477903944e-001	 1.269167007043930e+000	 4.118555807138785e+000
 5.283292777606419e-001	 1.274859025471199e+000	 3.964510398861218e+000
 5.147672692379336e-001	 1.280395233018978e+000	 3.812304456129190e+000
 5.011767990374353e-001	 1.285775657056222e+000	 3.663049023314071e+000
 4.875604316730076e-001	 1.291000379223447e+000	 3.517510648300568e+000
 4.739207179994396e-001	 1.296069534792649e+000	 3.376114731379590e+000
 4.602601938845620e-001	 1.300983311989011e+000	 3.238951627904494e+000
 4.465813789123833e-001	 1.305741951275802e+000	 3.105785394383112e+000
 4.328867751183296e-001	 1.310345744603956e+000	 2.976065051910369e+000
 4.191788657575951e-001	 1.314795034627775e+000	 2.848938226493418e+000
 4.054601141075276e-001	 1.319090213888307e+000	 2.723267012892703e+000
 5.444780629297945e-001	 1.275298559630759e+000	 4.166233881486068e+000
 5.308817225794015e-001	 1.281018077126362e+000	 4.011759376070037e+000
 5.172541937839469e-001	 1.286581030994707e+000	 3.859105516435527e+000
 5.035980658076223e-001	 1.291987448736975e+000	 3.709468225199730e+000
 4.899159155538865e-001	 1.297237412388103e+000	 3.563687698585495e+000
 4.762103062011355e-001	 1.302331057873609e+000	 3.422251717291340e+000
 4.624837858684034e-001	 1.307268574328022e+000	 3.285301801911224e+000
 4.487388863122321e-001	 1.312050203376334e+000	 3.152642099464803e+000
 4.349781216558008e-001	 1.316676238379938e+000	 3.023750871353464e+000
 4.212039871513260e-001	 1.321147023648560e+000	 2.897794438246075e+000
 4.074189579766622e-001	 1.325462953619678e+000	 2.773643424070273e+000
 5.470958780694262e-001	 1.281430112217454e+000	 4.212612806154245e+000
 5.334341673983635e-001	 1.287177128781379e+000	 4.057610994047129e+000
 5.197411183301345e-001	 1.292766828970265e+000	 3.904408253962879e+000
 5.060193325779567e-001	 1.298199240417519e+000	 3.754302854342676e+000
 4.922713994348842e-001	 1.303474445552502e+000	 3.608225975261654e+000
 4.784998944029212e-001	 1.308592580954260e+000	 3.466744948285520e+000
 4.647073778523031e-001	 1.313553836666673e+000	 3.330069434263545e+000
 4.508963937121045e-001	 1.318358455476454e+000	 3.198060422486488e+000
 4.370694681932574e-001	 1.323006732155468e+000	 3.070241917905867e+000
 4.232291085450000e-001	 1.327499012668861e+000	 2.945815167832143e+000
 4.093778018456922e-001	 1.331835693350548e+000	 2.823675265785719e+000
 5.497136932092552e-001	 1.287561664803915e+000	 4.257502377960495e+000
 5.359866122174862e-001	 1.293336180436153e+000	 4.101852815938235e+000
 5.222280428764503e-001	 1.298952626945552e+000	 3.947983782167276e+000
 5.084405993483899e-001	 1.304411032097752e+000	 3.797313118867431e+000
 4.946268833159535e-001	 1.309711478716544e+000	 3.650880074941259e+000
 4.807894826047505e-001	 1.314854104034503e+000	 3.509348442146903e+000
 4.669309698362182e-001	 1.319839099004865e+000	 3.373012725230357e+000
 4.530539011119615e-001	 1.324666707576071e+000	 3.241807226301860e+000
 4.391608147306637e-001	 1.329337225930455e+000	 3.115317906500366e+000
 4.252542299385832e-001	 1.333851001688592e+000	 2.992771214988371e+000
 4.113366457145843e-001	 1.338208433080836e+000	 2.870906619847809e+000
 3.917482070234653e-001	 1.274481035761665e+000	 2.376302989854894e+000
 3.784852817797219e-001	 1.278482487352557e+000	 2.253248506735258e+000
 3.652165773779126e-001	 1.282335937840718e+000	 2.131829243743345e+000
 3.519444082195939e-001	 1.286041904167421e+000	 2.013039455752598e+000
 3.386710651775104e-001	 1.289600948045209e+000	 1.897714515964104e+000
 3.253988146137712e-001	 1.293013675037378e+000	 1.786546381095175e+000
 3.121298974347747e-001	 1.296280733615264e+000	 1.680100017689931e+000
 2.988665281832910e-001	 1.299402814194865e+000	 1.578830633274474e+000
 2.856108941680556e-001	 1.302380648154343e+000	 1.483101555255847e+000
 2.723651546311524e-001	 1.305215006833941e+000	 1.393202600806720e+000
 2.591314399534020e-001	 1.307906700519837e+000	 1.309368782424187e+000
 3.937070508923962e-001	 1.280853775494218e+000	 2.423991319436078e+000
 3.803778075409665e-001	 1.284875235393391e+000	 2.299260759112226e+000
 3.670427561341694e-001	 1.288747954145378e+000	 2.176017249867394e+000
 3.537042226461742e-001	 1.292472451276313e+000	 2.055340919292247e+000
 3.403645094046872e-001	 1.296049291307467e+000	 1.938146989212432e+000
 3.270258941042208e-001	 1.299479082830132e+000	 1.825201610069755e+000
 3.136906288562903e-001	 1.302762477558189e+000	 1.717138695917622e+000
 3.003609392769588e-001	 1.305900169359914e+000	 1.614477598950839e+000
 2.870390236120766e-001	 1.308892893270572e+000	 1.517641461617923e+000
 2.737270519005022e-001	 1.311741424487327e+000	 1.426976084683586e+000
 2.604271651755172e-001	 1.314446577348017e+000	 1.342769151066246e+000
 3.956658947614563e-001	 1.287226515226850e+000	 2.472606797421820e+000
 3.822703333022947e-001	 1.291267983434266e+000	 2.346665365762591e+000
 3.688689348904707e-001	 1.295159970450051e+000	 2.222200742050420e+000
 3.554640370727649e-001	 1.298902998385200e+000	 2.100363184504642e+000
 3.420579536318443e-001	 1.302497634569714e+000	 1.982131630059199e+000
 3.286529735946222e-001	 1.305944490622877e+000	 1.868329939826448e+000
 3.152513602777308e-001	 1.309244221501116e+000	 1.759644185362461e+000
 3.018553503705234e-001	 1.312397524524987e+000	 1.656640809687637e+000
 2.884671530559645e-001	 1.315405138386855e+000	 1.559785496085769e+000
 2.750889491696856e-001	 1.318267842140804e+000	 1.469462578006449e+000
 2.617228903974281e-001	 1.320986454176337e+000	 1.385994824862042e+000
 3.976247386306124e-001	 1.293599254959479e+000	 2.521969306681894e+000
 3.841628590636720e-001	 1.297660731475104e+000	 2.395307095144288e+000
 3.706951136467798e-001	 1.301571986754666e+000	 2.270246752567405e+000
 3.572238514993260e-001	 1.305333545494019e+000	 2.147993063092149e+000
 3.437513978589380e-001	 1.308945977831890e+000	 2.029572677495875e+000
 3.302800530849296e-001	 1.312409898415560e+000	 1.915850811801743e+000
 3.168120916990478e-001	 1.315725965443999e+000	 1.807549027598447e+000
 3.033497614639366e-001	 1.318894879690042e+000	 1.705263922886134e+000
 2.898952824996735e-001	 1.321917383503154e+000	 1.609486561274095e+000
 2.764508464386620e-001	 1.324794259794340e+000	 1.520622467639661e+000
 2.630186156191024e-001	 1.327526331004762e+000	 1.439012019840497e+000
 3.995835824998310e-001	 1.299971994692022e+000	 2.571898115481716e+000
 3.860553848250641e-001	 1.304053479515829e+000	 2.445029527656048e+000
 3.725212924030595e-001	 1.307984003059152e+000	 2.320020644729312e+000
 3.589836659258175e-001	 1.311764092602703e+000	 2.198115305064956e+000
 3.454448420859251e-001	 1.315394321093939e+000	 2.080371999781919e+000
 3.319071325750965e-001	 1.318875306208132e+000	 1.967681066748601e+000
 3.183728231201936e-001	 1.322207709386794e+000	 1.860783007949246e+000
 3.048441725571506e-001	 1.325392234855040e+000	 1.760287753717825e+000
 2.913234119431575e-001	 1.328429628619433e+000	 1.666694696295123e+000
 2.778127437073906e-001	 1.331320677447899e+000	 1.580413315423432e+000
 2.643143408405080e-001	 1.334066207833259e+000	 1.501676178221344e+000
 4.015424263690787e-001	 1.306344734424396e+000	 2.622211935230258e+000
 3.879479105864365e-001	 1.310446227556364e+000	 2.495675118574200e+000
 3.743474711592731e-001	 1.314396019363438e+000	 2.371386179537964e+000
 3.607434803521992e-001	 1.318194639711191e+000	 2.250612667742577e+000
 3.471382863127622e-001	 1.321842664355803e+000	 2.134429164509483e+000
 3.335342120650767e-001	 1.325340714000539e+000	 2.023735014672978e+000
 3.199335545411201e-001	 1.328689453329455e+000	 1.919273224196938e+000
 3.063385836501172e-001	 1.331889590019940e+000	 1.821650341597357e+000
 2.927515413863709e-001	 1.334941873735656e+000	 1.730899739082864e+000
 2.791746409758307e-001	 1.337847095101447e+000	 1.645135194412581e+000
 2.656100660616128e-001	 1.340606084661794e+000	 1.564481687022188e+000
 4.035012702383219e-001	 1.312717474156519e+000	 2.672728977866515e+000
 3.898404363477547e-001	 1.316838975596630e+000	 2.547085260355058e+000
 3.761736499153837e-001	 1.320808035667453e+000	 2.424205581487738e+000
 3.625032947784311e-001	 1.324625186819415e+000	 2.305365983724757e+000
 3.488317305394058e-001	 1.328291007617424e+000	 2.191641507507063e+000
 3.351612915548239e-001	 1.331806121792732e+000	 2.083924503519426e+000
 3.214942859617793e-001	 1.335171197271935e+000	 1.982407065065776e+000
 3.078329947427883e-001	 1.338386945184701e+000	 1.885112376924692e+000
 2.941796708292682e-001	 1.341454118851785e+000	 1.792188823111258e+000
 2.805365382439414e-001	 1.344373512754951e+000	 1.704115616967907e+000
 2.669057912823845e-001	 1.347145961490334e+000	 1.621390912643532e+000
 4.054601141075276e-001	 1.319090213888307e+000	 2.723267012892703e+000
 3.917329621089840e-001	 1.323231723636551e+000	 2.599100344322335e+000
 3.779998286713541e-001	 1.327220051971125e+000	 2.478339603538726e+000
 3.642631092044731e-001	 1.331055733927313e+000	 2.362254227867040e+000
 3.505251747658125e-001	 1.334739350878743e+000	 2.251623579757701e+000
 3.367883710442921e-001	 1.338271529584657e+000	 2.144597448087107e+000
 3.230550173821236e-001	 1.341652941214191e+000	 2.041081440464314e+000
 3.093274058351163e-001	 1.344884300349283e+000	 1.941597705677110e+000
 2.956078002718033e-001	 1.347966363967786e+000	 1.846660726037171e+000
 2.818984355116824e-001	 1.350899930408376e+000	 1.756789880805054e+000
 2.682015165027910e-001	 1.353685838318846e+000	 1.672521431435321e+000
 4.074189579766622e-001	 1.325462953619678e+000	 2.773643424070273e+000
 3.936254878700904e-001	 1.329624471676048e+000	 2.651559821764581e+000
 3.798260074271477e-001	 1.333632068274384e+000	 2.533634785157537e+000
 3.660229236302851e-001	 1.337486281034819e+000	 2.418957806259295e+000
 3.522186189919391e-001	 1.341187694139704e+000	 2.306752308585444e+000
 3.384154505334348e-001	 1.344736937376265e+000	 2.197632369044380e+000
 3.246157488021045e-001	 1.348134685156175e+000	 2.092175305199310e+000
 3.108218169270528e-001	 1.351381655513645e+000	 1.990935461046629e+000
 2.970359297139304e-001	 1.354478609083619e+000	 1.894457390320529e+000
 2.832603327790124e-001	 1.357426348061687e+000	 1.803288442985538e+000
 2.694972417228000e-001	 1.360225715147297e+000	 1.717990764053319e+000
 4.093778018456922e-001	 1.331835693350548e+000	 2.823675265785719e+000
 3.955180136310391e-001	 1.336017219715046e+000	 2.703524190985481e+000
 3.816521861827276e-001	 1.340044084577158e+000	 2.584763165636110e+000
 3.677827380558270e-001	 1.343916828141869e+000	 2.467947953064976e+000
 3.539120632177420e-001	 1.347636037400248e+000	 2.353770999057909e+000
 3.400425300222060e-001	 1.351202345167503e+000	 2.242871221211345e+000
 3.261764802216743e-001	 1.354616429097843e+000	 2.135848478053680e+000
 3.123162280185499e-001	 1.357879010677747e+000	 2.033277419434382e+000
 2.984640591556039e-001	 1.360990854199249e+000	 1.935720721266950e+000
 2.846222300458913e-001	 1.363952765714852e+000	 1.843741711728783e+000
 2.707929669423796e-001	 1.366765591975652e+000	 1.757916399527486e+000
 4.113366457145843e-001	 1.338208433080836e+000	 2.870906619847809e+000
 3.974105393917957e-001	 1.342409967753466e+000	 2.748531197174381e+000
 3.834783649380568e-001	 1.346456100879377e+000	 2.627555447006857e+000
 3.695425524810588e-001	 1.350347375248399e+000	 2.508758840949818e+000
 3.556055074431778e-001	 1.354084380660318e+000	 2.392849630972742e+000
 3.416696095105594e-001	 1.357667752958321e+000	 2.280480050372645e+000
 3.277372116407853e-001	 1.361098173039149e+000	 2.172260880750268e+000
 3.138106391095596e-001	 1.364376365841549e+000	 2.068775384885441e+000
 2.998921885967779e-001	 1.367503099314640e+000	 1.970592609990572e+000
 2.859841273122783e-001	 1.370479183367836e+000	 1.878280069895996e+000
 2.720886921614973e-001	 1.373305468803879e+000	 1.792415818302471e+000
 2.591314399534020e-001	 1.307906700519837e+000	 1.309368782424182e+000
 2.459138320677586e-001	 1.310456205728292e+000	 1.231628920377074e+000
 2.327124120507628e-001	 1.312864822470269e+000	 1.159562639820005e+000
 2.195292154500892e-001	 1.315133472310086e+000	 1.092743048929695e+000
 2.063662462431385e-001	 1.317263111523635e+000	 1.030765859238084e+000
 1.932254762343219e-001	 1.319254730025648e+000	 9.732683866819515e-001
 1.801088444902284e-001	 1.321109350289747e+000	 9.199480172076399e-001
 1.670182568124852e-001	 1.322828026262688e+000	 8.705800170380706e-001
 1.539555852480564e-001	 1.324411842274167e+000	 8.250345757557859e-001
 1.409226676366770e-001	 1.325861911943520e+000	 7.832929788881303e-001
 1.279213071950790e-001	 1.327179377084656e+000	 7.454628155881031e-001
 2.604271651755172e-001	 1.314446577348017e+000	 1.342769151066251e+000
 2.471434657808106e-001	 1.317008830751625e+000	 1.265041208733316e+000
 2.338760351983321e-001	 1.319429491209501e+000	 1.193301749701442e+000
 2.206269191540353e-001	 1.321709484894015e+000	 1.127081036501834e+000
 2.073981316457405e-001	 1.323849772862682e+000	 1.065931643498601e+000
 1.941916543374044e-001	 1.325851349980052e+000	 1.009448137760628e+000
 1.810094359914643e-001	 1.327715243832375e+000	 9.572862124939732e-001
 1.678533919390619e-001	 1.329442513636407e+000	 9.091811490820527e-001
 1.547254035878933e-001	 1.331034249143765e+000	 8.649654920671701e-001
 1.416273179673805e-001	 1.332491569542165e+000	 8.245858301812127e-001
 1.285609473108183e-001	 1.333815622354874e+000	 7.880602191392783e-001
 2.617228903974281e-001	 1.320986454176337e+000	 1.385994824862042e+000
 2.483730994936152e-001	 1.323561455775152e+000	 1.309374879946033e+000
 2.350396583456089e-001	 1.325994159948987e+000	 1.239027433905448e+000
 2.217246228576456e-001	 1.328285497478264e+000	 1.174429229584834e+000
 2.084300170479687e-001	 1.330436434202115e+000	 1.115079102318817e+000
 1.951578324400848e-001	 1.332447969934913e+000	 1.060518370539697e+000
 1.819100274922825e-001	 1.334321137375528e+000	 1.010128432095948e+000
 1.686885270652219e-001	 1.336057001010715e+000	 9.626212238021501e-001
 1.554952219273349e-001	 1.337656656014013e+000	 9.179024537909553e-001
 1.423319682977338e-001	 1.339121227141517e+000	 8.761524420326263e-001
 1.292005874262800e-001	 1.340451867625848e+000	 8.376818990311610e-001
 2.630186156191024e-001	 1.327526331004762e+000	 1.439012019840497e+000
 2.496027332061525e-001	 1.330114080798836e+000	 1.364601265064500e+000
 2.362032814925880e-001	 1.332558828688690e+000	 1.296716291445289e+000
 2.228223265609310e-001	 1.334861510062792e+000	 1.234278900483870e+000
 2.094619024498503e-001	 1.337023095541889e+000	 1.175343913367799e+000
 1.961240105424044e-001	 1.339044589890175e+000	 1.119553902963797e+000
 1.828106189927366e-001	 1.340927030919145e+000	 1.066752859336844e+000
 1.695236621910270e-001	 1.342671488385547e+000	 1.016888024975610e+000
 1.562650402664457e-001	 1.344279062884842e+000	 9.700190282676016e-001
 1.430366186277979e-001	 1.345750884741497e+000	 9.263265325477315e-001
 1.298402275415134e-001	 1.347088112897492e+000	 8.861204150969876e-001
 2.643143408405080e-001	 1.334066207833259e+000	 1.501676178221344e+000
 2.508323669184024e-001	 1.336666705822646e+000	 1.428533809960733e+000
 2.373669046392645e-001	 1.339123497428572e+000	 1.359703231372119e+000
 2.239200302639025e-001	 1.341437522647555e+000	 1.294780269116852e+000
 2.104937878514122e-001	 1.343609756881957e+000	 1.233432279003614e+000
 1.970901886444053e-001	 1.345641209845789e+000	 1.175408849249459e+000
 1.837112104928802e-001	 1.347532924463167e+000	 1.120551975043780e+000
 1.703587973165388e-001	 1.349285975760837e+000	 1.068805718993102e+000
 1.570348586052901e-001	 1.350901469756175e+000	 1.020225372566338e+000
 1.437412689576333e-001	 1.352380542342027e+000	 9.749861339025991e-001
 1.304798676565677e-001	 1.353724358169724e+000	 9.333913173663267e-001
 2.656100660616128e-001	 1.340606084661794e+000	 1.564481687022188e+000
 2.520620006303451e-001	 1.343219330846545e+000	 1.488948399819847e+000
 2.385305277856329e-001	 1.345688166168596e+000	 1.417904565380447e+000
 2.250177339665709e-001	 1.348013535232513e+000	 1.350941623606033e+000
 2.115256732526814e-001	 1.350196418222271e+000	 1.287721332267004e+000
 1.980563667461289e-001	 1.352237829801700e+000	 1.227986505338871e+000
 1.846118019927670e-001	 1.354138818007535e+000	 1.171571219730801e+000
 1.711939324418187e-001	 1.355900463136519e+000	 1.118410506210670e+000
 1.578046769439324e-001	 1.357523876627943e+000	 1.068549540806510e+000
 1.444459192873007e-001	 1.359010199943028e+000	 1.022152353165636e+000
 1.311195077714922e-001	 1.360360603442459e+000	 9.795100682893242e-001
 2.669057912823845e-001	 1.347145961490334e+000	 1.621390912643532e+000
 2.532916343419605e-001	 1.349771955870499e+000	 1.544013749692848e+000
 2.396941509316883e-001	 1.352252834908725e+000	 1.471303627273363e+000
 2.261154376689472e-001	 1.354589547817624e+000	 1.402841586767248e+000
 2.125575586536847e-001	 1.356783079562785e+000	 1.338277839474241e+000
 1.990225448476168e-001	 1.358834449757856e+000	 1.277342542620801e+000
 1.855123934924506e-001	 1.360744711552191e+000	 1.219856040520489e+000
 1.720290675669288e-001	 1.362514950512526e+000	 1.165738587962507e+000
 1.585744952824372e-001	 1.364146283500072e+000	 1.115019573316254e+000
 1.451505696168608e-001	 1.365639857544421e+000	 1.067846258989518e+000
 1.317591478863360e-001	 1.366996848715613e+000	 1.024492056729484e+000
 2.682015165027910e-001	 1.353685838318846e+000	 1.672521431435326e+000
 2.545212680532287e-001	 1.356324580894474e+000	 1.593833989088231e+000
 2.408577740774253e-001	 1.358817503648921e+000	 1.519991524744071e+000
 2.272131413710425e-001	 1.361165560402846e+000	 1.450558779967468e+000
 2.135894440544495e-001	 1.363369740903453e+000	 1.385168581165117e+000
 1.999887229489109e-001	 1.365431069714203e+000	 1.323532655596520e+000
 1.864129849919845e-001	 1.367350605097073e+000	 1.265451908979125e+000
 1.728642026919303e-001	 1.369129437888793e+000	 1.210826183065628e+000
 1.593443136208687e-001	 1.370768690372489e+000	 1.159663511950161e+000
 1.458552199463742e-001	 1.372269515146129e+000	 1.112088895924252e+000
 1.323987880011486e-001	 1.373633093989104e+000	 1.068352611501204e+000
 2.694972417228000e-001	 1.360225715147297e+000	 1.717990764053319e+000
 2.557509017641295e-001	 1.362877205918434e+000	 1.638513221657752e+000
 2.420213972228390e-001	 1.365382172389146e+000	 1.564059365113558e+000
 2.283108450728675e-001	 1.367741572988138e+000	 1.494171844483891e+000
 2.146213294550024e-001	 1.369956402244226e+000	 1.428460372056658e+000
 2.009549010500525e-001	 1.372027689670689e+000	 1.366612580431910e+000
 1.873135764914224e-001	 1.373956498642124e+000	 1.308404338313896e+000
 1.736993378168850e-001	 1.375743925265254e+000	 1.253709543752096e+000
 1.601141319592915e-001	 1.377391097245124e+000	 1.202509414885254e+000
 1.465598702759018e-001	 1.378899172748072e+000	 1.154901298255428e+000
 1.330384281159791e-001	 1.380269339262846e+000	 1.111107014468172e+000
 2.707929669423796e-001	 1.366765591975652e+000	 1.757916399527486e+000
 2.569805354746431e-001	 1.369429830942346e+000	 1.678155548202153e+000
 2.431850203679240e-001	 1.371946841129365e+000	 1.603598277145200e+000
 2.294085487744333e-001	 1.374317585573458e+000	 1.533759462033643e+000
 2.156532148553706e-001	 1.376543063585058e+000	 1.468220080246437e+000
 2.019210791510837e-001	 1.378624309627261e+000	 1.406638112828795e+000
 1.882141679908181e-001	 1.380562392187283e+000	 1.348758899955263e+000
 1.745344729418547e-001	 1.382358412641843e+000	 1.294424971040461e+000
 1.608839502977698e-001	 1.384013504117901e+000	 1.243585370911478e+000
 1.472645206055041e-001	 1.385528830350171e+000	 1.196304503382578e+000
 1.336780682308767e-001	 1.386905584536756e+000	 1.152770513220139e+000
 2.720886921614973e-001	 1.373305468803879e+000	 1.792415818302471e+000
 2.582101691847495e-001	 1.375982455966176e+000	 1.712865088728547e+000
 2.443486435126754e-001	 1.378511509869538e+000	 1.638699431984160e+000
 2.305062524757509e-001	 1.380893598158766e+000	 1.569400374507162e+000
 2.166851002555811e-001	 1.383129724925904e+000	 1.504514645687037e+000
 2.028872572520457e-001	 1.385220929583866e+000	 1.443665125236235e+000
 1.891147594902251e-001	 1.387168285732491e+000	 1.386561239536983e+000
 1.753696080669008e-001	 1.388972900018493e+000	 1.333008829569945e+000
 1.616537686363682e-001	 1.390635910990750e+000	 1.282919513237165e+000
 1.479691709352418e-001	 1.392158487952350e+000	 1.236319564752489e+000
 1.343177083458908e-001	 1.393541829810749e+000	 1.193358333337236e+000
 1.279213071950790e-001	 1.327179377084656e+000	 7.454628155881031e-001
 1.149513338372529e-001	 1.328365574776235e+000	 7.122218890681672e-001
 1.020164563117179e-001	 1.329421493147995e+000	 6.835712714215912e-001
 8.911839865198931e-002	 1.330348352881577e+000	 6.588314216834975e-001
 7.625884813816214e-002	 1.331147398509354e+000	 6.375198044218600e-001
 6.343945506252818e-002	 1.331819897317526e+000	 6.193614225479668e-001
 5.066183252982257e-002	 1.332367138255019e+000	 6.042979445493945e-001
 3.792755629143316e-002	 1.332790430849241e+000	 5.924953984994307e-001
 2.523816461288030e-002	 1.333091104129737e+000	 5.843504147551927e-001
 1.259515817384588e-002	 1.333270505560705e+000	 5.804950085705468e-001
 0.000000000000000e+000	 1.333329999983334e+000	 5.817997202956149e-001
 1.285609473108183e-001	 1.333815622354874e+000	 7.880602191392783e-001
 1.155261206817235e-001	 1.335007751346290e+000	 7.555780674665832e-001
 1.025265653733130e-001	 1.336068949587062e+000	 7.271705247023855e-001
 8.956401403969960e-002	 1.337000443862567e+000	 7.023067813224508e-001
 7.664016239779911e-002	 1.337803484928172e+000	 6.806371185103741e-001
 6.375666899177584e-002	 1.338479346406849e+000	 6.620001246470703e-001
 5.091515499229021e-002	 1.339029323692610e+000	 6.464294320684321e-001
 3.811720402987917e-002	 1.339454732860853e+000	 6.341599834574592e-001
 2.536436206177339e-002	 1.339756909586625e+000	 6.256338365936551e-001
 1.265813727142630e-002	 1.339937208071804e+000	 6.215055154949094e-001
 0.000000000000000e+000	 1.339996999982150e+000	 6.226468967739544e-001
 1.292005874262800e-001	 1.340451867625848e+000	 8.376818990311610e-001
 1.161009075260169e-001	 1.341649927917140e+000	 8.033761368729009e-001
 1.030366744348490e-001	 1.342716406026955e+000	 7.734047944273115e-001
 9.000962942747333e-002	 1.343652534844408e+000	 7.472214856871885e-001
 7.702147665761394e-002	 1.344459571347860e+000	 7.244599526733528e-001
 6.407388292129493e-002	 1.345138795497052e+000	 7.049413654062137e-001
 5.116847745508968e-002	 1.345691509131092e+000	 6.886811467362803e-001
 3.830685176867202e-002	 1.346119034873362e+000	 6.758953317249583e-001
 2.549055951097086e-002	 1.346422715044412e+000	 6.670064705463611e-001
 1.272111636919936e-002	 1.346603910583804e+000	 6.626490831073288e-001
 0.000000000000000e+000	 1.346663999981866e+000	 6.636746547180173e-001
 1.298402275415134e-001	 1.347088112897492e+000	 8.861204150969874e-001
 1.166756943701629e-001	 1.348292104488696e+000	 8.502882409365171e-001
 1.035467834963304e-001	 1.349363862467584e+000	 8.189980776644166e-001
 9.045524481528781e-002	 1.350304625827005e+000	 7.916945099368929e-001
 7.740279091755781e-002	 1.351115657768319e+000	 7.680011565397162e-001
 6.439109685101514e-002	 1.351798244588041e+000	 7.477280424126656e-001
 5.142179991813679e-002	 1.352353694570366e+000	 7.308785008530586e-001
 3.849649950772448e-002	 1.352783336886667e+000	 7.176556159470274e-001
 2.561675696039644e-002	 1.353088520502998e+000	 7.084682144619060e-001
 1.278409546711689e-002	 1.353270613096603e+000	 7.039364155702035e-001
 0.000000000000000e+000	 1.353330999982383e+000	 7.048967282542459e-001
 1.304798676565677e-001	 1.353724358169724e+000	 9.333913173663267e-001
 1.172504812141909e-001	 1.354934281060870e+000	 8.963256027767713e-001
 1.040568925577616e-001	 1.356011318908854e+000	 8.639584029670255e-001
 9.090086020312033e-002	 1.356956716810264e+000	 8.357317385633004e-001
 7.778410517758207e-002	 1.357771744189455e+000	 8.112654388439994e-001
 6.470831078086614e-002	 1.358457693679716e+000	 7.903645743004374e-001
 5.167512238134731e-002	 1.359015880010333e+000	 7.730264254445914e-001
 3.868614724694930e-002	 1.359447638900669e+000	 7.594469982904699e-001
 2.574295440997393e-002	 1.359754325962284e+000	 7.500270960124602e-001
 1.284707456513069e-002	 1.359937315610102e+000	 7.453779553509876e-001
 0.000000000000000e+000	 1.359997999983599e+000	 7.463264381264821e-001
 1.311195077714922e-001	 1.360360603442459e+000	 9.795100682893242e-001
 1.178252680581308e-001	 1.361576457633574e+000	 9.414993146327750e-001
 1.045670016191474e-001	 1.362658775350676e+000	 9.082936199791294e-001
 9.134647559094819e-002	 1.363608807794089e+000	 8.793388272094512e-001
 7.816541943763786e-002	 1.364427830611171e+000	 8.542572304025387e-001
 6.502552471077758e-002	 1.365117142771979e+000	 8.328550563324025e-001
 5.192844484463705e-002	 1.365678065450894e+000	 8.151294890388218e-001
 3.887579498625927e-002	 1.366111940915269e+000	 8.012752482801057e-001
 2.586915185962704e-002	 1.366420131422168e+000	 7.916907316826778e-001
 1.291005366319260e-002	 1.366604018124201e+000	 7.869837293406043e-001
 0.000000000000000e+000	 1.366664999985416e+000	 7.879767017782874e-001
 1.317591478863360e-001	 1.366996848715613e+000	 1.024492056729484e+000
 1.184000549020121e-001	 1.368218634206720e+000	 9.858203512609778e-001
 1.050771106804922e-001	 1.369306231792957e+000	 9.520114123863703e-001
 9.179209097874870e-002	 1.370260898778388e+000	 9.225212152769378e-001
 7.854673369767656e-002	 1.371083917033369e+000	 8.969806964408612e-001
 6.534273864067915e-002	 1.371776591864733e+000	 8.752032724745760e-001
 5.218176730792173e-002	 1.372340250891950e+000	 8.571919094648965e-001
 3.906544272556711e-002	 1.372776242930367e+000	 8.431457542743761e-001
 2.599534930927954e-002	 1.373085936882552e+000	 8.334663378246431e-001
 1.297303276125444e-002	 1.373270720638800e+000	 8.287633593614474e-001
 0.000000000000000e+000	 1.373331999987733e+000	 8.298600431425730e-001
 1.323987880011486e-001	 1.373633093989104e+000	 1.068352611501204e+000
 1.189748417458646e-001	 1.374860810780218e+000	 1.029299582908146e+000
 1.055872197418007e-001	 1.375953688235605e+000	 9.951193104630609e-001
 9.223770636649922e-002	 1.376912989763065e+000	 9.652841381472874e-001
 7.892804795764938e-002	 1.377740003455954e+000	 9.394397485516547e-001
 6.565995257050052e-002	 1.378436040957878e+000	 9.174127071076975e-001
 5.243508977111717e-002	 1.379002436333403e+000	 8.992175653097645e-001
 3.925509046478562e-002	 1.379440544945863e+000	 8.850635346037873e-001
 2.612154675885518e-002	 1.379751742343335e+000	 8.753607413937775e-001
 1.303601185926804e-002	 1.379937423153799e+000	 8.707260723682690e-001
 0.000000000000000e+000	 1.379998999990449e+000	 8.719886021470815e-001
 1.330384281159791e-001	 1.380269339262846e+000	 1.111107014468172e+000
 1.195496285897178e-001	 1.381502987353983e+000	 1.071947787875949e+000
 1.060973288030772e-001	 1.382601144678529e+000	 1.037624703235465e+000
 9.268332175417700e-002	 1.383565080748026e+000	 1.007632639035639e+000
 7.930936221750753e-002	 1.384396089878828e+000	 9.816380562958841e-001
 6.597716650017131e-002	 1.385095490051317e+000	 9.594865563992533e-001
 5.268841223413914e-002	 1.385664621775152e+000	 9.412100070355336e-001
 3.944473820382756e-002	 1.386104846961657e+000	 9.270332483892089e-001
 2.624774420827772e-002	 1.386417547804419e+000	 9.173803903732075e-001
 1.309899095718521e-002	 1.386604125669099e+000	 9.128807103573068e-001
 0.000000000000000e+000	 1.386665999993466e+000	 9.143741439455551e-001
 1.336780682308767e-001	 1.386905584536756e+000	 1.152770513220139e+000
 1.201244154336015e-001	 1.388145163927923e+000	 1.113775664687267e+000
 1.066074378643264e-001	 1.389248601121635e+000	 1.079534850265421e+000
 9.312893714175938e-002	 1.390217171733176e+000	 1.049571580485775e+000
 7.969067647720229e-002	 1.391052176301896e+000	 1.023579058459565e+000
 6.629438042962126e-002	 1.391754939144953e+000	 1.001427739337208e+000
 5.294173469690341e-002	 1.392326807217099e+000	 9.831724677784781e-001
 3.963438594260568e-002	 1.392769148977652e+000	 9.690592060459408e-001
 2.637394165747090e-002	 1.393083353265701e+000	 9.595313638983495e-001
 1.316197005495779e-002	 1.393270828184597e+000	 9.552357399877042e-001
 0.000000000000000e+000	 1.393332999996683e+000	 9.570280678849423e-001
 1.343177083458908e-001	 1.393541829810749e+000	 1.193358333337236e+000
 1.206992022775452e-001	 1.394787340501952e+000	 1.154793843871140e+000
 1.071175469255529e-001	 1.395896057564835e+000	 1.120856893075198e+000
 9.357455252922366e-002	 1.396869262718420e+000	 1.091105655517581e+000
 8.007199073668500e-002	 1.397708262725060e+000	 1.065265973975818e+000
 6.661159435878002e-002	 1.398414388238686e+000	 1.043238908443660e+000
 5.319505715932576e-002	 1.398988992659145e+000	 1.025107873831302e+000
 3.982403368103277e-002	 1.399433450993745e+000	 1.011145379485645e+000
 2.650013910635849e-002	 1.399749158727085e+000	 1.001819382091171e+000
 1.322494915253760e-002	 1.399937530700197e+000	 9.977992619311731e-001
 0.000000000000000e+000	 1.400000000000000e+000	 9.999614162136371e-001
 1.400000000000000e+000	 0.000000000000000e+000	 1.589370879463050e+001
 1.399937530700196e+000	 1.322494915253764e-002	 1.589002674043596e+001
 1.399749158727085e+000	 2.650013910635858e-002	 1.588724772892325e+001
 1.399433450993745e+000	 3.982403368103266e-002	 1.588478144480180e+001
 1.398988992659146e+000	 5.319505715932572e-002	 1.588206342364321e+001
 1.398414388238686e+000	 6.661159435877999e-002	 1.587855593490605e+001
 1.397708262725060e+000	 8.007199073668501e-002	 1.587374901051629e+001
 1.396869262718420e+000	 9.357455252922370e-002	 1.586716163066595e+001
 1.395896057564835e+000	 1.071175469255528e-001	 1.585834307911446e+001
 1.394787340501952e+000	 1.206992022775451e-001	 1.584687448081576e+001
 1.393541829810749e+000	 1.343177083458907e-001	 1.583237053521379e+001
 1.406667000003317e+000	 0.000000000000000e+000	 1.580727889275296e+001
 1.406604233215796e+000	 1.328792824988832e-002	 1.580400648880587e+001
 1.406414964188467e+000	 2.662633655488255e-002	 1.580150964684665e+001
 1.406097753009839e+000	 4.001368141904158e-002	 1.579924561829053e+001
 1.405651178101191e+000	 5.344837962134028e-002	 1.579669611519556e+001
 1.405073837332419e+000	 6.692880828759104e-002	 1.579336809759429e+001
 1.404364349148224e+000	 8.045330499591424e-002	 1.578879470606030e+001
 1.403521353703664e+000	 9.402016791654727e-002	 1.578253635171318e+001
 1.402543514008033e+000	 1.076276559867538e-001	 1.577418197625375e+001
 1.401429517075981e+000	 1.212739891215650e-001	 1.576335049519596e+001
 1.400178075084743e+000	 1.349573484610524e-001	 1.574969243801819e+001
 1.413334000006534e+000	 0.000000000000000e+000	 1.572287982765995e+001
 1.413270935731295e+000	 1.335090734702079e-002	 1.572000974995623e+001
 1.413080769649750e+000	 2.675253400305789e-002	 1.571778837430762e+001
 1.412762055025833e+000	 4.020332915664571e-002	 1.571571923785335e+001
 1.412313363543139e+000	 5.370170208295459e-002	 1.571332896696822e+001
 1.411733286426055e+000	 6.724602221605305e-002	 1.571016797133780e+001
 1.411020435571292e+000	 8.083461925487839e-002	 1.570581128289241e+001
 1.410173444688814e+000	 9.446578330370806e-002	 1.569985955233131e+001
 1.409190970451141e+000	 1.081377650478981e-001	 1.569194021613108e+001
 1.408071693649921e+000	 1.218487759656230e-001	 1.568170884754066e+001
 1.406814320358652e+000	 1.355969885763210e-001	 1.566885070566155e+001
 1.420001000009550e+000	 0.000000000000000e+000	 1.564044481903277e+001
 1.419937638246594e+000	 1.341388644395782e-002	 1.563796666624450e+001
 1.419746575110834e+000	 2.687873145091777e-002	 1.563601173415098e+001
 1.419426357041627e+000	 4.039297689387860e-002	 1.563412858177653e+001
 1.418975548984888e+000	 5.395502454419458e-002	 1.563188750511991e+001
 1.418392735519495e+000	 6.756323614417874e-002	 1.562888114040036e+001
 1.417676521994166e+000	 8.121593351357331e-002	 1.562472521172597e+001
 1.416825535673774e+000	 9.491139869068395e-002	 1.561905943643176e+001
 1.415838426894064e+000	 1.086478741089467e-001	 1.561154860127550e+001
 1.414713870223685e+000	 1.224235628096673e-001	 1.560188382332617e+001
 1.413450565632394e+000	 1.362366286916378e-001	 1.558978401001132e+001
 1.426668000012267e+000	 0.000000000000000e+000	 1.555990629257958e+001
 1.426604340761593e+000	 1.347686554072213e-002	 1.555780685309592e+001
 1.426412380571617e+000	 2.700492889849541e-002	 1.555610727014096e+001
 1.426090659057124e+000	 4.058262463077374e-002	 1.555439987741559e+001
 1.425637734426340e+000	 5.420834700508608e-002	 1.555229741284189e+001
 1.425052184612641e+000	 6.788045007198061e-002	 1.554943353339865e+001
 1.424332608416751e+000	 8.159724777199492e-002	 1.554546347387738e+001
 1.423477626658451e+000	 9.535701407745295e-002	 1.554006486331010e+001
 1.422485883336712e+000	 1.091579831698611e-001	 1.553293871254508e+001
 1.421356046797183e+000	 1.229983496536462e-001	 1.552381058712926e+001
 1.420086810905885e+000	 1.368762688069441e-001	 1.551243198032857e+001
 1.433335000014584e+000	 0.000000000000000e+000	 1.548119589850061e+001
 1.433271043276193e+000	 1.353984463733650e-002	 1.547945941509904e+001
 1.433078186032001e+000	 2.713112634582401e-002	 1.547800226087933e+001
 1.432754961072221e+000	 4.077227236736464e-002	 1.547645931313950e+001
 1.432299919867397e+000	 5.446166946565503e-002	 1.547448454054235e+001
 1.431711633705393e+000	 6.819766399947121e-002	 1.547175143195069e+001
 1.430988694838949e+000	 8.197856203013895e-002	 1.546795356861205e+001
 1.430129717642750e+000	 9.580262946399305e-002	 1.546280535393523e+001
 1.429133339778993e+000	 1.096680922306027e-001	 1.545604291461447e+001
 1.427998223370329e+000	 1.235731364975080e-001	 1.544742518757982e+001
 1.426723056179039e+000	 1.375159089221810e-001	 1.543673520796303e+001
 1.440002000016400e+000	 0.000000000000000e+000	 1.540424452944089e+001
 1.439937745790292e+000	 1.360282373382367e-002	 1.540285296165263e+001
 1.439743991491886e+000	 2.725732379293675e-002	 1.540162373333145e+001
 1.439419263086821e+000	 4.096192010368484e-002	 1.540023304993047e+001
 1.438962105307957e+000	 5.471499192592728e-002	 1.539837491572393e+001
 1.438371082797657e+000	 6.851487792666318e-002	 1.539576147904582e+001
 1.437644781260665e+000	 8.235987628800125e-002	 1.539212352023255e+001
 1.436781808626576e+000	 9.624824485028219e-002	 1.538721109698996e+001
 1.435780796220814e+000	 1.101782012911326e-001	 1.538079436121395e+001
 1.434640399943034e+000	 1.241479233412010e-001	 1.537266456205479e+001
 1.433359301451774e+000	 1.381555490372899e-001	 1.536263525076854e+001
 1.446669000017617e+000	 0.000000000000000e+000	 1.532898233794616e+001
 1.446604448303791e+000	 1.366580283020638e-002	 1.532791562217778e+001
 1.446409796951171e+000	 2.738352123986684e-002	 1.532689847597151e+001
 1.446083565100823e+000	 4.115156783976783e-002	 1.532564723264859e+001
 1.445624290747924e+000	 5.496831438592878e-002	 1.532389475256396e+001
 1.445030531889331e+000	 6.883209185356902e-002	 1.532139068714614e+001
 1.444300867681801e+000	 8.274119054557767e-002	 1.531790188491621e+001
 1.443433899609835e+000	 9.669386023629835e-002	 1.531321295467139e+001
 1.442428252662086e+000	 1.106883103514124e-001	 1.530712700012827e+001
 1.441282576515208e+000	 1.247227101846735e-001	 1.529946654112140e+001
 1.439995546724006e+000	 1.387951891522120e-001	 1.529007463724772e+001
 1.453336000018133e+000	 0.000000000000000e+000	 1.525533875343865e+001
 1.453271150816591e+000	 1.372878192650738e-002	 1.525457506091067e+001
 1.453075602409757e+000	 2.750971868664748e-002	 1.525375305156098e+001
 1.452747867114129e+000	 4.134121557564712e-002	 1.525262800097369e+001
 1.452286476187199e+000	 5.522163684568538e-002	 1.525097046120716e+001
 1.451689980980320e+000	 6.914930578020138e-002	 1.524856644602733e+001
 1.450956954102260e+000	 8.312250480286403e-002	 1.524521775731118e+001
 1.450085990592432e+000	 9.713947562201948e-002	 1.524074246825816e+001
 1.449075709102714e+000	 1.111984194114033e-001	 1.523497557796211e+001
 1.447924753086763e+000	 1.252974970278738e-001	 1.522776985273793e+001
 1.446631791995650e+000	 1.394348292668886e-001	 1.521899687043479e+001
 1.460003000017850e+000	 0.000000000000000e+000	 1.518324249872751e+001
 1.459937853328589e+000	 1.379176102274943e-002	 1.518275849128786e+001
 1.459741407867544e+000	 2.763591613331187e-002	 1.518211380956980e+001
 1.459412169126637e+000	 4.153086331135624e-002	 1.518110150003326e+001
 1.458948661625681e+000	 5.547495930522300e-002	 1.517952865677978e+001
 1.458349430070524e+000	 6.946651970657282e-002	 1.517721653036733e+001
 1.457613040521948e+000	 8.350381905985617e-002	 1.517400077689782e+001
 1.456738081574272e+000	 9.758509100742355e-002	 1.516973186345302e+001
 1.455723165542607e+000	 1.117085284710666e-001	 1.516427564468105e+001
 1.454566929657614e+000	 1.258722838707501e-001	 1.515751412621978e+001
 1.453268037266624e+000	 1.400744693812609e-001	 1.514934643152465e+001
 1.466670000016666e+000	 0.000000000000000e+000	 1.511262160606904e+001
 1.466604555839689e+000	 1.385474011895528e-002	 1.511239268993804e+001
 1.466407213324432e+000	 2.776211357989323e-002	 1.511190689825382e+001
 1.466076471138249e+000	 4.172051104692869e-002	 1.511099389072780e+001
 1.465610847063272e+000	 5.572828176456753e-002	 1.510949616813411e+001
 1.465008879159847e+000	 6.978373363269590e-002	 1.510726910709116e+001
 1.464269126940766e+000	 8.388513331654994e-002	 1.510418113412374e+001
 1.463390172555262e+000	 9.803070639248858e-002	 1.510011405550669e+001
 1.462370621981674e+000	 1.122186375303636e-001	 1.509496355793319e+001
 1.461209106227669e+000	 1.264470707132508e-001	 1.508863989597853e+001
 1.459904282536843e+000	 1.407141094952702e-001	 1.508106878325654e+001
 1.393541829810749e+000	 1.343177083458907e-001	 1.583237053521379e+001
 1.392158487952350e+000	 1.479691709352418e-001	 1.581639924581096e+001
 1.390635910990750e+000	 1.616537686363681e-001	 1.580056891866801e+001
 1.388972900018493e+000	 1.753696080669007e-001	 1.578459625547434e+001
 1.387168285732491e+000	 1.891147594902250e-001	 1.576821012849256e+001
 1.385220929583866e+000	 2.028872572520458e-001	 1.575115377494157e+001
 1.383129724925903e+000	 2.166851002555812e-001	 1.573318730539577e+001
 1.380893598158766e+000	 2.305062524757509e-001	 1.571409054430163e+001
 1.378511509869538e+000	 2.443486435126755e-001	 1.569366622077672e+001
 1.375982455966176e+000	 2.582101691847494e-001	 1.567174352780657e+001
 1.373305468803879e+000	 2.720886921614973e-001	 1.564818206777432e+001
 1.400178075084743e+000	 1.349573484610524e-001	 1.574969243801819e+001
 1.398788145554529e+000	 1.486738212651560e-001	 1.573464051839041e+001
 1.397258317863598e+000	 1.624235869751318e-001	 1.571966519334227e+001
 1.395587387395139e+000	 1.762047431920685e-001	 1.570451226241970e+001
 1.393774179277689e+000	 1.900153509896848e-001	 1.568893840175637e+001
 1.391817549540452e+000	 2.038534353529740e-001	 1.567271330197615e+001
 1.389716386266716e+000	 2.177169856556605e-001	 1.565562212347555e+001
 1.387469610744020e+000	 2.316039561768371e-001	 1.563746828776773e+001
 1.385076178609633e+000	 2.455122666571001e-001	 1.561807662367302e+001
 1.382535080989893e+000	 2.594398028944461e-001	 1.559729688712510e+001
 1.379845345631952e+000	 2.733844173801429e-001	 1.557500767321661e+001
 1.406814320358652e+000	 1.355969885763210e-001	 1.566885070566155e+001
 1.405417803156628e+000	 1.493784715952082e-001	 1.565466809145741e+001
 1.403880724736372e+000	 1.631934053140298e-001	 1.564049996804032e+001
 1.402201874771716e+000	 1.770398783173379e-001	 1.562612230489750e+001
 1.400380072822822e+000	 1.909159424891910e-001	 1.561132052554379e+001
 1.398414169496971e+000	 2.048196134538770e-001	 1.559589158296159e+001
 1.396303047607457e+000	 2.187488710556334e-001	 1.557964635576592e+001
 1.394045623329195e+000	 2.327016598777327e-001	 1.556241238437633e+001
 1.391640847349633e+000	 2.466758898012533e-001	 1.554403696662081e+001
 1.389087706013494e+000	 2.606694366038011e-001	 1.552439063221804e+001
 1.386385222459880e+000	 2.746801425983934e-001	 1.550337101547502e+001
 1.413450565632394e+000	 1.362366286916378e-001	 1.558978401001132e+001
 1.412047460758571e+000	 1.500831219253405e-001	 1.557642477601701e+001
 1.410503131609001e+000	 1.639632236530120e-001	 1.556301877046402e+001
 1.408816362148159e+000	 1.778750134426724e-001	 1.554937318630560e+001
 1.406985966367831e+000	 1.918165339887250e-001	 1.553530312086993e+001
 1.405010789453377e+000	 2.057857915547572e-001	 1.552063358285860e+001
 1.402889708948090e+000	 2.197807564555245e-001	 1.550520182338932e+001
 1.400621635914264e+000	 2.337993635784845e-001	 1.548886001098705e+001
 1.398205516089526e+000	 2.478395129452028e-001	 1.547147827060744e+001
 1.395640331036978e+000	 2.618990703128996e-001	 1.545294810684162e+001
 1.392925099287674e+000	 2.759758678163474e-001	 1.543318623137541e+001
 1.420086810905885e+000	 1.368762688069441e-001	 1.551243198032857e+001
 1.418677118360277e+000	 1.507877722554953e-001	 1.549985441785595e+001
 1.417125538481412e+000	 1.647330419920284e-001	 1.548716826169372e+001
 1.415430849524404e+000	 1.787101485680357e-001	 1.547421296372768e+001
 1.413591859912662e+000	 1.927171254882679e-001	 1.546083420496172e+001
 1.411607409409621e+000	 2.067519696556165e-001	 1.544688582809554e+001
 1.409476370288579e+000	 2.208126418553584e-001	 1.543223209743626e+001
 1.407197648499203e+000	 2.348970672791393e-001	 1.541675030668741e+001
 1.404770184829297e+000	 2.490031360890161e-001	 1.540033375538322e+001
 1.402192956060347e+000	 2.631287040218273e-001	 1.538289511483875e+001
 1.399464976115353e+000	 2.772715930341038e-001	 1.536437020445273e+001
 1.426723056179039e+000	 1.375159089221810e-001	 1.543673520796303e+001
 1.425306775961670e+000	 1.514924225856142e-001	 1.542490190176042e+001
 1.423747945353533e+000	 1.655028603310288e-001	 1.541289623919991e+001
 1.422045336900386e+000	 1.795452836933910e-001	 1.540059094900540e+001
 1.420197753457256e+000	 1.936177169878016e-001	 1.538786318965176e+001
 1.418204029365658e+000	 2.077181477564575e-001	 1.537459640154193e+001
 1.416063031628888e+000	 2.218445272551594e-001	 1.536068248977173e+001
 1.413773661083987e+000	 2.359947709797438e-001	 1.534602435868438e+001
 1.411334853568936e+000	 2.501667592327608e-001	 1.533053881968748e+001
 1.408745581083601e+000	 2.643583377306693e-001	 1.531415989394793e+001
 1.406004852942930e+000	 2.785673182517614e-001	 1.529684253159094e+001
 1.433359301451774e+000	 1.381555490372899e-001	 1.536263525076854e+001
 1.431936433562669e+000	 1.521970729156394e-001	 1.535151315543659e+001
 1.430370352225293e+000	 1.662726786699633e-001	 1.534015163955806e+001
 1.428659824276040e+000	 1.803804188187018e-001	 1.532845770953165e+001
 1.426803647001559e+000	 1.945183084873071e-001	 1.531634087952946e+001
 1.424800649321441e+000	 2.086843258572822e-001	 1.530371493729277e+001
 1.422649692968980e+000	 2.228764126549521e-001	 1.529050004372599e+001
 1.420349673668591e+000	 2.370924746803448e-001	 1.527662518817133e+001
 1.417899522308429e+000	 2.513303823765045e-001	 1.526203102155997e+001
 1.415298206106741e+000	 2.655879714395113e-001	 1.524667308982672e+001
 1.412544729770422e+000	 2.798630434694193e-001	 1.523052549002545e+001
 1.439995546724006e+000	 1.387951891522120e-001	 1.529007463724772e+001
 1.438566091163198e+000	 1.529017232455130e-001	 1.527963515314361e+001
 1.436992759096619e+000	 1.670424970087816e-001	 1.526888454087603e+001
 1.435274311651301e+000	 1.812155539439319e-001	 1.525776506877347e+001
 1.433409540545514e+000	 1.954188999867661e-001	 1.524621946985684e+001
 1.431397269276922e+000	 2.096505039580927e-001	 1.523419261527027e+001
 1.429236354308818e+000	 2.239082980547608e-001	 1.522163352467263e+001
 1.426925686252988e+000	 2.381901783809889e-001	 1.520849773617031e+001
 1.424464191047764e+000	 2.524940055203147e-001	 1.519475005873438e+001
 1.421850831129768e+000	 2.668176051484385e-001	 1.518036773028186e+001
 1.419084606597842e+000	 2.811587686871757e-001	 1.516534400469558e+001
 1.446631791995650e+000	 1.394348292668886e-001	 1.521899687043479e+001
 1.445195748763177e+000	 1.536063735751771e-001	 1.520921591904821e+001
 1.443615165967438e+000	 1.678123153474337e-001	 1.519904616494361e+001
 1.441888799026105e+000	 1.820506890690446e-001	 1.518846610653405e+001
 1.440015434089065e+000	 1.963194914861598e-001	 1.517745254425635e+001
 1.437993889232055e+000	 2.106166820588915e-001	 1.516598215564883e+001
 1.435823015648367e+000	 2.249401834546103e-001	 1.515403341049783e+001
 1.433501698837155e+000	 2.392878820817230e-001	 1.514158884935151e+001
 1.431028859786927e+000	 2.536576286642590e-001	 1.512863774911171e+001
 1.428403456152683e+000	 2.680472388575365e-001	 1.511517919970032e+001
 1.425624483425207e+000	 2.824544939051299e-001	 1.510122561593643e+001
 1.453268037266624e+000	 1.400744693812609e-001	 1.514934643152465e+001
 1.451825406362528e+000	 1.543110239045736e-001	 1.514020453031005e+001
 1.450237572837680e+000	 1.685821336858696e-001	 1.513058887911218e+001
 1.448503286400388e+000	 1.828858241940033e-001	 1.512051515896150e+001
 1.446621327632154e+000	 1.972200829854697e-001	 1.510999507217917e+001
 1.444590509186792e+000	 2.115828601596805e-001	 1.509903781310881e+001
 1.442409676987587e+000	 2.259720688545247e-001	 1.508765188196433e+001
 1.440077711421066e+000	 2.403855857825940e-001	 1.507584726582987e+001
 1.437593528525907e+000	 2.548212518084049e-001	 1.506363801131094e+001
 1.434956081175486e+000	 2.692768725668907e-001	 1.505104521367412e+001
 1.432164360252531e+000	 2.837502191233804e-001	 1.503810044749884e+001
 1.459904282536843e+000	 1.407141094952702e-001	 1.508106878325654e+001
 1.458455063961172e+000	 1.550156742336446e-001	 1.507255111990628e+001
 1.456859979707271e+000	 1.693519520240392e-001	 1.506346619791418e+001
 1.455117773774083e+000	 1.837209593187718e-001	 1.505386781831265e+001
 1.453227221174727e+000	 1.981206744846772e-001	 1.504380340615931e+001
 1.451187129141089e+000	 2.125490382604623e-001	 1.503331537092441e+001
 1.448996338326446e+000	 2.270039542545288e-001	 1.502244281297372e+001
 1.446653724004697e+000	 2.414832894836484e-001	 1.501122360094009e+001
 1.444158197264690e+000	 2.559848749528201e-001	 1.499969684529418e+001
 1.441508706198178e+000	 2.705065062765864e-001	 1.498790579381340e+001
 1.438704237079830e+000	 2.850459443420262e-001	 1.497590117488738e+001
 1.373305468803879e+000	 2.720886921614973e-001	 1.564818206777432e+001
 1.370479183367836e+000	 2.859841273122784e-001	 1.562235952666997e+001
 1.367503099314640e+000	 2.998921885967780e-001	 1.559381428276324e+001
 1.364376365841549e+000	 3.138106391095596e-001	 1.556269060401675e+001
 1.361098173039150e+000	 3.277372116407852e-001	 1.552917598367377e+001
 1.357667752958321e+000	 3.416696095105594e-001	 1.549350682888046e+001
 1.354084380660317e+000	 3.556055074431779e-001	 1.545597463345163e+001
 1.350347375248399e+000	 3.695425524810588e-001	 1.541693264768145e+001
 1.346456100879377e+000	 3.834783649380567e-001	 1.537680305644777e+001
 1.342409967753466e+000	 3.974105393917957e-001	 1.533608467497180e+001
 1.338208433080836e+000	 4.113366457145844e-001	 1.529536116946267e+001
 1.379845345631952e+000	 2.733844173801429e-001	 1.557500767321661e+001
 1.377005601020615e+000	 2.873460245781569e-001	 1.555054405889359e+001
 1.374015344429769e+000	 3.013203180374325e-001	 1.552338628020036e+001
 1.370873721005026e+000	 3.153050502000594e-001	 1.549367113893773e+001
 1.367579916980069e+000	 3.292979430594138e-001	 1.546157523067779e+001
 1.364133160748690e+000	 3.432966889984715e-001	 1.542732063619452e+001
 1.360532723919882e+000	 3.572989516682236e-001	 1.539118111061164e+001
 1.356777922354375e+000	 3.713023669059578e-001	 1.535348878407800e+001
 1.352868117181002e+000	 3.853045436931127e-001	 1.531464138612496e+001
 1.348802715791267e+000	 3.993030651523371e-001	 1.527511000395870e+001
 1.344581172810493e+000	 4.132954895833138e-001	 1.523544738278901e+001
 1.386385222459880e+000	 2.746801425983934e-001	 1.550337101547502e+001
 1.383532018673209e+000	 2.887079218436095e-001	 1.548026255013414e+001
 1.380527589544668e+000	 3.027484474776506e-001	 1.545447922684416e+001
 1.377371076168225e+000	 3.167994612901308e-001	 1.542615035678209e+001
 1.374061660920658e+000	 3.308586744776357e-001	 1.539544182777218e+001
 1.370598568538679e+000	 3.449237684860104e-001	 1.536256180142730e+001
 1.366981067179019e+000	 3.589923958929374e-001	 1.532776692133076e+001
 1.363208469459881e+000	 3.730621813305708e-001	 1.529136904698567e+001
 1.359280133482124e+000	 3.871307224479301e-001	 1.525374252659903e+001
 1.355195463828543e+000	 4.011955909126852e-001	 1.521533201985391e+001
 1.350953912539618e+000	 4.152543334518899e-001	 1.517666087965472e+001
 1.392925099287674e+000	 2.759758678163474e-001	 1.543318623137542e+001
 1.390058436325648e+000	 2.900698191087422e-001	 1.541142064379058e+001
 1.387039834659383e+000	 3.041765769175411e-001	 1.538699324187090e+001
 1.383868431331207e+000	 3.182938723798801e-001	 1.536002582687286e+001
 1.380543404860995e+000	 3.324194058955513e-001	 1.533067377147742e+001
 1.377063976328380e+000	 3.465508479732667e-001	 1.529913172542340e+001
 1.373429410437834e+000	 3.606858401173979e-001	 1.526563984525376e+001
 1.369639016565036e+000	 3.748219957549626e-001	 1.523049056382661e+001
 1.365692149782871e+000	 3.889569012025585e-001	 1.519403591357827e+001
 1.361588211865426e+000	 4.030881166728738e-001	 1.515669541560342e+001
 1.357326652268343e+000	 4.172131773203306e-001	 1.511896454443093e+001
 1.399464976115353e+000	 2.772715930341038e-001	 1.536437020445273e+001
 1.396584853977964e+000	 2.914317163736618e-001	 1.534392700035235e+001
 1.393552079773962e+000	 3.056047063572134e-001	 1.532083167389875e+001
 1.390365786494034e+000	 3.197882834694137e-001	 1.529519850260795e+001
 1.387025148801159e+000	 3.339801373132609e-001	 1.526717253967389e+001
 1.383529384117886e+000	 3.481779274603316e-001	 1.523693533075285e+001
 1.379877753696433e+000	 3.623792843416840e-001	 1.520471116768258e+001
 1.376069563669956e+000	 3.765818101791978e-001	 1.517077389571946e+001
 1.372104166083367e+000	 3.907830799570470e-001	 1.513545428921091e+001
 1.367980959902047e+000	 4.049806424329365e-001	 1.509914800869067e+001
 1.363699391996801e+000	 4.191720211886540e-001	 1.506232415017972e+001
 1.406004852942930e+000	 2.785673182517614e-001	 1.529684253159094e+001
 1.403111271630186e+000	 2.927936136384749e-001	 1.527769325709648e+001
 1.400064324888450e+000	 3.070328357967761e-001	 1.525590105495250e+001
 1.396863141656769e+000	 3.212826945588386e-001	 1.523157267090915e+001
 1.393506892741225e+000	 3.355408687308651e-001	 1.520484303775663e+001
 1.389994791907289e+000	 3.498050069472954e-001	 1.517588100579741e+001
 1.386326096954921e+000	 3.640727285658740e-001	 1.514489562282285e+001
 1.382500110774756e+000	 3.783416246033408e-001	 1.511214298111710e+001
 1.378516182383736e+000	 3.926092587114449e-001	 1.507793364734643e+001
 1.374373707938537e+000	 4.068731681929065e-001	 1.504264068925360e+001
 1.370072131725126e+000	 4.211308650568782e-001	 1.500670831085864e+001
 1.412544729770422e+000	 2.798630434694193e-001	 1.523052549002545e+001
 1.409637689282345e+000	 2.941555109032878e-001	 1.521263398828687e+001
 1.406576570002893e+000	 3.084609652363380e-001	 1.519211105503552e+001
 1.403360496819475e+000	 3.227771056482615e-001	 1.516905590234782e+001
 1.399988636681273e+000	 3.371016001484642e-001	 1.514359354550129e+001
 1.396460199696681e+000	 3.514320864342495e-001	 1.511588054954724e+001
 1.392774440213403e+000	 3.657661727900466e-001	 1.508611133770483e+001
 1.388930657879554e+000	 3.801014390274559e-001	 1.505452508004818e+001
 1.384928198684105e+000	 3.944354374658012e-001	 1.502141317929473e+001
 1.380766455975028e+000	 4.087656939528171e-001	 1.498712736855945e+001
 1.376444871453451e+000	 4.230897089250208e-001	 1.495208843370774e+001
 1.419084606597842e+000	 2.811587686871757e-001	 1.516534400469558e+001
 1.416164106934472e+000	 2.955174081682074e-001	 1.514866666585982e+001
 1.413088815117339e+000	 3.098890946760084e-001	 1.512937443728890e+001
 1.409857851982213e+000	 3.242715167377888e-001	 1.510755900192529e+001
 1.406470380621380e+000	 3.386623315661588e-001	 1.508333566461791e+001
 1.402925607486154e+000	 3.530591659212842e-001	 1.505684911708434e+001
 1.399222783471986e+000	 3.674596170142805e-001	 1.502827977675675e+001
 1.395361204984467e+000	 3.818612534516081e-001	 1.499785071894237e+001
 1.391340214984599e+000	 3.962616162201654e-001	 1.496583522006697e+001
 1.387159204011649e+000	 4.106582197127023e-001	 1.493256492782504e+001
 1.382817611181910e+000	 4.250485527931002e-001	 1.489843867181317e+001
 1.425624483425207e+000	 2.824544939051299e-001	 1.510122561593643e+001
 1.422690524586597e+000	 2.968793054333399e-001	 1.508571162057901e+001
 1.419601060231832e+000	 3.113172241158961e-001	 1.506760701371905e+001
 1.416355207145046e+000	 3.257659278275273e-001	 1.504699596048676e+001
 1.412952124561622e+000	 3.402230629840488e-001	 1.502398426697065e+001
 1.409391015275801e+000	 3.546862454084906e-001	 1.499870516573187e+001
 1.405671126730774e+000	 3.691530612386543e-001	 1.497132568701037e+001
 1.401791752089610e+000	 3.836210678758615e-001	 1.494205363602113e+001
 1.397752231285342e+000	 3.980877949745867e-001	 1.491114519508282e+001
 1.393551952048531e+000	 4.125507454725953e-001	 1.487891316737214e+001
 1.389190350910635e+000	 4.270073966611341e-001	 1.484573587684173e+001
 1.432164360252531e+000	 2.837502191233804e-001	 1.503810044749885e+001
 1.429216942238750e+000	 2.982412026987919e-001	 1.502369200364665e+001
 1.426113305346421e+000	 3.127453535561098e-001	 1.500672760147559e+001
 1.422852562308036e+000	 3.272603389175837e-001	 1.498728390674896e+001
 1.419433868502080e+000	 3.417837944022349e-001	 1.496545744344225e+001
 1.415856423065714e+000	 3.563133248959594e-001	 1.494137040184689e+001
 1.412119469989871e+000	 3.708465054632466e-001	 1.491517704391704e+001
 1.408222299195100e+000	 3.853808823002810e-001	 1.488707072723564e+001
 1.404164247586460e+000	 3.999139737291144e-001	 1.485729156732904e+001
 1.399944700085807e+000	 4.144432712325296e-001	 1.482613475610686e+001
 1.395563090639759e+000	 4.289662405291407e-001	 1.479395955194097e+001
 1.438704237079830e+000	 2.850459443420262e-001	 1.497590117488739e+001
 1.435743359890963e+000	 2.996030999646700e-001	 1.496253374875494e+001
 1.432625550461151e+000	 3.141734829967587e-001	 1.494665797966231e+001
 1.429349917471245e+000	 3.287547500080645e-001	 1.492834305992144e+001
 1.425915612442830e+000	 3.433445258208175e-001	 1.490767645342247e+001
 1.422321830855985e+000	 3.579404043837813e-001	 1.488476972823701e+001
 1.418567813249386e+000	 3.725399496881361e-001	 1.485976499775674e+001
 1.414652846301054e+000	 3.871406967249310e-001	 1.483284199273446e+001
 1.410576263888079e+000	 4.017401524837974e-001	 1.480422578495508e+001
 1.406337448123607e+000	 4.163357969925386e-001	 1.477419518131281e+001
 1.401935830369417e+000	 4.309250843971382e-001	 1.474309180479970e+001
 1.338208433080836e+000	 4.113366457145844e-001	 1.529536116946267e+001
 1.333851001688592e+000	 4.252542299385834e-001	 1.525272124810328e+001
 1.329337225930455e+000	 4.391608147306638e-001	 1.520590302860944e+001
 1.324666707576071e+000	 4.530539011119613e-001	 1.515520263199120e+001
 1.319839099004865e+000	 4.669309698362181e-001	 1.510153476106035e+001
 1.314854104034503e+000	 4.807894826047506e-001	 1.504600962342540e+001
 1.309711478716544e+000	 4.946268833159535e-001	 1.498993601232438e+001
 1.304411032097752e+000	 5.084405993483900e-001	 1.493482885281105e+001
 1.298952626945552e+000	 5.222280428764503e-001	 1.488241580319642e+001
 1.293336180436153e+000	 5.359866122174863e-001	 1.483464279198310e+001
 1.287561664803915e+000	 5.497136932092553e-001	 1.479367837161186e+001
 1.344581172810493e+000	 4.132954895833138e-001	 1.523544738278901e+001
 1.340202990707700e+000	 4.272793513320475e-001	 1.519387350028390e+001
 1.335667719704843e+000	 4.412521612679873e-001	 1.514853089808000e+001
 1.330974959675125e+000	 4.552114085117662e-001	 1.509995070761051e+001
 1.326124361342539e+000	 4.691545618201075e-001	 1.504846918977868e+001
 1.321115627114275e+000	 4.830790708065788e-001	 1.499510111563240e+001
 1.315948511880162e+000	 4.969823671970455e-001	 1.494115330224410e+001
 1.310622823777606e+000	 5.108618661188716e-001	 1.488814207441212e+001
 1.305138424920496e+000	 5.247149674228440e-001	 1.483780027284429e+001
 1.299495232090610e+000	 5.385390570367218e-001	 1.479208318085407e+001
 1.293693217390069e+000	 5.523315083492396e-001	 1.475317324687901e+001
 1.350953912539618e+000	 4.152543334518899e-001	 1.517666087965472e+001
 1.346554979726282e+000	 4.293044727253902e-001	 1.513608824102498e+001
 1.341998213478724e+000	 4.433435078052140e-001	 1.509191860977918e+001
 1.337283211773701e+000	 4.573689159114934e-001	 1.504476308016667e+001
 1.332409623679769e+000	 4.713781538039353e-001	 1.499537226172530e+001
 1.327377150193642e+000	 4.853686590083604e-001	 1.494429925202270e+001
 1.322185545043416e+000	 4.993378510781066e-001	 1.489260924754397e+001
 1.316834615457133e+000	 5.132831328893411e-001	 1.484181531330934e+001
 1.311324222895143e+000	 5.272018919692492e-001	 1.479365064598385e+001
 1.305654283744792e+000	 5.410915018559989e-001	 1.475007490726902e+001
 1.299824769975957e+000	 5.549493234893046e-001	 1.471327933232873e+001
 1.357326652268343e+000	 4.172131773203306e-001	 1.511896454443093e+001
 1.352906968744470e+000	 4.313295941186147e-001	 1.507934681168287e+001
 1.348328707252225e+000	 4.454348543423331e-001	 1.503631147974101e+001
 1.343591463871916e+000	 4.595264233111200e-001	 1.499046917617434e+001
 1.338694886016667e+000	 4.736017457876672e-001	 1.494257900205824e+001
 1.333638673272708e+000	 4.876582472100505e-001	 1.489356092720018e+001
 1.328422578206398e+000	 5.016933349590825e-001	 1.484426938450480e+001
 1.323046407136414e+000	 5.157043996597350e-001	 1.479582168266512e+001
 1.317510020869568e+000	 5.296888165155945e-001	 1.474994515318346e+001
 1.311813335398765e+000	 5.436439466752397e-001	 1.470859881725549e+001
 1.305956322561644e+000	 5.575671386293675e-001	 1.467397754912535e+001
 1.363699391996801e+000	 4.191720211886540e-001	 1.506232415017972e+001
 1.359258957762394e+000	 4.333547155117243e-001	 1.502363320281248e+001
 1.354659201025470e+000	 4.475262008793348e-001	 1.498170938345959e+001
 1.349899715969893e+000	 4.616839307106232e-001	 1.493716069809713e+001
 1.344980148353344e+000	 4.758253377712688e-001	 1.489074188260423e+001
 1.339900196351570e+000	 4.899478354116039e-001	 1.484336693354497e+001
 1.334659611369197e+000	 5.040488188399183e-001	 1.479612219570822e+001
 1.329258198815530e+000	 5.181256664299906e-001	 1.475013844586185e+001
 1.323695818843844e+000	 5.321757410618093e-001	 1.470666656323378e+001
 1.317972387052602e+000	 5.461963914943674e-001	 1.466764071998439e+001
 1.312087875147197e+000	 5.601849537693447e-001	 1.463525424123228e+001
 1.370072131725126e+000	 4.211308650568782e-001	 1.500670831085864e+001
 1.365610946780186e+000	 4.353798369047222e-001	 1.496893401053631e+001
 1.360989694798589e+000	 4.496175474162086e-001	 1.492811461178422e+001
 1.356207968067750e+000	 4.638414381099804e-001	 1.488485336443806e+001
 1.351265410689909e+000	 4.780489297547055e-001	 1.483989821441971e+001
 1.346161719430332e+000	 4.922374236129757e-001	 1.479415446864782e+001
 1.340896644531904e+000	 5.064043027205591e-001	 1.474869803721719e+001
 1.335469990494566e+000	 5.205469332000442e-001	 1.470478923810352e+001
 1.329881616818045e+000	 5.346626656078232e-001	 1.466380232376555e+001
 1.324131438706370e+000	 5.487488363133046e-001	 1.462719153129402e+001
 1.318219427732684e+000	 5.628027689091538e-001	 1.459710132080212e+001
 1.376444871453451e+000	 4.230897089250208e-001	 1.495208843370774e+001
 1.371962935797978e+000	 4.374049582976122e-001	 1.491523839291851e+001
 1.367320188571709e+000	 4.517088939529443e-001	 1.487553183024438e+001
 1.362516220165607e+000	 4.659989455091683e-001	 1.483356512522850e+001
 1.357550673026475e+000	 4.802725217379431e-001	 1.479007703072324e+001
 1.352423242509094e+000	 4.945270118141209e-001	 1.474596147042109e+001
 1.347133677694612e+000	 5.087597866009511e-001	 1.470228093491246e+001
 1.341681782173601e+000	 5.229681999698325e-001	 1.466028046220353e+001
 1.336067414792247e+000	 5.371495901535648e-001	 1.462140218400775e+001
 1.330290490360137e+000	 5.513012811319733e-001	 1.458724741684517e+001
 1.324350980318171e+000	 5.654205840487115e-001	 1.455951641327656e+001
 1.382817611181910e+000	 4.250485527931002e-001	 1.489843867181317e+001
 1.378314924815902e+000	 4.394300796903972e-001	 1.486253802634467e+001
 1.373650682344955e+000	 4.538002404895319e-001	 1.482396803823722e+001
 1.368824472263584e+000	 4.681564529081642e-001	 1.478331612303099e+001
 1.363835935363151e+000	 4.824961137209468e-001	 1.474130945904457e+001
 1.358684765587958e+000	 4.968166000149945e-001	 1.469882791593658e+001
 1.353370710857411e+000	 5.111152704810391e-001	 1.465691760379850e+001
 1.347893573852718e+000	 5.253894667392928e-001	 1.461680502942968e+001
 1.342253212766523e+000	 5.396365146989636e-001	 1.457991184173320e+001
 1.336449542013973e+000	 5.538537259502966e-001	 1.454787014318297e+001
 1.330482532903725e+000	 5.680383991879353e-001	 1.452250300220521e+001
 1.389190350910635e+000	 4.270073966611341e-001	 1.484573587684173e+001
 1.384666913834088e+000	 4.414552010830808e-001	 1.481082706190600e+001
 1.379981176118456e+000	 4.558915870259609e-001	 1.477343252808211e+001
 1.375132724361800e+000	 4.703139603069455e-001	 1.473412865369812e+001
 1.370121197700050e+000	 4.847197057036825e-001	 1.469362868273843e+001
 1.364946288667022e+000	 4.991061882155512e-001	 1.465279578276120e+001
 1.359607744020392e+000	 5.134707543607685e-001	 1.461265674609879e+001
 1.354105365531999e+000	 5.278107335083615e-001	 1.457441632175058e+001
 1.348439010740948e+000	 5.421234392439488e-001	 1.453947216057247e+001
 1.342608593667948e+000	 5.564061707681970e-001	 1.450943035127228e+001
 1.336614085489412e+000	 5.706562143267417e-001	 1.448612151935387e+001
 1.395563090639759e+000	 4.289662405291407e-001	 1.479395955194097e+001
 1.391018902852671e+000	 4.434803224756665e-001	 1.476010208178879e+001
 1.386311669892336e+000	 4.579829335622214e-001	 1.472393684394596e+001
 1.381440976460375e+000	 4.724714677054894e-001	 1.468602712689560e+001
 1.376406460037280e+000	 4.869432976861156e-001	 1.464706990218196e+001
 1.371207811746390e+000	 5.013957764157462e-001	 1.460790900992170e+001
 1.365844777183646e+000	 5.158262382400847e-001	 1.456954901109769e+001
 1.360317157211526e+000	 5.302320002769754e-001	 1.453316969484541e+001
 1.354624808715595e+000	 5.446103637884494e-001	 1.450014122404152e+001
 1.348767645322129e+000	 5.589586155855971e-001	 1.447203989730124e+001
 1.342745638075299e+000	 5.732740294650479e-001	 1.445066450000686e+001
 1.401935830369417e+000	 4.309250843971382e-001	 1.474309180479970e+001
 1.397370891871779e+000	 4.455054438681575e-001	 1.471036205566861e+001
 1.392642163666725e+000	 4.600742800983028e-001	 1.467549474064406e+001
 1.387749228559429e+000	 4.746289751037728e-001	 1.463903802639681e+001
 1.382691722374954e+000	 4.891668896682116e-001	 1.460167029566547e+001
 1.377469334826162e+000	 5.036853646155344e-001	 1.456421345850995e+001
 1.372081810347265e+000	 5.181817221189332e-001	 1.452764695459564e+001
 1.366528948891380e+000	 5.326532670450713e-001	 1.449312243556144e+001
 1.360810606690540e+000	 5.470972883323950e-001	 1.446197911152729e+001
 1.354926696976586e+000	 5.615110604024198e-001	 1.443575974048478e+001
 1.348877190661454e+000	 5.758918446027711e-001	 1.441622723370873e+001
 1.287561664803915e+000	 5.497136932092553e-001	 1.479367837161186e+001
 1.281630009803991e+000	 5.634046095780015e-001	 1.474654356161428e+001
 1.275540446084816e+000	 5.770587896032857e-001	 1.468096273483436e+001
 1.269293115465706e+000	 5.906735921467680e-001	 1.460052012843865e+001
 1.262888216967242e+000	 6.042463694103605e-001	 1.450903115107177e+001
 1.256326007244957e+000	 6.177744684438015e-001	 1.441053794443189e+001
 1.249606800976565e+000	 6.312552326740413e-001	 1.430930311843159e+001
 1.242730971201641e+000	 6.446860034548100e-001	 1.420980158069743e+001
 1.235698949612701e+000	 6.580641216346842e-001	 1.411671039075594e+001
 1.228511226796755e+000	 6.713869291419161e-001	 1.403430912529995e+001
 1.221168352426389e+000	 6.846517705842250e-001	 1.395968729553720e+001
 1.293693217390069e+000	 5.523315083492396e-001	 1.475317324687901e+001
 1.287733315001646e+000	 5.660876228175537e-001	 1.470805015193187e+001
 1.281614751910021e+000	 5.798068259986222e-001	 1.464440602215202e+001
 1.275337670609884e+000	 5.934864641766428e-001	 1.456586066452022e+001
 1.268902271069594e+000	 6.071238769443510e-001	 1.447627238325919e+001
 1.262308811166927e+000	 6.207163987177730e-001	 1.437973374878460e+001
 1.255557607078149e+000	 6.342613602728952e-001	 1.428056549318555e+001
 1.248649033619314e+000	 6.477560903026103e-001	 1.418330844948667e+001
 1.241583524538735e+000	 6.611979169922528e-001	 1.409271346175257e+001
 1.234361572759677e+000	 6.745841696119737e-001	 1.401222714950344e+001
 1.226983730572359e+000	 6.879121801241521e-001	 1.393908875033960e+001
 1.299824769975957e+000	 5.549493234893046e-001	 1.471327933232873e+001
 1.293836620199028e+000	 5.687706360572362e-001	 1.467020567083018e+001
 1.287689057734931e+000	 5.825548623941472e-001	 1.460851829398089e+001
 1.281382225753736e+000	 5.962993362067713e-001	 1.453186901871126e+001
 1.274916325171580e+000	 6.100013844786647e-001	 1.444415554021073e+001
 1.268291615088483e+000	 6.236583289921399e-001	 1.434951742313444e+001
 1.261508413179267e+000	 6.372674878722167e-001	 1.425233017159821e+001
 1.254567096036469e+000	 6.508261771509483e-001	 1.415719729160788e+001
 1.247468099464197e+000	 6.643317123504247e-001	 1.406894026959435e+001
 1.240211918721977e+000	 6.777814100826946e-001	 1.398993135673713e+001
 1.232799108717664e+000	 6.911725896647932e-001	 1.391838805473547e+001
 1.305956322561644e+000	 5.575671386293675e-001	 1.467397754912535e+001
 1.299939925396204e+000	 5.714536492969610e-001	 1.463298906028485e+001
 1.293763363559621e+000	 5.853028987897693e-001	 1.457327493491325e+001
 1.287426780897345e+000	 5.991122082370586e-001	 1.449851539386678e+001
 1.280930379273292e+000	 6.128788920132045e-001	 1.441264397704756e+001
 1.274274419009729e+000	 6.266002592668021e-001	 1.431984377210031e+001
 1.267459219280038e+000	 6.402736154719032e-001	 1.422454167345712e+001
 1.260485158453235e+000	 6.538962639997189e-001	 1.413140058166155e+001
 1.253352674389232e+000	 6.674655077090929e-001	 1.404530007624350e+001
 1.246062264683813e+000	 6.809786505539669e-001	 1.396747525364616e+001
 1.238614486862472e+000	 6.944329992060319e-001	 1.389762256388266e+001
 1.312087875147197e+000	 5.601849537693447e-001	 1.463525424123228e+001
 1.306043230593243e+000	 5.741366625366410e-001	 1.459638516747326e+001
 1.299837669384164e+000	 5.880509351853972e-001	 1.453865772830327e+001
 1.293471336040790e+000	 6.019250802674105e-001	 1.446577689451633e+001
 1.286944433374820e+000	 6.157563995478727e-001	 1.438170846104305e+001
 1.280257222930769e+000	 6.295421895416601e-001	 1.429067552873327e+001
 1.273410025380575e+000	 6.432797430718522e-001	 1.419715296733194e+001
 1.266403220869743e+000	 6.569663508488171e-001	 1.410585976575431e+001
 1.259237249313980e+000	 6.705993030681478e-001	 1.402154424731434e+001
 1.251912610645338e+000	 6.841758910256783e-001	 1.394491853521791e+001
 1.244429865006946e+000	 6.976934087477517e-001	 1.387683602187559e+001
 1.318219427732684e+000	 5.628027689091538e-001	 1.459710132080212e+001
 1.312146535790214e+000	 5.768196757761883e-001	 1.456038489122121e+001
 1.305911975208633e+000	 5.907989715809392e-001	 1.450465500318727e+001
 1.299515891184154e+000	 6.047379522977323e-001	 1.443363767367099e+001
 1.292958487476256e+000	 6.186339070825722e-001	 1.435132731772820e+001
 1.286240026851705e+000	 6.324841198166135e-001	 1.426198349933136e+001
 1.279360831480996e+000	 6.462858706719616e-001	 1.417012561350952e+001
 1.272321283286121e+000	 6.600364376981375e-001	 1.408052540196451e+001
 1.265121824238586e+000	 6.737330984274819e-001	 1.399765022755299e+001
 1.257762956606709e+000	 6.873731314977173e-001	 1.392232692791169e+001
 1.250245243151254e+000	 7.009538182898363e-001	 1.385607839493027e+001
 1.324350980318171e+000	 5.654205840487115e-001	 1.455951641327656e+001
 1.318249840987185e+000	 5.795026890155154e-001	 1.452498532825815e+001
 1.311986281033103e+000	 5.935470079763046e-001	 1.447126178112380e+001
 1.305560446327517e+000	 6.075508243279292e-001	 1.440208907967540e+001
 1.298972541577693e+000	 6.215114146172055e-001	 1.432148657718055e+001
 1.292222830772642e+000	 6.354260500915626e-001	 1.423374670858882e+001
 1.285311637581417e+000	 6.492919982721286e-001	 1.414342990742595e+001
 1.278239345702499e+000	 6.631065245475751e-001	 1.405535730148102e+001
 1.271006399163193e+000	 6.768668937869868e-001	 1.397370401281536e+001
 1.263613302568079e+000	 6.905703719699720e-001	 1.389977203384352e+001
 1.256060621295562e+000	 7.042142278321688e-001	 1.383540570583434e+001
 1.330482532903725e+000	 5.680383991879353e-001	 1.452250300220521e+001
 1.324353146184225e+000	 5.821857022545347e-001	 1.449018991928645e+001
 1.318060586857646e+000	 5.962950443714010e-001	 1.443847992295627e+001
 1.311605001470963e+000	 6.103636963579071e-001	 1.437112980310360e+001
 1.304986595679221e+000	 6.243889221516753e-001	 1.429218012049048e+001
 1.298205634693682e+000	 6.383679803664074e-001	 1.420595254506840e+001
 1.291262443681955e+000	 6.522981258722513e-001	 1.411704502357997e+001
 1.284157408119006e+000	 6.661766113970248e-001	 1.403032467039221e+001
 1.276890974087942e+000	 6.800006891465542e-001	 1.394979716747498e+001
 1.269463648529604e+000	 6.937676124423298e-001	 1.387733117599376e+001
 1.261875999440038e+000	 7.074746373746336e-001	 1.381487986962222e+001
 1.336614085489412e+000	 5.706562143267417e-001	 1.448612151935387e+001
 1.330456451381401e+000	 5.848687154931584e-001	 1.445600859487073e+001
 1.324134892682336e+000	 5.990430807661378e-001	 1.440631827550079e+001
 1.317649556614571e+000	 6.131765683875711e-001	 1.434076602369712e+001
 1.311000649780933e+000	 6.272664296858844e-001	 1.426340982639925e+001
 1.304188438614927e+000	 6.413099106410480e-001	 1.417859690698691e+001
 1.297213249782725e+000	 6.553042534722270e-001	 1.409095915991231e+001
 1.290075470535772e+000	 6.692466982463816e-001	 1.400539847186499e+001
 1.282775549012976e+000	 6.831344845060754e-001	 1.392602667971401e+001
 1.275313994491440e+000	 6.969648529146795e-001	 1.385508724440450e+001
 1.267691377584844e+000	 7.107350469171134e-001	 1.379456853043572e+001
 1.342745638075299e+000	 5.732740294650479e-001	 1.445066450000686e+001
 1.336559756578783e+000	 5.875517287312995e-001	 1.442249216741632e+001
 1.330209198507246e+000	 6.017911171604234e-001	 1.437479281816128e+001
 1.323694111758423e+000	 6.159894404168262e-001	 1.431101155734432e+001
 1.317014703882919e+000	 6.301439372197351e-001	 1.423518571810335e+001
 1.310171242536484e+000	 6.442518409153849e-001	 1.415168434830380e+001
 1.303164055883844e+000	 6.583103810719529e-001	 1.406516968263615e+001
 1.295993532952928e+000	 6.723167850955397e-001	 1.398062250287620e+001
 1.288660123938438e+000	 6.862682798654428e-001	 1.390249481759290e+001
 1.281164340453741e+000	 7.001620933869084e-001	 1.383312854333436e+001
 1.273506755730149e+000	 7.139954564594921e-001	 1.377454489953202e+001
 1.348877190661454e+000	 5.758918446027711e-001	 1.441622723370873e+001
 1.342663061776438e+000	 5.902347419688698e-001	 1.438985634956507e+001
 1.336283504332451e+000	 6.045391535541665e-001	 1.434394313346563e+001
 1.329738666902602e+000	 6.188023124455790e-001	 1.428188800309917e+001
 1.323028757985271e+000	 6.330214447531308e-001	 1.420752611021983e+001
 1.316154046458454e+000	 6.471937711893181e-001	 1.412522822510304e+001
 1.309114861985428e+000	 6.613165086713273e-001	 1.403968327150423e+001
 1.301911595370601e+000	 6.753868719443946e-001	 1.395611589343231e+001
 1.294544698864472e+000	 6.894020752245478e-001	 1.387930898587304e+001
 1.287014686416663e+000	 7.033593338589054e-001	 1.381154863934122e+001
 1.279322133876119e+000	 7.172558660016536e-001	 1.375488759440298e+001
 1.221168352426389e+000	 6.846517705842250e-001	 1.395968729553720e+001
 1.213669799278833e+000	 6.978579711401302e-001	 1.388508289147493e+001
 1.206017326610182e+000	 7.110008907379337e-001	 1.380374166800486e+001
 1.198211663301045e+000	 7.240778913527084e-001	 1.371606705906189e+001
 1.190253597587755e+000	 7.370863441835159e-001	 1.362234559294611e+001
 1.182143976989039e+000	 7.500236313001479e-001	 1.352274456731102e+001
 1.173883708178447e+000	 7.628871472931258e-001	 1.341731047538491e+001
 1.165473756802219e+000	 7.756743009248834e-001	 1.330596821474833e+001
 1.156915147242332e+000	 7.883825167800594e-001	 1.318852110435969e+001
 1.148208962324598e+000	 8.010092369127815e-001	 1.306465172952309e+001
 1.139356342971731e+000	 8.135519224888317e-001	 1.293392362818308e+001
 1.226983730572359e+000	 6.879121801241521e-001	 1.393908875033960e+001
 1.219449468243310e+000	 7.011812704937224e-001	 1.386642988716130e+001
 1.211760553406452e+000	 7.143867785522950e-001	 1.378722752852781e+001
 1.203917718413423e+000	 7.275260537122790e-001	 1.370185575535118e+001
 1.195921755254242e+000	 7.405964546539967e-001	 1.361056865865116e+001
 1.187773515483636e+000	 7.535953509802705e-001	 1.351349796209791e+001
 1.179473910092858e+000	 7.665201248742765e-001	 1.341065142004274e+001
 1.171023909326686e+000	 7.793681727585921e-001	 1.330191202350519e+001
 1.162424542445345e+000	 7.921369069533466e-001	 1.318703804077970e+001
 1.153676897431213e+000	 8.048237573313516e-001	 1.306566391314273e+001
 1.144782120640234e+000	 8.174261729680852e-001	 1.293730201962819e+001
 1.232799108717664e+000	 6.911725896647932e-001	 1.391838805473547e+001
 1.225229137207087e+000	 7.045045698480690e-001	 1.384774539844655e+001
 1.217503780201996e+000	 7.177726663674401e-001	 1.377071042700875e+001
 1.209623773525056e+000	 7.309742160726523e-001	 1.368763225597398e+001
 1.201589912919977e+000	 7.441065651252894e-001	 1.359873727266086e+001
 1.193403053977485e+000	 7.571670706612037e-001	 1.350412669800754e+001
 1.185064112006538e+000	 7.701531024562266e-001	 1.340377494801757e+001
 1.176574061850452e+000	 7.830620445930802e-001	 1.329752882845635e+001
 1.167933937647704e+000	 7.958912971273850e-001	 1.318510759046936e+001
 1.159144832537233e+000	 8.086382777506355e-001	 1.306610386842194e+001
 1.150207898308219e+000	 8.213004234480066e-001	 1.293998551454936e+001
 1.238614486862472e+000	 6.944329992060319e-001	 1.389762256388266e+001
 1.231008806170338e+000	 7.078278692030473e-001	 1.382905181052126e+001
 1.223247006996993e+000	 7.211585541832412e-001	 1.375420133714094e+001
 1.215329828636130e+000	 7.344223784336932e-001	 1.367339966208479e+001
 1.207258070585148e+000	 7.476166755972522e-001	 1.358685017749858e+001
 1.199032592470775e+000	 7.607387903427998e-001	 1.349462864212538e+001
 1.190654313919673e+000	 7.737860800388232e-001	 1.339668149767075e+001
 1.182124214373700e+000	 7.867559164281895e-001	 1.329282504362330e+001
 1.173443332849581e+000	 7.996456873020111e-001	 1.318274549924967e+001
 1.164612767642822e+000	 8.124527981704673e-001	 1.306599997491991e+001
 1.155633675975835e+000	 8.251746739284291e-001	 1.294201836800262e+001
 1.244429865006946e+000	 6.976934087477517e-001	 1.387683602187559e+001
 1.236788475133239e+000	 7.111511685585370e-001	 1.381037807391373e+001
 1.228990233791627e+000	 7.245444419995696e-001	 1.373771790702615e+001
 1.221035883746832e+000	 7.378705407952682e-001	 1.365916779256459e+001
 1.212926228249946e+000	 7.511267860697443e-001	 1.357491281258598e+001
 1.204662130963697e+000	 7.643105100249108e-001	 1.348500827509683e+001
 1.196244515832452e+000	 7.774190576219127e-001	 1.338937797673457e+001
 1.187674366896613e+000	 7.904497882637617e-001	 1.328781334904052e+001
 1.178952728051152e+000	 8.034000774770631e-001	 1.317997351813087e+001
 1.170080702748144e+000	 8.162673185906819e-001	 1.306538630081363e+001
 1.161059453643234e+000	 8.290489244091865e-001	 1.294345015307577e+001
 1.250245243151254e+000	 7.009538182898363e-001	 1.385607839493027e+001
 1.242568144095964e+000	 7.144744679144152e-001	 1.379175952850161e+001
 1.234733460586078e+000	 7.279303298162979e-001	 1.372128427581045e+001
 1.226741938857349e+000	 7.413187031572424e-001	 1.364495299506045e+001
 1.218594385914560e+000	 7.546368965426242e-001	 1.356293712144888e+001
 1.210291669456439e+000	 7.678822297073895e-001	 1.347527649624004e+001
 1.201834717745062e+000	 7.810520352053412e-001	 1.338187756705106e+001
 1.193224519419372e+000	 7.941436600996370e-001	 1.328251249681565e+001
 1.184462123252591e+000	 8.071544676523775e-001	 1.317681921236099e+001
 1.175548637853362e+000	 8.200818390111134e-001	 1.306430241657392e+001
 1.166485231310565e+000	 8.329231748901119e-001	 1.294433558080219e+001
 1.256060621295562e+000	 7.042142278321688e-001	 1.383540570583434e+001
 1.248347813058690e+000	 7.177977672705599e-001	 1.377323772898050e+001
 1.240476687380531e+000	 7.313162176332978e-001	 1.370493089192125e+001
 1.232447993967869e+000	 7.447668655194811e-001	 1.363077795872625e+001
 1.224262543579179e+000	 7.581470070157511e-001	 1.355094136067825e+001
 1.215921207949192e+000	 7.714539493900888e-001	 1.346545043042494e+001
 1.207424919657691e+000	 7.846850127889552e-001	 1.337419953104471e+001
 1.198774671942160e+000	 7.978375319356575e-001	 1.327694711884729e+001
 1.189971518454072e+000	 8.109088578277917e-001	 1.317331577201437e+001
 1.181016572958641e+000	 8.238963594315962e-001	 1.306279321002401e+001
 1.171911008977979e+000	 8.367974253710390e-001	 1.294473432125632e+001
 1.261875999440038e+000	 7.074746373746336e-001	 1.381487986962222e+001
 1.254127482021592e+000	 7.211210666268496e-001	 1.375486027174245e+001
 1.246219914175166e+000	 7.347021054504418e-001	 1.368869433285510e+001
 1.238154049078578e+000	 7.482150278818500e-001	 1.361667152861021e+001
 1.229930701243992e+000	 7.616571174889840e-001	 1.353894991059163e+001
 1.221550746442145e+000	 7.750256690728600e-001	 1.345555323666270e+001
 1.213015121570523e+000	 7.883179903726010e-001	 1.336636901987279e+001
 1.204324824465157e+000	 8.015314037716643e-001	 1.327114753614659e+001
 1.195480913655770e+000	 8.146632480031428e-001	 1.316950182407144e+001
 1.186484508064144e+000	 8.277108798519648e-001	 1.306090870273459e+001
 1.177336786645625e+000	 8.406716758518008e-001	 1.294471082579575e+001
 1.267691377584844e+000	 7.107350469171134e-001	 1.379456853043572e+001
 1.259907150984843e+000	 7.244443659831625e-001	 1.373668062311902e+001
 1.251963140970167e+000	 7.380879932676013e-001	 1.367261712646626e+001
 1.243860104189663e+000	 7.516631902442145e-001	 1.360266852163671e+001
 1.235598858909190e+000	 7.651672279621811e-001	 1.352699308753890e+001
 1.227180284935487e+000	 7.785973887555560e-001	 1.344561391834864e+001
 1.218605323483748e+000	 7.919509679561250e-001	 1.335841688319919e+001
 1.209874976988547e+000	 8.052252756074982e-001	 1.326514956971250e+001
 1.200990308857859e+000	 8.184176381782674e-001	 1.316542124594049e+001
 1.191952443170035e+000	 8.315254002720536e-001	 1.305870386771393e+001
 1.182762564313656e+000	 8.445459263322308e-001	 1.294433415041045e+001
 1.273506755730149e+000	 7.139954564594921e-001	 1.377454489953202e+001
 1.265686819948621e+000	 7.277676653393762e-001	 1.371875794894578e+001
 1.257706367765714e+000	 7.414738810846485e-001	 1.365674757370735e+001
 1.249566159301312e+000	 7.551113526064400e-001	 1.358880954413026e+001
 1.241267016574961e+000	 7.686773384352018e-001	 1.351510695780094e+001
 1.232809823429408e+000	 7.821691084380293e-001	 1.343566713510830e+001
 1.224195525397553e+000	 7.955839455393742e-001	 1.335037948054018e+001
 1.215425129512512e+000	 8.089191474430005e-001	 1.325899435290963e+001
 1.206499704060513e+000	 8.221720283530030e-001	 1.316112298037649e+001
 1.197420378276477e+000	 8.353399206916965e-001	 1.305623844835012e+001
 1.188188341982220e+000	 8.484201768121623e-001	 1.294367778014598e+001
 1.279322133876119e+000	 7.172558660016536e-001	 1.375488759440298e+001
 1.271466488913099e+000	 7.310909646953697e-001	 1.370115694540509e+001
 1.263449594561992e+000	 7.448597689014561e-001	 1.364113957277687e+001
 1.255272214413711e+000	 7.585595149683920e-001	 1.357514081083388e+001
 1.246935174241497e+000	 7.721874489079046e-001	 1.350333315302961e+001
 1.238439361924098e+000	 7.857408281201320e-001	 1.342575301619347e+001
 1.229785727312124e+000	 7.992169231221942e-001	 1.334229849413248e+001
 1.220975282037234e+000	 8.126130192780127e-001	 1.325272814530179e+001
 1.212009099263907e+000	 8.259264185271869e-001	 1.315666085175218e+001
 1.202888313383635e+000	 8.391544411107291e-001	 1.305357677856724e+001
 1.193614119651469e+000	 8.522944272914291e-001	 1.294281945456454e+001
 1.139356342971731e+000	 8.135519224888317e-001	 1.293392362818308e+001
 1.130358487479987e+000	 8.260080551452174e-001	 1.280175014775434e+001
 1.121216650107010e+000	 8.383751377728456e-001	 1.267300575729065e+001
 1.111932141541688e+000	 8.506506969278836e-001	 1.254627778930112e+001
 1.102506328664550e+000	 8.628322847048778e-001	 1.242005179644738e+001
 1.092940633930648e+000	 8.749174803231294e-001	 1.229271838987344e+001
 1.083236534698992e+000	 8.869038916952824e-001	 1.216258085048075e+001
 1.073395562509123e+000	 8.987891569760318e-001	 1.202786347597252e+001
 1.063419302305526e+000	 9.105709460888763e-001	 1.188672061966973e+001
 1.053309391610658e+000	 9.222469622288806e-001	 1.173724637050461e+001
 1.043067519647452e+000	 9.338149433394247e-001	 1.157748481728426e+001
 1.144782120640234e+000	 8.174261729680852e-001	 1.293730201962819e+001
 1.135741416075119e+000	 8.299416235077390e-001	 1.280736464450850e+001
 1.126556043966473e+000	 8.423675999496276e-001	 1.268076458234157e+001
 1.117227321244882e+000	 8.547016170710257e-001	 1.255609368001312e+001
 1.107756621300165e+000	 8.669412153092041e-001	 1.243184046426113e+001
 1.098145373361320e+000	 8.790839623553601e-001	 1.230639709159578e+001
 1.088395061822759e+000	 8.911274547306766e-001	 1.217806709573178e+001
 1.078507225517445e+000	 9.030693193424029e-001	 1.204507389460208e+001
 1.068483456937606e+000	 9.149072150178814e-001	 1.190557001198206e+001
 1.058325401403822e+000	 9.266388340144638e-001	 1.175764696194254e+001
 1.048034756183361e+000	 9.382619035032933e-001	 1.159934573782829e+001
 1.150207898308219e+000	 8.213004234480066e-001	 1.293998551454936e+001
 1.141124344669825e+000	 8.338751918708751e-001	 1.281217248024518e+001
 1.131895437825615e+000	 8.463600621269652e-001	 1.268761989099730e+001
 1.122522500947869e+000	 8.587525372146619e-001	 1.256492368418825e+001
 1.113006913935690e+000	 8.710501459139628e-001	 1.244257469194732e+001
 1.103350112792018e+000	 8.832504443879650e-001	 1.231896570561198e+001
 1.093553588946664e+000	 8.953510177663915e-001	 1.219239936335618e+001
 1.083618888526008e+000	 9.073494817090502e-001	 1.206109682228554e+001
 1.073547611570015e+000	 9.192434839471292e-001	 1.192320716903591e+001
 1.063341411197388e+000	 9.310307058002686e-001	 1.177681751587859e+001
 1.053001992719719e+000	 9.427088636673785e-001	 1.161996372259902e+001
 1.155633675975835e+000	 8.251746739284291e-001	 1.294201836800262e+001
 1.146507273264239e+000	 8.378087602344601e-001	 1.281623452431228e+001
 1.137234831684552e+000	 8.503525243046958e-001	 1.269364746313744e+001
 1.127817680650742e+000	 8.628034573586337e-001	 1.257285681369593e+001
 1.118257206571198e+000	 8.751590765190012e-001	 1.245235506906322e+001
 1.108554852222792e+000	 8.874169264207961e-001	 1.233053476813053e+001
 1.098712116070736e+000	 8.995745808022863e-001	 1.220569652748622e+001
 1.088730551534819e+000	 9.116296440758385e-001	 1.207605788374034e+001
 1.078611766202740e+000	 9.235797528764896e-001	 1.193976289931392e+001
 1.068357420991321e+000	 9.354225775861725e-001	 1.179489247745362e+001
 1.057969229256477e+000	 9.471558238315647e-001	 1.163947532527834e+001
 1.161059453643234e+000	 8.290489244091865e-001	 1.294345015307578e+001
 1.151890201858494e+000	 8.417423285983281e-001	 1.281961658678639e+001
 1.142574225543397e+000	 8.543449864826558e-001	 1.269892768141626e+001
 1.133112860353597e+000	 8.668543775027816e-001	 1.257998638441114e+001
 1.123507499206761e+000	 8.792680071241641e-001	 1.246128622933987e+001
 1.113759591653694e+000	 8.915834084537054e-001	 1.234121863830730e+001
 1.103870643195002e+000	 9.037981438382184e-001	 1.221808110216641e+001
 1.093842214543883e+000	 9.159098064426332e-001	 1.209008619825507e+001
 1.083675920835766e+000	 9.279160218058362e-001	 1.195537139764391e+001
 1.073373430785588e+000	 9.398144493720536e-001	 1.181200960638649e+001
 1.062936465793583e+000	 9.516027839957343e-001	 1.165802037808099e+001
 1.166485231310565e+000	 8.329231748901119e-001	 1.294433558080219e+001
 1.157273130452726e+000	 8.456758969623131e-001	 1.282238924513987e+001
 1.147913619402268e+000	 8.583374486606824e-001	 1.270354536413463e+001
 1.138408040056528e+000	 8.709052976469462e-001	 1.258640985475138e+001
 1.128757791842452e+000	 8.833769377292983e-001	 1.246947669435221e+001
 1.118964331084774e+000	 8.957498904865452e-001	 1.235113534652589e+001
 1.109029170319491e+000	 9.080217068740475e-001	 1.222967909372971e+001
 1.098953877553206e+000	 9.201899688092993e-001	 1.210331423565700e+001
 1.088740075469078e+000	 9.322522907350391e-001	 1.197017010426390e+001
 1.078389440580155e+000	 9.442063211577895e-001	 1.182830983864878e+001
 1.067903702330989e+000	 9.560497441597712e-001	 1.167574185556174e+001
 1.171911008977979e+000	 8.367974253710390e-001	 1.294473432125633e+001
 1.162656059047067e+000	 8.496094653262503e-001	 1.282462767188177e+001
 1.153253013261278e+000	 8.623299108386122e-001	 1.270758959889806e+001
 1.143703219759631e+000	 8.749562177909689e-001	 1.259222866483101e+001
 1.134008084478345e+000	 8.874858683342495e-001	 1.247703871765741e+001
 1.124169070516083e+000	 8.999163725191670e-001	 1.236040644301794e+001
 1.114187697444231e+000	 9.122452699096308e-001	 1.224061985340540e+001
 1.104065540562796e+000	 9.244701311757015e-001	 1.211587767242046e+001
 1.093804230102663e+000	 9.365885596639706e-001	 1.198429956395214e+001
 1.083405450374990e+000	 9.485981929432582e-001	 1.184393714814931e+001
 1.072870938868645e+000	 9.604967043235582e-001	 1.169278573839587e+001
 1.177336786645625e+000	 8.406716758518008e-001	 1.294471082579576e+001
 1.168038987641652e+000	 8.535430336899728e-001	 1.282641146314341e+001
 1.158592407120543e+000	 8.663223730162815e-001	 1.271115357703672e+001
 1.148998399463000e+000	 8.790071379346902e-001	 1.259754807621504e+001
 1.139258377114512e+000	 8.915947989388634e-001	 1.248408812939061e+001
 1.129373809947671e+000	 9.040828545514228e-001	 1.236915684681395e+001
 1.119346224569249e+000	 9.164688329448273e-001	 1.225103593014804e+001
 1.109177203572658e+000	 9.287502935417051e-001	 1.212791524790767e+001
 1.098868384736506e+000	 9.409248285925020e-001	 1.199790328522121e+001
 1.088421460170060e+000	 9.529900647283366e-001	 1.185903840843051e+001
 1.077838175406501e+000	 9.649436644869789e-001	 1.170930087713593e+001
 1.182762564313656e+000	 8.445459263322308e-001	 1.294433415041045e+001
 1.173421916236615e+000	 8.574766020533158e-001	 1.282782446817687e+001
 1.163931800980180e+000	 8.703148351935284e-001	 1.271433442876226e+001
 1.154293579166728e+000	 8.830580580779516e-001	 1.260247701225219e+001
 1.144508669751025e+000	 8.957037295429865e-001	 1.249074418129850e+001
 1.134578549379588e+000	 9.082493365831645e-001	 1.237751469501209e+001
 1.124504751694574e+000	 9.206923959794957e-001	 1.226106292368385e+001
 1.114288866582798e+000	 9.330304559071755e-001	 1.213956862074046e+001
 1.103932539370592e+000	 9.452610975205055e-001	 1.201112759957340e+001
 1.093437469965330e+000	 9.573819365129036e-001	 1.187376325437401e+001
 1.082805411944507e+000	 9.693906246499160e-001	 1.172543885594265e+001
 1.188188341982220e+000	 8.484201768121623e-001	 1.294367778014598e+001
 1.178804844832091e+000	 8.614101704161132e-001	 1.282895461973748e+001
 1.169271194840301e+000	 8.743072973701889e-001	 1.271723305903899e+001
 1.159588758870912e+000	 8.871089782205932e-001	 1.260712789896896e+001
 1.149758962387959e+000	 8.998126601464643e-001	 1.249712939220007e+001
 1.139783288811885e+000	 9.124158186142443e-001	 1.238561119235637e+001
 1.129663278820234e+000	 9.249159590134939e-001	 1.227083933776411e+001
 1.119400529593223e+000	 9.373106182719772e-001	 1.215098222529748e+001
 1.108996694004907e+000	 9.495973664478518e-001	 1.202412152081623e+001
 1.098453479760768e+000	 9.617738082968365e-001	 1.188826394391760e+001
 1.087772648482614e+000	 9.738375848122531e-001	 1.174135385629438e+001
 1.193614119651469e+000	 8.522944272914291e-001	 1.294281945456454e+001
 1.184187773428212e+000	 8.653437387781996e-001	 1.282989376532307e+001
 1.174610588701024e+000	 8.782997595461004e-001	 1.271995398414504e+001
 1.164883938575646e+000	 8.911598983624565e-001	 1.261161650650702e+001
 1.155009255025385e+000	 9.039215907491438e-001	 1.250336939386007e+001
 1.144988028244612e+000	 9.165823006445137e-001	 1.239358046111369e+001
 1.134821805946257e+000	 9.291395220466800e-001	 1.228050643362227e+001
 1.124512192603938e+000	 9.415907806359750e-001	 1.216230312833337e+001
 1.114060848639436e+000	 9.539336353744131e-001	 1.203703660443472e+001
 1.103469489556340e+000	 9.661656800800127e-001	 1.190269521977985e+001
 1.092739885020771e+000	 9.782845449738733e-001	 1.175720252067192e+001
 1.043067519647452e+000	 9.338149433394247e-001	 1.157748481728427e+001
 1.032696991978341e+000	 9.452709535141213e-001	 1.141407607122651e+001
 1.022198072001155e+000	 9.566145495030239e-001	 1.125396687281833e+001
 1.011572598348012e+000	 9.678435839347662e-001	 1.109570732451249e+001
 1.000822457308639e+000	 9.789559497897831e-001	 1.093785948857268e+001
 9.899495817162132e-001	 9.899495817162133e-001	 1.077900806944039e+001
 9.789559497897830e-001	 1.000822457308639e+000	 1.061777119262838e+001
 9.678435839347661e-001	 1.011572598348011e+000	 1.045281119524630e+001
 9.566145495030243e-001	 1.022198072001155e+000	 1.028284534128856e+001
 9.452709535141209e-001	 1.032696991978341e+000	 1.010665637353792e+001
 9.338149433394248e-001	 1.043067519647452e+000	 9.923102813379556e+000
 1.048034756183361e+000	 9.382619035032933e-001	 1.159934573782829e+001
 1.037614842580221e+000	 9.497724688346354e-001	 1.143742814884133e+001
 1.027065925246561e+000	 9.611700846477366e-001	 1.127894511996985e+001
 1.016389851570314e+000	 9.724525933451523e-001	 1.112241653225770e+001
 1.005588516823978e+000	 9.836178778734041e-001	 1.096637452514586e+001
 9.946638630451422e-001	 9.946638630451422e-001	 1.080937451651908e+001
 9.836178778734039e-001	 1.005588516823978e+000	 1.065000632770618e+001
 9.724525933451519e-001	 1.016389851570314e+000	 1.048690532594306e+001
 9.611700846477363e-001	 1.027065925246561e+000	 1.031876349473504e+001
 9.497724688346353e-001	 1.037614842580221e+000	 1.014434034120732e+001
 9.382619035032931e-001	 1.048034756183361e+000	 9.962473548918647e+000
 1.053001992719719e+000	 9.427088636673785e-001	 1.161996372259902e+001
 1.042532693182573e+000	 9.542739841553807e-001	 1.145952627017996e+001
 1.031933778492439e+000	 9.657256197927074e-001	 1.130265831939218e+001
 1.021207104793070e+000	 9.770616027558350e-001	 1.114784893000953e+001
 1.010354576339740e+000	 9.882798059573643e-001	 1.099359968566535e+001
 9.993781443744535e-001	 9.993781443744535e-001	 1.083843606064669e+001
 9.882798059573644e-001	 1.010354576339740e+000	 1.068091890048867e+001
 9.770616027558350e-001	 1.021207104793070e+000	 1.051965592621862e+001
 9.657256197927076e-001	 1.031933778492439e+000	 1.035331316992703e+001
 9.542739841553805e-001	 1.042532693182573e+000	 1.018062624791727e+001
 9.427088636673786e-001	 1.053001992719719e+000	 1.000041137701817e+001
 1.057969229256477e+000	 9.471558238315647e-001	 1.163947532527834e+001
 1.047450543785332e+000	 9.587754994762444e-001	 1.148050826329191e+001
 1.036801631738713e+000	 9.702811549378291e-001	 1.132524541582846e+001
 1.026024358016198e+000	 9.816706121667101e-001	 1.117214441198256e+001
 1.015120635855834e+000	 9.929417340415637e-001	 1.101967563548126e+001
 1.004092425704052e+000	 1.004092425704052e+000	 1.086633394746232e+001
 9.929417340415642e-001	 1.015120635855834e+000	 1.071065053233404e+001
 9.816706121667098e-001	 1.026024358016198e+000	 1.055120477383787e+001
 9.702811549378294e-001	 1.036801631738713e+000	 1.038663606616573e+001
 9.587754994762442e-001	 1.047450543785332e+000	 1.021565546347241e+001
 9.471558238315647e-001	 1.057969229256477e+000	 1.003705707040367e+001
 1.062936465793583e+000	 9.516027839957343e-001	 1.165802037808099e+001
 1.052368394388436e+000	 9.632770147971145e-001	 1.150051522099410e+001
 1.041669484985311e+000	 9.748366900829936e-001	 1.134684861410407e+001
 1.030841611239612e+000	 9.862796215776729e-001	 1.119544613641831e+001
 1.019886695372170e+000	 9.976036621259025e-001	 1.104474631604765e+001
 1.008806707033843e+000	 1.008806707033843e+000	 1.089321271838026e+001
 9.976036621259025e-001	 1.019886695372170e+000	 1.073934616706391e+001
 9.862796215776728e-001	 1.030841611239612e+000	 1.058169700212277e+001
 9.748366900829935e-001	 1.041669484985311e+000	 1.041887727716257e+001
 9.632770147971146e-001	 1.052368394388437e+000	 1.024957279602525e+001
 9.516027839957345e-001	 1.062936465793583e+000	 1.007255488847086e+001
 1.067903702330989e+000	 9.560497441597712e-001	 1.167574185556174e+001
 1.057286244991822e+000	 9.677785301178790e-001	 1.151969136663619e+001
 1.046537338232156e+000	 9.793922252280916e-001	 1.136761324697463e+001
 1.035658864463231e+000	 9.908886309886190e-001	 1.121790039563550e+001
 1.024652754888659e+000	 1.002265590210279e+000	 1.106895881729376e+001
 1.013520988363730e+000	 1.013520988363730e+000	 1.091922008539842e+001
 1.002265590210279e+000	 1.024652754888659e+000	 1.076715394832333e+001
 9.908886309886190e-001	 1.035658864463231e+000	 1.061128097997236e+001
 9.793922252280914e-001	 1.046537338232156e+000	 1.045018517382570e+001
 9.677785301178788e-001	 1.057286244991822e+000	 1.028252637773282e+001
 9.560497441597713e-001	 1.067903702330989e+000	 1.010705246591159e+001
 1.072870938868645e+000	 9.604967043235582e-001	 1.169278573839587e+001
 1.062204095595425e+000	 9.722800454384258e-001	 1.153818391981321e+001
 1.051405191479176e+000	 9.839477603730165e-001	 1.138768764289350e+001
 1.040476117686970e+000	 9.954976403994443e-001	 1.123965648597518e+001
 1.029418814405209e+000	 1.006927518294594e+000	 1.109246324986585e+001
 1.018235269693616e+000	 1.018235269693616e+000	 1.094450680575429e+001
 1.006927518294594e+000	 1.029418814405210e+000	 1.079422509676379e+001
 9.954976403994444e-001	 1.040476117686970e+000	 1.064010819168548e+001
 9.839477603730163e-001	 1.051405191479176e+000	 1.048071128682962e+001
 9.722800454384258e-001	 1.062204095595425e+000	 1.031466755017573e+001
 9.604967043235583e-001	 1.072870938868645e+000	 1.014070070108018e+001
 1.077838175406501e+000	 9.649436644869789e-001	 1.170930087713593e+001
 1.067121946199183e+000	 9.767815607586421e-001	 1.155614296202676e+001
 1.056273044726295e+000	 9.885032955176587e-001	 1.140722299370285e+001
 1.045293370910748e+000	 1.000106649810044e+000	 1.126086657764327e+001
 1.034184873921732e+000	 1.011589446378747e+000	 1.111541261724391e+001
 1.022949551023407e+000	 1.022949551023407e+000	 1.096922655643252e+001
 1.011589446378747e+000	 1.034184873921732e+000	 1.082071378705771e+001
 1.000106649810044e+000	 1.045293370910748e+000	 1.066833311659211e+001
 9.885032955176586e-001	 1.056273044726295e+000	 1.051061018897170e+001
 9.767815607586423e-001	 1.067121946199183e+000	 1.034615074954405e+001
 9.649436644869790e-001	 1.077838175406501e+000	 1.017365364410859e+001
 1.082805411944507e+000	 9.693906246499160e-001	 1.172543885594265e+001
 1.072039796803032e+000	 9.812830760784168e-001	 1.157372130229565e+001
 1.061140897973439e+000	 9.930588306619105e-001	 1.142637322224924e+001
 1.050110624134479e+000	 1.004715659220315e+000	 1.128168558445592e+001
 1.038950933438136e+000	 1.016251374462636e+000	 1.113796268773610e+001
 1.027663832353006e+000	 1.027663832353006e+000	 1.099353580852894e+001
 1.016251374462637e+000	 1.038950933438136e+000	 1.084677702474650e+001
 1.004715659220314e+000	 1.050110624134479e+000	 1.069611310849906e+001
 9.930588306619106e-001	 1.061140897973439e+000	 1.054003937732375e+001
 9.812830760784168e-001	 1.072039796803032e+000	 1.037713339159873e+001
 9.693906246499159e-001	 1.082805411944507e+000	 1.020606838477858e+001
 1.087772648482614e+000	 9.738375848122531e-001	 1.174135385629438e+001
 1.076957647406907e+000	 9.857845913976362e-001	 1.159107434271894e+001
 1.066008751220533e+000	 9.976143658056642e-001	 1.144529484992731e+001
 1.054927877358083e+000	 1.009324668630150e+000	 1.130227103348882e+001
 1.043716992954331e+000	 1.020913302546162e+000	 1.116027186635673e+001
 1.032378113682318e+000	 1.032378113682317e+000	 1.101759370147540e+001
 1.020913302546162e+000	 1.043716992954331e+000	 1.087257452293018e+001
 1.009324668630150e+000	 1.054927877358083e+000	 1.072360827495759e+001
 9.976143658056641e-001	 1.066008751220533e+000	 1.056915915518527e+001
 9.857845913976369e-001	 1.076957647406908e+000	 1.040777575641728e+001
 9.738375848122530e-001	 1.087772648482613e+000	 1.023810494015857e+001
 1.092739885020771e+000	 9.782845449738733e-001	 1.175720252067192e+001
 1.081875498010749e+000	 9.902861067161902e-001	 1.160835994399219e+001
 1.070876604467505e+000	 1.002169900948811e+000	 1.146414686415398e+001
 1.059745130581474e+000	 1.013933678039448e+000	 1.132278293463438e+001
 1.048483052470228e+000	 1.025575230629225e+000	 1.118250106658957e+001
 1.037092395011246e+000	 1.037092395011246e+000	 1.104156191713152e+001
 1.025575230629225e+000	 1.048483052470228e+000	 1.089826857880323e+001
 1.013933678039448e+000	 1.059745130581474e+000	 1.075098135635526e+001
 1.002169900948811e+000	 1.070876604467505e+000	 1.059813251384462e+001
 9.902861067161898e-001	 1.081875498010748e+000	 1.043824087292700e+001
 9.782845449738733e-001	 1.092739885020771e+000	 1.026992614201249e+001
 9.338149433394248e-001	 1.043067519647452e+000	 9.923102813379556e+000
 9.222469622288808e-001	 1.053309391610658e+000	 9.738079922082823e+000
 9.105709460888766e-001	 1.063419302305526e+000	 9.557013402909508e+000
 8.987891569760318e-001	 1.073395562509123e+000	 9.378104410881569e+000
 8.869038916952824e-001	 1.083236534698992e+000	 9.199653290438523e+000
 8.749174803231293e-001	 1.092940633930648e+000	 9.020068753611211e+000
 8.628322847048777e-001	 1.102506328664550e+000	 8.837876314446511e+000
 8.506506969278835e-001	 1.111932141541688e+000	 8.651725904512395e+000
 8.383751377728452e-001	 1.121216650107010e+000	 8.460398599445426e+000
 8.260080551452174e-001	 1.130358487479987e+000	 8.262812392248407e+000
 8.135519224888317e-001	 1.139356342971731e+000	 8.058026955360223e+000
 9.382619035032931e-001	 1.048034756183361e+000	 9.962473548918645e+000
 9.266388340144641e-001	 1.058325401403822e+000	 9.778989639221241e+000
 9.149072150178818e-001	 1.068483456937606e+000	 9.599255638508216e+000
 9.030693193424028e-001	 1.078507225517445e+000	 9.421471835235028e+000
 8.911274547306765e-001	 1.088395061822759e+000	 9.243940789674136e+000
 8.790839623553599e-001	 1.098145373361320e+000	 9.065076801245716e+000
 8.669412153092042e-001	 1.107756621300166e+000	 8.883414614117674e+000
 8.547016170710254e-001	 1.117227321244882e+000	 8.697617283347483e+000
 8.423675999496273e-001	 1.126556043966473e+000	 8.506483129091700e+000
 8.299416235077390e-001	 1.135741416075119e+000	 8.308951712297004e+000
 8.174261729680850e-001	 1.144782120640234e+000	 8.104108771760625e+000
 9.427088636673786e-001	 1.053001992719719e+000	 1.000041137701817e+001
 9.310307058002686e-001	 1.063341411197388e+000	 9.818423840367508e+000
 9.192434839471291e-001	 1.073547611570015e+000	 9.639972479612846e+000
 9.073494817090499e-001	 1.083618888526008e+000	 9.463260728406230e+000
 8.953510177663914e-001	 1.093553588946664e+000	 9.286597570529290e+000
 8.832504443879650e-001	 1.103350112792018e+000	 9.108407297644220e+000
 8.710501459139629e-001	 1.113006913935690e+000	 8.927238486839389e+000
 8.587525372146621e-001	 1.122522500947869e+000	 8.741772117636250e+000
 8.463600621269652e-001	 1.131895437825615e+000	 8.550828753492665e+000
 8.338751918708751e-001	 1.141124344669825e+000	 8.353374718878026e+000
 8.213004234480067e-001	 1.150207898308220e+000	 8.148527209624946e+000
 9.471558238315647e-001	 1.057969229256477e+000	 1.003705707040367e+001
 9.354225775861725e-001	 1.068357420991321e+000	 9.856523141449191e+000
 9.235797528764902e-001	 1.078611766202740e+000	 9.679305492521602e+000
 9.116296440758384e-001	 1.088730551534819e+000	 9.503614635014369e+000
 8.995745808022859e-001	 1.098712116070736e+000	 9.327770103963774e+000
 8.874169264207962e-001	 1.108554852222792e+000	 9.150210507778505e+000
 8.751590765190013e-001	 1.118257206571198e+000	 8.969502778802893e+000
 8.628034573586336e-001	 1.127817680650742e+000	 8.784350541707777e+000
 8.503525243046958e-001	 1.137234831684552e+000	 8.593601522214547e+000
 8.378087602344598e-001	 1.146507273264239e+000	 8.396253924828164e+000
 8.251746739284291e-001	 1.155633675975835e+000	 8.191461715064049e+000
 9.516027839957345e-001	 1.062936465793583e+000	 1.007255488847086e+001
 9.398144493720535e-001	 1.073373430785587e+000	 9.893431683510427e+000
 9.279160218058367e-001	 1.083675920835766e+000	 9.717399783693610e+000
 9.159098064426330e-001	 1.093842214543882e+000	 9.542680631901929e+000
 9.037981438382182e-001	 1.103870643195002e+000	 9.367608362670316e+000
 8.915834084537055e-001	 1.113759591653694e+000	 9.190640145757776e+000
 8.792680071241643e-001	 1.123507499206761e+000	 9.010365711095670e+000
 8.668543775027814e-001	 1.133112860353597e+000	 8.825515969385215e+000
 8.543449864826556e-001	 1.142574225543397e+000	 8.634970648258395e+000
 8.417423285983280e-001	 1.151890201858494e+000	 8.437764870234050e+000
 8.290489244091865e-001	 1.161059453643234e+000	 8.233094605682533e+000
 9.560497441597713e-001	 1.067903702330989e+000	 1.010705246591159e+001
 9.442063211577898e-001	 1.078389440580155e+000	 9.929297024714757e+000
 9.322522907350391e-001	 1.088740075469078e+000	 9.754403895831581e+000
 9.201899688092993e-001	 1.098953877553206e+000	 9.580609228965496e+000
 9.080217068740473e-001	 1.109029170319491e+000	 9.406265727290718e+000
 8.957498904865454e-001	 1.118964331084774e+000	 9.229853287030386e+000
 8.833769377292984e-001	 1.128757791842452e+000	 9.049988798459408e+000
 8.709052976469461e-001	 1.138408040056528e+000	 8.865435019832569e+000
 8.583374486606820e-001	 1.147913619402268e+000	 8.675108441494240e+000
 8.456758969623133e-001	 1.157273130452726e+000	 8.478086063913755e+000
 8.329231748901119e-001	 1.166485231310565e+000	 8.273611020535167e+000
 9.604967043235583e-001	 1.072870938868645e+000	 1.014070070108018e+001
 9.485981929432580e-001	 1.083405450374991e+000	 9.964270032061624e+000
 9.365885596639709e-001	 1.093804230102663e+000	 9.790469703632262e+000
 9.244701311757015e-001	 1.104065540562796e+000	 9.617554269593482e+000
 9.122452699096307e-001	 1.114187697444231e+000	 9.443898892162538e+000
 8.999163725191670e-001	 1.124169070516083e+000	 9.268010280027177e+000
 8.874858683342496e-001	 1.134008084478345e+000	 9.088536767384934e+000
 8.749562177909694e-001	 1.143703219759631e+000	 8.904277442621355e+000
 8.623299108386117e-001	 1.153253013261278e+000	 8.714190241185388e+000
 8.496094653262503e-001	 1.162656059047067e+000	 8.517398923851275e+000
 8.367974253710389e-001	 1.171911008977979e+000	 8.313198868885801e+000
 9.649436644869790e-001	 1.077838175406501e+000	 1.017365364410859e+001
 9.529900647283366e-001	 1.088421460170060e+000	 9.998504772823262e+000
 9.409248285925023e-001	 1.098868384736506e+000	 9.825752309214753e+000
 9.287502935417051e-001	 1.109177203572658e+000	 9.653672830724318e+000
 9.164688329448273e-001	 1.119346224569249e+000	 9.480667770611397e+000
 9.040828545514228e-001	 1.129373809947671e+000	 9.305274657265768e+000
 8.915947989388634e-001	 1.139258377114511e+000	 9.126177473566607e+000
 8.790071379346903e-001	 1.148998399462999e+000	 8.942216042044693e+000
 8.663223730162815e-001	 1.158592407120544e+000	 8.752394347635772e+000
 8.535430336899729e-001	 1.168038987641652e+000	 8.555887716615620e+000
 8.406716758518007e-001	 1.177336786645626e+000	 8.352048777806601e+000
 9.693906246499159e-001	 1.082805411944507e+000	 1.020606838477858e+001
 9.573819365129036e-001	 1.093437469965330e+000	 1.003215840571282e+001
 9.452610975205054e-001	 1.103932539370591e+000	 9.860409937237536e+000
 9.330304559071753e-001	 1.114288866582798e+000	 9.689125122535984e+000
 9.206923959794955e-001	 1.124504751694574e+000	 9.516735399807249e+000
 9.082493365831647e-001	 1.134578549379588e+000	 9.341813045929328e+000
 8.957037295429865e-001	 1.144508669751025e+000	 9.163081818736556e+000
 8.830580580779516e-001	 1.154293579166728e+000	 8.979426600700837e+000
 8.703148351935284e-001	 1.163931800980180e+000	 8.789901952986957e+000
 8.574766020533160e-001	 1.173421916236616e+000	 8.593739495801490e+000
 8.445459263322307e-001	 1.182762564313656e+000	 8.390354038654165e+000
 9.738375848122530e-001	 1.087772648482613e+000	 1.023810494015858e+001
 9.617738082968365e-001	 1.098453479760768e+000	 1.006539107179196e+001
 9.495973664478518e-001	 1.108996694004906e+000	 9.894603829715333e+000
 9.373106182719767e-001	 1.119400529593222e+000	 9.724074387779142e+000
 9.249159590134939e-001	 1.129663278820234e+000	 9.552267845192082e+000
 9.124158186142443e-001	 1.139783288811884e+000	 9.377795077941224e+000
 8.998126601464644e-001	 1.149758962387959e+000	 9.199423666898003e+000
 8.871089782205931e-001	 1.159588758870912e+000	 9.016087802371958e+000
 8.743072973701890e-001	 1.169271194840301e+000	 8.826897071192089e+000
 8.614101704161131e-001	 1.178804844832091e+000	 8.631144039517723e+000
 8.484201768121625e-001	 1.188188341982220e+000	 8.428310552459553e+000
 9.782845449738733e-001	 1.092739885020771e+000	 1.026992614201249e+001
 9.661656800800127e-001	 1.103469489556340e+000	 1.009836578512464e+001
 9.539336353744131e-001	 1.114060848639436e+000	 9.928498140542114e+000
 9.415907806359750e-001	 1.124512192603938e+000	 9.758686800766718e+000
 9.291395220466797e-001	 1.134821805946257e+000	 9.587434104500188e+000
 9.165823006445141e-001	 1.144988028244612e+000	 9.413393299547126e+000
 9.039215907491438e-001	 1.155009255025385e+000	 9.235379759977576e+000
 8.911598983624566e-001	 1.164883938575646e+000	 9.052381154217150e+000
 8.782997595461003e-001	 1.174610588701024e+000	 8.863566467193255e+000
 8.653437387781996e-001	 1.184187773428212e+000	 8.668293786956074e+000
 8.522944272914295e-001	 1.193614119651469e+000	 8.466116774266567e+000
 8.135519224888317e-001	 1.139356342971731e+000	 8.058026955360223e+000
 8.010092369127815e-001	 1.148208962324598e+000	 7.849166424481043e+000
 7.883825167800594e-001	 1.156915147242333e+000	 7.640584296338712e+000
 7.756743009248837e-001	 1.165473756802219e+000	 7.433431086123949e+000
 7.628871472931256e-001	 1.173883708178447e+000	 7.229038871260915e+000
 7.500236313001479e-001	 1.182143976989039e+000	 7.028916869842559e+000
 7.370863441835159e-001	 1.190253597587755e+000	 6.834745792352166e+000
 7.240778913527087e-001	 1.198211663301045e+000	 6.648370971782042e+000
 7.110008907379337e-001	 1.206017326610182e+000	 6.471794285937850e+000
 6.978579711401304e-001	 1.213669799278833e+000	 6.307164894369877e+000
 6.846517705842252e-001	 1.221168352426390e+000	 6.156768820931136e+000
 8.174261729680850e-001	 1.144782120640234e+000	 8.104108771760625e+000
 8.048237573313514e-001	 1.153676897431212e+000	 7.895323006510134e+000
 7.921369069533464e-001	 1.162424542445345e+000	 7.687114232980325e+000
 7.793681727585916e-001	 1.171023909326686e+000	 7.480547928692242e+000
 7.665201248742765e-001	 1.179473910092858e+000	 7.276875067495549e+000
 7.535953509802706e-001	 1.187773515483636e+000	 7.077527924211993e+000
 7.405964546539967e-001	 1.195921755254242e+000	 6.884114616083647e+000
 7.275260537122790e-001	 1.203917718413423e+000	 6.698412385092880e+000
 7.143867785522949e-001	 1.211760553406453e+000	 6.522359634158122e+000
 7.011812704937224e-001	 1.219449468243310e+000	 6.358046739133077e+000
 6.879121801241522e-001	 1.226983730572359e+000	 6.207705667357495e+000
 8.213004234480067e-001	 1.150207898308220e+000	 8.148527209624946e+000
 8.086382777506354e-001	 1.159144832537233e+000	 7.939893498484108e+000
 7.958912971273850e-001	 1.167933937647703e+000	 7.732146784380372e+000
 7.830620445930799e-001	 1.176574061850452e+000	 7.526262540508684e+000
 7.701531024562266e-001	 1.185064112006538e+000	 7.323405577319703e+000
 7.571670706612037e-001	 1.193403053977485e+000	 7.124926091230802e+000
 7.441065651252894e-001	 1.201589912919977e+000	 6.932354413064640e+000
 7.309742160726525e-001	 1.209623773525056e+000	 6.747394459166829e+000
 7.177726663674400e-001	 1.217503780201996e+000	 6.571915897372081e+000
 7.045045698480690e-001	 1.225229137207087e+000	 6.407945049174427e+000
 6.911725896647931e-001	 1.232799108717664e+000	 6.257654558552004e+000
 8.251746739284291e-001	 1.155633675975835e+000	 8.191461715064049e+000
 8.124527981704675e-001	 1.164612767642822e+000	 7.983062993151988e+000
 7.996456873020114e-001	 1.173443332849581e+000	 7.775869750173945e+000
 7.867559164281894e-001	 1.182124214373700e+000	 7.570762569898352e+000
 7.737860800388232e-001	 1.190654313919673e+000	 7.368815125649042e+000
 7.607387903427997e-001	 1.199032592470775e+000	 7.171290490995128e+000
 7.476166755972523e-001	 1.207258070585149e+000	 6.979636112470320e+000
 7.344223784336936e-001	 1.215329828636131e+000	 6.795477446108999e+000
 7.211585541832408e-001	 1.223247006996993e+000	 6.620610269056074e+000
 7.078278692030474e-001	 1.231008806170338e+000	 6.456991686988405e+000
 6.944329992060320e-001	 1.238614486862471e+000	 6.306729867462826e+000
 8.290489244091865e-001	 1.161059453643234e+000	 8.233094605682533e+000
 8.162673185906820e-001	 1.170080702748144e+000	 8.025019311419312e+000
 8.034000774770631e-001	 1.178952728051152e+000	 7.818473557346480e+000
 7.904497882637616e-001	 1.187674366896613e+000	 7.614238232020289e+000
 7.774190576219128e-001	 1.196244515832452e+000	 7.413290981752207e+000
 7.643105100249108e-001	 1.204662130963697e+000	 7.216802801243762e+000
 7.511267860697443e-001	 1.212926228249947e+000	 7.026133247925116e+000
 7.378705407952680e-001	 1.221035883746832e+000	 6.842824280537635e+000
 7.245444419995694e-001	 1.228990233791626e+000	 6.668592732269405e+000
 7.111511685585371e-001	 1.236788475133239e+000	 6.505321438498203e+000
 6.976934087477518e-001	 1.244429865006946e+000	 6.355049048865817e+000
 8.329231748901119e-001	 1.166485231310565e+000	 8.273611020535167e+000
 8.200818390111133e-001	 1.175548637853362e+000	 8.065952960437539e+000
 8.071544676523778e-001	 1.184462123252591e+000	 7.860151225396041e+000
 7.941436600996371e-001	 1.193224519419372e+000	 7.656882280066590e+000
 7.810520352053411e-001	 1.201834717745062e+000	 7.457022935483279e+000
 7.678822297073895e-001	 1.210291669456439e+000	 7.261647237662958e+000
 7.546368965426239e-001	 1.218594385914559e+000	 7.072021940936176e+000
 7.413187031572424e-001	 1.226741938857349e+000	 6.889600565242946e+000
 7.279303298162979e-001	 1.234733460586078e+000	 6.716016046676702e+000
 7.144744679144153e-001	 1.242568144095964e+000	 6.553072000603947e+000
 7.009538182898363e-001	 1.250245243151254e+000	 6.402732626644987e+000
 8.367974253710389e-001	 1.171911008977979e+000	 8.313198868885801e+000
 8.238963594315963e-001	 1.181016572958641e+000	 8.106057090358441e+000
 8.109088578277918e-001	 1.189971518454072e+000	 7.901098330046370e+000
 7.978375319356579e-001	 1.198774671942160e+000	 7.698889974934186e+000
 7.846850127889553e-001	 1.207424919657691e+000	 7.500203271939824e+000
 7.714539493900886e-001	 1.215921207949192e+000	 7.306010532580049e+000
 7.581470070157512e-001	 1.224262543579179e+000	 7.117480882719275e+000
 7.447668655194814e-001	 1.232447993967869e+000	 6.935974555268253e+000
 7.313162176332976e-001	 1.240476687380530e+000	 6.763035734034991e+000
 7.177977672705600e-001	 1.248347813058690e+000	 6.600383967270186e+000
 7.042142278321688e-001	 1.256060621295562e+000	 6.449904179707965e+000
 8.406716758518007e-001	 1.177336786645626e+000	 8.352048777806601e+000
 8.277108798519649e-001	 1.186484508064144e+000	 8.145527449791105e+000
 8.146632480031427e-001	 1.195480913655770e+000	 7.941512965560650e+000
 8.015314037716642e-001	 1.204324824465157e+000	 7.740459053416553e+000
 7.883179903726010e-001	 1.213015121570523e+000	 7.543026744586328e+000
 7.750256690728599e-001	 1.221550746442145e+000	 7.350081912107316e+000
 7.616571174889841e-001	 1.229930701243992e+000	 7.162691314473376e+000
 7.482150278818498e-001	 1.238154049078578e+000	 6.982117140461335e+000
 7.347021054504418e-001	 1.246219914175166e+000	 6.809810062203583e+000
 7.211210666268496e-001	 1.254127482021592e+000	 6.647400814205292e+000
 7.074746373746335e-001	 1.261875999440038e+000	 6.496690326577379e+000
 8.445459263322307e-001	 1.182762564313656e+000	 8.390354038654165e+000
 8.315254002720534e-001	 1.191952443170034e+000	 8.184562340005579e+000
 8.184176381782676e-001	 1.200990308857859e+000	 7.981595705695911e+000
 8.052252756074980e-001	 1.209874976988547e+000	 7.781789694963751e+000
 7.919509679561250e-001	 1.218605323483748e+000	 7.585690546898078e+000
 7.785973887555560e-001	 1.227180284935487e+000	 7.394053071778473e+000
 7.651672279621811e-001	 1.235598858909190e+000	 7.207837006149373e+000
 7.516631902442146e-001	 1.243860104189664e+000	 7.028201826545295e+000
 7.380879932676014e-001	 1.251963140970167e+000	 6.856500027717327e+000
 7.244443659831625e-001	 1.259907150984843e+000	 6.694268882171366e+000
 7.107350469171134e-001	 1.267691377584844e+000	 6.543220708705293e+000
 8.484201768121625e-001	 1.188188341982220e+000	 8.428310552459553e+000
 8.353399206916966e-001	 1.197420378276476e+000	 8.223362567923745e+000
 8.221720283530033e-001	 1.206499704060513e+000	 8.021549563346609e+000
 8.089191474430003e-001	 1.215425129512512e+000	 7.823084487055293e+000
 7.955839455393743e-001	 1.224195525397553e+000	 7.628394282572908e+000
 7.821691084380293e-001	 1.232809823429408e+000	 7.438118150729412e+000
 7.686773384352019e-001	 1.241267016574962e+000	 7.253104233764851e+000
 7.551113526064400e-001	 1.249566159301312e+000	 7.074404714758528e+000
 7.414738810846488e-001	 1.257706367765715e+000	 6.903269336974240e+000
 7.277676653393762e-001	 1.265686819948620e+000	 6.741137358971909e+000
 7.139954564594923e-001	 1.273506755730149e+000	 6.589627972547980e+000
 8.522944272914295e-001	 1.193614119651469e+000	 8.466116774266567e+000
 8.391544411107291e-001	 1.202888313383635e+000	 8.262131397933644e+000
 8.259264185271869e-001	 1.212009099263907e+000	 8.061579948915723e+000
 8.126130192780124e-001	 1.220975282037234e+000	 7.864548389232692e+000
 7.992169231221942e-001	 1.229785727312124e+000	 7.671339934351870e+000
 7.857408281201320e-001	 1.238439361924098e+000	 7.482473704469695e+000
 7.721874489079046e-001	 1.246935174241497e+000	 7.298681755307174e+000
 7.585595149683921e-001	 1.255272214413711e+000	 7.120904480105769e+000
 7.448597689014560e-001	 1.263449594561992e+000	 6.950284386077748e+000
 7.310909646953698e-001	 1.271466488913099e+000	 6.788158260159113e+000
 7.172558660016536e-001	 1.279322133876119e+000	 6.636047750441486e+000
 6.846517705842252e-001	 1.221168352426390e+000	 6.156768820931136e+000
 6.713869291419162e-001	 1.228511226796755e+000	 6.003770760746315e+000
 6.580641216346844e-001	 1.235698949612701e+000	 5.831224487345998e+000
 6.446860034548100e-001	 1.242730971201640e+000	 5.640338294117379e+000
 6.312552326740415e-001	 1.249606800976566e+000	 5.436778968491708e+000
 6.177744684438016e-001	 1.256326007244957e+000	 5.226372042988706e+000
 6.042463694103604e-001	 1.262888216967242e+000	 5.014706764960466e+000
 5.906735921467679e-001	 1.269293115465707e+000	 4.807108145709644e+000
 5.770587896032855e-001	 1.275540446084816e+000	 4.608612223855252e+000
 5.634046095780015e-001	 1.281630009803991e+000	 4.423944612918457e+000
 5.497136932092552e-001	 1.287561664803915e+000	 4.257502377960495e+000
 6.879121801241522e-001	 1.226983730572359e+000	 6.207705667357495e+000
 6.745841696119737e-001	 1.234361572759676e+000	 6.054409325510239e+000
 6.611979169922529e-001	 1.241583524538735e+000	 5.881878856661367e+000
 6.477560903026101e-001	 1.248649033619314e+000	 5.690996559222355e+000
 6.342613602728952e-001	 1.255557607078149e+000	 5.486910037365231e+000
 6.207163987177733e-001	 1.262308811166927e+000	 5.275605992496915e+000
 6.071238769443510e-001	 1.268902271069594e+000	 5.062825250624087e+000
 5.934864641766425e-001	 1.275337670609884e+000	 4.854033950881903e+000
 5.798068259986223e-001	 1.281614751910021e+000	 4.654398052193453e+000
 5.660876228175538e-001	 1.287733315001646e+000	 4.468761229976155e+000
 5.523315083492395e-001	 1.293693217390069e+000	 4.301626208926318e+000
 6.911725896647931e-001	 1.232799108717664e+000	 6.257654558552004e+000
 6.777814100826947e-001	 1.240211918721977e+000	 6.104034701693501e+000
 6.643317123504249e-001	 1.247468099464197e+000	 5.931226720118342e+000
 6.508261771509482e-001	 1.254567096036469e+000	 5.740444599779062e+000
 6.372674878722168e-001	 1.261508413179268e+000	 5.535940242079989e+000
 6.236583289921400e-001	 1.268291615088482e+000	 5.323865246309149e+000
 6.100013844786650e-001	 1.274916325171581e+000	 5.110115491625308e+000
 5.962993362067712e-001	 1.281382225753736e+000	 4.900301443552579e+000
 5.825548623941472e-001	 1.287689057734931e+000	 4.699721885025649e+000
 5.687706360572362e-001	 1.293836620199028e+000	 4.513341145893004e+000
 5.549493234893047e-001	 1.299824769975957e+000	 4.345769878138790e+000
 6.944329992060320e-001	 1.238614486862471e+000	 6.306729867462826e+000
 6.809786505539669e-001	 1.246062264683812e+000	 6.152743031026037e+000
 6.674655077090929e-001	 1.253352674389232e+000	 5.979331235804272e+000
 6.538962639997187e-001	 1.260485158453236e+000	 5.788711494334826e+000
 6.402736154719031e-001	 1.267459219280037e+000	 5.583875482180498e+000
 6.266002592668025e-001	 1.274274419009730e+000	 5.371134366552985e+000
 6.128788920132045e-001	 1.280930379273291e+000	 5.156542627258126e+000
 5.991122082370584e-001	 1.287426780897344e+000	 4.945858318730274e+000
 5.853028987897692e-001	 1.293763363559621e+000	 4.744516006266584e+000
 5.714536492969611e-001	 1.299939925396203e+000	 4.557603311763812e+000
 5.575671386293674e-001	 1.305956322561644e+000	 4.389841117476285e+000
 6.976934087477518e-001	 1.244429865006946e+000	 6.355049048865817e+000
 6.841758910256786e-001	 1.251912610645338e+000	 6.200633693577806e+000
 6.705993030681478e-001	 1.259237249313980e+000	 6.026466528102061e+000
 6.569663508488168e-001	 1.266403220869743e+000	 5.835832727868247e+000
 6.432797430718523e-001	 1.273410025380575e+000	 5.630727534690873e+000
 6.295421895416602e-001	 1.280257222930769e+000	 5.417403262029591e+000
 6.157563995478725e-001	 1.286944433374819e+000	 5.202076612671837e+000
 6.019250802674104e-001	 1.293471336040790e+000	 4.990656558189381e+000
 5.880509351853972e-001	 1.299837669384164e+000	 4.788716460868507e+000
 5.741366625366411e-001	 1.306043230593243e+000	 4.601469918873064e+000
 5.601849537693447e-001	 1.312087875147197e+000	 4.433750384450208e+000
 7.009538182898363e-001	 1.250245243151254e+000	 6.402732626644987e+000
 6.873731314977174e-001	 1.257762956606708e+000	 6.247809294576878e+000
 6.737330984274820e-001	 1.265121824238586e+000	 6.072802536880941e+000
 6.600364376981373e-001	 1.272321283286121e+000	 5.881850378944288e+000
 6.462858706719616e-001	 1.279360831480996e+000	 5.676514231629917e+000
 6.324841198166136e-001	 1.286240026851705e+000	 5.462667356611554e+000
 6.186339070825723e-001	 1.292958487476257e+000	 5.246692378678161e+000
 6.047379522977322e-001	 1.299515891184154e+000	 5.034652582217535e+000
 5.907989715809392e-001	 1.305911975208633e+000	 4.832263199046039e+000
 5.768196757761884e-001	 1.312146535790214e+000	 4.644866535945098e+000
 5.628027689091538e-001	 1.318219427732684e+000	 4.477410993027799e+000
 7.042142278321688e-001	 1.256060621295562e+000	 6.449904179707970e+000
 6.905703719699718e-001	 1.263613302568079e+000	 6.294375649959166e+000
 6.768668937869867e-001	 1.271006399163192e+000	 6.118427834826496e+000
 6.631065245475751e-001	 1.278239345702499e+000	 5.926813305763483e+000
 6.492919982721289e-001	 1.285311637581418e+000	 5.721259636483231e+000
 6.354260500915626e-001	 1.292222830772642e+000	 5.506927756643410e+000
 6.215114146172055e-001	 1.298972541577693e+000	 5.290369990600164e+000
 6.075508243279292e-001	 1.305560446327517e+000	 5.077807400437647e+000
 5.935470079763043e-001	 1.311986281033102e+000	 4.875100219602156e+000
 5.795026890155153e-001	 1.318249840987185e+000	 4.687722245504320e+000
 5.654205840487115e-001	 1.324350980318171e+000	 4.520739243559502e+000
 7.074746373746335e-001	 1.261875999440038e+000	 6.496690326577379e+000
 6.937676124423302e-001	 1.269463648529605e+000	 6.340441770690329e+000
 6.800006891465539e-001	 1.276890974087941e+000	 6.163434319302946e+000
 6.661766113970249e-001	 1.284157408119007e+000	 5.970777331138402e+000
 6.522981258722511e-001	 1.291262443681955e+000	 5.764994219662556e+000
 6.383679803664075e-001	 1.298205634693681e+000	 5.550191417385817e+000
 6.243889221516753e-001	 1.304986595679221e+000	 5.333094806203943e+000
 6.103636963579070e-001	 1.311605001470963e+000	 5.120086761741060e+000
 5.962950443714009e-001	 1.318060586857646e+000	 4.917175712380365e+000
 5.821857022545347e-001	 1.324353146184225e+000	 4.729969779367729e+000
 5.680383991879352e-001	 1.330482532903724e+000	 4.563654551843396e+000
 7.107350469171134e-001	 1.267691377584844e+000	 6.543220708705293e+000
 6.969648529146796e-001	 1.275313994491440e+000	 6.386119845900165e+000
 6.831344845060754e-001	 1.282775549012977e+000	 6.207917195647365e+000
 6.692466982463814e-001	 1.290075470535772e+000	 6.013902757079882e+000
 6.553042534722271e-001	 1.297213249782725e+000	 5.807755032988533e+000
 6.413099106410484e-001	 1.304188438614928e+000	 5.592471308528126e+000
 6.272664296858843e-001	 1.311000649780932e+000	 5.374857632738372e+000
 6.131765683875708e-001	 1.317649556614571e+000	 5.161461303355982e+000
 5.990430807661377e-001	 1.324134892682336e+000	 4.958442199869545e+000
 5.848687154931586e-001	 1.330456451381401e+000	 4.771545653304021e+000
 5.706562143267417e-001	 1.336614085489412e+000	 4.606271647216063e+000
 7.139954564594923e-001	 1.273506755730149e+000	 6.589627972547980e+000
 7.001620933869085e-001	 1.281164340453741e+000	 6.431525224866004e+000
 6.862682798654428e-001	 1.288660123938439e+000	 6.251974959393410e+000
 6.723167850955396e-001	 1.295993532952928e+000	 6.056446610066396e+000
 6.583103810719532e-001	 1.303164055883844e+000	 5.849585883224084e+000
 6.442518409153852e-001	 1.310171242536484e+000	 5.633786578799128e+000
 6.301439372197351e-001	 1.317014703882919e+000	 5.415654883110834e+000
 6.159894404168262e-001	 1.323694111758423e+000	 5.201906699080716e+000
 6.017911171604232e-001	 1.330209198507246e+000	 4.998856677994546e+000
 5.875517287312996e-001	 1.336559756578783e+000	 4.812690057938947e+000
 5.732740294650478e-001	 1.342745638075299e+000	 4.649656266542483e+000
 7.172558660016536e-001	 1.279322133876119e+000	 6.636047750441486e+000
 7.033593338589055e-001	 1.287014686416663e+000	 6.476776397882667e+000
 6.894020752245480e-001	 1.294544698864472e+000	 6.295709377453542e+000
 6.753868719443947e-001	 1.301911595370602e+000	 6.098498364076209e+000
 6.613165086713274e-001	 1.309114861985427e+000	 5.890537504693077e+000
 6.471937711893183e-001	 1.316154046458454e+000	 5.674162719710020e+000
 6.330214447531305e-001	 1.323028757985271e+000	 5.455488731228212e+000
 6.188023124455789e-001	 1.329738666902602e+000	 5.241403806706675e+000
 6.045391535541663e-001	 1.336283504332451e+000	 5.038723756706087e+000
 5.902347419688699e-001	 1.342663061776438e+000	 4.855072074125507e+000
 5.758918446027709e-001	 1.348877190661454e+000	 4.694254253671139e+000
 5.497136932092552e-001	 1.287561664803915e+000	 4.257502377960499e+000
 5.359866122174862e-001	 1.293336180436153e+000	 4.101852815938241e+000
 5.222280428764503e-001	 1.298952626945552e+000	 3.947983782167281e+000
 5.084405993483899e-001	 1.304411032097752e+000	 3.797313118867426e+000
 4.946268833159535e-001	 1.309711478716544e+000	 3.650880074941259e+000
 4.807894826047505e-001	 1.314854104034503e+000	 3.509348442146904e+000
 4.669309698362182e-001	 1.319839099004865e+000	 3.373012725230357e+000
 4.530539011119615e-001	 1.324666707576071e+000	 3.241807226301860e+000
 4.391608147306637e-001	 1.329337225930455e+000	 3.115317906500366e+000
 4.252542299385832e-001	 1.333851001688592e+000	 2.992771214988371e+000
 4.113366457145843e-001	 1.338208433080836e+000	 2.870906619847804e+000
 5.523315083492395e-001	 1.293693217390069e+000	 4.301626208926318e+000
 5.385390570367218e-001	 1.299495232090610e+000	 4.145415374146866e+000
 5.247149674228443e-001	 1.305138424920496e+000	 3.991000064823667e+000
 5.108618661188715e-001	 1.310622823777607e+000	 3.839927833186458e+000
 4.969823671970454e-001	 1.315948511880163e+000	 3.693355828639800e+000
 4.830790708065787e-001	 1.321115627114275e+000	 3.552053812531970e+000
 4.691545618201076e-001	 1.326124361342539e+000	 3.416410305560193e+000
 4.552114085117663e-001	 1.330974959675125e+000	 3.286441744911083e+000
 4.412521612679873e-001	 1.335667719704843e+000	 3.161394898570942e+000
 4.272793513320475e-001	 1.340202990707701e+000	 3.037853292274352e+000
 4.132954895833138e-001	 1.344581172810493e+000	 2.913615536134857e+000
 5.549493234893047e-001	 1.299824769975957e+000	 4.345769878138790e+000
 5.410915018559988e-001	 1.305654283744792e+000	 4.189299944975349e+000
 5.272018919692492e-001	 1.311324222895143e+000	 4.034701487433297e+000
 5.132831328893409e-001	 1.316834615457133e+000	 3.883654954279624e+000
 4.993378510781066e-001	 1.322185545043417e+000	 3.737438117312546e+000
 4.853686590083604e-001	 1.327377150193642e+000	 3.596928961790038e+000
 4.713781538039354e-001	 1.332409623679769e+000	 3.462611810854446e+000
 4.573689159114936e-001	 1.337283211773700e+000	 3.333611337280481e+000
 4.433435078052139e-001	 1.341998213478724e+000	 3.207169583887576e+000
 4.293044727253903e-001	 1.346554979726283e+000	 3.081638411947214e+000
 4.152543334518897e-001	 1.350953912539617e+000	 2.955255283358718e+000
 5.575671386293674e-001	 1.305956322561644e+000	 4.389841117476285e+000
 5.436439466752399e-001	 1.311813335398765e+000	 4.233404665350244e+000
 5.296888165155946e-001	 1.317510020869568e+000	 4.078977701643891e+000
 5.157043996597350e-001	 1.323046407136414e+000	 3.928376737013743e+000
 5.016933349590823e-001	 1.328422578206398e+000	 3.783002857516275e+000
 4.876582472100503e-001	 1.333638673272707e+000	 3.643839933257185e+000
 4.736017457876673e-001	 1.338694886016667e+000	 3.510035072431793e+000
 4.595264233111201e-001	 1.343591463871916e+000	 3.379763679314271e+000
 4.454348543423330e-001	 1.348328707252225e+000	 3.251702088652810e+000
 4.313295941186147e-001	 1.352906968744470e+000	 3.124345233892481e+000
 4.172131773203306e-001	 1.357326652268342e+000	 2.996030981634519e+000
 5.601849537693447e-001	 1.312087875147197e+000	 4.433750384450213e+000
 5.461963914943675e-001	 1.317972387052602e+000	 4.277629900381958e+000
 5.321757410618095e-001	 1.323695818843844e+000	 4.123720118138418e+000
 5.181256664299905e-001	 1.329258198815531e+000	 3.973976755993040e+000
 5.040488188399180e-001	 1.334659611369196e+000	 3.829875098771727e+000
 4.899478354116040e-001	 1.339900196351570e+000	 3.691015244285705e+000
 4.758253377712690e-001	 1.344980148353344e+000	 3.556327144039903e+000
 4.616839307106233e-001	 1.349899715969893e+000	 3.424802519823675e+000
 4.475262008793347e-001	 1.354659201025471e+000	 3.295224528613591e+000
 4.333547155117242e-001	 1.359258957762394e+000	 3.166192885295923e+000
 4.191720211886539e-001	 1.363699391996801e+000	 3.036148293847943e+000
 5.628027689091538e-001	 1.318219427732684e+000	 4.477410993027799e+000
 5.487488363133045e-001	 1.324131438706370e+000	 4.321878368083247e+000
 5.346626656078232e-001	 1.329881616818045e+000	 4.168822025343242e+000
 5.205469332000440e-001	 1.335469990494566e+000	 4.020262895162706e+000
 5.064043027205591e-001	 1.340896644531904e+000	 3.876570845452986e+000
 4.922374236129757e-001	 1.346161719430332e+000	 3.737271359099964e+000
 4.780489297547056e-001	 1.351265410689909e+000	 3.601704286522544e+000
 4.638414381099803e-001	 1.356207968067750e+000	 3.468972819496704e+000
 4.496175474162085e-001	 1.360989694798590e+000	 3.337969397253614e+000
 4.353798369047222e-001	 1.365610946780186e+000	 3.207400948419096e+000
 4.211308650568782e-001	 1.370072131725126e+000	 3.075813415556621e+000
 5.654205840487115e-001	 1.324350980318171e+000	 4.520739243559502e+000
 5.513012811319733e-001	 1.330290490360137e+000	 4.366055263186135e+000
 5.371495901535648e-001	 1.336067414792247e+000	 4.214141375446999e+000
 5.229681999698324e-001	 1.341681782173601e+000	 4.066324889685284e+000
 5.087597866009510e-001	 1.347133677694612e+000	 3.922662862616236e+000
 4.945270118141210e-001	 1.352423242509094e+000	 3.782877100125743e+000
 4.802725217379431e-001	 1.357550673026475e+000	 3.646423717910276e+000
 4.659989455091683e-001	 1.362516220165607e+000	 3.512519820299943e+000
 4.517088939529443e-001	 1.367320188571709e+000	 3.380169550186291e+000
 4.374049582976120e-001	 1.371962935797978e+000	 3.248189447579015e+000
 4.230897089250207e-001	 1.376444871453451e+000	 3.115233064135095e+000
 5.680383991879352e-001	 1.330482532903724e+000	 4.563654551843396e+000
 5.538537259502967e-001	 1.336449542013974e+000	 4.410132226054057e+000
 5.396365146989636e-001	 1.342253212766523e+000	 4.259437525334619e+000
 5.253894667392928e-001	 1.347893573852719e+000	 4.112157635114285e+000
 5.111152704810392e-001	 1.353370710857411e+000	 3.968431243884486e+000
 4.968166000149945e-001	 1.358684765587958e+000	 3.828101377296552e+000
 4.824961137209469e-001	 1.363835935363151e+000	 3.690742832220340e+000
 4.681564529081643e-001	 1.368824472263584e+000	 3.555689026055921e+000
 4.538002404895318e-001	 1.373650682344955e+000	 3.422058188747581e+000
 4.394300796903970e-001	 1.378314924815902e+000	 3.288778835362426e+000
 4.250485527931001e-001	 1.382817611181910e+000	 3.154614467190043e+000
 5.706562143267417e-001	 1.336614085489412e+000	 4.606271647216063e+000
 5.564061707681970e-001	 1.342608593667948e+000	 4.454538111853773e+000
 5.421234392439489e-001	 1.348439010740948e+000	 4.304934354514711e+000
 5.278107335083614e-001	 1.354105365531999e+000	 4.158051987241977e+000
 5.134707543607684e-001	 1.359607744020392e+000	 4.014156047221038e+000
 4.991061882155511e-001	 1.364946288667022e+000	 3.873213160637520e+000
 4.847197057036826e-001	 1.370121197700050e+000	 3.734919175817124e+000
 4.703139603069457e-001	 1.375132724361800e+000	 3.598726182218953e+000
 4.558915870259609e-001	 1.379981176118456e+000	 3.463868842815495e+000
 4.414552010830806e-001	 1.384666913834088e+000	 3.329389978091959e+000
 4.270073966611341e-001	 1.389190350910635e+000	 3.194165350266478e+000
 5.732740294650478e-001	 1.342745638075299e+000	 4.649656266542483e+000
 5.589586155855971e-001	 1.348767645322129e+000	 4.499626635184689e+000
 5.446103637884494e-001	 1.354624808715595e+000	 4.350932995238600e+000
 5.302320002769753e-001	 1.360317157211525e+000	 4.204298629721794e+000
 5.158262382400847e-001	 1.365844777183646e+000	 4.060117262590434e+000
 5.013957764157462e-001	 1.371207811746390e+000	 3.918481452047725e+000
 4.869432976861156e-001	 1.376406460037280e+000	 3.779210422979864e+000
 4.724714677054895e-001	 1.381440976460375e+000	 3.641877254878241e+000
 4.579829335622211e-001	 1.386311669892337e+000	 3.505835352880331e+000
 4.434803224756664e-001	 1.391018902852671e+000	 3.370244140576185e+000
 4.289662405291407e-001	 1.395563090639759e+000	 3.234093923871323e+000
 5.758918446027709e-001	 1.348877190661454e+000	 4.694254253671139e+000
 5.615110604024198e-001	 1.354926696976587e+000	 4.545708743218337e+000
 5.470972883323950e-001	 1.360810606690540e+000	 4.397734256557421e+000
 5.326532670450713e-001	 1.366528948891380e+000	 4.251188036511388e+000
 5.181817221189331e-001	 1.372081810347265e+000	 4.106594778838033e+000
 5.036853646155343e-001	 1.377469334826162e+000	 3.964175256303752e+000
 4.891668896682118e-001	 1.382691722374954e+000	 3.823874350707172e+000
 4.746289751037728e-001	 1.387749228559429e+000	 3.685388409016846e+000
 4.600742800983026e-001	 1.392642163666725e+000	 3.548191851389498e+000
 4.455054438681574e-001	 1.397370891871780e+000	 3.411562970160345e+000
 4.309250843971381e-001	 1.401935830369417e+000	 3.274608869831357e+000
 4.113366457145843e-001	 1.338208433080836e+000	 2.870906619847804e+000
 3.974105393917957e-001	 1.342409967753466e+000	 2.748531197174381e+000
 3.834783649380568e-001	 1.346456100879377e+000	 2.627555447006852e+000
 3.695425524810588e-001	 1.350347375248399e+000	 2.508758840949818e+000
 3.556055074431778e-001	 1.354084380660318e+000	 2.392849630972742e+000
 3.416696095105594e-001	 1.357667752958321e+000	 2.280480050372645e+000
 3.277372116407853e-001	 1.361098173039149e+000	 2.172260880750268e+000
 3.138106391095596e-001	 1.364376365841549e+000	 2.068775384885441e+000
 2.998921885967779e-001	 1.367503099314640e+000	 1.970592609990572e+000
 2.859841273122783e-001	 1.370479183367836e+000	 1.878280069895996e+000
 2.720886921614973e-001	 1.373305468803879e+000	 1.792415818302471e+000
 4.132954895833138e-001	 1.344581172810493e+000	 2.913615536134857e+000
 3.993030651523370e-001	 1.348802715791266e+000	 2.788930234486853e+000
 3.853045436931127e-001	 1.352868117181002e+000	 2.665921367636448e+000
 3.713023669059576e-001	 1.356777922354374e+000	 2.545375798321939e+000
 3.572989516682235e-001	 1.360532723919882e+000	 2.428006545423678e+000
 3.432966889984714e-001	 1.364133160748689e+000	 2.314468116168255e+000
 3.292979430594139e-001	 1.367579916980069e+000	 2.205371186699826e+000
 3.153050502000596e-001	 1.370873721005026e+000	 2.101296632238033e+000
 3.013203180374323e-001	 1.374015344429769e+000	 2.002808912712762e+000
 2.873460245781569e-001	 1.377005601020615e+000	 1.910468823932047e+000
 2.733844173801429e-001	 1.379845345631952e+000	 1.824845627969380e+000
 4.152543334518897e-001	 1.350953912539617e+000	 2.955255283358718e+000
 4.011955909126853e-001	 1.355195463828543e+000	 2.828527846186811e+000
 3.871307224479303e-001	 1.359280133482124e+000	 2.703773811698661e+000
 3.730621813305708e-001	 1.363208469459882e+000	 2.581776664576377e+000
 3.589923958929374e-001	 1.366981067179019e+000	 2.463243513070733e+000
 3.449237684860103e-001	 1.370598568538679e+000	 2.348820566351901e+000
 3.308586744776357e-001	 1.374061660920658e+000	 2.239107941478962e+000
 3.167994612901309e-001	 1.377371076168225e+000	 2.134673802572562e+000
 3.027484474776503e-001	 1.380527589544668e+000	 2.036067839541368e+000
 2.887079218436093e-001	 1.383532018673209e+000	 1.943834097965146e+000
 2.746801425983933e-001	 1.386385222459879e+000	 1.858523175421549e+000
 4.172131773203306e-001	 1.357326652268342e+000	 2.996030981634519e+000
 4.030881166728740e-001	 1.361588211865426e+000	 2.867515037762575e+000
 3.889569012025585e-001	 1.365692149782872e+000	 2.741289125502070e+000
 3.748219957549624e-001	 1.369639016565036e+000	 2.618122746586827e+000
 3.606858401173979e-001	 1.373429410437834e+000	 2.498706587093159e+000
 3.465508479732667e-001	 1.377063976328380e+000	 2.383668153570762e+000
 3.324194058955513e-001	 1.380543404860995e+000	 2.273586718929568e+000
 3.182938723798802e-001	 1.383868431331206e+000	 2.169007582064867e+000
 3.041765769175411e-001	 1.387039834659384e+000	 2.070455650086115e+000
 2.900698191087421e-001	 1.390058436325648e+000	 1.978448356340736e+000
 2.759758678163474e-001	 1.392925099287674e+000	 1.893507931168317e+000
 4.191720211886539e-001	 1.363699391996801e+000	 3.036148293847943e+000
 4.049806424329367e-001	 1.367980959902048e+000	 2.906083435773782e+000
 3.907830799570471e-001	 1.372104166083367e+000	 2.778644357415384e+000
 3.765818101791976e-001	 1.376069563669956e+000	 2.654576134435617e+000
 3.623792843416839e-001	 1.379877753696433e+000	 2.534542682739656e+000
 3.481779274603316e-001	 1.383529384117886e+000	 2.419142566749591e+000
 3.339801373132610e-001	 1.387025148801159e+000	 2.308924096437620e+000
 3.197882834694139e-001	 1.390365786494034e+000	 2.204399718554547e+000
 3.056047063572133e-001	 1.393552079773962e+000	 2.106059712466551e+000
 2.914317163736617e-001	 1.396584853977964e+000	 2.014385205429403e+000
 2.772715930341038e-001	 1.399464976115353e+000	 1.929860525952533e+000
 4.211308650568782e-001	 1.370072131725126e+000	 3.075813415556621e+000
 4.068731681929064e-001	 1.374373707938537e+000	 2.944425279400573e+000
 3.926092587114450e-001	 1.378516182383736e+000	 2.816017250594407e+000
 3.783416246033405e-001	 1.382500110774756e+000	 2.691299694914040e+000
 3.640727285658739e-001	 1.386326096954921e+000	 2.570899571264192e+000
 3.498050069472954e-001	 1.389994791907289e+000	 2.455376425185390e+000
 3.355408687308650e-001	 1.393506892741225e+000	 2.345237648984216e+000
 3.212826945588388e-001	 1.396863141656769e+000	 2.240953015413484e+000
 3.070328357967758e-001	 1.400064324888450e+000	 2.142968496916828e+000
 2.927936136384748e-001	 1.403111271630186e+000	 2.051719386963978e+000
 2.785673182517615e-001	 1.406004852942930e+000	 1.967642743877601e+000
 4.230897089250207e-001	 1.376444871453451e+000	 3.115233064135095e+000
 4.087656939528173e-001	 1.380766455975027e+000	 2.982733411283115e+000
 3.944354374658013e-001	 1.384928198684105e+000	 2.853586235054893e+000
 3.801014390274559e-001	 1.388930657879554e+000	 2.728457064429391e+000
 3.657661727900466e-001	 1.392774440213404e+000	 2.607925873332009e+000
 3.514320864342495e-001	 1.396460199696681e+000	 2.492503272187075e+000
 3.371016001484642e-001	 1.399988636681272e+000	 2.382645942809682e+000
 3.227771056482616e-001	 1.403360496819475e+000	 2.278771325088681e+000
 3.084609652363379e-001	 1.406576570002893e+000	 2.181271569139446e+000
 2.941555109032878e-001	 1.409637689282346e+000	 2.090526771185519e+000
 2.798630434694192e-001	 1.412544729770422e+000	 2.006917515394338e+000
 4.250485527931001e-001	 1.382817611181910e+000	 3.154614467190043e+000
 4.106582197127024e-001	 1.387159204011648e+000	 3.021201267677192e+000
 3.962616162201657e-001	 1.391340214984599e+000	 2.891530419113009e+000
 3.818612534516080e-001	 1.395361204984467e+000	 2.766212641339950e+000
 3.674596170142805e-001	 1.399222783471986e+000	 2.645771051918741e+000
 3.530591659212842e-001	 1.402925607486154e+000	 2.530657568269660e+000
 3.386623315661588e-001	 1.406470380621379e+000	 2.421268528697956e+000
 3.242715167377889e-001	 1.409857851982213e+000	 2.317959542339031e+000
 3.098890946760083e-001	 1.413088815117338e+000	 2.221059583406420e+000
 2.955174081682073e-001	 1.416164106934472e+000	 2.130884349796858e+000
 2.811587686871757e-001	 1.419084606597842e+000	 2.047748910154862e+000
 4.270073966611341e-001	 1.389190350910635e+000	 3.194165350266478e+000
 4.125507454725953e-001	 1.393551952048531e+000	 3.060022867946256e+000
 3.980877949745868e-001	 1.397752231285342e+000	 2.930029580215892e+000
 3.836210678758616e-001	 1.401791752089610e+000	 2.804731577735190e+000
 3.691530612386543e-001	 1.405671126730774e+000	 2.684585404716070e+000
 3.546862454084905e-001	 1.409391015275801e+000	 2.569974683918822e+000
 3.402230629840488e-001	 1.412952124561623e+000	 2.461225934897984e+000
 3.257659278275275e-001	 1.416355207145046e+000	 2.358623597168389e+000
 3.113172241158959e-001	 1.419601060231833e+000	 2.262424275425749e+000
 2.968793054333397e-001	 1.422690524586597e+000	 2.172870228737953e+000
 2.824544939051298e-001	 1.425624483425207e+000	 2.090202129734547e+000
 4.289662405291407e-001	 1.395563090639759e+000	 3.234093923871323e+000
 4.144432712325297e-001	 1.399944700085807e+000	 3.099392803410413e+000
 3.999139737291143e-001	 1.404164247586460e+000	 2.969264155177886e+000
 3.853808823002809e-001	 1.408222299195100e+000	 2.844179770679892e+000
 3.708465054632466e-001	 1.412119469989872e+000	 2.724520056059695e+000
 3.563133248959594e-001	 1.415856423065714e+000	 2.610590891941220e+000
 3.417837944022349e-001	 1.419433868502080e+000	 2.502639659692441e+000
 3.272603389175837e-001	 1.422852562308036e+000	 2.400870447467562e+000
 3.127453535561096e-001	 1.426113305346421e+000	 2.305458454972592e+000
 2.982412026987918e-001	 1.429216942238750e+000	 2.216563620782103e+000
 2.837502191233803e-001	 1.432164360252531e+000	 2.134343500228257e+000
 4.309250843971381e-001	 1.401935830369417e+000	 3.274608869831357e+000
 4.163357969925388e-001	 1.406337448123606e+000	 3.139506225573872e+000
 4.017401524837977e-001	 1.410576263888079e+000	 3.009415229843894e+000
 3.871406967249308e-001	 1.414652846301055e+000	 2.884723852936407e+000
 3.725399496881360e-001	 1.418567813249386e+000	 2.765726948394923e+000
 3.579404043837813e-001	 1.422321830855985e+000	 2.652643359412850e+000
 3.433445258208177e-001	 1.425915612442830e+000	 2.545632163624255e+000
 3.287547500080646e-001	 1.429349917471246e+000	 2.444808071376653e+000
 3.141734829967585e-001	 1.432625550461151e+000	 2.350255998299188e+000
 2.996030999646699e-001	 1.435743359890963e+000	 2.262044837964436e+000
 2.850459443420262e-001	 1.438704237079830e+000	 2.180240464725354e+000
 2.720886921614973e-001	 1.373305468803879e+000	 1.792415818302471e+000
 2.582101691847495e-001	 1.375982455966176e+000	 1.712865088728547e+000
 2.443486435126754e-001	 1.378511509869538e+000	 1.638699431984160e+000
 2.305062524757509e-001	 1.380893598158766e+000	 1.569400374507166e+000
 2.166851002555811e-001	 1.383129724925904e+000	 1.504514645687037e+000
 2.028872572520457e-001	 1.385220929583866e+000	 1.443665125236235e+000
 1.891147594902251e-001	 1.387168285732491e+000	 1.386561239536983e+000
 1.753696080669008e-001	 1.388972900018493e+000	 1.333008829569945e+000
 1.616537686363682e-001	 1.390635910990750e+000	 1.282919513237165e+000
 1.479691709352418e-001	 1.392158487952350e+000	 1.236319564752489e+000
 1.343177083458908e-001	 1.393541829810749e+000	 1.193358333337236e+000
 2.733844173801429e-001	 1.379845345631952e+000	 1.824845627969379e+000
 2.594398028944461e-001	 1.382535080989893e+000	 1.745754589031410e+000
 2.455122666571000e-001	 1.385076178609633e+000	 1.672204292346238e+000
 2.316039561768371e-001	 1.387469610744021e+000	 1.603645590843037e+000
 2.177169856556604e-001	 1.389716386266716e+000	 1.539593646904814e+000
 2.038534353529740e-001	 1.391817549540453e+000	 1.479638914653588e+000
 1.900153509896849e-001	 1.393774179277689e+000	 1.423457566778825e+000
 1.762047431920685e-001	 1.395587387395139e+000	 1.370821390035898e+000
 1.624235869751318e-001	 1.397258317863597e+000	 1.321607173687063e+000
 1.486738212651559e-001	 1.398788145554529e+000	 1.275805614945172e+000
 1.349573484610525e-001	 1.400178075084743e+000	 1.233529764956865e+000
 2.746801425983933e-001	 1.386385222459879e+000	 1.858523175421549e+000
 2.606694366038011e-001	 1.389087706013494e+000	 1.779898645997582e+000
 2.466758898012532e-001	 1.391640847349633e+000	 1.706918116915091e+000
 2.327016598777328e-001	 1.394045623329195e+000	 1.639012541223005e+000
 2.187488710556333e-001	 1.396303047607457e+000	 1.575676237798105e+000
 2.048196134538770e-001	 1.398414169496971e+000	 1.516477886133074e+000
 1.909159424891912e-001	 1.400380072822822e+000	 1.461070961735328e+000
 1.770398783173379e-001	 1.402201874771716e+000	 1.409203637865568e+000
 1.631934053140300e-001	 1.403880724736372e+000	 1.360728179406746e+000
 1.493784715952081e-001	 1.405417803156628e+000	 1.315609854378342e+000
 1.355969885763211e-001	 1.406814320358652e+000	 1.273935387995560e+000
 2.759758678163474e-001	 1.392925099287674e+000	 1.893507931168313e+000
 2.618990703128997e-001	 1.395640331036978e+000	 1.815345053583403e+000
 2.478395129452027e-001	 1.398205516089525e+000	 1.742878659258070e+000
 2.337993635784846e-001	 1.400621635914264e+000	 1.675530456187721e+000
 2.197807564555245e-001	 1.402889708948090e+000	 1.612784525853582e+000
 2.057857915547572e-001	 1.405010789453377e+000	 1.554198307998502e+000
 1.918165339887250e-001	 1.406985966367832e+000	 1.499413022584513e+000
 1.778750134426725e-001	 1.408816362148160e+000	 1.448163556319488e+000
 1.639632236530121e-001	 1.410503131609001e+000	 1.400287841155808e+000
 1.500831219253405e-001	 1.412047460758570e+000	 1.355735751777714e+000
 1.362366286916379e-001	 1.413450565632394e+000	 1.314577548409969e+000
 2.772715930341038e-001	 1.399464976115353e+000	 1.929860525952533e+000
 2.631287040218273e-001	 1.402192956060347e+000	 1.852142760535792e+000
 2.490031360890160e-001	 1.404770184829297e+000	 1.780124793975808e+000
 2.348970672791394e-001	 1.407197648499203e+000	 1.713229628824488e+000
 2.208126418553583e-001	 1.409476370288579e+000	 1.650941601496965e+000
 2.067519696556165e-001	 1.411607409409621e+000	 1.592817334406828e+000
 1.927171254882681e-001	 1.413591859912662e+000	 1.538496122342994e+000
 1.787101485680357e-001	 1.415430849524405e+000	 1.487709782230156e+000
 1.647330419920285e-001	 1.417125538481411e+000	 1.440291995325161e+000
 1.507877722554951e-001	 1.418677118360277e+000	 1.396187170469065e+000
 1.368762688069441e-001	 1.420086810905885e+000	 1.355458856198942e+000
 2.785673182517615e-001	 1.406004852942930e+000	 1.967642743877601e+000
 2.643583377306694e-001	 1.408745581083601e+000	 1.890341863583992e+000
 2.501667592327607e-001	 1.411334853568936e+000	 1.818696510352374e+000
 2.359947709797438e-001	 1.413773661083987e+000	 1.752141409225170e+000
 2.218445272551593e-001	 1.416063031628888e+000	 1.690171533646380e+000
 2.077181477564574e-001	 1.418204029365658e+000	 1.632353002212574e+000
 1.936177169878017e-001	 1.420197753457256e+000	 1.578333407214958e+000
 1.795452836933910e-001	 1.422045336900386e+000	 1.527851605939318e+000
 1.655028603310289e-001	 1.423747945353533e+000	 1.480747005518581e+000
 1.514924225856141e-001	 1.425306775961670e+000	 1.436968371604341e+000
 1.375159089221811e-001	 1.426723056179039e+000	 1.396582190214315e+000
 2.798630434694192e-001	 1.412544729770422e+000	 2.006917515394338e+000
 2.655879714395114e-001	 1.415298206106741e+000	 1.929993600528611e+000
 2.513303823765045e-001	 1.417899522308429e+000	 1.858634905940031e+000
 2.370924746803448e-001	 1.420349673668590e+000	 1.792298198890224e+000
 2.228764126549521e-001	 1.422649692968980e+000	 1.730499365206362e+000
 2.086843258572822e-001	 1.424800649321441e+000	 1.672824227773565e+000
 1.945183084873072e-001	 1.426803647001559e+000	 1.618938794861594e+000
 1.803804188187018e-001	 1.428659824276040e+000	 1.568598971141967e+000
 1.662726786699633e-001	 1.430370352225293e+000	 1.521659764016326e+000
 1.521970729156393e-001	 1.431936433562669e+000	 1.478084017237317e+000
 1.381555490372899e-001	 1.433359301451775e+000	 1.437950702791434e+000
 2.811587686871757e-001	 1.419084606597842e+000	 2.047748910154862e+000
 2.668176051484386e-001	 1.421850831129768e+000	 1.971150343241596e+000
 2.524940055203146e-001	 1.424464191047764e+000	 1.899982180075786e+000
 2.381901783809890e-001	 1.426925686252988e+000	 1.833733445082473e+000
 2.239082980547608e-001	 1.429236354308818e+000	 1.771951108517268e+000
 2.096505039580927e-001	 1.431397269276922e+000	 1.714250803700600e+000
 1.954188999867662e-001	 1.433409540545514e+000	 1.660326972604534e+000
 1.812155539439319e-001	 1.435274311651301e+000	 1.609962474635199e+000
 1.670424970087817e-001	 1.436992759096619e+000	 1.563037693117362e+000
 1.529017232455130e-001	 1.438566091163198e+000	 1.519539173253164e+000
 1.387951891522120e-001	 1.439995546724006e+000	 1.479567824205890e+000
 2.824544939051298e-001	 1.425624483425207e+000	 2.090202129734547e+000
 2.680472388575366e-001	 1.428403456152684e+000	 2.013865590574845e+000
 2.536576286642590e-001	 1.431028859786927e+000	 1.942781627335929e+000
 2.392878820817231e-001	 1.433501698837155e+000	 1.876481635128679e+000
 2.249401834546101e-001	 1.435823015648366e+000	 1.814553740757436e+000
 2.106166820588915e-001	 1.437993889232055e+000	 1.756653395551252e+000
 1.963194914861600e-001	 1.440015434089065e+000	 1.702513395557067e+000
 1.820506890690446e-001	 1.441888799026105e+000	 1.651953365981379e+000
 1.678123153474339e-001	 1.443615165967438e+000	 1.604888746371611e+000
 1.536063735751770e-001	 1.445195748763177e+000	 1.561339312158346e+000
 1.394348292668886e-001	 1.446631791995650e+000	 1.521437266961331e+000
 2.837502191233803e-001	 1.432164360252531e+000	 2.134343500228257e+000
 2.692768725668908e-001	 1.434956081175486e+000	 2.058193961181438e+000
 2.548212518084049e-001	 1.437593528525907e+000	 1.987077630927403e+000
 2.403855857825941e-001	 1.440077711421066e+000	 1.920578290673826e+000
 2.259720688545246e-001	 1.442409676987588e+000	 1.858335199294417e+000
 2.115828601596805e-001	 1.444590509186793e+000	 1.800053538472723e+000
 1.972200829854698e-001	 1.446621327632154e+000	 1.745514284690583e+000
 1.828858241940033e-001	 1.448503286400387e+000	 1.694583547083139e+000
 1.685821336858697e-001	 1.450237572837680e+000	 1.647221409700471e+000
 1.543110239045736e-001	 1.451825406362528e+000	 1.603490315733681e+000
 1.400744693812610e-001	 1.453268037266624e+000	 1.563563029915817e+000
 2.850459443420262e-001	 1.438704237079830e+000	 2.180240464725354e+000
 2.705065062765865e-001	 1.441508706198178e+000	 2.104191186255360e+000
 2.559848749528201e-001	 1.444158197264690e+000	 2.032915656020432e+000
 2.414832894836484e-001	 1.446653724004696e+000	 1.966059961887234e+000
 2.270039542545287e-001	 1.448996338326446e+000	 1.903324376996894e+000
 2.125490382604623e-001	 1.451187129141089e+000	 1.844473633793041e+000
 1.981206744846773e-001	 1.453227221174727e+000	 1.789346624836380e+000
 1.837209593187718e-001	 1.455117773774083e+000	 1.737865571674660e+000
 1.693519520240392e-001	 1.456859979707270e+000	 1.690044702411609e+000
 1.550156742336445e-001	 1.458455063961172e+000	 1.645998477557321e+000
 1.407141094952703e-001	 1.459904282536842e+000	 1.605949402246606e+000
 1.343177083458908e-001	 1.393541829810749e+000	 1.193358333337236e+000
 1.206992022775452e-001	 1.394787340501952e+000	 1.154793843871140e+000
 1.071175469255529e-001	 1.395896057564835e+000	 1.120856893075198e+000
 9.357455252922366e-002	 1.396869262718420e+000	 1.091105655517581e+000
 8.007199073668500e-002	 1.397708262725060e+000	 1.065265973975818e+000
 6.661159435878002e-002	 1.398414388238686e+000	 1.043238908443660e+000
 5.319505715932576e-002	 1.398988992659145e+000	 1.025107873831302e+000
 3.982403368103277e-002	 1.399433450993745e+000	 1.011145379485645e+000
 2.650013910635849e-002	 1.399749158727085e+000	 1.001819382091171e+000
 1.322494915253760e-002	 1.399937530700197e+000	 9.977992619311731e-001
 0.000000000000000e+000	 1.400000000000000e+000	 9.999614162136371e-001
 1.349573484610525e-001	 1.400178075084743e+000	 1.233529764956865e+000
 1.212739891215651e-001	 1.401429517075980e+000	 1.195502959204765e+000
 1.076276559867540e-001	 1.402543514008033e+000	 1.161968693504288e+000
 9.402016791654722e-002	 1.403521353703664e+000	 1.132518138387798e+000
 8.045330499591420e-002	 1.404364349148224e+000	 1.106908057948382e+000
 6.692880828759104e-002	 1.405073837332419e+000	 1.085068345801568e+000
 5.344837962134032e-002	 1.405651178101191e+000	 1.067109160793316e+000
 4.001368141904168e-002	 1.406097753009839e+000	 1.053327676105683e+000
 2.662633655488246e-002	 1.406414964188468e+000	 1.044214453734977e+000
 1.328792824988827e-002	 1.406604233215796e+000	 1.040459454604980e+000
 0.000000000000000e+000	 1.406667000003317e+000	 1.042957678611385e+000
 1.355969885763211e-001	 1.406814320358652e+000	 1.273935387995560e+000
 1.218487759656231e-001	 1.408071693649921e+000	 1.236397640015363e+000
 1.081377650478982e-001	 1.409190970451141e+000	 1.203244324202100e+000
 9.446578330370802e-002	 1.410173444688814e+000	 1.174090384910754e+000
 8.083461925487838e-002	 1.411020435571292e+000	 1.148714317730761e+000
 6.724602221605308e-002	 1.411733286426055e+000	 1.127065699211951e+000
 5.370170208295465e-002	 1.412313363543139e+000	 1.109272327326849e+000
 4.020332915664581e-002	 1.412762055025833e+000	 1.095646986880592e+000
 2.675253400305781e-002	 1.413080769649750e+000	 1.086693852272522e+000
 1.335090734702075e-002	 1.413270935731295e+000	 1.083114538159962e+000
 0.000000000000000e+000	 1.413334000006534e+000	 1.085813792937093e+000
 1.362366286916379e-001	 1.413450565632394e+000	 1.314577548409969e+000
 1.224235628096674e-001	 1.414713870223685e+000	 1.277479567421400e+000
 1.086478741089468e-001	 1.415838426894065e+000	 1.244685176253956e+000
 9.491139869068389e-002	 1.416825535673774e+000	 1.215824025197586e+000
 8.121593351357331e-002	 1.417676521994166e+000	 1.190687302917663e+000
 6.756323614417877e-002	 1.418392735519495e+000	 1.169235266484775e+000
 5.395502454419462e-002	 1.418975548984888e+000	 1.151604393106785e+000
 4.039297689387870e-002	 1.419426357041628e+000	 1.138114168339071e+000
 2.687873145091769e-002	 1.419746575110834e+000	 1.129273523616420e+000
 1.341388644395777e-002	 1.419937638246595e+000	 1.125786933983491e+000
 0.000000000000000e+000	 1.420001000009550e+000	 1.128560171536964e+000
 1.368762688069441e-001	 1.420086810905885e+000	 1.355458856198942e+000
 1.229983496536463e-001	 1.421356046797183e+000	 1.318750562828748e+000
 1.091579831698613e-001	 1.422485883336712e+000	 1.286292667097024e+000
 9.535701407745290e-002	 1.423477626658451e+000	 1.257720610128744e+000
 8.159724777199491e-002	 1.424332608416751e+000	 1.232829385174951e+000
 6.788045007198064e-002	 1.425052184612641e+000	 1.211581074246306e+000
 5.420834700508614e-002	 1.425637734426340e+000	 1.194112017378298e+000
 4.058262463077385e-002	 1.426090659057124e+000	 1.180739629908798e+000
 2.700492889849534e-002	 1.426412380571618e+000	 1.171968881067148e+000
 1.347686554072209e-002	 1.426604340761593e+000	 1.168498445079730e+000
 0.000000000000000e+000	 1.426668000012267e+000	 1.171226520933768e+000
 1.375159089221811e-001	 1.426723056179039e+000	 1.396582190214315e+000
 1.235731364975081e-001	 1.427998223370329e+000	 1.360212594148993e+000
 1.096680922306028e-001	 1.429133339778993e+000	 1.328068247931826e+000
 9.580262946399300e-002	 1.430129717642750e+000	 1.299781619794306e+000
 8.197856203013890e-002	 1.430988694838949e+000	 1.275142767623839e+000
 6.819766399947123e-002	 1.431711633705393e+000	 1.254106888230451e+000
 5.446166946565508e-002	 1.432299919867397e+000	 1.236801510177504e+000
 4.077227236736475e-002	 1.432754961072221e+000	 1.223533346160733e+000
 2.713112634582392e-002	 1.433078186032001e+000	 1.214794818722600e+000
 1.353984463733646e-002	 1.433271043276193e+000	 1.211270270851498e+000
 0.000000000000000e+000	 1.433335000014584e+000	 1.213841858242758e+000
 1.381555490372899e-001	 1.433359301451775e+000	 1.437950702791434e+000
 1.241479233412011e-001	 1.434640399943033e+000	 1.401867781810885e+000
 1.101782012911328e-001	 1.435780796220815e+000	 1.370013410899586e+000
 9.624824485028212e-002	 1.436781808626576e+000	 1.342008471688089e+000
 8.235987628800122e-002	 1.437644781260665e+000	 1.317629493949234e+000
 6.851487792666318e-002	 1.438371082797657e+000	 1.296816223274199e+000
 5.471499192592734e-002	 1.438962105307958e+000	 1.279678843241947e+000
 4.096192010368493e-002	 1.439419263086821e+000	 1.266504868711530e+000
 2.725732379293666e-002	 1.439743991491885e+000	 1.257765724516514e+000
 1.360282373382363e-002	 1.439937745790292e+000	 1.254123021472743e+000
 0.000000000000000e+000	 1.440002000016400e+000	 1.256434527129968e+000
 1.387951891522120e-001	 1.439995546724006e+000	 1.479567824205890e+000
 1.247227101846736e-001	 1.441282576515208e+000	 1.443718404573023e+000
 1.106883103514126e-001	 1.442428252662085e+000	 1.412129696037475e+000
 9.669386023629828e-002	 1.443433899609835e+000	 1.384402528653419e+000
 8.274119054557766e-002	 1.444300867681801e+000	 1.360291457250750e+000
 6.883209185356908e-002	 1.445030531889332e+000	 1.339712353031330e+000
 5.496831438592883e-002	 1.445624290747925e+000	 1.322749660610104e+000
 4.115156783976792e-002	 1.446083565100824e+000	 1.309663337794714e+000
 2.738352123986675e-002	 1.446409796951171e+000	 1.300895492895771e+000
 1.366580283020633e-002	 1.446604448303791e+000	 1.297076731862310e+000
 0.000000000000000e+000	 1.446669000017617e+000	 1.299032213331703e+000
 1.394348292668886e-001	 1.446631791995650e+000	 1.521437266961331e+000
 1.252974970278738e-001	 1.447924753086764e+000	 1.485766905140083e+000
 1.111984194114034e-001	 1.449075709102713e+000	 1.454418698018039e+000
 9.713947562201938e-002	 1.450085990592432e+000	 1.426965106595878e+000
 8.312250480286401e-002	 1.450956954102260e+000	 1.403130408633313e+000
 6.914930578020141e-002	 1.451689980980320e+000	 1.382798319410940e+000
 5.522163684568544e-002	 1.452286476187199e+000	 1.366019288929552e+000
 4.134121557564721e-002	 1.452747867114128e+000	 1.353017493511007e+000
 2.750971868664739e-002	 1.453075602409757e+000	 1.344197537146680e+000
 1.372878192650734e-002	 1.453271150816591e+000	 1.340150875272545e+000
 0.000000000000000e+000	 1.453336000018133e+000	 1.341661959744451e+000
 1.400744693812610e-001	 1.453268037266624e+000	 1.563563029915817e+000
 1.258722838707502e-001	 1.454566929657613e+000	 1.528015895592747e+000
 1.117085284710667e-001	 1.455723165542607e+000	 1.496882072680576e+000
 9.758509100742349e-002	 1.456738081574272e+000	 1.469697481968472e+000
 8.350381905985616e-002	 1.457613040521948e+000	 1.446147965553613e+000
 6.946651970657285e-002	 1.458349430070525e+000	 1.426076941752124e+000
 5.547495930522307e-002	 1.458948661625681e+000	 1.409492747476817e+000
 4.153086331135633e-002	 1.459412169126637e+000	 1.396575686770121e+000
 2.763591613331179e-002	 1.459741407867544e+000	 1.387684801383885e+000
 1.379176102274939e-002	 1.459937853328589e+000	 1.383364376508013e+000
 0.000000000000000e+000	 1.460003000017850e+000	 1.384350181102590e+000
 1.407141094952703e-001	 1.459904282536842e+000	 1.605949402246606e+000
 1.264470707132509e-001	 1.461209106227669e+000	 1.570468162634783e+000
 1.122186375303638e-001	 1.462370621981674e+000	 1.539521543356953e+000
 9.803070639248851e-002	 1.463390172555262e+000	 1.512600899031906e+000
 8.388513331654991e-002	 1.464269126940766e+000	 1.489345619930224e+000
 6.978373363269591e-002	 1.465008879159846e+000	 1.469550825739108e+000
 5.572828176456757e-002	 1.465610847063272e+000	 1.453174757899800e+000
 4.172051104692880e-002	 1.466076471138249e+000	 1.440345889929481e+000
 2.776211357989313e-002	 1.466407213324432e+000	 1.431369772211912e+000
 1.385474011895523e-002	 1.466604555839689e+000	 1.426735624780578e+000
 0.000000000000000e+000	 1.466670000016666e+000	 1.427122678256031e+000
 1.466670000016666e+000	 0.000000000000000e+000	 1.511262160606904e+001
 1.466604555839689e+000	 1.385474011895528e-002	 1.511239268993804e+001
 1.466407213324432e+000	 2.776211357989323e-002	 1.511190689825382e+001
 1.466076471138249e+000	 4.172051104692869e-002	 1.511099389072780e+001
 1.465610847063272e+000	 5.572828176456753e-002	 1.510949616813412e+001
 1.465008879159847e+000	 6.978373363269590e-002	 1.510726910709116e+001
 1.464269126940766e+000	 8.388513331654994e-002	 1.510418113412374e+001
 1.463390172555262e+000	 9.803070639248858e-002	 1.510011405550669e+001
 1.462370621981674e+000	 1.122186375303636e-001	 1.509496355793319e+001
 1.461209106227669e+000	 1.264470707132508e-001	 1.508863989597853e+001
 1.459904282536843e+000	 1.407141094952702e-001	 1.508106878325654e+001
 1.473336000014533e+000	 0.000000000000000e+000	 1.504349994497529e+001
 1.473270258394459e+000	 1.391770976875623e-002	 1.504351431389117e+001
 1.473072018959543e+000	 2.788829209775665e-002	 1.504317658460812e+001
 1.472739773553593e+000	 4.191013033666514e-002	 1.504235323950709e+001
 1.472272033222072e+000	 5.598156622728418e-002	 1.504092239386133e+001
 1.471667329380818e+000	 7.010089997888505e-002	 1.503877375610326e+001
 1.470924214995623e+000	 8.426639037867754e-002	 1.503580872623424e+001
 1.470041265771596e+000	 9.847625493824477e-002	 1.503194064929434e+001
 1.469017081351258e+000	 1.127286700767428e-001	 1.502709523917152e+001
 1.467850286520215e+000	 1.270217713416299e-001	 1.502121118900303e+001
 1.466539532419245e+000	 1.413536536676589e-001	 1.501424098539331e+001
 1.480002000011599e+000	 0.000000000000000e+000	 1.497589575616963e+001
 1.479935960948430e+000	 1.398067941857050e-002	 1.497615638585123e+001
 1.479736824593857e+000	 2.801447061561839e-002	 1.497596471654599e+001
 1.479403075968142e+000	 4.209974962636292e-002	 1.497522561261631e+001
 1.478933219380080e+000	 5.623485068990968e-002	 1.497385433759644e+001
 1.478325779601007e+000	 7.041806632492183e-002	 1.497177643660223e+001
 1.477579303049710e+000	 8.464764744058920e-002	 1.496892775555279e+001
 1.476692358987179e+000	 9.892180348372628e-002	 1.496525461452718e+001
 1.475663540720116e+000	 1.132387026228000e-001	 1.496071415077426e+001
 1.474491466812067e+000	 1.275964719696582e-001	 1.495527484790951e+001
 1.473174782300993e+000	 1.419931978396938e-001	 1.494891726885462e+001
 1.486668000008066e+000	 0.000000000000000e+000	 1.490975877332387e+001
 1.486601663501801e+000	 1.404364906842489e-002	 1.491027060732851e+001
 1.486401630227571e+000	 2.814064913352657e-002	 1.491022445165435e+001
 1.486066378382094e+000	 4.228936891608644e-002	 1.490956508367865e+001
 1.485594405537496e+000	 5.648813515252010e-002	 1.490824642161149e+001
 1.484984229820612e+000	 7.073523267088945e-002	 1.490623132574828e+001
 1.484234391103225e+000	 8.502890450237158e-002	 1.490349153500324e+001
 1.483343452202206e+000	 9.936735202901935e-002	 1.490000775644693e+001
 1.482310000088439e+000	 1.137487351686180e-001	 1.489576992360243e+001
 1.481132647103413e+000	 1.281711725974123e-001	 1.489077764031808e+001
 1.479810032182270e+000	 1.426327420114425e-001	 1.488504082810396e+001
 1.493334000004133e+000	 0.000000000000000e+000	 1.484503767771202e+001
 1.493267366054773e+000	 1.410661871834616e-002	 1.484580782911699e+001
 1.493066435860886e+000	 2.826682765152936e-002	 1.484590830026624e+001
 1.492729680795649e+000	 4.247898820590017e-002	 1.484532528461211e+001
 1.492255591694520e+000	 5.674141961519150e-002	 1.484405283443630e+001
 1.491642680039831e+000	 7.105239901687119e-002	 1.484209257768705e+001
 1.490889479156365e+000	 8.541016156411121e-002	 1.483945356836151e+001
 1.489994545416871e+000	 9.981290057421020e-002	 1.483615228854950e+001
 1.488956459456420e+000	 1.142587677142795e-001	 1.483221281812958e+001
 1.487773827394441e+000	 1.287458732249686e-001	 1.482766718921796e+001
 1.486445282063260e+000	 1.432722861829729e-001	 1.482255594359332e+001
 1.500000000000000e+000	 0.000000000000000e+000	 1.478168012159456e+001
 1.499933068607544e+000	 1.416958836836110e-002	 1.478271807384949e+001
 1.499731241494002e+000	 2.839300616967488e-002	 1.478296814687719e+001
 1.499392983209006e+000	 4.266860749586857e-002	 1.478245942558805e+001
 1.498916777851350e+000	 5.699470407799986e-002	 1.478122754903190e+001
 1.498301130258862e+000	 7.136956536295040e-002	 1.477931433960335e+001
 1.497544567209325e+000	 8.579141862589465e-002	 1.477676756384695e+001
 1.496645638631369e+000	 1.002584491193852e-001	 1.477364084336530e+001
 1.495602918824250e+000	 1.147688002598673e-001	 1.476999373205386e+001
 1.494415007685339e+000	 1.293205738524035e-001	 1.476589197704841e+001
 1.493080531944146e+000	 1.439118303543528e-001	 1.476140798194434e+001
 1.506665999995867e+000	 0.000000000000000e+000	 1.471963275098215e+001
 1.506598771160316e+000	 1.423255801849648e-002	 1.472095055795338e+001
 1.506396047127118e+000	 2.851918468801127e-002	 1.472135527098720e+001
 1.506056285622365e+000	 4.285822678605605e-002	 1.472092031444670e+001
 1.505577964008184e+000	 5.724798854102124e-002	 1.471972434045859e+001
 1.504959580477903e+000	 7.168673170921033e-002	 1.471785076731281e+001
 1.504199655262302e+000	 8.617267568780851e-002	 1.471538744730192e+001
 1.503296731845894e+000	 1.007039976646305e-001	 1.471242648288274e+001
 1.502249378192121e+000	 1.152788328054642e-001	 1.470906420761627e+001
 1.501056187976295e+000	 1.298952744797935e-001	 1.470540134955594e+001
 1.499715781825113e+000	 1.445513745256498e-001	 1.470154339598250e+001
 1.513331999991934e+000	 0.000000000000000e+000	 1.465884122779739e+001
 1.513264473713287e+000	 1.429552766877910e-002	 1.466045371302358e+001
 1.513060852760435e+000	 2.864536320658669e-002	 1.466102036738619e+001
 1.512719588035926e+000	 4.304784607652708e-002	 1.466066037558678e+001
 1.512239150165223e+000	 5.750127300433167e-002	 1.465949680305395e+001
 1.511618030697151e+000	 7.200389805573429e-002	 1.465765604040565e+001
 1.510854743315492e+000	 8.655393274993935e-002	 1.465526737497089e+001
 1.509947825060642e+000	 1.011495462100326e-001	 1.465246270862649e+001
 1.508895837560224e+000	 1.157888653511530e-001	 1.464937643863438e+001
 1.507697368267498e+000	 1.304699751072152e-001	 1.464614551943396e+001
 1.506351031706344e+000	 1.451909186969318e-001	 1.464290972462748e+001
 1.519997999988401e+000	 0.000000000000000e+000	 1.459925025145357e+001
 1.519930176266659e+000	 1.435849731923572e-002	 1.460117520663272e+001
 1.519725658394152e+000	 2.877154172544927e-002	 1.460191356590008e+001
 1.519382890449889e+000	 4.323746536734608e-002	 1.460163166834493e+001
 1.518900336322665e+000	 5.775455746800721e-002	 1.460049836713615e+001
 1.518276480916806e+000	 7.232106440260555e-002	 1.459868437695610e+001
 1.517509831369094e+000	 8.693518981237375e-002	 1.459636174589200e+001
 1.516598918275806e+000	 1.015950947556775e-001	 1.459370347140022e+001
 1.515542296928752e+000	 1.162988978970165e-001	 1.459088327725973e+001
 1.514338548559136e+000	 1.310446757347449e-001	 1.458807556975202e+001
 1.512986281588025e+000	 1.458304628682665e-001	 1.458545559264621e+001
 1.526663999985467e+000	 0.000000000000000e+000	 1.454080357986837e+001
 1.526595878820630e+000	 1.442146696989313e-002	 1.454306196259401e+001
 1.526390464028469e+000	 2.889772024464717e-002	 1.454398445061326e+001
 1.526046192864452e+000	 4.342708465857750e-002	 1.454378590488110e+001
 1.525561522480708e+000	 5.800784193212387e-002	 1.454268231524641e+001
 1.524934931137064e+000	 7.263823074990737e-002	 1.454089004781100e+001
 1.524164919423301e+000	 8.731644687519830e-002	 1.453862521391314e+001
 1.523250011491580e+000	 1.020406433016516e-001	 1.453610318070514e+001
 1.522188756297896e+000	 1.168089304431374e-001	 1.453353824046796e+001
 1.520979728851398e+000	 1.316193763624592e-001	 1.453114345718102e+001
 1.519621531470337e+000	 1.464700070397217e-001	 1.452913071027117e+001
 1.533329999983334e+000	 0.000000000000000e+000	 1.448344404992881e+001
 1.533261581375402e+000	 1.448443662077811e-002	 1.448606018069449e+001
 1.533055269663588e+000	 2.902389876422853e-002	 1.448718207858484e+001
 1.532709495279816e+000	 4.361670395028579e-002	 1.448707446758436e+001
 1.532222708639554e+000	 5.826112639675773e-002	 1.448600179794586e+001
 1.531593381358125e+000	 7.295539709772311e-002	 1.448422739047012e+001
 1.530820007478312e+000	 8.769770393849954e-002	 1.448201269934308e+001
 1.529901104708160e+000	 1.024861918480413e-001	 1.447961671384354e+001
 1.528835215667849e+000	 1.173189629895985e-001	 1.447729551628910e+001
 1.527620909144472e+000	 1.321940769904346e-001	 1.447530201502024e+001
 1.526256781353464e+000	 1.471095512113651e-001	 1.447388587268863e+001
 1.459904282536843e+000	 1.407141094952702e-001	 1.508106878325654e+001
 1.458455063961172e+000	 1.550156742336446e-001	 1.507255111990628e+001
 1.456859979707271e+000	 1.693519520240392e-001	 1.506346619791418e+001
 1.455117773774083e+000	 1.837209593187718e-001	 1.505386781831265e+001
 1.453227221174727e+000	 1.981206744846772e-001	 1.504380340615931e+001
 1.451187129141089e+000	 2.125490382604623e-001	 1.503331537092441e+001
 1.448996338326446e+000	 2.270039542545288e-001	 1.502244281297372e+001
 1.446653724004697e+000	 2.414832894836484e-001	 1.501122360094009e+001
 1.444158197264690e+000	 2.559848749528201e-001	 1.499969684529418e+001
 1.441508706198178e+000	 2.705065062765864e-001	 1.498790579381340e+001
 1.438704237079830e+000	 2.850459443420262e-001	 1.497590117488739e+001
 1.466539532419245e+000	 1.413536536676589e-001	 1.501424098539331e+001
 1.465083727160154e+000	 1.557202188700866e-001	 1.500635069596441e+001
 1.463481393264815e+000	 1.701216548949307e-001	 1.499779436958683e+001
 1.461731269023666e+000	 1.845559691793192e-001	 1.498866359249527e+001
 1.459832123882273e+000	 1.990211309017990e-001	 1.497904112822869e+001
 1.457782759651406e+000	 2.135150714417698e-001	 1.496900216527794e+001
 1.455582011715130e+000	 2.280356848795699e-001	 1.495861591371745e+001
 1.453228750235476e+000	 2.425808285375987e-001	 1.494794757638260e+001
 1.450721881352207e+000	 2.571483235628104e-001	 1.493706072072755e+001
 1.448060348376166e+000	 2.717359555508530e-001	 1.492602007794177e+001
 1.445243132974653e+000	 2.863414752120758e-001	 1.491489479619443e+001
 1.473174782300993e+000	 1.419931978396938e-001	 1.494891726885462e+001
 1.471712390358529e+000	 1.564247635062024e-001	 1.494166993515754e+001
 1.470102806821810e+000	 1.708913577655507e-001	 1.493365704680813e+001
 1.468344764272761e+000	 1.853909790396714e-001	 1.492500640555571e+001
 1.466437026589401e+000	 1.999215873188175e-001	 1.491583455989563e+001
 1.464378390161382e+000	 2.144811046230759e-001	 1.490624794111364e+001
 1.462167685103552e+000	 2.290674155047152e-001	 1.489634435108892e+001
 1.459803776466075e+000	 2.436783675917570e-001	 1.488621482818852e+001
 1.457285565439627e+000	 2.583117721731038e-001	 1.487594591822115e+001
 1.454611990554142e+000	 2.729654048255037e-001	 1.486562237791348e+001
 1.451782028869550e+000	 2.876370060825698e-001	 1.485533033871992e+001
 1.479810032182270e+000	 1.426327420114425e-001	 1.488504082810396e+001
 1.478341053556476e+000	 1.571293081420489e-001	 1.487844839583642e+001
 1.476724220378426e+000	 1.716610606359441e-001	 1.487099076360373e+001
 1.474958259521535e+000	 1.862259888998599e-001	 1.486283040260333e+001
 1.473041929296268e+000	 2.008220437357504e-001	 1.485411611686336e+001
 1.470974020671162e+000	 2.154471378043844e-001	 1.484498406875714e+001
 1.468753358491847e+000	 2.300991461299552e-001	 1.483555915892782e+001
 1.466378802696617e+000	 2.447759066461008e-001	 1.482595678773557e+001
 1.463849249527063e+000	 2.594752207836671e-001	 1.481628502603100e+001
 1.461163632732205e+000	 2.741948541004960e-001	 1.480664722361411e+001
 1.458320924764607e+000	 2.889325369534591e-001	 1.479714508413969e+001
 1.486445282063260e+000	 1.432722861829729e-001	 1.482255594359332e+001
 1.484969716754174e+000	 1.578338527776833e-001	 1.481662694637893e+001
 1.483345633934837e+000	 1.724307635061557e-001	 1.480973356963331e+001
 1.481571754770152e+000	 1.870609987599162e-001	 1.480207143134694e+001
 1.479646832003032e+000	 2.017225001526154e-001	 1.479382008558044e+001
 1.477569651180895e+000	 2.164131709856990e-001	 1.478514393845697e+001
 1.475339031880151e+000	 2.311308767552800e-001	 1.477619352108900e+001
 1.472953828927230e+000	 2.458734457006079e-001	 1.476710714733535e+001
 1.470412933614629e+000	 2.606386693944667e-001	 1.475801298503441e+001
 1.467715274910457e+000	 2.754243033757872e-001	 1.474903156997775e+001
 1.464859820659907e+000	 2.902280678246939e-001	 1.474027879234525e+001
 1.493080531944146e+000	 1.439118303543528e-001	 1.476140798194434e+001
 1.491598379951801e+000	 1.585383974131627e-001	 1.475614776136109e+001
 1.489967047491214e+000	 1.732004663762303e-001	 1.474982502251088e+001
 1.488185250018776e+000	 1.878960086198719e-001	 1.474266703073630e+001
 1.486251734709848e+000	 2.026229565694304e-001	 1.473488260838550e+001
 1.484165281690726e+000	 2.173792041670235e-001	 1.472666294222697e+001
 1.481924705268603e+000	 2.321626073806800e-001	 1.471818275018804e+001
 1.479528855158037e+000	 2.469709847552560e-001	 1.470960183610019e+001
 1.476976617702436e+000	 2.618021180054691e-001	 1.470106706194829e+001
 1.474266917088996e+000	 2.766537526513346e-001	 1.469271476779936e+001
 1.471398716555536e+000	 2.915235986962250e-001	 1.468467367010358e+001
 1.499715781825113e+000	 1.445513745256498e-001	 1.470154339598250e+001
 1.498227043149535e+000	 1.592429420485439e-001	 1.469695431765817e+001
 1.496588461047729e+000	 1.739701692462126e-001	 1.469120618012647e+001
 1.494798745267572e+000	 1.887310184797587e-001	 1.468455641966733e+001
 1.492856637416871e+000	 2.035234129862128e-001	 1.467724166877145e+001
 1.490760912200803e+000	 2.183452373483616e-001	 1.466947845585681e+001
 1.488510378657336e+000	 2.331943380061452e-001	 1.466146426655642e+001
 1.486103881389163e+000	 2.480685238100225e-001	 1.465337899605342e+001
 1.483540301790597e+000	 2.629655666166408e-001	 1.464538682281608e+001
 1.480818559267920e+000	 2.778832019270955e-001	 1.463763853483134e+001
 1.477937612451580e+000	 2.928191295680030e-001	 1.463027434000995e+001
 1.506351031706344e+000	 1.451909186969318e-001	 1.464290972462748e+001
 1.504855706347555e+000	 1.599474866838842e-001	 1.463899139047771e+001
 1.503209874604554e+000	 1.747398721161476e-001	 1.463381959296691e+001
 1.501412240516705e+000	 1.895660283396078e-001	 1.462768048574881e+001
 1.499461540124259e+000	 2.044238694029805e-001	 1.462083707676641e+001
 1.497356542711271e+000	 2.193112705297171e-001	 1.461352982108578e+001
 1.495096052046490e+000	 2.342260686316661e-001	 1.460597757739977e+001
 1.492678907620734e+000	 2.491660628648855e-001	 1.459837895847385e+001
 1.490103985879224e+000	 2.641290152279486e-001	 1.459091410675311e+001
 1.487370201447330e+000	 2.791126512030274e-001	 1.458374692715607e+001
 1.484476508348123e+000	 2.941146604399786e-001	 1.457702780972422e+001
 1.512986281588025e+000	 1.458304628682665e-001	 1.458545559264621e+001
 1.511484369546039e+000	 1.606520313192406e-001	 1.458220504932636e+001
 1.509831288161861e+000	 1.755095749860801e-001	 1.457760929643753e+001
 1.508025735766339e+000	 1.904010381994511e-001	 1.457198177412865e+001
 1.506066442832168e+000	 2.053243258197512e-001	 1.456561045442616e+001
 1.503952173222280e+000	 2.202773037110939e-001	 1.455875832793503e+001
 1.501681725436199e+000	 2.352577992572329e-001	 1.455166425615269e+001
 1.499253933852874e+000	 2.502636019198224e-001	 1.454454422046910e+001
 1.496667669968431e+000	 2.652924638393589e-001	 1.453759299994407e+001
 1.493921843627324e+000	 2.803421004790874e-001	 1.453098631082541e+001
 1.491015404245248e+000	 2.954101913121023e-001	 1.452488344148241e+001
 1.519621531470337e+000	 1.464700070397217e-001	 1.452913071027117e+001
 1.518113032745165e+000	 1.613565759546701e-001	 1.452654265391333e+001
 1.516452701719823e+000	 1.762792778560549e-001	 1.452252080318340e+001
 1.514639231016640e+000	 1.912360480593200e-001	 1.451740447637829e+001
 1.512671345540754e+000	 2.062247822365425e-001	 1.451150522143640e+001
 1.510547803733974e+000	 2.212433368924957e-001	 1.450510719719269e+001
 1.508267398826601e+000	 2.362895298828358e-001	 1.449846792202441e+001
 1.505828960085709e+000	 2.513611409748112e-001	 1.449181942176913e+001
 1.503231354058331e+000	 2.664559124508381e-001	 1.448536980988413e+001
 1.500473485808002e+000	 2.815715497552332e-001	 1.447930533375964e+001
 1.497554300143043e+000	 2.967057221843249e-001	 1.447379292187498e+001
 1.526256781353464e+000	 1.471095512113651e-001	 1.447388587268863e+001
 1.524741695945114e+000	 1.620611205902299e-001	 1.447195284999126e+001
 1.523074115278612e+000	 1.770489807261168e-001	 1.446850109541140e+001
 1.521252726267772e+000	 1.920710579192460e-001	 1.446389441943290e+001
 1.519276248250174e+000	 2.071252386533722e-001	 1.445846658082018e+001
 1.517143434246501e+000	 2.222093700739263e-001	 1.445252156304818e+001
 1.514853072217832e+000	 2.373212605084653e-001	 1.444633421972964e+001
 1.512403986319364e+000	 2.524586800298292e-001	 1.444015132173445e+001
 1.509795038149035e+000	 2.676193610623530e-001	 1.443419303985648e+001
 1.507025127989463e+000	 2.828009990314218e-001	 1.442865489789724e+001
 1.504093196041590e+000	 2.980012530565968e-001	 1.442371023188341e+001
 1.438704237079830e+000	 2.850459443420262e-001	 1.497590117488739e+001
 1.435743359890963e+000	 2.996030999646700e-001	 1.496253374875494e+001
 1.432625550461151e+000	 3.141734829967587e-001	 1.494665797966231e+001
 1.429349917471245e+000	 3.287547500080645e-001	 1.492834305992144e+001
 1.425915612442830e+000	 3.433445258208175e-001	 1.490767645342247e+001
 1.422321830855985e+000	 3.579404043837813e-001	 1.488476972823701e+001
 1.418567813249386e+000	 3.725399496881361e-001	 1.485976499775674e+001
 1.414652846301054e+000	 3.871406967249310e-001	 1.483284199273446e+001
 1.410576263888079e+000	 4.017401524837974e-001	 1.480422578495507e+001
 1.406337448123607e+000	 4.163357969925386e-001	 1.477419518131281e+001
 1.401935830369417e+000	 4.309250843971382e-001	 1.474309180479970e+001
 1.445243132974653e+000	 2.863414752120758e-001	 1.491489479619443e+001
 1.442268798629569e+000	 3.009647929566778e-001	 1.490250787702312e+001
 1.439136818788142e+000	 3.156013982292188e-001	 1.488767088435268e+001
 1.435846298080186e+000	 3.302489369485938e-001	 1.487044562392788e+001
 1.432396384170960e+000	 3.449050231418640e-001	 1.485091062061510e+001
 1.428786268884011e+000	 3.595672398223045e-001	 1.482916697388421e+001
 1.425015189306273e+000	 3.742331399094486e-001	 1.480534483305756e+001
 1.421082428873726e+000	 3.889002471908951e-001	 1.477961051570716e+001
 1.416987318435939e+000	 4.035660573255574e-001	 1.475217429094898e+001
 1.412729237297769e+000	 4.182280388879797e-001	 1.472329884743883e+001
 1.408307614236544e+000	 4.328836344532539e-001	 1.469330846359209e+001
 1.451782028869550e+000	 2.876370060825698e-001	 1.485533033871992e+001
 1.448794237368335e+000	 3.023264859491649e-001	 1.484387387633795e+001
 1.445648087115373e+000	 3.170293134621682e-001	 1.483003160380570e+001
 1.442342678689445e+000	 3.317431238896014e-001	 1.481385807963685e+001
 1.438877155899481e+000	 3.464655204633587e-001	 1.479542290276220e+001
 1.435250706912494e+000	 3.611940752612289e-001	 1.477481658578449e+001
 1.431462565363673e+000	 3.759263301311030e-001	 1.475215705936936e+001
 1.427512011446956e+000	 3.906597976571303e-001	 1.472759683220104e+001
 1.423398372984390e+000	 4.053919621675100e-001	 1.470133082931507e+001
 1.419121026472544e+000	 4.201202807835300e-001	 1.467360492967329e+001
 1.414679398104287e+000	 4.348421845093938e-001	 1.464472522156436e+001
 1.458320924764607e+000	 2.889325369534591e-001	 1.479714508413969e+001
 1.455319676107329e+000	 3.036881789420780e-001	 1.478657169841235e+001
 1.452159355442899e+000	 3.184572286955533e-001	 1.477368176693107e+001
 1.448839059299059e+000	 3.332373108310347e-001	 1.475852273903502e+001
 1.445357927628414e+000	 3.480260177852528e-001	 1.474115530041593e+001
 1.441715144941439e+000	 3.628209107005124e-001	 1.472165925896433e+001
 1.437909941421575e+000	 3.776195203530645e-001	 1.470014007325393e+001
 1.433941594020721e+000	 3.924193481236123e-001	 1.467673604917720e+001
 1.429809427533400e+000	 4.072178670096429e-001	 1.465162622864246e+001
 1.425512815647887e+000	 4.220125226791909e-001	 1.462503899230057e+001
 1.421051181972596e+000	 4.368007345655731e-001	 1.459726139598278e+001
 1.464859820659907e+000	 2.902280678246939e-001	 1.474027879234525e+001
 1.461845114846621e+000	 3.050498719353638e-001	 1.473054382350029e+001
 1.458670623770774e+000	 3.198851439293194e-001	 1.471856559541750e+001
 1.455335439909068e+000	 3.347314977728410e-001	 1.470438458558442e+001
 1.451838699357781e+000	 3.495865151074976e-001	 1.468805257930357e+001
 1.448179582970851e+000	 3.644477461401131e-001	 1.466963856287286e+001
 1.444357317479972e+000	 3.793127105752995e-001	 1.464923527103317e+001
 1.440371176595002e+000	 3.941788985903175e-001	 1.462696641531920e+001
 1.436220482082934e+000	 4.090437718519439e-001	 1.460299461835809e+001
 1.431904604823757e+000	 4.239047645749627e-001	 1.457753007722804e+001
 1.427422965841425e+000	 4.387592846218074e-001	 1.455083997669624e+001
 1.471398716555536e+000	 2.915235986962250e-001	 1.468467367010358e+001
 1.468370553586280e+000	 3.064115649289692e-001	 1.467573522680643e+001
 1.465181892099049e+000	 3.213130591634124e-001	 1.466462986743567e+001
 1.461831820519507e+000	 3.362256847149676e-001	 1.465139123476260e+001
 1.458319471087602e+000	 3.511470124300444e-001	 1.463606222725265e+001
 1.454644021000736e+000	 3.660745815799878e-001	 1.461870089424269e+001
 1.450804693538856e+000	 3.810059007977738e-001	 1.459938699713873e+001
 1.446800759169773e+000	 3.959384490572215e-001	 1.457822926442864e+001
 1.442631536632960e+000	 4.108696766944009e-001	 1.455537336672927e+001
 1.438296394000109e+000	 4.257970064708468e-001	 1.453101063616212e+001
 1.433794749710720e+000	 4.407178346781115e-001	 1.450538755205715e+001
 1.477937612451580e+000	 2.928191295680030e-001	 1.463027434000995e+001
 1.474895992326376e+000	 3.077732579228409e-001	 1.462209334519773e+001
 1.471693160427779e+000	 3.227409743977778e-001	 1.461182388166221e+001
 1.468328201130414e+000	 3.377198716573617e-001	 1.459949289495555e+001
 1.464800242817900e+000	 3.527075097528448e-001	 1.458513441151059e+001
 1.461108459031100e+000	 3.677014170200944e-001	 1.456879543039723e+001
 1.457252069598216e+000	 3.826990910204532e-001	 1.455054249297094e+001
 1.453230341745015e+000	 3.976979995243009e-001	 1.453046895940449e+001
 1.449042591183444e+000	 4.126955815370016e-001	 1.450870301953597e+001
 1.444688183176903e+000	 4.276892483668440e-001	 1.448541646355036e+001
 1.440166533580434e+000	 4.426763847345017e-001	 1.446083423571586e+001
 1.484476508348123e+000	 2.941146604399786e-001	 1.457702780972422e+001
 1.481421431066978e+000	 3.091349509169256e-001	 1.456956804420772e+001
 1.478204428757018e+000	 3.241688896323617e-001	 1.456009942161638e+001
 1.474824581741826e+000	 3.392140585999710e-001	 1.454864232869235e+001
 1.471281014548694e+000	 3.542680070758498e-001	 1.453522193644602e+001
 1.467572897061949e+000	 3.693282524603908e-001	 1.451987408299027e+001
 1.463699445658044e+000	 3.843922812433036e-001	 1.450265184625203e+001
 1.459659924320704e+000	 3.994575499915312e-001	 1.448363283678821e+001
 1.455453645734352e+000	 4.145214863797339e-001	 1.446292723939117e+001
 1.451079972354095e+000	 4.295814902629558e-001	 1.444068663026529e+001
 1.446538317450518e+000	 4.446349347909926e-001	 1.441711359426058e+001
 1.491015404245248e+000	 2.954101913121023e-001	 1.452488344148241e+001
 1.487946869808157e+000	 3.104966439111703e-001	 1.451811158532467e+001
 1.484715697086819e+000	 3.255968048671096e-001	 1.450941072029877e+001
 1.481320962353781e+000	 3.407082455427425e-001	 1.449879481421089e+001
 1.477761786280008e+000	 3.558285043990112e-001	 1.448628020162052e+001
 1.474037335093288e+000	 3.709550879008343e-001	 1.447189145216506e+001
 1.470146821718332e+000	 3.860854714662914e-001	 1.445566794085790e+001
 1.466089506896819e+000	 4.012171004588888e-001	 1.443767115185778e+001
 1.461864700285650e+000	 4.163473912225856e-001	 1.441799274569030e+001
 1.457471761531642e+000	 4.314737321591827e-001	 1.439676341800716e+001
 1.452910101320921e+000	 4.465934848476001e-001	 1.437416257567775e+001
 1.497554300143043e+000	 2.967057221843249e-001	 1.447379292187498e+001
 1.494472308549981e+000	 3.118583369055215e-001	 1.446767859355508e+001
 1.491226965417235e+000	 3.270247201019672e-001	 1.445971442512354e+001
 1.487817342966315e+000	 3.422024324856235e-001	 1.444990810734500e+001
 1.484242558011860e+000	 3.573890017222800e-001	 1.443826716021876e+001
 1.480501773125123e+000	 3.725819233413825e-001	 1.442480478112001e+001
 1.476594197779069e+000	 3.877786616893817e-001	 1.440954640711399e+001
 1.472519089473338e+000	 4.029766509263497e-001	 1.439253702425281e+001
 1.468275754837306e+000	 4.181732960655446e-001	 1.437384925516952e+001
 1.463863550709501e+000	 4.333659740555259e-001	 1.435359225440429e+001
 1.459281885191594e+000	 4.485520349043394e-001	 1.433192143860739e+001
 1.504093196041590e+000	 2.980012530565968e-001	 1.442371023188341e+001
 1.500997747292520e+000	 3.132200298999261e-001	 1.441822602525336e+001
 1.497738233748321e+000	 3.284526353368806e-001	 1.441096956313487e+001
 1.494313723579467e+000	 3.436966194285618e-001	 1.440194240372276e+001
 1.490723329744274e+000	 3.589494990456078e-001	 1.439114327782728e+001
 1.486966211157460e+000	 3.742087587819934e-001	 1.437857391106832e+001
 1.483041573840250e+000	 3.894718519125411e-001	 1.436424557254146e+001
 1.478948672050239e+000	 4.047362013938897e-001	 1.434818638411584e+001
 1.474686809389286e+000	 4.199992009085986e-001	 1.433044942305557e+001
 1.470255339887630e+000	 4.352582159519864e-001	 1.431112164878911e+001
 1.465653669062488e+000	 4.505105849612260e-001	 1.429033368236919e+001
 1.401935830369417e+000	 4.309250843971382e-001	 1.474309180479970e+001
 1.397370891871779e+000	 4.455054438681575e-001	 1.471036205566861e+001
 1.392642163666725e+000	 4.600742800983028e-001	 1.467549474064406e+001
 1.387749228559429e+000	 4.746289751037728e-001	 1.463903802639681e+001
 1.382691722374954e+000	 4.891668896682116e-001	 1.460167029566547e+001
 1.377469334826162e+000	 5.036853646155344e-001	 1.456421345850995e+001
 1.372081810347265e+000	 5.181817221189332e-001	 1.452764695459565e+001
 1.366528948891380e+000	 5.326532670450713e-001	 1.449312243556144e+001
 1.360810606690540e+000	 5.470972883323950e-001	 1.446197911152729e+001
 1.354926696976586e+000	 5.615110604024198e-001	 1.443575974048478e+001
 1.348877190661454e+000	 5.758918446027711e-001	 1.441622723370873e+001
 1.408307614236544e+000	 4.328836344532539e-001	 1.469330846359209e+001
 1.403721928140800e+000	 4.475302615075406e-001	 1.466174525600847e+001
 1.398971707915128e+000	 4.621653129479083e-001	 1.462819722692754e+001
 1.394056534468547e+000	 4.767861588918578e-001	 1.459319689217540e+001
 1.388976041970940e+000	 4.913901481278337e-001	 1.455740351248211e+001
 1.383729918724911e+000	 5.059746093938343e-001	 1.452161653037320e+001
 1.378317908003116e+000	 5.205368526923688e-001	 1.448678972262889e+001
 1.372739808849457e+000	 5.350741706407586e-001	 1.445404605823900e+001
 1.366995476842530e+000	 5.495838398557151e-001	 1.442469324668466e+001
 1.361084824819811e+000	 5.640631223710400e-001	 1.440023995595642e+001
 1.355007823561020e+000	 5.785092670872235e-001	 1.438241267398974e+001
 1.414679398104287e+000	 4.348421845093938e-001	 1.464472522156436e+001
 1.410072964410428e+000	 4.495550791468633e-001	 1.461431559003272e+001
 1.405301252164111e+000	 4.642563457973713e-001	 1.458205042264598e+001
 1.400363840378210e+000	 4.789433426797219e-001	 1.454844753017060e+001
 1.395260361567427e+000	 4.936134065871611e-001	 1.451414826869051e+001
 1.389990502624114e+000	 5.082638541717731e-001	 1.447993110379156e+001
 1.384554005659376e+000	 5.228919832653841e-001	 1.444672591469282e+001
 1.378950668807896e+000	 5.374950742359759e-001	 1.441562902914632e+001
 1.373180346994846e+000	 5.520703913785263e-001	 1.438791897473133e+001
 1.367242952663334e+000	 5.666151843391242e-001	 1.436507292663774e+001
 1.361138456460870e+000	 5.811266895711268e-001	 1.434878382618180e+001
 1.421051181972596e+000	 4.368007345655731e-001	 1.459726139598278e+001
 1.416424000680605e+000	 4.515798967861565e-001	 1.456798733796230e+001
 1.411630796413619e+000	 4.663473786467382e-001	 1.453696696421792e+001
 1.406671146288361e+000	 4.811005264674270e-001	 1.450470431263578e+001
 1.401544681164364e+000	 4.958366650462715e-001	 1.447182403439530e+001
 1.396251086523720e+000	 5.105530989494411e-001	 1.443908508697072e+001
 1.390790103315994e+000	 5.252471138380813e-001	 1.440739519130831e+001
 1.385161528766653e+000	 5.399159778308346e-001	 1.437782604491259e+001
 1.379365217147443e+000	 5.545569429009455e-001	 1.435162927728416e+001
 1.373401080507109e+000	 5.691672463067921e-001	 1.433025312850869e+001
 1.367269089360954e+000	 5.837441120545979e-001	 1.431535982582166e+001
 1.427422965841425e+000	 4.387592846218074e-001	 1.455083997669624e+001
 1.422775036951282e+000	 4.536047144254504e-001	 1.452267862713576e+001
 1.417960340663596e+000	 4.684384114960553e-001	 1.449286345084414e+001
 1.412978452198947e+000	 4.832577102550353e-001	 1.446188563216301e+001
 1.407829000761696e+000	 4.980599235052413e-001	 1.443035430029859e+001
 1.402511670423681e+000	 5.128423437269288e-001	 1.439901035253307e+001
 1.397026200972924e+000	 5.276022444105624e-001	 1.436874106569510e+001
 1.391372388725682e+000	 5.423368814254453e-001	 1.434059548855668e+001
 1.385550087300275e+000	 5.570434944230900e-001	 1.431580060243612e+001
 1.379559208351090e+000	 5.717193082741620e-001	 1.429577823153261e+001
 1.373399722261223e+000	 5.863615345377534e-001	 1.428216267841959e+001
 1.433794749710720e+000	 4.407178346781115e-001	 1.450538755205715e+001
 1.429126073222402e+000	 4.556295320647760e-001	 1.447831135212044e+001
 1.424289884913989e+000	 4.705294443453696e-001	 1.444966036012529e+001
 1.419285758109915e+000	 4.854148940426089e-001	 1.441991381412237e+001
 1.414113320359371e+000	 5.002831819641476e-001	 1.438966648827519e+001
 1.408772254323946e+000	 5.151315885043268e-001	 1.435964264753947e+001
 1.403262298630117e+000	 5.299573749829295e-001	 1.433071081454694e+001
 1.397583248684935e+000	 5.447577850199196e-001	 1.430389934231720e+001
 1.391734957453297e+000	 5.595300459450763e-001	 1.428041278093561e+001
 1.385717336195230e+000	 5.742713702413534e-001	 1.426164902047133e+001
 1.379530355161627e+000	 5.889789570207107e-001	 1.424921718618735e+001
 1.440166533580434e+000	 4.426763847345017e-001	 1.446083423571586e+001
 1.435477109493914e+000	 4.576543497041642e-001	 1.443481109579213e+001
 1.430619429164743e+000	 4.726204771947272e-001	 1.440728196470826e+001
 1.425593064021210e+000	 4.875720778302098e-001	 1.437871503015633e+001
 1.420397639957336e+000	 5.025064404230675e-001	 1.434969186299408e+001
 1.415032838224463e+000	 5.174208332817257e-001	 1.432092150451457e+001
 1.409498396287527e+000	 5.323125055552848e-001	 1.429325538973374e+001
 1.403794108644368e+000	 5.471786886143681e-001	 1.426770310129898e+001
 1.397919827606464e+000	 5.620165974670217e-001	 1.424544894303836e+001
 1.391875464039482e+000	 5.768234322084858e-001	 1.422786931619607e+001
 1.385660988062116e+000	 5.915963795035859e-001	 1.421655087505248e+001
 1.446538317450518e+000	 4.446349347909926e-001	 1.441711359426058e+001
 1.441828145765765e+000	 4.596791673436457e-001	 1.439210705135361e+001
 1.436948973415803e+000	 4.747115100441747e-001	 1.436565624993045e+001
 1.431900369932776e+000	 4.897292616179004e-001	 1.433821921269663e+001
 1.426681959555538e+000	 5.047296988820778e-001	 1.431036544455412e+001
 1.421293422125183e+000	 5.197100780592155e-001	 1.428279015344497e+001
 1.415734493945104e+000	 5.346676361277298e-001	 1.425632933090182e+001
 1.410004968603934e+000	 5.495995922089024e-001	 1.423197568791058e+001
 1.404104697759729e+000	 5.645031489890430e-001	 1.421089543601143e+001
 1.398033591883801e+000	 5.793754941756774e-001	 1.419444589747900e+001
 1.391791620962641e+000	 5.942138019864963e-001	 1.418419392195045e+001
 1.452910101320921e+000	 4.465934848476001e-001	 1.437416257567775e+001
 1.448179182037901e+000	 4.617039849832513e-001	 1.435013194526283e+001
 1.443278517667114e+000	 4.768025428937587e-001	 1.432471483243043e+001
 1.438207675844560e+000	 4.918864454057426e-001	 1.429835997047237e+001
 1.432966279153926e+000	 5.069529573412555e-001	 1.427162592210284e+001
 1.427554006026055e+000	 5.219993228368872e-001	 1.424519543472014e+001
 1.421970591602801e+000	 5.370227667003673e-001	 1.421989067894504e+001
 1.416215828563587e+000	 5.520204958036332e-001	 1.419668936706886e+001
 1.410289567913049e+000	 5.669897005112574e-001	 1.417674174226859e+001
 1.404191719728141e+000	 5.819275561430481e-001	 1.416138842325061e+001
 1.397922253863151e+000	 5.968312244695583e-001	 1.415217908238611e+001
 1.459281885191594e+000	 4.485520349043394e-001	 1.433192143860739e+001
 1.454530218310268e+000	 4.637288026230114e-001	 1.430882196104315e+001
 1.449608061918620e+000	 4.788935757435255e-001	 1.428439287969598e+001
 1.444514981756508e+000	 4.940436291937986e-001	 1.425907450497877e+001
 1.439250598752446e+000	 5.091762158006776e-001	 1.423341556840838e+001
 1.433814589927030e+000	 5.242885676148311e-001	 1.420808771298749e+001
 1.428206689260569e+000	 5.393778972732990e-001	 1.418390089031994e+001
 1.422426688523280e+000	 5.544413993986719e-001	 1.416181966214697e+001
 1.416474438066377e+000	 5.694762520337816e-001	 1.414298039811862e+001
 1.410349847572454e+000	 5.844796181107167e-001	 1.412870935530860e+001
 1.404052886763597e+000	 5.994486469528891e-001	 1.412054161825594e+001
 1.465653669062488e+000	 4.505105849612260e-001	 1.429033368236919e+001
 1.460881254582814e+000	 4.657536202629573e-001	 1.426811666394879e+001
 1.455937606170270e+000	 4.809846085935220e-001	 1.424462903052105e+001
 1.450822287668566e+000	 4.962008129821307e-001	 1.422030352787783e+001
 1.445534918351047e+000	 5.113994742604213e-001	 1.419568015535534e+001
 1.440075173828056e+000	 5.265778123931375e-001	 1.417142079189343e+001
 1.434442786918362e+000	 5.417330278466270e-001	 1.414832475217922e+001
 1.428637548482970e+000	 5.568623029941296e-001	 1.412734527164335e+001
 1.422659308219669e+000	 5.719628035567329e-001	 1.410960691310749e+001
 1.416507975416695e+000	 5.870316800788020e-001	 1.409642388146473e+001
 1.410183519663929e+000	 6.020660694366057e-001	 1.408931922592353e+001
 1.348877190661454e+000	 5.758918446027711e-001	 1.441622723370873e+001
 1.342663061776438e+000	 5.902347419688698e-001	 1.438985634956507e+001
 1.336283504332451e+000	 6.045391535541665e-001	 1.434394313346563e+001
 1.329738666902602e+000	 6.188023124455790e-001	 1.428188800309917e+001
 1.323028757985271e+000	 6.330214447531308e-001	 1.420752611021983e+001
 1.316154046458454e+000	 6.471937711893181e-001	 1.412522822510304e+001
 1.309114861985428e+000	 6.613165086713273e-001	 1.403968327150423e+001
 1.301911595370601e+000	 6.753868719443946e-001	 1.395611589343230e+001
 1.294544698864472e+000	 6.894020752245478e-001	 1.387930898587303e+001
 1.287014686416663e+000	 7.033593338589054e-001	 1.381154863934122e+001
 1.279322133876119e+000	 7.172558660016536e-001	 1.375488759440298e+001
 1.355007823561020e+000	 5.785092670872235e-001	 1.438241267398974e+001
 1.348765451524407e+000	 5.929173527739513e-001	 1.435769470400406e+001
 1.342356899057681e+000	 6.072867777624577e-001	 1.431340034506586e+001
 1.335782315409221e+000	 6.216147625640550e-001	 1.425291167512465e+001
 1.329041910025039e+000	 6.358985206814514e-001	 1.417994597613492e+001
 1.322135953005187e+000	 6.501352601952950e-001	 1.409875281370204e+001
 1.315064775511268e+000	 6.643221853736749e-001	 1.401403939045870e+001
 1.307828770123901e+000	 6.784564983028588e-001	 1.393155386673719e+001
 1.300428391149066e+000	 6.925354005374994e-001	 1.385616229043833e+001
 1.292864154872291e+000	 7.065560947684821e-001	 1.379005859827591e+001
 1.285136639759758e+000	 7.205157865065180e-001	 1.373532332211688e+001
 1.361138456460870e+000	 5.811266895711268e-001	 1.434878382618180e+001
 1.354867841272664e+000	 5.955999635784846e-001	 1.432555425534470e+001
 1.348430293783214e+000	 6.100344019702138e-001	 1.428272200487709e+001
 1.341825963916171e+000	 6.244272126820184e-001	 1.422364021105801e+001
 1.335055062065178e+000	 6.387755966092875e-001	 1.415198248042163e+001
 1.328117859552339e+000	 6.530767492008194e-001	 1.407181627999707e+001
 1.321014689037577e+000	 6.673278620756021e-001	 1.398782219658990e+001
 1.313745944877724e+000	 6.815261246609314e-001	 1.390665177778519e+001
 1.306312083434239e+000	 6.956687258500838e-001	 1.383279023811182e+001
 1.298713623328551e+000	 7.097528556777062e-001	 1.376841213611167e+001
 1.290951145644077e+000	 7.237757070110322e-001	 1.371561971939008e+001
 1.367269089360954e+000	 5.837441120545979e-001	 1.431535982582166e+001
 1.360970231021149e+000	 5.982825743825796e-001	 1.429347818206915e+001
 1.354503688508985e+000	 6.127820261775336e-001	 1.425197100430368e+001
 1.347869612423378e+000	 6.272396627995539e-001	 1.419415705474638e+001
 1.341068214105600e+000	 6.416526725367080e-001	 1.412367577895677e+001
 1.334099766099807e+000	 6.560182382059423e-001	 1.404450628851150e+001
 1.326964602564244e+000	 6.703335387771426e-001	 1.396126882685118e+001
 1.319663119631949e+000	 6.845957510186308e-001	 1.388160711655179e+001
 1.312195775719856e+000	 6.988020511623030e-001	 1.380938055358395e+001
 1.304563091785300e+000	 7.129496165865686e-001	 1.374678295524743e+001
 1.296765651528928e+000	 7.270356275151803e-001	 1.369593233759704e+001
 1.373399722261223e+000	 5.863615345377534e-001	 1.428216267841959e+001
 1.367072620769810e+000	 6.009651851863458e-001	 1.426151222483591e+001
 1.360577083234930e+000	 6.155296503845165e-001	 1.422121257183203e+001
 1.353913260930768e+000	 6.300521129167457e-001	 1.416454271948206e+001
 1.347081366146221e+000	 6.445297484637816e-001	 1.409510204366000e+001
 1.340081672647496e+000	 6.589597272107155e-001	 1.401682968297761e+001
 1.332914516091158e+000	 6.733392154783306e-001	 1.393462965447826e+001
 1.325580294386450e+000	 6.876653773759736e-001	 1.385662073785020e+001
 1.318079468005786e+000	 7.019353764741605e-001	 1.378612435471288e+001
 1.310412560242396e+000	 7.161463774950609e-001	 1.372534825268241e+001
 1.302580157414160e+000	 7.302955480189453e-001	 1.367642039652340e+001
 1.379530355161627e+000	 5.889789570207107e-001	 1.424921718618735e+001
 1.373175010518588e+000	 6.036477959898938e-001	 1.422970461890604e+001
 1.366650477960983e+000	 6.182772745912598e-001	 1.419051420947602e+001
 1.359956909438264e+000	 6.328645630336793e-001	 1.413487985136944e+001
 1.353094518186951e+000	 6.474068243905763e-001	 1.406635498803268e+001
 1.346063579195304e+000	 6.619012162151902e-001	 1.398883240995972e+001
 1.338864429618206e+000	 6.763448921792001e-001	 1.390801386270423e+001
 1.331497469141105e+000	 6.907350037329777e-001	 1.383189675450719e+001
 1.323963160291892e+000	 7.050687017856593e-001	 1.376321603899059e+001
 1.316262028699694e+000	 7.193431384031742e-001	 1.370428859833320e+001
 1.308394663299624e+000	 7.335554685223119e-001	 1.365724665313840e+001
 1.385660988062116e+000	 5.915963795035859e-001	 1.421655087505248e+001
 1.379277400267429e+000	 6.063304067933328e-001	 1.419810602665402e+001
 1.372723872687082e+000	 6.210248987978638e-001	 1.415994562915101e+001
 1.366000557945791e+000	 6.356770131504382e-001	 1.410525316795664e+001
 1.359107670227705e+000	 6.502839003171606e-001	 1.403753033657710e+001
 1.352045485743133e+000	 6.648427052194170e-001	 1.396061724964466e+001
 1.344814343145278e+000	 6.793505688797844e-001	 1.388149576251242e+001
 1.337414643895790e+000	 6.938046300896604e-001	 1.380756910858896e+001
 1.329846852578039e+000	 7.082020270968021e-001	 1.374085316993737e+001
 1.322111497157053e+000	 7.225398993108999e-001	 1.368378781343025e+001
 1.314209169185171e+000	 7.368153890252628e-001	 1.363857727063364e+001
 1.391791620962641e+000	 5.942138019864963e-001	 1.418419392195045e+001
 1.385379790016275e+000	 6.090130175967728e-001	 1.416676947016009e+001
 1.378797267413160e+000	 6.237725230044265e-001	 1.412957868897897e+001
 1.372044206453275e+000	 6.384894632671082e-001	 1.407574939669136e+001
 1.365120822268397e+000	 6.531609762436034e-001	 1.400872576386894e+001
 1.358027392290884e+000	 6.677841942234478e-001	 1.393231385110248e+001
 1.350764256672261e+000	 6.823562455801177e-001	 1.385527037047555e+001
 1.343331818650383e+000	 6.968742564460391e-001	 1.378362086342727e+001
 1.335730544864097e+000	 7.113353524075916e-001	 1.371920496089573e+001
 1.327960965614328e+000	 7.257366602182296e-001	 1.366403284898835e+001
 1.320023675070649e+000	 7.400753095277823e-001	 1.362058168772138e+001
 1.397922253863151e+000	 5.968312244695583e-001	 1.415217908238611e+001
 1.391482179765073e+000	 6.116956284003237e-001	 1.413575026388256e+001
 1.384870662139153e+000	 6.265201472110472e-001	 1.409948732952665e+001
 1.378087854960640e+000	 6.413019133837734e-001	 1.404645721320591e+001
 1.371133974308938e+000	 6.560380521699728e-001	 1.398004083339782e+001
 1.364009298838458e+000	 6.707256832273331e-001	 1.390432274377524e+001
 1.356714170199044e+000	 6.853619222802337e-001	 1.382952965685329e+001
 1.349248993404759e+000	 6.999438828021314e-001	 1.376022399489686e+001
 1.341614237149928e+000	 7.144686777180310e-001	 1.369819141473980e+001
 1.333810434071377e+000	 7.289334211251541e-001	 1.364521205038744e+001
 1.325838180955911e+000	 7.433352300298545e-001	 1.360343248818333e+001
 1.404052886763597e+000	 5.994486469528891e-001	 1.412054161825594e+001
 1.397584569513765e+000	 6.143782392040952e-001	 1.410510594740671e+001
 1.390944056864996e+000	 6.292677714178239e-001	 1.406974750997858e+001
 1.384131503467812e+000	 6.441143635005187e-001	 1.401746717943733e+001
 1.377147126349243e+000	 6.589151280963376e-001	 1.395157693618351e+001
 1.369991205385755e+000	 6.736671722311245e-001	 1.387690169146333e+001
 1.362664083725515e+000	 6.883675989801661e-001	 1.380446210471678e+001
 1.355166168158795e+000	 7.030135091579541e-001	 1.373756082642759e+001
 1.347497929435399e+000	 7.176020030281235e-001	 1.367792341357544e+001
 1.339659902528057e+000	 7.321301820316656e-001	 1.362726517710995e+001
 1.331652686840806e+000	 7.465951505314625e-001	 1.358730527066300e+001
 1.410183519663929e+000	 6.020660694366057e-001	 1.408931922592353e+001
 1.403686959262296e+000	 6.170608500081971e-001	 1.407489621826843e+001
 1.397017451590627e+000	 6.320153956248561e-001	 1.404043714424752e+001
 1.390175151974715e+000	 6.469268136174284e-001	 1.398887168158730e+001
 1.383160278389224e+000	 6.617922040227658e-001	 1.392343722917438e+001
 1.375973111932677e+000	 6.766086612348735e-001	 1.385023829926445e+001
 1.368613997251564e+000	 6.913732756799494e-001	 1.378025274213159e+001
 1.361083342912368e+000	 7.060831355135255e-001	 1.371581030569250e+001
 1.353381621720377e+000	 7.207353283378716e-001	 1.365857038871353e+001
 1.345509370984224e+000	 7.353269429377547e-001	 1.361017698900995e+001
 1.337467192725185e+000	 7.498550710325906e-001	 1.357225387615564e+001
 1.279322133876119e+000	 7.172558660016536e-001	 1.375488759440298e+001
 1.271466488913099e+000	 7.310909646953697e-001	 1.370115694540510e+001
 1.263449594561992e+000	 7.448597689014561e-001	 1.364113957277687e+001
 1.255272214413711e+000	 7.585595149683920e-001	 1.357514081083388e+001
 1.246935174241497e+000	 7.721874489079046e-001	 1.350333315302961e+001
 1.238439361924098e+000	 7.857408281201320e-001	 1.342575301619347e+001
 1.229785727312124e+000	 7.992169231221942e-001	 1.334229849413248e+001
 1.220975282037234e+000	 8.126130192780127e-001	 1.325272814530179e+001
 1.212009099263907e+000	 8.259264185271869e-001	 1.315666085175218e+001
 1.202888313383635e+000	 8.391544411107291e-001	 1.305357677856724e+001
 1.193614119651469e+000	 8.522944272914291e-001	 1.294281945456454e+001
 1.285136639759758e+000	 7.205157865065180e-001	 1.373532332211687e+001
 1.277245290971400e+000	 7.344137655810575e-001	 1.368361774557026e+001
 1.269191959918177e+000	 7.482451488601338e-001	 1.362554601847438e+001
 1.260977413661517e+000	 7.620071601314624e-001	 1.356142693172353e+001
 1.252602481727787e+000	 7.756970328899256e-001	 1.349144653048479e+001
 1.244068056031136e+000	 7.893120120705770e-001	 1.341565473793453e+001
 1.235375090739231e+000	 8.028493557850693e-001	 1.333396299203871e+001
 1.226524602081588e+000	 8.163063370593355e-001	 1.324614294167117e+001
 1.217517668100205e+000	 8.296802455703223e-001	 1.315182624066668e+001
 1.208355428342368e+000	 8.429683893795678e-001	 1.305050547019068e+001
 1.199039083495551e+000	 8.561680966613903e-001	 1.294153621113861e+001
 1.290951145644077e+000	 7.237757070110322e-001	 1.371561971939008e+001
 1.283024093030423e+000	 7.377365664663843e-001	 1.366591848022189e+001
 1.274934325275120e+000	 7.516305288184263e-001	 1.360975439025339e+001
 1.266682612910105e+000	 7.654548052941124e-001	 1.354746321599324e+001
 1.258269789214880e+000	 7.792066168714839e-001	 1.347924829798096e+001
 1.249696750138987e+000	 7.928831960205117e-001	 1.340517702486315e+001
 1.240964454167154e+000	 8.064817884473835e-001	 1.332517834436099e+001
 1.232073922126751e+000	 8.199996548400456e-001	 1.323904135906289e+001
 1.223026236937295e+000	 8.334340726127941e-001	 1.314641504707457e+001
 1.213822543301870e+000	 8.467823376476982e-001	 1.304680913912027e+001
 1.204464047340367e+000	 8.600417660306019e-001	 1.293959617478459e+001
 1.296765651528928e+000	 7.270356275151803e-001	 1.369593233759704e+001
 1.288802895090015e+000	 7.410593673513299e-001	 1.364819570422448e+001
 1.280676690632666e+000	 7.550159087763153e-001	 1.359388460653045e+001
 1.272387812159327e+000	 7.689024504563309e-001	 1.353335530682247e+001
 1.263937096702628e+000	 7.827162008525765e-001	 1.346683218111699e+001
 1.255325444247508e+000	 7.964543799699438e-001	 1.339440403424339e+001
 1.246553817595757e+000	 8.101142211091577e-001	 1.331602147587274e+001
 1.237623242172595e+000	 8.236929726201788e-001	 1.323149540709749e+001
 1.228534805775061e+000	 8.371878996546550e-001	 1.314049665907557e+001
 1.219289658262030e+000	 8.505962859151863e-001	 1.304255681659014e+001
 1.209889011185817e+000	 8.639154353991482e-001	 1.293707025022906e+001
 1.302580157414160e+000	 7.302955480189453e-001	 1.367642039652341e+001
 1.294581697150023e+000	 7.443821682358760e-001	 1.363058982990307e+001
 1.286419055990660e+000	 7.584012887337839e-001	 1.357806059169091e+001
 1.278093011409026e+000	 7.723500956181048e-001	 1.351921296266513e+001
 1.269604404190879e+000	 7.862257848331998e-001	 1.345429609220893e+001
 1.260954138356556e+000	 8.000255639188816e-001	 1.338342414497369e+001
 1.252143181024903e+000	 8.137466537704131e-001	 1.330657353270708e+001
 1.243172562218992e+000	 8.273862903997703e-001	 1.322358128261406e+001
 1.234043374613380e+000	 8.409417266959555e-001	 1.313414458529714e+001
 1.224756773222739e+000	 8.544102341821005e-001	 1.303782155642634e+001
 1.215313975031800e+000	 8.677891047671119e-001	 1.293403323689893e+001
 1.308394663299624e+000	 7.335554685223119e-001	 1.365724665313840e+001
 1.300360499210294e+000	 7.477049691200033e-001	 1.361324498616387e+001
 1.292161421348948e+000	 7.617866686908141e-001	 1.356241012671497e+001
 1.283798210659051e+000	 7.757977407794225e-001	 1.350514990052952e+001
 1.275271711679485e+000	 7.897353688133503e-001	 1.344174196736100e+001
 1.266582832465985e+000	 8.035967478673327e-001	 1.337232978957558e+001
 1.257732544454452e+000	 8.173790864311703e-001	 1.329691971037581e+001
 1.248721882265810e+000	 8.310796081788572e-001	 1.321537919481907e+001
 1.239551943452133e+000	 8.446955537367477e-001	 1.312743627825578e+001
 1.230223888183886e+000	 8.582241824485075e-001	 1.303268025768552e+001
 1.220738938878217e+000	 8.716627741345753e-001	 1.293056365188522e+001
 1.314209169185171e+000	 7.368153890252628e-001	 1.363857727063364e+001
 1.306139301270674e+000	 7.510277700036923e-001	 1.359630887807738e+001
 1.297903786707376e+000	 7.651720486473885e-001	 1.354706470043517e+001
 1.289503409909248e+000	 7.792453859402714e-001	 1.349128364003028e+001
 1.280939019168297e+000	 7.932449527930245e-001	 1.342927560442466e+001
 1.272211526575653e+000	 8.071679318153050e-001	 1.336121728715942e+001
 1.263321907884269e+000	 8.210115190914508e-001	 1.328714908283025e+001
 1.254271202312923e+000	 8.347729259574741e-001	 1.320697319151533e+001
 1.245060512291201e+000	 8.484493807770828e-001	 1.312045295881306e+001
 1.235691003145361e+000	 8.620381307144748e-001	 1.302721348837984e+001
 1.226163902724966e+000	 8.755364435016215e-001	 1.292674355395983e+001
 1.320023675070649e+000	 7.400753095277823e-001	 1.362058168772138e+001
 1.311918103331010e+000	 7.543505708869248e-001	 1.357993264691031e+001
 1.303646152065790e+000	 7.685574286034900e-001	 1.353215936140469e+001
 1.295208609159464e+000	 7.826930311006397e-001	 1.347773534819013e+001
 1.286606326657166e+000	 7.967545367722192e-001	 1.341700650181802e+001
 1.277840220685413e+000	 8.107391157628058e-001	 1.335018667733765e+001
 1.268911271314218e+000	 8.246439517512760e-001	 1.327735443253094e+001
 1.259820522360200e+000	 8.384662437356580e-001	 1.319845098637810e+001
 1.250569081130463e+000	 8.522032078170125e-001	 1.311327944169214e+001
 1.241158118107053e+000	 8.658520789800703e-001	 1.302150531025298e+001
 1.231588866571949e+000	 8.794101128683336e-001	 1.292265836861182e+001
 1.325838180955911e+000	 7.433352300298545e-001	 1.360343248818333e+001
 1.317696905391148e+000	 7.576733717696806e-001	 1.356427073059157e+001
 1.309388517424035e+000	 7.719428085591007e-001	 1.351783257035942e+001
 1.300913808409549e+000	 7.861406762605158e-001	 1.346462968496648e+001
 1.292273634145942e+000	 8.002641207509306e-001	 1.340504769818006e+001
 1.283468914795125e+000	 8.143102997098430e-001	 1.333934155505614e+001
 1.274500634744160e+000	 8.282763844106668e-001	 1.326763208149548e+001
 1.265369842407514e+000	 8.421595615134447e-001	 1.318990378724567e+001
 1.256077649969800e+000	 8.559570348565883e-001	 1.310600396202329e+001
 1.246625233068853e+000	 8.696660272453608e-001	 1.301564310457571e+001
 1.237013830419063e+000	 8.832837822347940e-001	 1.291839671407322e+001
 1.331652686840806e+000	 7.465951505314625e-001	 1.358730527066300e+001
 1.323475707450936e+000	 7.609961726519411e-001	 1.354948072460038e+001
 1.315130882781956e+000	 7.753281885142023e-001	 1.350422605325412e+001
 1.306619007659346e+000	 7.895883214198862e-001	 1.345209464948274e+001
 1.297940941634475e+000	 8.037737047291553e-001	 1.339351561283251e+001
 1.289097608904642e+000	 8.178814836564250e-001	 1.332878890631538e+001
 1.280089998173959e+000	 8.319088170696446e-001	 1.325808172329485e+001
 1.270919162454734e+000	 8.458528792908694e-001	 1.318142612539334e+001
 1.261586218809091e+000	 8.597108618958619e-001	 1.309871800288548e+001
 1.252092348030650e+000	 8.734799755104138e-001	 1.300971739893034e+001
 1.242438794266210e+000	 8.871574516010856e-001	 1.291405022830249e+001
 1.337467192725185e+000	 7.498550710325906e-001	 1.357225387615564e+001
 1.329254509510220e+000	 7.643189735336878e-001	 1.353572324326232e+001
 1.320873248139401e+000	 7.787135684687788e-001	 1.349148465485608e+001
 1.312324206908703e+000	 7.930359665787399e-001	 1.344026142694116e+001
 1.303608249122617e+000	 8.072832887068897e-001	 1.338252988702710e+001
 1.294726303013822e+000	 8.214526676025593e-001	 1.331863894475508e+001
 1.285679361603477e+000	 8.355412497282297e-001	 1.324880625596862e+001
 1.276468482501733e+000	 8.495461970679689e-001	 1.317311568576226e+001
 1.267094787648218e+000	 8.634646889348845e-001	 1.309151612381546e+001
 1.257559462992334e+000	 8.772939237752969e-001	 1.300382169495243e+001
 1.247863758113289e+000	 8.910311209672919e-001	 1.290971339689769e+001
 1.193614119651469e+000	 8.522944272914291e-001	 1.294281945456455e+001
 1.184187773428212e+000	 8.653437387781996e-001	 1.282989376532307e+001
 1.174610588701024e+000	 8.782997595461004e-001	 1.271995398414504e+001
 1.164883938575646e+000	 8.911598983624565e-001	 1.261161650650702e+001
 1.155009255025385e+000	 9.039215907491438e-001	 1.250336939386007e+001
 1.144988028244612e+000	 9.165823006445137e-001	 1.239358046111369e+001
 1.134821805946257e+000	 9.291395220466800e-001	 1.228050643362227e+001
 1.124512192603938e+000	 9.415907806359750e-001	 1.216230312833337e+001
 1.114060848639436e+000	 9.539336353744131e-001	 1.203703660443472e+001
 1.103469489556340e+000	 9.661656800800127e-001	 1.190269521977985e+001
 1.092739885020771e+000	 9.782845449738733e-001	 1.175720252067192e+001
 1.199039083495551e+000	 8.561680966613903e-001	 1.294153621113861e+001
 1.189569894626156e+000	 8.692767171336990e-001	 1.283040233539349e+001
 1.179949181693395e+000	 8.822916228817611e-001	 1.272223304055226e+001
 1.170178324043753e+000	 8.952102108957880e-001	 1.261564742315047e+001
 1.160258760158835e+000	 9.080299050421431e-001	 1.250913233984781e+001
 1.150191987005923e+000	 9.207481577328160e-001	 1.240105063418015e+001
 1.139979559332279e+000	 9.333624515761817e-001	 1.228965046874158e+001
 1.129623088903830e+000	 9.458703010068277e-001	 1.217307571656598e+001
 1.119124243688950e+000	 9.582692538922897e-001	 1.204937735586425e+001
 1.108484746988168e+000	 9.705568931145264e-001	 1.191652580293030e+001
 1.097706376510712e+000	 9.827308381240307e-001	 1.177242410905195e+001
 1.204464047340367e+000	 8.600417660306019e-001	 1.293959617478459e+001
 1.194952015824789e+000	 8.732096954884189e-001	 1.283022558242085e+001
 1.185287774686401e+000	 8.862834862166201e-001	 1.272378630265127e+001
 1.175472709512434e+000	 8.992605234283049e-001	 1.261890254776759e+001
 1.165508265292791e+000	 9.121382193343226e-001	 1.251406239628321e+001
 1.155395945767666e+000	 9.249140148203019e-001	 1.240762615799467e+001
 1.145137312718654e+000	 9.375853811048774e-001	 1.229783588115074e+001
 1.134733985203993e+000	 9.501498213768944e-001	 1.218282595460187e+001
 1.124187638738652e+000	 9.626048724094066e-001	 1.206063474788950e+001
 1.113500004420099e+000	 9.749481061483156e-001	 1.192921722260254e+001
 1.102672868000670e+000	 9.871771312735052e-001	 1.178645843906556e+001
 1.209889011185817e+000	 8.639154353991482e-001	 1.293707025022906e+001
 1.200334137024022e+000	 8.771426738424566e-001	 1.282943794506426e+001
 1.190626367679964e+000	 8.902753495507885e-001	 1.272469285256972e+001
 1.180767094981621e+000	 9.033108359601296e-001	 1.262146670253742e+001
 1.170757770427195e+000	 9.162465336258145e-001	 1.251825120481810e+001
 1.160599904529793e+000	 9.290798719071129e-001	 1.241340655176622e+001
 1.150295066105347e+000	 9.418083106329169e-001	 1.230517110024345e+001
 1.139844881504405e+000	 9.544293417463268e-001	 1.219167218514895e+001
 1.129251033788531e+000	 9.669404909259187e-001	 1.207093800622469e+001
 1.118515261852135e+000	 9.793393191815332e-001	 1.194091051995338e+001
 1.107639359490663e+000	 9.916234244224459e-001	 1.179945925881602e+001
 1.215313975031800e+000	 8.677891047671119e-001	 1.293403323689894e+001
 1.205716258223763e+000	 8.810756521959097e-001	 1.282811760957834e+001
 1.195964960674003e+000	 8.942672128843769e-001	 1.272503536400166e+001
 1.186061480451242e+000	 9.073611484913845e-001	 1.262342813682266e+001
 1.176007275561987e+000	 9.203548479167536e-001	 1.252179366208050e+001
 1.165803863292257e+000	 9.332457289933898e-001	 1.241849441013644e+001
 1.155452819492321e+000	 9.460312401604467e-001	 1.231176744441603e+001
 1.144955777805041e+000	 9.587088621152785e-001	 1.219973544701089e+001
 1.134314428838575e+000	 9.712761094419803e-001	 1.208041885366383e+001
 1.123530519284278e+000	 9.837305322143327e-001	 1.195174902842378e+001
 1.112605850980706e+000	 9.960697175710029e-001	 1.181158239840803e+001
 1.220738938878217e+000	 8.716627741345753e-001	 1.293056365188522e+001
 1.211098379423924e+000	 8.850086305488757e-001	 1.282634633391832e+001
 1.201303553668436e+000	 8.982590762174960e-001	 1.272489992804910e+001
 1.191355865921229e+000	 9.114114610221925e-001	 1.262487835533233e+001
 1.181256780697107e+000	 9.244631622072710e-001	 1.252478775073571e+001
 1.171007822055010e+000	 9.374115860792748e-001	 1.242299523770774e+001
 1.160610572879540e+000	 9.502541696876151e-001	 1.231773895961910e+001
 1.150066674105876e+000	 9.629883824839004e-001	 1.220713931820595e+001
 1.139377823888773e+000	 9.756117279577450e-001	 1.208921135829976e+001
 1.128545776716530e+000	 9.881217452468674e-001	 1.196187822757716e+001
 1.117572342470817e+000	 1.000516010719327e+000	 1.182298562990813e+001
 1.226163902724966e+000	 8.755364435016215e-001	 1.292674355395983e+001
 1.216480500624413e+000	 8.889416089014518e-001	 1.282420927284848e+001
 1.206642146663185e+000	 9.022509395502558e-001	 1.272437588000395e+001
 1.196650251391511e+000	 9.154617735526760e-001	 1.262591194715404e+001
 1.186506285832498e+000	 9.285714764975006e-001	 1.252733437133501e+001
 1.176211780818002e+000	 9.415774431649091e-001	 1.242701728426493e+001
 1.165768326266968e+000	 9.544770992145705e-001	 1.232320225849871e+001
 1.155177570406885e+000	 9.672679028523454e-001	 1.221400975956299e+001
 1.144441218939113e+000	 9.799473464733667e-001	 1.209745178209719e+001
 1.133561034148893e+000	 9.925129582792911e-001	 1.197144559715915e+001
 1.122538833961011e+000	 1.004962303867566e+000	 1.183382852738765e+001
 1.231588866571949e+000	 8.794101128683336e-001	 1.292265836861182e+001
 1.221862621825139e+000	 8.928745872537349e-001	 1.282179480402122e+001
 1.211980739658170e+000	 9.062428028827684e-001	 1.272355562704321e+001
 1.201944636862018e+000	 9.195120860829577e-001	 1.262662641562869e+001
 1.191755790968099e+000	 9.326797907875748e-001	 1.252953717492630e+001
 1.181415739581187e+000	 9.457433002504337e-001	 1.243067138066804e+001
 1.170926079654566e+000	 9.587000287414601e-001	 1.232827636010838e+001
 1.160288466708044e+000	 9.715474232207657e-001	 1.222047495877859e+001
 1.149504613989583e+000	 9.842829649890003e-001	 1.210527842980758e+001
 1.138576291581370e+000	 9.969041713117569e-001	 1.198060047137108e+001
 1.127505325451305e+000	 1.009408597015872e+000	 1.184427232704053e+001
 1.237013830419063e+000	 8.832837822347940e-001	 1.291839671407322e+001
 1.227244743026015e+000	 8.968075656058232e-001	 1.281919435499896e+001
 1.217319332653310e+000	 9.102346662151432e-001	 1.272253447680815e+001
 1.207239022332682e+000	 9.235623986131606e-001	 1.262712200904120e+001
 1.197005296103852e+000	 9.367881050776268e-001	 1.253150239640333e+001
 1.186619698344515e+000	 9.499091573359905e-001	 1.243407077539758e+001
 1.176083833042299e+000	 9.629229582684320e-001	 1.233308253017658e+001
 1.165399363009330e+000	 9.758269435893137e-001	 1.222666517492187e+001
 1.154568009040171e+000	 9.886185835047997e-001	 1.211283149821731e+001
 1.143591549013961e+000	 1.001295384344419e+000	 1.198949389335201e+001
 1.132471816941716e+000	 1.013854890164394e+000	 1.185448068475388e+001
 1.242438794266210e+000	 8.871574516010856e-001	 1.291405022830249e+001
 1.232626864226947e+000	 9.007405439578134e-001	 1.281650223118846e+001
 1.222657925648524e+000	 9.142265295474914e-001	 1.272141046684044e+001
 1.212533407803432e+000	 9.276127111434063e-001	 1.262750155210416e+001
 1.202254801239697e+000	 9.408964193677896e-001	 1.253333868857145e+001
 1.191823657107940e+000	 9.540750144217212e-001	 1.243733097173019e+001
 1.181241586430130e+000	 9.671458877956344e-001	 1.233774412191001e+001
 1.170510259310717e+000	 9.801064639581415e-001	 1.223271258337350e+001
 1.159631404090867e+000	 9.929542020209187e-001	 1.212025292571638e+001
 1.148606806446670e+000	 1.005686597377430e+000	 1.199827846986187e+001
 1.137438308432261e+000	 1.018301183313283e+000	 1.186461606095905e+001
 1.247863758113289e+000	 8.910311209672919e-001	 1.290971339689769e+001
 1.238008985427848e+000	 9.046735223098030e-001	 1.281381544466053e+001
 1.227996518643735e+000	 9.182183928799237e-001	 1.272028419485061e+001
 1.217827793274197e+000	 9.316630236738184e-001	 1.262787027820821e+001
 1.207504306375576e+000	 9.450047336581960e-001	 1.253515695690808e+001
 1.197027615871412e+000	 9.582408715077666e-001	 1.244056956552666e+001
 1.186399339818024e+000	 9.713688173232155e-001	 1.234238641731832e+001
 1.175621155612181e+000	 9.843859843274009e-001	 1.223875112118523e+001
 1.164694799141658e+000	 9.972898205375118e-001	 1.212768624218057e+001
 1.153622063879497e+000	 1.010077810410943e+000	 1.200710822616063e+001
 1.142404799922955e+000	 1.022747476462686e+000	 1.187484460415509e+001
 1.092739885020771e+000	 9.782845449738733e-001	 1.175720252067192e+001
 1.081875498010749e+000	 9.902861067161902e-001	 1.160835994399219e+001
 1.070876604467505e+000	 1.002169900948811e+000	 1.146414686415398e+001
 1.059745130581474e+000	 1.013933678039448e+000	 1.132278293463438e+001
 1.048483052470228e+000	 1.025575230629225e+000	 1.118250106658957e+001
 1.037092395011246e+000	 1.037092395011246e+000	 1.104156191713152e+001
 1.025575230629225e+000	 1.048483052470228e+000	 1.089826857880323e+001
 1.013933678039448e+000	 1.059745130581474e+000	 1.075098135635526e+001
 1.002169900948811e+000	 1.070876604467505e+000	 1.059813251384462e+001
 9.902861067161898e-001	 1.081875498010748e+000	 1.043824087292700e+001
 9.782845449738733e-001	 1.092739885020771e+000	 1.026992614201249e+001
 1.097706376510712e+000	 9.827308381240307e-001	 1.177242410905195e+001
 1.086792610973798e+000	 9.947869468404698e-001	 1.162499623230024e+001
 1.075743727572818e+000	 1.006724752795177e+000	 1.148233442756633e+001
 1.064561661252739e+000	 1.018541996131295e+000	 1.134262065082356e+001
 1.053248397112579e+000	 1.030236459457509e+000	 1.120404988939289e+001
 1.041805969232883e+000	 1.041805969232883e+000	 1.106484508860810e+001
 1.030236459457509e+000	 1.053248397112579e+000	 1.092327229308255e+001
 1.018541996131295e+000	 1.064561661252739e+000	 1.077765588537978e+001
 1.006724752795177e+000	 1.075743727572818e+000	 1.062639380168324e+001
 9.947869468404696e-001	 1.086792610973798e+000	 1.046797260179736e+001
 9.827308381240306e-001	 1.097706376510712e+000	 1.030098226953987e+001
 1.102672868000670e+000	 9.871771312735052e-001	 1.178645843906556e+001
 1.091709723936780e+000	 9.992877869641140e-001	 1.164040962622271e+001
 1.080610850677982e+000	 1.011279604640963e+000	 1.149927733026882e+001
 1.069378191923773e+000	 1.023150314222622e+000	 1.136120311750860e+001
 1.058013741754623e+000	 1.034897688285340e+000	 1.122434107423906e+001
 1.046519543454137e+000	 1.046519543454137e+000	 1.108687841919608e+001
 1.034897688285340e+000	 1.058013741754623e+000	 1.094702495086278e+001
 1.023150314222622e+000	 1.069378191923773e+000	 1.080308108844579e+001
 1.011279604640963e+000	 1.080610850677982e+000	 1.065340125028370e+001
 9.992877869641136e-001	 1.091709723936780e+000	 1.049643557569959e+001
 9.871771312735052e-001	 1.102672868000670e+000	 1.033073998325816e+001
 1.107639359490663e+000	 9.916234244224459e-001	 1.179945925881602e+001
 1.096626836899727e+000	 1.003788627087267e+000	 1.165476590206347e+001
 1.085477973783044e+000	 1.015834456486303e+000	 1.151515117212267e+001
 1.074194722594640e+000	 1.027758632313554e+000	 1.137871673971757e+001
 1.062779086396438e+000	 1.039558917112827e+000	 1.124356752704250e+001
 1.051233117675104e+000	 1.051233117675104e+000	 1.110784345612976e+001
 1.039558917112827e+000	 1.062779086396438e+000	 1.096972599161461e+001
 1.027758632313553e+000	 1.074194722594640e+000	 1.082745647641235e+001
 1.015834456486303e+000	 1.085477973783043e+000	 1.067934406361024e+001
 1.003788627087267e+000	 1.096626836899727e+000	 1.052381387764155e+001
 9.916234244224458e-001	 1.107639359490663e+000	 1.035937618676928e+001
 1.112605850980706e+000	 9.960697175710029e-001	 1.181158239840803e+001
 1.101543949862671e+000	 1.008289467210072e+000	 1.166823272984910e+001
 1.090345096888051e+000	 1.020389308331332e+000	 1.153013330705095e+001
 1.079011253265406e+000	 1.032366950404211e+000	 1.139534014465053e+001
 1.067544431038105e+000	 1.044220145940081e+000	 1.126191117502876e+001
 1.055946691895879e+000	 1.055946691895878e+000	 1.112793903736360e+001
 1.044220145940081e+000	 1.067544431038105e+000	 1.099155769646232e+001
 1.032366950404211e+000	 1.079011253265406e+000	 1.085096141150965e+001
 1.020389308331332e+000	 1.090345096888051e+000	 1.070441331943261e+001
 1.008289467210072e+000	 1.101543949862671e+000	 1.055029363183978e+001
 9.960697175710030e-001	 1.112605850980706e+000	 1.038707003051843e+001
 1.117572342470817e+000	 1.000516010719327e+000	 1.182298562990813e+001
 1.106461062825644e+000	 1.012790307332672e+000	 1.168097953929722e+001
 1.095212219993053e+000	 1.024944160176184e+000	 1.154440505194495e+001
 1.083827783936134e+000	 1.036975268494720e+000	 1.141126284572106e+001
 1.072309775679705e+000	 1.048881374767212e+000	 1.127956799431187e+001
 1.060660266116558e+000	 1.060660266116558e+000	 1.114736029249414e+001
 1.048881374767212e+000	 1.072309775679705e+000	 1.101272275286123e+001
 1.036975268494720e+000	 1.083827783936134e+000	 1.087379886283257e+001
 1.024944160176184e+000	 1.095212219993053e+000	 1.072880985339046e+001
 1.012790307332672e+000	 1.106461062825644e+000	 1.057606289277302e+001
 1.000516010719327e+000	 1.117572342470816e+000	 1.041400280078533e+001
 1.122538833961011e+000	 1.004962303867566e+000	 1.183382852738765e+001
 1.111378175788677e+000	 1.017291147455212e+000	 1.169317889733640e+001
 1.100079343098097e+000	 1.029499012020994e+000	 1.155814227978688e+001
 1.088644314606888e+000	 1.041583586585202e+000	 1.142667269384071e+001
 1.077075120321317e+000	 1.053542603594330e+000	 1.129673117575959e+001
 1.065373840337237e+000	 1.065373840337237e+000	 1.116630373260045e+001
 1.053542603594330e+000	 1.077075120321317e+000	 1.103341898609910e+001
 1.041583586585202e+000	 1.088644314606888e+000	 1.089616597794856e+001
 1.029499012020994e+000	 1.100079343098096e+000	 1.075271199752962e+001
 1.017291147455212e+000	 1.111378175788677e+000	 1.060132029029704e+001
 1.004962303867566e+000	 1.122538833961010e+000	 1.044035780841960e+001
 1.127505325451305e+000	 1.009408597015872e+000	 1.184427232704053e+001
 1.116295288751804e+000	 1.021791987577834e+000	 1.170500043037638e+001
 1.104946466203231e+000	 1.034053863865896e+000	 1.157152907778672e+001
 1.093460845277733e+000	 1.046191904675780e+000	 1.144175882859824e+001
 1.081840464963022e+000	 1.058203832421545e+000	 1.131359516477762e+001
 1.070087414558012e+000	 1.070087414558012e+000	 1.118496713244902e+001
 1.058203832421546e+000	 1.081840464963022e+000	 1.105384553635258e+001
 1.046191904675780e+000	 1.093460845277733e+000	 1.091826131125623e+001
 1.034053863865896e+000	 1.104946466203231e+000	 1.077632392738344e+001
 1.021791987577833e+000	 1.116295288751804e+000	 1.062623968393097e+001
 1.009408597015872e+000	 1.127505325451305e+000	 1.046632027732920e+001
 1.132471816941716e+000	 1.013854890164394e+000	 1.185448068475388e+001
 1.121212401715056e+000	 1.026292827700682e+000	 1.171661943076534e+001
 1.109813589308504e+000	 1.038608715711025e+000	 1.158474852886032e+001
 1.098277375948733e+000	 1.050800222766579e+000	 1.145671155336476e+001
 1.086605809604901e+000	 1.062865061248969e+000	 1.133035554010684e+001
 1.074800988778979e+000	 1.074800988778979e+000	 1.120354941236256e+001
 1.062865061248969e+000	 1.086605809604901e+000	 1.107420274301402e+001
 1.050800222766579e+000	 1.098277375948733e+000	 1.094028471016716e+001
 1.038608715711025e+000	 1.109813589308504e+000	 1.079984309919549e+001
 1.026292827700681e+000	 1.121212401715056e+000	 1.065102320105111e+001
 1.013854890164394e+000	 1.132471816941716e+000	 1.049208645474002e+001
 1.137438308432261e+000	 1.018301183313283e+000	 1.186461606095905e+001
 1.126129514678464e+000	 1.030793667823899e+000	 1.172821102733440e+001
 1.114680712413962e+000	 1.043163567556515e+000	 1.159798482460155e+001
 1.103093906619952e+000	 1.055408540857721e+000	 1.147172221016943e+001
 1.091371154247033e+000	 1.067526290076710e+000	 1.134720889233387e+001
 1.079514563000233e+000	 1.079514563000233e+000	 1.122225051976141e+001
 1.067526290076710e+000	 1.091371154247033e+000	 1.109469202867200e+001
 1.055408540857721e+000	 1.103093906619952e+000	 1.096243720094322e+001
 1.043163567556515e+000	 1.114680712413962e+000	 1.082346828191028e+001
 1.030793667823899e+000	 1.126129514678465e+000	 1.067586550335909e+001
 1.018301183313283e+000	 1.137438308432261e+000	 1.051782635516300e+001
 1.142404799922955e+000	 1.022747476462686e+000	 1.187484460415510e+001
 1.131046627642062e+000	 1.035294507947630e+000	 1.173995143759979e+001
 1.119547835519656e+000	 1.047718419402501e+000	 1.161142313576795e+001
 1.107910437291455e+000	 1.060016858949330e+000	 1.148698305435373e+001
 1.096136498889500e+000	 1.072187518904880e+000	 1.136435270212163e+001
 1.084228137221870e+000	 1.084228137221870e+000	 1.124127131038878e+001
 1.072187518904880e+000	 1.096136498889500e+000	 1.111551578275673e+001
 1.060016858949330e+000	 1.107910437291456e+000	 1.098492087419900e+001
 1.047718419402502e+000	 1.119547835519656e+000	 1.084739944397845e+001
 1.035294507947629e+000	 1.131046627642062e+000	 1.070096262344708e+001
 1.022747476462687e+000	 1.142404799922955e+000	 1.054373973761311e+001
 9.782845449738733e-001	 1.092739885020771e+000	 1.026992614201249e+001
 9.661656800800127e-001	 1.103469489556340e+000	 1.009836578512464e+001
 9.539336353744131e-001	 1.114060848639436e+000	 9.928498140542116e+000
 9.415907806359750e-001	 1.124512192603938e+000	 9.758686800766714e+000
 9.291395220466797e-001	 1.134821805946257e+000	 9.587434104500192e+000
 9.165823006445141e-001	 1.144988028244612e+000	 9.413393299547126e+000
 9.039215907491438e-001	 1.155009255025385e+000	 9.235379759977580e+000
 8.911598983624566e-001	 1.164883938575646e+000	 9.052381154217150e+000
 8.782997595461003e-001	 1.174610588701024e+000	 8.863566467193255e+000
 8.653437387781996e-001	 1.184187773428212e+000	 8.668293786956077e+000
 8.522944272914295e-001	 1.193614119651469e+000	 8.466116774266567e+000
 9.827308381240306e-001	 1.097706376510712e+000	 1.030098226953987e+001
 9.705568931145264e-001	 1.108484746988168e+000	 1.013053553775603e+001
 9.582692538922897e-001	 1.119124243688950e+000	 9.961545609532468e+000
 9.458703010068273e-001	 1.129623088903829e+000	 9.792412113812551e+000
 9.333624515761814e-001	 1.139979559332279e+000	 9.621678522904894e+000
 9.207481577328164e-001	 1.150191987005923e+000	 9.448044629740412e+000
 9.080299050421432e-001	 1.160258760158835e+000	 9.270378056316012e+000
 8.952102108957879e-001	 1.170178324043752e+000	 9.087724686837307e+000
 8.822916228817612e-001	 1.179949181693395e+000	 8.899317925674271e+000
 8.692767171336987e-001	 1.189569894626156e+000	 8.704586687707963e+000
 8.561680966613903e-001	 1.199039083495551e+000	 8.503162036916839e+000
 9.871771312735052e-001	 1.102672868000670e+000	 1.033073998325816e+001
 9.749481061483157e-001	 1.113500004420100e+000	 1.016136517656213e+001
 9.626048724094065e-001	 1.124187638738652e+000	 9.993207300421306e+000
 9.501498213768941e-001	 1.134733985203993e+000	 9.824705870121196e+000
 9.375853811048776e-001	 1.145137312718654e+000	 9.654449704085273e+000
 9.249140148203022e-001	 1.155395945767666e+000	 9.481189717608475e+000
 9.121382193343224e-001	 1.165508265292791e+000	 9.303850723909603e+000
 8.992605234283048e-001	 1.175472709512434e+000	 9.121542132789449e+000
 8.862834862166201e-001	 1.185287774686401e+000	 8.933567443936761e+000
 8.732096954884191e-001	 1.194952015824790e+000	 8.739432439564366e+000
 8.600417660306018e-001	 1.204464047340367e+000	 8.538851989525064e+000
 9.916234244224458e-001	 1.107639359490663e+000	 1.035937618676928e+001
 9.793393191815333e-001	 1.118515261852135e+000	 1.019102468473823e+001
 9.669404909259189e-001	 1.129251033788531e+000	 1.002364878257281e+001
 9.544293417463267e-001	 1.139844881504405e+000	 9.855731643413682e+000
 9.418083106329169e-001	 1.150295066105347e+000	 9.685911553778174e+000
 9.290798719071128e-001	 1.160599904529793e+000	 9.512995036240058e+000
 9.162465336258150e-001	 1.170757770427195e+000	 9.335968944761289e+000
 9.033108359601298e-001	 1.180767094981621e+000	 9.154011429674876e+000
 8.902753495507886e-001	 1.190626367679964e+000	 8.966501666224195e+000
 8.771426738424565e-001	 1.200334137024022e+000	 8.773028248390180e+000
 8.639154353991481e-001	 1.209889011185817e+000	 8.573396158403014e+000
 9.960697175710030e-001	 1.112605850980706e+000	 1.038707003051843e+001
 9.837305322143328e-001	 1.123530519284278e+000	 1.021968649362202e+001
 9.712761094419803e-001	 1.134314428838575e+000	 1.005303822908972e+001
 9.587088621152785e-001	 1.144955777805041e+000	 9.885655721381928e+000
 9.460312401604467e-001	 1.155452819492322e+000	 9.716230756932816e+000
 9.332457289933900e-001	 1.165803863292257e+000	 9.543629858592510e+000
 9.203548479167534e-001	 1.176007275561987e+000	 9.366906677260111e+000
 9.073611484913843e-001	 1.186061480451242e+000	 9.185313224344537e+000
 8.942672128843766e-001	 1.195964960674002e+000	 8.998309835769321e+000
 8.810756521959097e-001	 1.205716258223763e+000	 8.805573766230678e+000
 8.677891047671119e-001	 1.215313975031800e+000	 8.607006321307051e+000
 1.000516010719327e+000	 1.117572342470816e+000	 1.041400280078533e+001
 9.881217452468672e-001	 1.128545776716530e+000	 1.024752537192046e+001
 9.756117279577450e-001	 1.139377823888773e+000	 1.008154630747027e+001
 9.629883824839003e-001	 1.150066674105876e+000	 9.914646998939151e+000
 9.502541696876153e-001	 1.160610572879541e+000	 9.745576674683944e+000
 9.374115860792749e-001	 1.171007822055010e+000	 9.573266159287378e+000
 9.244631622072710e-001	 1.181256780697107e+000	 9.396840563860197e+000
 9.114114610221924e-001	 1.191355865921228e+000	 9.215630787490856e+000
 8.982590762174958e-001	 1.201303553668436e+000	 9.029183717289174e+000
 8.850086305488756e-001	 1.211098379423924e+000	 8.837271022663654e+000
 8.716627741345753e-001	 1.220738938878217e+000	 8.639896448565382e+000
 1.004962303867566e+000	 1.122538833961010e+000	 1.044035780841961e+001
 9.925129582792914e-001	 1.133561034148894e+000	 1.027471831473739e+001
 9.799473464733670e-001	 1.144441218939113e+000	 1.010934607009297e+001
 9.672679028523452e-001	 1.155177570406885e+000	 9.942876871296123e+000
 9.544770992145704e-001	 1.165768326266968e+000	 9.774121241125030e+000
 9.415774431649091e-001	 1.176211780818002e+000	 9.602078516148398e+000
 9.285714764975006e-001	 1.186506285832497e+000	 9.425949838424128e+000
 9.154617735526760e-001	 1.196650251391511e+000	 9.245149927795900e+000
 9.022509395502558e-001	 1.206642146663185e+000	 9.059317518905834e+000
 8.889416089014515e-001	 1.216480500624412e+000	 8.868324355422068e+000
 8.755364435016215e-001	 1.226163902724966e+000	 8.672282643295333e+000
 1.009408597015872e+000	 1.127505325451305e+000	 1.046632027732920e+001
 9.969041713117574e-001	 1.138576291581370e+000	 1.030144443240935e+001
 9.842829649890004e-001	 1.149504613989582e+000	 1.013661284453647e+001
 9.715474232207657e-001	 1.160288466708044e+000	 9.970519126873599e+000
 9.587000287414598e-001	 1.170926079654566e+000	 9.802038859887109e+000
 9.457433002504339e-001	 1.181415739581187e+000	 9.630244011493998e+000
 9.326797907875750e-001	 1.191755790968099e+000	 9.454416233237486e+000
 9.195120860829579e-001	 1.201944636862018e+000	 9.274058905648740e+000
 9.062428028827680e-001	 1.211980739658170e+000	 9.088907813508742e+000
 8.928745872537350e-001	 1.221862621825140e+000	 8.898940340308673e+000
 8.794101128683334e-001	 1.231588866571949e+000	 8.704383080739797e+000
 1.013854890164394e+000	 1.132471816941716e+000	 1.049208645474001e+001
 1.001295384344419e+000	 1.143591549013961e+000	 1.032788483915341e+001
 9.886185835047997e-001	 1.154568009040171e+000	 1.016352412373760e+001
 9.758269435893138e-001	 1.165399363009330e+000	 9.997749840050190e+000
 9.629229582684322e-001	 1.176083833042299e+000	 9.829506300529978e+000
 9.499091573359907e-001	 1.186619698344515e+000	 9.657942133189044e+000
 9.367881050776269e-001	 1.197005296103851e+000	 9.482423885710006e+000
 9.235623986131606e-001	 1.207239022332682e+000	 9.302548346447315e+000
 9.102346662151430e-001	 1.217319332653310e+000	 9.118153459577309e+000
 8.968075656058231e-001	 1.227244743026015e+000	 8.929327720424508e+000
 8.832837822347940e-001	 1.237013830419063e+000	 8.736417946751264e+000
 1.018301183313283e+000	 1.137438308432261e+000	 1.051782635516300e+001
 1.005686597377429e+000	 1.148606806446669e+000	 1.035422254153487e+001
 9.929542020209188e-001	 1.159631404090867e+000	 1.019025945599363e+001
 9.801064639581413e-001	 1.170510259310717e+000	 1.002474726375641e+001
 9.671458877956345e-001	 1.181241586430130e+000	 9.856702594750299e+000
 9.540750144217213e-001	 1.191823657107940e+000	 9.685354675463778e+000
 9.408964193677897e-001	 1.202254801239697e+000	 9.510159244768078e+000
 9.276127111434064e-001	 1.212533407803431e+000	 9.330811153496349e+000
 9.142265295474914e-001	 1.222657925648525e+000	 9.147255521480748e+000
 9.007405439578132e-001	 1.232626864226947e+000	 8.959697334732299e+000
 8.871574516010855e-001	 1.242438794266210e+000	 8.768609375445710e+000
 1.022747476462687e+000	 1.142404799922955e+000	 1.054373973761311e+001
 1.010077810410943e+000	 1.153622063879497e+000	 1.038064232675929e+001
 9.972898205375119e-001	 1.164694799141658e+000	 1.021700033481433e+001
 9.843859843274009e-001	 1.175621155612181e+000	 1.005169172191424e+001
 9.713688173232153e-001	 1.186399339818024e+000	 9.883808932413958e+000
 9.582408715077669e-001	 1.197027615871412e+000	 9.712665639508215e+000
 9.450047336581959e-001	 1.207504306375576e+000	 9.537810976950418e+000
 9.316630236738184e-001	 1.217827793274197e+000	 9.359042420512299e+000
 9.182183928799237e-001	 1.227996518643735e+000	 9.176417189268413e+000
 9.046735223098031e-001	 1.238008985427847e+000	 8.990262045974875e+000
 8.910311209672918e-001	 1.247863758113289e+000	 8.801181386056038e+000
 8.522944272914295e-001	 1.193614119651469e+000	 8.466116774266567e+000
 8.391544411107291e-001	 1.202888313383635e+000	 8.262131397933638e+000
 8.259264185271869e-001	 1.212009099263907e+000	 8.061579948915723e+000
 8.126130192780124e-001	 1.220975282037234e+000	 7.864548389232692e+000
 7.992169231221942e-001	 1.229785727312124e+000	 7.671339934351866e+000
 7.857408281201320e-001	 1.238439361924098e+000	 7.482473704469690e+000
 7.721874489079046e-001	 1.246935174241497e+000	 7.298681755307170e+000
 7.585595149683921e-001	 1.255272214413711e+000	 7.120904480105774e+000
 7.448597689014560e-001	 1.263449594561992e+000	 6.950284386077754e+000
 7.310909646953698e-001	 1.271466488913099e+000	 6.788158260159110e+000
 7.172558660016536e-001	 1.279322133876119e+000	 6.636047750441481e+000
 8.561680966613903e-001	 1.199039083495551e+000	 8.503162036916839e+000
 8.429683893795676e-001	 1.208355428342368e+000	 8.300249528008081e+000
 8.296802455703222e-001	 1.217517668100204e+000	 8.101056309315897e+000
 8.163063370593352e-001	 1.226524602081588e+000	 7.905535728960099e+000
 8.028493557850693e-001	 1.235375090739231e+000	 7.713861492122418e+000
 7.893120120705768e-001	 1.244068056031136e+000	 7.526426723392896e+000
 7.756970328899254e-001	 1.252602481727787e+000	 7.343841365552197e+000
 7.620071601314623e-001	 1.260977413661516e+000	 7.166927904748639e+000
 7.482451488601336e-001	 1.269191959918177e+000	 6.996715423920314e+000
 7.344137655810579e-001	 1.277245290971399e+000	 6.834431998232573e+000
 7.205157865065180e-001	 1.285136639759758e+000	 6.681495458170473e+000
 8.600417660306018e-001	 1.204464047340367e+000	 8.538851989525064e+000
 8.467823376476981e-001	 1.213822543301870e+000	 8.337118442381323e+000
 8.334340726127945e-001	 1.223026236937295e+000	 8.139372103269785e+000
 8.199996548400456e-001	 1.232073922126751e+000	 7.945426812878974e+000
 8.064817884473832e-001	 1.240964454167154e+000	 7.755319622557667e+000
 7.928831960205115e-001	 1.249696750138987e+000	 7.569310293200651e+000
 7.792066168714839e-001	 1.258269789214880e+000	 7.387879087014159e+000
 7.654548052941126e-001	 1.266682612910106e+000	 7.211722840309689e+000
 7.516305288184261e-001	 1.274934325275120e+000	 7.041749317677404e+000
 7.377365664663842e-001	 1.283024093030423e+000	 6.879069860166878e+000
 7.237757070110324e-001	 1.290951145644078e+000	 6.724990352298430e+000
 8.639154353991481e-001	 1.209889011185817e+000	 8.573396158403014e+000
 8.505962859151864e-001	 1.219289658262030e+000	 8.372958512403510e+000
 8.371878996546549e-001	 1.228534805775061e+000	 8.176753965360719e+000
 8.236929726201783e-001	 1.237623242172595e+000	 7.984450057371529e+000
 8.101142211091573e-001	 1.246553817595757e+000	 7.795940149017124e+000
 7.964543799699440e-001	 1.255325444247508e+000	 7.611343382308836e+000
 7.827162008525765e-001	 1.263937096702628e+000	 7.431002890464916e+000
 7.689024504563311e-001	 1.272387812159327e+000	 7.255482242755580e+000
 7.550159087763153e-001	 1.280676690632666e+000	 7.085560123199095e+000
 7.410593673513299e-001	 1.288802895090015e+000	 6.922223254502897e+000
 7.270356275151803e-001	 1.296765651528928e+000	 6.766657591195648e+000
 8.677891047671119e-001	 1.215313975031800e+000	 8.607006321307051e+000
 8.544102341821004e-001	 1.224756773222739e+000	 8.407992180919399e+000
 8.409417266959556e-001	 1.234043374613380e+000	 8.213430490991929e+000
 8.273862903997703e-001	 1.243172562218991e+000	 8.022835795542212e+000
 8.137466537704129e-001	 1.252143181024902e+000	 7.835950831330696e+000
 8.000255639188816e-001	 1.260954138356556e+000	 7.652746976440519e+000
 7.862257848331998e-001	 1.269604404190879e+000	 7.473422903122992e+000
 7.723500956181049e-001	 1.278093011409026e+000	 7.298401419146225e+000
 7.584012887337839e-001	 1.286419055990660e+000	 7.128324494770045e+000
 7.443821682358759e-001	 1.294581697150023e+000	 6.964046485436371e+000
 7.302955480189454e-001	 1.302580157414160e+000	 6.806625573169705e+000
 8.716627741345753e-001	 1.220738938878217e+000	 8.639896448565382e+000
 8.582241824485075e-001	 1.230223888183886e+000	 8.442443912800902e+000
 8.446955537367479e-001	 1.239551943452133e+000	 8.249632194721619e+000
 8.310796081788571e-001	 1.248721882265810e+000	 8.060816241790951e+000
 8.173790864311703e-001	 1.257732544454452e+000	 7.875581335083788e+000
 8.035967478673326e-001	 1.266582832465985e+000	 7.693744051132565e+000
 7.897353688133502e-001	 1.275271711679485e+000	 7.515351382939585e+000
 7.757977407794223e-001	 1.283798210659050e+000	 7.340678002294602e+000
 7.617866686908141e-001	 1.292161421348948e+000	 7.170221658784647e+000
 7.477049691200033e-001	 1.300360499210294e+000	 7.004696724194658e+000
 7.335554685223118e-001	 1.308394663299624e+000	 6.845025904274197e+000
 8.755364435016215e-001	 1.226163902724966e+000	 8.672282643295333e+000
 8.620381307144749e-001	 1.235691003145361e+000	 8.476540144402046e+000
 8.484493807770829e-001	 1.245060512291201e+000	 8.285591467397076e+000
 8.347729259574741e-001	 1.254271202312922e+000	 8.098625455102656e+000
 8.210115190914508e-001	 1.263321907884269e+000	 7.915063199575549e+000
 8.071679318153047e-001	 1.272211526575652e+000	 7.734559542917714e+000
 7.932449527930248e-001	 1.280939019168298e+000	 7.557002691593691e+000
 7.792453859402715e-001	 1.289503409909248e+000	 7.382511924210448e+000
 7.651720486473885e-001	 1.297903786707376e+000	 7.211433386314837e+000
 7.510277700036927e-001	 1.306139301270674e+000	 7.044333979447663e+000
 7.368153890252626e-001	 1.314209169185171e+000	 6.881993365331001e+000
 8.794101128683334e-001	 1.231588866571949e+000	 8.704383080739797e+000
 8.658520789800703e-001	 1.241158118107053e+000	 8.510509231971199e+000
 8.522032078170128e-001	 1.250569081130463e+000	 8.321542532124907e+000
 8.384662437356580e-001	 1.259820522360200e+000	 8.136499301092876e+000
 8.246439517512761e-001	 1.268911271314218e+000	 7.954629804494734e+000
 8.107391157628058e-001	 1.277840220685413e+000	 7.775420319219513e+000
 7.967545367722192e-001	 1.286606326657166e+000	 7.598593266238285e+000
 7.826930311006399e-001	 1.295208609159465e+000	 7.424105388365239e+000
 7.685574286034899e-001	 1.303646152065790e+000	 7.252143964606198e+000
 7.543505708869249e-001	 1.311918103331010e+000	 7.083121066788885e+000
 7.400753095277824e-001	 1.320023675070649e+000	 6.917665878189200e+000
 8.832837822347940e-001	 1.237013830419063e+000	 8.736417946751264e+000
 8.696660272453607e-001	 1.246625233068853e+000	 8.544581399051944e+000
 8.559570348565886e-001	 1.256077649969800e+000	 8.357721399112766e+000
 8.421595615134444e-001	 1.265369842407514e+000	 8.174675412848185e+000
 8.282763844106669e-001	 1.274500634744160e+000	 7.994516335349687e+000
 8.143102997098430e-001	 1.283468914795125e+000	 7.816555147001541e+000
 8.002641207509306e-001	 1.292273634145942e+000	 7.640341590033038e+000
 7.861406762605154e-001	 1.300913808409548e+000	 7.465662840814722e+000
 7.719428085591005e-001	 1.309388517424035e+000	 7.292540167532187e+000
 7.576733717696806e-001	 1.317696905391148e+000	 7.121223577307101e+000
 7.433352300298545e-001	 1.325838180955911e+000	 6.952184471244390e+000
 8.871574516010855e-001	 1.242438794266210e+000	 8.768609375445710e+000
 8.734799755104138e-001	 1.252092348030650e+000	 8.578988682902713e+000
 8.597108618958619e-001	 1.261586218809091e+000	 8.394365819417311e+000
 8.458528792908694e-001	 1.270919162454734e+000	 8.213393150597671e+000
 8.319088170696445e-001	 1.280089998173959e+000	 8.034959747693399e+000
 8.178814836564250e-001	 1.289097608904642e+000	 7.858194660208989e+000
 8.037737047291552e-001	 1.297940941634475e+000	 7.682468161503397e+000
 7.895883214198862e-001	 1.306619007659345e+000	 7.507390940212892e+000
 7.753281885142023e-001	 1.315130882781956e+000	 7.332811225041510e+000
 7.609961726519412e-001	 1.323475707450937e+000	 7.158809845282685e+000
 7.465951505314624e-001	 1.331652686840806e+000	 6.985693244241880e+000
 8.910311209672918e-001	 1.247863758113289e+000	 8.801181386056038e+000
 8.772939237752967e-001	 1.257559462992334e+000	 8.613964879966524e+000
 8.634646889348848e-001	 1.267094787648218e+000	 8.431715237632103e+000
 8.495461970679685e-001	 1.276468482501733e+000	 8.252893560251337e+000
 8.355412497282301e-001	 1.285679361603478e+000	 8.076198730177021e+000
 8.214526676025593e-001	 1.294726303013822e+000	 7.900571326038499e+000
 8.072832887068894e-001	 1.303608249122617e+000	 7.725195462760849e+000
 7.930359665787400e-001	 1.312324206908703e+000	 7.549498526752749e+000
 7.787135684687786e-001	 1.320873248139400e+000	 7.373148791627569e+000
 7.643189735336878e-001	 1.329254509510221e+000	 7.196050915033749e+000
 7.498550710325905e-001	 1.337467192725185e+000	 7.020093742929308e+000
 7.172558660016536e-001	 1.279322133876119e+000	 6.636047750441486e+000
 7.033593338589055e-001	 1.287014686416663e+000	 6.476776397882667e+000
 6.894020752245480e-001	 1.294544698864472e+000	 6.295709377453542e+000
 6.753868719443947e-001	 1.301911595370602e+000	 6.098498364076209e+000
 6.613165086713274e-001	 1.309114861985427e+000	 5.890537504693077e+000
 6.471937711893183e-001	 1.316154046458454e+000	 5.674162719710024e+000
 6.330214447531305e-001	 1.323028757985271e+000	 5.455488731228212e+000
 6.188023124455789e-001	 1.329738666902602e+000	 5.241403806706675e+000
 6.045391535541663e-001	 1.336283504332451e+000	 5.038723756706087e+000
 5.902347419688699e-001	 1.342663061776438e+000	 4.855072074125512e+000
 5.758918446027709e-001	 1.348877190661454e+000	 4.694254253671140e+000
 7.205157865065180e-001	 1.285136639759758e+000	 6.681495458170473e+000
 7.065560947684824e-001	 1.292864154872291e+000	 6.520789279784078e+000
 6.925354005374996e-001	 1.300428391149066e+000	 6.337927245644220e+000
 6.784564983028587e-001	 1.307828770123901e+000	 6.138750645971551e+000
 6.643221853736750e-001	 1.315064775511267e+000	 5.929172721379206e+000
 6.501352601952951e-001	 1.322135953005187e+000	 5.712041774916601e+000
 6.358985206814513e-001	 1.329041910025039e+000	 5.492691260867560e+000
 6.216147625640549e-001	 1.335782315409221e+000	 5.278488756477468e+000
 6.072867777624573e-001	 1.342356899057681e+000	 5.078477984843793e+000
 5.929173527739515e-001	 1.348765451524407e+000	 4.897404430555534e+000
 5.785092670872235e-001	 1.355007823561020e+000	 4.738553658458057e+000
 7.237757070110324e-001	 1.290951145644078e+000	 6.724990352298430e+000
 7.097528556777063e-001	 1.298713623328551e+000	 6.562476850410970e+000
 6.956687258500837e-001	 1.306312083434239e+000	 6.377427427270193e+000
 6.815261246609315e-001	 1.313745944877724e+000	 6.175884898517126e+000
 6.673278620756021e-001	 1.321014689037577e+000	 5.964051241049079e+000
 6.530767492008196e-001	 1.328117859552338e+000	 5.745856815518510e+000
 6.387755966092873e-001	 1.335055062065178e+000	 5.525764640294990e+000
 6.244272126820184e-001	 1.341825963916171e+000	 5.314136015717054e+000
 6.100344019702138e-001	 1.348430293783214e+000	 5.117004641124481e+000
 5.955999635784846e-001	 1.354867841272663e+000	 4.938186956428159e+000
 5.811266895711268e-001	 1.361138456460870e+000	 4.781051883491782e+000
 7.270356275151803e-001	 1.296765651528928e+000	 6.766657591195648e+000
 7.129496165865689e-001	 1.304563091785300e+000	 6.601937893750441e+000
 6.988020511623028e-001	 1.312195775719856e+000	 6.414285500389944e+000
 6.845957510186306e-001	 1.319663119631948e+000	 6.209956545803145e+000
 6.703335387771430e-001	 1.326964602564244e+000	 5.995375035271229e+000
 6.560182382059427e-001	 1.334099766099807e+000	 5.775654932112158e+000
 6.416526725367079e-001	 1.341068214105600e+000	 5.557734197859635e+000
 6.272396627995536e-001	 1.347869612423378e+000	 5.349256872633199e+000
 6.127820261775338e-001	 1.354503688508985e+000	 5.154617904411857e+000
 5.982825743825795e-001	 1.360970231021149e+000	 4.977732295979878e+000
 5.837441120545978e-001	 1.367269089360954e+000	 4.822062573831143e+000
 7.302955480189454e-001	 1.302580157414160e+000	 6.806625573169705e+000
 7.161463774950611e-001	 1.310412560242396e+000	 6.639274762855159e+000
 7.019353764741606e-001	 1.318079468005786e+000	 6.448580867278249e+000
 6.876653773759736e-001	 1.325580294386450e+000	 6.241025019502203e+000
 6.733392154783308e-001	 1.332914516091158e+000	 6.023265430153873e+000
 6.589597272107157e-001	 1.340081672647496e+000	 5.804442187201610e+000
 6.445297484637815e-001	 1.347081366146220e+000	 5.589942195475389e+000
 6.300521129167457e-001	 1.353913260930767e+000	 5.384169016645422e+000
 6.155296503845164e-001	 1.360577083234930e+000	 5.191631282308533e+000
 6.009651851863458e-001	 1.367072620769809e+000	 5.016352438345990e+000
 5.863615345377534e-001	 1.373399722261223e+000	 4.861898683368170e+000
 7.335554685223118e-001	 1.308394663299624e+000	 6.845025904274197e+000
 7.193431384031745e-001	 1.316262028699694e+000	 6.674593344182309e+000
 7.050687017856593e-001	 1.323963160291892e+000	 6.480396716693537e+000
 6.907350037329775e-001	 1.331497469141105e+000	 6.269153720393135e+000
 6.763448921792002e-001	 1.338864429618206e+000	 6.050114597830013e+000
 6.619012162151903e-001	 1.346063579195304e+000	 5.834294954765489e+000
 6.474068243905761e-001	 1.353094518186951e+000	 5.622712390638163e+000
 6.328645630336790e-001	 1.359956909438264e+000	 5.419189311380420e+000
 6.182772745912598e-001	 1.366650477960983e+000	 5.228357534787256e+000
 6.036477959898939e-001	 1.373175010518588e+000	 5.054358649933790e+000
 5.889789570207107e-001	 1.379530355161627e+000	 4.900872416773882e+000
 7.368153890252626e-001	 1.314209169185171e+000	 6.881993365331001e+000
 7.225398993109002e-001	 1.322111497157053e+000	 6.708003021320964e+000
 7.082020270968021e-001	 1.329846852578039e+000	 6.509819985662691e+000
 6.938046300896604e-001	 1.337414643895790e+000	 6.295813830300247e+000
 6.793505688797845e-001	 1.344814343145278e+000	 6.079158915893480e+000
 6.648427052194174e-001	 1.352045485743133e+000	 5.865545611927449e+000
 6.502839003171606e-001	 1.359107670227705e+000	 5.656367490493210e+000
 6.356770131504380e-001	 1.366000557945791e+000	 5.454633710141145e+000
 6.210248987978638e-001	 1.372723872687081e+000	 5.265108597434844e+000
 6.063304067933328e-001	 1.379277400267429e+000	 5.092061406316203e+000
 5.915963795035859e-001	 1.385660988062116e+000	 4.939295170851145e+000
 7.400753095277824e-001	 1.320023675070649e+000	 6.917665878189200e+000
 7.257366602182296e-001	 1.327960965614328e+000	 6.739616638124170e+000
 7.113353524075918e-001	 1.335730544864097e+000	 6.537469182464324e+000
 6.968742564460391e-001	 1.343331818650383e+000	 6.325334934177562e+000
 6.823562455801178e-001	 1.350764256672261e+000	 6.110743591276246e+000
 6.677841942234478e-001	 1.358027392290884e+000	 5.898540943266612e+000
 6.531609762436034e-001	 1.365120822268396e+000	 5.691229060185971e+000
 6.384894632671081e-001	 1.372044206453275e+000	 5.490817171056959e+000
 6.237725230044265e-001	 1.378797267413160e+000	 5.302195504321010e+000
 6.090130175967730e-001	 1.385379790016275e+000	 5.129770323663726e+000
 5.942138019864961e-001	 1.391791620962640e+000	 4.977477475309603e+000
 7.433352300298545e-001	 1.325838180955911e+000	 6.952184471244389e+000
 7.289334211251546e-001	 1.333810434071376e+000	 6.769575233420008e+000
 7.144686777180312e-001	 1.341614237149928e+000	 6.568110254941942e+000
 6.999438828021309e-001	 1.349248993404759e+000	 6.358312850059950e+000
 6.853619222802339e-001	 1.356714170199044e+000	 6.145197201205375e+000
 6.707256832273333e-001	 1.364009298838458e+000	 5.933778905210314e+000
 6.560380521699729e-001	 1.371133974308938e+000	 5.727617430934420e+000
 6.413019133837733e-001	 1.378087854960640e+000	 5.528053571930448e+000
 6.265201472110471e-001	 1.384870662139153e+000	 5.339928310500184e+000
 6.116956284003238e-001	 1.391482179765073e+000	 5.167794089725089e+000
 5.968312244695583e-001	 1.397922253863151e+000	 5.015728932986327e+000
 7.465951505314624e-001	 1.331652686840806e+000	 6.985693244241880e+000
 7.321301820316656e-001	 1.339659902528057e+000	 6.801811454427506e+000
 7.176020030281235e-001	 1.347497929435399e+000	 6.603124313921191e+000
 7.030135091579541e-001	 1.355166168158795e+000	 6.395072367884247e+000
 6.883675989801662e-001	 1.362664083725515e+000	 6.182842792563050e+000
 6.736671722311249e-001	 1.369991205385755e+000	 5.971629453747010e+000
 6.589151280963373e-001	 1.377147126349243e+000	 5.765851607838415e+000
 6.441143635005183e-001	 1.384131503467812e+000	 5.566655624786161e+000
 6.292677714178239e-001	 1.390944056864996e+000	 5.378616014160857e+000
 6.143782392040954e-001	 1.397584569513765e+000	 5.206440394375172e+000
 5.994486469528892e-001	 1.404052886763597e+000	 5.054358159521990e+000
 7.498550710325905e-001	 1.337467192725185e+000	 7.020093742929308e+000
 7.353269429377546e-001	 1.345509370984225e+000	 6.839336593837555e+000
 7.207353283378717e-001	 1.353381621720377e+000	 6.642834892897361e+000
 7.060831355135254e-001	 1.361083342912368e+000	 6.435932599421391e+000
 6.913732756799494e-001	 1.368613997251564e+000	 6.223997927004058e+000
 6.766086612348736e-001	 1.375973111932677e+000	 6.012411329953245e+000
 6.617922040227657e-001	 1.383160278389225e+000	 5.806249177428606e+000
 6.469268136174287e-001	 1.390175151974716e+000	 5.606934790132560e+000
 6.320153956248560e-001	 1.397017451590627e+000	 5.418566478434198e+000
 6.170608500081973e-001	 1.403686959262295e+000	 5.246015859738384e+000
 6.020660694366056e-001	 1.410183519663929e+000	 5.093672722515133e+000
 5.758918446027709e-001	 1.348877190661454e+000	 4.694254253671139e+000
 5.615110604024198e-001	 1.354926696976587e+000	 4.545708743218336e+000
 5.470972883323950e-001	 1.360810606690540e+000	 4.397734256557416e+000
 5.326532670450713e-001	 1.366528948891380e+000	 4.251188036511388e+000
 5.181817221189331e-001	 1.372081810347265e+000	 4.106594778838033e+000
 5.036853646155343e-001	 1.377469334826162e+000	 3.964175256303757e+000
 4.891668896682118e-001	 1.382691722374954e+000	 3.823874350707172e+000
 4.746289751037728e-001	 1.387749228559429e+000	 3.685388409016842e+000
 4.600742800983026e-001	 1.392642163666725e+000	 3.548191851389503e+000
 4.455054438681574e-001	 1.397370891871780e+000	 3.411562970160350e+000
 4.309250843971381e-001	 1.401935830369417e+000	 3.274608869831357e+000
 5.785092670872235e-001	 1.355007823561020e+000	 4.738553658458048e+000
 5.640631223710398e-001	 1.361084824819811e+000	 4.591294372746968e+000
 5.495838398557151e-001	 1.366995476842530e+000	 4.443896620955248e+000
 5.350741706407586e-001	 1.372739808849457e+000	 4.297346781935491e+000
 5.205368526923687e-001	 1.378317908003116e+000	 4.152295631451822e+000
 5.059746093938342e-001	 1.383729918724910e+000	 4.009087211918912e+000
 4.913901481278338e-001	 1.388976041970940e+000	 3.867787077714345e+000
 4.767861588918578e-001	 1.394056534468547e+000	 3.728209832034606e+000
 4.621653129479082e-001	 1.398971707915129e+000	 3.589945883206920e+000
 4.475302615075404e-001	 1.403721928140801e+000	 3.452387359999531e+000
 4.328836344532540e-001	 1.408307614236544e+000	 3.314753136722141e+000
 5.811266895711268e-001	 1.361138456460870e+000	 4.781051883491786e+000
 5.666151843391241e-001	 1.367242952663334e+000	 4.634910338600867e+000
 5.520703913785265e-001	 1.373180346994847e+000	 4.488000916962199e+000
 5.374950742359757e-001	 1.378950668807896e+000	 4.341427369244841e+000
 5.228919832653840e-001	 1.384554005659376e+000	 4.195954654480348e+000
 5.082638541717731e-001	 1.389990502624114e+000	 4.052038083879347e+000
 4.936134065871612e-001	 1.395260361567428e+000	 3.909851806471694e+000
 4.789433426797221e-001	 1.400363840378209e+000	 3.769316552323643e+000
 4.642563457973711e-001	 1.405301252164111e+000	 3.630126561361726e+000
 4.495550791468633e-001	 1.410072964410428e+000	 3.491775637809198e+000
 4.348421845093937e-001	 1.414679398104286e+000	 3.353582281778092e+000
 5.837441120545978e-001	 1.367269089360954e+000	 4.822062573831143e+000
 5.691672463067919e-001	 1.373401080507109e+000	 4.676871019728617e+000
 5.545569429009458e-001	 1.379365217147443e+000	 4.530359397317501e+000
 5.399159778308343e-001	 1.385161528766653e+000	 4.383737202888401e+000
 5.252471138380813e-001	 1.390790103315994e+000	 4.237871825027201e+000
 5.105530989494411e-001	 1.396251086523721e+000	 4.093317990829931e+000
 4.958366650462716e-001	 1.401544681164364e+000	 3.950346518786076e+000
 4.811005264674270e-001	 1.406671146288360e+000	 3.808972293843759e+000
 4.663473786467380e-001	 1.411630796413619e+000	 3.668981392795105e+000
 4.515798967861562e-001	 1.416424000680605e+000	 3.529957300436462e+000
 4.368007345655730e-001	 1.421051181972596e+000	 3.391306168806257e+000
 5.863615345377534e-001	 1.373399722261223e+000	 4.861898683368170e+000
 5.717193082741620e-001	 1.379559208351090e+000	 4.717490064476398e+000
 5.570434944230900e-001	 1.385550087300276e+000	 4.571283586622999e+000
 5.423368814254452e-001	 1.391372388725682e+000	 4.424583000189616e+000
 5.276022444105624e-001	 1.397026200972924e+000	 4.278346509340144e+000
 5.128423437269288e-001	 1.402511670423682e+000	 4.133216548857235e+000
 4.980599235052413e-001	 1.407829000761696e+000	 3.989548831068332e+000
 4.832577102550354e-001	 1.412978452198948e+000	 3.847440578097658e+000
 4.684384114960552e-001	 1.417960340663596e+000	 3.706757867685318e+000
 4.536047144254503e-001	 1.422775036951282e+000	 3.567162033466683e+000
 4.387592846218073e-001	 1.427422965841425e+000	 3.428135072791941e+000
 5.889789570207107e-001	 1.379530355161627e+000	 4.900872416773882e+000
 5.742713702413532e-001	 1.385717336195229e+000	 4.757080341833007e+000
 5.595300459450766e-001	 1.391734957453297e+000	 4.611084240584471e+000
 5.447577850199193e-001	 1.397583248684935e+000	 4.464270757340084e+000
 5.299573749829295e-001	 1.403262298630118e+000	 4.317677434365306e+000
 5.151315885043269e-001	 1.408772254323946e+000	 4.172022847476254e+000
 5.002831819641477e-001	 1.414113320359370e+000	 4.027735973686085e+000
 4.854148940426089e-001	 1.419285758109915e+000	 3.884984705838608e+000
 4.705294443453694e-001	 1.424289884913989e+000	 3.743703442560893e+000
 4.556295320647759e-001	 1.429126073222402e+000	 3.603619694861581e+000
 4.407178346781115e-001	 1.433794749710720e+000	 3.464279663235804e+000
 5.915963795035859e-001	 1.385660988062116e+000	 4.939295170851145e+000
 5.768234322084858e-001	 1.391875464039482e+000	 4.795953891969262e+000
 5.620165974670218e-001	 1.397919827606464e+000	 4.650071304463847e+000
 5.471786886143679e-001	 1.403794108644368e+000	 4.503105714547814e+000
 5.323125055552846e-001	 1.409498396287527e+000	 4.356162658433901e+000
 5.174208332817256e-001	 1.415032838224463e+000	 4.210025424749707e+000
 5.025064404230675e-001	 1.420397639957335e+000	 4.065184769467708e+000
 4.875720778302100e-001	 1.425593064021210e+000	 3.921867737973837e+000
 4.726204771947269e-001	 1.430619429164743e+000	 3.780065522679912e+000
 4.576543497041642e-001	 1.435477109493914e+000	 3.639560297943790e+000
 4.426763847345017e-001	 1.440166533580434e+000	 3.499950986945198e+000
 5.942138019864961e-001	 1.391791620962640e+000	 4.977477475309604e+000
 5.793754941756775e-001	 1.398033591883801e+000	 4.834421876089991e+000
 5.645031489890432e-001	 1.404104697759729e+000	 4.688553870769673e+000
 5.495995922089021e-001	 1.410004968603934e+000	 4.541392320374341e+000
 5.346676361277298e-001	 1.415734493945104e+000	 4.394099541109480e+000
 5.197100780592155e-001	 1.421293422125183e+000	 4.247512241567208e+000
 5.047296988820778e-001	 1.426681959555538e+000	 4.102171611392058e+000
 4.897292616179006e-001	 1.431900369932776e+000	 3.958352475697868e+000
 4.747115100441745e-001	 1.436948973415803e+000	 3.816091443698473e+000
 4.596791673436457e-001	 1.441828145765766e+000	 3.675213993757009e+000
 4.446349347909926e-001	 1.446538317450518e+000	 3.535360450295222e+000
 5.968312244695583e-001	 1.397922253863151e+000	 5.015728932986327e+000
 5.819275561430480e-001	 1.404191719728141e+000	 4.872794525625714e+000
 5.669897005112575e-001	 1.410289567913049e+000	 4.726840136205186e+000
 5.520204958036332e-001	 1.416215828563587e+000	 4.579434195279895e+000
 5.370227667003672e-001	 1.421970591602801e+000	 4.431784712221092e+000
 5.219993228368870e-001	 1.427554006026055e+000	 4.284770655109825e+000
 5.069529573412557e-001	 1.432966279153926e+000	 4.138972439483176e+000
 4.918864454057427e-001	 1.438207675844560e+000	 3.994701439874681e+000
 4.768025428937585e-001	 1.443278517667114e+000	 3.852028452653229e+000
 4.617039849832511e-001	 1.448179182037901e+000	 3.710811052816356e+000
 4.465934848476001e-001	 1.452910101320921e+000	 3.570719800976511e+000
 5.994486469528892e-001	 1.404052886763597e+000	 5.054358159521994e+000
 5.844796181107165e-001	 1.410349847572454e+000	 4.911381090781679e+000
 5.694762520337816e-001	 1.416474438066377e+000	 4.765237357901139e+000
 5.544413993986718e-001	 1.422426688523281e+000	 4.617534094403150e+000
 5.393778972732991e-001	 1.428206689260570e+000	 4.469514040105873e+000
 5.242885676148311e-001	 1.433814589927030e+000	 4.322087391523900e+000
 5.091762158006777e-001	 1.439250598752447e+000	 4.175862716938066e+000
 4.940436291937987e-001	 1.444514981756508e+000	 4.031176849692720e+000
 4.788935757435254e-001	 1.449608061918621e+000	 3.888123688274163e+000
 4.637288026230114e-001	 1.454530218310268e+000	 3.746581846267387e+000
 4.485520349043394e-001	 1.459281885191594e+000	 3.606241109243995e+000
 6.020660694366056e-001	 1.410183519663929e+000	 5.093672722515133e+000
 5.870316800788019e-001	 1.416507975416695e+000	 4.950489788459858e+000
 5.719628035567330e-001	 1.422659308219669e+000	 4.804051808950862e+000
 5.568623029941295e-001	 1.428637548482971e+000	 4.655993869598692e+000
 5.417330278466271e-001	 1.434442786918363e+000	 4.507582599086774e+000
 5.265778123931376e-001	 1.440075173828057e+000	 4.359748517831177e+000
 5.113994742604214e-001	 1.445534918351047e+000	 4.213117405508172e+000
 4.962008129821307e-001	 1.450822287668565e+000	 4.068040600614493e+000
 4.809846085935219e-001	 1.455937606170270e+000	 3.924624160651833e+000
 4.657536202629571e-001	 1.460881254582814e+000	 3.782756826473518e+000
 4.505105849612260e-001	 1.465653669062488e+000	 3.642136748683780e+000
 4.309250843971381e-001	 1.401935830369417e+000	 3.274608869831357e+000
 4.163357969925388e-001	 1.406337448123606e+000	 3.139506225573872e+000
 4.017401524837977e-001	 1.410576263888079e+000	 3.009415229843889e+000
 3.871406967249308e-001	 1.414652846301055e+000	 2.884723852936407e+000
 3.725399496881360e-001	 1.418567813249386e+000	 2.765726948394919e+000
 3.579404043837813e-001	 1.422321830855985e+000	 2.652643359412850e+000
 3.433445258208177e-001	 1.425915612442830e+000	 2.545632163624255e+000
 3.287547500080646e-001	 1.429349917471246e+000	 2.444808071376653e+000
 3.141734829967585e-001	 1.432625550461151e+000	 2.350255998299188e+000
 2.996030999646699e-001	 1.435743359890963e+000	 2.262044837964436e+000
 2.850459443420262e-001	 1.438704237079830e+000	 2.180240464725354e+000
 4.328836344532540e-001	 1.408307614236544e+000	 3.314753136722141e+000
 4.182280388879797e-001	 1.412729237297768e+000	 3.179372454051866e+000
 4.035660573255575e-001	 1.416987318435939e+000	 3.049429086120534e+000
 3.889002471908950e-001	 1.421082428873726e+000	 2.925226417463627e+000
 3.742331399094486e-001	 1.425015189306273e+000	 2.806973109611886e+000
 3.595672398223045e-001	 1.428786268884011e+000	 2.694800450610840e+000
 3.449050231418641e-001	 1.432396384170960e+000	 2.588778814003488e+000
 3.302489369485938e-001	 1.435846298080185e+000	 2.488933244185189e+000
 3.156013982292186e-001	 1.439136818788142e+000	 2.395258190882597e+000
 3.009647929566777e-001	 1.442268798629569e+000	 2.307731420614359e+000
 2.863414752120758e-001	 1.445243132974653e+000	 2.226327137342290e+000
 4.348421845093937e-001	 1.414679398104286e+000	 3.353582281778092e+000
 4.201202807835302e-001	 1.419121026472544e+000	 3.218009242028755e+000
 4.053919621675101e-001	 1.423398372984390e+000	 3.088258022102785e+000
 3.906597976571303e-001	 1.427512011446956e+000	 2.964555226941761e+000
 3.759263301311029e-001	 1.431462565363673e+000	 2.847031274750354e+000
 3.611940752612288e-001	 1.435250706912494e+000	 2.735737971257283e+000
 3.464655204633588e-001	 1.438877155899481e+000	 2.630665163927739e+000
 3.317431238896014e-001	 1.442342678689444e+000	 2.531756494937509e+000
 3.170293134621681e-001	 1.445648087115373e+000	 2.438924277715350e+000
 3.023264859491648e-001	 1.448794237368334e+000	 2.352063527052358e+000
 2.876370060825698e-001	 1.451782028869550e+000	 2.271065177228206e+000
 4.368007345655730e-001	 1.421051181972596e+000	 3.391306168806257e+000
 4.220125226791910e-001	 1.425512815647887e+000	 3.255607030983533e+000
 4.072178670096430e-001	 1.429809427533400e+000	 3.126074922995001e+000
 3.924193481236122e-001	 1.433941594020722e+000	 3.002867384022547e+000
 3.776195203530646e-001	 1.437909941421576e+000	 2.886044448113186e+000
 3.628209107005125e-001	 1.441715144941439e+000	 2.775586424743189e+000
 3.480260177852528e-001	 1.445357927628415e+000	 2.671410729207201e+000
 3.332373108310348e-001	 1.448839059299059e+000	 2.573387783654973e+000
 3.184572286955531e-001	 1.452159355442900e+000	 2.481356015724306e+000
 3.036881789420779e-001	 1.455319676107329e+000	 2.395135987024545e+000
 2.889325369534589e-001	 1.458320924764606e+000	 2.314543688251786e+000
 4.387592846218073e-001	 1.427422965841425e+000	 3.428135072791941e+000
 4.239047645749627e-001	 1.431904604823757e+000	 3.292356880519279e+000
 4.090437718519440e-001	 1.436220482082935e+000	 3.163053454467193e+000
 3.941788985903174e-001	 1.440371176595002e+000	 3.040320891796269e+000
 3.793127105752993e-001	 1.444357317479972e+000	 2.924156614360831e+000
 3.644477461401131e-001	 1.448179582970851e+000	 2.814477337064049e+000
 3.495865151074976e-001	 1.451838699357781e+000	 2.711136055287112e+000
 3.347314977728411e-001	 1.455335439909068e+000	 2.613938074322359e+000
 3.198851439293192e-001	 1.458670623770774e+000	 2.522656110006260e+000
 3.050498719353637e-001	 1.461845114846621e+000	 2.437044495157400e+000
 2.902280678246939e-001	 1.464859820659907e+000	 2.356852531049644e+000
 4.407178346781115e-001	 1.433794749710720e+000	 3.464279663235804e+000
 4.257970064708468e-001	 1.438296394000109e+000	 3.328450451301980e+000
 4.108696766944010e-001	 1.442631536632960e+000	 3.199368045753766e+000
 3.959384490572214e-001	 1.446800759169773e+000	 3.077074637561302e+000
 3.810059007977736e-001	 1.450804693538856e+000	 2.961512723413735e+000
 3.660745815799876e-001	 1.454644021000736e+000	 2.852543243281954e+000
 3.511470124300445e-001	 1.458319471087602e+000	 2.749962705653330e+000
 3.362256847149676e-001	 1.461831820519506e+000	 2.653519325585690e+000
 3.213130591634122e-001	 1.465181892099049e+000	 2.562928207116162e+000
 3.064115649289692e-001	 1.468370553586279e+000	 2.477885607099781e+000
 2.915235986962249e-001	 1.471398716555537e+000	 2.398082322246443e+000
 4.426763847345017e-001	 1.440166533580434e+000	 3.499950986945198e+000
 4.276892483668441e-001	 1.444688183176903e+000	 3.364079987557282e+000
 4.126955815370017e-001	 1.449042591183444e+000	 3.235193872385868e+000
 3.976979995243006e-001	 1.453230341745015e+000	 3.113288376283341e+000
 3.826990910204531e-001	 1.457252069598216e+000	 2.998258675092543e+000
 3.677014170200943e-001	 1.461108459031100e+000	 2.889917673755376e+000
 3.527075097528448e-001	 1.464800242817900e+000	 2.788013250022010e+000
 3.377198716573618e-001	 1.468328201130413e+000	 2.692244481226816e+000
 3.227409743977777e-001	 1.471693160427780e+000	 2.602276888121077e+000
 3.077732579228408e-001	 1.474895992326376e+000	 2.517756735406214e+000
 2.928191295680029e-001	 1.477937612451580e+000	 2.438324433379894e+000
 4.446349347909926e-001	 1.446538317450518e+000	 3.535360450295222e+000
 4.295814902629558e-001	 1.451079972354095e+000	 3.399438299129777e+000
 4.145214863797341e-001	 1.455453645734352e+000	 3.270706838565639e+000
 3.994575499915311e-001	 1.459659924320704e+000	 3.149122713757641e+000
 3.843922812433037e-001	 1.463699445658044e+000	 3.034541303502084e+000
 3.693282524603908e-001	 1.467572897061948e+000	 2.926735140141058e+000
 3.542680070758498e-001	 1.471281014548694e+000	 2.825411252311276e+000
 3.392140585999711e-001	 1.474824581741826e+000	 2.730227460423169e+000
 3.241688896323615e-001	 1.478204428757018e+000	 2.640807661424659e+000
 3.091349509169256e-001	 1.481421431066978e+000	 2.556756145166832e+000
 2.941146604399785e-001	 1.484476508348123e+000	 2.477670989540704e+000
 4.465934848476001e-001	 1.452910101320921e+000	 3.570719800976511e+000
 4.314737321591828e-001	 1.457471761531642e+000	 3.434718743124150e+000
 4.163473912225857e-001	 1.461864700285650e+000	 3.306083559196398e+000
 4.012171004588886e-001	 1.466089506896820e+000	 3.184739089486211e+000
 3.860854714662912e-001	 1.470146821718332e+000	 3.070508361171124e+000
 3.709550879008342e-001	 1.474037335093288e+000	 2.963131121173615e+000
 3.558285043990113e-001	 1.477761786280007e+000	 2.862281258404575e+000
 3.407082455427425e-001	 1.481320962353781e+000	 2.767583147798593e+000
 3.255968048671095e-001	 1.484715697086819e+000	 2.678626955371556e+000
 3.104966439111702e-001	 1.487946869808157e+000	 2.594982949395642e+000
 2.954101913121023e-001	 1.491015404245249e+000	 2.516214867735817e+000
 4.485520349043394e-001	 1.459281885191594e+000	 3.606241109243995e+000
 4.333659740555259e-001	 1.463863550709501e+000	 3.470115205137116e+000
 4.181732960655447e-001	 1.468275754837306e+000	 3.341501341574898e+000
 4.029766509263494e-001	 1.472519089473338e+000	 3.220299759271314e+000
 3.877786616893815e-001	 1.476594197779069e+000	 3.106308502950604e+000
 3.725819233413825e-001	 1.480501773125123e+000	 2.999242048233159e+000
 3.573890017222799e-001	 1.484242558011860e+000	 2.898748783713766e+000
 3.422024324856237e-001	 1.487817342966315e+000	 2.804427383272679e+000
 3.270247201019671e-001	 1.491226965417235e+000	 2.715842110636044e+000
 3.118583369055215e-001	 1.494472308549981e+000	 2.632537104178521e+000
 2.967057221843248e-001	 1.497554300143043e+000	 2.554049694984086e+000
 4.505105849612260e-001	 1.465653669062488e+000	 3.642136748683780e+000
 4.352582159519864e-001	 1.470255339887630e+000	 3.505822080094609e+000
 4.199992009085988e-001	 1.474686809389286e+000	 3.377138166762146e+000
 4.047362013938896e-001	 1.478948672050239e+000	 3.255967777540436e+000
 3.894718519125411e-001	 1.483041573840250e+000	 3.142091269679256e+000
 3.742087587819934e-001	 1.486966211157460e+000	 3.035205290703948e+000
 3.589494990456079e-001	 1.490723329744274e+000	 2.934940300545069e+000
 3.436966194285619e-001	 1.494313723579467e+000	 2.840876951710605e+000
 3.284526353368803e-001	 1.497738233748321e+000	 2.752561372403999e+000
 3.132200298999260e-001	 1.500997747292519e+000	 2.669519403595407e+000
 2.980012530565967e-001	 1.504093196041590e+000	 2.591269846149693e+000
 2.850459443420262e-001	 1.438704237079830e+000	 2.180240464725354e+000
 2.705065062765865e-001	 1.441508706198178e+000	 2.104191186255355e+000
 2.559848749528201e-001	 1.444158197264690e+000	 2.032915656020432e+000
 2.414832894836484e-001	 1.446653724004696e+000	 1.966059961887229e+000
 2.270039542545287e-001	 1.448996338326446e+000	 1.903324376996894e+000
 2.125490382604623e-001	 1.451187129141089e+000	 1.844473633793041e+000
 1.981206744846773e-001	 1.453227221174727e+000	 1.789346624836380e+000
 1.837209593187718e-001	 1.455117773774083e+000	 1.737865571674660e+000
 1.693519520240392e-001	 1.456859979707270e+000	 1.690044702411609e+000
 1.550156742336445e-001	 1.458455063961172e+000	 1.645998477557326e+000
 1.407141094952703e-001	 1.459904282536842e+000	 1.605949402246597e+000
 2.863414752120758e-001	 1.445243132974653e+000	 2.226327137342290e+000
 2.717359555508530e-001	 1.448060348376165e+000	 2.150353933424730e+000
 2.571483235628103e-001	 1.450721881352207e+000	 2.078894903050879e+000
 2.425808285375988e-001	 1.453228750235476e+000	 2.011659368220766e+000
 2.280356848795698e-001	 1.455582011715130e+000	 1.948409518594738e+000
 2.135150714417698e-001	 1.457782759651406e+000	 1.888970504995294e+000
 1.990211309017990e-001	 1.459832123882272e+000	 1.833239959712549e+000
 1.845559691793192e-001	 1.461731269023666e+000	 1.781196987178009e+000
 1.701216548949308e-001	 1.463481393264815e+000	 1.732910667841789e+000
 1.557202188700866e-001	 1.465083727160154e+000	 1.688548116910103e+000
 1.413536536676590e-001	 1.466539532419245e+000	 1.648382137968799e+000
 2.876370060825698e-001	 1.451782028869550e+000	 2.271065177228206e+000
 2.729654048255039e-001	 1.454611990554142e+000	 2.195210496843008e+000
 2.583117721731037e-001	 1.457285565439627e+000	 2.123648568873112e+000
 2.436783675917570e-001	 1.459803776466075e+000	 2.056144069716087e+000
 2.290674155047151e-001	 1.462167685103552e+000	 1.992513212755064e+000
 2.144811046230759e-001	 1.464378390161382e+000	 1.932633665761164e+000
 1.999215873188176e-001	 1.466437026589401e+000	 1.876453894774860e+000
 1.853909790396714e-001	 1.468344764272762e+000	 1.824001980390040e+000
 1.708913577655509e-001	 1.470102806821810e+000	 1.775393951522256e+000
 1.564247635062024e-001	 1.471712390358529e+000	 1.730841680439102e+000
 1.419931978396938e-001	 1.473174782300993e+000	 1.690660381078965e+000
 2.889325369534589e-001	 1.458320924764606e+000	 2.314543688251786e+000
 2.741948541004960e-001	 1.461163632732205e+000	 2.238844279149631e+000
 2.594752207836670e-001	 1.463849249527064e+000	 2.167253353006055e+000
 2.447759066461008e-001	 1.466378802696617e+000	 2.099583216045986e+000
 2.300991461299551e-001	 1.468753358491846e+000	 2.035696368452400e+000
 2.154471378043844e-001	 1.470974020671163e+000	 1.975515249716578e+000
 2.008220437357505e-001	 1.473041929296269e+000	 1.919031409818560e+000
 1.862259888998598e-001	 1.474958259521535e+000	 1.866314154560789e+000
 1.716610606359443e-001	 1.476724220378426e+000	 1.817518712450100e+000
 1.571293081420489e-001	 1.478341053556477e+000	 1.772893969079845e+000
 1.426327420114426e-001	 1.479810032182270e+000	 1.732789813084838e+000
 2.902280678246939e-001	 1.464859820659907e+000	 2.356852531049644e+000
 2.754243033757872e-001	 1.467715274910457e+000	 2.281339329275938e+000
 2.606386693944665e-001	 1.470412933614629e+000	 2.209786508203980e+000
 2.458734457006079e-001	 1.472953828927230e+000	 2.142046433257309e+000
 2.311308767552799e-001	 1.475339031880152e+000	 2.078020309171725e+000
 2.164131709856989e-001	 1.477569651180895e+000	 2.017667756979252e+000
 2.017225001526156e-001	 1.479646832003032e+000	 1.961015815828420e+000
 1.870609987599162e-001	 1.481571754770152e+000	 1.908167420446829e+000
 1.724307635061558e-001	 1.483345633934837e+000	 1.859309403994347e+000
 1.578338527776833e-001	 1.484969716754174e+000	 1.814720074501823e+000
 1.432722861829730e-001	 1.486445282063260e+000	 1.774776411059918e+000
 2.915235986962249e-001	 1.471398716555537e+000	 2.398082322246443e+000
 2.766537526513347e-001	 1.474266917088996e+000	 2.322780344490606e+000
 2.618021180054690e-001	 1.476976617702436e+000	 2.251325844655346e+000
 2.469709847552559e-001	 1.479528855158036e+000	 2.183603829497416e+000
 2.321626073806799e-001	 1.481924705268603e+000	 2.119546779600974e+000
 2.173792041670235e-001	 1.484165281690726e+000	 2.059144061296969e+000
 2.026229565694305e-001	 1.486251734709848e+000	 2.002450762101005e+000
 1.878960086198719e-001	 1.488185250018776e+000	 1.949596003004121e+000
 1.732004663762304e-001	 1.489967047491214e+000	 1.900790779797536e+000
 1.585383974131626e-001	 1.491598379951801e+000	 1.856335383911458e+000
 1.439118303543528e-001	 1.493080531944146e+000	 1.816626451088963e+000
 2.928191295680029e-001	 1.477937612451580e+000	 2.438324433379894e+000
 2.778832019270955e-001	 1.480818559267920e+000	 2.363252672112457e+000
 2.629655666166408e-001	 1.483540301790597e+000	 2.291949733830693e+000
 2.480685238100226e-001	 1.486103881389163e+000	 2.224326000392589e+000
 2.331943380061451e-001	 1.488510378657337e+000	 2.160337951977426e+000
 2.183452373483615e-001	 1.490760912200802e+000	 2.099997416860838e+000
 2.035234129862130e-001	 1.492856637416871e+000	 2.043380243064316e+000
 1.887310184797587e-001	 1.494798745267572e+000	 1.990634447811523e+000
 1.739701692462127e-001	 1.496588461047729e+000	 1.941987899448299e+000
 1.592429420485438e-001	 1.498227043149535e+000	 1.897755584670641e+000
 1.445513745256498e-001	 1.499715781825113e+000	 1.858346511579768e+000
 2.941146604399785e-001	 1.484476508348123e+000	 2.477670989540704e+000
 2.791126512030275e-001	 1.487370201447330e+000	 2.402842310914384e+000
 2.641290152279485e-001	 1.490103985879224e+000	 2.331737111998706e+000
 2.491660628648855e-001	 1.492678907620733e+000	 2.264284034084694e+000
 2.342260686316660e-001	 1.495096052046490e+000	 2.200456432101818e+000
 2.193112705297171e-001	 1.497356542711271e+000	 2.140281464795515e+000
 2.044238694029807e-001	 1.499461540124259e+000	 2.083848604803967e+000
 1.895660283396078e-001	 1.501412240516705e+000	 2.031317627231722e+000
 1.747398721161477e-001	 1.503209874604554e+000	 1.982926133930986e+000
 1.599474866838842e-001	 1.504855706347555e+000	 1.938996668734195e+000
 1.451909186969319e-001	 1.506351031706345e+000	 1.899943476439379e+000
 2.954101913121023e-001	 1.491015404245249e+000	 2.516214867735817e+000
 2.803421004790875e-001	 1.493921843627324e+000	 2.441635912212655e+000
 2.652924638393588e-001	 1.496667669968431e+000	 2.370767483419468e+000
 2.502636019198225e-001	 1.499253933852874e+000	 2.303549515939842e+000
 2.352577992572328e-001	 1.501681725436200e+000	 2.239965265028370e+000
 2.202773037110939e-001	 1.503952173222279e+000	 2.180050239346839e+000
 2.053243258197513e-001	 1.506066442832168e+000	 2.123900551303128e+000
 1.904010381994511e-001	 1.508025735766340e+000	 2.071680746319484e+000
 1.755095749860802e-001	 1.509831288161861e+000	 2.023631170857356e+000
 1.606520313192405e-001	 1.511484369546039e+000	 1.980074936915606e+000
 1.458304628682665e-001	 1.512986281588024e+000	 1.941424538129055e+000
 2.967057221843248e-001	 1.497554300143043e+000	 2.554049694984086e+000
 2.815715497552332e-001	 1.500473485808002e+000	 2.479720780665127e+000
 2.664559124508381e-001	 1.503231354058331e+000	 2.409120923223257e+000
 2.513611409748112e-001	 1.505828960085709e+000	 2.342194532938773e+000
 2.362895298828357e-001	 1.508267398826601e+000	 2.278927940440461e+000
 2.212433368924957e-001	 1.510547803733974e+000	 2.219358173765884e+000
 2.062247822365426e-001	 1.512671345540754e+000	 2.163581150409070e+000
 1.912360480593200e-001	 1.514639231016640e+000	 2.111759348482566e+000
 1.762792778560550e-001	 1.516452701719823e+000	 2.064129019489963e+000
 1.613565759546700e-001	 1.518113032745166e+000	 2.021007002981830e+000
 1.464700070397217e-001	 1.519621531470336e+000	 1.982797200589519e+000
 2.980012530565967e-001	 1.504093196041590e+000	 2.591269846149693e+000
 2.828009990314218e-001	 1.507025127989463e+000	 2.517184874777749e+000
 2.676193610623530e-001	 1.509795038149035e+000	 2.446878079982072e+000
 2.524586800298293e-001	 1.512403986319364e+000	 2.380291677756318e+000
 2.373212605084651e-001	 1.514853072217832e+000	 2.317408397723872e+000
 2.222093700739263e-001	 1.517143434246501e+000	 2.258260105904575e+000
 2.071252386533723e-001	 1.519276248250174e+000	 2.202935839529800e+000
 1.920710579192460e-001	 1.521252726267772e+000	 2.151589320904559e+000
 1.770489807261170e-001	 1.523074115278612e+000	 2.104446015562060e+000
 1.620611205902298e-001	 1.524741695945114e+000	 2.061809797586513e+000
 1.471095512113652e-001	 1.526256781353464e+000	 2.024069282050934e+000
 1.407141094952703e-001	 1.459904282536842e+000	 1.605949402246597e+000
 1.264470707132509e-001	 1.461209106227669e+000	 1.570468162634788e+000
 1.122186375303638e-001	 1.462370621981674e+000	 1.539521543356953e+000
 9.803070639248851e-002	 1.463390172555262e+000	 1.512600899031901e+000
 8.388513331654991e-002	 1.464269126940766e+000	 1.489345619930229e+000
 6.978373363269591e-002	 1.465008879159846e+000	 1.469550825739104e+000
 5.572828176456757e-002	 1.465610847063272e+000	 1.453174757899800e+000
 4.172051104692880e-002	 1.466076471138249e+000	 1.440345889929485e+000
 2.776211357989313e-002	 1.466407213324432e+000	 1.431369772211916e+000
 1.385474011895523e-002	 1.466604555839689e+000	 1.426735624780578e+000
 0.000000000000000e+000	 1.466670000016666e+000	 1.427122678256035e+000
 1.413536536676590e-001	 1.466539532419245e+000	 1.648382137968799e+000
 1.270217713416299e-001	 1.467850286520215e+000	 1.612974285730729e+000
 1.127286700767430e-001	 1.469017081351258e+000	 1.582221046441290e+000
 9.847625493824472e-002	 1.470041265771596e+000	 1.555569011440952e+000
 8.426639037867752e-002	 1.470924214995623e+000	 1.532610888367513e+000
 7.010089997888507e-002	 1.471667329380818e+000	 1.513093227297098e+000
 5.598156622728422e-002	 1.472272033222072e+000	 1.496923857033355e+000
 4.191013033666523e-002	 1.472739773553594e+000	 1.484179051732400e+000
 2.788829209775656e-002	 1.473072018959543e+000	 1.475110444946149e+000
 1.391770976875618e-002	 1.473270258394459e+000	 1.470151705066183e+000
 0.000000000000000e+000	 1.473336000014533e+000	 1.469924973049350e+000
 1.419931978396938e-001	 1.473174782300993e+000	 1.690660381078965e+000
 1.275964719696583e-001	 1.474491466812067e+000	 1.655394090444210e+000
 1.132387026228002e-001	 1.475663540720116e+000	 1.624870851639392e+000
 9.892180348372621e-002	 1.476692358987179e+000	 1.598499968250959e+000
 8.464764744058918e-002	 1.477579303049710e+000	 1.575834864005991e+000
 7.041806632492181e-002	 1.478325779601007e+000	 1.556580823726055e+000
 5.623485068990974e-002	 1.478933219380080e+000	 1.540602456906018e+000
 4.209974962636302e-002	 1.479403075968142e+000	 1.527930904898337e+000
 2.801447061561830e-002	 1.479736824593856e+000	 1.518770809436702e+000
 1.398067941857046e-002	 1.479935960948430e+000	 1.513507056963146e+000
 0.000000000000000e+000	 1.480002000011599e+000	 1.512711300367590e+000
 1.426327420114426e-001	 1.479810032182270e+000	 1.732789813084838e+000
 1.281711725974124e-001	 1.481132647103413e+000	 1.697725435253347e+000
 1.137487351686181e-001	 1.482310000088439e+000	 1.667463207118413e+000
 9.936735202901927e-002	 1.483343452202206e+000	 1.641382554062511e+000
 8.502890450237155e-002	 1.484234391103225e+000	 1.619004947296142e+000
 7.073523267088946e-002	 1.484984229820612e+000	 1.600001641938745e+000
 5.648813515252016e-002	 1.485594405537496e+000	 1.584201151095954e+000
 4.228936891608654e-002	 1.486066378382094e+000	 1.571596477764326e+000
 2.814064913352648e-002	 1.486401630227571e+000	 1.562352122965106e+000
 1.404364906842484e-002	 1.486601663501801e+000	 1.556810885082284e+000
 0.000000000000000e+000	 1.486668000008066e+000	 1.555500452779310e+000
 1.432722861829730e-001	 1.486445282063260e+000	 1.774776411059917e+000
 1.287458732249686e-001	 1.487773827394441e+000	 1.739966470273404e+000
 1.142587677142796e-001	 1.488956459456420e+000	 1.709990625313147e+000
 9.981290057421012e-002	 1.489994545416871e+000	 1.684205769736330e+000
 8.541016156411119e-002	 1.490889479156365e+000	 1.662108689091983e+000
 7.105239901687122e-002	 1.491642680039831e+000	 1.643343778307497e+000
 5.674141961519155e-002	 1.492255591694520e+000	 1.627710509359057e+000
 4.247898820590027e-002	 1.492729680795649e+000	 1.615170671935411e+000
 2.826682765152926e-002	 1.493066435860886e+000	 1.605855406214233e+000
 1.410661871834611e-002	 1.493267366054773e+000	 1.600072043255364e+000
 0.000000000000000e+000	 1.493334000004133e+000	 1.598310756170852e+000
 1.439118303543528e-001	 1.493080531944146e+000	 1.816626451088963e+000
 1.293205738524036e-001	 1.494415007685339e+000	 1.782115639499911e+000
 1.147688002598674e-001	 1.495602918824250e+000	 1.752445884475609e+000
 1.002584491193851e-001	 1.496645638631369e+000	 1.726958833725826e+000
 8.579141862589464e-002	 1.497544567209325e+000	 1.705133792206891e+000
 7.136956536295044e-002	 1.498301130258862e+000	 1.686595400860011e+000
 5.699470407799991e-002	 1.498916777851350e+000	 1.671121080835333e+000
 4.266860749586866e-002	 1.499392983209006e+000	 1.658648266843680e+000
 2.839300616967478e-002	 1.499731241494002e+000	 1.649281449497413e+000
 1.416958836836105e-002	 1.499933068607544e+000	 1.643299042709566e+000
 0.000000000000000e+000	 1.500000000000000e+000	 1.641160080116207e+000
 1.445513745256498e-001	 1.499715781825113e+000	 1.858346511579768e+000
 1.298952744797936e-001	 1.501056187976295e+000	 1.824171682958167e+000
 1.152788328054644e-001	 1.502249378192121e+000	 1.794822030159516e+000
 1.007039976646305e-001	 1.503296731845895e+000	 1.769631183355866e+000
 8.617267568780850e-002	 1.504199655262302e+000	 1.748068112919074e+000
 7.168673170921036e-002	 1.504959580477903e+000	 1.729744751404841e+000
 5.724798854102130e-002	 1.505577964008184e+000	 1.714423397164186e+000
 4.285822678605616e-002	 1.506056285622365e+000	 1.702023924186749e+000
 2.851918468801118e-002	 1.506396047127118e+000	 1.692630818819930e+000
 1.423255801849644e-002	 1.506598771160316e+000	 1.686500060027027e+000
 0.000000000000000e+000	 1.506665999995867e+000	 1.684065847970568e+000
 1.451909186969319e-001	 1.506351031706345e+000	 1.899943476439379e+000
 1.304699751072153e-001	 1.507697368267498e+000	 1.866133638766227e+000
 1.157888653511532e-001	 1.508895837560225e+000	 1.837112376641467e+000
 1.011495462100325e-001	 1.509947825060642e+000	 1.812212476054127e+000
 8.655393274993932e-002	 1.510854743315492e+000	 1.790899662425879e+000
 7.200389805573430e-002	 1.511618030697151e+000	 1.772780147596620e+000
 5.750127300433174e-002	 1.512239150165223e+000	 1.757607975513567e+000
 4.304784607652718e-002	 1.512719588035927e+000	 1.745292192246351e+000
 2.864536320658660e-002	 1.513060852760435e+000	 1.735903861782387e+000
 1.429552766877905e-002	 1.513264473713287e+000	 1.729682944891832e+000
 0.000000000000000e+000	 1.513331999991934e+000	 1.727045046698698e+000
 1.458304628682665e-001	 1.512986281588024e+000	 1.941424538129055e+000
 1.310446757347450e-001	 1.514338548559137e+000	 1.908000845106290e+000
 1.162988978970166e-001	 1.515542296928752e+000	 1.879310508282208e+000
 1.015950947556774e-001	 1.516598918275806e+000	 1.854692590530791e+000
 8.693518981237372e-002	 1.517509831369093e+000	 1.833616608249307e+000
 7.232106440260555e-002	 1.518276480916806e+000	 1.815689984938936e+000
 5.775455746800728e-002	 1.518900336322665e+000	 1.800665321525925e+000
 4.323746536734618e-002	 1.519382890449889e+000	 1.788447510091443e+000
 2.877154172544919e-002	 1.519725658394153e+000	 1.779100713323836e+000
 1.435849731923567e-002	 1.519930176266659e+000	 1.772855227635431e+000
 0.000000000000000e+000	 1.519997999988401e+000	 1.770114236444133e+000
 1.464700070397217e-001	 1.519621531470336e+000	 1.982797200589519e+000
 1.316193763624593e-001	 1.520979728851398e+000	 1.949772942116615e+000
 1.168089304431375e-001	 1.522188756297897e+000	 1.921410280827523e+000
 1.020406433016516e-001	 1.523250011491580e+000	 1.897061627913211e+000
 8.731644687519827e-002	 1.524164919423301e+000	 1.876207275593303e+000
 7.263823074990740e-002	 1.524934931137064e+000	 1.858462738730421e+000
 5.800784193212395e-002	 1.525561522480709e+000	 1.843585932184340e+000
 4.342708465857759e-002	 1.526046192864452e+000	 1.831484211669334e+000
 2.889772024464708e-002	 1.526390464028470e+000	 1.822221301318949e+000
 1.442146696989308e-002	 1.526595878820630e+000	 1.816024126580389e+000
 0.000000000000000e+000	 1.526663999985467e+000	 1.813289559845764e+000
 1.471095512113652e-001	 1.526256781353464e+000	 2.024069282050934e+000
 1.321940769904347e-001	 1.527620909144472e+000	 1.991449873699796e+000
 1.173189629895987e-001	 1.528835215667850e+000	 1.963405822652887e+000
 1.024861918480412e-001	 1.529901104708160e+000	 1.939309912834348e+000
 8.769770393849952e-002	 1.530820007478312e+000	 1.918660148656608e+000
 7.295539709772317e-002	 1.531593381358124e+000	 1.901086965950441e+000
 5.826112639675777e-002	 1.532222708639553e+000	 1.886360298598278e+000
 4.361670395028588e-002	 1.532709495279816e+000	 1.874396529790141e+000
 2.902389876422843e-002	 1.533055269663587e+000	 1.865265352023124e+000
 1.448443662077806e-002	 1.533261581375402e+000	 1.859196555197703e+000
 0.000000000000000e+000	 1.533329999983334e+000	 1.856586751115539e+000
 1.533329999983334e+000	 0.000000000000000e+000	 1.448344404992882e+001
 1.533261581375402e+000	 1.448443662077811e-002	 1.448606018069450e+001
 1.533055269663588e+000	 2.902389876422853e-002	 1.448718207858484e+001
 1.532709495279816e+000	 4.361670395028579e-002	 1.448707446758435e+001
 1.532222708639554e+000	 5.826112639675773e-002	 1.448600179794586e+001
 1.531593381358125e+000	 7.295539709772311e-002	 1.448422739047012e+001
 1.530820007478312e+000	 8.769770393849954e-002	 1.448201269934308e+001
 1.529901104708160e+000	 1.024861918480413e-001	 1.447961671384354e+001
 1.528835215667849e+000	 1.173189629895985e-001	 1.447729551628910e+001
 1.527620909144472e+000	 1.321940769904346e-001	 1.447530201502024e+001
 1.526256781353464e+000	 1.471095512113651e-001	 1.447388587268863e+001
 1.539996999982150e+000	 0.000000000000000e+000	 1.442719699311954e+001
 1.539928283886501e+000	 1.454741571829705e-002	 1.443017756795855e+001
 1.539721075120481e+000	 2.915009621289081e-002	 1.443150380791442e+001
 1.539373797291449e+000	 4.380635168824681e-002	 1.443149034755205e+001
 1.538884894077197e+000	 5.851444885842472e-002	 1.443045013154431e+001
 1.538252830447551e+000	 7.327261102581677e-002	 1.442869345501304e+001
 1.537476093897312e+000	 8.807901819661552e-002	 1.442652711917535e+001
 1.536553195689442e+000	 1.029318072338745e-001	 1.442425372294204e+001
 1.535482672107356e+000	 1.178290720489961e-001	 1.442217110805426e+001
 1.534263085715157e+000	 1.327688638324482e-001	 1.442057197683600e+001
 1.532893026624554e+000	 1.477491913244743e-001	 1.441974370316928e+001
 1.546663999981867e+000	 0.000000000000000e+000	 1.437211920409863e+001
 1.546594986398501e+000	 1.461039481602090e-002	 1.437545014156508e+001
 1.546386880578270e+000	 2.927629366190359e-002	 1.437697255626524e+001
 1.546038099303972e+000	 4.399599942665178e-002	 1.437704975536624e+001
 1.545547079515721e+000	 5.876777132058415e-002	 1.437604193081107e+001
 1.544912279537849e+000	 7.358982495441384e-002	 1.437430509701709e+001
 1.544132180317175e+000	 8.846033245521599e-002	 1.437219014049473e+001
 1.543205286671576e+000	 1.033774226201508e-001	 1.437004200235259e+001
 1.542130128547706e+000	 1.183391811087809e-001	 1.436819901148519e+001
 1.540905262286677e+000	 1.333436506747862e-001	 1.436699238779278e+001
 1.539529271896469e+000	 1.483888314378467e-001	 1.436674593637440e+001
 1.553330999982383e+000	 0.000000000000000e+000	 1.431817351698146e+001
 1.553261688911297e+000	 1.467337391390012e-002	 1.432183989204490e+001
 1.553052686036848e+000	 2.940249111118563e-002	 1.432354948754940e+001
 1.552702401317272e+000	 4.418564716540310e-002	 1.432371305375835e+001
 1.552209264955009e+000	 5.902109378313507e-002	 1.432273679239254e+001
 1.551571728628893e+000	 7.390703888342050e-002	 1.432102119299803e+001
 1.550788266737764e+000	 8.884164671422189e-002	 1.431895997770809e+001
 1.549857377654417e+000	 1.038230380068115e-001	 1.431693917567234e+001
 1.548777584988743e+000	 1.188492901689170e-001	 1.431533634515088e+001
 1.547547438858865e+000	 1.339184375174358e-001	 1.431451996288618e+001
 1.546165517169035e+000	 1.490284715514892e-001	 1.431484900202665e+001
 1.559997999983599e+000	 0.000000000000000e+000	 1.426532153350899e+001
 1.559928391424788e+000	 1.473635301188521e-002	 1.426930785389050e+001
 1.559718491496111e+000	 2.952868856065571e-002	 1.427119507591042e+001
 1.559366703331239e+000	 4.437529490440324e-002	 1.427144017154090e+001
 1.558871450394939e+000	 5.927441624597654e-002	 1.427049412411972e+001
 1.558231177720554e+000	 7.422425281274271e-002	 1.426880066471266e+001
 1.557444353158942e+000	 8.922296097355420e-002	 1.426679511319939e+001
 1.556509468637816e+000	 1.042686533937975e-001	 1.426490334564580e+001
 1.555425041430309e+000	 1.193593992293683e-001	 1.426354090615359e+001
 1.554189615431554e+000	 1.344932243603837e-001	 1.426311228305924e+001
 1.552801762442078e+000	 1.496681116654091e-001	 1.426401037107746e+001
 1.566664999985416e+000	 0.000000000000000e+000	 1.421352364927013e+001
 1.566595093938874e+000	 1.479933210992662e-002	 1.421781412938478e+001
 1.566384296955953e+000	 2.965488601023259e-002	 1.421986912708418e+001
 1.566031005345761e+000	 4.456494264355464e-002	 1.422019062243465e+001
 1.565533635835396e+000	 5.952773870900763e-002	 1.421927316123998e+001
 1.564890626812705e+000	 7.454146674228665e-002	 1.421760249274125e+001
 1.564100439580571e+000	 8.960427523313398e-002	 1.421565430821543e+001
 1.563161559621629e+000	 1.047142687810504e-001	 1.421389310231263e+001
 1.562072497872246e+000	 1.198695082900990e-001	 1.421277117550721e+001
 1.560831792004578e+000	 1.350680112036168e-001	 1.421272779778429e+001
 1.559438007715424e+000	 1.503077517796133e-001	 1.421418855547500e+001
 1.573331999987733e+000	 0.000000000000000e+000	 1.416273907925678e+001
 1.573261796453454e+000	 1.486231120797487e-002	 1.416731791182135e+001
 1.573050102416269e+000	 2.978108345983503e-002	 1.416953079921146e+001
 1.572695307360727e+000	 4.475459038275972e-002	 1.416992352340420e+001
 1.572195821276259e+000	 5.978106117212738e-002	 1.416903298221457e+001
 1.571550075905218e+000	 7.485868067195839e-002	 1.416738572969053e+001
 1.570756526002515e+000	 8.998558949288225e-002	 1.416549661342490e+001
 1.569813650605705e+000	 1.051598841685111e-001	 1.416386753088163e+001
 1.568719954314401e+000	 1.203796173510731e-001	 1.416298632328989e+001
 1.567473968577772e+000	 1.356427980471222e-001	 1.416332582746782e+001
 1.566074252988898e+000	 1.509473918941090e-001	 1.416534310780157e+001
 1.579998999990450e+000	 0.000000000000000e+000	 1.411292588277225e+001
 1.579928498968426e+000	 1.492529030598040e-002	 1.411777750813666e+001
 1.579715907876954e+000	 2.990728090938180e-002	 1.412013862311792e+001
 1.579359609376027e+000	 4.494423812192101e-002	 1.412059761251775e+001
 1.578858006717409e+000	 6.003438363523485e-002	 1.411973252409367e+001
 1.578209524997966e+000	 7.517589460166402e-002	 1.411810951302800e+001
 1.577412612424635e+000	 9.036690375271991e-002	 1.411628137916133e+001
 1.576465741589899e+000	 1.056054995561210e-001	 1.411478621933784e+001
 1.575367410756614e+000	 1.208897264122547e-001	 1.411414621357925e+001
 1.574116145150969e+000	 1.362175848908867e-001	 1.411486656568409e+001
 1.572710498262325e+000	 1.515870320089032e-001	 1.411743462078410e+001
 1.586665999993466e+000	 0.000000000000000e+000	 1.406404098771164e+001
 1.586595201483688e+000	 1.498826940389370e-002	 1.406915036096896e+001
 1.586381713337901e+000	 3.003347835879168e-002	 1.407165052207763e+001
 1.586023911391549e+000	 4.513388586094088e-002	 1.407217126634330e+001
 1.585520192158728e+000	 6.028770609822909e-002	 1.407133059748242e+001
 1.584868974090821e+000	 7.549310853130964e-002	 1.406973307755806e+001
 1.584068698846796e+000	 9.074821801256802e-002	 1.406796826535793e+001
 1.583117832574064e+000	 1.060511149438211e-001	 1.406660926579096e+001
 1.582014867198729e+000	 1.213998354736078e-001	 1.406621140917568e+001
 1.580758321724004e+000	 1.367923717348972e-001	 1.406731108124258e+001
 1.579346743535532e+000	 1.522266721240030e-001	 1.407042472668132e+001
 1.593332999996683e+000	 0.000000000000000e+000	 1.401604021423257e+001
 1.593261903999138e+000	 1.505124850166526e-002	 1.402139307016341e+001
 1.593047518799007e+000	 3.015967580798343e-002	 1.402402383107417e+001
 1.592688213407181e+000	 4.532353359972181e-002	 1.402460251689656e+001
 1.592182377600097e+000	 6.054102856100917e-002	 1.402378590110864e+001
 1.591528423183657e+000	 7.581032246080131e-002	 1.402221576755109e+001
 1.590724785268861e+000	 9.112953227234759e-002	 1.402051725118422e+001
 1.589769923558053e+000	 1.064967303315528e-001	 1.401929728557262e+001
 1.588662323640588e+000	 1.219099445350965e-001	 1.401914317612041e+001
 1.587400498296709e+000	 1.373671585791407e-001	 1.402062132009331e+001
 1.585982988808343e+000	 1.528663122394153e-001	 1.402427609655194e+001
 1.600000000000000e+000	 0.000000000000000e+000	 1.396887829783414e+001
 1.599928606514677e+000	 1.511422759924554e-002	 1.397446141373719e+001
 1.599713324260166e+000	 3.028587325687582e-002	 1.397721531557568e+001
 1.599352515422813e+000	 4.551318133816625e-002	 1.397784906815261e+001
 1.598844563041397e+000	 6.079435102347415e-002	 1.397705703600505e+001
 1.598187872276344e+000	 7.612753639004513e-002	 1.397551704853546e+001
 1.597380871690691e+000	 9.151084653197962e-002	 1.397388864439275e+001
 1.596422014541718e+000	 1.069423457192571e-001	 1.397281141808987e+001
 1.595309780082036e+000	 1.224200535966849e-001	 1.397290348801399e+001
 1.594042674868919e+000	 1.379419454236041e-001	 1.397476010707603e+001
 1.592619234080585e+000	 1.535059523551476e-001	 1.397895243940617e+001
 1.526256781353464e+000	 1.471095512113651e-001	 1.447388587268863e+001
 1.524741695945114e+000	 1.620611205902299e-001	 1.447195284999126e+001
 1.523074115278612e+000	 1.770489807261168e-001	 1.446850109541140e+001
 1.521252726267772e+000	 1.920710579192460e-001	 1.446389441943290e+001
 1.519276248250174e+000	 2.071252386533722e-001	 1.445846658082018e+001
 1.517143434246501e+000	 2.222093700739263e-001	 1.445252156304818e+001
 1.514853072217832e+000	 2.373212605084653e-001	 1.444633421972964e+001
 1.512403986319364e+000	 2.524586800298292e-001	 1.444015132173445e+001
 1.509795038149035e+000	 2.676193610623530e-001	 1.443419303985648e+001
 1.507025127989463e+000	 2.828009990314218e-001	 1.442865489789724e+001
 1.504093196041590e+000	 2.980012530565968e-001	 1.442371023188341e+001
 1.532893026624554e+000	 1.477491913244743e-001	 1.441974370316928e+001
 1.531371353544921e+000	 1.627657709182357e-001	 1.441845688133984e+001
 1.529696522149704e+000	 1.778187990632860e-001	 1.441556767950654e+001
 1.527867213643341e+000	 1.929061930432675e-001	 1.441146381193493e+001
 1.525882141795015e+000	 2.080258301522326e-001	 1.440650066960818e+001
 1.523740054203473e+000	 2.231755481748648e-001	 1.440100149080739e+001
 1.521439733559776e+000	 2.383531459091908e-001	 1.439525790209688e+001
 1.518979998906481e+000	 2.535563837321868e-001	 1.438953086322982e+001
 1.516359706891685e+000	 2.687829842086255e-001	 1.438405205072550e+001
 1.513577753016370e+000	 2.840306327434565e-001	 1.437902571595753e+001
 1.510633072873409e+000	 2.992969782779455e-001	 1.437463105451278e+001
 1.539529271896469e+000	 1.483888314378467e-001	 1.436674593637440e+001
 1.538001011145548e+000	 1.634704212464512e-001	 1.436609600075278e+001
 1.536318929021609e+000	 1.785886174006199e-001	 1.436375866109017e+001
 1.534481701019713e+000	 1.937413281674167e-001	 1.436014572293029e+001
 1.532488035340652e+000	 2.089264216511906e-001	 1.435563439650655e+001
 1.530336674161230e+000	 2.241417262758770e-001	 1.435056735885046e+001
 1.528026394902492e+000	 2.393850313099715e-001	 1.434525318748333e+001
 1.525556011494349e+000	 2.546540874345852e-001	 1.433996720003981e+001
 1.522924375635062e+000	 2.699466073549286e-001	 1.433495273548077e+001
 1.520130378043972e+000	 2.852602664555142e-001	 1.433042291372189e+001
 1.517172949705882e+000	 3.005927034993116e-001	 1.432656291149724e+001
 1.546165517169035e+000	 1.490284715514892e-001	 1.431484900202665e+001
 1.544630668746812e+000	 1.641750715748987e-001	 1.431482640153547e+001
 1.542941335894138e+000	 1.793584357381514e-001	 1.431302996457547e+001
 1.541096188396701e+000	 1.945764632917324e-001	 1.430989577617508e+001
 1.539093928886893e+000	 2.098270131502877e-001	 1.430582305450514e+001
 1.536933294119577e+000	 2.251079043770039e-001	 1.430117410184919e+001
 1.534613056245783e+000	 2.404169167108456e-001	 1.429627462810060e+001
 1.532132024082775e+000	 2.557517911370589e-001	 1.429141448197540e+001
 1.529489044378973e+000	 2.711102305012908e-001	 1.428684882652165e+001
 1.526683003072079e+000	 2.864899001676177e-001	 1.428279979675057e+001
 1.523712826538826e+000	 3.018884287207119e-001	 1.427945867828781e+001
 1.552801762442078e+000	 1.496681116654091e-001	 1.426401037107746e+001
 1.551260326348532e+000	 1.648797219036005e-001	 1.426460548271079e+001
 1.549563742767107e+000	 1.801282540759132e-001	 1.426333887543035e+001
 1.547710675774113e+000	 1.954115984162538e-001	 1.426067110292544e+001
 1.545699822433543e+000	 2.107276046495656e-001	 1.425702358193620e+001
 1.543529914078321e+000	 2.260740824782868e-001	 1.425277842937613e+001
 1.541199717589455e+000	 2.414488021118517e-001	 1.424827867268122e+001
 1.538708036671565e+000	 2.568494948396415e-001	 1.424382886942589e+001
 1.536053713123227e+000	 2.722738536477408e-001	 1.423969617372124e+001
 1.533235628100504e+000	 2.877195338797896e-001	 1.423611188823756e+001
 1.530252703372057e+000	 3.031841539421639e-001	 1.423327354184455e+001
 1.559438007715424e+000	 1.503077517796133e-001	 1.421418855547500e+001
 1.557889983950527e+000	 1.655843722325790e-001	 1.421539184593255e+001
 1.556186149640328e+000	 1.808980724139380e-001	 1.421464403416773e+001
 1.554325163151757e+000	 1.962467335410196e-001	 1.421243033293689e+001
 1.552305715980410e+000	 2.116281961490655e-001	 1.420919455041724e+001
 1.550126534037266e+000	 2.270402605797670e-001	 1.420533881072694e+001
 1.547786378933312e+000	 2.424806875130279e-001	 1.420122364812044e+001
 1.545284049260524e+000	 2.579471985423669e-001	 1.419716851176097e+001
 1.542618381867632e+000	 2.734374767943067e-001	 1.419345271953300e+001
 1.539788253129059e+000	 2.889491675920524e-001	 1.419031690076887e+001
 1.536792580205390e+000	 3.044798791636848e-001	 1.418796496899728e+001
 1.566074252988898e+000	 1.509473918941090e-001	 1.416534310780157e+001
 1.564519641552615e+000	 1.662890225618565e-001	 1.416714529231335e+001
 1.562808556513614e+000	 1.816678907522586e-001	 1.416690543029321e+001
 1.560939650529444e+000	 1.970818686660690e-001	 1.416513358546421e+001
 1.558911609527300e+000	 2.125287876488292e-001	 1.416229615283702e+001
 1.556723153996217e+000	 2.280064386814850e-001	 1.415881545982859e+001
 1.554373040277162e+000	 2.435125729144131e-001	 1.415506974124446e+001
 1.551860061849460e+000	 2.590449022452694e-001	 1.415139352590033e+001
 1.549183050611998e+000	 2.746010999410177e-001	 1.414807847430538e+001
 1.546340878157556e+000	 2.901788013044291e-001	 1.414537470832920e+001
 1.543332457038643e+000	 3.057756043852918e-001	 1.414349267509359e+001
 1.572710498262325e+000	 1.515870320089032e-001	 1.411743462078410e+001
 1.571149299154617e+000	 1.669936728914554e-001	 1.411982681916822e+001
 1.569430963386780e+000	 1.824377090909078e-001	 1.412008439621179e+001
 1.567554137906982e+000	 1.979170037914407e-001	 1.411874246026216e+001
 1.565517503074019e+000	 2.134293791488981e-001	 1.411629019138379e+001
 1.563319773954980e+000	 2.289726167834827e-001	 1.411317032023020e+001
 1.560959701620807e+000	 2.445444583160452e-001	 1.410977898070174e+001
 1.558436074438177e+000	 2.601426059483827e-001	 1.410646597504595e+001
 1.555747719356131e+000	 2.757647230879017e-001	 1.410353549179842e+001
 1.552893503185804e+000	 2.914084350169423e-001	 1.410124731854883e+001
 1.549872333871631e+000	 3.070713296070020e-001	 1.409981859292646e+001
 1.579346743535532e+000	 1.522266721240030e-001	 1.407042472668132e+001
 1.577778956756348e+000	 1.676983232213979e-001	 1.407339861667697e+001
 1.576053370259636e+000	 1.832075274299182e-001	 1.407414360109473e+001
 1.574168625284182e+000	 1.987521389171739e-001	 1.407322002858730e+001
 1.572123396620374e+000	 2.143299706493138e-001	 1.407114006561371e+001
 1.569916393913360e+000	 2.299387948858007e-001	 1.406836705017402e+001
 1.567546362964054e+000	 2.455763437179628e-001	 1.406531521897377e+001
 1.565012087026484e+000	 2.612403096517410e-001	 1.406234984757223e+001
 1.562312388099842e+000	 2.769283462349874e-001	 1.405978784489614e+001
 1.559446128213619e+000	 2.926380687296147e-001	 1.405789884518496e+001
 1.556412210704171e+000	 3.083670548288327e-001	 1.405690684193270e+001
 1.585982988808343e+000	 1.528663122394153e-001	 1.402427609655194e+001
 1.584408614357630e+000	 1.684029735517064e-001	 1.402782406446842e+001
 1.582675777131999e+000	 1.839773457693228e-001	 1.402904704470716e+001
 1.580783112660850e+000	 1.995872740433072e-001	 1.402853082419952e+001
 1.578729290166173e+000	 2.152305621501178e-001	 1.402681076055997e+001
 1.576513013871161e+000	 2.309049729884803e-001	 1.402437100774466e+001
 1.574133024306707e+000	 2.466082291202043e-001	 1.402164411450169e+001
 1.571588099614184e+000	 2.623380133553782e-001	 1.401901103606993e+001
 1.568877056842937e+000	 2.780919693823035e-001	 1.401680160150993e+001
 1.565998753240810e+000	 2.938677024424691e-001	 1.401529548082906e+001
 1.562952087536078e+000	 3.096627800508011e-001	 1.401472369765419e+001
 1.592619234080585e+000	 1.535059523551476e-001	 1.397895243940617e+001
 1.591038271958281e+000	 1.691076238824034e-001	 1.398306772812708e+001
 1.589298184003680e+000	 1.847471641091542e-001	 1.398476005119856e+001
 1.587397600036800e+000	 2.004224091698800e-001	 1.398464083436547e+001
 1.585335183711221e+000	 2.161311536513516e-001	 1.398326883487911e+001
 1.583109633828190e+000	 2.318711510915626e-001	 1.398114923609407e+001
 1.580719685648572e+000	 2.476401145228081e-001	 1.397873311392538e+001
 1.578164112201086e+000	 2.634357170593281e-001	 1.397641731653792e+001
 1.575441725585226e+000	 2.792555925298784e-001	 1.397454480066574e+001
 1.572551378267189e+000	 2.950973361555282e-001	 1.397340546983507e+001
 1.569491964367168e+000	 3.109585052729245e-001	 1.397323756145497e+001
 1.504093196041590e+000	 2.980012530565968e-001	 1.442371023188341e+001
 1.500997747292520e+000	 3.132200298999261e-001	 1.441822602525336e+001
 1.497738233748321e+000	 3.284526353368806e-001	 1.441096956313487e+001
 1.494313723579467e+000	 3.436966194285618e-001	 1.440194240372276e+001
 1.490723329744274e+000	 3.589494990456078e-001	 1.439114327782728e+001
 1.486966211157460e+000	 3.742087587819934e-001	 1.437857391106831e+001
 1.483041573840250e+000	 3.894718519125411e-001	 1.436424557254146e+001
 1.478948672050239e+000	 4.047362013938897e-001	 1.434818638411584e+001
 1.474686809389286e+000	 4.199992009085986e-001	 1.433044942305557e+001
 1.470255339887630e+000	 4.352582159519864e-001	 1.431112164878911e+001
 1.465653669062488e+000	 4.505105849612260e-001	 1.429033368236919e+001
 1.510633072873409e+000	 2.992969782779455e-001	 1.437463105451278e+001
 1.507524164949504e+000	 3.145819271687185e-001	 1.436975795135435e+001
 1.504250478868019e+000	 3.298807647805117e-001	 1.436319095292825e+001
 1.500811078747787e+000	 3.451910305219705e-001	 1.435492504502707e+001
 1.497205073690221e+000	 3.605102304669627e-001	 1.434494965270962e+001
 1.493431618952961e+000	 3.758358382723523e-001	 1.433325443254271e+001
 1.489489917104969e+000	 3.911652961396744e-001	 1.431983580367746e+001
 1.485379219161321e+000	 4.064960158204545e-001	 1.430470425330736e+001
 1.481098825695899e+000	 4.218253796648537e-001	 1.428789245061266e+001
 1.476648087930236e+000	 4.371507417132339e-001	 1.426946420144759e+001
 1.472026408796709e+000	 4.524694288301597e-001	 1.424952427374730e+001
 1.517172949705882e+000	 3.005927034993116e-001	 1.432656291149724e+001
 1.514050582607095e+000	 3.159438244375236e-001	 1.432228779782918e+001
 1.510762723988268e+000	 3.313088942241527e-001	 1.431640094039823e+001
 1.507308433916597e+000	 3.466854416153890e-001	 1.430888974240870e+001
 1.503686817636593e+000	 3.620709618883304e-001	 1.429973327897868e+001
 1.499897026748817e+000	 3.774629177627315e-001	 1.428890805716993e+001
 1.495938260369979e+000	 3.928587403668400e-001	 1.427639452724077e+001
 1.491809766272625e+000	 4.082558302470694e-001	 1.426218438208784e+001
 1.487510842002673e+000	 4.236515584211839e-001	 1.424628868042923e+001
 1.483040835972945e+000	 4.390432674745878e-001	 1.422874682744993e+001
 1.478399148530984e+000	 4.544282726992400e-001	 1.420963644436129e+001
 1.523712826538826e+000	 3.018884287207119e-001	 1.427945867828781e+001
 1.520577000265113e+000	 3.173057217063540e-001	 1.427576806173986e+001
 1.517274969108895e+000	 3.327370236678126e-001	 1.427055176080039e+001
 1.513805789085730e+000	 3.481798527088229e-001	 1.426378860729513e+001
 1.510168561583230e+000	 3.636316933097140e-001	 1.425544630383864e+001
 1.506362434544881e+000	 3.790899972531312e-001	 1.424548714926967e+001
 1.502386603635133e+000	 3.945521845940356e-001	 1.423387452771859e+001
 1.498240313384018e+000	 4.100156446737295e-001	 1.422058019972410e+001
 1.493922858309479e+000	 4.254777371775804e-001	 1.420559243243320e+001
 1.489433584015637e+000	 4.409357932360366e-001	 1.418892500410703e+001
 1.484771888265196e+000	 4.563871165684502e-001	 1.417062711589516e+001
 1.530252703372057e+000	 3.031841539421639e-001	 1.423327354184455e+001
 1.527103417923380e+000	 3.186676189752223e-001	 1.423015363890699e+001
 1.523787214229728e+000	 3.341651531114999e-001	 1.422559812826605e+001
 1.520303144255021e+000	 3.496742638022776e-001	 1.421957630324852e+001
 1.516650305529975e+000	 3.651924247311161e-001	 1.421204349332074e+001
 1.512827842340999e+000	 3.807170767435516e-001	 1.420294675242176e+001
 1.508834946900292e+000	 3.962456288212590e-001	 1.419223132335306e+001
 1.504670860495363e+000	 4.117754591004300e-001	 1.417984791812663e+001
 1.500334874616188e+000	 4.273039159340354e-001	 1.416576085282196e+001
 1.495826332058187e+000	 4.428283189975681e-001	 1.414995707371211e+001
 1.491144627999229e+000	 4.583459604377744e-001	 1.413245610917178e+001
 1.536792580205390e+000	 3.044798791636848e-001	 1.418796496899728e+001
 1.533629835581718e+000	 3.200295162441408e-001	 1.418540178884356e+001
 1.530299459350595e+000	 3.355932825552235e-001	 1.418149719730482e+001
 1.526800499424305e+000	 3.511686748957587e-001	 1.417621000404199e+001
 1.523132049476669e+000	 3.667531561525392e-001	 1.416948218694729e+001
 1.519293250137022e+000	 3.823441562339925e-001	 1.416124454074073e+001
 1.515283290165310e+000	 3.979390730485077e-001	 1.415142311405823e+001
 1.511101407606524e+000	 4.135352735271654e-001	 1.413994647645110e+001
 1.506746890922672e+000	 4.291300946905406e-001	 1.412675385539913e+001
 1.502219080100473e+000	 4.447208447591707e-001	 1.411180418167387e+001
 1.497517367732963e+000	 4.603048043071962e-001	 1.409508607915235e+001
 1.543332457038643e+000	 3.057756043852918e-001	 1.414349267509359e+001
 1.540156253239948e+000	 3.213914135131227e-001	 1.414147210001487e+001
 1.536811704471323e+000	 3.370214119989919e-001	 1.413820852467126e+001
 1.533297854593415e+000	 3.526630859892718e-001	 1.413364935213617e+001
 1.529613793423154e+000	 3.683138875739864e-001	 1.412772225283006e+001
 1.525758657932800e+000	 3.839712357244545e-001	 1.412034077061755e+001
 1.521731633430045e+000	 3.996325172757796e-001	 1.411141072983592e+001
 1.517531954717364e+000	 4.152950879539309e-001	 1.410083748622776e+001
 1.513158907228801e+000	 4.309562734470882e-001	 1.408853406346717e+001
 1.508611828142372e+000	 4.466133705208325e-001	 1.407443021523060e+001
 1.503890107466283e+000	 4.622636481766994e-001	 1.405848245054075e+001
 1.549872333871631e+000	 3.070713296070020e-001	 1.409981859292646e+001
 1.546682670897893e+000	 3.227533107821800e-001	 1.409832645541559e+001
 1.543323949591740e+000	 3.384495414428143e-001	 1.409569403158455e+001
 1.539795209762188e+000	 3.541574970828225e-001	 1.409185641754354e+001
 1.536095537369272e+000	 3.698746189954602e-001	 1.408672604319041e+001
 1.532224065728180e+000	 3.855983152149377e-001	 1.408019823291494e+001
 1.528179976694352e+000	 4.013259615030719e-001	 1.407215757967501e+001
 1.523962501827749e+000	 4.170549023807215e-001	 1.406248517700315e+001
 1.519570923534447e+000	 4.327824522036696e-001	 1.405106675225850e+001
 1.515004576183764e+000	 4.485058962825418e-001	 1.403780174272812e+001
 1.510262847199072e+000	 4.642224920462676e-001	 1.402261335397421e+001
 1.556412210704171e+000	 3.083670548288327e-001	 1.405690684193270e+001
 1.553209088555372e+000	 3.241152080513254e-001	 1.405592899845411e+001
 1.549836194711674e+000	 3.398776708866992e-001	 1.405391796629075e+001
 1.546292564930458e+000	 3.556519081764159e-001	 1.405079565706951e+001
 1.542577281314866e+000	 3.714353504169633e-001	 1.404645835028816e+001
 1.538689473523012e+000	 3.872253947054421e-001	 1.404078220560275e+001
 1.534628319958090e+000	 4.030194057303826e-001	 1.403362960092046e+001
 1.530393048937541e+000	 4.188147168075320e-001	 1.402485634247899e+001
 1.525982939839479e+000	 4.346086309602767e-001	 1.401431979189035e+001
 1.521397324224522e+000	 4.503984220442867e-001	 1.400188795344501e+001
 1.516635586931213e+000	 4.661813359158848e-001	 1.398744956278364e+001
 1.562952087536078e+000	 3.096627800508011e-001	 1.401472369765419e+001
 1.559735506212208e+000	 3.254771053205715e-001	 1.401424609913530e+001
 1.556348439830952e+000	 3.413058003306549e-001	 1.401284686695828e+001
 1.552789920098058e+000	 3.571463192700581e-001	 1.401043387391922e+001
 1.549059025259775e+000	 3.729960818384988e-001	 1.400688636274814e+001
 1.545154881317146e+000	 3.888524741959679e-001	 1.400206040682068e+001
 1.541076663221114e+000	 4.047128499577091e-001	 1.399579520909810e+001
 1.536823596046605e+000	 4.205745312343574e-001	 1.398792028713402e+001
 1.532394956143769e+000	 4.364348097169016e-001	 1.397826359082713e+001
 1.527790072264526e+000	 4.522909478060553e-001	 1.396666059794917e+001
 1.523008326662587e+000	 4.681401797855344e-001	 1.395296443030654e+001
 1.569491964367168e+000	 3.109585052729245e-001	 1.397323756145497e+001
 1.566261923868223e+000	 3.268390025899310e-001	 1.397324632053325e+001
 1.562860684949402e+000	 3.427339297746908e-001	 1.397244952489566e+001
 1.559287275264824e+000	 3.586407303637541e-001	 1.397074017765923e+001
 1.555540769203843e+000	 3.745568132600691e-001	 1.396797962227199e+001
 1.551620289110432e+000	 3.904795536865157e-001	 1.396400294835578e+001
 1.547525006483282e+000	 4.064062941850495e-001	 1.395862524818196e+001
 1.543254143154806e+000	 4.223343456611926e-001	 1.395164877331398e+001
 1.538806972447188e+000	 4.382609884735363e-001	 1.394287103983594e+001
 1.534182820303653e+000	 4.541834735678361e-001	 1.393209392896997e+001
 1.529381066393079e+000	 4.700990236552003e-001	 1.391913382773675e+001
 1.465653669062488e+000	 4.505105849612260e-001	 1.429033368236919e+001
 1.460881254582814e+000	 4.657536202629573e-001	 1.426811666394879e+001
 1.455937606170270e+000	 4.809846085935220e-001	 1.424462903052105e+001
 1.450822287668566e+000	 4.962008129821307e-001	 1.422030352787783e+001
 1.445534918351047e+000	 5.113994742604213e-001	 1.419568015535534e+001
 1.440075173828056e+000	 5.265778123931375e-001	 1.417142079189343e+001
 1.434442786918362e+000	 5.417330278466270e-001	 1.414832475217922e+001
 1.428637548482970e+000	 5.568623029941296e-001	 1.412734527164335e+001
 1.422659308219669e+000	 5.719628035567329e-001	 1.410960691310749e+001
 1.416507975416695e+000	 5.870316800788020e-001	 1.409642388146473e+001
 1.410183519663929e+000	 6.020660694366057e-001	 1.408931922592353e+001
 1.472026408796709e+000	 4.524694288301597e-001	 1.424952427374730e+001
 1.467233243606192e+000	 4.677787416561319e-001	 1.422815358598459e+001
 1.462268099948587e+000	 4.830759551300782e-001	 1.420557452251693e+001
 1.457130539771175e+000	 4.983583203807138e-001	 1.418221232255496e+001
 1.451820180691879e+000	 5.136230662426654e-001	 1.415859834491275e+001
 1.446336696910580e+000	 5.288674005929341e-001	 1.413538482805211e+001
 1.440679820084324e+000	 5.440885117253453e-001	 1.411336060378412e+001
 1.434849340164768e+000	 5.592835697619475e-001	 1.409346776451531e+001
 1.428845106196179e+000	 5.744497281002315e-001	 1.407681927786012e+001
 1.422667027072372e+000	 5.895841248949770e-001	 1.406471753591196e+001
 1.416315072251001e+000	 6.046838845734373e-001	 1.405867381948777e+001
 1.478399148530984e+000	 4.544282726992400e-001	 1.420963644436129e+001
 1.473585232629581e+000	 4.698038630495011e-001	 1.418909155054553e+001
 1.468598593726882e+000	 4.851673016668832e-001	 1.416740228234487e+001
 1.463438791873734e+000	 5.005158277796018e-001	 1.414498564046328e+001
 1.458105443032640e+000	 5.158466582252691e-001	 1.412236344043113e+001
 1.452598219993009e+000	 5.311569887931404e-001	 1.410017720267377e+001
 1.446916853250171e+000	 5.464439956045160e-001	 1.407920402035015e+001
 1.441061131846431e+000	 5.617048365302479e-001	 1.406037340601851e+001
 1.435030904172532e+000	 5.769366526442278e-001	 1.404478511202279e+001
 1.428826078727865e+000	 5.921365697116463e-001	 1.403372791285057e+001
 1.422446624837859e+000	 6.073016997107373e-001	 1.402869933060732e+001
 1.484771888265196e+000	 4.563871165684502e-001	 1.417062711589516e+001
 1.479937221652870e+000	 4.718289844430434e-001	 1.415088860576784e+001
 1.474929087505048e+000	 4.872586482039092e-001	 1.413007055187047e+001
 1.469747043976140e+000	 5.026733351787613e-001	 1.410858098936745e+001
 1.464390705373224e+000	 5.180702502081938e-001	 1.408693129251056e+001
 1.458859743075247e+000	 5.334465769937136e-001	 1.406575119065607e+001
 1.453153886415812e+000	 5.487994794840923e-001	 1.404580478670732e+001
 1.447272923527875e+000	 5.641261032989837e-001	 1.402800758025974e+001
 1.441216702148652e+000	 5.794235771886765e-001	 1.401344449146447e+001
 1.434985130383111e+000	 5.946890145287688e-001	 1.400338887486831e+001
 1.428578177424451e+000	 6.099195148484722e-001	 1.399932250525226e+001
 1.491144627999229e+000	 4.583459604377744e-001	 1.413245610917178e+001
 1.486289210675948e+000	 4.738541058367373e-001	 1.411350573956131e+001
 1.481259581282975e+000	 4.893499947411287e-001	 1.409354057103635e+001
 1.476055296078286e+000	 5.048308425781587e-001	 1.407295895166022e+001
 1.470675967713535e+000	 5.202938421914002e-001	 1.405226092173578e+001
 1.465121266157198e+000	 5.357361651946101e-001	 1.403206335157806e+001
 1.459390919581158e+000	 5.511549633640283e-001	 1.401311610691175e+001
 1.453484715209018e+000	 5.665473700681074e-001	 1.399631924544348e+001
 1.447402500124465e+000	 5.819105017335305e-001	 1.398274124179723e+001
 1.441144182038046e+000	 5.972414593463019e-001	 1.397363823112820e+001
 1.434709730010727e+000	 6.125373299866082e-001	 1.397047425436174e+001
 1.497517367732963e+000	 4.603048043071962e-001	 1.409508607915235e+001
 1.492641199698700e+000	 4.758792272305609e-001	 1.407690681132834e+001
 1.487590075060555e+000	 4.914413412785144e-001	 1.405777650593291e+001
 1.482363548180069e+000	 5.069883499777607e-001	 1.403808310842211e+001
 1.476961230053470e+000	 5.225174341748503e-001	 1.401831443836742e+001
 1.471382789238767e+000	 5.380257533957867e-001	 1.399907344467076e+001
 1.465627952746118e+000	 5.535104472442770e-001	 1.398109451415000e+001
 1.459696506889775e+000	 5.689686368375715e-001	 1.396526083837077e+001
 1.453588298099896e+000	 5.843974262787447e-001	 1.395262283713710e+001
 1.447303233692604e+000	 5.997939041642042e-001	 1.394441763006475e+001
 1.440841282596636e+000	 6.151551451251107e-001	 1.394208954015708e+001
 1.503890107466283e+000	 4.622636481766994e-001	 1.405848245054075e+001
 1.498993188721015e+000	 4.779043486244929e-001	 1.404105848431464e+001
 1.493920568837680e+000	 4.935326878160388e-001	 1.402274537753720e+001
 1.488671800281383e+000	 5.091458573775337e-001	 1.400391996419486e+001
 1.483246492392928e+000	 5.247410261585045e-001	 1.398505696280216e+001
 1.477644312319856e+000	 5.403153415972000e-001	 1.396674434462219e+001
 1.471864985910601e+000	 5.558659311247930e-001	 1.394969978155261e+001
 1.465908298570060e+000	 5.713899036073283e-001	 1.393478817993091e+001
 1.459774096074869e+000	 5.868843508242728e-001	 1.392304029995034e+001
 1.453462285346721e+000	 6.023463489824343e-001	 1.391567245326883e+001
 1.446972835182127e+000	 6.177729602639466e-001	 1.391410726375491e+001
 1.510262847199072e+000	 4.642224920462676e-001	 1.402261335397421e+001
 1.505345177742780e+000	 4.799294700185113e-001	 1.400593015857295e+001
 1.500251062614241e+000	 4.956240343536745e-001	 1.398841699110024e+001
 1.494980052382124e+000	 5.113033647774449e-001	 1.397043887244847e+001
 1.489531754731810e+000	 5.269646181423245e-001	 1.395245654678033e+001
 1.483905835400370e+000	 5.426049297988068e-001	 1.393504195819233e+001
 1.478102019074516e+000	 5.582214150055291e-001	 1.391889483388920e+001
 1.472120090249793e+000	 5.738111703773308e-001	 1.390486038155641e+001
 1.465959894049310e+000	 5.893712753700684e-001	 1.389394810195400e+001
 1.459621337000334e+000	 6.048987938009504e-001	 1.388735171052590e+001
 1.453104387767148e+000	 6.203907754030813e-001	 1.388647015404350e+001
 1.516635586931213e+000	 4.661813359158848e-001	 1.398744956278364e+001
 1.511697166763883e+000	 4.819545914125947e-001	 1.397149390452189e+001
 1.506581556390130e+000	 4.977153808913937e-001	 1.395476386616380e+001
 1.501288304482188e+000	 5.134608721774603e-001	 1.393761196172038e+001
 1.495817017070015e+000	 5.291882101262712e-001	 1.392048409531802e+001
 1.490167358480212e+000	 5.448945180005639e-001	 1.390393514161380e+001
 1.484339052237772e+000	 5.605768988864395e-001	 1.388864566011987e+001
 1.478331881928889e+000	 5.762324371475313e-001	 1.387543975261287e+001
 1.472145692023142e+000	 5.918581999160855e-001	 1.386530406603904e+001
 1.465780388653379e+000	 6.074512386197105e-001	 1.385940793597418e+001
 1.459235940351649e+000	 6.230085905424816e-001	 1.385912465778381e+001
 1.523008326662587e+000	 4.681401797855344e-001	 1.395296443030654e+001
 1.518049155784212e+000	 4.839797128067217e-001	 1.393772439708210e+001
 1.512912050165239e+000	 4.998067274291694e-001	 1.392176116718807e+001
 1.507596556581470e+000	 5.156183795775471e-001	 1.390541406240795e+001
 1.502102279407441e+000	 5.314118021103059e-001	 1.388911328934285e+001
 1.496428881559288e+000	 5.471841062024277e-001	 1.387339561875577e+001
 1.490576085400281e+000	 5.629323827674774e-001	 1.385892122677745e+001
 1.484543673607263e+000	 5.786537039178825e-001	 1.384649170869659e+001
 1.478331489996291e+000	 5.943451244622782e-001	 1.383706926918663e+001
 1.471939440305789e+000	 6.100036834386735e-001	 1.383179708534949e+001
 1.465367492935579e+000	 6.256264056821130e-001	 1.383202083090009e+001
 1.529381066393079e+000	 4.700990236552003e-001	 1.391913382773675e+001
 1.524401144803653e+000	 4.860048342008704e-001	 1.390459885037324e+001
 1.519242543939458e+000	 5.018980739669736e-001	 1.388938663477249e+001
 1.513904808679865e+000	 5.177758869776713e-001	 1.387382263419482e+001
 1.508387541743989e+000	 5.336353940943899e-001	 1.385832050901312e+001
 1.502690404637501e+000	 5.494736944043553e-001	 1.384339790002838e+001
 1.496813118561950e+000	 5.652878666485969e-001	 1.382969339215651e+001
 1.490755465284833e+000	 5.810749706883370e-001	 1.381798468081318e+001
 1.484517287968682e+000	 5.968320490086004e-001	 1.380920794634810e+001
 1.478098491957502e+000	 6.125561282577968e-001	 1.380447843428506e+001
 1.471499045518887e+000	 6.282442208219421e-001	 1.380511223092529e+001
 1.410183519663929e+000	 6.020660694366057e-001	 1.408931922592353e+001
 1.403686959262296e+000	 6.170608500081971e-001	 1.407489621826843e+001
 1.397017451590627e+000	 6.320153956248561e-001	 1.404043714424751e+001
 1.390175151974715e+000	 6.469268136174284e-001	 1.398887168158730e+001
 1.383160278389224e+000	 6.617922040227658e-001	 1.392343722917438e+001
 1.375973111932677e+000	 6.766086612348735e-001	 1.385023829926445e+001
 1.368613997251564e+000	 6.913732756799494e-001	 1.378025274213159e+001
 1.361083342912368e+000	 7.060831355135255e-001	 1.371581030569250e+001
 1.353381621720377e+000	 7.207353283378716e-001	 1.365857038871353e+001
 1.345509370984224e+000	 7.353269429377547e-001	 1.361017698900995e+001
 1.337467192725185e+000	 7.498550710325906e-001	 1.357225387615564e+001
 1.416315072251001e+000	 6.046838845734373e-001	 1.405867381948777e+001
 1.409790264460619e+000	 6.197438632445814e-001	 1.404524412077833e+001
 1.403091757416306e+000	 6.347634320170740e-001	 1.401162379594325e+001
 1.396219707119228e+000	 6.497396856442840e-001	 1.396066817528539e+001
 1.389174332491827e+000	 6.646697115538689e-001	 1.389553685858249e+001
 1.381955915854867e+000	 6.795505915061075e-001	 1.382422859894774e+001
 1.374564803353394e+000	 6.943794032762171e-001	 1.375669426710865e+001
 1.367001405330368e+000	 7.091532223588758e-001	 1.369465967291391e+001
 1.359266196646870e+000	 7.238691236930948e-001	 1.363971622460218e+001
 1.351359716947796e+000	 7.385241834055245e-001	 1.359343478825648e+001
 1.343282570872048e+000	 7.531154805702228e-001	 1.355736084958962e+001
 1.422446624837859e+000	 6.073016997107373e-001	 1.402869933060732e+001
 1.415893569658691e+000	 6.224268764813835e-001	 1.401618617670552e+001
 1.409166063241688e+000	 6.375114684096384e-001	 1.398327541392351e+001
 1.402264262263400e+000	 6.525525576713976e-001	 1.393274684842286e+001
 1.395188386594041e+000	 6.675472190851323e-001	 1.386770329689167e+001
 1.387938719776625e+000	 6.824925217773965e-001	 1.379865677506846e+001
 1.380515609454748e+000	 6.973855308724335e-001	 1.373347517140571e+001
 1.372919467747855e+000	 7.122233092040731e-001	 1.367370480732673e+001
 1.365150771572824e+000	 7.270029190480732e-001	 1.362087145805031e+001
 1.357210062910808e+000	 7.417214238729719e-001	 1.357647567104072e+001
 1.349097949018345e+000	 7.563758901074750e-001	 1.354198791808653e+001
 1.428578177424451e+000	 6.099195148484722e-001	 1.399932250525226e+001
 1.421996874856474e+000	 6.251098897185816e-001	 1.398764373194279e+001
 1.415240369066761e+000	 6.402595048025424e-001	 1.395531227660201e+001
 1.408308817407234e+000	 6.553654296987800e-001	 1.390503123890464e+001
 1.401202440695892e+000	 6.704247266165833e-001	 1.384024016280820e+001
 1.393921523697992e+000	 6.854344520487875e-001	 1.377352799732702e+001
 1.386466415555689e+000	 7.003916584686644e-001	 1.371061049593760e+001
 1.378837530164909e+000	 7.152933960492007e-001	 1.365297490842205e+001
 1.371035346498327e+000	 7.301367144029044e-001	 1.360208371564634e+001
 1.363060408873358e+000	 7.449186643402056e-001	 1.355936993696255e+001
 1.354913327164176e+000	 7.596362996444629e-001	 1.352623227379464e+001
 1.434709730010727e+000	 6.125373299866082e-001	 1.397047425436174e+001
 1.428100180053938e+000	 6.277929029561533e-001	 1.395954249285562e+001
 1.421314674891504e+000	 6.430075411957767e-001	 1.392765915106233e+001
 1.414353372550734e+000	 6.581783017264401e-001	 1.387744943452319e+001
 1.407216494797402e+000	 6.733022341482499e-001	 1.381326531230013e+001
 1.399904327619013e+000	 6.883763823203269e-001	 1.374884703621839e+001
 1.392417221656276e+000	 7.033977860649748e-001	 1.368811468464508e+001
 1.384755592581603e+000	 7.183634828943404e-001	 1.363249830973066e+001
 1.376919921423466e+000	 7.332705097576847e-001	 1.358339941804229e+001
 1.368910754835542e+000	 7.481159048073343e-001	 1.354218626902303e+001
 1.360728705309640e+000	 7.628967091813032e-001	 1.351018901129685e+001
 1.440841282596636e+000	 6.151551451251107e-001	 1.394208954015708e+001
 1.434203485251044e+000	 6.304759161940762e-001	 1.393181240685276e+001
 1.427388980715904e+000	 6.457555775893358e-001	 1.390024516948720e+001
 1.420397927693902e+000	 6.609911737543874e-001	 1.384993394685208e+001
 1.413230548898594e+000	 6.761797416801600e-001	 1.378677776650581e+001
 1.405887131539728e+000	 6.913183125920612e-001	 1.372461823172218e+001
 1.398368027756570e+000	 7.064039136614295e-001	 1.366600155755664e+001
 1.390673654998015e+000	 7.214335697395736e-001	 1.361230245775392e+001
 1.382804496348332e+000	 7.364043051125114e-001	 1.356486376624213e+001
 1.374761100797457e+000	 7.513131452744667e-001	 1.352499172875051e+001
 1.366544083454837e+000	 7.661571187181121e-001	 1.349395113304286e+001
 1.446972835182127e+000	 6.177729602639466e-001	 1.391410726375491e+001
 1.440306790447758e+000	 6.331589294323280e-001	 1.390438754435547e+001
 1.433463286539944e+000	 6.485036139832111e-001	 1.387300370704366e+001
 1.426442482836742e+000	 6.638040457826309e-001	 1.382242158661484e+001
 1.419244602999491e+000	 6.790572492123410e-001	 1.376077620685725e+001
 1.411869935460181e+000	 6.942602428640372e-001	 1.370084546338893e+001
 1.404318833856632e+000	 7.094100412580943e-001	 1.364428428514910e+001
 1.396591717414220e+000	 7.245036565849834e-001	 1.359241389205681e+001
 1.388689071273012e+000	 7.395381004674813e-001	 1.354652072887785e+001
 1.380611446759200e+000	 7.545103857417109e-001	 1.350785175209978e+001
 1.372359461599867e+000	 7.694175282550056e-001	 1.347760955530205e+001
 1.453104387767148e+000	 6.203907754030813e-001	 1.388647015404350e+001
 1.446410095644047e+000	 6.358419426708865e-001	 1.387720598212323e+001
 1.439537592363605e+000	 6.512516503773947e-001	 1.384587226118202e+001
 1.432487037979258e+000	 6.666169178111806e-001	 1.379485334048559e+001
 1.425258657100116e+000	 6.819347567448212e-001	 1.373525894376993e+001
 1.417852739380413e+000	 6.972021731363018e-001	 1.367753212178210e+001
 1.410269639956520e+000	 7.124161688550331e-001	 1.362297536396858e+001
 1.402509779830295e+000	 7.275737434306515e-001	 1.357285822648832e+001
 1.394573646197594e+000	 7.426718958226916e-001	 1.352841303044223e+001
 1.386461792720868e+000	 7.577076262091769e-001	 1.349083014610150e+001
 1.378174839744830e+000	 7.726779377921001e-001	 1.346125311462273e+001
 1.459235940351649e+000	 6.230085905424816e-001	 1.385912465778381e+001
 1.452513400839875e+000	 6.385249559097292e-001	 1.385020968789649e+001
 1.445611898186873e+000	 6.539996867718798e-001	 1.381879233230625e+001
 1.438531593121450e+000	 6.694297898400456e-001	 1.376746058009789e+001
 1.431272711200492e+000	 6.848122642776284e-001	 1.371022388670367e+001
 1.423835543300468e+000	 7.001441034089009e-001	 1.365468108123520e+001
 1.416220446056298e+000	 7.154222964523116e-001	 1.360208659347453e+001
 1.408427842246315e+000	 7.306438302766600e-001	 1.355366013149681e+001
 1.400458221122166e+000	 7.458056911782389e-001	 1.351058214045155e+001
 1.392312138682557e+000	 7.609048666769719e-001	 1.347398908623968e+001
 1.383990217889825e+000	 7.759383473295118e-001	 1.344496857478177e+001
 1.465367492935579e+000	 6.256264056821130e-001	 1.383202083090009e+001
 1.458616706035207e+000	 6.412079691488342e-001	 1.382334440631778e+001
 1.451686204009731e+000	 6.567477231666585e-001	 1.379170930577605e+001
 1.444576148263325e+000	 6.722426618692358e-001	 1.374054259261160e+001
 1.437286765300642e+000	 6.876897718107901e-001	 1.368566851555409e+001
 1.429818347220387e+000	 7.030860336818817e-001	 1.363229467388609e+001
 1.422171252156024e+000	 7.184284240499951e-001	 1.358162905407147e+001
 1.414345904662357e+000	 7.337139171230911e-001	 1.353484331750749e+001
 1.406342796046818e+000	 7.489394865342206e-001	 1.349306826351028e+001
 1.398162484644362e+000	 7.641021071452053e-001	 1.345738911453593e+001
 1.389805596034953e+000	 7.791987568673571e-001	 1.342884063421112e+001
 1.471499045518887e+000	 6.282442208219421e-001	 1.380511223092529e+001
 1.464720011230010e+000	 6.438909823881791e-001	 1.379655954609381e+001
 1.457760509832163e+000	 6.594957595617235e-001	 1.376457233520170e+001
 1.450620703404884e+000	 6.750555338987602e-001	 1.371409574355567e+001
 1.443300819400589e+000	 6.905672793443340e-001	 1.366158985333649e+001
 1.435801151140213e+000	 7.060279639552906e-001	 1.361037466495084e+001
 1.428122058255759e+000	 7.214345516481479e-001	 1.356161308629336e+001
 1.420263967078497e+000	 7.367840039700271e-001	 1.351643051933148e+001
 1.412227370971638e+000	 7.520732818907335e-001	 1.347591033025174e+001
 1.404012830606383e+000	 7.672993476139858e-001	 1.344108913832012e+001
 1.395620974180313e+000	 7.824591664057522e-001	 1.341295193388680e+001
 1.337467192725185e+000	 7.498550710325906e-001	 1.357225387615564e+001
 1.329254509510220e+000	 7.643189735336878e-001	 1.353572324326232e+001
 1.320873248139401e+000	 7.787135684687788e-001	 1.349148465485608e+001
 1.312324206908703e+000	 7.930359665787399e-001	 1.344026142694116e+001
 1.303608249122617e+000	 8.072832887068897e-001	 1.338252988702711e+001
 1.294726303013822e+000	 8.214526676025593e-001	 1.331863894475508e+001
 1.285679361603477e+000	 8.355412497282297e-001	 1.324880625596862e+001
 1.276468482501733e+000	 8.495461970679689e-001	 1.317311568576226e+001
 1.267094787648218e+000	 8.634646889348845e-001	 1.309151612381546e+001
 1.257559462992334e+000	 8.772939237752969e-001	 1.300382169495243e+001
 1.247863758113289e+000	 8.910311209672919e-001	 1.290971339689770e+001
 1.343282570872048e+000	 7.531154805702228e-001	 1.355736084958962e+001
 1.335034178475888e+000	 7.676422728849027e-001	 1.352235274799185e+001
 1.326616474937202e+000	 7.820994562806128e-001	 1.347893809392147e+001
 1.318030262022983e+000	 7.964841289355790e-001	 1.342843037718517e+001
 1.309276406791394e+000	 8.107933991743942e-001	 1.337137938904652e+001
 1.300355841511107e+000	 8.250243872794326e-001	 1.330818536180719e+001
 1.291269563520969e+000	 8.391742273058449e-001	 1.323911857527195e+001
 1.282018635029659e+000	 8.532400688978551e-001	 1.316431663549817e+001
 1.272604182855040e+000	 8.672190791040763e-001	 1.308378313677858e+001
 1.263027398103068e+000	 8.811084441895263e-001	 1.299738775143687e+001
 1.253289535786170e+000	 8.949053714419994e-001	 1.290486778076789e+001
 1.349097949018345e+000	 7.563758901074750e-001	 1.354198791808653e+001
 1.340813847440995e+000	 7.709655722357034e-001	 1.350837186231927e+001
 1.332359701734460e+000	 7.854853440920209e-001	 1.346595203441742e+001
 1.323736317136747e+000	 7.999322912920004e-001	 1.341595742260447e+001
 1.314944564459694e+000	 8.143035096415076e-001	 1.335942370784416e+001
 1.305985380007956e+000	 8.285961069559577e-001	 1.329680328456261e+001
 1.296859765438073e+000	 8.428072048831674e-001	 1.322841930434690e+001
 1.287568787557245e+000	 8.569339407275151e-001	 1.315446276132830e+001
 1.278113578061571e+000	 8.709734692731173e-001	 1.307499099358832e+001
 1.268495333213559e+000	 8.849229646036848e-001	 1.298992764687189e+001
 1.258715313458849e+000	 8.987796219167211e-001	 1.289906413534787e+001
 1.354913327164176e+000	 7.596362996444629e-001	 1.352623227379464e+001
 1.346593516405640e+000	 7.742888715862085e-001	 1.349377975848261e+001
 1.338102928531266e+000	 7.888712319031206e-001	 1.345252233003732e+001
 1.329442372250075e+000	 8.033804536481169e-001	 1.340305531890301e+001
 1.320612722127579e+000	 8.178136201083344e-001	 1.334688687758486e+001
 1.311614918504417e+000	 8.321678266322277e-001	 1.328472351794892e+001
 1.302449967354816e+000	 8.464401824602766e-001	 1.321694156150396e+001
 1.293118940084501e+000	 8.606278125570133e-001	 1.314378508900056e+001
 1.283622973267805e+000	 8.747278594420556e-001	 1.306536427390449e+001
 1.273963268323783e+000	 8.887374850178065e-001	 1.298165521458813e+001
 1.264141091131294e+000	 9.026538723914742e-001	 1.289250130144561e+001
 1.360728705309640e+000	 7.628967091813032e-001	 1.351018901129685e+001
 1.352373185369918e+000	 7.776121709365371e-001	 1.347869785110554e+001
 1.343846155327709e+000	 7.922571197140294e-001	 1.343844951052399e+001
 1.335148427363046e+000	 8.068286160040405e-001	 1.338990673094138e+001
 1.326280879795113e+000	 8.213237305749779e-001	 1.333399389373150e+001
 1.317244457000535e+000	 8.357395463083337e-001	 1.327217753883183e+001
 1.308040169271227e+000	 8.500731600372512e-001	 1.320491893343482e+001
 1.298669092611440e+000	 8.643216843864142e-001	 1.313251499511526e+001
 1.289132368473736e+000	 8.784822496109402e-001	 1.305512787682953e+001
 1.279431203433722e+000	 8.925520054319233e-001	 1.297278466202792e+001
 1.269566868803472e+000	 9.065281228662759e-001	 1.288537863455273e+001
 1.366544083454837e+000	 7.661571187181121e-001	 1.349395113304286e+001
 1.358152854333929e+000	 7.809354702868091e-001	 1.346324499530903e+001
 1.349589382123879e+000	 7.956430075248646e-001	 1.342386657335978e+001
 1.340854482475736e+000	 8.102767783598834e-001	 1.337627876098915e+001
 1.331949037462359e+000	 8.248338410415417e-001	 1.332097059253389e+001
 1.322873995496359e+000	 8.393112659843688e-001	 1.325939737709576e+001
 1.313630371187337e+000	 8.537061376141703e-001	 1.319258535641695e+001
 1.304219245138071e+000	 8.680155562157819e-001	 1.312088408699382e+001
 1.294641763679357e+000	 8.822366397798189e-001	 1.304450689799584e+001
 1.284899138543354e+000	 8.963665258460675e-001	 1.296353044361733e+001
 1.274992646475349e+000	 9.104023733411429e-001	 1.287789587208174e+001
 1.372359461599867e+000	 7.694175282550056e-001	 1.347760955530205e+001
 1.363932523297767e+000	 7.842587696371426e-001	 1.344753750261776e+001
 1.355332608919866e+000	 7.990288953357441e-001	 1.340891105158762e+001
 1.346560537588225e+000	 8.137249407157575e-001	 1.336219352192752e+001
 1.337617195129382e+000	 8.283439515081290e-001	 1.330785921850279e+001
 1.328503533991933e+000	 8.428829856604246e-001	 1.324661549641039e+001
 1.319220573103173e+000	 8.573391151911127e-001	 1.318017499715962e+001
 1.309769397664406e+000	 8.717094280451802e-001	 1.310912408218841e+001
 1.300151158884664e+000	 8.859910299487409e-001	 1.303372650633277e+001
 1.290367073652657e+000	 9.001810462602722e-001	 1.295410713339734e+001
 1.280418424146894e+000	 9.142766238160928e-001	 1.287025300048238e+001
 1.378174839744830e+000	 7.726779377921001e-001	 1.346125311462273e+001
 1.369712192261533e+000	 7.875820689876575e-001	 1.343168915713036e+001
 1.361075835715758e+000	 8.024147831467851e-001	 1.339371757517827e+001
 1.352266592700590e+000	 8.171731030717754e-001	 1.334780238961227e+001
 1.343285352796243e+000	 8.318540619748436e-001	 1.329442045465487e+001
 1.334133072487305e+000	 8.464547053365934e-001	 1.323405762689802e+001
 1.324810775018765e+000	 8.609720927681572e-001	 1.316792213330397e+001
 1.315319550190456e+000	 8.754032998746728e-001	 1.309746668764276e+001
 1.305660554089649e+000	 8.897454201177542e-001	 1.302301182052239e+001
 1.295835008761611e+000	 9.039955666745698e-001	 1.294472929742223e+001
 1.285844201818073e+000	 9.181508742911424e-001	 1.286265012224198e+001
 1.383990217889825e+000	 7.759383473295118e-001	 1.344496857478177e+001
 1.375491861225321e+000	 7.909053683384724e-001	 1.341581123194444e+001
 1.366819062511647e+000	 8.058006709581057e-001	 1.337841789538265e+001
 1.357972647812910e+000	 8.206212654280490e-001	 1.333325356390940e+001
 1.348953510463008e+000	 8.353641724417891e-001	 1.328079747043004e+001
 1.339762610982522e+000	 8.500264250129681e-001	 1.322153916535138e+001
 1.330400976934140e+000	 8.646050703453824e-001	 1.315606103358538e+001
 1.320869702716232e+000	 8.790971717043243e-001	 1.308614347851473e+001
 1.311169949294307e+000	 8.934998102869073e-001	 1.301258778515511e+001
 1.301302943870196e+000	 9.078100870889931e-001	 1.293561136593156e+001
 1.291269979488853e+000	 9.220251247663096e-001	 1.285528732277214e+001
 1.389805596034953e+000	 7.791987568673571e-001	 1.342884063421112e+001
 1.381271530189230e+000	 7.942286676897064e-001	 1.340001250582986e+001
 1.372562289307621e+000	 8.091865587698228e-001	 1.336314090914141e+001
 1.363678702925262e+000	 8.240694277846904e-001	 1.331869209933052e+001
 1.354621668129737e+000	 8.388742829090683e-001	 1.326714752306155e+001
 1.345392149477630e+000	 8.535981446896399e-001	 1.320899981153868e+001
 1.335991178849329e+000	 8.682380479228680e-001	 1.314474858066500e+001
 1.326419855241744e+000	 8.827910435341986e-001	 1.307538577667023e+001
 1.316679344498633e+000	 8.972542004562490e-001	 1.300267904659128e+001
 1.306770878978389e+000	 9.116246075035744e-001	 1.292696750530216e+001
 1.296695757159201e+000	 9.258993752416104e-001	 1.284836453718602e+001
 1.395620974180313e+000	 7.824591664057522e-001	 1.341295193388680e+001
 1.387051199153357e+000	 7.975519670414789e-001	 1.338439928014205e+001
 1.378305516103771e+000	 8.125724465820544e-001	 1.334801268354990e+001
 1.369384758037725e+000	 8.275175901418119e-001	 1.330425993557479e+001
 1.360289825796497e+000	 8.423843933767854e-001	 1.325362453735134e+001
 1.351021687972676e+000	 8.571698643667016e-001	 1.319660159765108e+001
 1.341581380764360e+000	 8.718710255006921e-001	 1.313369353042269e+001
 1.331970007767004e+000	 8.864849153643604e-001	 1.306542452885850e+001
 1.322188739702620e+000	 9.010085906258275e-001	 1.299350982853899e+001
 1.312238814086172e+000	 9.154391279183470e-001	 1.291901148978685e+001
 1.302121534829085e+000	 9.297736257170631e-001	 1.284208141696847e+001
 1.247863758113289e+000	 8.910311209672919e-001	 1.290971339689770e+001
 1.238008985427848e+000	 9.046735223098030e-001	 1.281381544466054e+001
 1.227996518643735e+000	 9.182183928799237e-001	 1.272028419485061e+001
 1.217827793274197e+000	 9.316630236738184e-001	 1.262787027820821e+001
 1.207504306375576e+000	 9.450047336581960e-001	 1.253515695690808e+001
 1.197027615871412e+000	 9.582408715077666e-001	 1.244056956552666e+001
 1.186399339818024e+000	 9.713688173232155e-001	 1.234238641731832e+001
 1.175621155612181e+000	 9.843859843274009e-001	 1.223875112118523e+001
 1.164694799141658e+000	 9.972898205375118e-001	 1.212768624218057e+001
 1.153622063879497e+000	 1.010077810410943e+000	 1.200710822616063e+001
 1.142404799922955e+000	 1.022747476462686e+000	 1.187484460415510e+001
 1.253289535786170e+000	 8.949053714419994e-001	 1.290486778076789e+001
 1.243391914027553e+000	 9.086070906676272e-001	 1.281066479350108e+001
 1.233335912507901e+000	 9.222108550519141e-001	 1.271873285132493e+001
 1.223122972982158e+000	 9.357139438121347e-001	 1.262784691891373e+001
 1.212754599015951e+000	 9.491136642577257e-001	 1.253661063112163e+001
 1.202232355306766e+000	 9.624073535352949e-001	 1.244346586837948e+001
 1.191557866946323e+000	 9.755923803540693e-001	 1.234670384186092e+001
 1.180732818624811e+000	 9.886661466894645e-001	 1.224447763282008e+001
 1.169758953777745e+000	 1.001626089462516e+000	 1.213481611759374e+001
 1.158638073676291e+000	 1.014469682192906e+000	 1.201563973079266e+001
 1.147372036462036e+000	 1.027194436623394e+000	 1.188477542295348e+001
 1.258715313458849e+000	 8.987796219167211e-001	 1.289906413534787e+001
 1.248774842627094e+000	 9.125406590255507e-001	 1.280663715258794e+001
 1.238675306371938e+000	 9.262033172240887e-001	 1.271637689353267e+001
 1.228418152690017e+000	 9.397648639507167e-001	 1.262708099110664e+001
 1.218004891656252e+000	 9.532225948575972e-001	 1.253737179510342e+001
 1.207437094742074e+000	 9.665738355632358e-001	 1.244570608786764e+001
 1.196716394074604e+000	 9.798159433853974e-001	 1.235038635515050e+001
 1.185844481637454e+000	 9.929463090520543e-001	 1.224957355553367e+001
 1.174823108413879e+000	 1.005962358388084e+000	 1.214130131853933e+001
 1.163654083473172e+000	 1.018861553975460e+000	 1.202349213197520e+001
 1.152339273001251e+000	 1.031641396784701e+000	 1.189397216658437e+001
 1.264141091131294e+000	 9.026538723914742e-001	 1.289250130144561e+001
 1.254157771226431e+000	 9.164742273835768e-001	 1.280191498667960e+001
 1.244014700235796e+000	 9.301957793964363e-001	 1.271338387785714e+001
 1.233713332397727e+000	 9.438157840895419e-001	 1.262572664414313e+001
 1.223255184296433e+000	 9.573315254577779e-001	 1.253758272124937e+001
 1.212641834177289e+000	 9.707403175915464e-001	 1.244742217324564e+001
 1.201874921202824e+000	 9.840395064171491e-001	 1.235355715591533e+001
 1.190956144650070e+000	 9.972264714151127e-001	 1.225415492402376e+001
 1.179887263050023e+000	 1.010298627314156e+000	 1.214725231120540e+001
 1.168670093270106e+000	 1.023253425758538e+000	 1.203077233486615e+001
 1.157306509540564e+000	 1.036088356946540e+000	 1.190253896458032e+001
 1.269566868803472e+000	 9.065281228662759e-001	 1.288537863455274e+001
 1.259540699825522e+000	 9.204077957417067e-001	 1.279668145337991e+001
 1.249354094099432e+000	 9.341882415689462e-001	 1.270992222103540e+001
 1.239008512105239e+000	 9.478667042285858e-001	 1.262393904438178e+001
 1.228505476936444e+000	 9.614404560582328e-001	 1.253738684449792e+001
 1.217846573612366e+000	 9.749067996201827e-001	 1.244874737044898e+001
 1.207033448330940e+000	 9.882630694492725e-001	 1.235634086196770e+001
 1.196067807662619e+000	 1.001506633778581e+000	 1.225833930236160e+001
 1.184951417686142e+000	 1.014634896240669e+000	 1.215278149314640e+001
 1.173686103067057e+000	 1.027645297542076e+000	 1.203758855018626e+001
 1.162273746079945e+000	 1.040535317108847e+000	 1.191058172960465e+001
 1.274992646475349e+000	 9.104023733411429e-001	 1.287789587208174e+001
 1.264923628424325e+000	 9.243413640999446e-001	 1.279112026435725e+001
 1.254693487962799e+000	 9.381807037416075e-001	 1.270616105600887e+001
 1.244303691812506e+000	 9.519176243678263e-001	 1.262187422632534e+001
 1.233755769576238e+000	 9.655493866589289e-001	 1.253692860942983e+001
 1.223051313047260e+000	 9.790732816491017e-001	 1.244981606582732e+001
 1.212191975458910e+000	 9.924866324817162e-001	 1.235886335124958e+001
 1.201179470675061e+000	 1.005786796142402e+000	 1.226224562303692e+001
 1.190015572322198e+000	 1.018971165167558e+000	 1.215800192290717e+001
 1.178702112863993e+000	 1.032037169326007e+000	 1.204405053761034e+001
 1.167240982619358e+000	 1.044982277271553e+000	 1.191820799464804e+001
 1.280418424146894e+000	 9.142766238160928e-001	 1.287025300048237e+001
 1.270306557022799e+000	 9.282749324582924e-001	 1.278541554657721e+001
 1.260032881825851e+000	 9.421731659144090e-001	 1.270227008791044e+001
 1.249598871519480e+000	 9.559685445072400e-001	 1.261968894400847e+001
 1.239006062215768e+000	 9.696583172598308e-001	 1.253635331771127e+001
 1.228256052481923e+000	 9.832397636782588e-001	 1.245076363030377e+001
 1.217350502586689e+000	 9.967101955144281e-001	 1.236125160337707e+001
 1.206291133687358e+000	 1.010066958506518e+000	 1.226599402656054e+001
 1.195079726958154e+000	 1.023307434094763e+000	 1.216302864310105e+001
 1.183718122660878e+000	 1.036429041110268e+000	 1.205026944352061e+001
 1.172208219158771e+000	 1.049429237434591e+000	 1.192552675087891e+001
 1.285844201818073e+000	 9.181508742911424e-001	 1.286265012224198e+001
 1.275689485620904e+000	 9.322085008167522e-001	 1.277975170354930e+001
 1.265372275688542e+000	 9.461656280873408e-001	 1.269841945018310e+001
 1.254894051226112e+000	 9.600194646468043e-001	 1.261754052262332e+001
 1.244256354854985e+000	 9.737672478609056e-001	 1.253580697586908e+001
 1.233460791916311e+000	 9.874062457076122e-001	 1.245172626394966e+001
 1.222509029714235e+000	 1.000933758547358e+000	 1.236363354166914e+001
 1.211402796699468e+000	 1.014347120870870e+000	 1.226970590583667e+001
 1.200143881593975e+000	 1.027643703022220e+000	 1.216797765841089e+001
 1.188734132457679e+000	 1.040820912894790e+000	 1.205635763937437e+001
 1.177175455698150e+000	 1.053876197597896e+000	 1.193264828612699e+001
 1.291269979488853e+000	 9.220251247663096e-001	 1.285528732277214e+001
 1.281072414218598e+000	 9.361420691753278e-001	 1.277431327658638e+001
 1.270711669550826e+000	 9.501580902603912e-001	 1.269477956082741e+001
 1.260189230932356e+000	 9.640703847864955e-001	 1.261558671037727e+001
 1.249506647493842e+000	 9.778761784621188e-001	 1.253543614338953e+001
 1.238665531350377e+000	 9.915727277371169e-001	 1.245284084096127e+001
 1.227667556841505e+000	 1.005157321580453e+000	 1.236613787564587e+001
 1.216514459711353e+000	 1.018627283235401e+000	 1.227350303836346e+001
 1.205208036229623e+000	 1.031979971949866e+000	 1.217296595506902e+001
 1.193750142254360e+000	 1.045212784679509e+000	 1.206242856067116e+001
 1.182142692237461e+000	 1.058323157761401e+000	 1.193968402398242e+001
 1.296695757159201e+000	 9.258993752416104e-001	 1.284836453718602e+001
 1.286455342815841e+000	 9.400756375340205e-001	 1.276928480607767e+001
 1.276051063412657e+000	 9.541505524335500e-001	 1.269152097877240e+001
 1.265484410638162e+000	 9.681213049262910e-001	 1.261398553057516e+001
 1.254756940132293e+000	 9.819851090634368e-001	 1.253538778113015e+001
 1.243870270784076e+000	 9.957392097667297e-001	 1.245424475502757e+001
 1.232826083968456e+000	 1.009380884613662e+000	 1.236889394398336e+001
 1.221626122722972e+000	 1.022907445600052e+000	 1.227750831457854e+001
 1.210272190865062e+000	 1.036316240877639e+000	 1.217811134089839e+001
 1.198766152050888e+000	 1.049604656464360e+000	 1.206859654649906e+001
 1.187109928776672e+000	 1.062770117925039e+000	 1.194674636349182e+001
 1.302121534829085e+000	 9.297736257170631e-001	 1.284208141696847e+001
 1.291838271412590e+000	 9.440092058928340e-001	 1.276485069277334e+001
 1.281390457273991e+000	 9.581430146068060e-001	 1.268881426036842e+001
 1.270779590343483e+000	 9.721722250661671e-001	 1.261289513391950e+001
 1.260007232770287e+000	 9.860940396648253e-001	 1.253580910003640e+001
 1.249075010217361e+000	 9.999056917964071e-001	 1.245607576507719e+001
 1.237984611095045e+000	 1.013604447646933e+000	 1.237203177542021e+001
 1.226737785734286e+000	 1.027187607964766e+000	 1.228184511467321e+001
 1.215336345500255e+000	 1.040652509805476e+000	 1.218353228588962e+001
 1.203782161847228e+000	 1.053996528249277e+000	 1.207497667964463e+001
 1.192077165315749e+000	 1.067217078088745e+000	 1.195394851943446e+001
 1.142404799922955e+000	 1.022747476462686e+000	 1.187484460415510e+001
 1.131046627642062e+000	 1.035294507947630e+000	 1.173995143759979e+001
 1.119547835519656e+000	 1.047718419402501e+000	 1.161142313576795e+001
 1.107910437291455e+000	 1.060016858949330e+000	 1.148698305435373e+001
 1.096136498889500e+000	 1.072187518904880e+000	 1.136435270212163e+001
 1.084228137221870e+000	 1.084228137221870e+000	 1.124127131038878e+001
 1.072187518904880e+000	 1.096136498889500e+000	 1.111551578275673e+001
 1.060016858949330e+000	 1.107910437291456e+000	 1.098492087419899e+001
 1.047718419402502e+000	 1.119547835519656e+000	 1.084739944397845e+001
 1.035294507947629e+000	 1.131046627642062e+000	 1.070096262344708e+001
 1.022747476462687e+000	 1.142404799922955e+000	 1.054373973761311e+001
 1.147372036462036e+000	 1.027194436623394e+000	 1.188477542295348e+001
 1.135964478246579e+000	 1.039796023265520e+000	 1.175138307375221e+001
 1.124415688767098e+000	 1.052273954545191e+000	 1.162452291907647e+001
 1.112727690515145e+000	 1.064625868358344e+000	 1.150186026215115e+001
 1.100902558405543e+000	 1.076849446987810e+000	 1.138105577940128e+001
 1.088942418550806e+000	 1.088942418550806e+000	 1.125978567561555e+001
 1.076849446987810e+000	 1.100902558405543e+000	 1.113576224244358e+001
 1.064625868358344e+000	 1.112727690515145e+000	 1.100675466514049e+001
 1.052273954545191e+000	 1.124415688767098e+000	 1.087060991765578e+001
 1.039796023265520e+000	 1.135964478246579e+000	 1.072527358259055e+001
 1.027194436623394e+000	 1.147372036462037e+000	 1.056881043025822e+001
 1.152339273001251e+000	 1.031641396784701e+000	 1.189397216658437e+001
 1.140882328851282e+000	 1.044297538584001e+000	 1.176199545770625e+001
 1.129283542014786e+000	 1.056829489688449e+000	 1.163668693703383e+001
 1.117544943739142e+000	 1.069234877767888e+000	 1.151566305334923e+001
 1.105668617921957e+000	 1.081511375071224e+000	 1.139653316916903e+001
 1.093656699880171e+000	 1.093656699880171e+000	 1.127692029642803e+001
 1.081511375071224e+000	 1.105668617921957e+000	 1.115448225857818e+001
 1.069234877767888e+000	 1.117544943739142e+000	 1.102693311977182e+001
 1.056829489688449e+000	 1.129283542014786e+000	 1.089206471679783e+001
 1.044297538584001e+000	 1.140882328851282e+000	 1.074776812570585e+001
 1.031641396784701e+000	 1.152339273001251e+000	 1.059205489264708e+001
 1.157306509540564e+000	 1.036088356946540e+000	 1.190253896458032e+001
 1.145800179456138e+000	 1.048799053903009e+000	 1.177189301512106e+001
 1.134151395262682e+000	 1.061385024832209e+000	 1.164802355112139e+001
 1.122362196963406e+000	 1.073843887177903e+000	 1.152850721935442e+001
 1.110434677438696e+000	 1.086173303155067e+000	 1.141091143529100e+001
 1.098370981209915e+000	 1.098370981209915e+000	 1.129281569449745e+001
 1.086173303155066e+000	 1.110434677438696e+000	 1.117183333354694e+001
 1.073843887177903e+000	 1.122362196963406e+000	 1.104563357682039e+001
 1.061385024832209e+000	 1.134151395262682e+000	 1.091196370037528e+001
 1.048799053903008e+000	 1.145800179456137e+000	 1.076867114017567e+001
 1.036088356946540e+000	 1.157306509540565e+000	 1.061372536944134e+001
 1.162273746079945e+000	 1.040535317108847e+000	 1.191058172960465e+001
 1.150718030061111e+000	 1.053300569222475e+000	 1.178118199375843e+001
 1.139019248510750e+000	 1.065940559976411e+000	 1.165864293420220e+001
 1.127179450187897e+000	 1.078452896588330e+000	 1.154051030421020e+001
 1.115200736955713e+000	 1.090835231239282e+000	 1.142431878917685e+001
 1.103085262539988e+000	 1.103085262539988e+000	 1.130761388927794e+001
 1.090835231239282e+000	 1.115200736955712e+000	 1.118797427478331e+001
 1.078452896588330e+000	 1.127179450187897e+000	 1.106303444604777e+001
 1.065940559976411e+000	 1.139019248510750e+000	 1.093050752481421e+001
 1.053300569222475e+000	 1.150718030061111e+000	 1.078820799941527e+001
 1.040535317108847e+000	 1.162273746079944e+000	 1.063407424380149e+001
 1.167240982619358e+000	 1.044982277271553e+000	 1.191820799464804e+001
 1.155635880666168e+000	 1.057802084542336e+000	 1.178997030184459e+001
 1.143887101758954e+000	 1.070496095120991e+000	 1.166865691149375e+001
 1.131996703412573e+000	 1.083061905999109e+000	 1.155179144957651e+001
 1.119966796472965e+000	 1.095497159323818e+000	 1.143688494011175e+001
 1.107799543870341e+000	 1.107799543870341e+000	 1.132145825498571e+001
 1.095497159323818e+000	 1.119966796472965e+000	 1.120306505963355e+001
 1.083061905999109e+000	 1.131996703412573e+000	 1.107931508218906e+001
 1.070496095120991e+000	 1.143887101758954e+000	 1.094789752813804e+001
 1.057802084542336e+000	 1.155635880666168e+000	 1.080660445828826e+001
 1.044982277271553e+000	 1.167240982619358e+000	 1.065335394509041e+001
 1.172208219158771e+000	 1.049429237434591e+000	 1.192552675087891e+001
 1.160553731271275e+000	 1.062303599862524e+000	 1.179836734708116e+001
 1.148754955007256e+000	 1.075051630265886e+000	 1.167817880215136e+001
 1.136813956637395e+000	 1.087670915410181e+000	 1.156247124025100e+001
 1.124732855990405e+000	 1.100159087408617e+000	 1.144874094603034e+001
 1.112513825200922e+000	 1.112513825200922e+000	 1.133449337789140e+001
 1.100159087408617e+000	 1.124732855990405e+000	 1.121726670038011e+001
 1.087670915410181e+000	 1.136813956637395e+000	 1.109465565886613e+001
 1.075051630265886e+000	 1.148754955007256e+000	 1.096433561387483e+001
 1.062303599862524e+000	 1.160553731271275e+000	 1.082408654805583e+001
 1.049429237434591e+000	 1.172208219158770e+000	 1.067181685585491e+001
 1.177175455698150e+000	 1.053876197597896e+000	 1.193264828612700e+001
 1.165471581876397e+000	 1.066805115182975e+000	 1.180648387628449e+001
 1.153622808255620e+000	 1.079607165411031e+000	 1.168732326144402e+001
 1.141631209862322e+000	 1.092279924821487e+000	 1.157267155021446e+001
 1.129498915507990e+000	 1.104821015493625e+000	 1.146001906471992e+001
 1.117228106531682e+000	 1.117228106531682e+000	 1.134686491391570e+001
 1.104821015493625e+000	 1.129498915507990e+000	 1.123074110941699e+001
 1.092279924821486e+000	 1.141631209862321e+000	 1.110923704247498e+001
 1.079607165411031e+000	 1.153622808255620e+000	 1.098002413473656e+001
 1.066805115182975e+000	 1.165471581876397e+000	 1.084088047087187e+001
 1.053876197597896e+000	 1.177175455698150e+000	 1.068971521810517e+001
 1.182142692237461e+000	 1.058323157761401e+000	 1.193968402398242e+001
 1.170389432481500e+000	 1.071306630503624e+000	 1.181443181563553e+001
 1.158490661504009e+000	 1.084162700556365e+000	 1.169620612350486e+001
 1.146448463087312e+000	 1.096888934232965e+000	 1.158251538918769e+001
 1.134264975025674e+000	 1.109482943578787e+000	 1.147085260543914e+001
 1.121942387862572e+000	 1.121942387862572e+000	 1.135871944652119e+001
 1.109482943578788e+000	 1.134264975025674e+000	 1.124365096457242e+001
 1.096888934232965e+000	 1.146448463087312e+000	 1.112324066604893e+001
 1.084162700556365e+000	 1.158490661504009e+000	 1.099516577607752e+001
 1.071306630503624e+000	 1.170389432481500e+000	 1.085721249383952e+001
 1.058323157761401e+000	 1.182142692237461e+000	 1.070730103891462e+001
 1.187109928776672e+000	 1.062770117925039e+000	 1.194674636349182e+001
 1.175307283086549e+000	 1.075808145824403e+000	 1.182232411152255e+001
 1.163358514752385e+000	 1.088718235701824e+000	 1.170494424464019e+001
 1.151265716312326e+000	 1.101497943644559e+000	 1.159212674968202e+001
 1.139031034543412e+000	 1.114144871664049e+000	 1.148137578094145e+001
 1.126656669193541e+000	 1.126656669193541e+000	 1.137020434489019e+001
 1.114144871664049e+000	 1.139031034543412e+000	 1.125615957457598e+001
 1.101497943644558e+000	 1.151265716312326e+000	 1.113684840309735e+001
 1.088718235701824e+000	 1.163358514752385e+000	 1.100996343913816e+001
 1.075808145824403e+000	 1.175307283086549e+000	 1.087330884263894e+001
 1.062770117925040e+000	 1.187109928776672e+000	 1.072482599535895e+001
 1.192077165315749e+000	 1.067217078088745e+000	 1.195394851943446e+001
 1.180225133691511e+000	 1.080309661145249e+000	 1.183027457195895e+001
 1.168226368000712e+000	 1.093273770847345e+000	 1.171365534718050e+001
 1.156082969537323e+000	 1.106106953056207e+000	 1.160163045453136e+001
 1.143797094061159e+000	 1.118806799749355e+000	 1.149172355989055e+001
 1.131370950524538e+000	 1.131370950524538e+000	 1.138146762238096e+001
 1.118806799749355e+000	 1.143797094061159e+000	 1.126843074466375e+001
 1.106106953056207e+000	 1.156082969537324e+000	 1.115024244142147e+001
 1.093273770847345e+000	 1.168226368000712e+000	 1.102462012408052e+001
 1.080309661145249e+000	 1.180225133691511e+000	 1.088939559474098e+001
 1.067217078088744e+000	 1.192077165315749e+000	 1.074254133881413e+001
 1.022747476462687e+000	 1.142404799922955e+000	 1.054373973761311e+001
 1.010077810410943e+000	 1.153622063879497e+000	 1.038064232675929e+001
 9.972898205375119e-001	 1.164694799141658e+000	 1.021700033481433e+001
 9.843859843274009e-001	 1.175621155612181e+000	 1.005169172191424e+001
 9.713688173232153e-001	 1.186399339818024e+000	 9.883808932413958e+000
 9.582408715077669e-001	 1.197027615871412e+000	 9.712665639508215e+000
 9.450047336581959e-001	 1.207504306375576e+000	 9.537810976950418e+000
 9.316630236738184e-001	 1.217827793274197e+000	 9.359042420512298e+000
 9.182183928799237e-001	 1.227996518643735e+000	 9.176417189268413e+000
 9.046735223098031e-001	 1.238008985427847e+000	 8.990262045974877e+000
 8.910311209672918e-001	 1.247863758113289e+000	 8.801181386056038e+000
 1.027194436623394e+000	 1.147372036462037e+000	 1.056881043025822e+001
 1.014469682192906e+000	 1.158638073676291e+000	 1.040620663577591e+001
 1.001626089462515e+000	 1.169758953777745e+000	 1.024290539053028e+001
 9.886661466894644e-001	 1.180732818624811e+000	 1.007787040340052e+001
 9.755923803540693e-001	 1.191557866946323e+000	 9.910250491179564e+000
 9.624073535352949e-001	 1.202232355306766e+000	 9.739433427215159e+000
 9.491136642577258e-001	 1.212754599015951e+000	 9.565051231440352e+000
 9.357139438121348e-001	 1.223122972982158e+000	 9.386993366069429e+000
 9.222108550519140e-001	 1.233335912507902e+000	 9.205418413287571e+000
 9.086070906676270e-001	 1.243391914027552e+000	 9.020764110659139e+000
 8.949053714419993e-001	 1.253289535786170e+000	 8.833755630451165e+000
 1.031641396784701e+000	 1.152339273001251e+000	 1.059205489264708e+001
 1.018861553975460e+000	 1.163654083473172e+000	 1.043000200925927e+001
 1.005962358388085e+000	 1.174823108413879e+000	 1.026719796409087e+001
 9.929463090520542e-001	 1.185844481637454e+000	 1.010264066172714e+001
 9.798159433853972e-001	 1.196716394074604e+000	 9.935521297466318e+000
 9.665738355632361e-001	 1.207437094742074e+000	 9.765277423354791e+000
 9.532225948575975e-001	 1.218004891656253e+000	 9.591598947458985e+000
 9.397648639507172e-001	 1.228418152690017e+000	 9.414441704844435e+000
 9.262033172240886e-001	 1.238675306371938e+000	 9.234039473281388e+000
 9.125406590255507e-001	 1.248774842627094e+000	 9.050914305644826e+000
 8.987796219167212e-001	 1.258715313458849e+000	 8.865885061690081e+000
 1.036088356946540e+000	 1.157306509540565e+000	 1.061372536944134e+001
 1.023253425758538e+000	 1.168670093270105e+000	 1.045231436442471e+001
 1.010298627314157e+000	 1.179887263050023e+000	 1.029016989471417e+001
 9.972264714151126e-001	 1.190956144650070e+000	 1.012630151851344e+001
 9.840395064171490e-001	 1.201874921202825e+000	 9.959919497555937e+000
 9.707403175915463e-001	 1.212641834177289e+000	 9.790487115157800e+000
 9.573315254577777e-001	 1.223255184296433e+000	 9.617727451082461e+000
 9.438157840895419e-001	 1.233713332397727e+000	 9.441637388818267e+000
 9.301957793964361e-001	 1.244014700235796e+000	 9.262500030866521e+000
 9.164742273835764e-001	 1.254157771226431e+000	 9.080895390038036e+000
 9.026538723914741e-001	 1.264141091131294e+000	 8.897709235723058e+000
 1.040535317108847e+000	 1.162273746079944e+000	 1.063407424380149e+001
 1.027645297542076e+000	 1.173686103067057e+000	 1.047341988467376e+001
 1.014634896240669e+000	 1.184951417686142e+000	 1.031212195730796e+001
 1.001506633778581e+000	 1.196067807662619e+000	 1.014915170312339e+001
 9.882630694492723e-001	 1.207033448330941e+000	 9.983743081452618e+000
 9.749067996201826e-001	 1.217846573612366e+000	 9.815352099268724e+000
 9.614404560582330e-001	 1.228505476936443e+000	 9.643710566969240e+000
 9.478667042285859e-001	 1.239008512105239e+000	 9.468831374853320e+000
 9.341882415689460e-001	 1.249354094099432e+000	 9.291021369523966e+000
 9.204077957417068e-001	 1.259540699825522e+000	 9.110892465940294e+000
 9.065281228662759e-001	 1.269566868803472e+000	 8.929370870159463e+000
 1.044982277271553e+000	 1.167240982619358e+000	 1.065335394509041e+001
 1.032037169326007e+000	 1.178702112863993e+000	 1.049359452156093e+001
 1.018971165167558e+000	 1.190015572322198e+000	 1.033332654745422e+001
 1.005786796142402e+000	 1.201179470675061e+000	 1.017148958545056e+001
 9.924866324817162e-001	 1.212191975458910e+000	 1.000728981841239e+001
 9.790732816491017e-001	 1.223051313047260e+000	 9.840162017382246e+000
 9.655493866589286e-001	 1.233755769576238e+000	 9.669822551574553e+000
 9.519176243678263e-001	 1.244303691812506e+000	 9.496275553066717e+000
 9.381807037416069e-001	 1.254693487962799e+000	 9.319826315824059e+000
 9.243413640999447e-001	 1.264923628424325e+000	 9.141092890331080e+000
 9.104023733411428e-001	 1.274992646475349e+000	 8.961015744729940e+000
 1.049429237434591e+000	 1.172208219158770e+000	 1.067181685585491e+001
 1.036429041110268e+000	 1.183718122660878e+000	 1.051311391281817e+001
 1.023307434094763e+000	 1.195079726958154e+000	 1.035408396366753e+001
 1.010066958506518e+000	 1.206291133687358e+000	 1.019361310753324e+001
 9.967101955144284e-001	 1.217350502586690e+000	 1.003085719129793e+001
 9.832397636782592e-001	 1.228256052481923e+000	 9.865206490772977e+000
 9.696583172598308e-001	 1.239006062215768e+000	 9.696338025392144e+000
 9.559685445072405e-001	 1.249598871519480e+000	 9.524222674427815e+000
 9.421731659144089e-001	 1.260032881825851e+000	 9.349139160132166e+000
 9.282749324582921e-001	 1.270306557022799e+000	 9.171686186744006e+000
 9.142766238160929e-001	 1.280418424146894e+000	 8.992792601908249e+000
 1.053876197597896e+000	 1.177175455698150e+000	 1.068971521810517e+001
 1.040820912894789e+000	 1.188734132457678e+000	 1.053225329946038e+001
 1.027643703022220e+000	 1.200143881593975e+000	 1.037468443627754e+001
 1.014347120870870e+000	 1.211402796699468e+000	 1.021582881106329e+001
 1.000933758547358e+000	 1.222509029714236e+000	 1.005474232979486e+001
 9.874062457076124e-001	 1.233460791916311e+000	 9.890775053749726e+000
 9.737672478609055e-001	 1.244256354854985e+000	 9.723531904250088e+000
 9.600194646468042e-001	 1.254894051226112e+000	 9.552926277600559e+000
 9.461656280873408e-001	 1.265372275688542e+000	 9.379185576808721e+000
 9.322085008167522e-001	 1.275689485620905e+000	 9.202863956743688e+000
 9.181508742911427e-001	 1.285844201818073e+000	 9.024853047692059e+000
 1.058323157761401e+000	 1.182142692237461e+000	 1.070730103891462e+001
 1.045212784679509e+000	 1.193750142254360e+000	 1.055128744199684e+001
 1.031979971949866e+000	 1.205208036229623e+000	 1.039541760587861e+001
 1.018627283235401e+000	 1.216514459711353e+000	 1.023841503127825e+001
 1.005157321580453e+000	 1.227667556841505e+000	 1.007924194252068e+001
 9.915727277371167e-001	 1.238665531350377e+000	 9.917157086068901e+000
 9.778761784621189e-001	 1.249506647493843e+000	 9.751679329689921e+000
 9.640703847864957e-001	 1.260189230932356e+000	 9.582640615054560e+000
 9.501580902603912e-001	 1.270711669550826e+000	 9.410192543919120e+000
 9.361420691753275e-001	 1.281072414218598e+000	 9.234819791206867e+000
 9.220251247663094e-001	 1.291269979488853e+000	 9.057351452534171e+000
 1.062770117925040e+000	 1.187109928776672e+000	 1.072482599535895e+001
 1.049604656464360e+000	 1.198766152050888e+000	 1.057049053577426e+001
 1.036316240877639e+000	 1.210272190865062e+000	 1.041657244643043e+001
 1.022907445600052e+000	 1.221626122722972e+000	 1.026167745016067e+001
 1.009380884613661e+000	 1.232826083968456e+000	 1.010465224806167e+001
 9.957392097667297e-001	 1.243870270784076e+000	 9.944641744333616e+000
 9.819851090634367e-001	 1.254756940132292e+000	 9.781055598454907e+000
 9.681213049262910e-001	 1.265484410638162e+000	 9.613620578465111e+000
 9.541505524335499e-001	 1.276051063412658e+000	 9.442388262468274e+000
 9.400756375340206e-001	 1.286455342815841e+000	 9.267749181415971e+000
 9.258993752416106e-001	 1.296695757159201e+000	 9.090444852422957e+000
 1.067217078088744e+000	 1.192077165315749e+000	 1.074254133881413e+001
 1.053996528249277e+000	 1.203782161847228e+000	 1.059013612547832e+001
 1.040652509805476e+000	 1.215336345500255e+000	 1.043843718738510e+001
 1.027187607964766e+000	 1.226737785734287e+000	 1.028591159329299e+001
 1.013604447646933e+000	 1.237984611095045e+000	 1.013127784707377e+001
 9.999056917964071e-001	 1.249075010217361e+000	 9.973517892411358e+000
 9.860940396648253e-001	 1.260007232770287e+000	 9.811936091115367e+000
 9.721722250661673e-001	 1.270779590343483e+000	 9.646121623423257e+000
 9.581430146068056e-001	 1.281390457273991e+000	 9.476002075173231e+000
 9.440092058928338e-001	 1.291838271412590e+000	 9.301849429969161e+000
 9.297736257170630e-001	 1.302121534829085e+000	 9.124292850105196e+000
 8.910311209672918e-001	 1.247863758113289e+000	 8.801181386056038e+000
 8.772939237752967e-001	 1.257559462992334e+000	 8.613964879966524e+000
 8.634646889348848e-001	 1.267094787648218e+000	 8.431715237632103e+000
 8.495461970679685e-001	 1.276468482501733e+000	 8.252893560251339e+000
 8.355412497282301e-001	 1.285679361603478e+000	 8.076198730177021e+000
 8.214526676025593e-001	 1.294726303013822e+000	 7.900571326038499e+000
 8.072832887068894e-001	 1.303608249122617e+000	 7.725195462760847e+000
 7.930359665787400e-001	 1.312324206908703e+000	 7.549498526752749e+000
 7.787135684687786e-001	 1.320873248139400e+000	 7.373148791627572e+000
 7.643189735336878e-001	 1.329254509510221e+000	 7.196050915033752e+000
 7.498550710325905e-001	 1.337467192725185e+000	 7.020093742929308e+000
 8.949053714419993e-001	 1.253289535786170e+000	 8.833755630451165e+000
 8.811084441895262e-001	 1.263027398103068e+000	 8.648916394968426e+000
 8.672190791040766e-001	 1.272604182855040e+000	 8.468878684451752e+000
 8.532400688978550e-001	 1.282018635029659e+000	 8.291926327959514e+000
 8.391742273058449e-001	 1.291269563520969e+000	 8.116582508964601e+000
 8.250243872794324e-001	 1.300355841511107e+000	 7.941614305748560e+000
 8.107933991743941e-001	 1.309276406791395e+000	 7.766035107152521e+000
 7.964841289355789e-001	 1.318030262022982e+000	 7.589104871398484e+000
 7.820994562806128e-001	 1.326616474937202e+000	 7.410328211170108e+000
 7.676422728849027e-001	 1.335034178475888e+000	 7.229766911886487e+000
 7.531154805702228e-001	 1.343282570872048e+000	 7.056607347753457e+000
 8.987796219167212e-001	 1.258715313458849e+000	 8.865885061690081e+000
 8.849229646036848e-001	 1.268495333213559e+000	 8.683146005138038e+000
 8.709734692731170e-001	 1.278113578061571e+000	 8.504836266820110e+000
 8.569339407275148e-001	 1.287568787557245e+000	 8.329096241760883e+000
 8.428072048831676e-001	 1.296859765438073e+000	 8.154308441382023e+000
 8.285961069559578e-001	 1.305985380007956e+000	 7.979102598910536e+000
 8.143035096415077e-001	 1.314944564459695e+000	 7.802358598367954e+000
 7.999322912920005e-001	 1.323736317136747e+000	 7.623207192387088e+000
 7.854853440920209e-001	 1.332359701734460e+000	 7.441028489996656e+000
 7.709655722357035e-001	 1.340813847440996e+000	 7.261436142003669e+000
 7.563758901074750e-001	 1.349097949018345e+000	 7.091986178333221e+000
 9.026538723914741e-001	 1.264141091131294e+000	 8.897709235723058e+000
 8.887374850178065e-001	 1.273963268323783e+000	 8.716752270638049e+000
 8.747278594420558e-001	 1.283622973267805e+000	 8.539655744233356e+000
 8.606278125570132e-001	 1.293118940084501e+000	 8.364449988002265e+000
 8.464401824602765e-001	 1.302449967354815e+000	 8.189411395532034e+000
 8.321678266322276e-001	 1.311614918504417e+000	 8.013068033398852e+000
 8.178136201083346e-001	 1.320612722127579e+000	 7.834203021611473e+000
 8.033804536481168e-001	 1.329442372250075e+000	 7.651855646494895e+000
 7.888712319031207e-001	 1.338102928531266e+000	 7.467847122211053e+000
 7.742888715862086e-001	 1.346593516405640e+000	 7.293019389850478e+000
 7.596362996444629e-001	 1.354913327164175e+000	 7.126527950801828e+000
 9.065281228662759e-001	 1.269566868803472e+000	 8.929370870159463e+000
 8.925520054319234e-001	 1.279431203433722e+000	 8.749837682810004e+000
 8.784822496109402e-001	 1.289132368473736e+000	 8.573409390022489e+000
 8.643216843864142e-001	 1.298669092611440e+000	 8.398039169553433e+000
 8.500731600372512e-001	 1.308040169271227e+000	 8.221931385826261e+000
 8.357395463083337e-001	 1.317244457000535e+000	 8.043547647502692e+000
 8.213237305749779e-001	 1.326280879795113e+000	 7.861610578311826e+000
 8.068286160040408e-001	 1.335148427363046e+000	 7.675489262312924e+000
 7.922571197140292e-001	 1.343846155327709e+000	 7.495533979203903e+000
 7.776121709365371e-001	 1.352373185369918e+000	 7.324762437462780e+000
 7.628967091813033e-001	 1.360728705309640e+000	 7.160524505666721e+000
 9.104023733411428e-001	 1.274992646475349e+000	 8.961015744729940e+000
 8.963665258460675e-001	 1.284899138543354e+000	 8.782508554231979e+000
 8.822366397798190e-001	 1.294641763679357e+000	 8.606173874928974e+000
 8.680155562157818e-001	 1.304219245138071e+000	 8.429920186655766e+000
 8.537061376141703e-001	 1.313630371187337e+000	 8.251913454682326e+000
 8.393112659843688e-001	 1.322873995496359e+000	 8.070583575875943e+000
 8.248338410415416e-001	 1.331949037462359e+000	 7.884628479547165e+000
 8.102767783598837e-001	 1.340854482475737e+000	 7.699460686478168e+000
 7.956430075248645e-001	 1.349589382123879e+000	 7.524387172534349e+000
 7.809354702868090e-001	 1.358152854333929e+000	 7.356905880833048e+000
 7.661571187181121e-001	 1.366544083454837e+000	 7.194261863714121e+000
 9.142766238160929e-001	 1.280418424146894e+000	 8.992792601908249e+000
 9.001810462602722e-001	 1.290367073652657e+000	 8.814874909279370e+000
 8.859910299487408e-001	 1.300151158884664e+000	 8.638030151430064e+000
 8.717094280451803e-001	 1.309769397664406e+000	 8.460154118665438e+000
 8.573391151911127e-001	 1.319220573103173e+000	 8.279407555178040e+000
 8.428829856604245e-001	 1.328503533991933e+000	 8.094222936417554e+000
 8.283439515081291e-001	 1.337617195129382e+000	 7.905453220224861e+000
 8.137249407157576e-001	 1.346560537588225e+000	 7.725600106863391e+000
 7.990288953357438e-001	 1.355332608919865e+000	 7.554603921319385e+000
 7.842587696371427e-001	 1.363932523297767e+000	 7.389685172305684e+000
 7.694175282550058e-001	 1.372359461599866e+000	 7.228020281562428e+000
 9.181508742911427e-001	 1.285844201818073e+000	 9.024853047692059e+000
 9.039955666745698e-001	 1.295835008761611e+000	 8.847050375177416e+000
 8.897454201177544e-001	 1.305660554089649e+000	 8.669063338789464e+000
 8.754032998746727e-001	 1.315319550190456e+000	 8.488806606672583e+000
 8.609720927681571e-001	 1.324810775018765e+000	 8.304468434633014e+000
 8.464547053365936e-001	 1.334133072487305e+000	 8.114598631961968e+000
 8.318540619748434e-001	 1.343285352796243e+000	 7.929220703242947e+000
 8.171731030717756e-001	 1.352266592700590e+000	 7.754069341784421e+000
 8.024147831467848e-001	 1.361075835715758e+000	 7.586376843188473e+000
 7.875820689876574e-001	 1.369712192261533e+000	 7.423330663014181e+000
 7.726779377921003e-001	 1.378174839744830e+000	 7.262074306875603e+000
 9.220251247663094e-001	 1.291269979488853e+000	 9.057351452534171e+000
 9.078100870889932e-001	 1.301302943870196e+000	 8.879152073527390e+000
 8.934998102869076e-001	 1.311169949294307e+000	 8.699362608814404e+000
 8.790971717043242e-001	 1.320869702716232e+000	 8.515947736961500e+000
 8.646050703453824e-001	 1.330400976934140e+000	 8.327155519092337e+000
 8.500264250129682e-001	 1.339762610982522e+000	 8.136406476790564e+000
 8.353641724417890e-001	 1.348953510463007e+000	 7.956274610035763e+000
 8.206212654280493e-001	 1.357972647812910e+000	 7.785026016550734e+000
 8.058006709581054e-001	 1.366819062511647e+000	 7.619893986697674e+000
 7.909053683384724e-001	 1.375491861225321e+000	 7.458067645357934e+000
 7.759383473295118e-001	 1.383990217889825e+000	 7.296692833245953e+000
 9.258993752416106e-001	 1.296695757159201e+000	 9.090444852422957e+000
 9.116246075035746e-001	 1.306770878978389e+000	 8.911300512296123e+000
 8.972542004562493e-001	 1.316679344498633e+000	 8.729021072296812e+000
 8.827910435341987e-001	 1.326419855241744e+000	 8.541651925295561e+000
 8.682380479228679e-001	 1.335991178849329e+000	 8.348385601988248e+000
 8.535981446896399e-001	 1.345392149477630e+000	 8.162436641760310e+000
 8.388742829090683e-001	 1.354621668129737e+000	 7.986745503280866e+000
 8.240694277846906e-001	 1.363678702925262e+000	 7.818623588898344e+000
 8.091865587698229e-001	 1.372562289307622e+000	 7.655338864082485e+000
 7.942286676897064e-001	 1.381271530189230e+000	 7.494116395516981e+000
 7.791987568673571e-001	 1.389805596034953e+000	 7.332139154755468e+000
 9.297736257170630e-001	 1.302121534829085e+000	 9.124292850105196e+000
 9.154391279183470e-001	 1.312238814086172e+000	 8.943619478250934e+000
 9.010085906258274e-001	 1.322188739702620e+000	 8.758135666119648e+000
 8.864849153643600e-001	 1.331970007767004e+000	 8.565997801997071e+000
 8.718710255006918e-001	 1.341581380764360e+000	 8.373755784205327e+000
 8.571698643667016e-001	 1.351021687972676e+000	 8.192800623318924e+000
 8.423843933767853e-001	 1.360289825796497e+000	 8.020760049417007e+000
 8.275175901418119e-001	 1.369384758037725e+000	 7.855011374984109e+000
 8.125724465820543e-001	 1.378305516103772e+000	 7.692890484341374e+000
 7.975519670414791e-001	 1.387051199153357e+000	 7.531692216005608e+000
 7.824591664057522e-001	 1.395620974180313e+000	 7.368671020226776e+000
 7.498550710325905e-001	 1.337467192725185e+000	 7.020093742929308e+000
 7.353269429377546e-001	 1.345509370984225e+000	 6.839336593837555e+000
 7.207353283378717e-001	 1.353381621720377e+000	 6.642834892897361e+000
 7.060831355135254e-001	 1.361083342912368e+000	 6.435932599421396e+000
 6.913732756799494e-001	 1.368613997251564e+000	 6.223997927004054e+000
 6.766086612348736e-001	 1.375973111932677e+000	 6.012411329953249e+000
 6.617922040227657e-001	 1.383160278389225e+000	 5.806249177428611e+000
 6.469268136174287e-001	 1.390175151974716e+000	 5.606934790132560e+000
 6.320153956248560e-001	 1.397017451590627e+000	 5.418566478434198e+000
 6.170608500081973e-001	 1.403686959262295e+000	 5.246015859738388e+000
 6.020660694366056e-001	 1.410183519663929e+000	 5.093672722515133e+000
 7.531154805702228e-001	 1.343282570872048e+000	 7.056607347753457e+000
 7.385241834055245e-001	 1.351359716947796e+000	 6.878619701053840e+000
 7.238691236930946e-001	 1.359266196646871e+000	 6.683772341507496e+000
 7.091532223588756e-001	 1.367001405330368e+000	 6.477574876914149e+000
 6.943794032762169e-001	 1.374564803353394e+000	 6.265566927229440e+000
 6.795505915061076e-001	 1.381955915854867e+000	 6.053305723975247e+000
 6.646697115538689e-001	 1.389174332491827e+000	 5.846302313917588e+000
 6.497396856442836e-001	 1.396219707119228e+000	 5.646699780938744e+000
 6.347634320170739e-001	 1.403091757416306e+000	 5.457902301450310e+000
 6.197438632445814e-001	 1.409790264460619e+000	 5.284934714760886e+000
 6.046838845734370e-001	 1.416315072251001e+000	 5.132336365511286e+000
 7.563758901074750e-001	 1.349097949018345e+000	 7.091986178333221e+000
 7.417214238729721e-001	 1.357210062910808e+000	 6.916132442744754e+000
 7.270029190480734e-001	 1.365150771572824e+000	 6.722499141467082e+000
 7.122233092040731e-001	 1.372919467747855e+000	 6.516735182679664e+000
 6.973855308724334e-001	 1.380515609454748e+000	 6.304524556038309e+000
 6.824925217773967e-001	 1.387938719776625e+000	 6.091573599770704e+000
 6.675472190851322e-001	 1.395188386594042e+000	 5.883598556592533e+000
 6.525525576713976e-001	 1.402264262263400e+000	 5.683842737466911e+000
 6.375114684096384e-001	 1.409166063241688e+000	 5.494820961277679e+000
 6.224268764813835e-001	 1.415893569658691e+000	 5.321672209289681e+000
 6.073016997107373e-001	 1.422446624837860e+000	 5.169054977928450e+000
 7.596362996444629e-001	 1.354913327164175e+000	 7.126527950801833e+000
 7.449186643402055e-001	 1.363060408873357e+000	 6.952218294101335e+000
 7.301367144029041e-001	 1.371035346498327e+000	 6.759396302666038e+000
 7.152933960492006e-001	 1.378837530164909e+000	 6.553824177264723e+000
 7.003916584686643e-001	 1.386466415555689e+000	 6.341303585064781e+000
 6.854344520487881e-001	 1.393921523697993e+000	 6.127662648702184e+000
 6.704247266165831e-001	 1.401202440695893e+000	 5.918743231494709e+000
 6.553654296987801e-001	 1.408308817407234e+000	 5.718814799947830e+000
 6.402595048025424e-001	 1.415240369066761e+000	 5.529757305854977e+000
 6.251098897185816e-001	 1.421996874856474e+000	 5.356641315667032e+000
 6.099195148484722e-001	 1.428578177424451e+000	 5.204214416542541e+000
 7.628967091813033e-001	 1.360728705309640e+000	 7.160524505666721e+000
 7.481159048073343e-001	 1.368910754835542e+000	 6.987214226256894e+000
 7.332705097576847e-001	 1.376919921423467e+000	 6.794837845634794e+000
 7.183634828943400e-001	 1.384755592581603e+000	 6.589245183727293e+000
 7.033977860649749e-001	 1.392417221656276e+000	 6.376329231430932e+000
 6.883763823203271e-001	 1.399904327619013e+000	 6.162012915537699e+000
 6.733022341482496e-001	 1.407216494797402e+000	 5.952236167824733e+000
 6.581783017264399e-001	 1.414353372550734e+000	 5.752063051977144e+000
 6.430075411957766e-001	 1.421314674891504e+000	 5.563142496426883e+000
 6.277929029561533e-001	 1.428100180053938e+000	 5.390251776466763e+000
 6.125373299866083e-001	 1.434709730010727e+000	 5.238197844888515e+000
 7.661571187181121e-001	 1.366544083454837e+000	 7.194261863714123e+000
 7.513131452744669e-001	 1.374761100797457e+000	 7.021450775423144e+000
 7.364043051125115e-001	 1.382804496348332e+000	 6.829190880952506e+000
 7.214335697395737e-001	 1.390673654998015e+000	 6.623394274492079e+000
 7.064039136614296e-001	 1.398368027756570e+000	 6.410019249358205e+000
 6.913183125920615e-001	 1.405887131539728e+000	 6.195056892259150e+000
 6.761797416801598e-001	 1.413230548898594e+000	 5.984517990443971e+000
 6.609911737543870e-001	 1.420397927693902e+000	 5.784030485709391e+000
 6.457555775893359e-001	 1.427388980715904e+000	 5.595403975277782e+000
 6.304759161940763e-001	 1.434203485251044e+000	 5.422910072592043e+000
 6.151551451251107e-001	 1.440841282596636e+000	 5.271385699679260e+000
 7.694175282550058e-001	 1.372359461599866e+000	 7.228020281562428e+000
 7.545103857417111e-001	 1.380611446759200e+000	 7.055252111291654e+000
 7.395381004674815e-001	 1.388689071273012e+000	 6.862815687612875e+000
 7.245036565849833e-001	 1.396591717414220e+000	 6.656660356924897e+000
 7.094100412580943e-001	 1.404318833856632e+000	 6.442784020330167e+000
 6.942602428640373e-001	 1.411869935460181e+000	 6.227219610323542e+000
 6.790572492123411e-001	 1.419244602999491e+000	 6.016021889799138e+000
 6.638040457826309e-001	 1.426442482836743e+000	 5.815155965482813e+000
 6.485036139832108e-001	 1.433463286539943e+000	 5.626965431966766e+000
 6.331589294323280e-001	 1.440306790447758e+000	 5.455019390002699e+000
 6.177729602639465e-001	 1.446972835182127e+000	 5.304155656028725e+000
 7.726779377921003e-001	 1.378174839744830e+000	 7.262074306875603e+000
 7.577076262091770e-001	 1.386461792720868e+000	 7.088936104719275e+000
 7.426718958226916e-001	 1.394573646197594e+000	 6.896065790373557e+000
 7.275737434306515e-001	 1.402509779830296e+000	 6.689425257665307e+000
 7.124161688550333e-001	 1.410269639956520e+000	 6.475026641849311e+000
 6.972021731363018e-001	 1.417852739380413e+000	 6.258918731418281e+000
 6.819347567448212e-001	 1.425258657100116e+000	 6.047173712380596e+000
 6.666169178111804e-001	 1.432487037979258e+000	 5.845874189918127e+000
 6.512516503773947e-001	 1.439537592363605e+000	 5.658246768116460e+000
 6.358419426708865e-001	 1.446410095644047e+000	 5.486979585117095e+000
 6.203907754030812e-001	 1.453104387767148e+000	 5.336882591521224e+000
 7.759383473295118e-001	 1.383990217889825e+000	 7.296692833245951e+000
 7.609048666769722e-001	 1.392312138682556e+000	 7.122814394722917e+000
 7.458056911782389e-001	 1.400458221122166e+000	 6.929288036124709e+000
 7.306438302766598e-001	 1.408427842246315e+000	 6.722063805751462e+000
 7.154222964523117e-001	 1.416220446056298e+000	 6.507143014830287e+000
 7.001441034089011e-001	 1.423835543300468e+000	 6.290564636757072e+000
 6.848122642776282e-001	 1.431272711200492e+000	 6.078392049683852e+000
 6.694297898400456e-001	 1.438531593121451e+000	 5.876700141792929e+000
 6.539996867718797e-001	 1.445611898186873e+000	 5.689664060789240e+000
 6.385249559097294e-001	 1.452513400839875e+000	 5.519187148924327e+000
 6.230085905424815e-001	 1.459235940351649e+000	 5.369938549154710e+000
 7.791987568673571e-001	 1.389805596034953e+000	 7.332139154755468e+000
 7.641021071452054e-001	 1.398162484644362e+000	 7.157192454801517e+000
 7.489394865342205e-001	 1.406342796046818e+000	 6.962822669300922e+000
 7.337139171230911e-001	 1.414345904662357e+000	 6.754943914574700e+000
 7.184284240499951e-001	 1.422171252156024e+000	 6.539521929668042e+000
 7.030860336818822e-001	 1.429818347220387e+000	 6.322560514958495e+000
 6.876897718107899e-001	 1.437286765300642e+000	 6.110088325718200e+000
 6.722426618692355e-001	 1.444576148263326e+000	 5.908146039716224e+000
 6.567477231666584e-001	 1.451686204009731e+000	 5.721629524502101e+000
 6.412079691488344e-001	 1.458616706035207e+000	 5.552035169847459e+000
 6.256264056821129e-001	 1.465367492935579e+000	 5.403692699196503e+000
 7.824591664057522e-001	 1.395620974180313e+000	 7.368671020226776e+000
 7.672993476139858e-001	 1.404012830606383e+000	 7.192369658603445e+000
 7.520732818907336e-001	 1.412227370971638e+000	 6.997003406365946e+000
 7.367840039700269e-001	 1.420263967078496e+000	 6.788426662695995e+000
 7.214345516481479e-001	 1.428122058255759e+000	 6.572545151021480e+000
 7.060279639552908e-001	 1.435801151140213e+000	 6.355302448549323e+000
 6.905672793443338e-001	 1.443300819400590e+000	 6.142666883103702e+000
 6.750555338987601e-001	 1.450620703404885e+000	 5.940618815985512e+000
 6.594957595617234e-001	 1.457760509832163e+000	 5.754551471908754e+000
 6.438909823881793e-001	 1.464720011230009e+000	 5.585913295389823e+000
 6.282442208219421e-001	 1.471499045518887e+000	 5.438511299976973e+000
 6.020660694366056e-001	 1.410183519663929e+000	 5.093672722515133e+000
 5.870316800788019e-001	 1.416507975416695e+000	 4.950489788459858e+000
 5.719628035567330e-001	 1.422659308219669e+000	 4.804051808950858e+000
 5.568623029941295e-001	 1.428637548482971e+000	 4.655993869598692e+000
 5.417330278466271e-001	 1.434442786918363e+000	 4.507582599086774e+000
 5.265778123931376e-001	 1.440075173828057e+000	 4.359748517831181e+000
 5.113994742604214e-001	 1.445534918351047e+000	 4.213117405508176e+000
 4.962008129821307e-001	 1.450822287668565e+000	 4.068040600614489e+000
 4.809846085935219e-001	 1.455937606170270e+000	 3.924624160651833e+000
 4.657536202629571e-001	 1.460881254582814e+000	 3.782756826473513e+000
 4.505105849612260e-001	 1.465653669062488e+000	 3.642136748683775e+000
 6.046838845734370e-001	 1.416315072251001e+000	 5.132336365511286e+000
 5.895841248949770e-001	 1.422667027072372e+000	 4.988975217350012e+000
 5.744497281002313e-001	 1.428845106196179e+000	 4.842272888570184e+000
 5.592835697619472e-001	 1.434849340164768e+000	 4.693890618747434e+000
 5.440885117253452e-001	 1.440679820084324e+000	 4.545117241723768e+000
 5.288674005929339e-001	 1.446336696910580e+000	 4.396902041053965e+000
 5.136230662426655e-001	 1.451820180691880e+000	 4.249886576906547e+000
 4.983583203807139e-001	 1.457130539771175e+000	 4.104435397205652e+000
 4.830759551300781e-001	 1.462268099948586e+000	 3.960665561675082e+000
 4.677787416561318e-001	 1.467233243606192e+000	 3.818474922807218e+000
 4.524694288301597e-001	 1.472026408796709e+000	 3.677569122528043e+000
 6.073016997107373e-001	 1.422446624837860e+000	 5.169054977928450e+000
 5.921365697116462e-001	 1.428826078727865e+000	 5.025714729154067e+000
 5.769366526442280e-001	 1.435030904172531e+000	 4.878897027462494e+000
 5.617048365302478e-001	 1.441061131846431e+000	 4.730296245820759e+000
 5.464439956045160e-001	 1.446916853250171e+000	 4.581230721666317e+000
 5.311569887931402e-001	 1.452598219993009e+000	 4.432676108487166e+000
 5.158466582252692e-001	 1.458105443032639e+000	 4.285297649832478e+000
 5.005158277796019e-001	 1.463438791873734e+000	 4.139481288229304e+000
 4.851673016668830e-001	 1.468598593726882e+000	 3.995363537801244e+000
 4.698038630495010e-001	 1.473585232629580e+000	 3.852860065177159e+000
 4.544282726992399e-001	 1.478399148530984e+000	 3.711692938422621e+000
 6.099195148484722e-001	 1.428578177424451e+000	 5.204214416542537e+000
 5.946890145287685e-001	 1.434985130383111e+000	 5.061066036157246e+000
 5.794235771886765e-001	 1.441216702148652e+000	 4.914256658784477e+000
 5.641261032989836e-001	 1.447272923527875e+000	 4.765520632032147e+000
 5.487994794840923e-001	 1.453153886415813e+000	 4.616212960163532e+000
 5.334465769937136e-001	 1.458859743075247e+000	 4.467343141362208e+000
 5.180702502081939e-001	 1.464390705373224e+000	 4.319607876770091e+000
 5.026733351787615e-001	 1.469747043976140e+000	 4.173422563517083e+000
 4.872586482039089e-001	 1.474929087505048e+000	 4.028951500741749e+000
 4.718289844430433e-001	 1.479937221652870e+000	 3.886136753832771e+000
 4.563871165684502e-001	 1.484771888265196e+000	 3.744725637682222e+000
 6.125373299866083e-001	 1.434709730010727e+000	 5.238197844888514e+000
 5.972414593463017e-001	 1.441144182038046e+000	 5.095384700197121e+000
 5.819105017335308e-001	 1.447402500124465e+000	 4.948682546522468e+000
 5.665473700681072e-001	 1.453484715209018e+000	 4.799872410520338e+000
 5.511549633640280e-001	 1.459390919581159e+000	 4.650352992749260e+000
 5.357361651946101e-001	 1.465121266157198e+000	 4.501174980384730e+000
 5.202938421914004e-001	 1.470675967713535e+000	 4.353074179378526e+000
 5.048308425781587e-001	 1.476055296078286e+000	 4.206503378077686e+000
 4.893499947411286e-001	 1.481259581282975e+000	 4.061662871584414e+000
 4.738541058367372e-001	 1.486289210675947e+000	 3.918529592805430e+000
 4.583459604377743e-001	 1.491144627999229e+000	 3.776884812117972e+000
 6.151551451251107e-001	 1.440841282596636e+000	 5.271385699679260e+000
 5.997939041642040e-001	 1.447303233692604e+000	 5.129024096897171e+000
 5.843974262787448e-001	 1.453588298099896e+000	 4.982503748455718e+000
 5.689686368375712e-001	 1.459696506889774e+000	 4.833658928907607e+000
 5.535104472442770e-001	 1.465627952746118e+000	 4.683938932215980e+000
 5.380257533957867e-001	 1.471382789238767e+000	 4.534442849898294e+000
 5.225174341748505e-001	 1.476961230053470e+000	 4.385953114568011e+000
 5.069883499777607e-001	 1.482363548180068e+000	 4.238967720764038e+000
 4.914413412785140e-001	 1.487590075060555e+000	 4.093731052690433e+000
 4.758792272305609e-001	 1.492641199698700e+000	 3.950263265618097e+000
 4.603048043071963e-001	 1.497517367732963e+000	 3.808388184104940e+000
 6.177729602639465e-001	 1.446972835182127e+000	 5.304155656028730e+000
 6.023463489824342e-001	 1.453462285346721e+000	 5.162335378890869e+000
 5.868843508242729e-001	 1.459774096074869e+000	 5.016047578269165e+000
 5.713899036073282e-001	 1.465908298570060e+000	 4.867186211137062e+000
 5.558659311247928e-001	 1.471864985910601e+000	 4.717257930973996e+000
 5.403153415972000e-001	 1.477644312319856e+000	 4.567417321512529e+000
 5.247410261585047e-001	 1.483246492392929e+000	 4.418500840103650e+000
 5.091458573775339e-001	 1.488671800281383e+000	 4.271059382509426e+000
 4.935326878160387e-001	 1.493920568837680e+000	 4.125389399171437e+000
 4.779043486244928e-001	 1.498993188721015e+000	 3.981562510576050e+000
 4.622636481766994e-001	 1.503890107466283e+000	 3.839453586207476e+000
 6.203907754030812e-001	 1.453104387767148e+000	 5.336882591521224e+000
 6.048987938009504e-001	 1.459621337000335e+000	 5.195667438069076e+000
 5.893712753700684e-001	 1.465959894049310e+000	 5.049639566836718e+000
 5.738111703773307e-001	 1.472120090249793e+000	 4.900758918615242e+000
 5.582214150055291e-001	 1.478102019074516e+000	 4.750596142817905e+000
 5.426049297988068e-001	 1.483905835400370e+000	 4.600368277220396e+000
 5.269646181423247e-001	 1.489531754731810e+000	 4.450973079750586e+000
 5.113033647774449e-001	 1.494980052382124e+000	 4.303021924141274e+000
 4.956240343536744e-001	 1.500251062614241e+000	 4.156871189964589e+000
 4.799294700185112e-001	 1.505345177742780e+000	 4.012652095650687e+000
 4.642224920462677e-001	 1.510262847199072e+000	 3.870298940378096e+000
 6.230085905424815e-001	 1.459235940351649e+000	 5.369938549154710e+000
 6.074512386197107e-001	 1.465780388653379e+000	 5.229366866877768e+000
 5.918581999160855e-001	 1.472145692023142e+000	 5.083603422708189e+000
 5.762324371475311e-001	 1.478331881928889e+000	 4.934680310672532e+000
 5.605768988864394e-001	 1.484339052237773e+000	 4.784238684113702e+000
 5.448945180005639e-001	 1.490167358480213e+000	 4.633564872011076e+000
 5.291882101262714e-001	 1.495817017070015e+000	 4.483625087976995e+000
 5.134608721774606e-001	 1.501288304482188e+000	 4.335098643783638e+000
 4.977153808913936e-001	 1.506581556390130e+000	 4.188409598511978e+000
 4.819545914125948e-001	 1.511697166763884e+000	 4.043756792964486e+000
 4.661813359158847e-001	 1.516635586931213e+000	 3.901142236738332e+000
 6.256264056821129e-001	 1.465367492935579e+000	 5.403692699196503e+000
 6.100036834386735e-001	 1.471939440305789e+000	 5.263777918692270e+000
 5.943451244622784e-001	 1.478331489996291e+000	 5.118260991815858e+000
 5.786537039178824e-001	 1.484543673607263e+000	 4.969252204370763e+000
 5.629323827674774e-001	 1.490576085400281e+000	 4.818469594424411e+000
 5.471841062024277e-001	 1.496428881559288e+000	 4.667275496001197e+000
 5.314118021103059e-001	 1.502102279407441e+000	 4.516711614223276e+000
 5.156183795775471e-001	 1.507596556581470e+000	 4.367532543866838e+000
 4.998067274291692e-001	 1.512912050165238e+000	 4.220237663059240e+000
 4.839797128067216e-001	 1.518049155784212e+000	 4.075101352895532e+000
 4.681401797855343e-001	 1.523008326662587e+000	 3.932201511958000e+000
 6.282442208219421e-001	 1.471499045518887e+000	 5.438511299976973e+000
 6.125561282577968e-001	 1.478098491957502e+000	 5.299242467299219e+000
 5.968320490086007e-001	 1.484517287968683e+000	 5.153932216425923e+000
 5.810749706883369e-001	 1.490755465284833e+000	 5.004774933667638e+000
 5.652878666485968e-001	 1.496813118561950e+000	 4.853571796593833e+000
 5.494736944043552e-001	 1.502690404637500e+000	 4.701767736091274e+000
 5.336353940943900e-001	 1.508387541743989e+000	 4.550486866754181e+000
 5.177758869776715e-001	 1.513904808679865e+000	 4.400566297747683e+000
 5.018980739669736e-001	 1.519242543939458e+000	 4.252588256584954e+000
 4.860048342008704e-001	 1.524401144803653e+000	 4.106910477807092e+000
 4.700990236552003e-001	 1.529381066393079e+000	 3.963694827242334e+000
 4.505105849612260e-001	 1.465653669062488e+000	 3.642136748683775e+000
 4.352582159519864e-001	 1.470255339887630e+000	 3.505822080094609e+000
 4.199992009085988e-001	 1.474686809389286e+000	 3.377138166762146e+000
 4.047362013938896e-001	 1.478948672050239e+000	 3.255967777540436e+000
 3.894718519125411e-001	 1.483041573840250e+000	 3.142091269679261e+000
 3.742087587819934e-001	 1.486966211157460e+000	 3.035205290703948e+000
 3.589494990456079e-001	 1.490723329744274e+000	 2.934940300545069e+000
 3.436966194285619e-001	 1.494313723579467e+000	 2.840876951710605e+000
 3.284526353368803e-001	 1.497738233748321e+000	 2.752561372403999e+000
 3.132200298999260e-001	 1.500997747292519e+000	 2.669519403595412e+000
 2.980012530565967e-001	 1.504093196041590e+000	 2.591269846149698e+000
 4.524694288301597e-001	 1.472026408796709e+000	 3.677569122528043e+000
 4.371507417132339e-001	 1.476648087930236e+000	 3.541053845091192e+000
 4.218253796648540e-001	 1.481098825695898e+000	 3.412286899836472e+000
 4.064960158204544e-001	 1.485379219161321e+000	 3.291134720884370e+000
 3.911652961396743e-001	 1.489489917104969e+000	 3.177361212738231e+000
 3.758358382723524e-001	 1.493431618952961e+000	 3.070646519641840e+000
 3.605102304669627e-001	 1.497205073690221e+000	 2.970604579315409e+000
 3.451910305219705e-001	 1.500811078747787e+000	 2.876799501709224e+000
 3.298807647805114e-001	 1.504250478868019e+000	 2.788760820667898e+000
 3.145819271687184e-001	 1.507524164949504e+000	 2.705997672618345e+000
 2.992969782779455e-001	 1.510633072873409e+000	 2.628011961582160e+000
 4.544282726992399e-001	 1.478399148530984e+000	 3.711692938422621e+000
 4.390432674745879e-001	 1.483040835972945e+000	 3.575024629140147e+000
 4.236515584211841e-001	 1.487510842002673e+000	 3.446245428431694e+000
 4.082558302470692e-001	 1.491809766272625e+000	 3.325200695758948e+000
 3.928587403668398e-001	 1.495938260369978e+000	 3.211633171578129e+000
 3.774629177627315e-001	 1.499897026748817e+000	 3.105201818031465e+000
 3.620709618883305e-001	 1.503686817636593e+000	 3.005499407055087e+000
 3.466854416153891e-001	 1.507308433916597e+000	 2.912068899466846e+000
 3.313088942241526e-001	 1.510762723988268e+000	 2.824418665992547e+000
 3.159438244375234e-001	 1.514050582607094e+000	 2.742036607541629e+000
 3.005927034993116e-001	 1.517172949705882e+000	 2.664403237299264e+000
 4.563871165684502e-001	 1.484771888265196e+000	 3.744725637682222e+000
 4.409357932360367e-001	 1.489433584015637e+000	 3.607944987190724e+000
 4.254777371775806e-001	 1.493922858309479e+000	 3.479216043822753e+000
 4.100156446737294e-001	 1.498240313384018e+000	 3.358358439749777e+000
 3.945521845940355e-001	 1.502386603635133e+000	 3.245089131811010e+000
 3.790899972531312e-001	 1.506362434544881e+000	 3.139041317118949e+000
 3.636316933097140e-001	 1.510168561583230e+000	 3.039782058011980e+000
 3.481798527088230e-001	 1.513805789085729e+000	 2.946828662912215e+000
 3.327370236678124e-001	 1.517274969108895e+000	 2.859663877208001e+000
 3.173057217063539e-001	 1.520577000265112e+000	 2.777749944736820e+000
 3.018884287207118e-001	 1.523712826538826e+000	 2.700541605810697e+000
 4.583459604377743e-001	 1.491144627999229e+000	 3.776884812117972e+000
 4.428283189975681e-001	 1.495826332058187e+000	 3.640025652748531e+000
 4.273039159340356e-001	 1.500334874616189e+000	 3.511401252216293e+000
 4.117754591004298e-001	 1.504670860495363e+000	 3.390800949193669e+000
 3.962456288212590e-001	 1.508834946900292e+000	 3.277911388267415e+000
 3.807170767435516e-001	 1.512827842340999e+000	 3.172335513755959e+000
 3.651924247311161e-001	 1.516650305529975e+000	 3.073610233680652e+000
 3.496742638022776e-001	 1.520303144255020e+000	 2.981222803516627e+000
 3.341651531114998e-001	 1.523787214229728e+000	 2.894625987090122e+000
 3.186676189752222e-001	 1.527103417923380e+000	 2.813252058551492e+000
 3.031841539421639e-001	 1.530252703372057e+000	 2.736525714827265e+000
 4.603048043071963e-001	 1.497517367732963e+000	 3.808388184104940e+000
 4.447208447591707e-001	 1.502219080100473e+000	 3.671477522227179e+000
 4.291300946905407e-001	 1.506746890922672e+000	 3.543003762738161e+000
 4.135352735271654e-001	 1.511101407606524e+000	 3.422721470188764e+000
 3.979390730485077e-001	 1.515283290165310e+000	 3.310282538437434e+000
 3.823441562339925e-001	 1.519293250137022e+000	 3.205255265705265e+000
 3.667531561525392e-001	 1.523132049476669e+000	 3.107142059433124e+000
 3.511686748957588e-001	 1.526800499424304e+000	 3.015395823736422e+000
 3.355932825552234e-001	 1.530299459350595e+000	 2.929435090136891e+000
 3.200295162441409e-001	 1.533629835581718e+000	 2.848657958966253e+000
 3.044798791636848e-001	 1.536792580205390e+000	 2.772454924372564e+000
 4.622636481766994e-001	 1.503890107466283e+000	 3.839453586207476e+000
 4.466133705208326e-001	 1.508611828142373e+000	 3.702511638830756e+000
 4.309562734470883e-001	 1.513158907228801e+000	 3.574226474947479e+000
 4.152950879539309e-001	 1.517531954717364e+000	 3.454313489128130e+000
 3.996325172757795e-001	 1.521731633430045e+000	 3.342385475443226e+000
 3.839712357244544e-001	 1.525758657932800e+000	 3.237971786493501e+000
 3.683138875739864e-001	 1.529613793423154e+000	 3.140536080725894e+000
 3.526630859892719e-001	 1.533297854593416e+000	 3.049492714071503e+000
 3.370214119989919e-001	 1.536811704471323e+000	 2.964221840005600e+000
 3.213914135131226e-001	 1.540156253239948e+000	 2.884083288960525e+000
 3.057756043852917e-001	 1.543332457038643e+000	 2.808429303667329e+000
 4.642224920462677e-001	 1.510262847199072e+000	 3.870298940378096e+000
 4.485058962825420e-001	 1.515004576183763e+000	 3.733339175990041e+000
 4.327824522036696e-001	 1.519570923534446e+000	 3.605272465885534e+000
 4.170549023807214e-001	 1.523962501827749e+000	 3.485770722767766e+000
 4.013259615030718e-001	 1.528179976694353e+000	 3.374403380552234e+000
 3.855983152149377e-001	 1.532224065728180e+000	 3.270656639829477e+000
 3.698746189954602e-001	 1.536095537369272e+000	 3.173951258897946e+000
 3.541574970828225e-001	 1.539795209762189e+000	 3.083658949752802e+000
 3.384495414428142e-001	 1.543323949591740e+000	 2.999117446618314e+000
 3.227533107821799e-001	 1.546682670897893e+000	 2.919644321605547e+000
 3.070713296070020e-001	 1.549872333871631e+000	 2.844549627792782e+000
 4.661813359158847e-001	 1.516635586931213e+000	 3.901142236738332e+000
 4.503984220442867e-001	 1.521397324224522e+000	 3.764171420355586e+000
 4.346086309602770e-001	 1.525982939839478e+000	 3.636344976674725e+000
 4.188147168075319e-001	 1.530393048937541e+000	 3.517287107843750e+000
 4.030194057303825e-001	 1.534628319958090e+000	 3.406519715254514e+000
 3.872253947054421e-001	 1.538689473523013e+000	 3.303481733596481e+000
 3.714353504169633e-001	 1.542577281314865e+000	 3.207546966572149e+000
 3.556519081764161e-001	 1.546292564930458e+000	 3.118040487064097e+000
 3.398776708866989e-001	 1.549836194711674e+000	 3.034253672950807e+000
 3.241152080513252e-001	 1.553209088555371e+000	 2.955457956880036e+000
 3.083670548288326e-001	 1.556412210704171e+000	 2.880917374134188e+000
 4.681401797855343e-001	 1.523008326662587e+000	 3.932201511958000e+000
 4.522909478060553e-001	 1.527790072264526e+000	 3.795219754369410e+000
 4.364348097169019e-001	 1.532394956143769e+000	 3.667647398681720e+000
 4.205745312343572e-001	 1.536823596046605e+000	 3.549056790254313e+000
 4.047128499577090e-001	 1.541076663221114e+000	 3.438918212904393e+000
 3.888524741959679e-001	 1.545154881317146e+000	 3.336619313434822e+000
 3.729960818384989e-001	 1.549059025259775e+000	 3.241482982670225e+000
 3.571463192700581e-001	 1.552789920098058e+000	 3.152783759313602e+000
 3.413058003306548e-001	 1.556348439830952e+000	 3.069762831505642e+000
 3.254771053205714e-001	 1.559735506212208e+000	 2.991641718228160e+000
 3.096627800508011e-001	 1.562952087536078e+000	 2.917634718621241e+000
 4.700990236552003e-001	 1.529381066393079e+000	 3.963694827242334e+000
 4.541834735678362e-001	 1.534182820303653e+000	 3.826695638421459e+000
 4.382609884735363e-001	 1.538806972447188e+000	 3.699383259256776e+000
 4.223343456611924e-001	 1.543254143154806e+000	 3.581274113812079e+000
 4.064062941850493e-001	 1.547525006483282e+000	 3.471782869951733e+000
 3.904795536865156e-001	 1.551620289110432e+000	 3.370241955923631e+000
 3.745568132600691e-001	 1.555540769203842e+000	 3.275919487054339e+000
 3.586407303637542e-001	 1.559287275264824e+000	 3.188035672465207e+000
 3.427339297746908e-001	 1.562860684949402e+000	 3.105777780488987e+000
 3.268390025899309e-001	 1.566261923868223e+000	 3.028313748857670e+000
 3.109585052729244e-001	 1.569491964367168e+000	 2.954804531759911e+000
 2.980012530565967e-001	 1.504093196041590e+000	 2.591269846149698e+000
 2.828009990314218e-001	 1.507025127989463e+000	 2.517184874777754e+000
 2.676193610623530e-001	 1.509795038149035e+000	 2.446878079982062e+000
 2.524586800298293e-001	 1.512403986319364e+000	 2.380291677756322e+000
 2.373212605084651e-001	 1.514853072217832e+000	 2.317408397723872e+000
 2.222093700739263e-001	 1.517143434246501e+000	 2.258260105904579e+000
 2.071252386533723e-001	 1.519276248250174e+000	 2.202935839529790e+000
 1.920710579192460e-001	 1.521252726267772e+000	 2.151589320904564e+000
 1.770489807261170e-001	 1.523074115278612e+000	 2.104446015562060e+000
 1.620611205902298e-001	 1.524741695945114e+000	 2.061809797586513e+000
 1.471095512113652e-001	 1.526256781353464e+000	 2.024069282050929e+000
 2.992969782779455e-001	 1.510633072873409e+000	 2.628011961582160e+000
 2.840306327434565e-001	 1.513577753016370e+000	 2.554205645426456e+000
 2.687829842086254e-001	 1.516359706891685e+000	 2.484231497962688e+000
 2.535563837321868e-001	 1.518979998906481e+000	 2.418027690984161e+000
 2.383531459091907e-001	 1.521439733559776e+000	 2.355571542937402e+000
 2.231755481748648e-001	 1.523740054203473e+000	 2.296887979578583e+000
 2.080258301522327e-001	 1.525882141795015e+000	 2.242057403583885e+000
 1.929061930432675e-001	 1.527867213643340e+000	 2.191223043076379e+000
 1.778187990632861e-001	 1.529696522149704e+000	 2.144597847138156e+000
 1.627657709182356e-001	 1.531371353544922e+000	 2.102470993867922e+000
 1.477491913244744e-001	 1.532893026624554e+000	 2.065214073454830e+000
 3.005927034993116e-001	 1.517172949705882e+000	 2.664403237299264e+000
 2.852602664555143e-001	 1.520130378043972e+000	 2.590945084675398e+000
 2.699466073549285e-001	 1.522924375635062e+000	 2.521353771287798e+000
 2.546540874345853e-001	 1.525556011494349e+000	 2.455566310430710e+000
 2.393850313099713e-001	 1.528026394902491e+000	 2.393557581172522e+000
 2.241417262758770e-001	 1.530336674161230e+000	 2.335348610009920e+000
 2.089264216511907e-001	 1.532488035340652e+000	 2.281014258402812e+000
 1.937413281674166e-001	 1.534481701019713e+000	 2.230690389200715e+000
 1.785886174006201e-001	 1.536318929021609e+000	 2.184580582955326e+000
 1.634704212464511e-001	 1.538001011145548e+000	 2.142962472453667e+000
 1.483888314378467e-001	 1.539529271896469e+000	 2.106193760544290e+000
 3.018884287207118e-001	 1.523712826538826e+000	 2.700541605810697e+000
 2.864899001676177e-001	 1.526683003072079e+000	 2.627485774260519e+000
 2.711102305012906e-001	 1.529489044378973e+000	 2.558313540008321e+000
 2.557517911370589e-001	 1.532132024082775e+000	 2.492963662386569e+000
 2.404169167108455e-001	 1.534613056245783e+000	 2.431411572433237e+000
 2.251079043770039e-001	 1.536933294119577e+000	 2.373677458382475e+000
 2.098270131502878e-001	 1.539093928886893e+000	 2.319833753966817e+000
 1.945764632917323e-001	 1.541096188396701e+000	 2.270012105703721e+000
 1.793584357381515e-001	 1.542941335894138e+000	 2.224409893179602e+000
 1.641750715748986e-001	 1.544630668746812e+000	 2.183296373520610e+000
 1.490284715514893e-001	 1.546165517169035e+000	 2.147018517827069e+000
 3.031841539421639e-001	 1.530252703372057e+000	 2.736525714827265e+000
 2.877195338797896e-001	 1.533235628100504e+000	 2.663911075624119e+000
 2.722738536477407e-001	 1.536053713123227e+000	 2.595180260948526e+000
 2.568494948396415e-001	 1.538708036671565e+000	 2.530276700930994e+000
 2.414488021118516e-001	 1.541199717589455e+000	 2.469179390919294e+000
 2.260740824782869e-001	 1.543529914078321e+000	 2.411910763350259e+000
 2.107276046495657e-001	 1.545699822433543e+000	 2.358543959384453e+000
 1.954115984162537e-001	 1.547710675774113e+000	 2.309209579726623e+000
 1.801282540759133e-001	 1.549563742767107e+000	 2.264101991768176e+000
 1.648797219036005e-001	 1.551260326348532e+000	 2.223485267189083e+000
 1.496681116654092e-001	 1.552801762442078e+000	 2.187698820582384e+000
 3.044798791636848e-001	 1.536792580205390e+000	 2.772454924372564e+000
 2.889491675920525e-001	 1.539788253129059e+000	 2.700305126423000e+000
 2.734374767943067e-001	 1.542618381867632e+000	 2.632024203878067e+000
 2.579471985423670e-001	 1.545284049260524e+000	 2.567563204041409e+000
 2.424806875130279e-001	 1.547786378933312e+000	 2.506907721333828e+000
 2.270402605797669e-001	 1.550126534037266e+000	 2.450085537805419e+000
 2.116281961490656e-001	 1.552305715980410e+000	 2.397173660372584e+000
 1.962467335410196e-001	 1.554325163151758e+000	 2.348304837562913e+000
 1.808980724139381e-001	 1.556186149640328e+000	 2.303673636112749e+000
 1.655843722325789e-001	 1.557889983950527e+000	 2.263542154614306e+000
 1.503077517796134e-001	 1.559438007715424e+000	 2.228245447635558e+000
 3.057756043852917e-001	 1.543332457038643e+000	 2.808429303667329e+000
 2.901788013044292e-001	 1.546340878157556e+000	 2.736752836860733e+000
 2.746010999410176e-001	 1.549183050611998e+000	 2.668916447557686e+000
 2.590449022452694e-001	 1.551860061849460e+000	 2.604881769609098e+000
 2.435125729144129e-001	 1.554373040277161e+000	 2.544644055124742e+000
 2.280064386814851e-001	 1.556723153996217e+000	 2.488239565591393e+000
 2.125287876488293e-001	 1.558911609527300e+000	 2.435752356688757e+000
 1.970818686660689e-001	 1.560939650529444e+000	 2.387320543049269e+000
 1.816678907522587e-001	 1.562808556513615e+000	 2.343142126622642e+000
 1.662890225618565e-001	 1.564519641552616e+000	 2.303480468990689e+000
 1.509473918941091e-001	 1.566074252988898e+000	 2.268669484010403e+000
 3.070713296070020e-001	 1.549872333871631e+000	 2.844549627792782e+000
 2.914084350169423e-001	 1.552893503185805e+000	 2.773339885855239e+000
 2.757647230879016e-001	 1.555747719356131e+000	 2.705928875665225e+000
 2.601426059483829e-001	 1.558436074438178e+000	 2.642291811370003e+000
 2.445444583160451e-001	 1.560959701620807e+000	 2.582436686662877e+000
 2.289726167834827e-001	 1.563319773954980e+000	 2.526411398169422e+000
 2.134293791488982e-001	 1.565517503074020e+000	 2.474310259517487e+000
 1.979170037914407e-001	 1.567554137906983e+000	 2.426279995904778e+000
 1.824377090909079e-001	 1.569430963386780e+000	 2.382525306244820e+000
 1.669936728914553e-001	 1.571149299154617e+000	 2.343314076479075e+000
 1.515870320089033e-001	 1.572710498262325e+000	 2.308982323482804e+000
 3.083670548288326e-001	 1.556412210704171e+000	 2.880917374134188e+000
 2.926380687296148e-001	 1.559446128213619e+000	 2.810152717042800e+000
 2.769283462349874e-001	 1.562312388099841e+000	 2.743134172599375e+000
 2.612403096517411e-001	 1.565012087026484e+000	 2.679853554748364e+000
 2.455763437179627e-001	 1.567546362964053e+000	 2.620334709358396e+000
 2.299387948858007e-001	 1.569916393913360e+000	 2.564640351236358e+000
 2.143299706493139e-001	 1.572123396620375e+000	 2.512878288817571e+000
 1.987521389171738e-001	 1.574168625284182e+000	 2.465207130030132e+000
 1.832075274299184e-001	 1.576053370259636e+000	 2.421841559931699e+000
 1.676983232213979e-001	 1.577778956756348e+000	 2.383057277053067e+000
 1.522266721240030e-001	 1.579346743535532e+000	 2.349195671018735e+000
 3.096627800508011e-001	 1.562952087536078e+000	 2.917634718621241e+000
 2.938677024424692e-001	 1.565998753240810e+000	 2.847278534625864e+000
 2.780919693823034e-001	 1.568877056842937e+000	 2.780605819169144e+000
 2.623380133553782e-001	 1.571588099614185e+000	 2.717628032615556e+000
 2.466082291202042e-001	 1.574133024306707e+000	 2.658388011715292e+000
 2.309049729884803e-001	 1.576513013871161e+000	 2.602966501295748e+000
 2.152305621501179e-001	 1.578729290166173e+000	 2.551488070626527e+000
 1.995872740433073e-001	 1.580783112660851e+000	 2.504126511756558e+000
 1.839773457693229e-001	 1.582675777131999e+000	 2.461109814046402e+000
 1.684029735517064e-001	 1.584408614357631e+000	 2.422724805272334e+000
 1.528663122394154e-001	 1.585982988808343e+000	 2.389321545115414e+000
 3.109585052729244e-001	 1.569491964367168e+000	 2.954804531759911e+000
 2.950973361555283e-001	 1.572551378267190e+000	 2.884805299066109e+000
 2.792555925298783e-001	 1.575441725585226e+000	 2.818418088172244e+000
 2.634357170593281e-001	 1.578164112201086e+000	 2.755677080970326e+000
 2.476401145228079e-001	 1.580719685648571e+000	 2.696647273329058e+000
 2.318711510915625e-001	 1.583109633828190e+000	 2.641430682184862e+000
 2.161311536513517e-001	 1.585335183711221e+000	 2.590171934325082e+000
 2.004224091698800e-001	 1.587397600036800e+000	 2.543063338055184e+000
 1.847471641091543e-001	 1.589298184003680e+000	 2.500349535717426e+000
 1.691076238824034e-001	 1.591038271958281e+000	 2.462331830979275e+000
 1.535059523551476e-001	 1.592619234080585e+000	 2.429372280039801e+000
 1.471095512113652e-001	 1.526256781353464e+000	 2.024069282050929e+000
 1.321940769904347e-001	 1.527620909144472e+000	 1.991449873699796e+000
 1.173189629895987e-001	 1.528835215667850e+000	 1.963405822652887e+000
 1.024861918480412e-001	 1.529901104708160e+000	 1.939309912834348e+000
 8.769770393849952e-002	 1.530820007478312e+000	 1.918660148656603e+000
 7.295539709772317e-002	 1.531593381358124e+000	 1.901086965950441e+000
 5.826112639675777e-002	 1.532222708639553e+000	 1.886360298598278e+000
 4.361670395028588e-002	 1.532709495279816e+000	 1.874396529790141e+000
 2.902389876422843e-002	 1.533055269663587e+000	 1.865265352023124e+000
 1.448443662077806e-002	 1.533261581375402e+000	 1.859196555197703e+000
 0.000000000000000e+000	 1.533329999983334e+000	 1.856586751115539e+000
 1.477491913244744e-001	 1.532893026624554e+000	 2.065214073454830e+000
 1.327688638324483e-001	 1.534263085715157e+000	 2.033007831276114e+000
 1.178290720489962e-001	 1.535482672107356e+000	 2.005289885866738e+000
 1.029318072338744e-001	 1.536553195689441e+000	 1.981454442531823e+000
 8.807901819661552e-002	 1.537476093897312e+000	 1.961018171263806e+000
 7.327261102581678e-002	 1.538252830447551e+000	 1.943627277656749e+000
 5.851444885842478e-002	 1.538884894077196e+000	 1.929064450199902e+000
 4.380635168824693e-002	 1.539373797291449e+000	 1.917255714048183e+000
 2.915009621289072e-002	 1.539721075120482e+000	 1.908277216353860e+000
 1.454741571829701e-002	 1.539928283886501e+000	 1.902361963251279e+000
 0.000000000000000e+000	 1.539996999982150e+000	 1.899906517739854e+000
 1.483888314378467e-001	 1.539529271896469e+000	 2.106193760544290e+000
 1.333436506747863e-001	 1.540905262286677e+000	 2.074416227371569e+000
 1.183391811087811e-001	 1.542130128547706e+000	 2.047051307492049e+000
 1.033774226201508e-001	 1.543205286671577e+000	 2.023509803636725e+000
 8.846033245521598e-002	 1.544132180317176e+000	 2.003322125475682e+000
 7.358982495441387e-002	 1.544912279537849e+000	 1.986145220533899e+000
 5.876777132058422e-002	 1.545547079515722e+000	 1.971769402599442e+000
 4.399599942665190e-002	 1.546038099303972e+000	 1.960125108918175e+000
 2.927629366190350e-002	 1.546386880578270e+000	 1.951289612257894e+000
 1.461039481602085e-002	 1.546594986398501e+000	 1.945493708682470e+000
 0.000000000000000e+000	 1.546663999981867e+000	 1.943128391246853e+000
 1.490284715514893e-001	 1.546165517169035e+000	 2.147018517827069e+000
 1.339184375174359e-001	 1.547547438858865e+000	 2.115683929069276e+000
 1.188492901689171e-001	 1.548777584988743e+000	 2.088697469214654e+000
 1.038230380068114e-001	 1.549857377654417e+000	 2.065481834700215e+000
 8.884164671422185e-002	 1.550788266737764e+000	 2.045576367315258e+000
 7.390703888342050e-002	 1.551571728628892e+000	 2.028643844840144e+000
 5.902109378313513e-002	 1.552209264955009e+000	 2.014477190718969e+000
 4.418564716540320e-002	 1.552702401317272e+000	 2.003006135318214e+000
 2.940249111118554e-002	 1.553052686036848e+000	 1.994303855854936e+000
 1.467337391390007e-002	 1.553261688911296e+000	 1.988593616629133e+000
 0.000000000000000e+000	 1.553330999982383e+000	 1.986255420725179e+000
 1.496681116654092e-001	 1.552801762442078e+000	 2.187698820582384e+000
 1.344932243603838e-001	 1.554189615431554e+000	 2.156819977092242e+000
 1.193593992293684e-001	 1.555425041430308e+000	 2.130235817461709e+000
 1.042686533937975e-001	 1.556509468637817e+000	 2.107376348132211e+000
 8.922296097355417e-002	 1.557444353158942e+000	 2.087785153587911e+000
 7.422425281274273e-002	 1.558231177720554e+000	 2.071126046110793e+000
 5.927441624597661e-002	 1.558871450394940e+000	 2.057189656585195e+000
 4.437529490440334e-002	 1.559366703331239e+000	 2.045900000169409e+000
 2.952868856065562e-002	 1.559718491496112e+000	 2.037321044966395e+000
 1.473635301188516e-002	 1.559928391424788e+000	 2.031663306127744e+000
 0.000000000000000e+000	 1.559997999983599e+000	 2.029290477538854e+000
 1.503077517796134e-001	 1.559438007715424e+000	 2.228245447635558e+000
 1.350680112036169e-001	 1.560831792004578e+000	 2.197833590151107e+000
 1.198695082900991e-001	 1.562072497872247e+000	 2.171673868903493e+000
 1.047142687810503e-001	 1.563161559621628e+000	 2.149199136481742e+000
 8.960427523313397e-002	 1.564100439580570e+000	 2.129952648581885e+000
 7.454146674228666e-002	 1.564890626812705e+000	 2.113594571967208e+000
 5.952773870900770e-002	 1.565533635835396e+000	 2.099908455960638e+000
 4.456494264355475e-002	 1.566031005345761e+000	 2.088807702605037e+000
 2.965488601023249e-002	 1.566384296955954e+000	 2.080342064683118e+000
 1.479933210992658e-002	 1.566595093938874e+000	 2.074704194861417e+000
 0.000000000000000e+000	 1.566664999985416e+000	 2.072236259106895e+000
 1.509473918941091e-001	 1.566074252988898e+000	 2.268669484010403e+000
 1.356427980471223e-001	 1.567473968577772e+000	 2.238734169148327e+000
 1.203796173510732e-001	 1.568719954314401e+000	 2.213019215797754e+000
 1.051598841685111e-001	 1.569813650605705e+000	 2.190955978538208e+000
 8.998558949288221e-002	 1.570756526002515e+000	 2.172082930589661e+000
 7.485868067195843e-002	 1.571550075905218e+000	 2.156052028743088e+000
 5.978106117212745e-002	 1.572195821276259e+000	 2.142635064803688e+000
 4.475459038275984e-002	 1.572695307360727e+000	 2.131730040019140e+000
 2.978108345983493e-002	 1.573050102416269e+000	 2.123367592793588e+000
 1.486231120797482e-002	 1.573261796453454e+000	 2.117717503789943e+000
 0.000000000000000e+000	 1.573331999987733e+000	 2.115095292590373e+000
 1.515870320089033e-001	 1.572710498262325e+000	 2.308982323482804e+000
 1.362175848908868e-001	 1.574116145150969e+000	 2.279531301246583e+000
 1.208897264122548e-001	 1.575367410756614e+000	 2.254279531173645e+000
 1.056054995561209e-001	 1.576465741589899e+000	 2.232652645264667e+000
 9.036690375271989e-002	 1.577412612424635e+000	 2.214179998251081e+000
 7.517589460166406e-002	 1.578209524997966e+000	 2.198500887940653e+000
 6.003438363523492e-002	 1.578858006717409e+000	 2.185370785561281e+000
 4.494423812192110e-002	 1.579359609376027e+000	 2.174667613959814e+000
 2.990728090938170e-002	 1.579715907876953e+000	 2.166398105072485e+000
 1.492529030598035e-002	 1.579928498968426e+000	 2.160704261658991e+000
 0.000000000000000e+000	 1.579998999990450e+000	 2.157869938483902e+000
 1.522266721240030e-001	 1.579346743535532e+000	 2.349195671018735e+000
 1.367923717348973e-001	 1.580758321724004e+000	 2.320234763802073e+000
 1.213998354736080e-001	 1.582014867198729e+000	 2.295462573863466e+000
 1.060511149438211e-001	 1.583117832574064e+000	 2.274294905565965e+000
 9.074821801256802e-002	 1.584068698846796e+000	 2.256247776730261e+000
 7.549310853130965e-002	 1.584868974090821e+000	 2.240943492513385e+000
 6.028770609822916e-002	 1.585520192158728e+000	 2.228116753299279e+000
 4.513388586094098e-002	 1.586023911391548e+000	 2.217620835870944e+000
 3.003347835879158e-002	 1.586381713337902e+000	 2.209433880436293e+000
 1.498826940389365e-002	 1.586595201483688e+000	 2.203665309400614e+000
 0.000000000000000e+000	 1.586665999993466e+000	 2.200562394116983e+000
 1.528663122394154e-001	 1.585982988808343e+000	 2.389321545115414e+000
 1.373671585791408e-001	 1.587400498296709e+000	 2.360854528167066e+000
 1.219099445350967e-001	 1.588662323640588e+000	 2.336576193383749e+000
 1.064967303315527e-001	 1.589769923558053e+000	 2.315888531894956e+000
 9.112953227234756e-002	 1.590724785268860e+000	 2.298290123723573e+000
 7.581032246080133e-002	 1.591528423183657e+000	 2.283382062989011e+000
 6.054102856100924e-002	 1.592182377600097e+000	 2.270873941676757e+000
 4.532353359972191e-002	 1.592688213407181e+000	 2.260589932693716e+000
 3.015967580798333e-002	 1.593047518799007e+000	 2.252475005968196e+000
 1.505124850166521e-002	 1.593261903999138e+000	 2.246601304416969e+000
 0.000000000000000e+000	 1.593332999996683e+000	 2.243174697068420e+000
 1.535059523551476e-001	 1.592619234080585e+000	 2.429372280039801e+000
 1.379419454236043e-001	 1.594042674868919e+000	 2.401400763369469e+000
 1.224200535966850e-001	 1.595309780082036e+000	 2.377628334674935e+000
 1.069423457192570e-001	 1.596422014541718e+000	 2.357439305704565e+000
 9.151084653197959e-002	 1.597380871690691e+000	 2.340310835308892e+000
 7.612753639004517e-002	 1.598187872276344e+000	 2.325818703429517e+000
 6.079435102347421e-002	 1.598844563041398e+000	 2.313643168764588e+000
 4.551318133816635e-002	 1.599352515422813e+000	 2.303574952317739e+000
 3.028587325687572e-002	 1.599713324260166e+000	 2.295521381816414e+000
 1.511422759924549e-002	 1.599928606514677e+000	 2.289512724761697e+000
 0.000000000000000e+000	 1.600000000000000e+000	 2.285708728493789e+000
 1.600000000000000e+000	 0.000000000000000e+000	 1.396887829783414e+001
 1.599928606514677e+000	 1.511422759924554e-002	 1.397446141373719e+001
 1.599713324260166e+000	 3.028587325687582e-002	 1.397721531557568e+001
 1.599352515422813e+000	 4.551318133816625e-002	 1.397784906815261e+001
 1.598844563041397e+000	 6.079435102347415e-002	 1.397705703600505e+001
 1.598187872276344e+000	 7.612753639004513e-002	 1.397551704853546e+001
 1.597380871690691e+000	 9.151084653197962e-002	 1.397388864439275e+001
 1.596422014541718e+000	 1.069423457192571e-001	 1.397281141808987e+001
 1.595309780082036e+000	 1.224200535966849e-001	 1.397290348801399e+001
 1.594042674868919e+000	 1.379419454236041e-001	 1.397476010707603e+001
 1.592619234080585e+000	 1.535059523551476e-001	 1.397895243940617e+001
 1.606667000003317e+000	 0.000000000000000e+000	 1.392256029128019e+001
 1.606595309030202e+000	 1.517720669660131e-002	 1.392836764424952e+001
 1.606379129721276e+000	 3.041207070541383e-002	 1.393124143926782e+001
 1.606016817438340e+000	 4.570282907620737e-002	 1.393192925056371e+001
 1.605506748482524e+000	 6.104767348555376e-002	 1.393116250769621e+001
 1.604847321368774e+000	 7.644475031897424e-002	 1.392965456958558e+001
 1.604036958112174e+000	 9.189216079140578e-002	 1.392809887287348e+001
 1.603074105524943e+000	 1.073879611068879e-001	 1.392716717777984e+001
 1.601957236522952e+000	 1.229301626583409e-001	 1.392750793073910e+001
 1.600684851440510e+000	 1.385167322682696e-001	 1.392974476525958e+001
 1.599255479352130e+000	 1.541455924711944e-001	 1.393447516469321e+001
 1.613334000006534e+000	 0.000000000000000e+000	 1.387710014289472e+001
 1.613262011545619e+000	 1.524018579376445e-002	 1.388313236419155e+001
 1.613044935182250e+000	 3.053826815364738e-002	 1.388612642417582e+001
 1.612681119453689e+000	 4.589247681390126e-002	 1.388686850372367e+001
 1.612168933923417e+000	 6.130099594730055e-002	 1.388612721232487e+001
 1.611506770460910e+000	 7.676196424762995e-002	 1.388465157075805e+001
 1.610693044533295e+000	 9.227347505065069e-002	 1.388316906290130e+001
 1.609726196507734e+000	 1.078335764944499e-001	 1.388238378000824e+001
 1.608604692963363e+000	 1.234402717200478e-001	 1.388297467684863e+001
 1.607327028011525e+000	 1.390915191131004e-001	 1.388559396134879e+001
 1.605891724623038e+000	 1.547852325875027e-001	 1.389086564168921e+001
 1.620001000009550e+000	 0.000000000000000e+000	 1.383246418666443e+001
 1.619928714060829e+000	 1.530316489078311e-002	 1.383872253470218e+001
 1.619710740643001e+000	 3.066446560165258e-002	 1.384183771921833e+001
 1.619345421468792e+000	 4.608212455133472e-002	 1.384263461336443e+001
 1.618831119364034e+000	 6.155431840879772e-002	 1.384191911117553e+001
 1.618166219552731e+000	 7.707917817608065e-002	 1.384047601866976e+001
 1.617349130954059e+000	 9.265478930975966e-002	 1.383906700860538e+001
 1.616378287490125e+000	 1.082791918819602e-001	 1.383842866237585e+001
 1.615252149403328e+000	 1.239503807817929e-001	 1.383927061854565e+001
 1.613969204582053e+000	 1.396663059580555e-001	 1.384227384984539e+001
 1.612527969893416e+000	 1.554248727040071e-001	 1.384808909284759e+001
 1.626668000012268e+000	 0.000000000000000e+000	 1.378861751734072e+001
 1.626595416575738e+000	 1.536614398770546e-002	 1.379510415209337e+001
 1.626376546103448e+000	 3.079066304950555e-002	 1.379834207291801e+001
 1.626009723483583e+000	 4.627177228859459e-002	 1.379919491925056e+001
 1.625493304804328e+000	 6.180764087012846e-002	 1.379850596399970e+001
 1.624825668644219e+000	 7.739639210439459e-002	 1.379709591288215e+001
 1.624005217374477e+000	 9.303610356877803e-002	 1.379576076165103e+001
 1.623030378472153e+000	 1.087248072694361e-001	 1.379526973482856e+001
 1.621899605842912e+000	 1.244604898435636e-001	 1.379636332554031e+001
 1.620611381152179e+000	 1.402410928030932e-001	 1.379975145844217e+001
 1.619164215163372e+000	 1.560645128206422e-001	 1.380611180022130e+001
 1.633335000014584e+000	 0.000000000000000e+000	 1.374552401573138e+001
 1.633262119090249e+000	 1.542912308457965e-002	 1.375224227087125e+001
 1.633042351563504e+000	 3.091686049728242e-002	 1.375560555405363e+001
 1.632674025497995e+000	 4.646142002576765e-002	 1.375651633336399e+001
 1.632155490244256e+000	 6.206096333137600e-002	 1.375585534463152e+001
 1.631485117735354e+000	 7.771360603264023e-002	 1.375447929884737e+001
 1.630661303794554e+000	 9.341741782775105e-002	 1.375321864141536e+001
 1.629682469453853e+000	 1.091704226568948e-001	 1.375287538696166e+001
 1.628547062282178e+000	 1.249705989053470e-001	 1.375422104938180e+001
 1.627253557721992e+000	 1.408158796481723e-001	 1.375799468928274e+001
 1.625800460433011e+000	 1.567041529373426e-001	 1.376490110354995e+001
 1.640002000016400e+000	 0.000000000000000e+000	 1.370314637337561e+001
 1.639928821604268e+000	 1.549210218145386e-002	 1.371010102619546e+001
 1.639708157023086e+000	 3.104305794505928e-002	 1.371359357180439e+001
 1.639338327511960e+000	 4.665106776294072e-002	 1.371456535763272e+001
 1.638817675683773e+000	 6.231428579262357e-002	 1.371393465620162e+001
 1.638144566826117e+000	 7.803081996088587e-002	 1.371259428050601e+001
 1.637317390214301e+000	 9.379873208672412e-002	 1.371140924486785e+001
 1.636334560435261e+000	 1.096160380443534e-001	 1.371121449508114e+001
 1.635194518721186e+000	 1.254807079671303e-001	 1.371281272760041e+001
 1.633895734291576e+000	 1.413906664932513e-001	 1.371697232008335e+001
 1.632436705702442e+000	 1.573437930540431e-001	 1.372442539826204e+001
 1.646669000017617e+000	 0.000000000000000e+000	 1.366144611661944e+001
 1.646595524117697e+000	 1.555508127837624e-002	 1.366864365579019e+001
 1.646373962482109e+000	 3.116925539291229e-002	 1.367227089539843e+001
 1.646002629525412e+000	 4.684071550020064e-002	 1.367330810121717e+001
 1.645479861122833e+000	 6.256760825395438e-002	 1.367271114595979e+001
 1.644804015916487e+000	 7.834803388919986e-002	 1.367140903254552e+001
 1.643973476633723e+000	 9.418004634574252e-002	 1.367030145616268e+001
 1.642986651416412e+000	 1.100616534318293e-001	 1.367025642902970e+001
 1.641841975160000e+000	 1.259908170289009e-001	 1.367210798766502e+001
 1.640537910861019e+000	 1.419654533382890e-001	 1.367665400512154e+001
 1.639072950971772e+000	 1.579834331706781e-001	 1.368465413339517e+001
 1.653336000018133e+000	 0.000000000000000e+000	 1.362038363010870e+001
 1.653262226630441e+000	 1.561806037539494e-002	 1.362783252132489e+001
 1.653039767940489e+000	 3.129545284091757e-002	 1.363160167328154e+001
 1.652666931538284e+000	 4.703036323763419e-002	 1.363271029736645e+001
 1.652142046561392e+000	 6.282093071545158e-002	 1.363215191971851e+001
 1.651463465006448e+000	 7.866524781765064e-002	 1.363089181232907e+001
 1.650629563052829e+000	 9.456136060485153e-002	 1.362986445595214e+001
 1.649638742397343e+000	 1.105072688193396e-001	 1.362997105878261e+001
 1.648489431598683e+000	 1.265009260906461e-001	 1.363207715076102e+001
 1.647180087430408e+000	 1.425402401832440e-001	 1.363701027609546e+001
 1.645709196241108e+000	 1.586230732871825e-001	 1.364555780943684e+001
 1.660003000017850e+000	 0.000000000000000e+000	 1.357991817971581e+001
 1.659928929142405e+000	 1.568103947255814e-002	 1.358762912927796e+001
 1.659705573398140e+000	 3.142165028915121e-002	 1.359154945181786e+001
 1.659331233550508e+000	 4.722001097532819e-002	 1.359273731985636e+001
 1.658804231999406e+000	 6.307425317719849e-002	 1.359222395592705e+001
 1.658122914095977e+000	 7.898246174630641e-002	 1.359101097150463e+001
 1.657285649471628e+000	 9.494267486409651e-002	 1.359006773042859e+001
 1.656290833378088e+000	 1.109528842069017e-001	 1.359032876082105e+001
 1.655136888037296e+000	 1.270110351523530e-001	 1.359269123539382e+001
 1.653822263999829e+000	 1.431150270280748e-001	 1.359801254285721e+001
 1.652345441510555e+000	 1.592627134034907e-001	 1.360710797608783e+001
 1.666670000016666e+000	 0.000000000000000e+000	 1.354000793491642e+001
 1.666595631653491e+000	 1.574401856991399e-002	 1.354799415129833e+001
 1.666371378854980e+000	 3.154784773768937e-002	 1.355207719353755e+001
 1.665995535562018e+000	 4.740965871336945e-002	 1.355335419902163e+001
 1.665466417436829e+000	 6.332757563927825e-002	 1.355289411938691e+001
 1.664782363185057e+000	 7.929967567523566e-002	 1.355173496730229e+001
 1.663941735890127e+000	 9.532398912352275e-002	 1.355088108010206e+001
 1.662942924358684e+000	 1.113984995945326e-001	 1.355130042428888e+001
 1.661784344475902e+000	 1.275211442140089e-001	 1.355392196082294e+001
 1.660464440569369e+000	 1.436898138727402e-001	 1.355963309402356e+001
 1.658981686780223e+000	 1.599023535195375e-001	 1.356927722994998e+001
 1.592619234080585e+000	 1.535059523551476e-001	 1.397895243940617e+001
 1.591038271958281e+000	 1.691076238824034e-001	 1.398306772812708e+001
 1.589298184003680e+000	 1.847471641091542e-001	 1.398476005119856e+001
 1.587397600036800e+000	 2.004224091698800e-001	 1.398464083436547e+001
 1.585335183711221e+000	 2.161311536513516e-001	 1.398326883487911e+001
 1.583109633828190e+000	 2.318711510915626e-001	 1.398114923609407e+001
 1.580719685648572e+000	 2.476401145228081e-001	 1.397873311392538e+001
 1.578164112201086e+000	 2.634357170593281e-001	 1.397641731653792e+001
 1.575441725585226e+000	 2.792555925298784e-001	 1.397454480066574e+001
 1.572551378267189e+000	 2.950973361555282e-001	 1.397340546983507e+001
 1.569491964367168e+000	 3.109585052729245e-001	 1.397323756145497e+001
 1.599255479352130e+000	 1.541455924711944e-001	 1.393447516469321e+001
 1.597667929558169e+000	 1.698122742134936e-001	 1.393915786505997e+001
 1.595920590874547e+000	 1.855169824494244e-001	 1.394132001961128e+001
 1.594012087411892e+000	 2.012575442969085e-001	 1.394159825178891e+001
 1.591941077255381e+000	 2.170317451530340e-001	 1.394057428131124e+001
 1.589706253784308e+000	 2.328373291950672e-001	 1.393877388558784e+001
 1.587306346989509e+000	 2.486719999257927e-001	 1.393666623179386e+001
 1.584740124787051e+000	 2.645334207636076e-001	 1.393466362189981e+001
 1.582006394326573e+000	 2.804192156777262e-001	 1.393312169508140e+001
 1.579104003292623e+000	 2.963269698688031e-001	 1.393234013391145e+001
 1.576031841197312e+000	 3.122542304952113e-001	 1.393256392252436e+001
 1.605891724623038e+000	 1.547852325875027e-001	 1.389086564168921e+001
 1.604297587157367e+000	 1.705169245449124e-001	 1.389612124997654e+001
 1.602542997744677e+000	 1.862868007900623e-001	 1.389876146169229e+001
 1.600626574786213e+000	 2.020926794243195e-001	 1.389944702580796e+001
 1.598546970798739e+000	 2.179323366550936e-001	 1.389878155239057e+001
 1.596302873739601e+000	 2.338035072989267e-001	 1.389731033957200e+001
 1.593893008329605e+000	 2.497038853290979e-001	 1.389551956972979e+001
 1.591316137372162e+000	 2.656311244681645e-001	 1.389383591810843e+001
 1.588571063067057e+000	 2.815828388258037e-001	 1.389262661934350e+001
 1.585656628317191e+000	 2.975566035822602e-001	 1.389220003943332e+001
 1.582571718026589e+000	 3.135499557176359e-001	 1.389280680259470e+001
 1.612527969893416e+000	 1.554248727040071e-001	 1.384808909284759e+001
 1.610927244755997e+000	 1.712215748765774e-001	 1.385392204175761e+001
 1.609165404614206e+000	 1.870566191309759e-001	 1.385704741616414e+001
 1.607241062159900e+000	 2.029278145520175e-001	 1.385814903708276e+001
 1.605152864341439e+000	 2.188329281574359e-001	 1.385785135285061e+001
 1.602899493694213e+000	 2.347696854030525e-001	 1.385671813032654e+001
 1.600479669669002e+000	 2.507357707326435e-001	 1.385525151359682e+001
 1.597892149956558e+000	 2.667288281729294e-001	 1.385389149435815e+001
 1.595135731806818e+000	 2.827464619740537e-001	 1.385301584049159e+001
 1.592209253341028e+000	 2.987862372958533e-001	 1.385294053152698e+001
 1.589111594855133e+000	 3.148456809401637e-001	 1.385392075169921e+001
 1.619164215163372e+000	 1.560645128206422e-001	 1.380611180022130e+001
 1.617556902354181e+000	 1.719262252084069e-001	 1.381252563518714e+001
 1.615787811483266e+000	 1.878264374720733e-001	 1.381614232292779e+001
 1.613855549533095e+000	 2.037629496799067e-001	 1.381766772172528e+001
 1.611758757883622e+000	 2.197335196599668e-001	 1.381774608620572e+001
 1.609496113648288e+000	 2.357358635073560e-001	 1.381695862138358e+001
 1.607066331007840e+000	 2.517676561363493e-001	 1.381582240223978e+001
 1.604468162540381e+000	 2.678265318778332e-001	 1.381478970395732e+001
 1.601700400545990e+000	 2.839100851224186e-001	 1.381424779038858e+001
 1.598761878364269e+000	 3.000158710095375e-001	 1.381451921062753e+001
 1.595651471683077e+000	 3.161414061627604e-001	 1.381586265566725e+001
 1.625800460433011e+000	 1.567041529373426e-001	 1.376490110354995e+001
 1.624186559952042e+000	 1.726308755403184e-001	 1.377189865578951e+001
 1.622410218351989e+000	 1.885962558132626e-001	 1.377601201459892e+001
 1.620470036905936e+000	 2.045980848078916e-001	 1.377796805949073e+001
 1.618364651425431e+000	 2.206341111625919e-001	 1.377842983955984e+001
 1.616092733601967e+000	 2.367020416117481e-001	 1.377799498892351e+001
 1.613652992346263e+000	 2.527995415401352e-001	 1.377719450544808e+001
 1.611044175123768e+000	 2.689242355828062e-001	 1.377649193884468e+001
 1.608265069284713e+000	 2.850737082708411e-001	 1.377628303678497e+001
 1.605314503387048e+000	 3.012455047232673e-001	 1.377689590009426e+001
 1.602191348510555e+000	 3.174371313853915e-001	 1.377859170030275e+001
 1.632436705702442e+000	 1.573437930540431e-001	 1.372442539826204e+001
 1.630816217549701e+000	 1.733355258722299e-001	 1.373200895463459e+001
 1.629032625220509e+000	 1.893660741544520e-001	 1.373662370806335e+001
 1.627084524278562e+000	 2.054332199358764e-001	 1.373901656203733e+001
 1.624970544967010e+000	 2.215347026652170e-001	 1.373986836853270e+001
 1.622689353555394e+000	 2.376682197161403e-001	 1.373979220333771e+001
 1.620239653684412e+000	 2.538314269439212e-001	 1.373933200213029e+001
 1.617620187706860e+000	 2.700219392877792e-001	 1.373896160436159e+001
 1.614829738023121e+000	 2.862373314192635e-001	 1.373908425468133e+001
 1.611867128409499e+000	 3.024751384369968e-001	 1.374003261416512e+001
 1.608731225337699e+000	 3.187328566080225e-001	 1.374206933594116e+001
 1.639072950971772e+000	 1.579834331706781e-001	 1.368465413339517e+001
 1.637445875147284e+000	 1.740401762040592e-001	 1.369282560311181e+001
 1.635655032088957e+000	 1.901358924955492e-001	 1.369794599605104e+001
 1.633699011651114e+000	 2.062683550637655e-001	 1.370078126125388e+001
 1.631576438508499e+000	 2.224352941677479e-001	 1.370202908230152e+001
 1.629285973508712e+000	 2.386343978204436e-001	 1.370231701095102e+001
 1.626826315022428e+000	 2.548633123476269e-001	 1.370220095869412e+001
 1.624196200289796e+000	 2.711196429926829e-001	 1.370216409427212e+001
 1.621394406761351e+000	 2.874009545676284e-001	 1.370261619798044e+001
 1.618419753431758e+000	 3.037047721506811e-001	 1.370389352624063e+001
 1.615271102164644e+000	 3.200285818306192e-001	 1.370625924237304e+001
 1.645709196241108e+000	 1.586230732871825e-001	 1.364555780943684e+001
 1.644075532744909e+000	 1.747448265357242e-001	 1.365431888767348e+001
 1.642277438957468e+000	 1.909057108364628e-001	 1.365994883872820e+001
 1.640313499023730e+000	 2.071034901914634e-001	 1.366323169765246e+001
 1.638182332050043e+000	 2.233358856700901e-001	 1.366488102875327e+001
 1.635882593462066e+000	 2.396005759245694e-001	 1.366553791590103e+001
 1.633412976360455e+000	 2.558951977511725e-001	 1.366576930762595e+001
 1.630772212872714e+000	 2.722173466974477e-001	 1.366606676602495e+001
 1.627959075499540e+000	 2.885645777158784e-001	 1.366684567142117e+001
 1.624972378453958e+000	 3.049344058642744e-001	 1.366844493748801e+001
 1.621810978991522e+000	 3.213243070531469e-001	 1.367112729412520e+001
 1.652345441510555e+000	 1.592627134034907e-001	 1.360710797608783e+001
 1.650705190342700e+000	 1.754494768671429e-001	 1.361646030454965e+001
 1.648899845826174e+000	 1.916755291771005e-001	 1.362260355530693e+001
 1.646927986396549e+000	 2.079386253188743e-001	 1.362633890882482e+001
 1.644788225591782e+000	 2.242364771721496e-001	 1.362839487974594e+001
 1.642479213415595e+000	 2.405667540284289e-001	 1.362942516216869e+001
 1.639999637698632e+000	 2.569270831544776e-001	 1.363000682626411e+001
 1.637348225455756e+000	 2.733150504020045e-001	 1.363063891624973e+001
 1.634523744237826e+000	 2.897282008639558e-001	 1.363174150278614e+001
 1.631525003476235e+000	 3.061640395777312e-001	 1.363365524575629e+001
 1.628350855818468e+000	 3.226200322755715e-001	 1.363664152608823e+001
 1.658981686780223e+000	 1.599023535195375e-001	 1.356927722994998e+001
 1.657334847940780e+000	 1.761541271982330e-001	 1.357922255443304e+001
 1.655522252695209e+000	 1.924453475173706e-001	 1.358588281567215e+001
 1.653542473769712e+000	 2.087737604459026e-001	 1.359007541796036e+001
 1.651394119133861e+000	 2.251370686738319e-001	 1.359254291647451e+001
 1.649075833369447e+000	 2.415329321319333e-001	 1.359395071575703e+001
 1.646586299037103e+000	 2.579589685574621e-001	 1.359488511576095e+001
 1.643924238039060e+000	 2.744127541062840e-001	 1.359585175648142e+001
 1.641088412976345e+000	 2.908918240118035e-001	 1.359727451537538e+001
 1.638077628498721e+000	 3.073936732910060e-001	 1.359949491479410e+001
 1.634890732645614e+000	 3.239157574978582e-001	 1.360277209948147e+001
 1.569491964367168e+000	 3.109585052729245e-001	 1.397323756145497e+001
 1.566261923868223e+000	 3.268390025899310e-001	 1.397324632053325e+001
 1.562860684949402e+000	 3.427339297746908e-001	 1.397244952489566e+001
 1.559287275264824e+000	 3.586407303637541e-001	 1.397074017765923e+001
 1.555540769203843e+000	 3.745568132600691e-001	 1.396797962227199e+001
 1.551620289110432e+000	 3.904795536865157e-001	 1.396400294835578e+001
 1.547525006483282e+000	 4.064062941850495e-001	 1.395862524818196e+001
 1.543254143154806e+000	 4.223343456611926e-001	 1.395164877331398e+001
 1.538806972447188e+000	 4.382609884735363e-001	 1.394287103983594e+001
 1.534182820303653e+000	 4.541834735678361e-001	 1.393209392896997e+001
 1.529381066393079e+000	 4.700990236552003e-001	 1.391913382773675e+001
 1.576031841197312e+000	 3.122542304952113e-001	 1.393256392252436e+001
 1.572788341523290e+000	 3.282008998594101e-001	 1.393304602050121e+001
 1.569372930066905e+000	 3.441620592188109e-001	 1.393284027374117e+001
 1.565784630430640e+000	 3.601351414575069e-001	 1.393182456039978e+001
 1.562022513146961e+000	 3.761175446816751e-001	 1.392984206198045e+001
 1.558085696902766e+000	 3.921066331770839e-001	 1.392670661040861e+001
 1.553973349744499e+000	 4.080997384124002e-001	 1.392220889806974e+001
 1.549684690262056e+000	 4.240941600880323e-001	 1.391612360207686e+001
 1.545218988749658e+000	 4.400871672301722e-001	 1.390821747296686e+001
 1.540575568341829e+000	 4.560759993296170e-001	 1.389825843644377e+001
 1.535753806122621e+000	 4.720578675248663e-001	 1.388602575466285e+001
 1.582571718026589e+000	 3.135499557176359e-001	 1.389280680259470e+001
 1.579314759177490e+000	 3.295627971289897e-001	 1.389374955896092e+001
 1.575885175183543e+000	 3.455901886630018e-001	 1.389412114417199e+001
 1.572281985595597e+000	 3.616295525513067e-001	 1.389378462320785e+001
 1.568504257089225e+000	 3.776782761033101e-001	 1.389256534406496e+001
 1.564551104694252e+000	 3.937337126676677e-001	 1.389025622155858e+001
 1.560421693004875e+000	 4.097931826397565e-001	 1.388662389628878e+001
 1.556115237368471e+000	 4.258539745148701e-001	 1.388141582180644e+001
 1.551631005051299e+000	 4.419133459868008e-001	 1.387436833199718e+001
 1.546968316379183e+000	 4.579685250913861e-001	 1.386521573916048e+001
 1.542126545851345e+000	 4.740167113945158e-001	 1.385370051116182e+001
 1.589111594855133e+000	 3.148456809401637e-001	 1.385392075169921e+001
 1.585841176830959e+000	 3.309246943986449e-001	 1.385531095421339e+001
 1.582397420299454e+000	 3.470183181072454e-001	 1.385624601233930e+001
 1.578779340759835e+000	 3.631239636451417e-001	 1.385657450109723e+001
 1.574986001030779e+000	 3.792390075249656e-001	 1.385610427485189e+001
 1.571016512485042e+000	 3.953607921582605e-001	 1.385460768320450e+001
 1.566870036264566e+000	 4.114866268671125e-001	 1.385182767411284e+001
 1.562545784474214e+000	 4.276137889416999e-001	 1.384748483908285e+001
 1.558043021352281e+000	 4.437395247434138e-001	 1.384128545431119e+001
 1.553361064415891e+000	 4.598610508531317e-001	 1.383293057015747e+001
 1.548499285579435e+000	 4.759755552641329e-001	 1.382212619925325e+001
 1.595651471683077e+000	 3.161414061627604e-001	 1.381586265566725e+001
 1.592367594483831e+000	 3.322865916683504e-001	 1.381768662931261e+001
 1.588909665414776e+000	 3.484464475515245e-001	 1.381917121522560e+001
 1.585276695923495e+000	 3.646183747389991e-001	 1.382015083368594e+001
 1.581467744971771e+000	 3.807997389466333e-001	 1.382041619733844e+001
 1.577481920275285e+000	 3.969878716488561e-001	 1.381971945439940e+001
 1.573318379523730e+000	 4.131800710944627e-001	 1.381778023101376e+001
 1.568976331579452e+000	 4.293736033685149e-001	 1.381429262945236e+001
 1.564455037652777e+000	 4.455657035000024e-001	 1.380893323793234e+001
 1.559753812452132e+000	 4.617535766148418e-001	 1.380137020638403e+001
 1.554872025307074e+000	 4.779343991337012e-001	 1.379127344044900e+001
 1.602191348510555e+000	 3.174371313853915e-001	 1.377859170030275e+001
 1.598894012136239e+000	 3.336484889380810e-001	 1.378083537286475e+001
 1.595421910529644e+000	 3.498745769958206e-001	 1.378285550816367e+001
 1.591774051086716e+000	 3.661127858328666e-001	 1.378447271953841e+001
 1.587949488912343e+000	 3.823604703683042e-001	 1.378546094246515e+001
 1.583947328065134e+000	 3.986149511394479e-001	 1.378555250016371e+001
 1.579766722782525e+000	 4.148735153218011e-001	 1.378444408012972e+001
 1.575406878684347e+000	 4.311334177953086e-001	 1.378180368016880e+001
 1.570867053952957e+000	 4.473918822565583e-001	 1.377727858165902e+001
 1.566146560488082e+000	 4.636461023765048e-001	 1.377050440635749e+001
 1.561244765034445e+000	 4.798932430032044e-001	 1.376111531105837e+001
 1.608731225337699e+000	 3.187328566080225e-001	 1.374206933594116e+001
 1.605420429788318e+000	 3.350103862078115e-001	 1.374471830024108e+001
 1.601934155644195e+000	 3.513027064401160e-001	 1.374726002280168e+001
 1.598271406249640e+000	 3.676071969267319e-001	 1.374950167098249e+001
 1.594431232852644e+000	 3.839212017899701e-001	 1.375120078088795e+001
 1.590412735854740e+000	 4.002420306300298e-001	 1.375207024031889e+001
 1.586215066041111e+000	 4.165669595491220e-001	 1.375178419427157e+001
 1.581837425789064e+000	 4.328932322220745e-001	 1.374998493348670e+001
 1.577279070252993e+000	 4.492180610130727e-001	 1.374629082576315e+001
 1.572539308523918e+000	 4.655386281381084e-001	 1.374030534838852e+001
 1.567617504761729e+000	 4.818520868726262e-001	 1.373162727806578e+001
 1.615271102164644e+000	 3.200285818306192e-001	 1.370625924237304e+001
 1.611946847440201e+000	 3.363722834775168e-001	 1.370929881519335e+001
 1.608446400758565e+000	 3.527308358843929e-001	 1.371234822550240e+001
 1.604768761412407e+000	 3.691016080205827e-001	 1.371520156938778e+001
 1.600912976792819e+000	 3.854819332116223e-001	 1.371760037523515e+001
 1.596878143644255e+000	 4.018691101205954e-001	 1.371923849882717e+001
 1.592663409299643e+000	 4.182604037764201e-001	 1.371976795245170e+001
 1.588267972893769e+000	 4.346530466488066e-001	 1.371880573049064e+001
 1.583691086553055e+000	 4.510442397695371e-001	 1.371594169323453e+001
 1.578932056559818e+000	 4.674311538996413e-001	 1.371074756935922e+001
 1.573990244489111e+000	 4.838109307419503e-001	 1.370278713556468e+001
 1.621810978991522e+000	 3.213243070531469e-001	 1.367112729412520e+001
 1.618473265092024e+000	 3.377341807471715e-001	 1.367454257186012e+001
 1.614958645872892e+000	 3.541589653286336e-001	 1.367808587616334e+001
 1.611266116575157e+000	 3.705960191144069e-001	 1.368153862089210e+001
 1.607394720733012e+000	 3.870426646332523e-001	 1.368462673283654e+001
 1.603343551433830e+000	 4.034961896111379e-001	 1.368702545362242e+001
 1.599111752558279e+000	 4.199538480036892e-001	 1.368836508692113e+001
 1.594698519998625e+000	 4.364128610754979e-001	 1.368823775544584e+001
 1.590103102853316e+000	 4.528704185259428e-001	 1.368620523155624e+001
 1.585324804595960e+000	 4.693236796610911e-001	 1.368180790403849e+001
 1.580362984216773e+000	 4.857697746111607e-001	 1.367457494173201e+001
 1.628350855818468e+000	 3.226200322755715e-001	 1.363664152608823e+001
 1.624999682743919e+000	 3.390960780167505e-001	 1.364041743715294e+001
 1.621470890987312e+000	 3.555870947728200e-001	 1.364444098744643e+001
 1.617763471738032e+000	 3.720904302081917e-001	 1.364848131256383e+001
 1.613876464673369e+000	 3.886033960548515e-001	 1.365224915891039e+001
 1.609808959223615e+000	 4.051232691016515e-001	 1.365540158691902e+001
 1.605560095817179e+000	 4.216472922309239e-001	 1.365754763070018e+001
 1.601129067103797e+000	 4.381726755021420e-001	 1.365825498065498e+001
 1.596515119153944e+000	 4.546965972822814e-001	 1.365705775499587e+001
 1.591717552632520e+000	 4.712162054224461e-001	 1.365346542491977e+001
 1.586735723944898e+000	 4.877286184802407e-001	 1.364697295632804e+001
 1.634890732645614e+000	 3.239157574978582e-001	 1.360277209948147e+001
 1.631526100396023e+000	 3.404579752862290e-001	 1.360689345351196e+001
 1.627983136101961e+000	 3.570152242169341e-001	 1.361138378440605e+001
 1.624260826901171e+000	 3.735848413019251e-001	 1.361600036898727e+001
 1.620358208614037e+000	 3.901641274764114e-001	 1.362043921019640e+001
 1.616274367013765e+000	 4.067503485921295e-001	 1.362433963598496e+001
 1.612008439076500e+000	 4.233407364581182e-001	 1.362728986558886e+001
 1.607559614209450e+000	 4.399324899287324e-001	 1.362883361180718e+001
 1.602927135455114e+000	 4.565227760385444e-001	 1.362847778739825e+001
 1.598110300669677e+000	 4.731087311836948e-001	 1.362570138256625e+001
 1.593108463673670e+000	 4.896874623491745e-001	 1.361996557870705e+001
 1.529381066393079e+000	 4.700990236552003e-001	 1.391913382773675e+001
 1.524401144803653e+000	 4.860048342008704e-001	 1.390459885037324e+001
 1.519242543939458e+000	 5.018980739669736e-001	 1.388938663477249e+001
 1.513904808679865e+000	 5.177758869776713e-001	 1.387382263419482e+001
 1.508387541743989e+000	 5.336353940943899e-001	 1.385832050901312e+001
 1.502690404637501e+000	 5.494736944043553e-001	 1.384339790002838e+001
 1.496813118561950e+000	 5.652878666485969e-001	 1.382969339215651e+001
 1.490755465284833e+000	 5.810749706883370e-001	 1.381798468081318e+001
 1.484517287968682e+000	 5.968320490086004e-001	 1.380920794634810e+001
 1.478098491957502e+000	 6.125561282577968e-001	 1.380447843428506e+001
 1.471499045518887e+000	 6.282442208219421e-001	 1.380511223092529e+001
 1.535753806122621e+000	 4.720578675248663e-001	 1.388602575466285e+001
 1.530753133822144e+000	 4.880299555950192e-001	 1.387218508112237e+001
 1.525573037712730e+000	 5.039894205047790e-001	 1.385770929388235e+001
 1.520213060777319e+000	 5.199333943777997e-001	 1.384290873019237e+001
 1.514672804079606e+000	 5.358589860784834e-001	 1.382817906988121e+001
 1.508951927714800e+000	 5.517632826063016e-001	 1.381401719836818e+001
 1.503050151722735e+000	 5.676433505297490e-001	 1.380103828915386e+001
 1.496967256961559e+000	 5.834962374588435e-001	 1.378999411977842e+001
 1.490703085940282e+000	 5.993189735550005e-001	 1.378179262815595e+001
 1.484257543608491e+000	 6.151085730770314e-001	 1.377751870847214e+001
 1.477630598101556e+000	 6.308620359619237e-001	 1.377845623749028e+001
 1.542126545851345e+000	 4.740167113945158e-001	 1.385370051116182e+001
 1.537105122839823e+000	 4.900550769891465e-001	 1.384054439724885e+001
 1.531903531485195e+000	 5.060807670425580e-001	 1.382679275292207e+001
 1.526521312873974e+000	 5.220909017778974e-001	 1.381273899133841e+001
 1.520958066414437e+000	 5.380825780625442e-001	 1.379875880260276e+001
 1.515213450791333e+000	 5.540528708082165e-001	 1.378532610287098e+001
 1.509287184882779e+000	 5.699988344108758e-001	 1.377303023267976e+001
 1.503179048637579e+000	 5.859175042293359e-001	 1.376259442021235e+001
 1.496888883911224e+000	 6.018058981014046e-001	 1.375489551802058e+001
 1.490416595258883e+000	 6.176610178962955e-001	 1.375098501387862e+001
 1.483762150683703e+000	 6.334798511019699e-001	 1.375211130795331e+001
 1.548499285579435e+000	 4.759755552641329e-001	 1.382212619925325e+001
 1.543457111856877e+000	 4.920801983832308e-001	 1.380964803066525e+001
 1.538234025257044e+000	 5.081721135802821e-001	 1.379661043413505e+001
 1.532829564970023e+000	 5.242484091779291e-001	 1.378328811633769e+001
 1.527243328748675e+000	 5.403061700465296e-001	 1.377003479409816e+001
 1.521474973867289e+000	 5.563424590100491e-001	 1.375729922582737e+001
 1.515524218042269e+000	 5.723543182919169e-001	 1.374564252257471e+001
 1.509390840313075e+000	 5.883387709997445e-001	 1.373575675618395e+001
 1.503074681881681e+000	 6.042928226477330e-001	 1.372848487474520e+001
 1.496575646908840e+000	 6.202134627154999e-001	 1.372484192756130e+001
 1.489893703265480e+000	 6.360976662419809e-001	 1.372603759320902e+001
 1.554872025307074e+000	 4.779343991337012e-001	 1.379127344044900e+001
 1.549809100873494e+000	 4.941053197772500e-001	 1.377946971318330e+001
 1.544564519028469e+000	 5.102634601179236e-001	 1.376713825720775e+001
 1.539137817065659e+000	 5.264059165778598e-001	 1.375453331640707e+001
 1.533528591082512e+000	 5.425297620303964e-001	 1.374198467675994e+001
 1.527736496942861e+000	 5.586320472117478e-001	 1.372991377619325e+001
 1.521761251201395e+000	 5.747098021728120e-001	 1.371885112508451e+001
 1.515602631988232e+000	 5.907600377699998e-001	 1.370945505673882e+001
 1.509260479851831e+000	 6.067797471939068e-001	 1.370253181976342e+001
 1.502734698558529e+000	 6.227659075345557e-001	 1.369905701615961e+001
 1.496025255847036e+000	 6.387154813818570e-001	 1.370019838016286e+001
 1.561244765034445e+000	 4.798932430032044e-001	 1.376111531105837e+001
 1.556161089889861e+000	 4.961304411711826e-001	 1.374998560935941e+001
 1.550895012799658e+000	 5.123548066554543e-001	 1.373835456931429e+001
 1.545446069161075e+000	 5.285634239776547e-001	 1.372645424218753e+001
 1.539813853416144e+000	 5.447533540141015e-001	 1.371458855191207e+001
 1.533998020018241e+000	 5.609216354132609e-001	 1.370314947928625e+001
 1.527998284360344e+000	 5.770652860535005e-001	 1.369263458849568e+001
 1.521814423663232e+000	 5.931813045400319e-001	 1.368366591718641e+001
 1.515446277821846e+000	 6.092666717398457e-001	 1.367701024380325e+001
 1.508893750208113e+000	 6.253183523533730e-001	 1.367360073767307e+001
 1.502156808428522e+000	 6.413332965214997e-001	 1.367455998837165e+001
 1.567617504761729e+000	 4.818520868726262e-001	 1.373162727806578e+001
 1.562513078906165e+000	 4.981555625650069e-001	 1.372117424991903e+001
 1.557225506570805e+000	 5.144461531928465e-001	 1.371024007575387e+001
 1.551754321256463e+000	 5.307209313772781e-001	 1.369903291127220e+001
 1.546099115749762e+000	 5.469769459976024e-001	 1.368782891391572e+001
 1.540259543093620e+000	 5.632112236145372e-001	 1.367698849716774e+001
 1.534235317519306e+000	 5.794207699339223e-001	 1.366697395950307e+001
 1.528026215338257e+000	 5.956025713097708e-001	 1.365836851117418e+001
 1.521632075791902e+000	 6.117535962854714e-001	 1.365189671440024e+001
 1.515052801857755e+000	 6.278707971718626e-001	 1.364844634415810e+001
 1.508288361010091e+000	 6.439511116608094e-001	 1.364909166768019e+001
 1.573990244489111e+000	 4.838109307419503e-001	 1.370278713556468e+001
 1.568865067922594e+000	 5.001806839587015e-001	 1.369301646574268e+001
 1.563556000342099e+000	 5.165374997300719e-001	 1.368277777116421e+001
 1.558062573352017e+000	 5.328784387766951e-001	 1.367225363633216e+001
 1.552384378083559e+000	 5.492005379808558e-001	 1.366169057490296e+001
 1.546521066169190e+000	 5.655008118155256e-001	 1.365141534969053e+001
 1.540472350678467e+000	 5.817762538140169e-001	 1.364185270028861e+001
 1.534238007013491e+000	 5.980238380791468e-001	 1.363354450352599e+001
 1.527817873762175e+000	 6.142405208307039e-001	 1.362717038423551e+001
 1.521211853507622e+000	 6.304232419899353e-001	 1.362356978531717e+001
 1.514419913591893e+000	 6.465689267996868e-001	 1.362376549682559e+001
 1.580362984216773e+000	 4.857697746111607e-001	 1.367457494173201e+001
 1.575217056939336e+000	 5.022058053522445e-001	 1.366549532239848e+001
 1.569886494113732e+000	 5.186288462671026e-001	 1.365595287129517e+001
 1.564370825447929e+000	 5.350359461758706e-001	 1.364610295382363e+001
 1.558669640417730e+000	 5.514241299638190e-001	 1.363616059012078e+001
 1.552782589245143e+000	 5.677904000161739e-001	 1.362641683619349e+001
 1.546709383838018e+000	 5.841317376937238e-001	 1.361725660629147e+001
 1.540449798689115e+000	 6.004451048480910e-001	 1.360917796382334e+001
 1.534003671732837e+000	 6.167274453754639e-001	 1.360281290027530e+001
 1.527370905157877e+000	 6.329756868075017e-001	 1.359894961295580e+001
 1.520551466174078e+000	 6.491867419380324e-001	 1.359855628298202e+001
 1.586735723944898e+000	 4.877286184802407e-001	 1.364697295632804e+001
 1.581569045956577e+000	 5.042309267456141e-001	 1.363859605520556e+001
 1.576216987885892e+000	 5.207201928039106e-001	 1.362975274532593e+001
 1.570679077544392e+000	 5.371934535747697e-001	 1.362056955325982e+001
 1.564954902752466e+000	 5.536477219464489e-001	 1.361122818386821e+001
 1.559044112321671e+000	 5.700799882164317e-001	 1.360198195782518e+001
 1.552946416998145e+000	 5.864872215729831e-001	 1.359317372464981e+001
 1.546661590365314e+000	 6.028663716165327e-001	 1.358525528070848e+001
 1.540189469704066e+000	 6.192143699196715e-001	 1.357880831368971e+001
 1.533529956808685e+000	 6.355281316244724e-001	 1.357456688628246e+001
 1.526683018756797e+000	 6.518045570757469e-001	 1.357344146221960e+001
 1.593108463673670e+000	 4.896874623491745e-001	 1.361996557870705e+001
 1.587921034974506e+000	 5.062560481387889e-001	 1.361230600481344e+001
 1.582547481658774e+000	 5.228115393404682e-001	 1.360416684871148e+001
 1.576987329641599e+000	 5.393509609733571e-001	 1.359564420703214e+001
 1.571240165087962e+000	 5.558713139287027e-001	 1.358688467601021e+001
 1.565305635398965e+000	 5.723695764162470e-001	 1.357810184047865e+001
 1.559183450159039e+000	 5.888427054517342e-001	 1.356959427329581e+001
 1.552873382042270e+000	 6.052876383844026e-001	 1.356176507688936e+001
 1.546375267676036e+000	 6.217012944632478e-001	 1.355514299052877e+001
 1.539689008460209e+000	 6.380805764407584e-001	 1.355040507802821e+001
 1.532814571340203e+000	 6.544223722127311e-001	 1.354840100085140e+001
 1.471499045518887e+000	 6.282442208219421e-001	 1.380511223092529e+001
 1.464720011230010e+000	 6.438909823881791e-001	 1.379655954609381e+001
 1.457760509832163e+000	 6.594957595617235e-001	 1.376457233520170e+001
 1.450620703404884e+000	 6.750555338987602e-001	 1.371409574355567e+001
 1.443300819400589e+000	 6.905672793443340e-001	 1.366158985333649e+001
 1.435801151140213e+000	 7.060279639552906e-001	 1.361037466495084e+001
 1.428122058255759e+000	 7.214345516481479e-001	 1.356161308629336e+001
 1.420263967078497e+000	 7.367840039700271e-001	 1.351643051933148e+001
 1.412227370971638e+000	 7.520732818907335e-001	 1.347591033025174e+001
 1.404012830606383e+000	 7.672993476139858e-001	 1.344108913832012e+001
 1.395620974180313e+000	 7.824591664057522e-001	 1.341295193388680e+001
 1.477630598101556e+000	 6.308620359619237e-001	 1.377845623749028e+001
 1.470823316424275e+000	 6.465739956277269e-001	 1.376990124795719e+001
 1.463834815654174e+000	 6.622437959570482e-001	 1.373741655633360e+001
 1.456665258546147e+000	 6.778684059286054e-001	 1.368818360421598e+001
 1.449314873500366e+000	 6.934447868782609e-001	 1.363803422093300e+001
 1.441783955059992e+000	 7.089698942291430e-001	 1.358895011909292e+001
 1.434072864355559e+000	 7.244406792467995e-001	 1.354205028006061e+001
 1.426182029494800e+000	 7.398540908175103e-001	 1.349841534635211e+001
 1.418111945896701e+000	 7.552070772478327e-001	 1.345908310128047e+001
 1.409863176568699e+000	 7.704965880833778e-001	 1.342504376305532e+001
 1.401436352325989e+000	 7.857195759447688e-001	 1.339723510360236e+001
 1.483762150683703e+000	 6.334798511019699e-001	 1.375211130795331e+001
 1.476926621618111e+000	 6.492570088673831e-001	 1.374341698550818e+001
 1.469909121475858e+000	 6.649918323525330e-001	 1.371027780923832e+001
 1.462709813687193e+000	 6.806812779586664e-001	 1.366286489284255e+001
 1.455328927600040e+000	 6.963222944124613e-001	 1.361504065398010e+001
 1.447766758979777e+000	 7.119118245033265e-001	 1.356803949035448e+001
 1.440023670455469e+000	 7.274468068458373e-001	 1.352293739617600e+001
 1.432100091911302e+000	 7.429241776654280e-001	 1.348077146811633e+001
 1.423996520822031e+000	 7.583408726054052e-001	 1.344253539618254e+001
 1.415713522531330e+000	 7.736938285532719e-001	 1.340917476416736e+001
 1.407251730471996e+000	 7.889799854843013e-001	 1.338158216975982e+001
 1.489893703265480e+000	 6.360976662419809e-001	 1.372603759320902e+001
 1.483029926811650e+000	 6.519400221070379e-001	 1.371706336990523e+001
 1.475983427297332e+000	 6.677398687480577e-001	 1.368315875763659e+001
 1.468754368828120e+000	 6.834941499888146e-001	 1.363812784244953e+001
 1.461342981699688e+000	 6.991998019467995e-001	 1.359259461264554e+001
 1.453749562899628e+000	 7.148537547776983e-001	 1.354762789511387e+001
 1.445974476555527e+000	 7.304529344451120e-001	 1.350426162550579e+001
 1.438018154328025e+000	 7.459942645136272e-001	 1.346349055558127e+001
 1.429881095747642e+000	 7.614746679632979e-001	 1.342626575705351e+001
 1.421563868494278e+000	 7.768910690235144e-001	 1.339348992951405e+001
 1.413067108618336e+000	 7.922403950241996e-001	 1.336601252232248e+001
 1.496025255847036e+000	 6.387154813818570e-001	 1.370019838016285e+001
 1.489133232005029e+000	 6.546230353465825e-001	 1.369080028795405e+001
 1.482057733118712e+000	 6.704879051435041e-001	 1.365650965531909e+001
 1.474798923969025e+000	 6.863070220189227e-001	 1.361396028091114e+001
 1.467357035799388e+000	 7.020773094811391e-001	 1.357068116775123e+001
 1.459732366819600e+000	 7.177956850521153e-001	 1.352770003844515e+001
 1.451925282655773e+000	 7.334590620444750e-001	 1.348600968792657e+001
 1.443936216744994e+000	 7.490643513619558e-001	 1.344656371137254e+001
 1.435765670673543e+000	 7.646084633213550e-001	 1.341027202277367e+001
 1.427414214457547e+000	 7.800883094939519e-001	 1.337799617147160e+001
 1.418882486765009e+000	 7.955008045643135e-001	 1.335054446632874e+001
 1.502156808428522e+000	 6.413332965214997e-001	 1.367455998837165e+001
 1.495236537198382e+000	 6.573060485859074e-001	 1.366459079391189e+001
 1.488132038940116e+000	 6.732359415387536e-001	 1.363044682155972e+001
 1.480843479110006e+000	 6.891198940488619e-001	 1.359034960620665e+001
 1.473371089899215e+000	 7.049548170153438e-001	 1.354928497601876e+001
 1.465715170739753e+000	 7.207376153264335e-001	 1.350824019011715e+001
 1.457876088756247e+000	 7.364651896437771e-001	 1.346816780982790e+001
 1.449854279162232e+000	 7.521344382102602e-001	 1.342998144953423e+001
 1.441650245599747e+000	 7.677422586794240e-001	 1.339455131174324e+001
 1.433264560421141e+000	 7.832855499644303e-001	 1.336269951338687e+001
 1.424697864912015e+000	 7.987612141044927e-001	 1.333519521278571e+001
 1.508288361010091e+000	 6.439511116608094e-001	 1.364909166768019e+001
 1.501339842391843e+000	 6.599890618249034e-001	 1.363840100235911e+001
 1.494206344761659e+000	 6.759839779336863e-001	 1.360496225326384e+001
 1.486888034251159e+000	 6.919327660785050e-001	 1.356728276281802e+001
 1.479385143999247e+000	 7.078323245492770e-001	 1.352839025648110e+001
 1.471697974660143e+000	 7.236795456005103e-001	 1.348923216175469e+001
 1.463826894856989e+000	 7.394713172428699e-001	 1.345072170275248e+001
 1.455772341579763e+000	 7.552045250583886e-001	 1.341373367637354e+001
 1.447534820526264e+000	 7.708760540373491e-001	 1.337910000565098e+001
 1.439114906385063e+000	 7.864827904347969e-001	 1.334760507698271e+001
 1.430513243059354e+000	 8.020216236445870e-001	 1.331998087041771e+001
 1.514419913591893e+000	 6.465689267996868e-001	 1.362376549682559e+001
 1.507443147585549e+000	 6.626720750634609e-001	 1.361219998210761e+001
 1.500280650583457e+000	 6.787320143281838e-001	 1.358004741999961e+001
 1.492932589392580e+000	 6.947456381077229e-001	 1.354474621924713e+001
 1.485399198099562e+000	 7.107098320828028e-001	 1.350798076802791e+001
 1.477680778580827e+000	 7.266214758742019e-001	 1.347065928512790e+001
 1.469777700958038e+000	 7.424774448416041e-001	 1.343365654314180e+001
 1.461690403997612e+000	 7.582746119061881e-001	 1.339780967236915e+001
 1.453419395453107e+000	 7.740098493949766e-001	 1.336391373424654e+001
 1.444965252349315e+000	 7.896800309048969e-001	 1.333271707068958e+001
 1.436328621207025e+000	 8.052820331844464e-001	 1.330491643824489e+001
 1.520551466174078e+000	 6.491867419380324e-001	 1.359855628298202e+001
 1.513546452779633e+000	 6.653550883014709e-001	 1.358595965111731e+001
 1.506354956405627e+000	 6.814800507221271e-001	 1.355569324326450e+001
 1.498977144534367e+000	 6.975585101363886e-001	 1.352272594662128e+001
 1.491413252200236e+000	 7.135873396157850e-001	 1.348803978805247e+001
 1.483663582501865e+000	 7.295634061473652e-001	 1.345250439153853e+001
 1.475728507059432e+000	 7.454835724398310e-001	 1.341695695315580e+001
 1.467608466415802e+000	 7.613446987535060e-001	 1.338219807511361e+001
 1.459303970380288e+000	 7.771436447521523e-001	 1.334898736108890e+001
 1.450815598313903e+000	 7.928772713745778e-001	 1.331803877887736e+001
 1.442143999355031e+000	 8.085424427239210e-001	 1.329001579896900e+001
 1.526683018756797e+000	 6.518045570757469e-001	 1.357344146221960e+001
 1.519649757974229e+000	 6.680381015388242e-001	 1.355973922591182e+001
 1.512429262228287e+000	 6.842280871153971e-001	 1.353189007677887e+001
 1.505021699676617e+000	 7.003713821643733e-001	 1.350120739835663e+001
 1.497427306301345e+000	 7.164648471480870e-001	 1.346855009216870e+001
 1.489646386423312e+000	 7.325053364198568e-001	 1.343474979227205e+001
 1.481679313161213e+000	 7.484897000374020e-001	 1.340060698253650e+001
 1.473526528834358e+000	 7.644147856001899e-001	 1.336688686326010e+001
 1.465188545307817e+000	 7.802774401087216e-001	 1.333431497024277e+001
 1.456665944278828e+000	 7.960745118436855e-001	 1.330357255196153e+001
 1.447959377503370e+000	 8.118028522628601e-001	 1.327529171314336e+001
 1.532814571340203e+000	 6.544223722127311e-001	 1.354840100085140e+001
 1.525753063169474e+000	 6.707211147754112e-001	 1.353403050985111e+001
 1.518503568051552e+000	 6.869761235078752e-001	 1.350862768777823e+001
 1.511066254819426e+000	 7.031842541915490e-001	 1.348017549084908e+001
 1.503441360402968e+000	 7.193423546795729e-001	 1.344949393496907e+001
 1.495629190345228e+000	 7.354472666915337e-001	 1.341737726008593e+001
 1.487630119263421e+000	 7.514958276341680e-001	 1.338459009148640e+001
 1.479444591253303e+000	 7.674848724460874e-001	 1.335186334144604e+001
 1.471073120235707e+000	 7.834112354645308e-001	 1.331988985389691e+001
 1.462516290244094e+000	 7.992717523120667e-001	 1.328931979735992e+001
 1.453774755652043e+000	 8.150632618011136e-001	 1.326075581410516e+001
 1.395620974180313e+000	 7.824591664057522e-001	 1.341295193388680e+001
 1.387051199153357e+000	 7.975519670414789e-001	 1.338439928014205e+001
 1.378305516103771e+000	 8.125724465820544e-001	 1.334801268354990e+001
 1.369384758037725e+000	 8.275175901418119e-001	 1.330425993557479e+001
 1.360289825796497e+000	 8.423843933767854e-001	 1.325362453735134e+001
 1.351021687972676e+000	 8.571698643667016e-001	 1.319660159765108e+001
 1.341581380764360e+000	 8.718710255006921e-001	 1.313369353042269e+001
 1.331970007767004e+000	 8.864849153643604e-001	 1.306542452885850e+001
 1.322188739702620e+000	 9.010085906258275e-001	 1.299350982853899e+001
 1.312238814086172e+000	 9.154391279183470e-001	 1.291901148978685e+001
 1.302121534829085e+000	 9.297736257170631e-001	 1.284208141696847e+001
 1.401436352325989e+000	 7.857195759447688e-001	 1.339723510360236e+001
 1.392830868117783e+000	 8.008752663938653e-001	 1.336887659191678e+001
 1.384048742900173e+000	 8.159583343948758e-001	 1.333290200826304e+001
 1.375090813150366e+000	 8.309657524994859e-001	 1.328978165367583e+001
 1.365957983463345e+000	 8.458945038450078e-001	 1.324000180030578e+001
 1.356651226467707e+000	 8.607415840442136e-001	 1.318406048969795e+001
 1.347171582679268e+000	 8.755040030789069e-001	 1.312246312336712e+001
 1.337520160292034e+000	 8.901787871948502e-001	 1.305571786832621e+001
 1.327698134906279e+000	 9.047629807956737e-001	 1.298466521229245e+001
 1.317706749193543e+000	 9.192536483333296e-001	 1.291125788145445e+001
 1.307547312498496e+000	 9.336478761926755e-001	 1.283588409675048e+001
 1.407251730471996e+000	 7.889799854843013e-001	 1.338158216975982e+001
 1.398610537082528e+000	 8.041985657467651e-001	 1.335330171017688e+001
 1.389791969696849e+000	 8.193442222081938e-001	 1.331762483531149e+001
 1.380796868263218e+000	 8.344139148576278e-001	 1.327502601121346e+001
 1.371626141130321e+000	 8.494046143136590e-001	 1.322599586019297e+001
 1.362280764962774e+000	 8.643133037221088e-001	 1.317103685496188e+001
 1.352761784594115e+000	 8.791369806574538e-001	 1.311065879771754e+001
 1.343070312816907e+000	 8.938726590256205e-001	 1.304537410721870e+001
 1.333207530109690e+000	 9.085173709657479e-001	 1.297569303393726e+001
 1.323174684300590e+000	 9.230681687484917e-001	 1.290319307846737e+001
 1.312973090167526e+000	 9.375221266684231e-001	 1.282920159041075e+001
 1.413067108618336e+000	 7.922403950241996e-001	 1.336601252232248e+001
 1.404390206047592e+000	 8.075218651000345e-001	 1.333770645953486e+001
 1.395535196493812e+000	 8.227301100218739e-001	 1.330222473129659e+001
 1.386502923376301e+000	 8.378620772161132e-001	 1.326004760888842e+001
 1.377294298797461e+000	 8.529147247826278e-001	 1.321167162977365e+001
 1.367910303457928e+000	 8.678850234002892e-001	 1.315760518317152e+001
 1.358351986508967e+000	 8.827699582362498e-001	 1.309836387313566e+001
 1.348620465341704e+000	 8.975665308566001e-001	 1.303446568259093e+001
 1.338716925312952e+000	 9.122717611359928e-001	 1.296642596451354e+001
 1.328642619407423e+000	 9.268826891637870e-001	 1.289498814468517e+001
 1.318398867836291e+000	 9.413963771442714e-001	 1.282220734918358e+001
 1.418882486765009e+000	 7.955008045643135e-001	 1.335054446632874e+001
 1.410169875012980e+000	 8.108451644535302e-001	 1.332212135795887e+001
 1.401278423291070e+000	 8.261159978357805e-001	 1.328674374712569e+001
 1.392208978489639e+000	 8.413102395748180e-001	 1.324489933553377e+001
 1.382962456464800e+000	 8.564248352518021e-001	 1.319709212684808e+001
 1.373539841953220e+000	 8.714567430786561e-001	 1.314383789928796e+001
 1.363942188423892e+000	 8.864029358152089e-001	 1.308565944819985e+001
 1.354170617866511e+000	 9.012604026877193e-001	 1.302308162247516e+001
 1.344226320516161e+000	 9.160261513063513e-001	 1.295662618149203e+001
 1.334110554514149e+000	 9.306972095791719e-001	 1.288680650199092e+001
 1.323824645504908e+000	 9.452706276201872e-001	 1.281507440880035e+001
 1.424697864912015e+000	 7.987612141044927e-001	 1.333519521278571e+001
 1.415949543978694e+000	 8.141684638071076e-001	 1.330657561232142e+001
 1.407021650088633e+000	 8.295018856497785e-001	 1.327122241791870e+001
 1.397915033603250e+000	 8.447584019336178e-001	 1.322963237207440e+001
 1.388630614132374e+000	 8.599349457210699e-001	 1.318231848195879e+001
 1.379169380448703e+000	 8.750284627571104e-001	 1.312980537463578e+001
 1.369532390338960e+000	 8.900359133942477e-001	 1.307262441464306e+001
 1.359720770391410e+000	 9.049542745189065e-001	 1.301130860821971e+001
 1.349735715719415e+000	 9.197805414767666e-001	 1.294638732136409e+001
 1.339578489620878e+000	 9.345117299946012e-001	 1.287838084171719e+001
 1.329250423173492e+000	 9.491448780961367e-001	 1.280797524745747e+001
 1.430513243059354e+000	 8.020216236445870e-001	 1.331998087041771e+001
 1.421729212944737e+000	 8.174917631606233e-001	 1.329109711469849e+001
 1.412764876886513e+000	 8.328877734637328e-001	 1.325569976356597e+001
 1.403621088717157e+000	 8.482065642923887e-001	 1.321429619604692e+001
 1.394298771800219e+000	 8.634450561903191e-001	 1.316740994656864e+001
 1.384798918944425e+000	 8.786001824355540e-001	 1.311557593843055e+001
 1.375122592254236e+000	 8.936688909732813e-001	 1.305933547191676e+001
 1.365270922916484e+000	 9.086481463500917e-001	 1.299923099176995e+001
 1.355245110922812e+000	 9.235349316471814e-001	 1.293580066172260e+001
 1.345046424727719e+000	 9.383262504100308e-001	 1.286957277667933e+001
 1.334676200842162e+000	 9.530191285720863e-001	 1.280106004592763e+001
 1.436328621207025e+000	 8.052820331844464e-001	 1.330491643824489e+001
 1.427508881911111e+000	 8.208150625139330e-001	 1.327571243939716e+001
 1.418508103684719e+000	 8.362736612775090e-001	 1.324021328991970e+001
 1.409327143831382e+000	 8.516547266510055e-001	 1.319893858666326e+001
 1.399966929468371e+000	 8.669551666594381e-001	 1.315242390170063e+001
 1.390428457440441e+000	 8.821719021138889e-001	 1.310121588969224e+001
 1.380712794169788e+000	 8.973018685522239e-001	 1.304586714207057e+001
 1.370821075441817e+000	 9.123420181812034e-001	 1.298693081320312e+001
 1.360754506126449e+000	 9.272893218175381e-001	 1.292495504675648e+001
 1.350514359834781e+000	 9.421407708254155e-001	 1.286047723346491e+001
 1.340101978511031e+000	 9.568933790480022e-001	 1.279401813437360e+001
 1.442143999355031e+000	 8.085424427239210e-001	 1.329001579896900e+001
 1.433288550877820e+000	 8.241383618668932e-001	 1.326044684069127e+001
 1.424251330483261e+000	 8.396595490909711e-001	 1.322479899060077e+001
 1.415033198945946e+000	 8.551028890093451e-001	 1.318360563040371e+001
 1.405635087136863e+000	 8.704652771283146e-001	 1.313741586702580e+001
 1.396057995936800e+000	 8.857436217920154e-001	 1.308678950953311e+001
 1.386302996085685e+000	 9.009348461309924e-001	 1.303229178493955e+001
 1.376371227967492e+000	 9.160358900121718e-001	 1.297448781850984e+001
 1.366263901330424e+000	 9.310437119877798e-001	 1.291393690731726e+001
 1.355982294942172e+000	 9.459552912407105e-001	 1.285118661888165e+001
 1.345527756180218e+000	 9.607676295238505e-001	 1.278676674966547e+001
 1.447959377503370e+000	 8.118028522628601e-001	 1.327529171314336e+001
 1.439068219844865e+000	 8.274616612193595e-001	 1.324532425124574e+001
 1.429994557282150e+000	 8.430454369039845e-001	 1.320949134940352e+001
 1.420739254060870e+000	 8.585510513672825e-001	 1.316834172712339e+001
 1.411303244805733e+000	 8.739753875968371e-001	 1.312243951038767e+001
 1.401687534433554e+000	 8.893153414698360e-001	 1.307235907381006e+001
 1.391893198001993e+000	 9.045678237095013e-001	 1.301867961363037e+001
 1.381921380493594e+000	 9.197297618429259e-001	 1.296197947761537e+001
 1.371773296534834e+000	 9.347981021578489e-001	 1.290283028117277e+001
 1.361450230050001e+000	 9.497698116558712e-001	 1.284179084213727e+001
 1.350953533849838e+000	 9.646418799995978e-001	 1.277940096972970e+001
 1.453774755652043e+000	 8.150632618011136e-001	 1.326075581410515e+001
 1.444847888812251e+000	 8.307849605711887e-001	 1.323036728120942e+001
 1.435737784081395e+000	 8.464313247164139e-001	 1.319432334328219e+001
 1.426445309176177e+000	 8.619992137246938e-001	 1.315318959665887e+001
 1.416971402475017e+000	 8.774854980648936e-001	 1.310754665775023e+001
 1.407317072930754e+000	 8.928870611472519e-001	 1.305798486613079e+001
 1.397483399918780e+000	 9.082008012876665e-001	 1.300509871029741e+001
 1.387471533020204e+000	 9.234236336733949e-001	 1.294948100263368e+001
 1.377282691739777e+000	 9.385524923276887e-001	 1.289171683344262e+001
 1.366918165158378e+000	 9.535843320708535e-001	 1.283237733715636e+001
 1.356379311520008e+000	 9.685161304752106e-001	 1.277201330695738e+001
 1.302121534829085e+000	 9.297736257170631e-001	 1.284208141696847e+001
 1.291838271412590e+000	 9.440092058928340e-001	 1.276485069277334e+001
 1.281390457273991e+000	 9.581430146068060e-001	 1.268881426036842e+001
 1.270779590343483e+000	 9.721722250661671e-001	 1.261289513391950e+001
 1.260007232770287e+000	 9.860940396648253e-001	 1.253580910003640e+001
 1.249075010217361e+000	 9.999056917964071e-001	 1.245607576507719e+001
 1.237984611095045e+000	 1.013604447646933e+000	 1.237203177542021e+001
 1.226737785734286e+000	 1.027187607964766e+000	 1.228184511467321e+001
 1.215336345500255e+000	 1.040652509805476e+000	 1.218353228588962e+001
 1.203782161847228e+000	 1.053996528249277e+000	 1.207497667964463e+001
 1.192077165315749e+000	 1.067217078088745e+000	 1.195394851943446e+001
 1.307547312498496e+000	 9.336478761926755e-001	 1.283588409675048e+001
 1.297221200008832e+000	 9.479427742517655e-001	 1.276039473835602e+001
 1.286729851134805e+000	 9.621354767801472e-001	 1.268599014687786e+001
 1.276074770048297e+000	 9.762231452061034e-001	 1.261160327105002e+001
 1.265257525407802e+000	 9.902029702662547e-001	 1.253595561930276e+001
 1.254279749650210e+000	 1.004072173826112e+000	 1.245756849810019e+001
 1.243143138221249e+000	 1.017828010680223e+000	 1.237477658491784e+001
 1.231849448745274e+000	 1.031467770329494e+000	 1.228574206647276e+001
 1.220400500135180e+000	 1.044988778733324e+000	 1.218847291359633e+001
 1.208798171643360e+000	 1.058388400034204e+000	 1.208084112457118e+001
 1.197044401854670e+000	 1.071664038252461e+000	 1.196060326184982e+001
 1.312973090167526e+000	 9.375221266684231e-001	 1.282920159041075e+001
 1.302604128604659e+000	 9.518763426107960e-001	 1.275529505044957e+001
 1.292069244995194e+000	 9.661279389535573e-001	 1.268238392925149e+001
 1.281369949752692e+000	 9.802740653460861e-001	 1.260941129518019e+001
 1.270507818044919e+000	 9.943119008677132e-001	 1.253510431585274e+001
 1.259484489082694e+000	 1.008238655855835e+000	 1.245798569043535e+001
 1.248301665347130e+000	 1.022051573713523e+000	 1.237638756781206e+001
 1.236961111755985e+000	 1.035747932694226e+000	 1.228846558186569e+001
 1.225464654769880e+000	 1.049325047661174e+000	 1.219221814856934e+001
 1.213814181439313e+000	 1.062780271819132e+000	 1.208550464771697e+001
 1.202011638393457e+000	 1.076110998416176e+000	 1.196606654740871e+001
 1.318398867836291e+000	 9.413963771442714e-001	 1.282220734918358e+001
 1.307987057200190e+000	 9.558099109698998e-001	 1.274972696090455e+001
 1.297408638855273e+000	 9.701204011270199e-001	 1.267817246499927e+001
 1.286665129456777e+000	 9.843249854861029e-001	 1.260649725500215e+001
 1.275758110681742e+000	 9.984208314691937e-001	 1.253343411176150e+001
 1.264689228514906e+000	 1.012405137885569e+000	 1.245750715243390e+001
 1.253460192472771e+000	 1.026275136746828e+000	 1.237704448817590e+001
 1.242072774766491e+000	 1.040028095058960e+000	 1.229019540719166e+001
 1.230528809404411e+000	 1.053661316589025e+000	 1.219494743085543e+001
 1.218830191235135e+000	 1.067172143604060e+000	 1.208914609257810e+001
 1.206978874932142e+000	 1.080557958579892e+000	 1.197051632773300e+001
 1.323824645504908e+000	 9.452706276201872e-001	 1.281507440880035e+001
 1.313369985795545e+000	 9.597434793290529e-001	 1.274386523535604e+001
 1.302748032715160e+000	 9.741128633005165e-001	 1.267353191863308e+001
 1.291960309160667e+000	 9.883759056261438e-001	 1.260303840342361e+001
 1.281008403318373e+000	 1.002529762070689e+000	 1.253112305451597e+001
 1.269893967946941e+000	 1.016571619915313e+000	 1.245631090664259e+001
 1.258618719598252e+000	 1.030498699780137e+000	 1.237692614933082e+001
 1.247184437776860e+000	 1.044308257423696e+000	 1.229111032030968e+001
 1.235592964038830e+000	 1.057997585516876e+000	 1.219683924743241e+001
 1.223846201030866e+000	 1.071564015388988e+000	 1.209194338773186e+001
 1.211946111470761e+000	 1.085004918743608e+000	 1.197412969993675e+001
 1.329250423173492e+000	 9.491448780961367e-001	 1.280797524745747e+001
 1.318752914390841e+000	 9.636770476882306e-001	 1.273788393195018e+001
 1.308087426574972e+000	 9.781053254740306e-001	 1.266863762111172e+001
 1.297255488864473e+000	 9.924268257661957e-001	 1.259921105769384e+001
 1.286258695954919e+000	 1.006638692672191e+000	 1.252834817778784e+001
 1.275098707378892e+000	 1.020738101945060e+000	 1.245457465316572e+001
 1.263777246723657e+000	 1.034722262813450e+000	 1.237621025582697e+001
 1.252296100787163e+000	 1.048588419788433e+000	 1.229138799314080e+001
 1.240657118673191e+000	 1.062333854444727e+000	 1.219807099529096e+001
 1.228862210826554e+000	 1.075955887173916e+000	 1.209407341043481e+001
 1.216913348009347e+000	 1.089451878907324e+000	 1.197708277071996e+001
 1.334676200842162e+000	 9.530191285720863e-001	 1.280106004592763e+001
 1.324135842986200e+000	 9.676106160474087e-001	 1.273195626014452e+001
 1.313426820434828e+000	 9.820977876475449e-001	 1.266366392932802e+001
 1.302550668568309e+000	 9.964777459062482e-001	 1.259519045954593e+001
 1.291508988591483e+000	 1.010747623273693e+000	 1.252528584403274e+001
 1.280303446810855e+000	 1.024904583974808e+000	 1.245247467893713e+001
 1.268935773849067e+000	 1.038945825846762e+000	 1.237507327539271e+001
 1.257407763797467e+000	 1.052868582153170e+000	 1.229120485417367e+001
 1.245721273307554e+000	 1.066670123372579e+000	 1.219881884447637e+001
 1.233878220622241e+000	 1.080347758958844e+000	 1.209571185018381e+001
 1.221880584547932e+000	 1.093898839071040e+000	 1.197955052043187e+001
 1.340101978511031e+000	 9.568933790480022e-001	 1.279401813437360e+001
 1.329518771581738e+000	 9.715441844065615e-001	 1.272625443958122e+001
 1.318766214294844e+000	 9.860902498210419e-001	 1.265878408563818e+001
 1.307845848272286e+000	 1.000528666046288e+000	 1.259115063535593e+001
 1.296759281228171e+000	 1.014856553875189e+000	 1.252210976957685e+001
 1.285508186242921e+000	 1.029071066004551e+000	 1.245018592545210e+001
 1.274094300974564e+000	 1.043169388880072e+000	 1.237369030085209e+001
 1.262519426807842e+000	 1.057148744517906e+000	 1.229073595093183e+001
 1.250785427941975e+000	 1.071006392300430e+000	 1.219925760109183e+001
 1.238894230417973e+000	 1.084739630743772e+000	 1.209703307224102e+001
 1.226847821086551e+000	 1.098345799234756e+000	 1.198170666710654e+001
 1.345527756180218e+000	 9.607676295238505e-001	 1.278676674966547e+001
 1.334901700177577e+000	 9.754777527656657e-001	 1.272092020169819e+001
 1.324105608155139e+000	 9.900827119945039e-001	 1.265417007743141e+001
 1.313141027976517e+000	 1.004579586186306e+000	 1.258726425631695e+001
 1.302009573865084e+000	 1.018965484476669e+000	 1.251899349022736e+001
 1.290712925675187e+000	 1.033237548034286e+000	 1.244788185009930e+001
 1.279252828100232e+000	 1.047392951913377e+000	 1.237223491201275e+001
 1.267631089818360e+000	 1.061428906882640e+000	 1.229015481240565e+001
 1.255849582576509e+000	 1.075342661228281e+000	 1.219956057026331e+001
 1.243910240213795e+000	 1.089131502528700e+000	 1.209820998112411e+001
 1.231815057625237e+000	 1.102792759398472e+000	 1.198372353046926e+001
 1.350953533849838e+000	 9.646418799995978e-001	 1.277940096972970e+001
 1.340284628773834e+000	 9.794113211246958e-001	 1.271563326510674e+001
 1.329445002015830e+000	 9.940751741679142e-001	 1.264999249673902e+001
 1.318436207681113e+000	 1.008630506326288e+000	 1.258370249862917e+001
 1.307259866502329e+000	 1.023074415078128e+000	 1.251610859271947e+001
 1.295917665107744e+000	 1.037404030064008e+000	 1.244573428747386e+001
 1.284411355226151e+000	 1.051616514946676e+000	 1.237087903752426e+001
 1.272742752829088e+000	 1.065709069247372e+000	 1.228963331144829e+001
 1.260913737211214e+000	 1.079678930156131e+000	 1.219989941906816e+001
 1.248926250009749e+000	 1.093523374313627e+000	 1.209941388406198e+001
 1.236782294164024e+000	 1.107239719562188e+000	 1.198577189591771e+001
 1.356379311520008e+000	 9.685161304752106e-001	 1.277201330695738e+001
 1.345667557370631e+000	 9.833448894836275e-001	 1.271033281190117e+001
 1.334784395877035e+000	 9.980676363412555e-001	 1.264639531031764e+001
 1.323731387386189e+000	 1.012681426466225e+000	 1.258063565399457e+001
 1.312510159140009e+000	 1.027183345679557e+000	 1.251362495373879e+001
 1.301122404540689e+000	 1.041570512093714e+000	 1.244391331067192e+001
 1.289569882352404e+000	 1.055840077979967e+000	 1.236979281670795e+001
 1.277854415840096e+000	 1.069989231612100e+000	 1.228934152713790e+001
 1.265977891846146e+000	 1.084015199083979e+000	 1.220044403942749e+001
 1.253942259805881e+000	 1.097915246098555e+000	 1.210081435441783e+001
 1.241749530702945e+000	 1.111686679725904e+000	 1.198802087847510e+001
 1.192077165315749e+000	 1.067217078088745e+000	 1.195394851943446e+001
 1.180225133691511e+000	 1.080309661145249e+000	 1.183027457195895e+001
 1.168226368000712e+000	 1.093273770847345e+000	 1.171365534718050e+001
 1.156082969537323e+000	 1.106106953056207e+000	 1.160163045453136e+001
 1.143797094061159e+000	 1.118806799749355e+000	 1.149172355989055e+001
 1.131370950524538e+000	 1.131370950524538e+000	 1.138146762238096e+001
 1.118806799749355e+000	 1.143797094061159e+000	 1.126843074466375e+001
 1.106106953056207e+000	 1.156082969537324e+000	 1.115024244142147e+001
 1.093273770847345e+000	 1.168226368000712e+000	 1.102462012408052e+001
 1.080309661145249e+000	 1.180225133691511e+000	 1.088939559474098e+001
 1.067217078088744e+000	 1.192077165315749e+000	 1.074254133881413e+001
 1.197044401854670e+000	 1.071664038252461e+000	 1.196060326184982e+001
 1.185142984296360e+000	 1.084811176466104e+000	 1.183764905780959e+001
 1.173094221248963e+000	 1.097829305992875e+000	 1.172176739646391e+001
 1.160900222762272e+000	 1.110715962467861e+000	 1.161052026955927e+001
 1.148563153578878e+000	 1.123468727834659e+000	 1.150145370428024e+001
 1.136085231855524e+000	 1.136085231855524e+000	 1.139212355958841e+001
 1.123468727834659e+000	 1.148563153578878e+000	 1.128012196038911e+001
 1.110715962467860e+000	 1.160900222762272e+000	 1.116310416941753e+001
 1.097829305992875e+000	 1.173094221248962e+000	 1.103881568987405e+001
 1.084811176466104e+000	 1.185142984296360e+000	 1.090511938656831e+001
 1.071664038252461e+000	 1.197044401854670e+000	 1.076002240972048e+001
 1.202011638393457e+000	 1.076110998416176e+000	 1.196606654740870e+001
 1.190060834901111e+000	 1.089312691786960e+000	 1.184385553112620e+001
 1.177962074497144e+000	 1.102384841138404e+000	 1.172874730482645e+001
 1.165717475987175e+000	 1.115324971879510e+000	 1.161832376934062e+001
 1.153329213096569e+000	 1.128130655919955e+000	 1.151015074918104e+001
 1.140799513186493e+000	 1.140799513186493e+000	 1.140180436557287e+001
 1.128130655919955e+000	 1.153329213096568e+000	 1.129089807248563e+001
 1.115324971879511e+000	 1.165717475987175e+000	 1.117511015065341e+001
 1.102384841138404e+000	 1.177962074497144e+000	 1.105221144747108e+001
 1.089312691786960e+000	 1.190060834901111e+000	 1.092009314520236e+001
 1.076110998416176e+000	 1.202011638393457e+000	 1.077679433617015e+001
 1.206978874932142e+000	 1.080557958579892e+000	 1.197051632773299e+001
 1.194978685505789e+000	 1.093814207107816e+000	 1.184907100183389e+001
 1.182829927745275e+000	 1.106940376283932e+000	 1.173477133753322e+001
 1.170534729212043e+000	 1.119933981291159e+000	 1.162521666407103e+001
 1.158095272614237e+000	 1.132792584005244e+000	 1.151799002877200e+001
 1.145513794517449e+000	 1.145513794517449e+000	 1.141068516415688e+001
 1.132792584005244e+000	 1.158095272614237e+000	 1.130093414409302e+001
 1.119933981291158e+000	 1.170534729212043e+000	 1.118643551894861e+001
 1.106940376283932e+000	 1.182829927745275e+000	 1.106498271239092e+001
 1.093814207107815e+000	 1.194978685505789e+000	 1.093449245681019e+001
 1.080557958579892e+000	 1.206978874932142e+000	 1.079303304043869e+001
 1.211946111470761e+000	 1.085004918743608e+000	 1.197412969993675e+001
 1.199896536110419e+000	 1.098315722428671e+000	 1.185347170330227e+001
 1.187697780993371e+000	 1.111495911429459e+000	 1.174001507394084e+001
 1.175351982436888e+000	 1.124542990702804e+000	 1.163137408058406e+001
 1.162861332131892e+000	 1.137454512090529e+000	 1.152514640746380e+001
 1.150228075848397e+000	 1.150228075848397e+000	 1.141894073313422e+001
 1.137454512090529e+000	 1.162861332131891e+000	 1.131040502525081e+001
 1.124542990702804e+000	 1.175351982436888e+000	 1.119725533614350e+001
 1.111495911429459e+000	 1.187697780993371e+000	 1.107730487644684e+001
 1.098315722428672e+000	 1.199896536110419e+000	 1.094849313820074e+001
 1.085004918743608e+000	 1.211946111470761e+000	 1.080891483475641e+001
 1.216913348009347e+000	 1.089451878907324e+000	 1.197708277071996e+001
 1.204814386715023e+000	 1.102817237749527e+000	 1.185723295699862e+001
 1.192565634241450e+000	 1.116051446574986e+000	 1.174465327286214e+001
 1.180169235661721e+000	 1.129152000114449e+000	 1.163697042858282e+001
 1.167627391649538e+000	 1.142116440175812e+000	 1.153179414715591e+001
 1.154942357179341e+000	 1.154942357179341e+000	 1.142674537270768e+001
 1.142116440175812e+000	 1.167627391649538e+000	 1.131948522268058e+001
 1.129152000114449e+000	 1.180169235661721e+000	 1.120774446338624e+001
 1.116051446574986e+000	 1.192565634241450e+000	 1.108935328069986e+001
 1.102817237749527e+000	 1.204814386715024e+000	 1.096227111160771e+001
 1.089451878907324e+000	 1.216913348009347e+000	 1.082461629808348e+001
 1.221880584547932e+000	 1.093898839071040e+000	 1.197955052043187e+001
 1.209732237319628e+000	 1.107318753070382e+000	 1.186052903712111e+001
 1.197433487489529e+000	 1.120606981720514e+000	 1.174885973792220e+001
 1.184986488886555e+000	 1.133761009526094e+000	 1.164217926687299e+001
 1.172393451167185e+000	 1.146778368261094e+000	 1.153810677450250e+001
 1.159656638510284e+000	 1.159656638510284e+000	 1.143427277394959e+001
 1.146778368261095e+000	 1.172393451167185e+000	 1.132834876959797e+001
 1.133761009526094e+000	 1.184986488886555e+000	 1.121807743245890e+001
 1.120606981720514e+000	 1.197433487489529e+000	 1.110130308846033e+001
 1.107318753070383e+000	 1.209732237319629e+000	 1.097600227952924e+001
 1.093898839071040e+000	 1.221880584547932e+000	 1.084031415294783e+001
 1.226847821086551e+000	 1.098345799234756e+000	 1.198170666710654e+001
 1.214650087924258e+000	 1.111820268391238e+000	 1.186353303521386e+001
 1.202301340737625e+000	 1.125162516866041e+000	 1.175280718290525e+001
 1.189803742111400e+000	 1.138370018937739e+000	 1.164717316959659e+001
 1.177159510684839e+000	 1.151440296346380e+000	 1.154425694819063e+001
 1.164370919841233e+000	 1.164370919841232e+000	 1.144169588728137e+001
 1.151440296346380e+000	 1.177159510684839e+000	 1.133716909555543e+001
 1.138370018937740e+000	 1.189803742111400e+000	 1.122842831714225e+001
 1.125162516866041e+000	 1.202301340737625e+000	 1.111332915833604e+001
 1.111820268391238e+000	 1.214650087924257e+000	 1.098986239961930e+001
 1.098345799234756e+000	 1.226847821086551e+000	 1.085618514234228e+001
 1.231815057625237e+000	 1.102792759398472e+000	 1.198372353046926e+001
 1.219567938528936e+000	 1.116321783712094e+000	 1.186641672476307e+001
 1.207169193985755e+000	 1.129718052011569e+000	 1.175666709709239e+001
 1.194620995336268e+000	 1.142979028349387e+000	 1.165212359246674e+001
 1.181925570202508e+000	 1.156102224431669e+000	 1.155041632622835e+001
 1.169085201172189e+000	 1.169085201172189e+000	 1.144918679097411e+001
 1.156102224431669e+000	 1.181925570202508e+000	 1.134611889631331e+001
 1.142979028349387e+000	 1.194620995336268e+000	 1.123897060461820e+001
 1.129718052011569e+000	 1.207169193985755e+000	 1.112560591732541e+001
 1.116321783712094e+000	 1.219567938528936e+000	 1.100402695963239e+001
 1.102792759398472e+000	 1.231815057625237e+000	 1.087240590667931e+001
 1.236782294164024e+000	 1.107239719562188e+000	 1.198577189591771e+001
 1.224485789133687e+000	 1.120823299032949e+000	 1.186935042577564e+001
 1.212037047233937e+000	 1.134273587157098e+000	 1.176060961059176e+001
 1.199438248561171e+000	 1.147588037761037e+000	 1.165720073900370e+001
 1.186691629720198e+000	 1.160764152516964e+000	 1.155675543324373e+001
 1.173799482503158e+000	 1.173799482503158e+000	 1.145691655966759e+001
 1.160764152516964e+000	 1.186691629720198e+000	 1.135537000373870e+001
 1.147588037761037e+000	 1.199438248561170e+000	 1.124987706690763e+001
 1.134273587157098e+000	 1.212037047233937e+000	 1.113830723395446e+001
 1.120823299032949e+000	 1.224485789133687e+000	 1.101867105241841e+001
 1.107239719562188e+000	 1.236782294164024e+000	 1.088915286080226e+001
 1.241749530702945e+000	 1.111686679725904e+000	 1.198802087847510e+001
 1.229403639738536e+000	 1.125324814353805e+000	 1.187250286934027e+001
 1.216904900482188e+000	 1.138829122302628e+000	 1.176480335965930e+001
 1.204255501786119e+000	 1.152197047172691e+000	 1.166257342677112e+001
 1.191457689237918e+000	 1.165426080602269e+000	 1.156344352779312e+001
 1.178513763834143e+000	 1.178513763834143e+000	 1.146505513290927e+001
 1.165426080602269e+000	 1.191457689237918e+000	 1.136509325573261e+001
 1.152197047172691e+000	 1.204255501786119e+000	 1.126131963234446e+001
 1.138829122302628e+000	 1.216904900482188e+000	 1.115160629145637e+001
 1.125324814353805e+000	 1.229403639738537e+000	 1.103396925096620e+001
 1.111686679725904e+000	 1.241749530702945e+000	 1.090660207105150e+001
 1.067217078088744e+000	 1.192077165315749e+000	 1.074254133881413e+001
 1.053996528249277e+000	 1.203782161847228e+000	 1.059013612547832e+001
 1.040652509805476e+000	 1.215336345500255e+000	 1.043843718738510e+001
 1.027187607964766e+000	 1.226737785734287e+000	 1.028591159329299e+001
 1.013604447646933e+000	 1.237984611095045e+000	 1.013127784707377e+001
 9.999056917964071e-001	 1.249075010217361e+000	 9.973517892411358e+000
 9.860940396648253e-001	 1.260007232770287e+000	 9.811936091115367e+000
 9.721722250661673e-001	 1.270779590343483e+000	 9.646121623423257e+000
 9.581430146068056e-001	 1.281390457273991e+000	 9.476002075173231e+000
 9.440092058928338e-001	 1.291838271412590e+000	 9.301849429969161e+000
 9.297736257170630e-001	 1.302121534829085e+000	 9.124292850105196e+000
 1.071664038252461e+000	 1.197044401854670e+000	 1.076002240972048e+001
 1.058388400034204e+000	 1.208798171643360e+000	 1.060968217419925e+001
 1.044988778733324e+000	 1.220400500135181e+000	 1.046030859734907e+001
 1.031467770329494e+000	 1.231849448745274e+000	 1.031021842219535e+001
 1.017828010680223e+000	 1.243143138221250e+000	 1.015798063108776e+001
 1.004072173826113e+000	 1.254279749650210e+000	 1.000242977287407e+001
 9.902029702662547e-001	 1.265257525407803e+000	 9.842724408350307e+000
 9.762231452061034e-001	 1.276074770048297e+000	 9.678312595234791e+000
 9.621354767801471e-001	 1.286729851134806e+000	 9.508984906746404e+000
 9.479427742517657e-001	 1.297221200008832e+000	 9.334881612914256e+000
 9.336478761926755e-001	 1.307547312498496e+000	 9.156506249905720e+000
 1.076110998416176e+000	 1.202011638393457e+000	 1.077679433617015e+001
 1.062780271819132e+000	 1.213814181439313e+000	 1.062852169827572e+001
 1.049325047661174e+000	 1.225464654769881e+000	 1.048140847825595e+001
 1.035747932694225e+000	 1.236961111755985e+000	 1.033361846618403e+001
 1.022051573713522e+000	 1.248301665347130e+000	 1.018356852625826e+001
 1.008238655855835e+000	 1.259484489082694e+000	 1.002994326736976e+001
 9.943119008677130e-001	 1.270507818044919e+000	 9.871752986473432e+000
 9.802740653460859e-001	 1.281369949752691e+000	 9.708302245816633e+000
 9.661279389535574e-001	 1.292069244995194e+000	 9.539242354951696e+000
 9.518763426107957e-001	 1.302604128604659e+000	 9.364579759107750e+000
 9.375221266684231e-001	 1.312973090167526e+000	 9.184690416891161e+000
 1.080557958579892e+000	 1.206978874932142e+000	 1.079303304043870e+001
 1.067172143604060e+000	 1.218830191235134e+000	 1.064683077287656e+001
 1.053661316589025e+000	 1.230528809404411e+000	 1.050191262567311e+001
 1.040028095058960e+000	 1.242072774766491e+000	 1.035628678369392e+001
 1.026275136746828e+000	 1.253460192472771e+000	 1.020821537167606e+001
 1.012405137885570e+000	 1.264689228514906e+000	 1.005623928115321e+001
 9.984208314691935e-001	 1.275758110681741e+000	 9.899191683373829e+000
 9.843249854861030e-001	 1.286665129456777e+000	 9.736257627578125e+000
 9.701204011270196e-001	 1.297408638855273e+000	 9.566938096087617e+000
 9.558099109698999e-001	 1.307987057200191e+000	 9.391103580236313e+000
 9.413963771442712e-001	 1.318398867836291e+000	 9.209000494098309e+000
 1.085004918743608e+000	 1.211946111470761e+000	 1.080891483475641e+001
 1.071564015388988e+000	 1.223846201030866e+000	 1.066478602996438e+001
 1.057997585516876e+000	 1.235592964038829e+000	 1.052199756881205e+001
 1.044308257423696e+000	 1.247184437776860e+000	 1.037839935247439e+001
 1.030498699780138e+000	 1.258618719598252e+000	 1.023209611902117e+001
 1.016571619915313e+000	 1.269893967946941e+000	 1.008147329291705e+001
 1.002529762070689e+000	 1.281008403318373e+000	 9.925211874041118e+000
 9.883759056261438e-001	 1.291960309160667e+000	 9.762347518702438e+000
 9.741128633005166e-001	 1.302748032715160e+000	 9.592237743539441e+000
 9.597434793290529e-001	 1.313369985795545e+000	 9.414614937783474e+000
 9.452706276201874e-001	 1.323824645504908e+000	 9.229593987230009e+000
 1.089451878907324e+000	 1.216913348009347e+000	 1.082461629808348e+001
 1.075955887173916e+000	 1.228862210826554e+000	 1.068256453715131e+001
 1.062333854444727e+000	 1.240657118673191e+000	 1.054184045147726e+001
 1.048588419788433e+000	 1.252296100787162e+000	 1.040013295264014e+001
 1.034722262813450e+000	 1.263777246723657e+000	 1.025538671772725e+001
 1.020738101945060e+000	 1.275098707378892e+000	 1.010582908510138e+001
 1.006638692672191e+000	 1.286258695954919e+000	 9.949986339983290e+000
 9.924268257661959e-001	 1.297255488864473e+000	 9.786742314703766e+000
 9.781053254740306e-001	 1.308087426574972e+000	 9.615308741482725e+000
 9.636770476882308e-001	 1.318752914390842e+000	 9.435277738882627e+000
 9.491448780961366e-001	 1.329250423173492e+000	 9.246630662665750e+000
 1.093898839071040e+000	 1.221880584547932e+000	 1.084031415294783e+001
 1.080347758958844e+000	 1.233878220622241e+000	 1.070034367662364e+001
 1.066670123372579e+000	 1.245721273307555e+000	 1.056161891309062e+001
 1.052868582153170e+000	 1.257407763797467e+000	 1.042166504981075e+001
 1.038945825846762e+000	 1.268935773849067e+000	 1.027826400024841e+001
 1.024904583974807e+000	 1.280303446810854e+000	 1.012948236995134e+001
 1.010747623273693e+000	 1.291508988591483e+000	 9.973697819890075e+000
 9.964777459062479e-001	 1.302550668568309e+000	 9.809613920137066e+000
 9.820977876475447e-001	 1.313426820434828e+000	 9.636320258757928e+000
 9.676106160474087e-001	 1.324135842986200e+000	 9.453257832364784e+000
 9.530191285720864e-001	 1.334676200842162e+000	 9.260490883370069e+000
 1.098345799234756e+000	 1.226847821086551e+000	 1.085618514234229e+001
 1.084739630743772e+000	 1.238894230417973e+000	 1.071830102413240e+001
 1.071006392300430e+000	 1.250785427941975e+000	 1.058151096979330e+001
 1.057148744517906e+000	 1.262519426807842e+000	 1.044317367833755e+001
 1.043169388880072e+000	 1.274094300974564e+000	 1.030090556742443e+001
 1.029071066004551e+000	 1.285508186242921e+000	 1.015260983416279e+001
 1.014856553875189e+000	 1.296759281228170e+000	 9.996503890178133e+000
 1.000528666046289e+000	 1.307845848272286e+000	 9.831135640455750e+000
 9.860902498210417e-001	 1.318766214294844e+000	 9.655443082912871e+000
 9.715441844065617e-001	 1.329518771581739e+000	 9.468722904993729e+000
 9.568933790480022e-001	 1.340101978511031e+000	 9.276006006452068e+000
 1.102792759398472e+000	 1.231815057625237e+000	 1.087240590667931e+001
 1.089131502528700e+000	 1.243910240213795e+000	 1.073661422804857e+001
 1.075342661228281e+000	 1.255849582576509e+000	 1.060169489561860e+001
 1.061428906882640e+000	 1.267631089818360e+000	 1.046483732461330e+001
 1.047392951913378e+000	 1.279252828100232e+000	 1.032348967394490e+001
 1.033237548034286e+000	 1.290712925675186e+000	 1.017538902651210e+001
 1.018965484476669e+000	 1.302009573865083e+000	 1.001858992048974e+001
 1.004579586186306e+000	 1.313141027976516e+000	 9.851482074013987e+000
 9.900827119945040e-001	 1.324105608155139e+000	 9.672849514407673e+000
 9.754777527656655e-001	 1.334901700177577e+000	 9.482132584645818e+000
 9.607676295238505e-001	 1.345527756180218e+000	 9.295183707346306e+000
 1.107239719562188e+000	 1.236782294164024e+000	 1.088915286080226e+001
 1.093523374313627e+000	 1.248926250009749e+000	 1.075546088848090e+001
 1.079678930156131e+000	 1.260913737211214e+000	 1.062234910373778e+001
 1.065709069247372e+000	 1.272742752829088e+000	 1.048683481046379e+001
 1.051616514946676e+000	 1.284411355226151e+000	 1.034619511390368e+001
 1.037404030064008e+000	 1.295917665107744e+000	 1.019799824559335e+001
 1.023074415078128e+000	 1.307259866502329e+000	 1.004013321573399e+001
 1.008630506326288e+000	 1.318436207681113e+000	 9.870829004207733e+000
 9.940751741679140e-001	 1.329445002015830e+000	 9.688713260978473e+000
 9.794113211246958e-001	 1.340284628773835e+000	 9.498286341727841e+000
 9.646418799995977e-001	 1.350953533849838e+000	 9.318131167771115e+000
 1.111686679725904e+000	 1.241749530702945e+000	 1.090660207105151e+001
 1.097915246098555e+000	 1.253942259805881e+000	 1.077501843645456e+001
 1.084015199083980e+000	 1.265977891846146e+000	 1.064365202777387e+001
 1.069989231612100e+000	 1.277854415840096e+000	 1.050934517661914e+001
 1.055840077979967e+000	 1.289569882352404e+000	 1.036920110644796e+001
 1.041570512093714e+000	 1.301122404540689e+000	 1.022061642766084e+001
 1.027183345679557e+000	 1.312510159140009e+000	 1.006131193629756e+001
 1.012681426466225e+000	 1.323731387386190e+000	 9.889361462526292e+000
 9.980676363412553e-001	 1.334784395877035e+000	 9.703452434258976e+000
 9.833448894836278e-001	 1.345667557370631e+000	 9.518907367081399e+000
 9.685161304752106e-001	 1.356379311520008e+000	 9.344951020194579e+000
 9.297736257170630e-001	 1.302121534829085e+000	 9.124292850105196e+000
 9.154391279183470e-001	 1.312238814086172e+000	 8.943619478250934e+000
 9.010085906258274e-001	 1.322188739702620e+000	 8.758135666119648e+000
 8.864849153643600e-001	 1.331970007767004e+000	 8.565997801997071e+000
 8.718710255006918e-001	 1.341581380764360e+000	 8.373755784205327e+000
 8.571698643667016e-001	 1.351021687972676e+000	 8.192800623318924e+000
 8.423843933767853e-001	 1.360289825796497e+000	 8.020760049417007e+000
 8.275175901418119e-001	 1.369384758037725e+000	 7.855011374984109e+000
 8.125724465820543e-001	 1.378305516103772e+000	 7.692890484341374e+000
 7.975519670414791e-001	 1.387051199153357e+000	 7.531692216005608e+000
 7.824591664057522e-001	 1.395620974180313e+000	 7.368671020226776e+000
 9.336478761926755e-001	 1.307547312498496e+000	 9.156506249905720e+000
 9.192536483333296e-001	 1.317706749193543e+000	 8.973624041116686e+000
 9.047629807956740e-001	 1.327698134906279e+000	 8.784182738522249e+000
 8.901787871948500e-001	 1.337520160292034e+000	 8.588576783218667e+000
 8.755040030789064e-001	 1.347171582679268e+000	 8.401822226873724e+000
 8.607415840442136e-001	 1.356651226467707e+000	 8.225163507983071e+000
 8.458945038450076e-001	 1.365957983463344e+000	 8.056106870962907e+000
 8.309657524994858e-001	 1.375090813150366e+000	 7.892119618691622e+000
 8.159583343948756e-001	 1.384048742900173e+000	 7.730630022078135e+000
 8.008752663938652e-001	 1.392830868117783e+000	 7.569027496052248e+000
 7.857195759447690e-001	 1.401436352325989e+000	 7.404663060555413e+000
 9.375221266684231e-001	 1.312973090167526e+000	 9.184690416891161e+000
 9.230681687484915e-001	 1.323174684300590e+000	 8.998844847729609e+000
 9.085173709657477e-001	 1.333207530109689e+000	 8.804670930247131e+000
 8.938726590256203e-001	 1.343070312816907e+000	 8.611890595711740e+000
 8.791369806574539e-001	 1.352761784594114e+000	 8.430198456171919e+000
 8.643133037221090e-001	 1.362280764962774e+000	 8.257240285755902e+000
 8.494046143136589e-001	 1.371626141130321e+000	 8.090625267724157e+000
 8.344139148576283e-001	 1.380796868263218e+000	 7.927926411590681e+000
 8.193442222081936e-001	 1.389791969696849e+000	 7.766680214137598e+000
 8.041985657467650e-001	 1.398610537082528e+000	 7.604386595999910e+000
 7.889799854843013e-001	 1.407251730471996e+000	 7.438509133548098e+000
 9.413963771442712e-001	 1.318398867836291e+000	 9.209000494098309e+000
 9.268826891637869e-001	 1.328642619407423e+000	 9.019433416667591e+000
 9.122717611359931e-001	 1.338716925312952e+000	 8.823206957458625e+000
 8.975665308566001e-001	 1.348620465341704e+000	 8.636302291180156e+000
 8.827699582362499e-001	 1.358351986508967e+000	 8.459050260696630e+000
 8.678850234002893e-001	 1.367910303457928e+000	 8.289210715982403e+000
 8.529147247826276e-001	 1.377294298797460e+000	 8.124511136008135e+000
 8.378620772161134e-001	 1.386502923376302e+000	 7.962645748105978e+000
 8.227301100218737e-001	 1.395535196493812e+000	 7.801274907137374e+000
 8.075218651000348e-001	 1.404390206047592e+000	 7.638024759774011e+000
 7.922403950241997e-001	 1.413067108618336e+000	 7.470487214850372e+000
 9.452706276201874e-001	 1.323824645504908e+000	 9.229593987230009e+000
 9.306972095791717e-001	 1.334110554514149e+000	 9.035620636454317e+000
 9.160261513063516e-001	 1.344226320516161e+000	 8.843627747921280e+000
 9.012604026877193e-001	 1.354170617866511e+000	 8.661961237287256e+000
 8.864029358152090e-001	 1.363942188423893e+000	 8.488538541747841e+000
 8.714567430786560e-001	 1.373539841953220e+000	 8.321249566651733e+000
 8.564248352518022e-001	 1.382962456464800e+000	 8.157955244127969e+000
 8.413102395748181e-001	 1.392208978489638e+000	 7.996486328954005e+000
 8.261159978357805e-001	 1.401278423291070e+000	 7.834642462705531e+000
 8.108451644535302e-001	 1.410169875012980e+000	 7.670191532965554e+000
 7.955008045643135e-001	 1.418882486765009e+000	 7.500869349866691e+000
 9.491448780961366e-001	 1.329250423173492e+000	 9.246630662665750e+000
 9.345117299946012e-001	 1.339578489620878e+000	 9.051934738939297e+000
 9.197805414767668e-001	 1.349735715719415e+000	 8.866069931516934e+000
 9.049542745189065e-001	 1.359720770391410e+000	 8.689012030753869e+000
 8.900359133942477e-001	 1.369532390338960e+000	 8.518819362100505e+000
 8.750284627571104e-001	 1.379169380448702e+000	 8.353526664332506e+000
 8.599349457210699e-001	 1.388630614132375e+000	 8.191143284204639e+000
 8.447584019336180e-001	 1.397915033603250e+000	 8.029651615451980e+000
 8.295018856497786e-001	 1.407021650088634e+000	 7.867005814873910e+000
 8.141684638071076e-001	 1.415949543978694e+000	 7.701130823827104e+000
 7.987612141044927e-001	 1.424697864912014e+000	 7.529921718809002e+000
 9.530191285720864e-001	 1.334676200842162e+000	 9.260490883370069e+000
 9.383262504100309e-001	 1.345046424727719e+000	 9.071040082397795e+000
 9.235349316471814e-001	 1.355245110922812e+000	 8.890664437310223e+000
 9.086481463500914e-001	 1.365270922916484e+000	 8.717594545905831e+000
 8.936688909732813e-001	 1.375122592254236e+000	 8.550043994893212e+000
 8.786001824355540e-001	 1.384798918944425e+000	 8.386206944151311e+000
 8.634450561903191e-001	 1.394298771800219e+000	 8.224255923918559e+000
 8.482065642923892e-001	 1.403621088717157e+000	 8.062339883669450e+000
 8.328877734637327e-001	 1.412764876886513e+000	 7.898582527194304e+000
 8.174917631606233e-001	 1.421729212944737e+000	 7.731080963853822e+000
 8.020216236445871e-001	 1.430513243059354e+000	 7.557904701186319e+000
 9.568933790480022e-001	 1.340101978511031e+000	 9.276006006452068e+000
 9.421407708254154e-001	 1.350514359834781e+000	 9.093056637743686e+000
 9.272893218175382e-001	 1.360754506126449e+000	 8.917537550495897e+000
 9.123420181812031e-001	 1.370821075441817e+000	 8.747843983389831e+000
 8.973018685522237e-001	 1.380712794169788e+000	 8.582358972634848e+000
 8.821719021138887e-001	 1.390428457440441e+000	 8.419450499813522e+000
 8.669551666594380e-001	 1.399966929468371e+000	 8.257468858215626e+000
 8.516547266510058e-001	 1.409327143831381e+000	 8.094744278427562e+000
 8.362736612775088e-001	 1.418508103684719e+000	 7.929584849581189e+000
 8.208150625139332e-001	 1.427508881911112e+000	 7.760274767963308e+000
 8.052820331844467e-001	 1.436328621207025e+000	 7.585072939750009e+000
 9.607676295238505e-001	 1.345527756180218e+000	 9.295183707346306e+000
 9.459552912407105e-001	 1.355982294942172e+000	 9.118099772161930e+000
 9.310437119877796e-001	 1.366263901330424e+000	 8.946810961810622e+000
 9.160358900121717e-001	 1.376371227967493e+000	 8.779890919056699e+000
 9.009348461309924e-001	 1.386302996085685e+000	 8.615906136321049e+000
 8.857436217920156e-001	 1.396057995936800e+000	 8.453412633665895e+000
 8.704652771283146e-001	 1.405635087136863e+000	 8.290952860965792e+000
 8.551028890093452e-001	 1.415033198945946e+000	 8.127052867150397e+000
 8.396595490909711e-001	 1.424251330483261e+000	 7.960219774893195e+000
 8.241383618668934e-001	 1.433288550877820e+000	 7.788939594283708e+000
 8.085424427239210e-001	 1.442143999355031e+000	 7.611675403911444e+000
 9.646418799995977e-001	 1.350953533849838e+000	 9.318131167771115e+000
 9.497698116558712e-001	 1.361450230050001e+000	 9.146280300079228e+000
 9.347981021578486e-001	 1.371773296534834e+000	 8.978601817140019e+000
 9.197297618429253e-001	 1.381921380493593e+000	 8.813861353004675e+000
 9.045678237095014e-001	 1.391893198001993e+000	 8.650822684662924e+000
 8.893153414698359e-001	 1.401687534433554e+000	 8.488243906798720e+000
 8.739753875968371e-001	 1.411303244805733e+000	 8.324873836578181e+000
 8.585510513672827e-001	 1.420739254060870e+000	 8.159448693571166e+000
 8.430454369039842e-001	 1.429994557282150e+000	 7.990689095255313e+000
 8.274616612193595e-001	 1.439068219844866e+000	 7.817297403561025e+000
 8.118028522628600e-001	 1.447959377503370e+000	 7.637955452645010e+000
 9.685161304752106e-001	 1.356379311520008e+000	 9.344951020194579e+000
 9.535843320708534e-001	 1.366918165158378e+000	 9.177704534334877e+000
 9.385524923276887e-001	 1.377282691739777e+000	 9.013022767313961e+000
 9.234236336733949e-001	 1.387471533020204e+000	 8.849876758779658e+000
 9.082008012876665e-001	 1.397483399918780e+000	 8.687241223419207e+000
 8.928870611472519e-001	 1.407317072930754e+000	 8.524090189187636e+000
 8.774854980648936e-001	 1.416971402475017e+000	 8.359392871570693e+000
 8.619992137246938e-001	 1.426445309176177e+000	 8.192109831298989e+000
 8.464313247164138e-001	 1.435737784081395e+000	 8.021189458134041e+000
 8.307849605711887e-001	 1.444847888812251e+000	 7.845564818199271e+000
 8.150632618011137e-001	 1.453774755652043e+000	 7.664150896892893e+000
 7.824591664057522e-001	 1.395620974180313e+000	 7.368671020226776e+000
 7.672993476139858e-001	 1.404012830606383e+000	 7.192369658603445e+000
 7.520732818907336e-001	 1.412227370971638e+000	 6.997003406365946e+000
 7.367840039700269e-001	 1.420263967078496e+000	 6.788426662695995e+000
 7.214345516481479e-001	 1.428122058255759e+000	 6.572545151021480e+000
 7.060279639552908e-001	 1.435801151140213e+000	 6.355302448549323e+000
 6.905672793443338e-001	 1.443300819400590e+000	 6.142666883103702e+000
 6.750555338987601e-001	 1.450620703404885e+000	 5.940618815985512e+000
 6.594957595617234e-001	 1.457760509832163e+000	 5.754551471908754e+000
 6.438909823881793e-001	 1.464720011230009e+000	 5.585913295389823e+000
 6.282442208219421e-001	 1.471499045518887e+000	 5.438511299976973e+000
 7.857195759447690e-001	 1.401436352325989e+000	 7.404663060555413e+000
 7.704965880833782e-001	 1.409863176568699e+000	 7.226840644264843e+000
 7.552070772478325e-001	 1.418111945896701e+000	 7.030417707150808e+000
 7.398540908175103e-001	 1.426182029494800e+000	 6.821168273227215e+000
 7.244406792467997e-001	 1.434072864355559e+000	 6.604916916499398e+000
 7.089698942291433e-001	 1.441783955059992e+000	 6.387525424833388e+000
 6.934447868782606e-001	 1.449314873500366e+000	 6.174879844036387e+000
 6.778684059286053e-001	 1.456665258546147e+000	 5.972877920396106e+000
 6.622437959570482e-001	 1.463834815654174e+000	 5.787197918138500e+000
 6.465739956277268e-001	 1.470823316424275e+000	 5.619578788519671e+000
 6.308620359619235e-001	 1.477630598101556e+000	 5.473143393130625e+000
 7.889799854843013e-001	 1.407251730471996e+000	 7.438509133548093e+000
 7.736938285532721e-001	 1.415713522531330e+000	 7.259106267913173e+000
 7.583408726054054e-001	 1.423996520822031e+000	 7.061648717894022e+000
 7.429241776654281e-001	 1.432100091911302e+000	 6.851812541244496e+000
 7.274468068458374e-001	 1.440023670455469e+000	 6.635323276265390e+000
 7.119118245033267e-001	 1.447766758979777e+000	 6.417942775353565e+000
 6.963222944124613e-001	 1.455328927600040e+000	 6.205456432032421e+000
 6.806812779586661e-001	 1.462709813687193e+000	 6.003660819178620e+000
 6.649918323525327e-001	 1.469909121475858e+000	 5.818320498831938e+000
 6.492570088673833e-001	 1.476926621618111e+000	 5.651777724354407e+000
 6.334798511019699e-001	 1.483762150683703e+000	 5.506333956171088e+000
 7.922403950241997e-001	 1.413067108618336e+000	 7.470487214850370e+000
 7.768910690235145e-001	 1.421563868494278e+000	 7.289466048270727e+000
 7.614746679632978e-001	 1.429881095747641e+000	 7.091014073009924e+000
 7.459942645136269e-001	 1.438018154328024e+000	 6.880691994015314e+000
 7.304529344451121e-001	 1.445974476555527e+000	 6.664108632593786e+000
 7.148537547776986e-001	 1.453749562899628e+000	 6.446907964731468e+000
 6.991998019467994e-001	 1.461342981699689e+000	 6.234756566546197e+000
 6.834941499888144e-001	 1.468754368828120e+000	 6.033331483977153e+000
 6.677398687480575e-001	 1.475983427297332e+000	 5.848308538754129e+000
 6.519400221070382e-001	 1.483029926811650e+000	 5.682877827802196e+000
 6.360976662419806e-001	 1.489893703265480e+000	 5.538438680007532e+000
 7.955008045643135e-001	 1.418882486765009e+000	 7.500869349866688e+000
 7.800883094939518e-001	 1.427414214457547e+000	 7.318213364698608e+000
 7.646084633213555e-001	 1.435765670673543e+000	 7.118825117908552e+000
 7.490643513619556e-001	 1.443936216744994e+000	 6.908132776212021e+000
 7.334590620444750e-001	 1.451925282655774e+000	 6.691610964147129e+000
 7.177956850521154e-001	 1.459732366819600e+000	 6.474768042012074e+000
 7.020773094811390e-001	 1.467357035799387e+000	 6.263133804973999e+000
 6.863070220189225e-001	 1.474798923969026e+000	 6.062247619772500e+000
 6.704879051435043e-001	 1.482057733118713e+000	 5.877647010236064e+000
 6.546230353465827e-001	 1.489133232005029e+000	 5.713243404195779e+000
 6.387154813818570e-001	 1.496025255847035e+000	 5.569810202813261e+000
 7.987612141044927e-001	 1.424697864912014e+000	 7.529921718809001e+000
 7.832855499644306e-001	 1.433264560421141e+000	 7.345635525914001e+000
 7.677422586794239e-001	 1.441650245599746e+000	 7.145386980257302e+000
 7.521344382102603e-001	 1.449854279162232e+000	 6.934454722666346e+000
 7.364651896437771e-001	 1.457876088756247e+000	 6.718161899252076e+000
 7.207376153264338e-001	 1.465715170739753e+000	 6.501863713564674e+000
 7.049548170153437e-001	 1.473371089899215e+000	 6.290935414362432e+000
 6.891198940488618e-001	 1.480843479110007e+000	 6.090760734656491e+000
 6.732359415387536e-001	 1.488132038940116e+000	 5.906720792355951e+000
 6.573060485859077e-001	 1.495236537198382e+000	 5.743235291573816e+000
 6.413332965214997e-001	 1.502156808428522e+000	 5.600798065438715e+000
 8.020216236445871e-001	 1.430513243059354e+000	 7.557904701186319e+000
 7.864827904347969e-001	 1.439114906385062e+000	 7.372013838013032e+000
 7.708760540373492e-001	 1.447534820526264e+000	 7.170998640438673e+000
 7.552045250583886e-001	 1.455772341579763e+000	 6.959971430240029e+000
 7.394713172428697e-001	 1.463826894856989e+000	 6.744086788233145e+000
 7.236795456005105e-001	 1.471697974660143e+000	 6.528529415007681e+000
 7.078323245492768e-001	 1.479385143999247e+000	 6.318502442125848e+000
 6.919327660785049e-001	 1.486888034251159e+000	 6.119216208619705e+000
 6.759839779336863e-001	 1.494206344761659e+000	 5.935877512138785e+000
 6.599890618249036e-001	 1.501339842391844e+000	 5.773210812038307e+000
 6.439511116608094e-001	 1.508288361010091e+000	 5.631748665949865e+000
 8.052820331844467e-001	 1.436328621207025e+000	 7.585072939750009e+000
 7.896800309048970e-001	 1.444965252349316e+000	 7.397623671818248e+000
 7.740098493949770e-001	 1.453419395453107e+000	 7.195953001227701e+000
 7.582746119061880e-001	 1.461690403997612e+000	 6.984990328834103e+000
 7.424774448416042e-001	 1.469777700958038e+000	 6.769704774830869e+000
 7.266214758742023e-001	 1.477680778580828e+000	 6.555093382182869e+000
 7.107098320828028e-001	 1.485399198099562e+000	 6.346169785800597e+000
 6.947456381077226e-001	 1.492932589392580e+000	 6.147953361383072e+000
 6.787320143281836e-001	 1.500280650583457e+000	 5.965458862238097e+000
 6.626720750634609e-001	 1.507443147585549e+000	 5.803523722209822e+000
 6.465689267996867e-001	 1.514419913591893e+000	 5.663005213314274e+000
 8.085424427239210e-001	 1.442143999355031e+000	 7.611675403911447e+000
 7.928772713745780e-001	 1.450815598313902e+000	 7.422734529568634e+000
 7.771436447521524e-001	 1.459303970380288e+000	 7.220536956711456e+000
 7.613446987535059e-001	 1.467608466415802e+000	 7.009812751564644e+000
 7.454835724398311e-001	 1.475728507059433e+000	 6.795328866730500e+000
 7.295634061473653e-001	 1.483663582501865e+000	 6.581877721208689e+000
 7.135873396157849e-001	 1.491413252200236e+000	 6.374266261863807e+000
 6.975585101363884e-001	 1.498977144534367e+000	 6.177305519296314e+000
 6.814800507221271e-001	 1.506354956405627e+000	 5.995800665302121e+000
 6.653550883014708e-001	 1.513546452779633e+000	 5.834524162808157e+000
 6.491867419380324e-001	 1.520551466174078e+000	 5.694907680262914e+000
 8.118028522628600e-001	 1.447959377503370e+000	 7.637955452645011e+000
 7.960745118436858e-001	 1.456665944278828e+000	 7.447610110971881e+000
 7.802774401087218e-001	 1.465188545307817e+000	 7.245031460471029e+000
 7.644147856001898e-001	 1.473526528834358e+000	 7.034734004124552e+000
 7.484897000374019e-001	 1.481679313161214e+000	 6.821266005225342e+000
 7.325053364198569e-001	 1.489646386423312e+000	 6.609198477635128e+000
 7.164648471480870e-001	 1.497427306301345e+000	 6.403114673643167e+000
 7.003713821643731e-001	 1.505021699676617e+000	 6.207600081333475e+000
 6.842280871153970e-001	 1.512429262228287e+000	 6.027232937456227e+000
 6.680381015388242e-001	 1.519649757974229e+000	 5.866575256064395e+000
 6.518045570757469e-001	 1.526683018756798e+000	 5.727792755344874e+000
 8.150632618011137e-001	 1.453774755652043e+000	 7.664150896892894e+000
 7.992717523120669e-001	 1.462516290244094e+000	 7.472508378636564e+000
 7.834112354645310e-001	 1.471073120235707e+000	 7.269711593046980e+000
 7.674848724460873e-001	 1.479444591253303e+000	 7.060043433357088e+000
 7.514958276341680e-001	 1.487630119263421e+000	 6.847817134040332e+000
 7.354472666915338e-001	 1.495629190345228e+000	 6.637365704729483e+000
 7.193423546795726e-001	 1.503441360402968e+000	 6.433031878341724e+000
 7.031842541915491e-001	 1.511066254819426e+000	 6.239158584207667e+000
 6.869761235078749e-001	 1.518503568051551e+000	 6.060079950926111e+000
 6.707211147754113e-001	 1.525753063169474e+000	 5.900112837799322e+000
 6.544223722127310e-001	 1.532814571340203e+000	 5.761993794204556e+000
 6.282442208219421e-001	 1.471499045518887e+000	 5.438511299976973e+000
 6.125561282577968e-001	 1.478098491957502e+000	 5.299242467299219e+000
 5.968320490086007e-001	 1.484517287968683e+000	 5.153932216425923e+000
 5.810749706883369e-001	 1.490755465284833e+000	 5.004774933667638e+000
 5.652878666485968e-001	 1.496813118561950e+000	 4.853571796593833e+000
 5.494736944043552e-001	 1.502690404637500e+000	 4.701767736091274e+000
 5.336353940943900e-001	 1.508387541743989e+000	 4.550486866754181e+000
 5.177758869776715e-001	 1.513904808679865e+000	 4.400566297747683e+000
 5.018980739669736e-001	 1.519242543939458e+000	 4.252588256584954e+000
 4.860048342008704e-001	 1.524401144803653e+000	 4.106910477807092e+000
 4.700990236552003e-001	 1.529381066393079e+000	 3.963694827242334e+000
 6.308620359619235e-001	 1.477630598101556e+000	 5.473143393130625e+000
 6.151085730770313e-001	 1.484257543608491e+000	 5.334510266042213e+000
 5.993189735550006e-001	 1.490703085940283e+000	 5.189379058851619e+000
 5.834962374588432e-001	 1.496967256961559e+000	 5.040032633784364e+000
 5.676433505297488e-001	 1.503050151722735e+000	 4.888359933423391e+000
 5.517632826063015e-001	 1.508951927714800e+000	 4.735893356671194e+000
 5.358589860784835e-001	 1.514672804079606e+000	 4.583844538087686e+000
 5.199333943777998e-001	 1.520213060777319e+000	 4.433138442974380e+000
 5.039894205047790e-001	 1.525573037712730e+000	 4.284445711420642e+000
 4.880299555950191e-001	 1.530753133822143e+000	 4.138213204593244e+000
 4.720578675248663e-001	 1.535753806122621e+000	 3.994692725721318e+000
 6.334798511019699e-001	 1.483762150683703e+000	 5.506333956171088e+000
 6.176610178962955e-001	 1.490416595258882e+000	 5.368334340631917e+000
 6.018058981014047e-001	 1.496888883911224e+000	 5.223372649345468e+000
 5.859175042293358e-001	 1.503179048637579e+000	 5.073823091833418e+000
 5.699988344108758e-001	 1.509287184882779e+000	 4.921665402360770e+000
 5.540528708082165e-001	 1.515213450791333e+000	 4.768522629842539e+000
 5.380825780625443e-001	 1.520958066414437e+000	 4.615697264377349e+000
 5.220909017778975e-001	 1.526521312873974e+000	 4.464205613053156e+000
 5.060807670425579e-001	 1.531903531485195e+000	 4.314810359070898e+000
 4.900550769891465e-001	 1.537105122839823e+000	 4.168051258825443e+000
 4.740167113945158e-001	 1.542126545851345e+000	 4.024273951246557e+000
 6.360976662419806e-001	 1.489893703265480e+000	 5.538438680007532e+000
 6.202134627155002e-001	 1.496575646908841e+000	 5.401057671552558e+000
 6.042928226477331e-001	 1.503074681881681e+000	 5.256243492877415e+000
 5.883387709997444e-001	 1.509390840313075e+000	 5.106464487263835e+000
 5.723543182919169e-001	 1.515524218042269e+000	 4.953794128054146e+000
 5.563424590100491e-001	 1.521474973867289e+000	 4.799949222677570e+000
 5.403061700465296e-001	 1.527243328748675e+000	 4.646326384724238e+000
 5.242484091779293e-001	 1.532829564970023e+000	 4.494036687033618e+000
 5.081721135802820e-001	 1.538234025257044e+000	 4.343938430721730e+000
 4.920801983832305e-001	 1.543457111856877e+000	 4.196667986222011e+000
 4.759755552641329e-001	 1.548499285579436e+000	 4.052668682558604e+000
 6.387154813818570e-001	 1.496025255847035e+000	 5.569810202813261e+000
 6.227659075345555e-001	 1.502734698558528e+000	 5.433020549875191e+000
 6.067797471939067e-001	 1.509260479851831e+000	 5.288319748481015e+000
 5.907600377699994e-001	 1.515602631988232e+000	 5.138272977435754e+000
 5.747098021728117e-001	 1.521761251201395e+000	 4.985050317590394e+000
 5.586320472117475e-001	 1.527736496942861e+000	 4.830465370299033e+000
 5.425297620303964e-001	 1.533528591082513e+000	 4.676012073477885e+000
 5.264059165778601e-001	 1.539137817065659e+000	 4.522899628588857e+000
 5.102634601179235e-001	 1.544564519028469e+000	 4.372085474421465e+000
 4.941053197772500e-001	 1.549809100873494e+000	 4.224306265237338e+000
 4.779343991337011e-001	 1.554872025307074e+000	 4.080106831503980e+000
 6.413332965214997e-001	 1.502156808428522e+000	 5.600798065438720e+000
 6.253183523533731e-001	 1.508893750208112e+000	 5.464560535480899e+000
 6.092666717398461e-001	 1.515446277821846e+000	 5.319927190275092e+000
 5.931813045400316e-001	 1.521814423663232e+000	 5.169562661403776e+000
 5.770652860535005e-001	 1.527998284360345e+000	 5.015736426980511e+000
 5.609216354132608e-001	 1.533998020018241e+000	 4.860361844989363e+000
 5.447533540141016e-001	 1.539813853416144e+000	 4.705033311864163e+000
 5.285634239776547e-001	 1.545446069161075e+000	 4.551061460039454e+000
 5.123548066554542e-001	 1.550895012799658e+000	 4.399506331353881e+000
 4.961304411711825e-001	 1.556161089889861e+000	 4.251208485422527e+000
 4.798932430032044e-001	 1.561244765034445e+000	 4.106818023304329e+000
 6.439511116608094e-001	 1.508288361010091e+000	 5.631748665949865e+000
 6.278707971718623e-001	 1.515052801857756e+000	 5.496012414462647e+000
 6.117535962854716e-001	 1.521632075791902e+000	 5.351389167715976e+000
 5.956025713097707e-001	 1.528026215338257e+000	 5.200645542979772e+000
 5.794207699339221e-001	 1.534235317519306e+000	 5.046153126973241e+000
 5.632112236145370e-001	 1.540259543093620e+000	 4.889927924668879e+000
 5.469769459976025e-001	 1.546099115749762e+000	 4.733667859024015e+000
 5.307209313772782e-001	 1.551754321256463e+000	 4.578788235827815e+000
 5.144461531928464e-001	 1.557225506570805e+000	 4.426455111603788e+000
 4.981555625650069e-001	 1.562513078906165e+000	 4.277616525319059e+000
 4.818520868726261e-001	 1.567617504761729e+000	 4.133031576394004e+000
 6.465689267996867e-001	 1.514419913591893e+000	 5.663005213314274e+000
 6.304232419899352e-001	 1.521211853507622e+000	 5.527708155732202e+000
 6.142405208307040e-001	 1.527817873762174e+000	 5.383026565102525e+000
 5.980238380791469e-001	 1.534238007013491e+000	 5.231831493096360e+000
 5.817762538140169e-001	 1.540472350678467e+000	 5.076599268211618e+000
 5.655008118155254e-001	 1.546521066169190e+000	 4.919451360760927e+000
 5.492005379808558e-001	 1.552384378083559e+000	 4.762192222481656e+000
 5.328784387766953e-001	 1.558062573352017e+000	 4.606345015460840e+000
 5.165374997300717e-001	 1.563556000342099e+000	 4.453185169431196e+000
 5.001806839587015e-001	 1.568865067922594e+000	 4.303771729898246e+000
 4.838109307419504e-001	 1.573990244489111e+000	 4.158976481843516e+000
 6.491867419380324e-001	 1.520551466174078e+000	 5.694907680262912e+000
 6.329756868075016e-001	 1.527370905157877e+000	 5.559976866849414e+000
 6.167274453754639e-001	 1.534003671732837e+000	 5.415157760355210e+000
 6.004451048480909e-001	 1.540449798689115e+000	 5.263428211490690e+000
 5.841317376937240e-001	 1.546709383838018e+000	 5.107371845754853e+000
 5.677904000161740e-001	 1.552782589245143e+000	 4.949218345463202e+000
 5.514241299638191e-001	 1.558669640417730e+000	 4.790881628057178e+000
 5.350359461758709e-001	 1.564370825447929e+000	 4.633995835937615e+000
 5.186288462671024e-001	 1.569886494113732e+000	 4.479949078064520e+000
 5.022058053522444e-001	 1.575217056939336e+000	 4.329914887558013e+000
 4.857697746111607e-001	 1.580362984216774e+000	 4.184881382379339e+000
 6.518045570757469e-001	 1.526683018756798e+000	 5.727792755344874e+000
 6.355281316244723e-001	 1.533529956808685e+000	 5.593144749100930e+000
 6.192143699196715e-001	 1.540189469704066e+000	 5.448098583090816e+000
 6.028663716165326e-001	 1.546661590365314e+000	 5.295741187726175e+000
 5.864872215729831e-001	 1.552946416998145e+000	 5.138765962979718e+000
 5.700799882164317e-001	 1.559044112321670e+000	 4.979513478441039e+000
 5.536477219464489e-001	 1.564954902752466e+000	 4.820009989239638e+000
 5.371934535747698e-001	 1.570679077544392e+000	 4.662003683673814e+000
 5.207201928039105e-001	 1.576216987885893e+000	 4.506998604031345e+000
 5.042309267456142e-001	 1.581569045956577e+000	 4.356286206691353e+000
 4.877286184802408e-001	 1.586735723944899e+000	 4.210974551008206e+000
 6.544223722127310e-001	 1.532814571340203e+000	 5.761993794204556e+000
 6.380805764407583e-001	 1.539689008460209e+000	 5.627535051845603e+000
 6.217012944632482e-001	 1.546375267676036e+000	 5.482162272009570e+000
 6.052876383844025e-001	 1.552873382042270e+000	 5.329073661574032e+000
 5.888427054517341e-001	 1.559183450159039e+000	 5.171074794882579e+000
 5.723695764162470e-001	 1.565305635398965e+000	 5.010619732956473e+000
 5.558713139287028e-001	 1.571240165087963e+000	 4.849849876035800e+000
 5.393509609733571e-001	 1.576987329641599e+000	 4.690630465938852e+000
 5.228115393404681e-001	 1.582547481658774e+000	 4.534584681033268e+000
 5.062560481387889e-001	 1.587921034974506e+000	 4.383125291837979e+000
 4.896874623491745e-001	 1.593108463673670e+000	 4.237483869262392e+000
 4.700990236552003e-001	 1.529381066393079e+000	 3.963694827242334e+000
 4.541834735678362e-001	 1.534182820303653e+000	 3.826695638421459e+000
 4.382609884735363e-001	 1.538806972447188e+000	 3.699383259256776e+000
 4.223343456611924e-001	 1.543254143154806e+000	 3.581274113812079e+000
 4.064062941850493e-001	 1.547525006483282e+000	 3.471782869951733e+000
 3.904795536865156e-001	 1.551620289110432e+000	 3.370241955923631e+000
 3.745568132600691e-001	 1.555540769203842e+000	 3.275919487054339e+000
 3.586407303637542e-001	 1.559287275264824e+000	 3.188035672465207e+000
 3.427339297746908e-001	 1.562860684949402e+000	 3.105777780488987e+000
 3.268390025899309e-001	 1.566261923868223e+000	 3.028313748857670e+000
 3.109585052729244e-001	 1.569491964367168e+000	 2.954804531759911e+000
 4.720578675248663e-001	 1.535753806122621e+000	 3.994692725721318e+000
 4.560759993296170e-001	 1.540575568341829e+000	 3.857705234106621e+000
 4.400871672301723e-001	 1.545218988749658e+000	 3.730688172069164e+000
 4.240941600880320e-001	 1.549684690262056e+000	 3.613099491949987e+000
 4.080997384124002e-001	 1.553973349744499e+000	 3.504295830347053e+000
 3.921066331770839e-001	 1.558085696902767e+000	 3.403552114154959e+000
 3.761175446816750e-001	 1.562022513146960e+000	 3.310079529021613e+000
 3.601351414575070e-001	 1.565784630430640e+000	 3.223041923846580e+000
 3.441620592188107e-001	 1.569372930066904e+000	 3.141570733898548e+000
 3.282008998594099e-001	 1.572788341523290e+000	 3.064778512656017e+000
 3.122542304952113e-001	 1.576031841197312e+000	 2.991771168629046e+000
 4.740167113945158e-001	 1.542126545851345e+000	 4.024273951246557e+000
 4.579685250913861e-001	 1.546968316379183e+000	 3.887358371516788e+000
 4.419133459868009e-001	 1.551631005051298e+000	 3.760697932592898e+000
 4.258539745148700e-001	 1.556115237368471e+000	 3.643691050097245e+000
 4.097931826397563e-001	 1.560421693004874e+000	 3.535635467926333e+000
 3.937337126676676e-001	 1.564551104694253e+000	 3.435747946987947e+000
 3.776782761033100e-001	 1.568504257089224e+000	 3.343182267335169e+000
 3.616295525513068e-001	 1.572281985595597e+000	 3.257045621149033e+000
 3.455901886630016e-001	 1.575885175183543e+000	 3.176413483158460e+000
 3.295627971289896e-001	 1.579314759177490e+000	 3.100343052765098e+000
 3.135499557176358e-001	 1.582571718026590e+000	 3.027885368403149e+000
 4.759755552641329e-001	 1.548499285579436e+000	 4.052668682558604e+000
 4.598610508531317e-001	 1.553361064415891e+000	 3.915872007836038e+000
 4.437395247434138e-001	 1.558043021352281e+000	 3.789616498454386e+000
 4.276137889416997e-001	 1.562545784474214e+000	 3.673240006572415e+000
 4.114866268671124e-001	 1.566870036264565e+000	 3.565980564452326e+000
 3.953607921582604e-001	 1.571016512485042e+000	 3.466996148890690e+000
 3.792390075249657e-001	 1.574986001030779e+000	 3.375382708679703e+000
 3.631239636451417e-001	 1.578779340759835e+000	 3.290190536487445e+000
 3.470183181072453e-001	 1.582397420299454e+000	 3.210439075879084e+000
 3.309246943986448e-001	 1.585841176830959e+000	 3.135130262039423e+000
 3.148456809401636e-001	 1.589111594855133e+000	 3.063260501107975e+000
 4.779343991337011e-001	 1.554872025307074e+000	 4.080106831503980e+000
 4.617535766148420e-001	 1.559753812452132e+000	 3.943463014823857e+000
 4.455657035000026e-001	 1.564455037652777e+000	 3.817647900382346e+000
 4.293736033685146e-001	 1.568976331579451e+000	 3.701937788420442e+000
 4.131800710944626e-001	 1.573318379523730e+000	 3.595510223263942e+000
 3.969878716488561e-001	 1.577481920275285e+000	 3.497463826202478e+000
 3.807997389466332e-001	 1.581467744971770e+000	 3.406836339654099e+000
 3.646183747389991e-001	 1.585276695923494e+000	 3.322620968065172e+000
 3.484464475515243e-001	 1.588909665414775e+000	 3.243781110531107e+000
 3.322865916683502e-001	 1.592367594483831e+000	 3.169263588095467e+000
 3.161414061627602e-001	 1.595651471683077e+000	 3.098010475170995e+000
 4.798932430032044e-001	 1.561244765034445e+000	 4.106818023304329e+000
 4.636461023765049e-001	 1.566146560488082e+000	 3.970348160878069e+000
 4.473918822565585e-001	 1.570867053952957e+000	 3.844996226044680e+000
 4.311334177953083e-001	 1.575406878684347e+000	 3.729976017002050e+000
 4.148735153218010e-001	 1.579766722782525e+000	 3.624403856607281e+000
 3.986149511394479e-001	 1.583947328065134e+000	 3.527318486199123e+000
 3.823604703683042e-001	 1.587949488912343e+000	 3.437699117571726e+000
 3.661127858328667e-001	 1.591774051086716e+000	 3.354481732724636e+000
 3.498745769958204e-001	 1.595421910529643e+000	 3.276573730759389e+000
 3.336484889380808e-001	 1.598894012136239e+000	 3.202867029418101e+000
 3.174371313853914e-001	 1.602191348510555e+000	 3.132249735349478e+000
 4.818520868726261e-001	 1.567617504761729e+000	 4.133031576394004e+000
 4.655386281381087e-001	 1.572539308523918e+000	 3.996744092707736e+000
 4.492180610130728e-001	 1.577279070252993e+000	 3.871865603524610e+000
 4.328932322220744e-001	 1.581837425789064e+000	 3.757546493254882e+000
 4.165669595491220e-001	 1.586215066041111e+000	 3.652841172663486e+000
 4.002420306300298e-001	 1.590412735854740e+000	 3.556728025879800e+000
 3.839212017899701e-001	 1.594431232852644e+000	 3.468127461005639e+000
 3.676071969267320e-001	 1.598271406249639e+000	 3.385918158249039e+000
 3.513027064401157e-001	 1.601934155644195e+000	 3.308951619458863e+000
 3.350103862078114e-001	 1.605420429788318e+000	 3.236065131226652e+000
 3.187328566080224e-001	 1.608731225337699e+000	 3.166093260419114e+000
 4.838109307419504e-001	 1.573990244489111e+000	 4.158976481843516e+000
 4.674311538996414e-001	 1.578932056559819e+000	 4.022867316626038e+000
 4.510442397695371e-001	 1.583691086553055e+000	 3.898460184452456e+000
 4.346530466488063e-001	 1.588267972893769e+000	 3.784841182636567e+000
 4.182604037764201e-001	 1.592663409299643e+000	 3.681002162284837e+000
 4.018691101205954e-001	 1.596878143644255e+000	 3.585860720481370e+000
 3.854819332116223e-001	 1.600912976792819e+000	 3.498278240074068e+000
 3.691016080205829e-001	 1.604768761412406e+000	 3.417076075422490e+000
 3.527308358843927e-001	 1.608446400758566e+000	 3.341049992612918e+000
 3.363722834775167e-001	 1.611946847440201e+000	 3.268982981112042e+000
 3.200285818306191e-001	 1.615271102164644e+000	 3.199656560630521e+000
 4.857697746111607e-001	 1.580362984216774e+000	 4.184881382379339e+000
 4.693236796610911e-001	 1.585324804595960e+000	 4.048934179474511e+000
 4.528704185259429e-001	 1.590103102853316e+000	 3.924984126801085e+000
 4.364128610754976e-001	 1.594698519998625e+000	 3.812052199760671e+000
 4.199538480036892e-001	 1.599111752558280e+000	 3.709067085446605e+000
 4.034961896111380e-001	 1.603343551433830e+000	 3.614885211728455e+000
 3.870426646332523e-001	 1.607394720733012e+000	 3.528308766477915e+000
 3.705960191144070e-001	 1.611266116575157e+000	 3.448101809851496e+000
 3.541589653286333e-001	 1.614958645872892e+000	 3.373004592904951e+000
 3.377341807471714e-001	 1.618473265092024e+000	 3.301746204445513e+000
 3.213243070531469e-001	 1.621810978991523e+000	 3.233055674939743e+000
 4.877286184802408e-001	 1.586735723944899e+000	 4.210974551008206e+000
 4.712162054224462e-001	 1.591717552632520e+000	 4.075160849189141e+000
 4.546965972822816e-001	 1.596515119153945e+000	 3.951641577352836e+000
 4.381726755021417e-001	 1.601129067103797e+000	 3.839371792731672e+000
 4.216472922309238e-001	 1.605560095817179e+000	 3.737216457422135e+000
 4.051232691016514e-001	 1.609808959223615e+000	 3.643970495829310e+000
 3.886033960548516e-001	 1.613876464673370e+000	 3.558376783300774e+000
 3.720904302081917e-001	 1.617763471738032e+000	 3.479142173560219e+000
 3.555870947728198e-001	 1.621470890987311e+000	 3.404951683108632e+000
 3.390960780167504e-001	 1.624999682743920e+000	 3.334480959575037e+000
 3.226200322755714e-001	 1.628350855818469e+000	 3.266407168019131e+000
 4.896874623491745e-001	 1.593108463673670e+000	 4.237483869262392e+000
 4.731087311836948e-001	 1.598110300669677e+000	 4.101763295018617e+000
 4.565227760385447e-001	 1.602927135455114e+000	 3.978636653848868e+000
 4.399324899287324e-001	 1.607559614209450e+000	 3.866992327188582e+000
 4.233407364581182e-001	 1.612008439076500e+000	 3.765631034690502e+000
 4.067503485921295e-001	 1.616274367013764e+000	 3.673285911218304e+000
 3.901641274764115e-001	 1.620358208614037e+000	 3.588640454571032e+000
 3.735848413019252e-001	 1.624260826901171e+000	 3.510344456360878e+000
 3.570152242169341e-001	 1.627983136101961e+000	 3.437028039261152e+000
 3.404579752862288e-001	 1.631526100396023e+000	 3.367313932801185e+000
 3.239157574978582e-001	 1.634890732645615e+000	 3.299828127053871e+000
 3.109585052729244e-001	 1.569491964367168e+000	 2.954804531759911e+000
 2.950973361555283e-001	 1.572551378267190e+000	 2.884805299066109e+000
 2.792555925298783e-001	 1.575441725585226e+000	 2.818418088172244e+000
 2.634357170593281e-001	 1.578164112201086e+000	 2.755677080970326e+000
 2.476401145228079e-001	 1.580719685648571e+000	 2.696647273329058e+000
 2.318711510915625e-001	 1.583109633828190e+000	 2.641430682184862e+000
 2.161311536513517e-001	 1.585335183711221e+000	 2.590171934325082e+000
 2.004224091698800e-001	 1.587397600036800e+000	 2.543063338055184e+000
 1.847471641091543e-001	 1.589298184003680e+000	 2.500349535717426e+000
 1.691076238824034e-001	 1.591038271958281e+000	 2.462331830979275e+000
 1.535059523551476e-001	 1.592619234080585e+000	 2.429372280039801e+000
 3.122542304952113e-001	 1.576031841197312e+000	 2.991771168629046e+000
 2.963269698688031e-001	 1.579104003292622e+000	 2.922126706257998e+000
 2.804192156777261e-001	 1.582006394326573e+000	 2.856022478828060e+000
 2.645334207636076e-001	 1.584740124787051e+000	 2.793516154685610e+000
 2.486719999257926e-001	 1.587306346989509e+000	 2.734695703672581e+000
 2.328373291950671e-001	 1.589706253784308e+000	 2.679685264998734e+000
 2.170317451530342e-001	 1.591941077255381e+000	 2.628650393761491e+000
 2.012575442969084e-001	 1.594012087411892e+000	 2.581802791321039e+000
 1.855169824494246e-001	 1.595920590874547e+000	 2.539404621336045e+000
 1.698122742134936e-001	 1.597667929558169e+000	 2.501772509021228e+000
 1.541455924711945e-001	 1.599255479352131e+000	 2.469281316204385e+000
 3.135499557176358e-001	 1.582571718026590e+000	 3.027885368403149e+000
 2.975566035822601e-001	 1.585656628317190e+000	 2.958646483805655e+000
 2.815828388258038e-001	 1.588571063067058e+000	 2.892883103696985e+000
 2.656311244681645e-001	 1.591316137372162e+000	 2.830674881303164e+000
 2.497038853290978e-001	 1.593893008329605e+000	 2.772131266016449e+000
 2.338035072989267e-001	 1.596302873739601e+000	 2.717397022013960e+000
 2.179323366550938e-001	 1.598546970798740e+000	 2.666657122371427e+000
 2.020926794243194e-001	 1.600626574786212e+000	 2.620141127989131e+000
 1.862868007900624e-001	 1.602542997744678e+000	 2.578127157067285e+000
 1.705169245449123e-001	 1.604297587157367e+000	 2.540945546434758e+000
 1.547852325875027e-001	 1.605891724623038e+000	 2.508982300820174e+000
 3.148456809401636e-001	 1.589111594855133e+000	 3.063260501107971e+000
 2.987862372958534e-001	 1.592209253341028e+000	 2.994468588461032e+000
 2.827464619740536e-001	 1.595135731806818e+000	 2.929094110611556e+000
 2.667288281729294e-001	 1.597892149956559e+000	 2.867237299366868e+000
 2.507357707326434e-001	 1.600479669669002e+000	 2.809027686236697e+000
 2.347696854030525e-001	 1.602899493694213e+000	 2.754629261371349e+000
 2.188329281574361e-001	 1.605152864341439e+000	 2.704245004722917e+000
 2.029278145520174e-001	 1.607241062159900e+000	 2.658120902964587e+000
 1.870566191309760e-001	 1.609165404614206e+000	 2.616549561936480e+000
 1.712215748765773e-001	 1.610927244755997e+000	 2.579873519756550e+000
 1.554248727040072e-001	 1.612527969893416e+000	 2.548488360290555e+000
 3.161414061627602e-001	 1.595651471683077e+000	 3.098010475170995e+000
 3.000158710095376e-001	 1.598761878364269e+000	 3.029697489066627e+000
 2.839100851224186e-001	 1.601700400545991e+000	 2.964750133302222e+000
 2.678265318778331e-001	 1.604468162540381e+000	 2.903287907565289e+000
 2.517676561363493e-001	 1.607066331007840e+000	 2.845459125408486e+000
 2.357358635073559e-001	 1.609496113648287e+000	 2.791445702669883e+000
 2.197335196599669e-001	 1.611758757883622e+000	 2.741467314732517e+000
 2.037629496799067e-001	 1.613855549533095e+000	 2.695785040473568e+000
 1.878264374720734e-001	 1.615787811483266e+000	 2.654704606816044e+000
 1.719262252084068e-001	 1.617556902354182e+000	 2.618579342938777e+000
 1.560645128206423e-001	 1.619164215163372e+000	 2.587812947545135e+000
 3.174371313853914e-001	 1.602191348510555e+000	 3.132249735349478e+000
 3.012455047232674e-001	 1.605314503387048e+000	 3.064438166151222e+000
 2.850737082708409e-001	 1.608265069284713e+000	 2.999946292322257e+000
 2.689242355828062e-001	 1.611044175123768e+000	 2.938911666672361e+000
 2.527995415401351e-001	 1.613652992346263e+000	 2.881500182460219e+000
 2.367020416117482e-001	 1.616092733601967e+000	 2.827910480053950e+000
 2.206341111625921e-001	 1.618364651425432e+000	 2.778377718921818e+000
 2.045980848078915e-001	 1.620470036905936e+000	 2.733176837249055e+000
 1.885962558132627e-001	 1.622410218351989e+000	 2.692625417319576e+000
 1.726308755403183e-001	 1.624186559952042e+000	 2.657086269749730e+000
 1.567041529373427e-001	 1.625800460433011e+000	 2.626969843761604e+000
 3.187328566080224e-001	 1.608731225337699e+000	 3.166093260419114e+000
 3.024751384369969e-001	 1.611867128409499e+000	 3.098796111285808e+000
 2.862373314192634e-001	 1.614829738023120e+000	 3.034778195739539e+000
 2.700219392877792e-001	 1.617620187706860e+000	 2.974194001257578e+000
 2.538314269439211e-001	 1.620239653684411e+000	 2.917225896610825e+000
 2.376682197161404e-001	 1.622689353555394e+000	 2.864088145096382e+000
 2.215347026652172e-001	 1.624970544967009e+000	 2.815030279492583e+000
 2.054332199358763e-001	 1.627084524278562e+000	 2.770339965557035e+000
 1.893660741544520e-001	 1.629032625220509e+000	 2.730345476559857e+000
 1.733355258722298e-001	 1.630816217549702e+000	 2.695417896061343e+000
 1.573437930540432e-001	 1.632436705702442e+000	 2.665973160009273e+000
 3.200285818306191e-001	 1.615271102164644e+000	 3.199656560630521e+000
 3.037047721506812e-001	 1.618419753431758e+000	 3.132877326205382e+000
 2.874009545676282e-001	 1.621394406761351e+000	 3.069341939595240e+000
 2.711196429926829e-001	 1.624196200289796e+000	 3.009220801175210e+000
 2.548633123476269e-001	 1.626826315022429e+000	 2.952711749590841e+000
 2.386343978204437e-001	 1.629285973508712e+000	 2.900043669485222e+000
 2.224352941677480e-001	 1.631576438508499e+000	 2.851479457221488e+000
 2.062683550637655e-001	 1.633699011651114e+000	 2.807318476063938e+000
 1.901358924955494e-001	 1.635655032088957e+000	 2.767898627771597e+000
 1.740401762040591e-001	 1.637445875147284e+000	 2.733598162034785e+000
 1.579834331706782e-001	 1.639072950971772e+000	 2.704837338810020e+000
 3.213243070531469e-001	 1.621810978991523e+000	 3.233055674939743e+000
 3.049344058642744e-001	 1.624972378453958e+000	 3.166788321703919e+000
 2.885645777158782e-001	 1.627959075499541e+000	 3.103734108139997e+000
 2.722173466974478e-001	 1.630772212872715e+000	 3.044078422833028e+000
 2.558951977511724e-001	 1.633412976360454e+000	 2.988033667662568e+000
 2.396005759245694e-001	 1.635882593462065e+000	 2.935842447519715e+000
 2.233358856700902e-001	 1.638182332050043e+000	 2.887780114179857e+000
 2.071034901914634e-001	 1.640313499023730e+000	 2.844156800548138e+000
 1.909057108364629e-001	 1.642277438957469e+000	 2.805319076802978e+000
 1.747448265357242e-001	 1.644075532744909e+000	 2.771651354191403e+000
 1.586230732871825e-001	 1.645709196241107e+000	 2.743577155621293e+000
 3.226200322755714e-001	 1.628350855818469e+000	 3.266407168019131e+000
 3.061640395777312e-001	 1.631525003476234e+000	 3.200636116306527e+000
 2.897282008639557e-001	 1.634523744237826e+000	 3.138051773851875e+000
 2.733150504020046e-001	 1.637348225455756e+000	 3.078853690254970e+000
 2.569270831544775e-001	 1.639999637698632e+000	 3.023268023437110e+000
 2.405667540284290e-001	 1.642479213415595e+000	 2.971550298418158e+000
 2.242364771721496e-001	 1.644788225591782e+000	 2.923987516286065e+000
 2.079386253188743e-001	 1.646927986396549e+000	 2.880899754467005e+000
 1.916755291771006e-001	 1.648899845826174e+000	 2.842641394480646e+000
 1.754494768671429e-001	 1.650705190342700e+000	 2.809602107389026e+000
 1.592627134034907e-001	 1.652345441510555e+000	 2.782207720244047e+000
 3.239157574978582e-001	 1.634890732645615e+000	 3.299828127053871e+000
 3.073936732910061e-001	 1.638077628498721e+000	 3.234528234731572e+000
 2.908918240118034e-001	 1.641088412976345e+000	 3.172392497242820e+000
 2.744127541062840e-001	 1.643924238039060e+000	 3.113633895933895e+000
 2.579589685574620e-001	 1.646586299037103e+000	 3.058491637497872e+000
 2.415329321319333e-001	 1.649075833369447e+000	 3.007233468446012e+000
 2.251370686738320e-001	 1.651394119133861e+000	 2.960157335692755e+000
 2.087737604459027e-001	 1.653542473769713e+000	 2.917592539372829e+000
 1.924453475173707e-001	 1.655522252695209e+000	 2.879900518852830e+000
 1.761541271982328e-001	 1.657334847940780e+000	 2.847475406693546e+000
 1.599023535195375e-001	 1.658981686780223e+000	 2.820744478157550e+000
 1.535059523551476e-001	 1.592619234080585e+000	 2.429372280039801e+000
 1.379419454236043e-001	 1.594042674868919e+000	 2.401400763369469e+000
 1.224200535966850e-001	 1.595309780082036e+000	 2.377628334674935e+000
 1.069423457192570e-001	 1.596422014541718e+000	 2.357439305704565e+000
 9.151084653197959e-002	 1.597380871690691e+000	 2.340310835308892e+000
 7.612753639004517e-002	 1.598187872276344e+000	 2.325818703429517e+000
 6.079435102347421e-002	 1.598844563041398e+000	 2.313643168764588e+000
 4.551318133816635e-002	 1.599352515422813e+000	 2.303574952317739e+000
 3.028587325687572e-002	 1.599713324260166e+000	 2.295521381816414e+000
 1.511422759924549e-002	 1.599928606514677e+000	 2.289512724761697e+000
 0.000000000000000e+000	 1.600000000000000e+000	 2.285708728493789e+000
 1.541455924711945e-001	 1.599255479352131e+000	 2.469281316204385e+000
 1.385167322682697e-001	 1.600684851440509e+000	 2.441832990234082e+000
 1.229301626583410e-001	 1.601957236522953e+000	 2.418592638842107e+000
 1.073879611068879e-001	 1.603074105524943e+000	 2.398925768919467e+000
 9.189216079140575e-002	 1.604036958112175e+000	 2.382286920091656e+000
 7.644475031897427e-002	 1.604847321368774e+000	 2.368225279161123e+000
 6.104767348555383e-002	 1.605506748482524e+000	 2.356390404002059e+000
 4.570282907620749e-002	 1.606016817438340e+000	 2.346538100658742e+000
 3.041207070541374e-002	 1.606379129721276e+000	 2.338536489882024e+000
 1.517720669660126e-002	 1.606595309030202e+000	 2.332372291858578e+000
 0.000000000000000e+000	 1.606667000003317e+000	 2.328157348613095e+000
 1.547852325875027e-001	 1.605891724623038e+000	 2.508982300820174e+000
 1.390915191131006e-001	 1.607327028011525e+000	 2.482106904283495e+000
 1.234402717200479e-001	 1.608604692963362e+000	 2.459436163289337e+000
 1.078335764944499e-001	 1.609726196507734e+000	 2.440318347221555e+000
 9.227347505065067e-002	 1.610693044533295e+000	 2.424186915567324e+000
 7.676196424762999e-002	 1.611506770460910e+000	 2.410565958731283e+000
 6.130099594730060e-002	 1.612168933923417e+000	 2.399075774861548e+000
 4.589247681390136e-002	 1.612681119453689e+000	 2.389438628029003e+000
 3.053826815364729e-002	 1.613044935182250e+000	 2.381484725294147e+000
 1.524018579376439e-002	 1.613262011545619e+000	 2.375158442446960e+000
 0.000000000000000e+000	 1.613334000006534e+000	 2.370524819029082e+000
 1.554248727040072e-001	 1.612527969893416e+000	 2.548488360290555e+000
 1.396663059580556e-001	 1.613969204582053e+000	 2.522227318104518e+000
 1.239503807817931e-001	 1.615252149403328e+000	 2.500157257855759e+000
 1.082791918819602e-001	 1.616378287490125e+000	 2.481610827403670e+000
 9.265478930975965e-002	 1.617349130954059e+000	 2.466001991371470e+000
 7.707917817608065e-002	 1.618166219552732e+000	 2.452831283981745e+000
 6.155431840879776e-002	 1.618831119364033e+000	 2.441691225258694e+000
 4.608212455133484e-002	 1.619345421468792e+000	 2.432271947580515e+000
 3.066446560165248e-002	 1.619710740643001e+000	 2.424367071475203e+000
 1.530316489078306e-002	 1.619928714060829e+000	 2.417879861493313e+000
 0.000000000000000e+000	 1.620001000009550e+000	 2.412829683950509e+000
 1.560645128206423e-001	 1.619164215163372e+000	 2.587812947545135e+000
 1.402410928030933e-001	 1.620611381152179e+000	 2.562199353354109e+000
 1.244604898435637e-001	 1.621899605842912e+000	 2.540754547829573e+000
 1.087248072694361e-001	 1.623030378472153e+000	 2.522797223188980e+000
 9.303610356877803e-002	 1.624005217374477e+000	 2.507723481921913e+000
 7.739639210439463e-002	 1.624825668644220e+000	 2.495011887019218e+000
 6.180764087012852e-002	 1.625493304804328e+000	 2.484228703741139e+000
 4.627177228859470e-002	 1.626009723483584e+000	 2.475033381596080e+000
 3.079066304950546e-002	 1.626376546103448e+000	 2.467184316828000e+000
 1.536614398770540e-002	 1.626595416575738e+000	 2.460544927350952e+000
 0.000000000000000e+000	 1.626668000012268e+000	 2.455090063113870e+000
 1.567041529373427e-001	 1.625800460433011e+000	 2.626969843761604e+000
 1.408158796481724e-001	 1.627253557721992e+000	 2.602028441859529e+000
 1.249705989053471e-001	 1.628547062282178e+000	 2.581226934709477e+000
 1.091704226568947e-001	 1.629682469453853e+000	 2.563871775938251e+000
 9.341741782775104e-002	 1.630661303794554e+000	 2.549342887357050e+000
 7.771360603264023e-002	 1.631485117735354e+000	 2.537098491681642e+000
 6.206096333137607e-002	 1.632155490244256e+000	 2.526680165785154e+000
 4.646142002576775e-002	 1.632674025497995e+000	 2.517718164911525e+000
 3.091686049728231e-002	 1.633042351563504e+000	 2.509937059594714e+000
 1.542912308457960e-002	 1.633262119090249e+000	 2.503161718363110e+000
 0.000000000000000e+000	 1.633335000014584e+000	 2.497323660447589e+000
 1.573437930540432e-001	 1.632436705702442e+000	 2.665973160009273e+000
 1.413906664932514e-001	 1.633895734291576e+000	 2.641720326665674e+000
 1.254807079671305e-001	 1.635194518721186e+000	 2.621573596924677e+000
 1.096160380443534e-001	 1.636334560435261e+000	 2.604828955320286e+000
 9.379873208672410e-002	 1.637317390214300e+000	 2.590851874443918e+000
 7.803081996088587e-002	 1.638144566826117e+000	 2.579081914966503e+000
 6.231428579262363e-002	 1.638817675683773e+000	 2.569037576031242e+000
 4.665106776294084e-002	 1.639338327511960e+000	 2.560321448258413e+000
 3.104305794505919e-002	 1.639708157023086e+000	 2.552625712598857e+000
 1.549210218145381e-002	 1.639928821604267e+000	 2.545738019309973e+000
 0.000000000000000e+000	 1.640002000016400e+000	 2.539547772523262e+000
 1.579834331706782e-001	 1.639072950971772e+000	 2.704837338810020e+000
 1.419654533382891e-001	 1.640537910861019e+000	 2.681281063022958e+000
 1.259908170289011e-001	 1.641841975160000e+000	 2.661793990516370e+000
 1.100616534318293e-001	 1.642986651416412e+000	 2.645663459955567e+000
 9.418004634574248e-002	 1.643973476633723e+000	 2.632242277452435e+000
 7.834803388919989e-002	 1.644804015916488e+000	 2.620953068415792e+000
 6.256760825395444e-002	 1.645479861122833e+000	 2.611292910463464e+000
 4.684071550020075e-002	 1.646002629525412e+000	 2.602838301519311e+000
 3.116925539291220e-002	 1.646373962482108e+000	 2.595250507872404e+000
 1.555508127837619e-002	 1.646595524117697e+000	 2.588281327695499e+000
 0.000000000000000e+000	 1.646669000017617e+000	 2.581779296802724e+000
 1.586230732871825e-001	 1.645709196241107e+000	 2.743577155621293e+000
 1.425402401832440e-001	 1.647180087430407e+000	 2.720717019323037e+000
 1.265009260906462e-001	 1.648489431598683e+000	 2.701887849780642e+000
 1.105072688193396e-001	 1.649638742397343e+000	 2.686370218024724e+000
 9.456136060485151e-002	 1.650629563052830e+000	 2.673506098998355e+000
 7.866524781765064e-002	 1.651463465006448e+000	 2.662702959461226e+000
 6.282093071545165e-002	 1.652142046561392e+000	 2.653438158530310e+000
 4.703036323763429e-002	 1.652666931538284e+000	 2.645263716907078e+000
 3.129545284091747e-002	 1.653039767940489e+000	 2.637811501166377e+000
 1.561806037539490e-002	 1.653262226630441e+000	 2.630798859882543e+000
 0.000000000000000e+000	 1.653336000018133e+000	 2.624034739684172e+000
 1.592627134034907e-001	 1.652345441510555e+000	 2.782207720244047e+000
 1.431150270280749e-001	 1.653822263999829e+000	 2.760034877982879e+000
 1.270110351523531e-001	 1.655136888037296e+000	 2.741855187874907e+000
 1.109528842069016e-001	 1.656290833378089e+000	 2.726944387851902e+000
 9.494267486409647e-002	 1.657285649471628e+000	 2.714635510856887e+000
 7.898246174630642e-002	 1.658122914095977e+000	 2.704322692733199e+000
 6.307425317719857e-002	 1.658804231999406e+000	 2.695465325214770e+000
 4.722001097532829e-002	 1.659331233550508e+000	 2.687592612061158e+000
 3.142165028915112e-002	 1.659705573398140e+000	 2.680308576359195e+000
 1.568103947255809e-002	 1.659928929142404e+000	 2.673297557081316e+000
 0.000000000000000e+000	 1.660003000017850e+000	 2.666330224356682e+000
 1.599023535195375e-001	 1.658981686780223e+000	 2.820744478157550e+000
 1.436898138727403e-001	 1.660464440569369e+000	 2.799241636275544e+000
 1.275211442140091e-001	 1.661784344475902e+000	 2.781696297386267e+000
 1.113984995945325e-001	 1.662942924358685e+000	 2.767381358455261e+000
 9.532398912352270e-002	 1.663941735890127e+000	 2.755622854747915e+000
 7.929967567523567e-002	 1.664782363185058e+000	 2.745803471329685e+000
 6.332757563927832e-002	 1.665466417436829e+000	 2.737366433046902e+000
 4.740965871336957e-002	 1.665995535562018e+000	 2.729819833071389e+000
 3.154784773768926e-002	 1.666371378854980e+000	 2.722741449750399e+000
 1.574401856991394e-002	 1.666595631653491e+000	 2.715784091193362e+000
 0.000000000000000e+000	 1.666670000016666e+000	 2.708681498463441e+000
 1.666670000016666e+000	 0.000000000000000e+000	 1.354000793491642e+001
 1.666595631653491e+000	 1.574401856991399e-002	 1.354799415129833e+001
 1.666371378854980e+000	 3.154784773768937e-002	 1.355207719353755e+001
 1.665995535562018e+000	 4.740965871336945e-002	 1.355335419902163e+001
 1.665466417436829e+000	 6.332757563927825e-002	 1.355289411938691e+001
 1.664782363185057e+000	 7.929967567523566e-002	 1.355173496730229e+001
 1.663941735890127e+000	 9.532398912352275e-002	 1.355088108010206e+001
 1.662942924358684e+000	 1.113984995945326e-001	 1.355130042428888e+001
 1.661784344475902e+000	 1.275211442140089e-001	 1.355392196082294e+001
 1.660464440569369e+000	 1.436898138727402e-001	 1.355963309402356e+001
 1.658981686780223e+000	 1.599023535195375e-001	 1.356927722994998e+001
 1.673336000014533e+000	 0.000000000000000e+000	 1.350067221230927e+001
 1.673261334208274e+000	 1.580698822110226e-002	 1.350894358755614e+001
 1.673036184490139e+000	 3.167402625791183e-002	 1.351319875091413e+001
 1.672658837977462e+000	 4.759927800607734e-002	 1.351457368000925e+001
 1.672127603595793e+000	 6.358086010527679e-002	 1.351417496658018e+001
 1.671440813406267e+000	 7.961684202477344e-002	 1.351307697147555e+001
 1.670596823945298e+000	 9.570524618888120e-002	 1.351231898851473e+001
 1.669594017575405e+000	 1.118440481432776e-001	 1.351290244123613e+001
 1.668430803845940e+000	 1.280311767630718e-001	 1.351578813245508e+001
 1.667105620862422e+000	 1.442645145034966e-001	 1.352189356956049e+001
 1.665616936663168e+000	 1.605418976940590e-001	 1.353209039161560e+001
 1.680002000011600e+000	 0.000000000000000e+000	 1.346192665173041e+001
 1.679927036762280e+000	 1.586995787248314e-002	 1.347048808531554e+001
 1.679700990124582e+000	 3.180020477843872e-002	 1.347492100358526e+001
 1.679322140392283e+000	 4.778889729913242e-002	 1.347639998456626e+001
 1.678788789754250e+000	 6.383414457160808e-002	 1.347606906215345e+001
 1.678099263627101e+000	 7.993400837458459e-002	 1.347503878997894e+001
 1.677251912000235e+000	 9.608650325442089e-002	 1.347438330581135e+001
 1.676245110792035e+000	 1.122895966920916e-001	 1.347513742048892e+001
 1.675077263216021e+000	 1.285412093120837e-001	 1.347829375130357e+001
 1.673746801155640e+000	 1.448392151340876e-001	 1.348479992285130e+001
 1.672252186546373e+000	 1.611814418683190e-001	 1.349555586160495e+001
 1.686668000008066e+000	 0.000000000000000e+000	 1.342374000317722e+001
 1.686592739315701e+000	 1.593292752400844e-002	 1.343259667762404e+001
 1.686365795758486e+000	 3.192638329919390e-002	 1.343721317377632e+001
 1.685985442806634e+000	 4.797851659244783e-002	 1.343880242056179e+001
 1.685449975912325e+000	 6.408742903818895e-002	 1.343854568796285e+001
 1.684757713847654e+000	 8.025117472460075e-002	 1.343758956044964e+001
 1.683907000054997e+000	 9.646776032009649e-002	 1.343704290225635e+001
 1.682896204008598e+000	 1.127351452409572e-001	 1.343797383845937e+001
 1.681723722586136e+000	 1.290512418610573e-001	 1.344140677175459e+001
 1.680387981448981e+000	 1.454139157645546e-001	 1.344831945802280e+001
 1.678887436429775e+000	 1.618209860423830e-001	 1.345964016711855e+001
 1.693334000004133e+000	 0.000000000000000e+000	 1.338607978910321e+001
 1.693258441868734e+000	 1.599589717563005e-002	 1.339523747089284e+001
 1.693030601392032e+000	 3.205256182010128e-002	 1.340004384465998e+001
 1.692648745220673e+000	 4.816813588593683e-002	 1.340174993100535e+001
 1.692111162070147e+000	 6.434071350493616e-002	 1.340157402177306e+001
 1.691416164068019e+000	 8.056834107475357e-002	 1.340069856377956e+001
 1.690562088109642e+000	 9.684901738586264e-002	 1.340026702533177e+001
 1.689547297225114e+000	 1.131806937898572e-001	 1.340138076943152e+001
 1.688370181956273e+000	 1.295612744100055e-001	 1.340509595352399e+001
 1.687029161742404e+000	 1.459886163949388e-001	 1.341242047894092e+001
 1.685522686313308e+000	 1.624605302163164e-001	 1.342431101664287e+001
 1.700000000000000e+000	 0.000000000000000e+000	 1.334891232848513e+001
 1.699924144421573e+000	 1.605886682729980e-002	 1.335837766624839e+001
 1.699695407025399e+000	 3.217874034108477e-002	 1.336338097893869e+001
 1.699312047634556e+000	 4.835775517951264e-002	 1.336521110980427e+001
 1.698772348227841e+000	 6.459399797176661e-002	 1.336512315013642e+001
 1.698074614288291e+000	 8.088550742497475e-002	 1.336433523406193e+001
 1.697217176164229e+000	 9.723027445167416e-002	 1.336402530669802e+001
 1.696198390441607e+000	 1.136262423387745e-001	 1.336532788948365e+001
 1.695016641326421e+000	 1.300713069589410e-001	 1.336933086248867e+001
 1.693670342035869e+000	 1.465633170252817e-001	 1.337707228690132e+001
 1.692157936196906e+000	 1.631000743901843e-001	 1.338953729445188e+001
 1.706665999995867e+000	 0.000000000000000e+000	 1.331220276032597e+001
 1.706589846974411e+000	 1.612183647896955e-002	 1.332198358038304e+001
 1.706360212658765e+000	 3.230491886206825e-002	 1.332719193698624e+001
 1.705975350048439e+000	 4.854737447308842e-002	 1.332915421714121e+001
 1.705433534385535e+000	 6.484728243859705e-002	 1.332916208095034e+001
 1.704733064508563e+000	 8.120267377519590e-002	 1.332846916827358e+001
 1.703872264218816e+000	 9.761153151748565e-002	 1.332828776894593e+001
 1.702849483658101e+000	 1.140717908876918e-001	 1.332978548025584e+001
 1.701663100696569e+000	 1.305813395078764e-001	 1.333408187141825e+001
 1.700311522329333e+000	 1.471380176556246e-001	 1.334224517827284e+001
 1.698793186080504e+000	 1.637396185640524e-001	 1.335528905511177e+001
 1.713331999991934e+000	 0.000000000000000e+000	 1.327591506660932e+001
 1.713255549527444e+000	 1.618480613059116e-002	 1.328602066591714e+001
 1.713025018292311e+000	 3.243109738297564e-002	 1.329144349456112e+001
 1.712638652462478e+000	 4.873699376657743e-002	 1.329354719448125e+001
 1.712094720543356e+000	 6.510056690534430e-002	 1.329365975570087e+001
 1.711391514728927e+000	 8.151984012534873e-002	 1.329307013569896e+001
 1.710527352273460e+000	 9.799278858325182e-002	 1.329302483214507e+001
 1.709500576874617e+000	 1.145173394365918e-001	 1.329472443256844e+001
 1.708309560066707e+000	 1.310913720568246e-001	 1.329932016060822e+001
 1.706952702622756e+000	 1.477127182860088e-001	 1.330791044209333e+001
 1.705428435964036e+000	 1.643791627379857e-001	 1.332153751798858e+001
 1.719997999988401e+000	 0.000000000000000e+000	 1.324001209472011e+001
 1.719921252080866e+000	 1.624777578211647e-002	 1.325045353128659e+001
 1.719689823926216e+000	 3.255727590373082e-002	 1.325610186010217e+001
 1.719301954876829e+000	 4.892661305989284e-002	 1.325835767921820e+001
 1.718755906701431e+000	 6.535385137192518e-002	 1.325858506140173e+001
 1.718049964949481e+000	 8.183700647536488e-002	 1.325810808710346e+001
 1.717182440328223e+000	 9.837404564892741e-002	 1.325820732019508e+001
 1.716151670091179e+000	 1.149628879854574e-001	 1.326011624989430e+001
 1.714956019436821e+000	 1.316014046057983e-001	 1.326501771841864e+001
 1.713593882916098e+000	 1.482874189164758e-001	 1.327404035762051e+001
 1.712063685847439e+000	 1.650187069120498e-001	 1.328825506175872e+001
 1.726663999985468e+000	 0.000000000000000e+000	 1.320445557934574e+001
 1.726586954634872e+000	 1.631074543349734e-002	 1.321524596016814e+001
 1.726354629560658e+000	 3.268345442425769e-002	 1.322113269161960e+001
 1.725965257291649e+000	 4.911623235294792e-002	 1.322355301897049e+001
 1.725417092859888e+000	 6.560713583825646e-002	 1.322390684223634e+001
 1.724708415170315e+000	 8.215417282517601e-002	 1.322355316366304e+001
 1.723837528383160e+000	 9.875530271446710e-002	 1.322380646698405e+001
 1.722802763307809e+000	 1.154084365342713e-001	 1.322593305168887e+001
 1.721602478806902e+000	 1.321114371548102e-001	 1.323114734171974e+001
 1.720235063209315e+000	 1.488621195470668e-001	 1.324060819183817e+001
 1.718698935730645e+000	 1.656582510863099e-001	 1.325541521892212e+001
 1.733329999983334e+000	 0.000000000000000e+000	 1.316920616387213e+001
 1.733252657189655e+000	 1.637371508468560e-002	 1.318036093045602e+001
 1.733019435195817e+000	 3.280963294448016e-002	 1.318650111319018e+001
 1.732628559707093e+000	 4.930585164565578e-002	 1.318910028553613e+001
 1.732078279018852e+000	 6.586042030425496e-002	 1.318959391091138e+001
 1.731366865391524e+000	 8.247133917471382e-002	 1.318937570565627e+001
 1.730492616438330e+000	 9.913655977982551e-002	 1.318979392236027e+001
 1.729453856524530e+000	 1.158539850830164e-001	 1.319214757658308e+001
 1.728248938176940e+000	 1.326214697038731e-001	 1.319768263624811e+001
 1.726876243502368e+000	 1.494368201778232e-001	 1.320758819691952e+001
 1.725334185613589e+000	 1.662977952608313e-001	 1.322299267031851e+001
 1.658981686780223e+000	 1.599023535195375e-001	 1.356927722994998e+001
 1.657334847940780e+000	 1.761541271982330e-001	 1.357922255443304e+001
 1.655522252695209e+000	 1.924453475173706e-001	 1.358588281567215e+001
 1.653542473769712e+000	 2.087737604459026e-001	 1.359007541796036e+001
 1.651394119133861e+000	 2.251370686738319e-001	 1.359254291647451e+001
 1.649075833369447e+000	 2.415329321319333e-001	 1.359395071575703e+001
 1.646586299037103e+000	 2.579589685574621e-001	 1.359488511576095e+001
 1.643924238039060e+000	 2.744127541062840e-001	 1.359585175648142e+001
 1.641088412976345e+000	 2.908918240118035e-001	 1.359727451537538e+001
 1.638077628498721e+000	 3.073936732910060e-001	 1.359949491479410e+001
 1.634890732645614e+000	 3.239157574978582e-001	 1.360277209948147e+001
 1.665616936663168e+000	 1.605418976940590e-001	 1.353209039161560e+001
 1.663963511140317e+000	 1.768586718366747e-001	 1.354263398888255e+001
 1.662143666253301e+000	 1.932150503902340e-001	 1.354981879810292e+001
 1.660155969019819e+000	 2.096087703084788e-001	 1.355447738011671e+001
 1.657999021841892e+000	 2.260375250931031e-001	 1.355736529252866e+001
 1.655671463880202e+000	 2.424989653155540e-001	 1.355915864021827e+001
 1.653171972426168e+000	 2.589906991850011e-001	 1.356045196929062e+001
 1.650499264270160e+000	 2.755102931629164e-001	 1.356175655650638e+001
 1.647652097064122e+000	 2.920552726246376e-001	 1.356349914953838e+001
 1.644629270676909e+000	 3.086231225682336e-001	 1.356602121655877e+001
 1.641429628540587e+000	 3.252112883709185e-001	 1.356957876661847e+001
 1.672252186546373e+000	 1.611814418683190e-001	 1.349555586160495e+001
 1.670592174340183e+000	 1.775632164747879e-001	 1.350670598218016e+001
 1.668765079811762e+000	 1.939847532627299e-001	 1.351442634956424e+001
 1.666769464270311e+000	 2.104437801706726e-001	 1.351956347610025e+001
 1.664603924550310e+000	 2.269379815119976e-001	 1.352288476256632e+001
 1.662267094391329e+000	 2.434649984988196e-001	 1.352507590007714e+001
 1.659757645815585e+000	 2.600224298122194e-001	 1.352673861093826e+001
 1.657074290501588e+000	 2.766078322192714e-001	 1.352838878151240e+001
 1.654215781152202e+000	 2.932187212372420e-001	 1.353045504360091e+001
 1.651180912855386e+000	 3.098525718452793e-001	 1.353327786413565e+001
 1.647968524435843e+000	 3.265068192438411e-001	 1.353710920607097e+001
 1.678887436429775e+000	 1.618209860423830e-001	 1.345964016711855e+001
 1.677220837540294e+000	 1.782677611126548e-001	 1.347140430583707e+001
 1.675386493370501e+000	 1.947544561349501e-001	 1.347967066808778e+001
 1.673382959521094e+000	 2.112787900325795e-001	 1.348529853655161e+001
 1.671208827259018e+000	 2.278384379306091e-001	 1.348906602124788e+001
 1.668862724902740e+000	 2.444310316818189e-001	 1.349166731211552e+001
 1.666343319205270e+000	 2.610541604391978e-001	 1.349371026568368e+001
 1.663649316733267e+000	 2.777053712754186e-001	 1.349571437991594e+001
 1.660779465240521e+000	 2.943821698496740e-001	 1.349810921489794e+001
 1.657732555034092e+000	 3.110820211221886e-001	 1.350123332046850e+001
 1.654507420331330e+000	 3.278023501166605e-001	 1.350533373512754e+001
 1.685522686313308e+000	 1.624605302163164e-001	 1.342431101664287e+001
 1.683849500740571e+000	 1.789723057503575e-001	 1.343669607925722e+001
 1.682007906929424e+000	 1.955241590069866e-001	 1.344551844909076e+001
 1.679996454772071e+000	 2.121137998942951e-001	 1.345164902189573e+001
 1.677813729967922e+000	 2.287388943490322e-001	 1.345587550837875e+001
 1.675458355414341e+000	 2.453970648646408e-001	 1.345889953667619e+001
 1.672928992595139e+000	 2.620858910660156e-001	 1.346133408366673e+001
 1.670224342965123e+000	 2.788029103314271e-001	 1.346370129023951e+001
 1.667343149329012e+000	 2.955456184619912e-001	 1.346643071936184e+001
 1.664284197212972e+000	 3.123114703990072e-001	 1.346985811936650e+001
 1.661046316227001e+000	 3.290978809894109e-001	 1.347422475825120e+001
 1.692157936196906e+000	 1.631000743901843e-001	 1.338953729445188e+001
 1.690478163940929e+000	 1.796768503879781e-001	 1.340254976104716e+001
 1.688629320488439e+000	 1.962938618789311e-001	 1.341193787354233e+001
 1.686609950023146e+000	 2.129488097559151e-001	 1.341858300741959e+001
 1.684418632676925e+000	 2.296393507673610e-001	 1.342328139096186e+001
 1.682053985926044e+000	 2.463630980473739e-001	 1.342674105676017e+001
 1.679514665985109e+000	 2.631176216927534e-001	 1.342957911640867e+001
 1.676799369197082e+000	 2.799004493873660e-001	 1.343231941454462e+001
 1.673906833417610e+000	 2.967090670742509e-001	 1.343539062226297e+001
 1.670835839391969e+000	 3.135409196757802e-001	 1.343912483365690e+001
 1.667585212122803e+000	 3.303934118621271e-001	 1.344375673275700e+001
 1.698793186080504e+000	 1.637396185640524e-001	 1.335528905511177e+001
 1.697106827141288e+000	 1.803813950255987e-001	 1.336893514037838e+001
 1.695250734047455e+000	 1.970635647508755e-001	 1.337889859622711e+001
 1.693223445274223e+000	 2.137838196175351e-001	 1.338607016848942e+001
 1.691023535385935e+000	 2.305398071856900e-001	 1.339125354542735e+001
 1.688649616437755e+000	 2.473291312301070e-001	 1.339516215733683e+001
 1.686100339375097e+000	 2.641493523194912e-001	 1.339841629327787e+001
 1.683374395429068e+000	 2.809979884433050e-001	 1.340154059213676e+001
 1.680470517506249e+000	 2.978725156865105e-001	 1.340496196924480e+001
 1.677387481571024e+000	 3.147703689525531e-001	 1.340900804365118e+001
 1.674124108018686e+000	 3.316889427348433e-001	 1.341390613481785e+001
 1.705428435964036e+000	 1.643791627379857e-001	 1.332153751798858e+001
 1.703735490341565e+000	 1.810859396633014e-001	 1.333582332839956e+001
 1.701872147606379e+000	 1.978332676229120e-001	 1.334637173410424e+001
 1.699836940525207e+000	 2.146188294792508e-001	 1.335408176590369e+001
 1.697628438094854e+000	 2.314402636041131e-001	 1.335976354003608e+001
 1.695245246949386e+000	 2.482951644129290e-001	 1.336413490486127e+001
 1.692686012765018e+000	 2.651810829463092e-001	 1.336781839819266e+001
 1.689949421661007e+000	 2.820955274993134e-001	 1.337133857353313e+001
 1.687034201594864e+000	 2.990359642988277e-001	 1.337511975764553e+001
 1.683939123750080e+000	 3.159998182293716e-001	 1.337948430591593e+001
 1.680663003914598e+000	 3.329844736075937e-001	 1.338465142579007e+001
 1.712063685847439e+000	 1.650187069120498e-001	 1.328825506175872e+001
 1.710364153541677e+000	 1.817904843011683e-001	 1.330318674969888e+001
 1.708493561165121e+000	 1.986029704951322e-001	 1.331432985475788e+001
 1.706450435776001e+000	 2.154538393411577e-001	 1.332259063137853e+001
 1.704233340803587e+000	 2.323407200227247e-001	 1.332878461745176e+001
 1.701840877460846e+000	 2.492611975959284e-001	 1.333363312699356e+001
 1.699271686154788e+000	 2.662128135732873e-001	 1.333776004655579e+001
 1.696524447892823e+000	 2.831930665554607e-001	 1.334168899468813e+001
 1.693597885683388e+000	 3.001994129112597e-001	 1.334584090809819e+001
 1.690490765929081e+000	 3.172292675062810e-001	 1.335053212234065e+001
 1.687201899810491e+000	 3.342800044804131e-001	 1.335597301884953e+001
 1.718698935730645e+000	 1.656582510863099e-001	 1.325541521892212e+001
 1.716992816741543e+000	 1.824950289392815e-001	 1.327099913381302e+001
 1.715114974723587e+000	 1.993726733676280e-001	 1.328274696493822e+001
 1.713063931026507e+000	 2.162888492033513e-001	 1.329157115316115e+001
 1.710838243512040e+000	 2.332411764416190e-001	 1.329829167747691e+001
 1.708436507972044e+000	 2.502272307791940e-001	 1.330363239251377e+001
 1.705857359544326e+000	 2.672445442005058e-001	 1.330821766241275e+001
 1.703099474124443e+000	 2.842906056118157e-001	 1.331256935146799e+001
 1.700161569771757e+000	 3.013628615238641e-001	 1.331710423640191e+001
 1.697042408107968e+000	 3.184587167833267e-001	 1.332213190949447e+001
 1.693740795706314e+000	 3.355755353533357e-001	 1.332785324593024e+001
 1.725334185613589e+000	 1.662977952608313e-001	 1.322299267031851e+001
 1.723621479941080e+000	 1.831995735777232e-001	 1.323923550678386e+001
 1.721736388281684e+000	 2.001423762404914e-001	 1.325159849918954e+001
 1.719677426276633e+000	 2.171238590659275e-001	 1.326099926176918e+001
 1.717443146220116e+000	 2.341416328608902e-001	 1.326826125994868e+001
 1.715032138482888e+000	 2.511932639628145e-001	 1.327410999142809e+001
 1.712443032933547e+000	 2.682762748280447e-001	 1.327916945582962e+001
 1.709674500355791e+000	 2.853881446684482e-001	 1.328395897436871e+001
 1.706725253859903e+000	 3.025263101366982e-001	 1.328889042565722e+001
 1.703594050286686e+000	 3.196881660605542e-001	 1.329426596826304e+001
 1.700279691602013e+000	 3.368710662263961e-001	 1.330027632495726e+001
 1.634890732645614e+000	 3.239157574978582e-001	 1.360277209948147e+001
 1.631526100396023e+000	 3.404579752862290e-001	 1.360689345351196e+001
 1.627983136101961e+000	 3.570152242169341e-001	 1.361138378440605e+001
 1.624260826901171e+000	 3.735848413019251e-001	 1.361600036898727e+001
 1.620358208614037e+000	 3.901641274764114e-001	 1.362043921019640e+001
 1.616274367013765e+000	 4.067503485921295e-001	 1.362433963598496e+001
 1.612008439076500e+000	 4.233407364581182e-001	 1.362728986558886e+001
 1.607559614209450e+000	 4.399324899287324e-001	 1.362883361180718e+001
 1.602927135455114e+000	 4.565227760385444e-001	 1.362847778739825e+001
 1.598110300669677e+000	 4.731087311836948e-001	 1.362570138256625e+001
 1.593108463673670e+000	 4.896874623491745e-001	 1.361996557870705e+001
 1.641429628540587e+000	 3.252112883709185e-001	 1.356957876661847e+001
 1.638051539134735e+000	 3.418196682812129e-001	 1.357403253592510e+001
 1.634494404429018e+000	 3.584431394522586e-001	 1.357897819268325e+001
 1.630757207510138e+000	 3.750790282451421e-001	 1.358416175041611e+001
 1.626838980342146e+000	 3.917246247999180e-001	 1.358926504504379e+001
 1.622738805041713e+000	 4.083771840328471e-001	 1.359391022264894e+001
 1.618455815133233e+000	 4.250339266813353e-001	 1.359766520542455e+001
 1.613989196781871e+000	 4.416920403963000e-001	 1.360005020657034e+001
 1.609338190002595e+000	 4.583486808816095e-001	 1.360054536446702e+001
 1.604502089843302e+000	 4.750009730801597e-001	 1.359859956538250e+001
 1.599480247540058e+000	 4.916460124060639e-001	 1.359364052220828e+001
 1.647968524435843e+000	 3.265068192438411e-001	 1.353710920607097e+001
 1.644576977873742e+000	 3.431813612760960e-001	 1.354188590042324e+001
 1.641005672756396e+000	 3.598710546875106e-001	 1.354727834606584e+001
 1.637253588119463e+000	 3.765732151883082e-001	 1.355302205810196e+001
 1.633319752070662e+000	 3.932851221233866e-001	 1.355878541437157e+001
 1.629203243070121e+000	 4.100040194735312e-001	 1.356417402409470e+001
 1.624903191190486e+000	 4.267271169045155e-001	 1.356873608538997e+001
 1.620418779354871e+000	 4.434515908638193e-001	 1.357196880462522e+001
 1.615749244550718e+000	 4.601745857246073e-001	 1.357332595020149e+001
 1.610893879017623e+000	 4.768932149765299e-001	 1.357222661236171e+001
 1.605852031407194e+000	 4.936045624628233e-001	 1.356806523891098e+001
 1.654507420331330e+000	 3.278023501166605e-001	 1.350533373512754e+001
 1.651102416612997e+000	 3.445430542709037e-001	 1.351042569811975e+001
 1.647516941084049e+000	 3.612989699227090e-001	 1.351625776481331e+001
 1.643749968729099e+000	 3.780674021314358e-001	 1.352255572864690e+001
 1.639800523799534e+000	 3.948456194468263e-001	 1.352897523102564e+001
 1.635667681098937e+000	 4.116308549141900e-001	 1.353510600270810e+001
 1.631350567248200e+000	 4.284203071276679e-001	 1.354047710464352e+001
 1.626848361928386e+000	 4.452111413313026e-001	 1.354456324345966e+001
 1.622160299099407e+000	 4.620004905675545e-001	 1.354679223652791e+001
 1.617285668192562e+000	 4.787854568728293e-001	 1.354655370059235e+001
 1.612223815274991e+000	 4.955631125194851e-001	 1.354320903629871e+001
 1.661046316227001e+000	 3.290978809894109e-001	 1.347422475825120e+001
 1.657627855352454e+000	 3.459047472656610e-001	 1.347962617522687e+001
 1.654028209411931e+000	 3.627268851578712e-001	 1.348589207165988e+001
 1.650246349339003e+000	 3.795615890745382e-001	 1.349273930865150e+001
 1.646281295528715e+000	 3.964061167702468e-001	 1.349981152623663e+001
 1.642132119128106e+000	 4.132576903548320e-001	 1.350668324923673e+001
 1.637797943306315e+000	 4.301134973508023e-001	 1.351286500301454e+001
 1.633277944502351e+000	 4.469706917987621e-001	 1.351780951662492e+001
 1.628571353648595e+000	 4.638263954104682e-001	 1.352091909066993e+001
 1.623677457368042e+000	 4.806776987690811e-001	 1.352155420629869e+001
 1.618595599143369e+000	 4.975216625760818e-001	 1.351904345019785e+001
 1.667585212122803e+000	 3.303934118621271e-001	 1.344375673275700e+001
 1.664153294092064e+000	 3.472664402603927e-001	 1.344946363623710e+001
 1.660539477739998e+000	 3.641548003930156e-001	 1.345615895234049e+001
 1.656742729949124e+000	 3.810557760176273e-001	 1.346355141242896e+001
 1.652762067258152e+000	 3.979666140936578e-001	 1.347127340436712e+001
 1.648596557157575e+000	 4.148845257954658e-001	 1.347888493441901e+001
 1.644245319364772e+000	 4.318066875739274e-001	 1.348587860936558e+001
 1.639707527076701e+000	 4.487302422662094e-001	 1.349168571868557e+001
 1.634982408198208e+000	 4.656523002533648e-001	 1.349568349654415e+001
 1.630069246543986e+000	 4.825699406653090e-001	 1.349720364254327e+001
 1.624967383012244e+000	 4.994802126326459e-001	 1.349554217865248e+001
 1.674124108018686e+000	 3.316889427348433e-001	 1.341390613481785e+001
 1.670678732831782e+000	 3.486281332551248e-001	 1.341991640744705e+001
 1.667050746068203e+000	 3.655827156281600e-001	 1.342703811647565e+001
 1.663239110559418e+000	 3.825499629607166e-001	 1.343497268009629e+001
 1.659242838987799e+000	 3.995271114170690e-001	 1.344334199805802e+001
 1.655060995187289e+000	 4.165113612360995e-001	 1.345169226103616e+001
 1.650692695423513e+000	 4.334998777970525e-001	 1.345949879040418e+001
 1.646137109651372e+000	 4.504897927336566e-001	 1.346617199064849e+001
 1.641393462748176e+000	 4.674782050962614e-001	 1.347106449666678e+001
 1.636461035720316e+000	 4.844621825615372e-001	 1.347347959747586e+001
 1.631339166881533e+000	 5.014387626892100e-001	 1.347268101638358e+001
 1.680663003914598e+000	 3.329844736075937e-001	 1.338465142579007e+001
 1.677204171571562e+000	 3.499898262498820e-001	 1.339096480081408e+001
 1.673562014396502e+000	 3.670106308633223e-001	 1.339851125880500e+001
 1.669735491169838e+000	 3.840441499038187e-001	 1.340698573603306e+001
 1.665723610717605e+000	 4.010876087404895e-001	 1.341600042376249e+001
 1.661525433217197e+000	 4.181381966767416e-001	 1.342508841637580e+001
 1.657140071482478e+000	 4.351930680201866e-001	 1.343370839993216e+001
 1.652566692226297e+000	 4.522493432011159e-001	 1.344125046585756e+001
 1.647804517298428e+000	 4.693041099391749e-001	 1.344704313455761e+001
 1.642852824896957e+000	 4.863544244577892e-001	 1.345036167311359e+001
 1.637710950751154e+000	 5.033973127458068e-001	 1.345043778981648e+001
 1.687201899810491e+000	 3.342800044804131e-001	 1.335597301884953e+001
 1.683729610311356e+000	 3.513515192446896e-001	 1.336259107813708e+001
 1.680073282724848e+000	 3.684385460985206e-001	 1.337056202076075e+001
 1.676231871780339e+000	 3.855383368469466e-001	 1.337957514769744e+001
 1.672204382447522e+000	 4.026481060639292e-001	 1.338923373765835e+001
 1.667989871247243e+000	 4.197650321174004e-001	 1.339905852509541e+001
 1.663587447541608e+000	 4.368862582433393e-001	 1.340849222852016e+001
 1.658996274801414e+000	 4.540088936685994e-001	 1.341690521634211e+001
 1.654215571848892e+000	 4.711300147821222e-001	 1.342360239762804e+001
 1.649244614073828e+000	 4.882466663540884e-001	 1.342783142463843e+001
 1.644082734621023e+000	 5.053558628024685e-001	 1.342879229266148e+001
 1.693740795706314e+000	 3.355755353533357e-001	 1.332785324593024e+001
 1.690255049051116e+000	 3.527132122395728e-001	 1.333477941555254e+001
 1.686584551053196e+000	 3.698664613337728e-001	 1.334317595237099e+001
 1.682728252390872e+000	 3.870325237901126e-001	 1.335272738478986e+001
 1.678685154177500e+000	 4.042086033873977e-001	 1.336302889192690e+001
 1.674454309277374e+000	 4.213918675580843e-001	 1.337358960247579e+001
 1.670034823600847e+000	 4.385794484665195e-001	 1.338383695359668e+001
 1.665425857376654e+000	 4.557684441361188e-001	 1.339312219960630e+001
 1.660626626399497e+000	 4.729559196251200e-001	 1.340072716053960e+001
 1.655636403250854e+000	 4.901389082504588e-001	 1.340587230019756e+001
 1.650454518491058e+000	 5.073144128592279e-001	 1.340772622203233e+001
 1.700279691602013e+000	 3.368710662263961e-001	 1.330027632495726e+001
 1.696780487790798e+000	 3.540749052345567e-001	 1.330751586833730e+001
 1.693095819381501e+000	 3.712943765690969e-001	 1.331634047448483e+001
 1.689224633001393e+000	 3.885267107333296e-001	 1.332643077875498e+001
 1.685165925907488e+000	 4.057691007109044e-001	 1.333737469138964e+001
 1.680918747307537e+000	 4.230187029988018e-001	 1.334867050805303e+001
 1.676482199660132e+000	 4.402726386897363e-001	 1.335973108993953e+001
 1.671855439951955e+000	 4.575279946036862e-001	 1.336988920584767e+001
 1.667037680950171e+000	 4.747818244681850e-001	 1.337840412902093e+001
 1.662028192427957e+000	 4.920311501469236e-001	 1.338446958119333e+001
 1.656826302361175e+000	 5.092729629161171e-001	 1.338722311508836e+001
 1.593108463673670e+000	 4.896874623491745e-001	 1.361996557870705e+001
 1.587921034974506e+000	 5.062560481387889e-001	 1.361230600481344e+001
 1.582547481658774e+000	 5.228115393404682e-001	 1.360416684871148e+001
 1.576987329641599e+000	 5.393509609733571e-001	 1.359564420703214e+001
 1.571240165087962e+000	 5.558713139287027e-001	 1.358688467601021e+001
 1.565305635398965e+000	 5.723695764162470e-001	 1.357810184047865e+001
 1.559183450159039e+000	 5.888427054517342e-001	 1.356959427329581e+001
 1.552873382042270e+000	 6.052876383844026e-001	 1.356176507688936e+001
 1.546375267676036e+000	 6.217012944632478e-001	 1.355514299052877e+001
 1.539689008460209e+000	 6.380805764407584e-001	 1.355040507802821e+001
 1.532814571340203e+000	 6.544223722127311e-001	 1.354840100085140e+001
 1.599480247540058e+000	 4.916460124060639e-001	 1.359364052220828e+001
 1.594272071242548e+000	 5.082808657787366e-001	 1.358671632239539e+001
 1.588877025905930e+000	 5.249025721904650e-001	 1.357928839813954e+001
 1.583294635549190e+000	 5.415081447616857e-001	 1.357142040689128e+001
 1.577524484682149e+000	 5.580945723884372e-001	 1.356322170077243e+001
 1.571566219295666e+000	 5.746588211945348e-001	 1.355486386395842e+001
 1.565419547812639e+000	 5.911978360250292e-001	 1.354659879596926e+001
 1.559084241997952e+000	 6.077085419798073e-001	 1.353877837483858e+001
 1.552560137825569e+000	 6.241878459861199e-001	 1.353187572594210e+001
 1.545847136301012e+000	 6.406326384087306e-001	 1.352650811321889e+001
 1.538945204237500e+000	 6.570397946962920e-001	 1.352346145962509e+001
 1.605852031407194e+000	 4.936045624628233e-001	 1.356806523891098e+001
 1.600623107511378e+000	 5.103056834185110e-001	 1.356189499593412e+001
 1.595206570153903e+000	 5.269936050402385e-001	 1.355518550699475e+001
 1.589601941457623e+000	 5.436653285497373e-001	 1.354796556252429e+001
 1.583808804277191e+000	 5.603178308478363e-001	 1.354030479021213e+001
 1.577826803193227e+000	 5.769480659724274e-001	 1.353233023951747e+001
 1.571655645467094e+000	 5.935529665978695e-001	 1.352424454803004e+001
 1.565295101954475e+000	 6.101294455746986e-001	 1.351634572599122e+001
 1.558745007975918e+000	 6.266743975084232e-001	 1.350904858698392e+001
 1.552005264142597e+000	 6.431847003760839e-001	 1.350290784361147e+001
 1.545075837135533e+000	 6.596572171791894e-001	 1.349864287692660e+001
 1.612223815274991e+000	 4.955631125194851e-001	 1.354320903629871e+001
 1.606974143780907e+000	 5.123305010581556e-001	 1.353780959093690e+001
 1.601536114402605e+000	 5.290846378898453e-001	 1.353182462825560e+001
 1.595909247366803e+000	 5.458225123375806e-001	 1.352524568634821e+001
 1.590093123872993e+000	 5.625410893069841e-001	 1.351810022924664e+001
 1.584087387091552e+000	 5.792373107500243e-001	 1.351046827709437e+001
 1.577891743122305e+000	 5.959080971703684e-001	 1.350250065457513e+001
 1.571505961911738e+000	 6.125503491692055e-001	 1.349443889630960e+001
 1.564929878126983e+000	 6.291609490303003e-001	 1.348663683951371e+001
 1.558163391984861e+000	 6.457367623429725e-001	 1.347958392488239e+001
 1.551206470034202e+000	 6.622746396615893e-001	 1.347393021643687e+001
 1.618595599143369e+000	 4.975216625760818e-001	 1.351904345019785e+001
 1.613325180051048e+000	 5.143553186977137e-001	 1.351442992922084e+001
 1.607865658651945e+000	 5.311756707393406e-001	 1.350917449101161e+001
 1.602216553276638e+000	 5.479796961252855e-001	 1.350322907881532e+001
 1.596377443469460e+000	 5.647643477659644e-001	 1.349657659516481e+001
 1.590347970990539e+000	 5.815265555274233e-001	 1.348924757603319e+001
 1.584127840778174e+000	 5.982632277426403e-001	 1.348133852011877e+001
 1.577716821869641e+000	 6.149712527634555e-001	 1.347303191443481e+001
 1.571114748278663e+000	 6.316475005518931e-001	 1.346461798884225e+001
 1.564321519827708e+000	 6.482888243095517e-001	 1.345651822269119e+001
 1.557337102933408e+000	 6.648920621436569e-001	 1.344931061634342e+001
 1.624967383012244e+000	 4.994802126326459e-001	 1.349554217865248e+001
 1.619676216321714e+000	 5.163801363372280e-001	 1.349172801897385e+001
 1.614195202901830e+000	 5.332667035887803e-001	 1.348720602687847e+001
 1.608523859187033e+000	 5.501368799129206e-001	 1.348188625136467e+001
 1.602661763066491e+000	 5.669876062248608e-001	 1.347570467730952e+001
 1.596608554890094e+000	 5.838158003047238e-001	 1.346863994170484e+001
 1.590363938434600e+000	 6.006183583147985e-001	 1.346073174237355e+001
 1.583927681828086e+000	 6.173921563575771e-001	 1.345210098286118e+001
 1.577299618430859e+000	 6.341340520733437e-001	 1.344297168854561e+001
 1.570479647671034e+000	 6.508408862759760e-001	 1.343369471939274e+001
 1.563467735833050e+000	 6.675094846255592e-001	 1.342480540657502e+001
 1.631339166881533e+000	 5.014387626892100e-001	 1.347268101638358e+001
 1.626027252592817e+000	 5.184049539767426e-001	 1.346967798543723e+001
 1.620524747152169e+000	 5.353577364382198e-001	 1.346589229706907e+001
 1.614831165097894e+000	 5.522940637005561e-001	 1.346118985005849e+001
 1.608946082663995e+000	 5.692108646837572e-001	 1.345545739747045e+001
 1.602869138790118e+000	 5.861050450820242e-001	 1.344861930285986e+001
 1.596600036091486e+000	 6.029734888869563e-001	 1.344065602677931e+001
 1.590138541786973e+000	 6.198130599516991e-001	 1.343162438987018e+001
 1.583484488583469e+000	 6.366206035947941e-001	 1.342167965004573e+001
 1.576637775514741e+000	 6.533929482424004e-001	 1.341109942151764e+001
 1.569598368733029e+000	 6.701269071074611e-001	 1.340088377372010e+001
 1.637710950751154e+000	 5.033973127458068e-001	 1.345043778981648e+001
 1.632378288864269e+000	 5.204297716163004e-001	 1.344825600219361e+001
 1.626854291402873e+000	 5.374487692877151e-001	 1.344520842010177e+001
 1.621138471009127e+000	 5.544512474882608e-001	 1.344111457988525e+001
 1.615230402261874e+000	 5.714341231427373e-001	 1.343580973096818e+001
 1.609129722690512e+000	 5.883942898594232e-001	 1.342916162969240e+001
 1.602836133748732e+000	 6.053286194592281e-001	 1.342108910175933e+001
 1.596349401746202e+000	 6.222339635459491e-001	 1.341158242220321e+001
 1.589669358736397e+000	 6.391071551163871e-001	 1.340072555293606e+001
 1.582795903358730e+000	 6.559450102089796e-001	 1.338872026799991e+001
 1.575729001633243e+000	 6.727443295895290e-001	 1.337770202249841e+001
 1.644082734621023e+000	 5.053558628024685e-001	 1.342879229266148e+001
 1.638729325135984e+000	 5.224545892559449e-001	 1.342744022304276e+001
 1.633183835653848e+000	 5.395398021373219e-001	 1.342513150012942e+001
 1.627445776920638e+000	 5.566084312761040e-001	 1.342163712971083e+001
 1.621514721860030e+000	 5.736573816018852e-001	 1.341673862841006e+001
 1.615390306591181e+000	 5.906835346370200e-001	 1.341024485259670e+001
 1.609072231406240e+000	 6.076837500317271e-001	 1.340201063468426e+001
 1.602560261705674e+000	 6.246548671404556e-001	 1.339195727845293e+001
 1.595854228889540e+000	 6.415937066382640e-001	 1.338009495603272e+001
 1.588954031202899e+000	 6.584970721758683e-001	 1.336654703913152e+001
 1.581859634533595e+000	 6.753617520719287e-001	 1.335525761274372e+001
 1.650454518491058e+000	 5.073144128592279e-001	 1.340772622203233e+001
 1.645080361407874e+000	 5.244794068957194e-001	 1.340721071445059e+001
 1.639513379905004e+000	 5.416308349870956e-001	 1.340564055587154e+001
 1.633753082832332e+000	 5.587656150641555e-001	 1.340273609786068e+001
 1.627799041458369e+000	 5.758806400612844e-001	 1.339822293810091e+001
 1.621650890492024e+000	 5.929727794149128e-001	 1.339184878159653e+001
 1.615308329063910e+000	 6.100388806045675e-001	 1.338340214852452e+001
 1.608771121665290e+000	 6.270757707353474e-001	 1.337273298315412e+001
 1.602039099042800e+000	 6.440802581605672e-001	 1.335977520913103e+001
 1.595112159047149e+000	 6.610491341432214e-001	 1.334457126622433e+001
 1.587990267433982e+000	 6.779791745548263e-001	 1.333354714484122e+001
 1.656826302361175e+000	 5.092729629161171e-001	 1.338722311508836e+001
 1.651431397679850e+000	 5.265042245356668e-001	 1.338754938855500e+001
 1.645842924156249e+000	 5.437218678370922e-001	 1.338671645013418e+001
 1.640060388744116e+000	 5.609227988524841e-001	 1.338439191831549e+001
 1.634083361056793e+000	 5.781038985210186e-001	 1.338024332908956e+001
 1.627911474392944e+000	 5.952620241932002e-001	 1.337395502643030e+001
 1.621544426721645e+000	 6.123940111778623e-001	 1.336524693917267e+001
 1.614981981624948e+000	 6.294966743307519e-001	 1.335389530155472e+001
 1.608223969196076e+000	 6.465668096834393e-001	 1.333975536544876e+001
 1.601270286891380e+000	 6.636011961111936e-001	 1.332278614196025e+001
 1.594120900334306e+000	 6.805965970383868e-001	 1.331256635133060e+001
 1.532814571340203e+000	 6.544223722127311e-001	 1.354840100085140e+001
 1.525753063169474e+000	 6.707211147754112e-001	 1.353403050985111e+001
 1.518503568051552e+000	 6.869761235078752e-001	 1.350862768777823e+001
 1.511066254819426e+000	 7.031842541915490e-001	 1.348017549084908e+001
 1.503441360402968e+000	 7.193423546795729e-001	 1.344949393496907e+001
 1.495629190345228e+000	 7.354472666915337e-001	 1.341737726008593e+001
 1.487630119263421e+000	 7.514958276341680e-001	 1.338459009148640e+001
 1.479444591253303e+000	 7.674848724460874e-001	 1.335186334144603e+001
 1.471073120235707e+000	 7.834112354645308e-001	 1.331988985389691e+001
 1.462516290244094e+000	 7.992717523120667e-001	 1.328931979735992e+001
 1.453774755652043e+000	 8.150632618011136e-001	 1.326075581410516e+001
 1.538945204237500e+000	 6.570397946962920e-001	 1.352346145962509e+001
 1.531855452915456e+000	 6.734037255793064e-001	 1.350894164455737e+001
 1.524576962775183e+000	 6.897237477146424e-001	 1.348590570538186e+001
 1.517109903324919e+000	 7.059967043081323e-001	 1.345960711450010e+001
 1.509454512442138e+000	 7.222194306056111e-001	 1.343082819865639e+001
 1.501611096891923e+000	 7.383887556948313e-001	 1.340032715930630e+001
 1.493580032789782e+000	 7.545015043334429e-001	 1.336883427838534e+001
 1.485361766007659e+000	 7.705544988011007e-001	 1.333704785500585e+001
 1.476956812521841e+000	 7.865445607736817e-001	 1.330562987527247e+001
 1.468365758701666e+000	 8.024685132175328e-001	 1.327520142005105e+001
 1.459589261537921e+000	 8.183231823016085e-001	 1.324633781831100e+001
 1.545075837135533e+000	 6.596572171791894e-001	 1.349864287692660e+001
 1.537957842662119e+000	 6.760863363825016e-001	 1.348449286092440e+001
 1.530650357499435e+000	 6.924713719206811e-001	 1.346372510275846e+001
 1.523153551830967e+000	 7.088091544239664e-001	 1.343948462556684e+001
 1.515467664481798e+000	 7.250965065308890e-001	 1.341251809315125e+001
 1.507593003439040e+000	 7.413302446973648e-001	 1.338354975973410e+001
 1.499529946316507e+000	 7.575071810319587e-001	 1.335327771811351e+001
 1.491278940762324e+000	 7.736241251553686e-001	 1.332236986900958e+001
 1.482840504808239e+000	 7.896778860821095e-001	 1.329145961331016e+001
 1.474215227159471e+000	 8.056652741223067e-001	 1.326114127162962e+001
 1.465403767424016e+000	 8.215831028014514e-001	 1.323196523845150e+001
 1.551206470034202e+000	 6.622746396615893e-001	 1.347393021643687e+001
 1.544060232409364e+000	 6.787689471851713e-001	 1.346068526264999e+001
 1.536723752224209e+000	 6.952189961261734e-001	 1.344208692281561e+001
 1.529197200337471e+000	 7.116216045392396e-001	 1.341980941991705e+001
 1.521480816521845e+000	 7.279735824555974e-001	 1.339456575266689e+001
 1.513574909986478e+000	 7.442717336993273e-001	 1.336704829086111e+001
 1.505479859843488e+000	 7.605128577299092e-001	 1.333792506389163e+001
 1.497196115517190e+000	 7.766937515090843e-001	 1.330783576040071e+001
 1.488724197094792e+000	 7.928112113900053e-001	 1.327738744029132e+001
 1.480064695617395e+000	 8.088620350265763e-001	 1.324714996307955e+001
 1.471218273310213e+000	 8.248430233008258e-001	 1.321765113950226e+001
 1.557337102933408e+000	 6.648920621436569e-001	 1.344931061634342e+001
 1.550162622157093e+000	 6.814515579874914e-001	 1.343751912316824e+001
 1.542797146949404e+000	 6.979666203313018e-001	 1.342099135019419e+001
 1.535240848844329e+000	 7.144340546541393e-001	 1.340058200283937e+001
 1.527493968562179e+000	 7.308506583799278e-001	 1.337697238445269e+001
 1.519556816534137e+000	 7.472132227009128e-001	 1.335082501500809e+001
 1.511429773370626e+000	 7.635185344274887e-001	 1.332277995800427e+001
 1.503113290272153e+000	 7.797633778624412e-001	 1.329345084814091e+001
 1.494607889381393e+000	 7.959445366975606e-001	 1.326342062048182e+001
 1.485914164075328e+000	 8.120587959305301e-001	 1.323323694465430e+001
 1.477032779196395e+000	 8.281029437999159e-001	 1.320340737063392e+001
 1.563467735833050e+000	 6.675094846255592e-001	 1.342480540657502e+001
 1.556265011905203e+000	 6.841341687896364e-001	 1.341499387457376e+001
 1.548870541674919e+000	 7.007142445362485e-001	 1.340043770121721e+001
 1.541284497351443e+000	 7.172465047688535e-001	 1.338180198008821e+001
 1.533507120602699e+000	 7.337277343040723e-001	 1.335973826099720e+001
 1.525538723081911e+000	 7.501547117023149e-001	 1.333488122073920e+001
 1.517379686897813e+000	 7.665242111248920e-001	 1.330784502646869e+001
 1.509030465027107e+000	 7.828330042156327e-001	 1.327921938916757e+001
 1.500491581667931e+000	 7.990778620049666e-001	 1.324956530740263e+001
 1.491763632533159e+000	 8.152555568343560e-001	 1.321941050447575e+001
 1.482847285082444e+000	 8.313628642989046e-001	 1.318924456514528e+001
 1.569598368733029e+000	 6.701269071074611e-001	 1.340088377372010e+001
 1.562367401653596e+000	 6.868167795917815e-001	 1.339310809730381e+001
 1.554943936400655e+000	 7.034618687411961e-001	 1.338042441458697e+001
 1.547328145858710e+000	 7.200589548835701e-001	 1.336346804966540e+001
 1.539520272643303e+000	 7.366048102282217e-001	 1.334286271295449e+001
 1.531520629629700e+000	 7.530962007037272e-001	 1.331921721698391e+001
 1.523329600424948e+000	 7.695298878223129e-001	 1.329312187439420e+001
 1.514947639781945e+000	 7.859026305688526e-001	 1.326514457502307e+001
 1.506375273954299e+000	 8.022111873124145e-001	 1.323582654175250e+001
 1.497613100990774e+000	 8.184523177382413e-001	 1.320567776776441e+001
 1.488661790968246e+000	 8.346227847979755e-001	 1.317517214100547e+001
 1.575729001633243e+000	 6.727443295895290e-001	 1.337770202249841e+001
 1.568469791402172e+000	 6.894993903941017e-001	 1.337185951055736e+001
 1.561017331126513e+000	 7.062094929463263e-001	 1.336094904281022e+001
 1.553371794366031e+000	 7.228714049984765e-001	 1.334557799431832e+001
 1.545533424683890e+000	 7.394818861525678e-001	 1.332634412277358e+001
 1.537502536177404e+000	 7.560376897053434e-001	 1.330383232784690e+001
 1.529279513951928e+000	 7.725355645199454e-001	 1.327861108201279e+001
 1.520864814536564e+000	 7.889722569222935e-001	 1.325122852913735e+001
 1.512258966240389e+000	 8.053445126200955e-001	 1.322220824996436e+001
 1.503462569448062e+000	 8.216490786423748e-001	 1.319204469668262e+001
 1.494476296853683e+000	 8.378827052973118e-001	 1.316119830198816e+001
 1.581859634533595e+000	 6.753617520719287e-001	 1.335525761274372e+001
 1.574572181150829e+000	 6.921820011967721e-001	 1.335124496343163e+001
 1.567090725852390e+000	 7.089571171518222e-001	 1.334200824433152e+001
 1.559415442873305e+000	 7.256838551137604e-001	 1.332812867473535e+001
 1.551546576724361e+000	 7.423589620773023e-001	 1.331017991901211e+001
 1.543484442724917e+000	 7.589791787073568e-001	 1.328872488808763e+001
 1.535229427478648e+000	 7.755412412179844e-001	 1.326431220136321e+001
 1.526781989290855e+000	 7.920418832761493e-001	 1.323747230474609e+001
 1.518142658526092e+000	 8.084778379282009e-001	 1.320871324337876e+001
 1.509312037904910e+000	 8.248458395469440e-001	 1.317851609077491e+001
 1.500290802738639e+000	 8.411426257970976e-001	 1.314733003938184e+001
 1.587990267433982e+000	 6.779791745548263e-001	 1.333354714484122e+001
 1.580674570899469e+000	 6.948646119999676e-001	 1.333126042675624e+001
 1.573164120578188e+000	 7.117047413578652e-001	 1.332359777635549e+001
 1.565459091380432e+000	 7.284963052296100e-001	 1.331111602341943e+001
 1.557559728764613e+000	 7.452360380026165e-001	 1.329436657131580e+001
 1.549466349272140e+000	 7.619206677099614e-001	 1.327389223925129e+001
 1.541179341005006e+000	 7.785469179166236e-001	 1.325022375361051e+001
 1.532699164044716e+000	 7.951115096306138e-001	 1.322387588342750e+001
 1.524026350811299e+000	 8.116111632369228e-001	 1.319534321801707e+001
 1.515161506361208e+000	 8.280426004521366e-001	 1.316509558798913e+001
 1.506105308622997e+000	 8.444025462975161e-001	 1.313357313426104e+001
 1.594120900334306e+000	 6.805965970383868e-001	 1.331256635133060e+001
 1.586776960647991e+000	 6.975472228038634e-001	 1.331190098560643e+001
 1.579237515303806e+000	 7.144523655646381e-001	 1.330571248833990e+001
 1.571502739887311e+000	 7.313087553462129e-001	 1.329453503922189e+001
 1.563572880804545e+000	 7.481131139287018e-001	 1.327889958604561e+001
 1.555448255818969e+000	 7.648621567133505e-001	 1.325933072643368e+001
 1.547129254530897e+000	 7.815525946160573e-001	 1.323634322698423e+001
 1.538616338798039e+000	 7.981811359858799e-001	 1.321043817424059e+001
 1.529910043095903e+000	 8.147444885464511e-001	 1.318209875493912e+001
 1.521010974816841e+000	 8.312393613581415e-001	 1.315178566626270e+001
 1.511919814506641e+000	 8.476624667987508e-001	 1.311993216030273e+001
 1.453774755652043e+000	 8.150632618011136e-001	 1.326075581410516e+001
 1.444847888812251e+000	 8.307849605711887e-001	 1.323036728120942e+001
 1.435737784081395e+000	 8.464313247164139e-001	 1.319432334328219e+001
 1.426445309176177e+000	 8.619992137246938e-001	 1.315318959665887e+001
 1.416971402475017e+000	 8.774854980648936e-001	 1.310754665775023e+001
 1.407317072930754e+000	 8.928870611472519e-001	 1.305798486613079e+001
 1.397483399918780e+000	 9.082008012876665e-001	 1.300509871029741e+001
 1.387471533020204e+000	 9.234236336733949e-001	 1.294948100263368e+001
 1.377282691739777e+000	 9.385524923276887e-001	 1.289171683344262e+001
 1.366918165158378e+000	 9.535843320708535e-001	 1.283237733715636e+001
 1.356379311520008e+000	 9.685161304752106e-001	 1.277201330695738e+001
 1.459589261537921e+000	 8.183231823016085e-001	 1.324633781831100e+001
 1.450626690872958e+000	 8.341077614523109e-001	 1.321551881365616e+001
 1.441480149440036e+000	 8.498167046703964e-001	 1.317925245603446e+001
 1.432150508426388e+000	 8.654468588830088e-001	 1.313812067284918e+001
 1.422638709963577e+000	 8.809950820421709e-001	 1.309271996734985e+001
 1.412945767039864e+000	 8.964582450930405e-001	 1.304365598200991e+001
 1.403072763347715e+000	 9.118332339460495e-001	 1.299153777629702e+001
 1.393020853066112e+000	 9.271169514504697e-001	 1.293697184583954e+001
 1.382791260577346e+000	 9.423063193669026e-001	 1.288055591341295e+001
 1.372385280118109e+000	 9.573982803361828e-001	 1.282287252550530e+001
 1.361804275364840e+000	 9.723897998421610e-001	 1.276448249144017e+001
 1.465403767424016e+000	 8.215831028014514e-001	 1.323196523845149e+001
 1.456405492933886e+000	 8.374305623328302e-001	 1.320071380407341e+001
 1.447222514798917e+000	 8.532020846238327e-001	 1.316422279011977e+001
 1.437855707676866e+000	 8.688945040408381e-001	 1.312308786033076e+001
 1.428306017452446e+000	 8.845046660190273e-001	 1.307791876186518e+001
 1.418574461149325e+000	 9.000294290384739e-001	 1.302933375191046e+001
 1.408662126777046e+000	 9.154656666041431e-001	 1.297795373030651e+001
 1.398570173112460e+000	 9.308102692273191e-001	 1.292439610564969e+001
 1.388299829415390e+000	 9.460601464059500e-001	 1.286926842585627e+001
 1.377852395078342e+000	 9.612122286013992e-001	 1.281316180759319e+001
 1.367229239210188e+000	 9.762634692090429e-001	 1.275664420229546e+001
 1.471218273310213e+000	 8.248430233008258e-001	 1.321765113950226e+001
 1.462184294994912e+000	 8.407533632129244e-001	 1.318596771669015e+001
 1.452964880157909e+000	 8.565874645768929e-001	 1.314925192264814e+001
 1.443560906927481e+000	 8.723421491983462e-001	 1.310811059429371e+001
 1.433973324941484e+000	 8.880142499956196e-001	 1.306316411232087e+001
 1.424203155258993e+000	 9.036006129837008e-001	 1.301504069395721e+001
 1.414251490206624e+000	 9.190980992620879e-001	 1.296437038324961e+001
 1.404119493159094e+000	 9.345035870040727e-001	 1.291177876680177e+001
 1.393808398253756e+000	 9.498139734449510e-001	 1.285788044649243e+001
 1.383319510038922e+000	 9.650261768666124e-001	 1.280327230422910e+001
 1.372654203055902e+000	 9.801371385759574e-001	 1.274852659719619e+001
 1.477032779196395e+000	 8.281029437999159e-001	 1.320340737063392e+001
 1.467963097055914e+000	 8.440761640927719e-001	 1.317129474664443e+001
 1.458707245516883e+000	 8.599728445297498e-001	 1.313435611370829e+001
 1.449266106178097e+000	 8.757897943556976e-001	 1.309320694977223e+001
 1.439640632430548e+000	 8.915238339721038e-001	 1.304847569069113e+001
 1.429831849368722e+000	 9.071717969288694e-001	 1.300079789202001e+001
 1.419840853636299e+000	 9.227305319200212e-001	 1.295081007973757e+001
 1.409668813205860e+000	 9.381969047808599e-001	 1.289914331827319e+001
 1.399316967092287e+000	 9.535678004840261e-001	 1.284641652791350e+001
 1.388786624999699e+000	 9.688401251319329e-001	 1.279322958728560e+001
 1.378079166901831e+000	 9.840108079430039e-001	 1.274015626011497e+001
 1.482847285082444e+000	 8.313628642989046e-001	 1.318924456514528e+001
 1.473741899116773e+000	 8.473989649725507e-001	 1.315670782117217e+001
 1.464449610875713e+000	 8.633582244825743e-001	 1.311955030866114e+001
 1.454971305428580e+000	 8.792374395130571e-001	 1.307839364490047e+001
 1.445307939919501e+000	 8.950334179486370e-001	 1.303387177398501e+001
 1.435460543478365e+000	 9.107429808741275e-001	 1.298662500050537e+001
 1.425430217065921e+000	 9.263629645780832e-001	 1.293729370345236e+001
 1.415218133252607e+000	 9.418902225578115e-001	 1.288651175915159e+001
 1.404825535930833e+000	 9.573216275232955e-001	 1.283489970584721e+001
 1.394253739960518e+000	 9.726540733974712e-001	 1.278305768627094e+001
 1.383504130747827e+000	 9.878844773102833e-001	 1.273155820813214e+001
 1.488661790968246e+000	 8.346227847979755e-001	 1.317517214100547e+001
 1.479520701177364e+000	 8.507217658524385e-001	 1.314221860138397e+001
 1.470191976234270e+000	 8.667436044355391e-001	 1.310484814100328e+001
 1.460676504678797e+000	 8.826850846705892e-001	 1.306368604472284e+001
 1.450975247408202e+000	 8.985430019253763e-001	 1.301936924887306e+001
 1.441089237587779e+000	 9.143141648196237e-001	 1.297254024967747e+001
 1.431019580495339e+000	 9.299953972364131e-001	 1.292384068304970e+001
 1.420767453299181e+000	 9.455835403350569e-001	 1.287390460501712e+001
 1.410334104769236e+000	 9.610754545628794e-001	 1.282335150592567e+001
 1.399720854921226e+000	 9.764680216633375e-001	 1.277277909540106e+001
 1.388929094593738e+000	 9.917581466778956e-001	 1.272275589873774e+001
 1.494476296853683e+000	 8.378827052973118e-001	 1.316119830198816e+001
 1.485299503237567e+000	 8.540445667326138e-001	 1.312783748461369e+001
 1.475934341592428e+000	 8.701289843888155e-001	 1.309026193578431e+001
 1.466381703928612e+000	 8.861327298284578e-001	 1.304909816554346e+001
 1.456642554896511e+000	 9.020525859024777e-001	 1.300498361683978e+001
 1.446717931696817e+000	 9.178853487655067e-001	 1.295856045149365e+001
 1.436608943924405e+000	 9.336278298951505e-001	 1.291046899856778e+001
 1.426316773345427e+000	 9.492768581127260e-001	 1.286134089482275e+001
 1.415842673607342e+000	 9.648292816028974e-001	 1.281179195094508e+001
 1.405187969881668e+000	 9.802819699296413e-001	 1.276241478115701e+001
 1.394354058439414e+000	 9.956318160459410e-001	 1.271377123761516e+001
 1.500290802738639e+000	 8.411426257970976e-001	 1.314733003938184e+001
 1.491078305297259e+000	 8.573673676132541e-001	 1.311357360732384e+001
 1.481676706950058e+000	 8.735143643425752e-001	 1.307580271356398e+001
 1.472086903177893e+000	 8.895803749868285e-001	 1.303464267979984e+001
 1.462309862384287e+000	 9.055621698800983e-001	 1.299072899984778e+001
 1.452346625805334e+000	 9.214565327119234e-001	 1.294470100594173e+001
 1.442198307352966e+000	 9.372602625544341e-001	 1.289719518832777e+001
 1.431866093391196e+000	 9.529701758909489e-001	 1.284883819825856e+001
 1.421351242444999e+000	 9.685831086434706e-001	 1.280023956860355e+001
 1.410655084841691e+000	 9.840959181964941e-001	 1.275198419031492e+001
 1.399779022284706e+000	 9.995054854145197e-001	 1.270462458689146e+001
 1.506105308622997e+000	 8.444025462975161e-001	 1.313357313426104e+001
 1.496857107356318e+000	 8.606901684945385e-001	 1.309943484855180e+001
 1.487419072307031e+000	 8.768997442969899e-001	 1.306148019489360e+001
 1.477792102426505e+000	 8.930280201458656e-001	 1.302033092144696e+001
 1.467977169871392e+000	 9.090717538583950e-001	 1.297661814650001e+001
 1.457975319913183e+000	 9.250277166590232e-001	 1.293097590786417e+001
 1.447787670780874e+000	 9.408926952144032e-001	 1.288403435631299e+001
 1.437415413436331e+000	 9.566634936698549e-001	 1.283641262358730e+001
 1.426859811282049e+000	 9.723369356847182e-001	 1.278871139970375e+001
 1.416122199801143e+000	 9.879098664640057e-001	 1.274150525843579e+001
 1.405203986129465e+000	 1.003379154783733e+000	 1.269533477384413e+001
 1.511919814506641e+000	 8.476624667987508e-001	 1.311993216030273e+001
 1.502635909414624e+000	 8.640129693766441e-001	 1.308542783388340e+001
 1.493161437663220e+000	 8.802851242522312e-001	 1.304730280530839e+001
 1.483497301674313e+000	 8.964756653057330e-001	 1.300617289183792e+001
 1.473644477357683e+000	 9.125813378375239e-001	 1.296266243868667e+001
 1.463604014020220e+000	 9.285989006069539e-001	 1.291739775425678e+001
 1.453377034207980e+000	 9.445251278751972e-001	 1.287100018001399e+001
 1.442964733480680e+000	 9.603568114495741e-001	 1.282407882593878e+001
 1.432368380118340e+000	 9.760907627267612e-001	 1.277722300680799e+001
 1.421589314759868e+000	 9.917238147322857e-001	 1.273099441880252e+001
 1.410628949973539e+000	 1.007252824153679e+000	 1.268591910004989e+001
 1.356379311520008e+000	 9.685161304752106e-001	 1.277201330695738e+001
 1.345667557370631e+000	 9.833448894836275e-001	 1.271033281190117e+001
 1.334784395877035e+000	 9.980676363412555e-001	 1.264639531031764e+001
 1.323731387386189e+000	 1.012681426466225e+000	 1.258063565399457e+001
 1.312510159140009e+000	 1.027183345679557e+000	 1.251362495373879e+001
 1.301122404540689e+000	 1.041570512093714e+000	 1.244391331067192e+001
 1.289569882352404e+000	 1.055840077979967e+000	 1.236979281670795e+001
 1.277854415840096e+000	 1.069989231612100e+000	 1.228934152713790e+001
 1.265977891846146e+000	 1.084015199083979e+000	 1.220044403942749e+001
 1.253942259805881e+000	 1.097915246098555e+000	 1.210081435441783e+001
 1.241749530702945e+000	 1.111686679725904e+000	 1.198802087847510e+001
 1.361804275364840e+000	 9.723897998421610e-001	 1.276448249144017e+001
 1.351049678569120e+000	 9.872778678367018e-001	 1.270483443624064e+001
 1.340122988869792e+000	 1.002059499675142e+000	 1.264271375661109e+001
 1.329025772854573e+000	 1.016731738998476e+000	 1.257778433244182e+001
 1.317759664273673e+000	 1.031291659972187e+000	 1.251117344722888e+001
 1.306326363302200e+000	 1.045736369182350e+000	 1.244195854678685e+001
 1.294727635738664e+000	 1.060063007510474e+000	 1.236842884612099e+001
 1.282965312140314e+000	 1.074268751984574e+000	 1.228865366281992e+001
 1.271041286896127e+000	 1.088350817604013e+000	 1.220050342091293e+001
 1.258957517238369e+000	 1.102306459135656e+000	 1.210167300318313e+001
 1.246716022193793e+000	 1.116132972878948e+000	 1.198970730745494e+001
 1.367229239210188e+000	 9.762634692090429e-001	 1.275664420229546e+001
 1.356431799768122e+000	 9.912108461897435e-001	 1.269890971438791e+001
 1.345461581863046e+000	 1.006051363009023e+000	 1.263848125906944e+001
 1.334320158323423e+000	 1.020782051530740e+000	 1.257481857027467e+001
 1.323009169407765e+000	 1.035399974264841e+000	 1.250834705912672e+001
 1.311530322064093e+000	 1.049902226271017e+000	 1.243937627165119e+001
 1.299885389125255e+000	 1.064285937041014e+000	 1.236621227743659e+001
 1.288076208440811e+000	 1.078548272357080e+000	 1.228692368303790e+001
 1.276104681946334e+000	 1.092686436124073e+000	 1.219937474708143e+001
 1.263972774671036e+000	 1.106697672172779e+000	 1.210124921896792e+001
 1.251682513684775e+000	 1.120579266032010e+000	 1.199007644578439e+001
 1.372654203055902e+000	 9.801371385759574e-001	 1.274852659719619e+001
 1.361813920967494e+000	 9.951438245428429e-001	 1.269258882462105e+001
 1.350800174856662e+000	 1.010043226342979e+000	 1.263373191541522e+001
 1.339614543792616e+000	 1.024832364063088e+000	 1.257141656031229e+001
 1.328258674542174e+000	 1.039508288557581e+000	 1.250525747999365e+001
 1.316734280826272e+000	 1.054068083359768e+000	 1.243628474209768e+001
 1.305043142512094e+000	 1.068508866571631e+000	 1.236326983352538e+001
 1.293187104741517e+000	 1.082827792729652e+000	 1.228428858186828e+001
 1.281168076996712e+000	 1.097022054644190e+000	 1.219720698736034e+001
 1.268988032103835e+000	 1.111088885209946e+000	 1.209970554346690e+001
 1.256649005175858e+000	 1.125025559185105e+000	 1.198930589115841e+001
 1.378079166901831e+000	 9.840108079430039e-001	 1.274015626011497e+001
 1.367196042167092e+000	 9.990768028960905e-001	 1.268590033227913e+001
 1.356138767850504e+000	 1.014035089677089e+000	 1.262849911632006e+001
 1.344908929262028e+000	 1.028882676595589e+000	 1.256741843749654e+001
 1.333508179676787e+000	 1.043616602850469e+000	 1.250201447953997e+001
 1.321938239588635e+000	 1.058233940448654e+000	 1.243280061834339e+001
 1.310200895899095e+000	 1.072731796102369e+000	 1.235972648134120e+001
 1.298298001042361e+000	 1.087107313102328e+000	 1.228088343225585e+001
 1.286231472047204e+000	 1.101357673164391e+000	 1.219414702017394e+001
 1.274003289536723e+000	 1.115480098247180e+000	 1.209720225405339e+001
 1.261615496667008e+000	 1.129471852338250e+000	 1.198757080134736e+001
 1.383504130747827e+000	 9.878844773102833e-001	 1.273155820813214e+001
 1.372578163366772e+000	 1.003009781249576e+000	 1.267887119703639e+001
 1.361477360844436e+000	 1.018026953011434e+000	 1.262281169949900e+001
 1.350203314731536e+000	 1.032932989128315e+000	 1.256286049725992e+001
 1.338757684811494e+000	 1.047724917143565e+000	 1.249838901391857e+001
 1.327142198351086e+000	 1.062399797537729e+000	 1.242903881121785e+001
 1.315358649286176e+000	 1.076954725633270e+000	 1.235570528225632e+001
 1.303408897343274e+000	 1.091386833475143e+000	 1.227684124004656e+001
 1.291294867097751e+000	 1.105693291684706e+000	 1.219033949123648e+001
 1.279018546969656e+000	 1.119871311284503e+000	 1.209389722686392e+001
 1.266581988158192e+000	 1.133918145491462e+000	 1.198504376257240e+001
 1.388929094593738e+000	 9.917581466778956e-001	 1.272275589873774e+001
 1.377960284566391e+000	 1.006942759603390e+000	 1.267152678066057e+001
 1.366815953838327e+000	 1.022018816346095e+000	 1.261669966900160e+001
 1.355497700201014e+000	 1.036983301661337e+000	 1.255777727851041e+001
 1.344007189946183e+000	 1.051833231436931e+000	 1.249415343757929e+001
 1.332346157113527e+000	 1.066565654627043e+000	 1.242511232970587e+001
 1.320516402673251e+000	 1.081177655164380e+000	 1.235132724264089e+001
 1.308519793644184e+000	 1.095666353848132e+000	 1.227229279818544e+001
 1.296358262148298e+000	 1.110028910205162e+000	 1.218592667192068e+001
 1.284033804402589e+000	 1.124262524321937e+000	 1.208994579986130e+001
 1.271548479649375e+000	 1.138364438644758e+000	 1.198189465775475e+001
 1.394354058439414e+000	 9.956318160459410e-001	 1.271377123761516e+001
 1.383342405765805e+000	 1.010875737957623e+000	 1.266389197274660e+001
 1.372154546832039e+000	 1.026010679681152e+000	 1.261019045081077e+001
 1.360792085670339e+000	 1.041033614194725e+000	 1.255220157418661e+001
 1.349256695080741e+000	 1.055941545730628e+000	 1.248934754981628e+001
 1.337550115875858e+000	 1.070731511716650e+000	 1.242093265474775e+001
 1.325674156060236e+000	 1.085400584695741e+000	 1.234671116468022e+001
 1.313630689945021e+000	 1.099945874221332e+000	 1.226736654107487e+001
 1.301421657198787e+000	 1.114364528725790e+000	 1.218104831770123e+001
 1.289049061835477e+000	 1.128653737359504e+000	 1.208550063587675e+001
 1.276514971140525e+000	 1.142810731798155e+000	 1.197829053464235e+001
 1.399779022284706e+000	 9.995054854145197e-001	 1.270462458689146e+001
 1.388724526964869e+000	 1.014808716312365e+000	 1.265598675716353e+001
 1.377493139825438e+000	 1.030002543016684e+000	 1.260330982564779e+001
 1.366086471139387e+000	 1.045083926728551e+000	 1.254616444221406e+001
 1.354506200215058e+000	 1.060049860024718e+000	 1.248400930094638e+001
 1.342754074637983e+000	 1.074897368806602e+000	 1.241618569493424e+001
 1.330831909447048e+000	 1.089623514227398e+000	 1.234197349742417e+001
 1.318741586245716e+000	 1.104225394594779e+000	 1.226218839908936e+001
 1.306485052249162e+000	 1.118700147246616e+000	 1.217584152666984e+001
 1.294064319268276e+000	 1.133044950397226e+000	 1.208071158563273e+001
 1.281481462631608e+000	 1.147257024951669e+000	 1.197439547381689e+001
 1.405203986129465e+000	 1.003379154783733e+000	 1.269533477384413e+001
 1.394106648163441e+000	 1.018741694667706e+000	 1.264783283540850e+001
 1.382831732818390e+000	 1.033994406352774e+000	 1.259608193898998e+001
 1.371380856608035e+000	 1.049134239262883e+000	 1.253969521684887e+001
 1.359755705349022e+000	 1.064158174319261e+000	 1.247817480539669e+001
 1.347958033399803e+000	 1.079063225896950e+000	 1.241090616565599e+001
 1.335989662833601e+000	 1.093846443759394e+000	 1.233715138386319e+001
 1.323852482546198e+000	 1.108504914968508e+000	 1.225688165324189e+001
 1.311548447299365e+000	 1.123035765767670e+000	 1.217044059812066e+001
 1.299079576700941e+000	 1.137436163435127e+000	 1.207572555074564e+001
 1.286447954122590e+000	 1.151703318105316e+000	 1.197037045658465e+001
 1.410628949973539e+000	 1.007252824153679e+000	 1.268591910004989e+001
 1.399488769361377e+000	 1.022674673023736e+000	 1.263944926503783e+001
 1.388170325810758e+000	 1.037986269689500e+000	 1.258852931149961e+001
 1.376675242076157e+000	 1.053184551797793e+000	 1.253282152040115e+001
 1.365005210482521e+000	 1.068266488614319e+000	 1.247187835512759e+001
 1.353161992161219e+000	 1.083229082987748e+000	 1.240513652471807e+001
 1.341147416219812e+000	 1.098069373291773e+000	 1.233190999724256e+001
 1.328963378846395e+000	 1.112784435342554e+000	 1.225156678999842e+001
 1.316611842349339e+000	 1.127371384288980e+000	 1.216497689120391e+001
 1.304094834133428e+000	 1.141827376473227e+000	 1.207068634671033e+001
 1.291414445613439e+000	 1.156149611259114e+000	 1.196637323275387e+001
 1.241749530702945e+000	 1.111686679725904e+000	 1.198802087847510e+001
 1.229403639738536e+000	 1.125324814353805e+000	 1.187250286934027e+001
 1.216904900482188e+000	 1.138829122302628e+000	 1.176480335965930e+001
 1.204255501786119e+000	 1.152197047172691e+000	 1.166257342677113e+001
 1.191457689237918e+000	 1.165426080602269e+000	 1.156344352779312e+001
 1.178513763834143e+000	 1.178513763834143e+000	 1.146505513290927e+001
 1.165426080602269e+000	 1.191457689237918e+000	 1.136509325573262e+001
 1.152197047172691e+000	 1.204255501786119e+000	 1.126131963234446e+001
 1.138829122302628e+000	 1.216904900482188e+000	 1.115160629145638e+001
 1.125324814353805e+000	 1.229403639738537e+000	 1.103396925096620e+001
 1.111686679725904e+000	 1.241749530702945e+000	 1.090660207105150e+001
 1.246716022193793e+000	 1.116132972878948e+000	 1.198970730745494e+001
 1.234320752702791e+000	 1.129825654481125e+000	 1.187511136245121e+001
 1.221772023589038e+000	 1.143383974152054e+000	 1.176850653992368e+001
 1.209072032459265e+000	 1.156805365267505e+000	 1.166753449938416e+001
 1.196223033882487e+000	 1.170087309433334e+000	 1.156981491617360e+001
 1.183227338058305e+000	 1.183227338058305e+000	 1.147297786930651e+001
 1.170087309433334e+000	 1.196223033882487e+000	 1.137469716054396e+001
 1.156805365267504e+000	 1.209072032459265e+000	 1.127272431030507e+001
 1.143383974152054e+000	 1.221772023589038e+000	 1.116492296658737e+001
 1.129825654481125e+000	 1.234320752702791e+000	 1.104930345564430e+001
 1.116132972878949e+000	 1.246716022193793e+000	 1.092405719785037e+001
 1.251682513684775e+000	 1.120579266032010e+000	 1.199007644578439e+001
 1.239237865667143e+000	 1.134326494608457e+000	 1.187643121672849e+001
 1.226639146695958e+000	 1.147938826001489e+000	 1.177100180715771e+001
 1.213888563132458e+000	 1.161413683362326e+000	 1.167140470747986e+001
 1.200988378527087e+000	 1.174748538264411e+000	 1.157523235945130e+001
 1.187940912282485e+000	 1.187940912282484e+000	 1.148008634313502e+001
 1.174748538264411e+000	 1.200988378527087e+000	 1.138361153131146e+001
 1.161413683362327e+000	 1.213888563132458e+000	 1.128353095078414e+001
 1.147938826001489e+000	 1.226639146695958e+000	 1.117768108028087e+001
 1.134326494608457e+000	 1.239237865667143e+000	 1.106404730697905e+001
 1.120579266032010e+000	 1.251682513684776e+000	 1.094079925816618e+001
 1.256649005175858e+000	 1.125025559185105e+000	 1.198930589115842e+001
 1.244154978631569e+000	 1.138827334735813e+000	 1.187665355201998e+001
 1.231506269802929e+000	 1.152493677850942e+000	 1.177248943121728e+001
 1.218705093805686e+000	 1.166022001457163e+000	 1.167438924367823e+001
 1.205753723171710e+000	 1.179409767095502e+000	 1.157990189147435e+001
 1.192654486506682e+000	 1.192654486506682e+000	 1.148658349455716e+001
 1.179409767095502e+000	 1.205753723171710e+000	 1.139203242726054e+001
 1.166022001457163e+000	 1.218705093805686e+000	 1.129392509365837e+001
 1.152493677850942e+000	 1.231506269802929e+000	 1.119005216481856e+001
 1.138827334735813e+000	 1.244154978631569e+000	 1.107835499306342e+001
 1.125025559185105e+000	 1.256649005175858e+000	 1.095696191261716e+001
 1.261615496667008e+000	 1.129471852338250e+000	 1.198757080134736e+001
 1.249072091596043e+000	 1.143328174863207e+000	 1.187596691710323e+001
 1.236373392909934e+000	 1.157048529700422e+000	 1.177316706801182e+001
 1.223521624478938e+000	 1.170630319552019e+000	 1.167669072874920e+001
 1.210519067816351e+000	 1.184070995926608e+000	 1.158402709788153e+001
 1.197368060730894e+000	 1.197368060730893e+000	 1.149267001716021e+001
 1.184070995926608e+000	 1.210519067816351e+000	 1.140015393699820e+001
 1.170630319552019e+000	 1.223521624478938e+000	 1.130409065468248e+001
 1.157048529700422e+000	 1.236373392909934e+000	 1.120220654150992e+001
 1.143328174863206e+000	 1.249072091596043e+000	 1.109237996683631e+001
 1.129471852338250e+000	 1.261615496667008e+000	 1.097267862108000e+001
 1.266581988158192e+000	 1.133918145491462e+000	 1.198504376257240e+001
 1.253989204560542e+000	 1.147829014990649e+000	 1.187455716292531e+001
 1.241240516016958e+000	 1.161603381549936e+000	 1.177322963631015e+001
 1.228338155152204e+000	 1.175238637646899e+000	 1.167850909073719e+001
 1.215284412461003e+000	 1.188732224757730e+000	 1.158780899635129e+001
 1.202081634955118e+000	 1.202081634955118e+000	 1.149854423818610e+001
 1.188732224757730e+000	 1.215284412461003e+000	 1.140816805763405e+001
 1.175238637646899e+000	 1.228338155152204e+000	 1.131420980246672e+001
 1.161603381549936e+000	 1.241240516016958e+000	 1.121431319454613e+001
 1.147829014990649e+000	 1.253989204560542e+000	 1.110627481588939e+001
 1.133918145491462e+000	 1.266581988158192e+000	 1.098808250758268e+001
 1.271548479649375e+000	 1.138364438644758e+000	 1.198189465775475e+001
 1.258906317525041e+000	 1.152329855118152e+000	 1.187260731562538e+001
 1.246107639123982e+000	 1.166158233399493e+000	 1.177286919427195e+001
 1.233154685825472e+000	 1.179846955741808e+000	 1.168004144378743e+001
 1.220049757105661e+000	 1.193393453588871e+000	 1.159144591655858e+001
 1.206795209179352e+000	 1.206795209179352e+000	 1.150440199850666e+001
 1.193393453588871e+000	 1.220049757105661e+000	 1.141626457371347e+001
 1.179846955741807e+000	 1.233154685825472e+000	 1.132446283536101e+001
 1.166158233399493e+000	 1.246107639123982e+000	 1.122653964488087e+001
 1.152329855118152e+000	 1.258906317525041e+000	 1.112019113244585e+001
 1.138364438644758e+000	 1.271548479649375e+000	 1.100330622553649e+001
 1.276514971140525e+000	 1.142810731798155e+000	 1.197829053464235e+001
 1.263823430489515e+000	 1.156830695245728e+000	 1.187029744934486e+001
 1.250974762230989e+000	 1.170713085249101e+000	 1.177227481571226e+001
 1.237971216498730e+000	 1.184455273836749e+000	 1.168148196668191e+001
 1.224815101750318e+000	 1.198054682420031e+000	 1.159513337984889e+001
 1.211508783403595e+000	 1.211508783403595e+000	 1.151043653235240e+001
 1.198054682420031e+000	 1.224815101750318e+000	 1.142463093596919e+001
 1.184455273836749e+000	 1.237971216498730e+000	 1.133502805824814e+001
 1.170713085249101e+000	 1.250974762230990e+000	 1.123905182413811e+001
 1.156830695245728e+000	 1.263823430489516e+000	 1.113427938350593e+001
 1.142810731798155e+000	 1.276514971140525e+000	 1.101848182329866e+001
 1.281481462631608e+000	 1.147257024951669e+000	 1.197439547381689e+001
 1.268740543453941e+000	 1.161331535373390e+000	 1.186780455883306e+001
 1.255841885337964e+000	 1.175267937098768e+000	 1.177163246610568e+001
 1.242787747171970e+000	 1.189063591931730e+000	 1.168302178109201e+001
 1.229580446394968e+000	 1.202715911251213e+000	 1.159906397863629e+001
 1.216222357627845e+000	 1.216222357627845e+000	 1.151683834680147e+001
 1.202715911251212e+000	 1.229580446394968e+000	 1.143345213989617e+001
 1.189063591931730e+000	 1.242787747171970e+000	 1.134608165924960e+001
 1.175267937098769e+000	 1.255841885337964e+000	 1.125201394854438e+001
 1.161331535373390e+000	 1.268740543453941e+000	 1.114868878115522e+001
 1.147257024951669e+000	 1.281481462631608e+000	 1.103374061005612e+001
 1.286447954122590e+000	 1.151703318105316e+000	 1.197037045658465e+001
 1.273657656418294e+000	 1.165832375501149e+000	 1.186530243185115e+001
 1.260709008444888e+000	 1.179822788948504e+000	 1.177112487833837e+001
 1.247604277845178e+000	 1.193671910026754e+000	 1.168484882955614e+001
 1.234345791039605e+000	 1.207377140082416e+000	 1.160342725553314e+001
 1.220935931852098e+000	 1.220935931852098e+000	 1.152379510103471e+001
 1.207377140082416e+000	 1.234345791039605e+000	 1.144291060415297e+001
 1.193671910026753e+000	 1.247604277845179e+000	 1.135779758634514e+001
 1.179822788948504e+000	 1.260709008444888e+000	 1.126558839288667e+001
 1.165832375501150e+000	 1.273657656418294e+000	 1.116356715303088e+001
 1.151703318105316e+000	 1.286447954122590e+000	 1.104921302202261e+001
 1.291414445613439e+000	 1.156149611259114e+000	 1.196637323275387e+001
 1.278574769382549e+000	 1.170333215629018e+000	 1.186296152138204e+001
 1.265576131551744e+000	 1.184377640798316e+000	 1.177093142821311e+001
 1.252420808518344e+000	 1.198280228121825e+000	 1.168714775319018e+001
 1.239111135684223e+000	 1.212038368913644e+000	 1.160840958221862e+001
 1.225649506076354e+000	 1.225649506076354e+000	 1.153149148536323e+001
 1.212038368913644e+000	 1.239111135684222e+000	 1.145318604879691e+001
 1.198280228121825e+000	 1.252420808518344e+000	 1.137034742390899e+001
 1.184377640798316e+000	 1.265576131551744e+000	 1.127993556449448e+001
 1.170333215629018e+000	 1.278574769382549e+000	 1.117906081294218e+001
 1.156149611259114e+000	 1.291414445613438e+000	 1.106502848893916e+001
 1.111686679725904e+000	 1.241749530702945e+000	 1.090660207105150e+001
 1.097915246098555e+000	 1.253942259805881e+000	 1.077501843645456e+001
 1.084015199083980e+000	 1.265977891846146e+000	 1.064365202777387e+001
 1.069989231612100e+000	 1.277854415840096e+000	 1.050934517661914e+001
 1.055840077979967e+000	 1.289569882352404e+000	 1.036920110644796e+001
 1.041570512093714e+000	 1.301122404540689e+000	 1.022061642766085e+001
 1.027183345679557e+000	 1.312510159140009e+000	 1.006131193629757e+001
 1.012681426466225e+000	 1.323731387386190e+000	 9.889361462526292e+000
 9.980676363412553e-001	 1.334784395877035e+000	 9.703452434258979e+000
 9.833448894836278e-001	 1.345667557370631e+000	 9.518907367081395e+000
 9.685161304752106e-001	 1.356379311520008e+000	 9.344951020194577e+000
 1.116132972878949e+000	 1.246716022193793e+000	 1.092405719785037e+001
 1.102306459135656e+000	 1.258957517238369e+000	 1.079446736790686e+001
 1.088350817604013e+000	 1.271041286896127e+000	 1.066462456683801e+001
 1.074268751984574e+000	 1.282965312140314e+000	 1.053120471278804e+001
 1.060063007510474e+000	 1.294727635738664e+000	 1.039114612580877e+001
 1.045736369182350e+000	 1.306326363302200e+000	 1.024168319577134e+001
 1.031291659972187e+000	 1.317759664273673e+000	 1.008037832919783e+001
 1.016731738998476e+000	 1.329025772854573e+000	 9.905151913749958e+000
 1.002059499675142e+000	 1.340122988869793e+000	 9.719413914583541e+000
 9.872778678367018e-001	 1.351049678569120e+000	 9.541802913283950e+000
 9.723897998421612e-001	 1.361804275364840e+000	 9.373443245021839e+000
 1.120579266032010e+000	 1.251682513684776e+000	 1.094079925816618e+001
 1.106697672172779e+000	 1.263972774671036e+000	 1.081295240997511e+001
 1.092686436124073e+000	 1.276104681946334e+000	 1.068424318053555e+001
 1.078548272357080e+000	 1.288076208440811e+000	 1.055120081147221e+001
 1.064285937041014e+000	 1.299885389125255e+000	 1.041061925906097e+001
 1.049902226271017e+000	 1.311530322064094e+000	 1.025959201532183e+001
 1.035399974264841e+000	 1.323009169407765e+000	 1.009554518193714e+001
 1.020782051530740e+000	 1.334320158323423e+000	 9.916379890799149e+000
 1.006051363009023e+000	 1.345461581863046e+000	 9.736102254370714e+000
 9.912108461897440e-001	 1.356431799768123e+000	 9.564777811435739e+000
 9.762634692090429e-001	 1.367229239210187e+000	 9.401427312413745e+000
 1.125025559185105e+000	 1.256649005175858e+000	 1.095696191261716e+001
 1.111088885209946e+000	 1.268988032103835e+000	 1.083058847245192e+001
 1.097022054644190e+000	 1.281168076996712e+000	 1.070261046109243e+001
 1.082827792729652e+000	 1.293187104741517e+000	 1.056942986564908e+001
 1.068508866571631e+000	 1.305043142512093e+000	 1.042771649762677e+001
 1.054068083359768e+000	 1.316734280826272e+000	 1.027444394825895e+001
 1.039508288557581e+000	 1.328258674542173e+000	 1.010692376915985e+001
 1.024832364063088e+000	 1.339614543792616e+000	 9.927080295167812e+000
 1.010043226342979e+000	 1.350800174856662e+000	 9.753569285295258e+000
 9.951438245428430e-001	 1.361813920967494e+000	 9.587911785191958e+000
 9.801371385759574e-001	 1.372654203055902e+000	 9.429015201733586e+000
 1.129471852338250e+000	 1.261615496667008e+000	 1.097267862108000e+001
 1.115480098247180e+000	 1.274003289536723e+000	 1.084749077761399e+001
 1.101357673164392e+000	 1.286231472047204e+000	 1.071982973014398e+001
 1.087107313102328e+000	 1.298298001042362e+000	 1.058598932150250e+001
 1.072731796102369e+000	 1.310200895899095e+000	 1.044253512004506e+001
 1.058233940448655e+000	 1.321938239588635e+000	 1.028634149097879e+001
 1.043616602850469e+000	 1.333508179676787e+000	 1.011463133660809e+001
 1.028882676595589e+000	 1.344908929262028e+000	 9.939243639569089e+000
 1.014035089677089e+000	 1.356138767850504e+000	 9.771870576588503e+000
 9.990768028960902e-001	 1.367196042167092e+000	 9.611280279951588e+000
 9.840108079430038e-001	 1.378079166901831e+000	 9.456314203385414e+000
 1.133918145491462e+000	 1.266581988158192e+000	 1.098808250758268e+001
 1.119871311284503e+000	 1.279018546969656e+000	 1.086377472087391e+001
 1.105693291684706e+000	 1.291294867097751e+000	 1.073600489726749e+001
 1.091386833475143e+000	 1.303408897343274e+000	 1.060097753686840e+001
 1.076954725633270e+000	 1.315358649286176e+000	 1.045517355227205e+001
 1.062399797537729e+000	 1.327142198351086e+000	 1.029538843833485e+001
 1.047724917143565e+000	 1.338757684811494e+000	 1.012182196587660e+001
 1.032932989128316e+000	 1.350203314731536e+000	 9.952891238496086e+000
 1.018026953011434e+000	 1.361477360844436e+000	 9.791034432681464e+000
 1.003009781249576e+000	 1.372578163366772e+000	 9.634954517424211e+000
 9.878844773102833e-001	 1.383504130747827e+000	 9.483426980047371e+000
 1.138364438644758e+000	 1.271548479649375e+000	 1.100330622553649e+001
 1.124262524321937e+000	 1.284033804402589e+000	 1.087955573192676e+001
 1.110028910205163e+000	 1.296358262148297e+000	 1.075124031911588e+001
 1.095666353848132e+000	 1.308519793644184e+000	 1.061449364034335e+001
 1.081177655164380e+000	 1.320516402673251e+000	 1.046573122866479e+001
 1.066565654627043e+000	 1.332346157113527e+000	 1.030168974830655e+001
 1.051833231436931e+000	 1.344007189946183e+000	 1.013113567304467e+001
 1.036983301661338e+000	 1.355497700201014e+000	 9.968040833181018e+000
 1.022018816346095e+000	 1.366815953838327e+000	 9.811109070834180e+000
 1.006942759603390e+000	 1.377960284566391e+000	 9.659001550393196e+000
 9.917581466778954e-001	 1.388929094593737e+000	 9.510451627904246e+000
 1.142810731798155e+000	 1.276514971140525e+000	 1.101848182329866e+001
 1.128653737359504e+000	 1.289049061835476e+000	 1.089494913637763e+001
 1.114364528725790e+000	 1.301421657198787e+000	 1.076564065913742e+001
 1.099945874221332e+000	 1.313630689945021e+000	 1.062663739104009e+001
 1.085400584695741e+000	 1.325674156060237e+000	 1.047430845362948e+001
 1.070731511716650e+000	 1.337550115875858e+000	 1.030712507490963e+001
 1.055941545730628e+000	 1.349256695080741e+000	 1.014256914418338e+001
 1.041033614194725e+000	 1.360792085670339e+000	 9.984706637770726e+000
 1.026010679681151e+000	 1.372154546832039e+000	 9.832130879793391e+000
 1.010875737957623e+000	 1.383342405765804e+000	 9.683491893352937e+000
 9.956318160459409e-001	 1.394354058439414e+000	 9.537481737876860e+000
 1.147257024951669e+000	 1.281481462631608e+000	 1.103374061005612e+001
 1.133044950397227e+000	 1.294064319268276e+000	 1.091007001783619e+001
 1.118700147246616e+000	 1.306485052249161e+000	 1.077931074786470e+001
 1.104225394594779e+000	 1.318741586245716e+000	 1.063750903897041e+001
 1.089623514227398e+000	 1.330831909447048e+000	 1.048100626391536e+001
 1.074897368806601e+000	 1.342754074637983e+000	 1.031518648210999e+001
 1.060049860024718e+000	 1.354506200215058e+000	 1.015611576892935e+001
 1.045083926728551e+000	 1.366086471139387e+000	 1.000289938597401e+001
 1.030002543016684e+000	 1.377493139825438e+000	 9.854132512185405e+000
 1.014808716312365e+000	 1.388724526964869e+000	 9.708468913345142e+000
 9.995054854145198e-001	 1.399779022284707e+000	 9.564606456849642e+000
 1.151703318105316e+000	 1.286447954122590e+000	 1.104921302202261e+001
 1.137436163435127e+000	 1.299079576700941e+000	 1.092503308046743e+001
 1.123035765767670e+000	 1.311548447299364e+000	 1.079235544375781e+001
 1.108504914968508e+000	 1.323852482546198e+000	 1.064720918604096e+001
 1.093846443759394e+000	 1.335989662833602e+000	 1.048660272949721e+001
 1.079063225896950e+000	 1.347958033399803e+000	 1.032594174578741e+001
 1.064158174319261e+000	 1.359755705349022e+000	 1.017176568543382e+001
 1.049134239262883e+000	 1.371380856608035e+000	 1.002262637816869e+001
 1.033994406352774e+000	 1.382831732818390e+000	 9.877142935108052e+000
 1.018741694667706e+000	 1.394106648163441e+000	 9.733995433192973e+000
 1.003379154783733e+000	 1.405203986129465e+000	 9.591910548896529e+000
 1.156149611259114e+000	 1.291414445613438e+000	 1.106502848893916e+001
 1.141827376473228e+000	 1.304094834133428e+000	 1.093995251198477e+001
 1.127371384288980e+000	 1.316611842349339e+000	 1.080487949458727e+001
 1.112784435342554e+000	 1.328963378846395e+000	 1.065583864764241e+001
 1.098069373291773e+000	 1.341147416219812e+000	 1.049487615587443e+001
 1.083229082987748e+000	 1.353161992161219e+000	 1.033936550448688e+001
 1.068266488614319e+000	 1.365005210482521e+000	 1.018950582584715e+001
 1.053184551797793e+000	 1.376675242076157e+000	 1.004389152895543e+001
 1.037986269689500e+000	 1.388170325810758e+000	 9.901187481047764e+000
 1.022674673023736e+000	 1.399488769361377e+000	 9.760122381664154e+000
 1.007252824153679e+000	 1.410628949973538e+000	 9.619474456504024e+000
 9.685161304752106e-001	 1.356379311520008e+000	 9.344951020194577e+000
 9.535843320708534e-001	 1.366918165158378e+000	 9.177704534334874e+000
 9.385524923276887e-001	 1.377282691739777e+000	 9.013022767313961e+000
 9.234236336733949e-001	 1.387471533020204e+000	 8.849876758779658e+000
 9.082008012876665e-001	 1.397483399918780e+000	 8.687241223419207e+000
 8.928870611472519e-001	 1.407317072930754e+000	 8.524090189187636e+000
 8.774854980648936e-001	 1.416971402475017e+000	 8.359392871570689e+000
 8.619992137246938e-001	 1.426445309176177e+000	 8.192109831298991e+000
 8.464313247164138e-001	 1.435737784081395e+000	 8.021189458134041e+000
 8.307849605711887e-001	 1.444847888812251e+000	 7.845564818199271e+000
 8.150632618011137e-001	 1.453774755652043e+000	 7.664150896892898e+000
 9.723897998421612e-001	 1.361804275364840e+000	 9.373443245021839e+000
 9.573982803361829e-001	 1.372385280118109e+000	 9.210239760401894e+000
 9.423063193669027e-001	 1.382791260577346e+000	 9.048073879140137e+000
 9.271169514504698e-001	 1.393020853066112e+000	 8.886120909557141e+000
 9.118332339460493e-001	 1.403072763347715e+000	 8.723565228565768e+000
 8.964582450930406e-001	 1.412945767039864e+000	 8.559595380029226e+000
 8.809950820421710e-001	 1.422638709963577e+000	 8.393399415669990e+000
 8.654468588830089e-001	 1.432150508426387e+000	 8.224160528293590e+000
 8.498167046703966e-001	 1.441480149440036e+000	 8.051053022153484e+000
 8.341077614523108e-001	 1.450626690872958e+000	 7.873238659969817e+000
 8.183231823016085e-001	 1.459589261537921e+000	 7.689863420508326e+000
 9.762634692090429e-001	 1.367229239210187e+000	 9.401427312413745e+000
 9.612122286013992e-001	 1.377852395078342e+000	 9.241793022856983e+000
 9.460601464059503e-001	 1.388299829415390e+000	 9.081809783996762e+000
 9.308102692273189e-001	 1.398570173112461e+000	 8.920841789627431e+000
 9.154656666041432e-001	 1.408662126777046e+000	 8.758267185068744e+000
 9.000294290384739e-001	 1.418574461149325e+000	 8.593472651830751e+000
 8.845046660190273e-001	 1.428306017452446e+000	 8.425848242214061e+000
 8.688945040408380e-001	 1.437855707676866e+000	 8.254782515932670e+000
 8.532020846238323e-001	 1.447222514798917e+000	 8.079658025747939e+000
 8.374305623328302e-001	 1.456405492933886e+000	 7.899847193632798e+000
 8.215831028014518e-001	 1.465403767424017e+000	 7.714708613198370e+000
 9.801371385759574e-001	 1.372654203055902e+000	 9.429015201733586e+000
 9.650261768666123e-001	 1.383319510038923e+000	 9.272508182530130e+000
 9.498139734449511e-001	 1.393808398253756e+000	 9.114401434240838e+000
 9.345035870040723e-001	 1.404119493159094e+000	 8.954232842325819e+000
 9.190980992620879e-001	 1.414251490206624e+000	 8.791558619113577e+000
 9.036006129837009e-001	 1.424203155258993e+000	 8.625947400613999e+000
 8.880142499956196e-001	 1.433973324941483e+000	 8.456974601526133e+000
 8.723421491983465e-001	 1.443560906927481e+000	 8.284217082818095e+000
 8.565874645768926e-001	 1.452964880157908e+000	 8.107248181001207e+000
 8.407533632129244e-001	 1.462184294994912e+000	 7.925633142582345e+000
 8.248430233008260e-001	 1.471218273310214e+000	 7.738925001212340e+000
 9.840108079430038e-001	 1.378079166901831e+000	 9.456314203385414e+000
 9.688401251319329e-001	 1.388786624999700e+000	 9.302524008127367e+000
 9.535678004840261e-001	 1.399316967092288e+000	 9.146014364352816e+000
 9.381969047808600e-001	 1.409668813205861e+000	 8.986481842115053e+000
 9.227305319200210e-001	 1.419840853636299e+000	 8.823645209054384e+000
 9.071717969288693e-001	 1.429831849368721e+000	 8.657239064863612e+000
 8.915238339721037e-001	 1.439640632430548e+000	 8.487007743090366e+000
 8.757897943556977e-001	 1.449266106178097e+000	 8.312699536906973e+000
 8.599728445297495e-001	 1.458707245516883e+000	 8.134061300074787e+000
 8.440761640927721e-001	 1.467963097055915e+000	 7.950833468515244e+000
 8.281029437999159e-001	 1.477032779196395e+000	 7.762745541747506e+000
 9.878844773102833e-001	 1.383504130747827e+000	 9.483426980047371e+000
 9.726540733974713e-001	 1.394253739960519e+000	 9.331974243964430e+000
 9.573216275232955e-001	 1.404825535930832e+000	 9.176808763643381e+000
 9.418902225578113e-001	 1.415218133252607e+000	 9.017770970803234e+000
 9.263629645780832e-001	 1.425430217065921e+000	 8.854726863741897e+000
 9.107429808741278e-001	 1.435460543478365e+000	 8.687561204631182e+000
 8.950334179486370e-001	 1.445307939919501e+000	 8.516170994166322e+000
 8.792374395130574e-001	 1.454971305428580e+000	 8.340459282436175e+000
 8.633582244825742e-001	 1.464449610875713e+000	 8.160329369310874e+000
 8.473989649725507e-001	 1.473741899116773e+000	 7.975679441648452e+000
 8.313628642989047e-001	 1.482847285082444e+000	 7.786397688289100e+000
 9.917581466778954e-001	 1.388929094593737e+000	 9.510451627904246e+000
 9.764680216633372e-001	 1.399720854921225e+000	 9.360987677503038e+000
 9.610754545628796e-001	 1.410334104769236e+000	 9.206939548602120e+000
 9.455835403350567e-001	 1.420767453299180e+000	 9.048276893274089e+000
 9.299953972364135e-001	 1.431019580495340e+000	 8.884997800272398e+000
 9.143141648196238e-001	 1.441089237587779e+000	 8.717121579998812e+000
 8.985430019253762e-001	 1.450975247408202e+000	 8.544681837728263e+000
 8.826850846705890e-001	 1.460676504678796e+000	 8.367719896166944e+000
 8.667436044355391e-001	 1.470191976234270e+000	 8.186278622675786e+000
 8.507217658524386e-001	 1.479520701177364e+000	 8.000396710324523e+000
 8.346227847979756e-001	 1.488661790968246e+000	 7.810103455404326e+000
 9.956318160459409e-001	 1.394354058439414e+000	 9.537481737876860e+000
 9.802819699296413e-001	 1.405187969881668e+000	 9.389688206693579e+000
 9.648292816028976e-001	 1.415842673607342e+000	 9.236556434898070e+000
 9.492768581127261e-001	 1.426316773345427e+000	 9.078170832748548e+000
 9.336278298951504e-001	 1.436608943924404e+000	 8.914646621172297e+000
 9.178853487655067e-001	 1.446717931696817e+000	 8.746122228915917e+000
 9.020525859024777e-001	 1.456642554896511e+000	 8.572751989747077e+000
 8.861327298284579e-001	 1.466381703928612e+000	 8.394699202964716e+000
 8.701289843888153e-001	 1.475934341592428e+000	 8.212129614559835e+000
 8.540445667326138e-001	 1.485299503237567e+000	 8.025205370015840e+000
 8.378827052973118e-001	 1.494476296853683e+000	 7.834079483006038e+000
 9.995054854145198e-001	 1.399779022284707e+000	 9.564606456849642e+000
 9.840959181964941e-001	 1.410655084841691e+000	 9.418194907132348e+000
 9.685831086434708e-001	 1.421351242444998e+000	 9.265804009039730e+000
 9.529701758909484e-001	 1.431866093391195e+000	 9.107618645584747e+000
 9.372602625544341e-001	 1.442198307352966e+000	 8.943856391035114e+000
 9.214565327119235e-001	 1.452346625805334e+000	 8.774759544429537e+000
 9.055621698800984e-001	 1.462309862384287e+000	 8.600587475831103e+000
 8.895803749868287e-001	 1.472086903177893e+000	 8.421609350735066e+000
 8.735143643425752e-001	 1.481676706950057e+000	 8.238097291952428e+000
 8.573673676132543e-001	 1.491078305297259e+000	 8.050320031750047e+000
 8.411426257970979e-001	 1.500290802738638e+000	 7.858537100101096e+000
 1.003379154783733e+000	 1.405203986129465e+000	 9.591910548896529e+000
 9.879098664640053e-001	 1.416122199801143e+000	 9.446622099034958e+000
 9.723369356847186e-001	 1.426859811282049e+000	 9.294821799706948e+000
 9.566634936698545e-001	 1.437415413436331e+000	 9.136780895632976e+000
 9.408926952144034e-001	 1.447787670780874e+000	 8.972804712625317e+000
 9.250277166590233e-001	 1.457975319913183e+000	 8.803224351322118e+000
 9.090717538583948e-001	 1.467977169871391e+000	 8.628388707245653e+000
 8.930280201458658e-001	 1.477792102426505e+000	 8.448656884731285e+000
 8.768997442969899e-001	 1.487419072307031e+000	 8.264391066007702e+000
 8.606901684945385e-001	 1.496857107356318e+000	 8.075949889967028e+000
 8.444025462975162e-001	 1.506105308622997e+000	 7.883682388035831e+000
 1.007252824153679e+000	 1.410628949973538e+000	 9.619474456504024e+000
 9.917238147322854e-001	 1.421589314759868e+000	 9.475079414033168e+000
 9.760907627267612e-001	 1.432368380118340e+000	 9.323744348760373e+000
 9.603568114495741e-001	 1.442964733480680e+000	 9.165812928156075e+000
 9.445251278751973e-001	 1.453377034207980e+000	 9.001663802462694e+000
 9.285989006069539e-001	 1.463604014020220e+000	 8.831701982174335e+000
 9.125813378375239e-001	 1.473644477357683e+000	 8.656350556325601e+000
 8.964756653057331e-001	 1.483497301674313e+000	 8.476042821250411e+000
 8.802851242522309e-001	 1.493161437663220e+000	 8.291214883019476e+000
 8.640129693766441e-001	 1.502635909414624e+000	 8.102298789826204e+000
 8.476624667987510e-001	 1.511919814506641e+000	 7.909716243253651e+000
 8.150632618011137e-001	 1.453774755652043e+000	 7.664150896892898e+000
 7.992717523120669e-001	 1.462516290244094e+000	 7.472508378636564e+000
 7.834112354645310e-001	 1.471073120235707e+000	 7.269711593046980e+000
 7.674848724460873e-001	 1.479444591253303e+000	 7.060043433357088e+000
 7.514958276341680e-001	 1.487630119263421e+000	 6.847817134040332e+000
 7.354472666915338e-001	 1.495629190345228e+000	 6.637365704729480e+000
 7.193423546795726e-001	 1.503441360402968e+000	 6.433031878341721e+000
 7.031842541915491e-001	 1.511066254819426e+000	 6.239158584207670e+000
 6.869761235078749e-001	 1.518503568051551e+000	 6.060079950926111e+000
 6.707211147754113e-001	 1.525753063169474e+000	 5.900112837799320e+000
 6.544223722127310e-001	 1.532814571340203e+000	 5.761993794204553e+000
 8.183231823016085e-001	 1.459589261537921e+000	 7.689863420508326e+000
 8.024685132175328e-001	 1.468365758701667e+000	 7.497062927419885e+000
 7.865445607736817e-001	 1.476956812521842e+000	 7.294176295854678e+000
 7.705544988011007e-001	 1.485361766007659e+000	 7.085251547786296e+000
 7.545015043334430e-001	 1.493580032789783e+000	 6.874363568649462e+000
 7.383887556948314e-001	 1.501611096891922e+000	 6.665603992257052e+000
 7.222194306056113e-001	 1.509454512442139e+000	 6.463071616985512e+000
 7.059967043081321e-001	 1.517109903324919e+000	 6.270863362888871e+000
 6.897237477146422e-001	 1.524576962775183e+000	 6.093065773176196e+000
 6.734037255793064e-001	 1.531855452915456e+000	 5.933747057473338e+000
 6.570397946962922e-001	 1.538945204237500e+000	 5.796023650156529e+000
 8.215831028014518e-001	 1.465403767424017e+000	 7.714708613198370e+000
 8.056652741223067e-001	 1.474215227159471e+000	 7.520904519198457e+000
 7.896778860821095e-001	 1.482840504808239e+000	 7.318009019008533e+000
 7.736241251553686e-001	 1.491278940762324e+000	 7.109844502823286e+000
 7.575071810319586e-001	 1.499529946316506e+000	 6.900256918961414e+000
 7.413302446973650e-001	 1.507593003439040e+000	 6.693106091411533e+000
 7.250965065308890e-001	 1.515467664481798e+000	 6.492256586155628e+000
 7.088091544239663e-001	 1.523153551830967e+000	 6.301569134833157e+000
 6.924713719206810e-001	 1.530650357499436e+000	 6.124892617924572e+000
 6.760863363825016e-001	 1.537957842662119e+000	 5.966056603468313e+000
 6.596572171791894e-001	 1.545075837135533e+000	 5.828392757267664e+000
 8.248430233008260e-001	 1.471218273310214e+000	 7.738925001212340e+000
 8.088620350265764e-001	 1.480064695617395e+000	 7.544267292854046e+000
 7.928112113900055e-001	 1.488724197094793e+000	 7.341442114516214e+000
 7.766937515090844e-001	 1.497196115517191e+000	 7.134055327415294e+000
 7.605128577299093e-001	 1.505479859843489e+000	 6.925733214966471e+000
 7.442717336993275e-001	 1.513574909986478e+000	 6.720113214699365e+000
 7.279735824555976e-001	 1.521480816521845e+000	 6.520835216923440e+000
 7.116216045392393e-001	 1.529197200337471e+000	 6.331533437642897e+000
 6.952189961261736e-001	 1.536723752224209e+000	 6.155828866677957e+000
 6.787689471851715e-001	 1.544060232409364e+000	 5.997322285622372e+000
 6.622746396615893e-001	 1.551206470034202e+000	 5.859410125671430e+000
 8.281029437999159e-001	 1.477032779196395e+000	 7.762745541747506e+000
 8.120587959305302e-001	 1.485914164075329e+000	 7.567380017822730e+000
 7.959445366975607e-001	 1.494607889381393e+000	 7.364702727621152e+000
 7.797633778624412e-001	 1.503113290272153e+000	 7.158111971653169e+000
 7.635185344274886e-001	 1.511429773370625e+000	 6.951023503079692e+000
 7.472132227009128e-001	 1.519556816534136e+000	 6.746861655853349e+000
 7.308506583799279e-001	 1.527493968562179e+000	 6.549051058049043e+000
 7.144340546541391e-001	 1.535240848844330e+000	 6.361008936865173e+000
 6.979666203313018e-001	 1.542797146949404e+000	 6.186138015057997e+000
 6.814515579874914e-001	 1.550162622157092e+000	 6.027819992080989e+000
 6.648920621436569e-001	 1.557337102933408e+000	 5.889381451363494e+000
 8.313628642989047e-001	 1.482847285082444e+000	 7.786397688289100e+000
 8.152555568343562e-001	 1.491763632533159e+000	 7.590466154499539e+000
 7.990778620049666e-001	 1.500491581667931e+000	 7.388012853087332e+000
 7.828330042156325e-001	 1.509030465027107e+000	 7.182237359710809e+000
 7.665242111248921e-001	 1.517379686897813e+000	 6.976353896478958e+000
 7.501547117023151e-001	 1.525538723081911e+000	 6.773582838274669e+000
 7.337277343040722e-001	 1.533507120602698e+000	 6.577142823196906e+000
 7.172465047688535e-001	 1.541284497351443e+000	 6.390243472612690e+000
 7.007142445362485e-001	 1.548870541674919e+000	 6.216078719420732e+000
 6.841341687896364e-001	 1.556265011905203e+000	 6.057820736469717e+000
 6.675094846255589e-001	 1.563467735833050e+000	 5.918614450713550e+000
 8.346227847979756e-001	 1.488661790968246e+000	 7.810103455404326e+000
 8.184523177382415e-001	 1.497613100990774e+000	 7.613743914170201e+000
 8.022111873124143e-001	 1.506375273954299e+000	 7.411589391060848e+000
 7.859026305688525e-001	 1.514947639781945e+000	 7.206649442399479e+000
 7.695298878223130e-001	 1.523329600424948e+000	 7.001945625074884e+000
 7.530962007037274e-001	 1.531520629629700e+000	 6.800503363110006e+000
 7.366048102282213e-001	 1.539520272643303e+000	 6.605344437773693e+000
 7.200589548835696e-001	 1.547328145858710e+000	 6.419480105779072e+000
 7.034618687411962e-001	 1.554943936400656e+000	 6.245904843031357e+000
 6.868167795917815e-001	 1.562367401653596e+000	 6.087590704570469e+000
 6.701269071074611e-001	 1.569598368733029e+000	 5.947482284824264e+000
 8.378827052973118e-001	 1.494476296853683e+000	 7.834079483006038e+000
 8.216490786423749e-001	 1.503462569448061e+000	 7.637426318481189e+000
 8.053445126200955e-001	 1.512258966240389e+000	 7.435644202522297e+000
 7.889722569222933e-001	 1.520864814536564e+000	 7.231561249344706e+000
 7.725355645199455e-001	 1.529279513951928e+000	 7.028015085123599e+000
 7.560376897053434e-001	 1.537502536177403e+000	 6.827845056971577e+000
 7.394818861525677e-001	 1.545533424683890e+000	 6.633885085396529e+000
 7.228714049984761e-001	 1.553371794366031e+000	 6.448957163859787e+000
 7.062094929463262e-001	 1.561017331126513e+000	 6.275865501805059e+000
 6.894993903941017e-001	 1.568469791402172e+000	 6.117391300515695e+000
 6.727443295895290e-001	 1.575729001633244e+000	 5.976288144481220e+000
 8.411426257970979e-001	 1.500290802738638e+000	 7.858537100101096e+000
 8.248458395469445e-001	 1.509312037904910e+000	 7.661721258460396e+000
 8.084778379282012e-001	 1.518142658526092e+000	 7.460384164340508e+000
 7.920418832761492e-001	 1.526781989290855e+000	 7.257180940798408e+000
 7.755412412179843e-001	 1.535229427478648e+000	 7.054773888488139e+000
 7.589791787073572e-001	 1.543484442724917e+000	 6.855825019311732e+000
 7.423589620773023e-001	 1.551546576724361e+000	 6.662989254003534e+000
 7.256838551137602e-001	 1.559415442873306e+000	 6.478908286391097e+000
 7.089571171518222e-001	 1.567090725852390e+000	 6.306205109628526e+000
 6.921820011967720e-001	 1.574572181150829e+000	 6.147479192511221e+000
 6.753617520719286e-001	 1.581859634533595e+000	 6.005302287123962e+000
 8.444025462975162e-001	 1.506105308622997e+000	 7.883682388035831e+000
 8.280426004521371e-001	 1.515161506361207e+000	 7.686831553103326e+000
 8.116111632369227e-001	 1.524026350811300e+000	 7.486011223938360e+000
 7.951115096306137e-001	 1.532699164044716e+000	 7.283711859094019e+000
 7.785469179166235e-001	 1.541179341005006e+000	 7.082428911563555e+000
 7.619206677099617e-001	 1.549466349272139e+000	 6.884655669459233e+000
 7.452360380026164e-001	 1.557559728764613e+000	 6.692876781615877e+000
 7.284963052296100e-001	 1.565459091380433e+000	 6.509562470012986e+000
 7.117047413578653e-001	 1.573164120578188e+000	 6.337163423270647e+000
 6.948646119999676e-001	 1.580674570899469e+000	 6.178106358103768e+000
 6.779791745548262e-001	 1.587990267433982e+000	 6.034790228577714e+000
 8.476624667987510e-001	 1.511919814506641e+000	 7.909716243253651e+000
 8.312393613581415e-001	 1.521010974816841e+000	 7.712955007532192e+000
 8.147444885464512e-001	 1.529910043095903e+000	 7.512722453579895e+000
 7.981811359858797e-001	 1.538616338798039e+000	 7.311352579757168e+000
 7.815525946160575e-001	 1.547129254530897e+000	 7.111182343870401e+000
 7.648621567133508e-001	 1.555448255818969e+000	 6.914544793328797e+000
 7.481131139287017e-001	 1.563572880804544e+000	 6.723762901760350e+000
 7.313087553462125e-001	 1.571502739887311e+000	 6.541144113171900e+000
 7.144523655646381e-001	 1.579237515303805e+000	 6.368975586895338e+000
 6.975472228038638e-001	 1.586776960647991e+000	 6.209520129002772e+000
 6.805965970383868e-001	 1.594120900334306e+000	 6.065012788648192e+000
 6.544223722127310e-001	 1.532814571340203e+000	 5.761993794204553e+000
 6.380805764407583e-001	 1.539689008460209e+000	 5.627535051845603e+000
 6.217012944632482e-001	 1.546375267676036e+000	 5.482162272009570e+000
 6.052876383844025e-001	 1.552873382042270e+000	 5.329073661574028e+000
 5.888427054517341e-001	 1.559183450159039e+000	 5.171074794882579e+000
 5.723695764162470e-001	 1.565305635398965e+000	 5.010619732956478e+000
 5.558713139287028e-001	 1.571240165087963e+000	 4.849849876035800e+000
 5.393509609733571e-001	 1.576987329641599e+000	 4.690630465938852e+000
 5.228115393404681e-001	 1.582547481658774e+000	 4.534584681033268e+000
 5.062560481387889e-001	 1.587921034974506e+000	 4.383125291837979e+000
 4.896874623491745e-001	 1.593108463673670e+000	 4.237483869262392e+000
 6.570397946962922e-001	 1.538945204237500e+000	 5.796023650156529e+000
 6.406326384087309e-001	 1.545847136301012e+000	 5.661612741944382e+000
 6.241878459861200e-001	 1.552560137825569e+000	 5.515813552648807e+000
 6.077085419798072e-001	 1.559084241997953e+000	 5.361930051753331e+000
 5.911978360250292e-001	 1.565419547812639e+000	 5.202874590757810e+000
 5.746588211945348e-001	 1.571566219295666e+000	 5.041209457676451e+000
 5.580945723884372e-001	 1.577524484682149e+000	 4.879186080036797e+000
 5.415081447616859e-001	 1.583294635549190e+000	 4.718781793545659e+000
 5.249025721904647e-001	 1.588877025905929e+000	 4.561734120561246e+000
 5.082808657787364e-001	 1.594272071242548e+000	 4.409572528367464e+000
 4.916460124060640e-001	 1.599480247540058e+000	 4.263647661835295e+000
 6.596572171791894e-001	 1.545075837135533e+000	 5.828392757267664e+000
 6.431847003760837e-001	 1.552005264142596e+000	 5.693850129746038e+000
 6.266743975084234e-001	 1.558745007975918e+000	 5.547532153602839e+000
 6.101294455746984e-001	 1.565295101954474e+000	 5.392835496246573e+000
 5.935529665978694e-001	 1.571655645467095e+000	 5.232766252843607e+000
 5.769480659724273e-001	 1.577826803193227e+000	 5.069981967226829e+000
 5.603178308478363e-001	 1.583808804277191e+000	 4.906831213998299e+000
 5.436653285497375e-001	 1.589601941457622e+000	 4.745390659668341e+000
 5.269936050402385e-001	 1.595206570153903e+000	 4.587499548319336e+000
 5.103056834185109e-001	 1.600623107511378e+000	 4.434791583809895e+000
 4.936045624628233e-001	 1.605852031407194e+000	 4.288724205707900e+000
 6.622746396615893e-001	 1.551206470034202e+000	 5.859410125671430e+000
 6.457367623429725e-001	 1.558163391984861e+000	 5.724561115368466e+000
 6.291609490303003e-001	 1.564929878126983e+000	 5.577634043559880e+000
 6.125503491692053e-001	 1.571505961911738e+000	 5.422105313970566e+000
 5.959080971703684e-001	 1.577891743122306e+000	 5.261061842569402e+000
 5.792373107500242e-001	 1.584087387091551e+000	 5.097243575959028e+000
 5.625410893069842e-001	 1.590093123872994e+000	 4.933083481130929e+000
 5.458225123375806e-001	 1.595909247366803e+000	 4.770744925094928e+000
 5.290846378898453e-001	 1.601536114402606e+000	 4.612156391252352e+000
 5.123305010581554e-001	 1.606974143780907e+000	 4.459043506561484e+000
 4.955631125194850e-001	 1.612223815274991e+000	 4.312958379343614e+000
 6.648920621436569e-001	 1.557337102933408e+000	 5.889381451363496e+000
 6.482888243095516e-001	 1.564321519827707e+000	 5.754056460496663e+000
 6.316475005518932e-001	 1.571114748278663e+000	 5.606432253374125e+000
 6.149712527634552e-001	 1.577716821869641e+000	 5.450052108546723e+000
 5.982632277426402e-001	 1.584127840778174e+000	 5.288070947690339e+000
 5.815265555274233e-001	 1.590347970990540e+000	 5.123298382486552e+000
 5.647643477659645e-001	 1.596377443469459e+000	 4.958239140478280e+000
 5.479796961252855e-001	 1.602216553276638e+000	 4.795130789075129e+000
 5.311756707393405e-001	 1.607865658651945e+000	 4.635978705968175e+000
 5.143553186977136e-001	 1.613325180051048e+000	 4.482588272070277e+000
 4.975216625760818e-001	 1.618595599143369e+000	 4.336594289543884e+000
 6.675094846255589e-001	 1.563467735833050e+000	 5.918614450713550e+000
 6.508408862759760e-001	 1.570479647671034e+000	 5.782643739379976e+000
 6.341340520733438e-001	 1.577299618430859e+000	 5.634236833698471e+000
 6.173921563575771e-001	 1.583927681828087e+000	 5.476985731688350e+000
 6.006183583147983e-001	 1.590363938434600e+000	 5.314100650580079e+000
 5.838158003047237e-001	 1.596608554890094e+000	 5.148448242071294e+000
 5.669876062248608e-001	 1.602661763066491e+000	 4.982592482633699e+000
 5.501368799129207e-001	 1.608523859187033e+000	 4.818832767639397e+000
 5.332667035887800e-001	 1.614195202901830e+000	 4.659239158972454e+000
 5.163801363372280e-001	 1.619676216321714e+000	 4.505684764345608e+000
 4.994802126326459e-001	 1.624967383012244e+000	 4.359875253635507e+000
 6.701269071074611e-001	 1.569598368733029e+000	 5.947482284824264e+000
 6.533929482424004e-001	 1.576637775514741e+000	 5.810627289208007e+000
 6.366206035947943e-001	 1.583484488583470e+000	 5.661354811962994e+000
 6.198130599516989e-001	 1.590138541786973e+000	 5.503213245906134e+000
 6.029734888869563e-001	 1.596600036091486e+000	 5.339455495833388e+000
 5.861050450820241e-001	 1.602869138790117e+000	 5.172992738331296e+000
 5.692108646837572e-001	 1.608946082663995e+000	 5.006435804795344e+000
 5.522940637005561e-001	 1.614831165097894e+000	 4.842133671288051e+000
 5.353577364382198e-001	 1.620524747152170e+000	 4.682209006323710e+000
 5.184049539767426e-001	 1.626027252592817e+000	 4.528590756945278e+000
 5.014387626892101e-001	 1.631339166881533e+000	 4.383043781203076e+000
 6.727443295895290e-001	 1.575729001633244e+000	 5.976288144481218e+000
 6.559450102089794e-001	 1.582795903358730e+000	 5.838308159887482e+000
 6.391071551163871e-001	 1.589669358736397e+000	 5.688090148709691e+000
 6.222339635459488e-001	 1.596349401746202e+000	 5.529038886551474e+000
 6.053286194592281e-001	 1.602836133748733e+000	 5.364437457199443e+000
 5.883942898594234e-001	 1.609129722690513e+000	 5.197229154284366e+000
 5.714341231427375e-001	 1.615230402261874e+000	 5.030059385182416e+000
 5.544512474882609e-001	 1.621138471009127e+000	 4.865314582077171e+000
 5.374487692877151e-001	 1.626854291402873e+000	 4.705158072725245e+000
 5.204297716163004e-001	 1.632378288864270e+000	 4.551562893456213e+000
 5.033973127458067e-001	 1.637710950751154e+000	 4.406341555378650e+000
 6.753617520719286e-001	 1.581859634533595e+000	 6.005302287123962e+000
 6.584970721758683e-001	 1.588954031202899e+000	 5.865984063234114e+000
 6.415937066382641e-001	 1.595854228889541e+000	 5.714743693306936e+000
 6.246548671404557e-001	 1.602560261705675e+000	 5.554764023215268e+000
 6.076837500317269e-001	 1.609072231406239e+000	 5.389345903863068e+000
 5.906835346370200e-001	 1.615390306591181e+000	 5.221452442747702e+000
 5.736573816018853e-001	 1.621514721860030e+000	 5.053751456822860e+000
 5.566084312761043e-001	 1.627445776920638e+000	 4.888654830108928e+000
 5.395398021373217e-001	 1.633183835653848e+000	 4.728354730067323e+000
 5.224545892559448e-001	 1.638729325135984e+000	 4.574856667477498e+000
 5.053558628024685e-001	 1.644082734621023e+000	 4.430009413698002e+000
 6.779791745548262e-001	 1.587990267433982e+000	 6.034790228577712e+000
 6.610491341432212e-001	 1.595112159047149e+000	 5.893949321596153e+000
 6.440802581605674e-001	 1.602039099042800e+000	 5.741613139057061e+000
 6.270757707353472e-001	 1.608771121665290e+000	 5.580687120497228e+000
 6.100388806045674e-001	 1.615308329063911e+000	 5.414477566091334e+000
 5.929727794149129e-001	 1.621650890492024e+000	 5.245955196109756e+000
 5.758806400612844e-001	 1.627799041458369e+000	 5.077798180737194e+000
 5.587656150641557e-001	 1.633753082832332e+000	 4.912431969446839e+000
 5.416308349870956e-001	 1.639513379905004e+000	 4.752065875437618e+000
 5.244794068957194e-001	 1.645080361407874e+000	 4.598726402126471e+000
 5.073144128592277e-001	 1.650454518491057e+000	 4.454287328539703e+000
 6.805965970383868e-001	 1.594120900334306e+000	 6.065012788648198e+000
 6.636011961111934e-001	 1.601270286891380e+000	 5.922494815923070e+000
 6.465668096834394e-001	 1.608223969196076e+000	 5.768992977713386e+000
 6.294966743307516e-001	 1.614981981624948e+000	 5.607103698166543e+000
 6.123940111778622e-001	 1.621544426721644e+000	 5.440126500263007e+000
 5.952620241932003e-001	 1.627911474392944e+000	 5.271027615490608e+000
 5.781038985210186e-001	 1.634083361056792e+000	 5.102483618528876e+000
 5.609227988524843e-001	 1.640060388744116e+000	 4.936921753471741e+000
 5.437218678370922e-001	 1.645842924156250e+000	 4.776556908611934e+000
 5.265042245356669e-001	 1.651431397679850e+000	 4.623425229072976e+000
 5.092729629161171e-001	 1.656826302361175e+000	 4.479414387154674e+000
 4.896874623491745e-001	 1.593108463673670e+000	 4.237483869262392e+000
 4.731087311836948e-001	 1.598110300669677e+000	 4.101763295018617e+000
 4.565227760385447e-001	 1.602927135455114e+000	 3.978636653848868e+000
 4.399324899287324e-001	 1.607559614209450e+000	 3.866992327188586e+000
 4.233407364581182e-001	 1.612008439076500e+000	 3.765631034690502e+000
 4.067503485921295e-001	 1.616274367013764e+000	 3.673285911218308e+000
 3.901641274764115e-001	 1.620358208614037e+000	 3.588640454571037e+000
 3.735848413019252e-001	 1.624260826901171e+000	 3.510344456360887e+000
 3.570152242169341e-001	 1.627983136101961e+000	 3.437028039261152e+000
 3.404579752862288e-001	 1.631526100396023e+000	 3.367313932801185e+000
 3.239157574978582e-001	 1.634890732645615e+000	 3.299828127053871e+000
 4.916460124060640e-001	 1.599480247540058e+000	 4.263647661835295e+000
 4.750009730801597e-001	 1.604502089843302e+000	 4.128056450696289e+000
 4.583486808816097e-001	 1.609338190002596e+000	 4.005341399723760e+000
 4.416920403962998e-001	 1.613989196781871e+000	 3.894326765375383e+000
 4.250339266813351e-001	 1.618455815133233e+000	 3.793751834402489e+000
 4.083771840328469e-001	 1.622738805041712e+000	 3.702291005486711e+000
 3.917246247999181e-001	 1.626838980342146e+000	 3.618571679734093e+000
 3.750790282451423e-001	 1.630757207510138e+000	 3.541190077413823e+000
 3.584431394522583e-001	 1.634494404429018e+000	 3.468725109336544e+000
 3.418196682812127e-001	 1.638051539134735e+000	 3.399750440413609e+000
 3.252112883709185e-001	 1.641429628540587e+000	 3.332844890212817e+000
 4.936045624628233e-001	 1.605852031407194e+000	 4.288724205707900e+000
 4.768932149765300e-001	 1.610893879017622e+000	 4.153371902019612e+000
 4.601745857246076e-001	 1.615749244550718e+000	 4.031141906815679e+000
 4.434515908638193e-001	 1.620418779354871e+000	 3.920800137112549e+000
 4.267271169045154e-001	 1.624903191190487e+000	 3.821030510441267e+000
 4.100040194735311e-001	 1.629203243070121e+000	 3.730455010169913e+000
 3.932851221233866e-001	 1.633319752070662e+000	 3.647651496489001e+000
 3.765732151883082e-001	 1.637253588119463e+000	 3.571169385544376e+000
 3.598710546875104e-001	 1.641005672756396e+000	 3.499543330471657e+000
 3.431813612760959e-001	 1.644576977873742e+000	 3.431305047374724e+000
 3.265068192438411e-001	 1.647968524435843e+000	 3.364993436710254e+000
 4.955631125194850e-001	 1.612223815274991e+000	 4.312958379343614e+000
 4.787854568728292e-001	 1.617285668192561e+000	 4.177937991590382e+000
 4.620004905675545e-001	 1.622160299099407e+000	 4.056250906164125e+000
 4.452111413313025e-001	 1.626848361928386e+000	 3.946610445455939e+000
 4.284203071276679e-001	 1.631350567248200e+000	 3.847651185950907e+000
 4.116308549141898e-001	 1.635667681098937e+000	 3.757948986083195e+000
 3.948456194468263e-001	 1.639800523799534e+000	 3.676038695189608e+000
 3.780674021314359e-001	 1.643749968729099e+000	 3.600429671329276e+000
 3.612989699227087e-001	 1.647516941084049e+000	 3.529619247210058e+000
 3.445430542709035e-001	 1.651102416612997e+000	 3.462104292954367e+000
 3.278023501166604e-001	 1.654507420331330e+000	 3.396391031955642e+000
 4.975216625760818e-001	 1.618595599143369e+000	 4.336594289543884e+000
 4.806776987690811e-001	 1.623677457368042e+000	 4.201982573410827e+000
 4.638263954104682e-001	 1.628571353648595e+000	 4.080880885247471e+000
 4.469706917987620e-001	 1.633277944502351e+000	 3.971955658257357e+000
 4.301134973508022e-001	 1.637797943306314e+000	 3.873798121990950e+000
 4.132576903548320e-001	 1.642132119128106e+000	 3.784944271363774e+000
 3.964061167702470e-001	 1.646281295528714e+000	 3.703892450829302e+000
 3.795615890745382e-001	 1.650246349339002e+000	 3.629118686907269e+000
 3.627268851578711e-001	 1.654028209411931e+000	 3.559089913965314e+000
 3.459047472656608e-001	 1.657627855352454e+000	 3.492275247829797e+000
 3.290978809894109e-001	 1.661046316227001e+000	 3.427155469441046e+000
 4.994802126326459e-001	 1.624967383012244e+000	 4.359875253635507e+000
 4.825699406653091e-001	 1.630069246543986e+000	 4.225732995587259e+000
 4.656523002533649e-001	 1.634982408198208e+000	 4.105244071433227e+000
 4.487302422662093e-001	 1.639707527076702e+000	 3.997033692572402e+000
 4.318066875739272e-001	 1.644245319364772e+000	 3.899655703086921e+000
 4.148845257954658e-001	 1.648596557157575e+000	 3.811612468339987e+000
 3.979666140936579e-001	 1.652762067258152e+000	 3.731372311379286e+000
 3.810557760176275e-001	 1.656742729949124e+000	 3.657384635927324e+000
 3.641548003930153e-001	 1.660539477739997e+000	 3.588092886694363e+000
 3.472664402603927e-001	 1.664153294092064e+000	 3.521945507584275e+000
 3.303934118621270e-001	 1.667585212122803e+000	 3.457405066154061e+000
 5.014387626892101e-001	 1.631339166881533e+000	 4.383043781203076e+000
 4.844621825615373e-001	 1.636461035720317e+000	 4.249416082644503e+000
 4.674782050962617e-001	 1.641393462748176e+000	 4.129552415093778e+000
 4.504897927336566e-001	 1.646137109651372e+000	 4.022042398778497e+000
 4.334998777970523e-001	 1.650692695423513e+000	 3.925408422534161e+000
 4.165113612360994e-001	 1.655060995187289e+000	 3.838125430185920e+000
 3.995271114170690e-001	 1.659242838987799e+000	 3.758638185938223e+000
 3.825499629607168e-001	 1.663239110559418e+000	 3.685376163319758e+000
 3.655827156281598e-001	 1.667050746068203e+000	 3.616766214401705e+000
 3.486281332551247e-001	 1.670678732831783e+000	 3.551243186042383e+000
 3.316889427348432e-001	 1.674124108018686e+000	 3.487258657819295e+000
 5.033973127458067e-001	 1.637710950751154e+000	 4.406341555378650e+000
 4.863544244577892e-001	 1.642852824896956e+000	 4.273258117460528e+000
 4.693041099391750e-001	 1.647804517298428e+000	 4.154017572398178e+000
 4.522493432011158e-001	 1.652566692226297e+000	 4.047179544414504e+000
 4.351930680201865e-001	 1.657140071482478e+000	 3.951240867461937e+000
 4.181381966767416e-001	 1.661525433217197e+000	 3.864655247360714e+000
 4.010876087404895e-001	 1.665723610717605e+000	 3.785850332689393e+000
 3.840441499038189e-001	 1.669735491169838e+000	 3.713242344891477e+000
 3.670106308633221e-001	 1.673562014396501e+000	 3.645248430479743e+000
 3.499898262498818e-001	 1.677204171571562e+000	 3.580296908442313e+000
 3.329844736075938e-001	 1.680663003914599e+000	 3.516835593974941e+000
 5.053558628024685e-001	 1.644082734621023e+000	 4.430009413698002e+000
 4.882466663540884e-001	 1.649244614073828e+000	 4.297484822833349e+000
 4.711300147821223e-001	 1.654215571848892e+000	 4.178850887790022e+000
 4.540088936685993e-001	 1.658996274801413e+000	 4.072642797754565e+000
 4.368862582433391e-001	 1.663587447541609e+000	 3.977337703663773e+000
 4.197650321174003e-001	 1.667989871247243e+000	 3.891374233847861e+000
 4.026481060639292e-001	 1.672204382447522e+000	 3.813169346676435e+000
 3.855383368469467e-001	 1.676231871780339e+000	 3.741132676753407e+000
 3.684385460985205e-001	 1.680073282724848e+000	 3.673678543886235e+000
 3.513515192446895e-001	 1.683729610311356e+000	 3.609235804443981e+000
 3.342800044804131e-001	 1.687201899810492e+000	 3.546255732886176e+000
 5.073144128592277e-001	 1.650454518491057e+000	 4.454287328539703e+000
 4.901389082504586e-001	 1.655636403250854e+000	 4.322321342688246e+000
 4.729559196251201e-001	 1.660626626399497e+000	 4.204263376156935e+000
 4.557684441361187e-001	 1.665425857376654e+000	 4.098629711112918e+000
 4.385794484665194e-001	 1.670034823600846e+000	 4.003883660198247e+000
 4.213918675580844e-001	 1.674454309277374e+000	 3.918454913191033e+000
 4.042086033873978e-001	 1.678685154177500e+000	 3.840756147398166e+000
 3.870325237901126e-001	 1.682728252390872e+000	 3.769197064584477e+000
 3.698664613337727e-001	 1.686584551053196e+000	 3.702196030166010e+000
 3.527132122395726e-001	 1.690255049051117e+000	 3.638189500991308e+000
 3.355755353533356e-001	 1.693740795706313e+000	 3.575639436303840e+000
 5.092729629161171e-001	 1.656826302361175e+000	 4.479414387154674e+000
 4.920311501469236e-001	 1.662028192427957e+000	 4.347992222937381e+000
 4.747818244681851e-001	 1.667037680950171e+000	 4.230465704702466e+000
 4.575279946036860e-001	 1.671855439951955e+000	 4.125337703897033e+000
 4.402726386897362e-001	 1.676482199660132e+000	 4.031063513771199e+000
 4.230187029988017e-001	 1.680918747307537e+000	 3.946070004337003e+000
 4.057691007109044e-001	 1.685165925907489e+000	 3.868771966231855e+000
 3.885267107333296e-001	 1.689224633001393e+000	 3.797585812731909e+000
 3.712943765690968e-001	 1.693095819381501e+000	 3.730940822320640e+000
 3.540749052345564e-001	 1.696780487790798e+000	 3.667288115017342e+000
 3.368710662263960e-001	 1.700279691602014e+000	 3.605107564066196e+000
 3.239157574978582e-001	 1.634890732645615e+000	 3.299828127053871e+000
 3.073936732910061e-001	 1.638077628498721e+000	 3.234528234731572e+000
 2.908918240118034e-001	 1.641088412976345e+000	 3.172392497242815e+000
 2.744127541062840e-001	 1.643924238039060e+000	 3.113633895933895e+000
 2.579589685574620e-001	 1.646586299037103e+000	 3.058491637497876e+000
 2.415329321319333e-001	 1.649075833369447e+000	 3.007233468446007e+000
 2.251370686738320e-001	 1.651394119133861e+000	 2.960157335692755e+000
 2.087737604459027e-001	 1.653542473769713e+000	 2.917592539372829e+000
 1.924453475173707e-001	 1.655522252695209e+000	 2.879900518852839e+000
 1.761541271982328e-001	 1.657334847940780e+000	 2.847475406693556e+000
 1.599023535195375e-001	 1.658981686780223e+000	 2.820744478157550e+000
 3.252112883709185e-001	 1.641429628540587e+000	 3.332844890212817e+000
 3.086231225682338e-001	 1.644629270676910e+000	 3.268021065144253e+000
 2.920552726246377e-001	 1.647652097064122e+000	 3.206350215976806e+000
 2.755102931629164e-001	 1.650499264270161e+000	 3.148056225473062e+000
 2.589906991850010e-001	 1.653171972426168e+000	 3.093388864796263e+000
 2.424989653155539e-001	 1.655671463880202e+000	 3.042625652464396e+000
 2.260375250931032e-001	 1.657999021841892e+000	 2.996073055130427e+000
 2.096087703084788e-001	 1.660155969019819e+000	 2.954067181415263e+000
 1.932150503902341e-001	 1.662143666253301e+000	 2.916974114663413e+000
 1.768586718366746e-001	 1.663963511140317e+000	 2.885190024029877e+000
 1.605418976940590e-001	 1.665616936663167e+000	 2.859141185876645e+000
 3.265068192438411e-001	 1.647968524435843e+000	 3.364993436710254e+000
 3.098525718452795e-001	 1.651180912855387e+000	 3.300681035332040e+000
 2.932187212372420e-001	 1.654215781152202e+000	 3.239529252699903e+000
 2.766078322192715e-001	 1.657074290501588e+000	 3.181768575588169e+000
 2.600224298122194e-001	 1.659757645815585e+000	 3.127655111897281e+000
 2.434649984988196e-001	 1.662267094391330e+000	 3.077471984884311e+000
 2.269379815119977e-001	 1.664603924550310e+000	 3.031530064602479e+000
 2.104437801706726e-001	 1.666769464270312e+000	 2.990168193016733e+000
 1.939847532627300e-001	 1.668765079811762e+000	 2.953753053677909e+000
 1.775632164747878e-001	 1.670592174340182e+000	 2.922678830129281e+000
 1.611814418683190e-001	 1.672252186546373e+000	 2.897366789517448e+000
 3.278023501166604e-001	 1.654507420331330e+000	 3.396391031955642e+000
 3.110820211221888e-001	 1.657732555034092e+000	 3.332616216846214e+000
 2.943821698496740e-001	 1.660779465240521e+000	 3.272028009999241e+000
 2.777053712754186e-001	 1.663649316733266e+000	 3.214859347971886e+000
 2.610541604391976e-001	 1.666343319205270e+000	 3.161368592503195e+000
 2.444310316818189e-001	 1.668862724902740e+000	 3.111840450333386e+000
 2.278384379306092e-001	 1.671208827259018e+000	 3.066586225291364e+000
 2.112787900325794e-001	 1.673382959521094e+000	 3.025943564483441e+000
 1.947544561349502e-001	 1.675386493370500e+000	 2.990275854591898e+000
 1.782677611126548e-001	 1.677220837540294e+000	 2.959971417336720e+000
 1.618209860423831e-001	 1.678887436429775e+000	 2.935442645176330e+000
 3.290978809894109e-001	 1.661046316227001e+000	 3.427155469441046e+000
 3.123114703990073e-001	 1.664284197212973e+000	 3.363935193292640e+000
 2.955456184619911e-001	 1.667343149329012e+000	 3.303945384472723e+000
 2.788029103314271e-001	 1.670224342965123e+000	 3.247417418075044e+000
 2.620858910660155e-001	 1.672928992595140e+000	 3.194607971466196e+000
 2.453970648646408e-001	 1.675458355414341e+000	 3.145799459523759e+000
 2.287388943490323e-001	 1.677813729967921e+000	 3.101299796879188e+000
 2.121137998942950e-001	 1.679996454772071e+000	 3.061441654490737e+000
 1.955241590069866e-001	 1.682007906929424e+000	 3.026581371799924e+000
 1.789723057503575e-001	 1.683849500740571e+000	 2.997097678521743e+000
 1.624605302163164e-001	 1.685522686313308e+000	 2.973390371847215e+000
 3.303934118621270e-001	 1.667585212122803e+000	 3.457405066154061e+000
 3.135409196757802e-001	 1.670835839391968e+000	 3.394747057524423e+000
 2.967090670742507e-001	 1.673906833417610e+000	 3.335380765388807e+000
 2.799004493873660e-001	 1.676799369197082e+000	 3.279532134943525e+000
 2.631176216927533e-001	 1.679514665985110e+000	 3.227452365543465e+000
 2.463630980473739e-001	 1.682053985926043e+000	 3.179417850695228e+000
 2.296393507673612e-001	 1.684418632676925e+000	 3.135729439480971e+000
 2.129488097559151e-001	 1.686609950023146e+000	 3.096711192339295e+000
 1.962938618789311e-001	 1.688629320488438e+000	 3.062708797836790e+000
 1.796768503879780e-001	 1.690478163940929e+000	 3.034087809591684e+000
 1.631000743901845e-001	 1.692157936196906e+000	 3.011231853930307e+000
 3.316889427348432e-001	 1.674124108018686e+000	 3.487258657819295e+000
 3.147703689525531e-001	 1.677387481571024e+000	 3.425161408659572e+000
 2.978725156865105e-001	 1.680470517506249e+000	 3.366434033164766e+000
 2.809979884433051e-001	 1.683374395429068e+000	 3.311293320877477e+000
 2.641493523194912e-001	 1.686100339375096e+000	 3.259981343981940e+000
 2.473291312301070e-001	 1.688649616437755e+000	 3.212764890901690e+000
 2.305398071856901e-001	 1.691023535385935e+000	 3.169934215433301e+000
 2.137838196175352e-001	 1.693223445274223e+000	 3.131801280075973e+000
 1.970635647508757e-001	 1.695250734047455e+000	 3.098697665694292e+000
 1.803813950255986e-001	 1.697106827141288e+000	 3.070972311895414e+000
 1.637396185640525e-001	 1.698793186080504e+000	 3.048989243642458e+000
 3.329844736075938e-001	 1.680663003914599e+000	 3.516835593974941e+000
 3.159998182293716e-001	 1.683939123750080e+000	 3.455288348932071e+000
 2.990359642988275e-001	 1.687034201594863e+000	 3.397205557683403e+000
 2.820955274993135e-001	 1.689949421661007e+000	 3.342791270929554e+000
 2.651810829463090e-001	 1.692686012765018e+000	 3.292274928946239e+000
 2.482951644129290e-001	 1.695245246949386e+000	 3.245910277143176e+000
 2.314402636041132e-001	 1.697628438094853e+000	 3.203973590938133e+000
 2.146188294792508e-001	 1.699836940525207e+000	 3.166761394486898e+000
 1.978332676229121e-001	 1.701872147606379e+000	 3.134587851017941e+000
 1.810859396633013e-001	 1.703735490341565e+000	 3.107781994520261e+000
 1.643791627379858e-001	 1.705428435964037e+000	 3.086684963331670e+000
 3.342800044804131e-001	 1.687201899810492e+000	 3.546255732886176e+000
 3.172292675062811e-001	 1.690490765929081e+000	 3.485238480372599e+000
 3.001994129112596e-001	 1.693597885683388e+000	 3.427796196438897e+000
 2.831930665554606e-001	 1.696524447892823e+000	 3.374116752237314e+000
 2.662128135732872e-001	 1.699271686154789e+000	 3.324413595789341e+000
 2.492611975959284e-001	 1.701840877460847e+000	 3.278924137352805e+000
 2.323407200227248e-001	 1.704233340803587e+000	 3.237907437572900e+000
 2.154538393411576e-001	 1.706450435776000e+000	 3.201641388958420e+000
 1.986029704951323e-001	 1.708493561165121e+000	 3.170419574192239e+000
 1.817904843011682e-001	 1.710364153541677e+000	 3.144547976486316e+000
 1.650187069120498e-001	 1.712063685847439e+000	 3.124341707700860e+000
 3.355755353533356e-001	 1.693740795706313e+000	 3.575639436303840e+000
 3.184587167833267e-001	 1.697042408107969e+000	 3.515122901332325e+000
 3.013628615238639e-001	 1.700161569771757e+000	 3.458307292522754e+000
 2.842906056118157e-001	 1.703099474124443e+000	 3.405361003201027e+000
 2.672445442005057e-001	 1.705857359544326e+000	 3.356478273172404e+000
 2.502272307791939e-001	 1.708436507972044e+000	 3.311877031239731e+000
 2.332411764416191e-001	 1.710838243512040e+000	 3.271796033660765e+000
 2.162888492033513e-001	 1.713063931026508e+000	 3.236491495219593e+000
 1.993726733676282e-001	 1.715114974723586e+000	 3.206233402309704e+000
 1.824950289392815e-001	 1.716992816741543e+000	 3.181301688837504e+000
 1.656582510863099e-001	 1.718698935730644e+000	 3.161982445941264e+000
 3.368710662263960e-001	 1.700279691602014e+000	 3.605107564066196e+000
 3.196881660605543e-001	 1.703594050286686e+000	 3.545053202849819e+000
 3.025263101366981e-001	 1.706725253859904e+000	 3.488840672454999e+000
 2.853881446684482e-001	 1.709674500355790e+000	 3.436615732505453e+000
 2.682762748280446e-001	 1.712443032933547e+000	 3.388550343034284e+000
 2.511932639628146e-001	 1.715032138482888e+000	 3.344839950989062e+000
 2.341416328608904e-001	 1.717443146220116e+000	 3.305700065514887e+000
 2.171238590659275e-001	 1.719677426276633e+000	 3.271362324959676e+000
 2.001423762404916e-001	 1.721736388281684e+000	 3.242070251032485e+000
 1.831995735777232e-001	 1.723621479941080e+000	 3.218074876634939e+000
 1.662977952608313e-001	 1.725334185613589e+000	 3.199630423776360e+000
 1.599023535195375e-001	 1.658981686780223e+000	 2.820744478157550e+000
 1.436898138727403e-001	 1.660464440569369e+000	 2.799241636275544e+000
 1.275211442140091e-001	 1.661784344475902e+000	 2.781696297386277e+000
 1.113984995945325e-001	 1.662942924358685e+000	 2.767381358455270e+000
 9.532398912352270e-002	 1.663941735890127e+000	 2.755622854747915e+000
 7.929967567523567e-002	 1.664782363185058e+000	 2.745803471329685e+000
 6.332757563927832e-002	 1.665466417436829e+000	 2.737366433046892e+000
 4.740965871336957e-002	 1.665995535562018e+000	 2.729819833071389e+000
 3.154784773768926e-002	 1.666371378854980e+000	 2.722741449750399e+000
 1.574401856991394e-002	 1.666595631653491e+000	 2.715784091193362e+000
 0.000000000000000e+000	 1.666670000016666e+000	 2.708681498463445e+000
 1.605418976940590e-001	 1.665616936663167e+000	 2.859141185876645e+000
 1.442645145034967e-001	 1.667105620862422e+000	 2.838319129960471e+000
 1.280311767630719e-001	 1.668430803845940e+000	 2.821414426174915e+000
 1.118440481432776e-001	 1.669594017575405e+000	 2.807699088383437e+000
 9.570524618888120e-002	 1.670596823945298e+000	 2.796494043062474e+000
 7.961684202477348e-002	 1.671440813406267e+000	 2.787172328548261e+000
 6.358086010527686e-002	 1.672127603595793e+000	 2.779162707067937e+000
 4.759927800607747e-002	 1.672658837977463e+000	 2.771953751753532e+000
 3.167402625791174e-002	 1.673036184490139e+000	 2.765098460126256e+000
 1.580698822110221e-002	 1.673261334208274e+000	 2.758219434897947e+000
 0.000000000000000e+000	 1.673336000014533e+000	 2.751014664376983e+000
 1.611814418683190e-001	 1.672252186546373e+000	 2.897366789517448e+000
 1.448392151340877e-001	 1.673746801155640e+000	 2.877265414650621e+000
 1.285412093120838e-001	 1.675077263216021e+000	 2.861029737171291e+000
 1.122895966920915e-001	 1.676245110792036e+000	 2.847932815719141e+000
 9.608650325442086e-002	 1.677251912000235e+000	 2.837292304675616e+000
 7.993400837458460e-002	 1.678099263627101e+000	 2.828473325689884e+000
 6.383414457160815e-002	 1.678788789754250e+000	 2.820891787260565e+000
 4.778889729913253e-002	 1.679322140392283e+000	 2.814018216731264e+000
 3.180020477843861e-002	 1.679700990124582e+000	 2.807382158001764e+000
 1.586995787248308e-002	 1.679927036762280e+000	 2.800577177240100e+000
 0.000000000000000e+000	 1.680002000011600e+000	 2.793266510348202e+000
 1.618209860423831e-001	 1.678887436429775e+000	 2.935442645176329e+000
 1.454139157645546e-001	 1.680387981448981e+000	 2.916094599535212e+000
 1.290512418610575e-001	 1.681723722586136e+000	 2.900550333206879e+000
 1.127351452409571e-001	 1.682896204008598e+000	 2.888085944227977e+000
 9.646776032009645e-002	 1.683907000054997e+000	 2.878017716178957e+000
 8.025117472460075e-002	 1.684757713847654e+000	 2.869704646204340e+000
 6.408742903818900e-002	 1.685449975912325e+000	 2.862551457326682e+000
 4.797851659244794e-002	 1.685985442806634e+000	 2.856012161649564e+000
 3.192638329919379e-002	 1.686365795758486e+000	 2.849594229604329e+000
 1.593292752400839e-002	 1.686592739315701e+000	 2.842863409021390e+000
 0.000000000000000e+000	 1.686668000008066e+000	 2.835449229269955e+000
 1.624605302163164e-001	 1.685522686313308e+000	 2.973390371847215e+000
 1.459886163949389e-001	 1.687029161742404e+000	 2.954821014218694e+000
 1.295612744100057e-001	 1.688370181956273e+000	 2.939984488573516e+000
 1.131806937898572e-001	 1.689547297225114e+000	 2.928161994935810e+000
 9.684901738586264e-002	 1.690562088109642e+000	 2.918670413212513e+000
 8.056834107475359e-002	 1.691416164068020e+000	 2.910864471580740e+000
 6.434071350493623e-002	 1.692111162070146e+000	 2.904139436405967e+000
 4.816813588593695e-002	 1.692648745220673e+000	 2.897934392574660e+000
 3.205256182010117e-002	 1.693030601392032e+000	 2.891736171314045e+000
 1.599589717563000e-002	 1.693258441868734e+000	 2.885083970809616e+000
 0.000000000000000e+000	 1.693334000004133e+000	 2.877574706393143e+000
 1.631000743901845e-001	 1.692157936196906e+000	 3.011231853930307e+000
 1.465633170252818e-001	 1.693670342035869e+000	 2.993459211220487e+000
 1.300713069589412e-001	 1.695016641326421e+000	 2.979340651576109e+000
 1.136262423387744e-001	 1.696198390441608e+000	 2.968164608808546e+000
 9.723027445167415e-002	 1.697217176164229e+000	 2.959250593342385e+000
 8.088550742497476e-002	 1.698074614288291e+000	 2.951950984506502e+000
 6.459399797176668e-002	 1.698772348227841e+000	 2.945653382601320e+000
 4.835775517951275e-002	 1.699312047634556e+000	 2.939783591986076e+000
 3.217874034108466e-002	 1.699695407025399e+000	 2.933809294225594e+000
 1.605886682729975e-002	 1.699924144421573e+000	 2.927244458175045e+000
 0.000000000000000e+000	 1.700000000000000e+000	 2.919654525357770e+000
 1.637396185640525e-001	 1.698793186080504e+000	 3.048989243642458e+000
 1.471380176556247e-001	 1.700311522329333e+000	 3.032023968391644e+000
 1.305813395078766e-001	 1.701663100696570e+000	 3.018627447008187e+000
 1.140717908876917e-001	 1.702849483658101e+000	 3.008097549351716e+000
 9.761153151748563e-002	 1.703872264218816e+000	 2.999758518860995e+000
 8.120267377519592e-002	 1.704733064508563e+000	 2.992962371945746e+000
 6.484728243859711e-002	 1.705433534385534e+000	 2.987090896422128e+000
 4.854737447308854e-002	 1.705975350048439e+000	 2.981558322677851e+000
 3.230491886206814e-002	 1.706360212658766e+000	 2.975814728602229e+000
 1.612183647896950e-002	 1.706589846974412e+000	 2.969350226808017e+000
 0.000000000000000e+000	 1.706665999995867e+000	 2.961699974083581e+000
 1.643791627379858e-001	 1.705428435964037e+000	 3.086684963331670e+000
 1.477127182860090e-001	 1.706952702622757e+000	 3.070530291240551e+000
 1.310913720568248e-001	 1.708309560066706e+000	 3.057853678550003e+000
 1.145173394365917e-001	 1.709500576874617e+000	 3.047964705138363e+000
 9.799278858325179e-002	 1.710527352273461e+000	 3.040194519512934e+000
 8.151984012534874e-002	 1.711391514728928e+000	 3.033896828137137e+000
 6.510056690534437e-002	 1.712094720543356e+000	 3.028449524141745e+000
 4.873699376657754e-002	 1.712638652462478e+000	 3.023257031559919e+000
 3.243109738297553e-002	 1.713025018292312e+000	 3.017753428225167e+000
 1.618480613059111e-002	 1.713255549527444e+000	 3.011406397515160e+000
 0.000000000000000e+000	 1.713331999991934e+000	 3.003722050522519e+000
 1.650187069120498e-001	 1.712063685847439e+000	 3.124341707700860e+000
 1.482874189164758e-001	 1.713593882916097e+000	 3.108993415178258e+000
 1.316014046057985e-001	 1.714956019436821e+000	 3.097028331084497e+000
 1.149628879854574e-001	 1.716151670091179e+000	 3.087770092261875e+000
 9.837404564892738e-002	 1.717182440328223e+000	 3.080558995143986e+000
 8.183700647536490e-002	 1.718049964949481e+000	 3.074752557521164e+000
 6.535385137192523e-002	 1.718755906701431e+000	 3.069726761074636e+000
 4.892661305989297e-002	 1.719301954876830e+000	 3.064878053378433e+000
 3.255727590373070e-002	 1.719689823926216e+000	 3.059626174643985e+000
 1.624777578211642e-002	 1.719921252080867e+000	 3.053417861100805e+000
 0.000000000000000e+000	 1.719997999988401e+000	 3.045731468277461e+000
 1.656582510863099e-001	 1.718698935730644e+000	 3.161982445941264e+000
 1.488621195470669e-001	 1.720235063209314e+000	 3.147428807684912e+000
 1.321114371548103e-001	 1.721602478806902e+000	 3.136160572946605e+000
 1.154084365342713e-001	 1.722802763307809e+000	 3.127517856716359e+000
 9.875530271446709e-002	 1.723837528383160e+000	 3.120852418286654e+000
 8.215417282517604e-002	 1.724708415170315e+000	 3.115527777589636e+000
 6.560713583825652e-002	 1.725417092859887e+000	 3.110920054772304e+000
 4.911623235294803e-002	 1.725965257291649e+000	 3.106419614339982e+000
 3.268345442425758e-002	 1.726354629560658e+000	 3.101433581321579e+000
 1.631074543349728e-002	 1.726586954634872e+000	 3.095389283131255e+000
 0.000000000000000e+000	 1.726663999985468e+000	 3.087738662091226e+000
 1.662977952608313e-001	 1.725334185613589e+000	 3.199630423776360e+000
 1.494368201778233e-001	 1.726876243502368e+000	 3.185852170394405e+000
 1.326214697038732e-001	 1.728248938176940e+000	 3.175259758093056e+000
 1.158539850830164e-001	 1.729453856524530e+000	 3.167212276709627e+000
 9.913655977982550e-002	 1.730492616438330e+000	 3.161075336669719e+000
 8.247133917471385e-002	 1.731366865391524e+000	 3.156220721664657e+000
 6.586042030425503e-002	 1.732078279018852e+000	 3.152026808146559e+000
 4.930585164565591e-002	 1.732628559707094e+000	 3.147879835656947e+000
 3.280963294448005e-002	 1.733019435195818e+000	 3.143176097690542e+000
 1.637371508468555e-002	 1.733252657189655e+000	 3.137325108594889e+000
 0.000000000000000e+000	 1.733329999983334e+000	 3.129753793208621e+000
 1.733329999983334e+000	 0.000000000000000e+000	 1.316920616387213e+001
 1.733252657189655e+000	 1.637371508468560e-002	 1.318036093045602e+001
 1.733019435195817e+000	 3.280963294448016e-002	 1.318650111319017e+001
 1.732628559707093e+000	 4.930585164565578e-002	 1.318910028553613e+001
 1.732078279018852e+000	 6.586042030425496e-002	 1.318959391091138e+001
 1.731366865391524e+000	 8.247133917471382e-002	 1.318937570565627e+001
 1.730492616438330e+000	 9.913655977982551e-002	 1.318979392236027e+001
 1.729453856524530e+000	 1.158539850830164e-001	 1.319214757658308e+001
 1.728248938176940e+000	 1.326214697038731e-001	 1.319768263624811e+001
 1.726876243502368e+000	 1.494368201778232e-001	 1.320758819691952e+001
 1.725334185613589e+000	 1.662977952608313e-001	 1.322299267031851e+001
 1.739996999982150e+000	 0.000000000000000e+000	 1.313427296141140e+001
 1.739919359700741e+000	 1.643669418203721e-002	 1.314580509520455e+001
 1.739685240652657e+000	 3.293583039301111e-002	 1.315221263863529e+001
 1.739292861718604e+000	 4.949549938368804e-002	 1.315500495762531e+001
 1.738740464456275e+000	 6.611374276632483e-002	 1.315565261018789e+001
 1.738026314480604e+000	 8.278855310363308e-002	 1.315558362645542e+001
 1.737148702856828e+000	 9.951787403924238e-002	 1.315617969722829e+001
 1.736105947505125e+000	 1.162996004706390e-001	 1.315877229385302e+001
 1.734896394615545e+000	 1.331315787655219e-001	 1.316463873854573e+001
 1.733518420071906e+000	 1.500116070224829e-001	 1.317499824832592e+001
 1.731970430883254e+000	 1.669374353768737e-001	 1.319100797999514e+001
 1.746663999981866e+000	 0.000000000000000e+000	 1.309967903270438e+001
 1.746586062212704e+000	 1.649967327917074e-002	 1.311159737425877e+001
 1.746351046110308e+000	 3.306202784119438e-002	 1.311828357499643e+001
 1.745957163730827e+000	 4.968514712131888e-002	 1.312128203335178e+001
 1.745402649894287e+000	 6.636706522800251e-002	 1.312209772081542e+001
 1.744685763570132e+000	 8.310576703221921e-002	 1.312219238123593e+001
 1.743804789275623e+000	 9.989918829842162e-002	 1.312298062637578e+001
 1.742758038485864e+000	 1.167452158581424e-001	 1.312582595027178e+001
 1.741543851054149e+000	 1.336416878271795e-001	 1.313203668133370e+001
 1.740160596641313e+000	 1.505863938672744e-001	 1.314286189528183e+001
 1.738606676152682e+000	 1.675770754931521e-001	 1.315948731641921e+001
 1.753330999982383e+000	 0.000000000000000e+000	 1.306538848936011e+001
 1.753252764725449e+000	 1.656265237610888e-002	 1.307770231342851e+001
 1.753016851568687e+000	 3.318822528906295e-002	 1.308467895090713e+001
 1.752621465743698e+000	 4.987479485858096e-002	 1.308789706750412e+001
 1.752064835332843e+000	 6.662038768931183e-002	 1.308889536352887e+001
 1.751345212660085e+000	 8.342298096048077e-002	 1.308916869471860e+001
 1.750460875694719e+000	 1.002805025573522e-001	 1.309016407661089e+001
 1.749410129466778e+000	 1.171908312454938e-001	 1.309327659472829e+001
 1.748191307492805e+000	 1.341517968887906e-001	 1.309984523930511e+001
 1.746802773210664e+000	 1.511611807121225e-001	 1.311114868757140e+001
 1.745242921421967e+000	 1.682167156095753e-001	 1.312840106113706e+001
 1.759997999983599e+000	 0.000000000000000e+000	 1.303136433130405e+001
 1.759919467238878e+000	 1.662563147287437e-002	 1.304408366495512e+001
 1.759682657027710e+000	 3.331442273664976e-002	 1.305136330139888e+001
 1.759285767757147e+000	 5.006444259550699e-002	 1.305481540294161e+001
 1.758727020771897e+000	 6.687371015027672e-002	 1.305601171040814e+001
 1.758004661750444e+000	 8.374019488842645e-002	 1.305647958777864e+001
 1.757116962114120e+000	 1.006618168160231e-001	 1.305769793721525e+001
 1.756062220447895e+000	 1.176364466326602e-001	 1.306109300643065e+001
 1.754838763931569e+000	 1.346619059503003e-001	 1.306803410690193e+001
 1.753444949780036e+000	 1.517359675569519e-001	 1.307982926584246e+001
 1.751879166691197e+000	 1.688563557260526e-001	 1.309772083949918e+001
 1.766664999985416e+000	 0.000000000000000e+000	 1.299756846775436e+001
 1.766586169752895e+000	 1.668861056948992e-002	 1.301070440553935e+001
 1.766348462487290e+000	 3.344062018398774e-002	 1.301830068299430e+001
 1.765950069771108e+000	 5.025409033212962e-002	 1.302200218276862e+001
 1.765389206211403e+000	 6.712703261092110e-002	 1.302341299414950e+001
 1.764664110841186e+000	 8.405740881606484e-002	 1.302409238383276e+001
 1.763773048533831e+000	 1.010431310744234e-001	 1.302555062346817e+001
 1.762714311429247e+000	 1.180820620196086e-001	 1.302924469558955e+001
 1.761486220370494e+000	 1.351720150116536e-001	 1.303657389618348e+001
 1.760087126349500e+000	 1.523107544016878e-001	 1.304887535668575e+001
 1.758515411960465e+000	 1.694959958424926e-001	 1.306741951298246e+001
 1.773331999987732e+000	 0.000000000000000e+000	 1.296396173772499e+001
 1.773252872267407e+000	 1.675158966597828e-002	 1.297752675396149e+001
 1.773014267947344e+000	 3.356681763110986e-002	 1.298545468845555e+001
 1.772614371785513e+000	 5.044373806848151e-002	 1.298942236222278e+001
 1.772051391651317e+000	 6.738035507126874e-002	 1.299106551710833e+001
 1.771323559932291e+000	 8.437462274340453e-002	 1.299197471505224e+001
 1.770429134953857e+000	 1.014244453325420e-001	 1.299369108004740e+001
 1.769366402410864e+000	 1.185276774063061e-001	 1.299770190402694e+001
 1.768133676809635e+000	 1.356821240727953e-001	 1.300543613466417e+001
 1.766729302919135e+000	 1.528855412462549e-001	 1.301825976772845e+001
 1.765151657229859e+000	 1.701356359588047e-001	 1.303747117156518e+001
 1.779998999990449e+000	 0.000000000000000e+000	 1.293050393006787e+001
 1.779919574782316e+000	 1.681456876236214e-002	 1.294451218830422e+001
 1.779680073407788e+000	 3.369301507804907e-002	 1.295278846119568e+001
 1.779278673800295e+000	 5.063338580459535e-002	 1.295704072028548e+001
 1.778713577091589e+000	 6.763367753134363e-002	 1.295893566011916e+001
 1.777983009023737e+000	 8.469183667045423e-002	 1.296009452840555e+001
 1.777085221374202e+000	 1.018057595903678e-001	 1.296208878430911e+001
 1.776018493392776e+000	 1.189732927927196e-001	 1.296643560571049e+001
 1.774781133249046e+000	 1.361922331336704e-001	 1.297459326312276e+001
 1.773371479489014e+000	 1.534603280905781e-001	 1.298795638273832e+001
 1.771787902499474e+000	 1.707752760748979e-001	 1.300785112615169e+001
 1.786665999993466e+000	 0.000000000000000e+000	 1.289715380306661e+001
 1.786586277297526e+000	 1.687754785866422e-002	 1.291162146278851e+001
 1.786345878868537e+000	 3.381921252483833e-002	 1.292026470936300e+001
 1.785942975815387e+000	 5.082303354050381e-002	 1.292482187102085e+001
 1.785375762532177e+000	 6.788699999116955e-002	 1.292698989109871e+001
 1.784642458115503e+000	 8.500905059722247e-002	 1.292842009153542e+001
 1.783741307794869e+000	 1.021870738478898e-001	 1.293071374945134e+001
 1.782670584375014e+000	 1.194189081788164e-001	 1.293541750721780e+001
 1.781428589688781e+000	 1.367023421942238e-001	 1.294401863338280e+001
 1.780013656059212e+000	 1.540351149345822e-001	 1.295794015674096e+001
 1.778424147769398e+000	 1.714149161906810e-001	 1.297853590104715e+001
 1.793332999996683e+000	 0.000000000000000e+000	 1.286386910359290e+001
 1.793252979812941e+000	 1.694052695490725e-002	 1.287881462423301e+001
 1.793011684329505e+000	 3.394540997151059e-002	 1.288784571960618e+001
 1.792607277830720e+000	 5.101268127623954e-002	 1.289273027465134e+001
 1.792037947973034e+000	 6.814032245077047e-002	 1.289519477343742e+001
 1.791301907207566e+000	 8.532626452371793e-002	 1.289691999847418e+001
 1.790397394215866e+000	 1.025683881050970e-001	 1.289953652756292e+001
 1.789322675357607e+000	 1.198645235645632e-001	 1.290462004812986e+001
 1.788076046128894e+000	 1.372124512544006e-001	 1.291368650606565e+001
 1.786655832629805e+000	 1.546099017781922e-001	 1.292818711114761e+001
 1.785060393039723e+000	 1.720545563060633e-001	 1.294950322647997e+001
 1.800000000000000e+000	 0.000000000000000e+000	 1.283060658583729e+001
 1.799919682328466e+000	 1.700350605111395e-002	 1.284605102814634e+001
 1.799677489790610e+000	 3.407160741809879e-002	 1.285549337052843e+001
 1.799271579846228e+000	 5.120232901183521e-002	 1.286073024837613e+001
 1.798700133414114e+000	 6.839364491017019e-002	 1.286351697418521e+001
 1.797961356299908e+000	 8.564347844994921e-002	 1.286556317520231e+001
 1.797053480637194e+000	 1.029497023619785e-001	 1.286852821256113e+001
 1.795974766340585e+000	 1.203101389499273e-001	 1.287401640135763e+001
 1.794723502569440e+000	 1.377225603141456e-001	 1.288357204831666e+001
 1.793298009200867e+000	 1.551846886213329e-001	 1.289867432889481e+001
 1.791696638310540e+000	 1.726941964209536e-001	 1.292073203117100e+001
 1.725334185613589e+000	 1.662977952608313e-001	 1.322299267031851e+001
 1.723621479941080e+000	 1.831995735777232e-001	 1.323923550678386e+001
 1.721736388281684e+000	 2.001423762404914e-001	 1.325159849918954e+001
 1.719677426276633e+000	 2.171238590659275e-001	 1.326099926176918e+001
 1.717443146220116e+000	 2.341416328608902e-001	 1.326826125994868e+001
 1.715032138482888e+000	 2.511932639628145e-001	 1.327410999142809e+001
 1.712443032933547e+000	 2.682762748280447e-001	 1.327916945582962e+001
 1.709674500355791e+000	 2.853881446684482e-001	 1.328395897436871e+001
 1.706725253859903e+000	 3.025263101366982e-001	 1.328889042565722e+001
 1.703594050286686e+000	 3.196881660605542e-001	 1.329426596826303e+001
 1.700279691602013e+000	 3.368710662263961e-001	 1.330027632495726e+001
 1.731970430883254e+000	 1.669374353768737e-001	 1.319100797999514e+001
 1.730251137539157e+000	 1.839042239088101e-001	 1.320791905876335e+001
 1.728358795150721e+000	 2.009121945807593e-001	 1.322091032355966e+001
 1.726291913649813e+000	 2.179589941929544e-001	 1.323090361861003e+001
 1.724049039762244e+000	 2.350422243625717e-001	 1.323872500304858e+001
 1.721628758436840e+000	 2.521594420663184e-001	 1.324510077392796e+001
 1.719029694272197e+000	 2.693081602310289e-001	 1.325065376952425e+001
 1.716250512939384e+000	 2.864858483727273e-001	 1.325590001547133e+001
 1.713289922598861e+000	 3.036899332845457e-001	 1.326124578108521e+001
 1.710146675309802e+000	 3.209177997738291e-001	 1.326698511791981e+001
 1.706819568430031e+000	 3.381667914486827e-001	 1.327329795707456e+001
 1.738606676152682e+000	 1.675770754931521e-001	 1.315948731641921e+001
 1.736880795136925e+000	 1.846088742402069e-001	 1.317707852521052e+001
 1.734981202019403e+000	 2.016820129213816e-001	 1.319071365941483e+001
 1.732906401022620e+000	 2.187941293203549e-001	 1.320131791703629e+001
 1.730654933303999e+000	 2.359428158646245e-001	 1.320971911826100e+001
 1.728225378390438e+000	 2.531256201701740e-001	 1.321664356838681e+001
 1.725616355610525e+000	 2.703400456343321e-001	 1.322271219231052e+001
 1.722826525522695e+000	 2.875835520772833e-001	 1.322843700419634e+001
 1.719854591337579e+000	 3.048535564326230e-001	 1.323421798094685e+001
 1.716699300332726e+000	 3.221474334872859e-001	 1.324034041295323e+001
 1.713359445257894e+000	 3.394625166711073e-001	 1.324697281025495e+001
 1.745242921421967e+000	 1.682167156095753e-001	 1.312840106113706e+001
 1.743510452734483e+000	 1.853135245718127e-001	 1.314668505603576e+001
 1.741603608887835e+000	 2.024518312622533e-001	 1.316098025009539e+001
 1.739520888395156e+000	 2.196292644480248e-001	 1.317221434153175e+001
 1.737260826845480e+000	 2.368434073669490e-001	 1.318121610352574e+001
 1.734821998343771e+000	 2.540917982742895e-001	 1.318871108498898e+001
 1.732203016948608e+000	 2.713719310378722e-001	 1.319531757367277e+001
 1.729402538105790e+000	 2.886812557820459e-001	 1.320154288634098e+001
 1.726419260076111e+000	 3.060171795808724e-001	 1.320778005590213e+001
 1.723251925355489e+000	 3.233770672008791e-001	 1.321430499043006e+001
 1.719899322085622e+000	 3.407582418936351e-001	 1.322127418383222e+001
 1.751879166691197e+000	 1.688563557260526e-001	 1.309772083949918e+001
 1.750140110331933e+000	 1.860181749035265e-001	 1.311671118184310e+001
 1.748226015756122e+000	 2.032216496032693e-001	 1.313168334258196e+001
 1.746135375767526e+000	 2.204643995758591e-001	 1.314356668934172e+001
 1.743866720386786e+000	 2.377439988694453e-001	 1.315319016499428e+001
 1.741418618296932e+000	 2.550579763785728e-001	 1.316127782410039e+001
 1.738789678286527e+000	 2.724038164415678e-001	 1.316844462199190e+001
 1.735978550688731e+000	 2.897789594869453e-001	 1.317519252231993e+001
 1.732983928814502e+000	 3.071808027292359e-001	 1.318190699425111e+001
 1.729804550378127e+000	 3.246067009145631e-001	 1.318885397570836e+001
 1.726439198913232e+000	 3.420539671162316e-001	 1.319617738406967e+001
 1.758515411960465e+000	 1.694959958424926e-001	 1.306741951298246e+001
 1.756769767929376e+000	 1.867228252352476e-001	 1.308713080349146e+001
 1.754848422624370e+000	 2.039914679443244e-001	 1.310279767426043e+001
 1.752749863139835e+000	 2.212995347037537e-001	 1.311535035441192e+001
 1.750472613928017e+000	 2.386445903720133e-001	 1.312561719811907e+001
 1.748015238250009e+000	 2.560241544829318e-001	 1.313432005449081e+001
 1.745376339624358e+000	 2.734357018453367e-001	 1.314206987989104e+001
 1.742554563271583e+000	 2.908766631919111e-001	 1.314936265963249e+001
 1.739548597552804e+000	 3.083444258776562e-001	 1.315657571152548e+001
 1.736357175400671e+000	 3.258363346282924e-001	 1.316396444916537e+001
 1.732979075740743e+000	 3.433496923388628e-001	 1.317165968804447e+001
 1.765151657229859e+000	 1.701356359588047e-001	 1.303747117156518e+001
 1.763399425526912e+000	 1.874274755668750e-001	 1.305791918174579e+001
 1.761470829492683e+000	 2.047612862853135e-001	 1.307429945981209e+001
 1.759364350512185e+000	 2.221346698316040e-001	 1.308754231148694e+001
 1.757078507469271e+000	 2.395451818745535e-001	 1.309847476893535e+001
 1.754611858203091e+000	 2.569903325872746e-001	 1.310781579178099e+001
 1.751963000962180e+000	 2.744675872490972e-001	 1.311617169983654e+001
 1.749130575854412e+000	 2.919743668968733e-001	 1.312403190561165e+001
 1.746113266291066e+000	 3.095080490260753e-001	 1.313176502038948e+001
 1.742909800423157e+000	 3.270659683420218e-001	 1.313961541325974e+001
 1.739518952568174e+000	 3.446454175614939e-001	 1.314770030788812e+001
 1.771787902499474e+000	 1.707752760748979e-001	 1.300785112615169e+001
 1.770029083124643e+000	 1.881321258983079e-001	 1.302905292701523e+001
 1.768093236361167e+000	 2.055311046261315e-001	 1.304616637822599e+001
 1.765978837884681e+000	 2.229698049593054e-001	 1.306012110036443e+001
 1.763684401010645e+000	 2.404457733769656e-001	 1.307174209553132e+001
 1.761208478156271e+000	 2.579565106915091e-001	 1.308174477710864e+001
 1.758549662300072e+000	 2.754994726527677e-001	 1.309073021998609e+001
 1.755706588437281e+000	 2.930720706017621e-001	 1.309918070044874e+001
 1.752677935029338e+000	 3.106716721744358e-001	 1.310745560084139e+001
 1.749462425445618e+000	 3.282956020557054e-001	 1.311578775991813e+001
 1.746058829395541e+000	 3.459411427840905e-001	 1.312428035537388e+001
 1.778424147769398e+000	 1.714149161906810e-001	 1.297853590104715e+001
 1.776658740722669e+000	 1.888367762294454e-001	 1.300050998917525e+001
 1.774715643229925e+000	 2.063009229666732e-001	 1.301837755993051e+001
 1.772593325257429e+000	 2.238049400867535e-001	 1.303306681030133e+001
 1.770290294552242e+000	 2.413463648791500e-001	 1.304540002970095e+001
 1.767805098109637e+000	 2.589226887955433e-001	 1.305608845600689e+001
 1.765136323638111e+000	 2.765313580562662e-001	 1.306572734027841e+001
 1.762282601020255e+000	 2.941697743065070e-001	 1.307479129048613e+001
 1.759242603767669e+000	 3.118352953226800e-001	 1.308362997070829e+001
 1.756015050468088e+000	 3.295252357692979e-001	 1.309246423823835e+001
 1.752598706222864e+000	 3.472368680066182e-001	 1.310138280684213e+001
 1.785060393039723e+000	 1.720545563060633e-001	 1.294950322647997e+001
 1.783288398321091e+000	 1.895414265601867e-001	 1.297226964747364e+001
 1.781338050099065e+000	 2.070707413068336e-001	 1.299091357404004e+001
 1.779207812630531e+000	 2.246400752138435e-001	 1.300636106456751e+001
 1.776896188094157e+000	 2.422469563810069e-001	 1.301943103877572e+001
 1.774401718063279e+000	 2.598888668992851e-001	 1.303082995749090e+001
 1.771722984976377e+000	 2.775632434595108e-001	 1.304114669875816e+001
 1.768858613603400e+000	 2.952674780110384e-001	 1.305084770177125e+001
 1.765807272506106e+000	 3.129989184707498e-001	 1.306027245642634e+001
 1.762567675490600e+000	 3.307548694827538e-001	 1.306962942250061e+001
 1.759138583050161e+000	 3.485325932290429e-001	 1.307899246845448e+001
 1.791696638310540e+000	 1.726941964209536e-001	 1.292073203117100e+001
 1.789918055920010e+000	 1.902460768904308e-001	 1.294431250051539e+001
 1.787960456968690e+000	 2.078405596465076e-001	 1.296375641571503e+001
 1.785822300004091e+000	 2.254752103404711e-001	 1.297998700514345e+001
 1.783502081636491e+000	 2.431475478824360e-001	 1.299381918762922e+001
 1.780998338017287e+000	 2.608550450026427e-001	 1.300595407334575e+001
 1.778309646314947e+000	 2.785951288624201e-001	 1.301697364812959e+001
 1.775434626186778e+000	 2.963651817152860e-001	 1.302733571386420e+001
 1.772371941244703e+000	 3.141625416185883e-001	 1.303736916409904e+001
 1.769120300513189e+000	 3.319845031960277e-001	 1.304726968047911e+001
 1.765678459877450e+000	 3.498283184513297e-001	 1.305709594176871e+001
 1.700279691602013e+000	 3.368710662263961e-001	 1.330027632495726e+001
 1.696780487790798e+000	 3.540749052345567e-001	 1.330751586833730e+001
 1.693095819381501e+000	 3.712943765690969e-001	 1.331634047448483e+001
 1.689224633001393e+000	 3.885267107333296e-001	 1.332643077875498e+001
 1.685165925907488e+000	 4.057691007109044e-001	 1.333737469138964e+001
 1.680918747307537e+000	 4.230187029988018e-001	 1.334867050805303e+001
 1.676482199660132e+000	 4.402726386897363e-001	 1.335973108993953e+001
 1.671855439951955e+000	 4.575279946036862e-001	 1.336988920584767e+001
 1.667037680950171e+000	 4.747818244681850e-001	 1.337840412902093e+001
 1.662028192427957e+000	 4.920311501469236e-001	 1.338446958119333e+001
 1.656826302361175e+000	 5.092729629161171e-001	 1.338722311508836e+001
 1.706819568430031e+000	 3.381667914486827e-001	 1.327329795707456e+001
 1.703306905444065e+000	 3.554368025040349e-001	 1.328086101349767e+001
 1.699608064497652e+000	 3.727225060132112e-001	 1.329012049555515e+001
 1.695721988166405e+000	 3.900211218270627e-001	 1.330075379923080e+001
 1.691647669850424e+000	 4.073298321324640e-001	 1.331234219774554e+001
 1.687384155100361e+000	 4.246457824892795e-001	 1.332437375534092e+001
 1.682930542922536e+000	 4.419660829169301e-001	 1.333624731997703e+001
 1.678285987061092e+000	 4.592878090302757e-001	 1.334727769001536e+001
 1.673449697255204e+000	 4.766080032244467e-001	 1.335670205047602e+001
 1.668420940469325e+000	 4.939236759081699e-001	 1.336368777419222e+001
 1.663199042094462e+000	 5.112318067850482e-001	 1.336734168207487e+001
 1.713359445257894e+000	 3.394625166711073e-001	 1.324697281025495e+001
 1.709833323097210e+000	 3.567986997736140e-001	 1.325487321961879e+001
 1.706120309613704e+000	 3.741506354573975e-001	 1.326457785885958e+001
 1.702219343331335e+000	 3.915155329208471e-001	 1.327576131858031e+001
 1.698129413793288e+000	 4.088905635540621e-001	 1.328799867491344e+001
 1.693849562893120e+000	 4.262728619797906e-001	 1.330076819893179e+001
 1.689378886184878e+000	 4.436595271441607e-001	 1.331345515407981e+001
 1.684716534170167e+000	 4.610476234569134e-001	 1.332535677942526e+001
 1.679861713560173e+000	 4.784341819807756e-001	 1.333568855716593e+001
 1.674813688510627e+000	 4.958162016695114e-001	 1.334359186266068e+001
 1.669571781827683e+000	 5.131906506541094e-001	 1.334814309422499e+001
 1.719899322085622e+000	 3.407582418936351e-001	 1.322127418383222e+001
 1.716359740750236e+000	 3.581605970432687e-001	 1.322952600378925e+001
 1.712632554729648e+000	 3.755787649016377e-001	 1.323968634742616e+001
 1.708716698496162e+000	 3.930099440146698e-001	 1.325142745944573e+001
 1.704611157736048e+000	 4.104512949756887e-001	 1.326431868494427e+001
 1.700314970685772e+000	 4.278999414703268e-001	 1.327782896665346e+001
 1.695827229447108e+000	 4.453529713714187e-001	 1.329133043906367e+001
 1.691147081279122e+000	 4.628074378835871e-001	 1.330410322001201e+001
 1.686273729865016e+000	 4.802603607371551e-001	 1.331534150107342e+001
 1.681206436551799e+000	 4.977087274309236e-001	 1.332416103803143e+001
 1.675944521560770e+000	 5.151494945232681e-001	 1.332960814176138e+001
 1.726439198913232e+000	 3.420539671162316e-001	 1.319617738406967e+001
 1.722886158403147e+000	 3.595224943129740e-001	 1.320479489758593e+001
 1.719144799845473e+000	 3.770068943459138e-001	 1.321542175632812e+001
 1.715214053660861e+000	 3.945043551085180e-001	 1.322772834469290e+001
 1.711092901678671e+000	 4.120120263973348e-001	 1.324127876956199e+001
 1.706780378478273e+000	 4.295270209608801e-001	 1.325553313739964e+001
 1.702275572709173e+000	 4.470464155986954e-001	 1.326985093683946e+001
 1.697577628387899e+000	 4.645672523102848e-001	 1.328349563018220e+001
 1.692685746169670e+000	 4.820865394935684e-001	 1.329564055810493e+001
 1.687599184592773e+000	 4.996012531923834e-001	 1.330537626192730e+001
 1.682317261293658e+000	 5.171083383924920e-001	 1.331171932692819e+001
 1.732979075740743e+000	 3.433496923388628e-001	 1.317165968804447e+001
 1.729412576055947e+000	 3.608843915827041e-001	 1.318065740813101e+001
 1.725657044961170e+000	 3.784350237902079e-001	 1.319176185092546e+001
 1.721711408825414e+000	 3.959987662023791e-001	 1.320464205285498e+001
 1.717574645621123e+000	 4.135727578189902e-001	 1.321885740283150e+001
 1.713245786270582e+000	 4.311541004514415e-001	 1.323385969104862e+001
 1.708723915971023e+000	 4.487398598259810e-001	 1.324899627161462e+001
 1.704008175496442e+000	 4.663270667369946e-001	 1.326351444533605e+001
 1.699097762474073e+000	 4.839127182499985e-001	 1.327656716997447e+001
 1.693991932633487e+000	 5.014937789538670e-001	 1.328722020545525e+001
 1.688690001026278e+000	 5.190671822617484e-001	 1.329446080074806e+001
 1.739518952568174e+000	 3.446454175614939e-001	 1.314770030788811e+001
 1.735938993708639e+000	 3.622462888524344e-001	 1.315709297952568e+001
 1.732169290076729e+000	 3.798631532345022e-001	 1.316868632550321e+001
 1.728208763989794e+000	 3.974931772962400e-001	 1.318214857399052e+001
 1.724056389563372e+000	 4.151334892406455e-001	 1.319703494425663e+001
 1.719711194062654e+000	 4.327811799420031e-001	 1.321278945882708e+001
 1.715172259232606e+000	 4.504333040532667e-001	 1.322874787755335e+001
 1.710438722604692e+000	 4.680868811637045e-001	 1.324414186285927e+001
 1.705509778778163e+000	 4.857388970064288e-001	 1.325810448656843e+001
 1.700384680673871e+000	 5.033863047153503e-001	 1.326967718898982e+001
 1.695062740758567e+000	 5.210260261310048e-001	 1.327781830027580e+001
 1.746058829395541e+000	 3.459411427840905e-001	 1.312428035537388e+001
 1.742465411361228e+000	 3.636081861221397e-001	 1.313408295465158e+001
 1.738681535192140e+000	 3.812912826787783e-001	 1.314617676229560e+001
 1.734706119153983e+000	 3.989875883900884e-001	 1.316022976594458e+001
 1.730538133505383e+000	 4.166942206622915e-001	 1.317579359229767e+001
 1.726176601854446e+000	 4.344082594325562e-001	 1.319230507410752e+001
 1.721620602493873e+000	 4.521267482805432e-001	 1.320908894688296e+001
 1.716869269712593e+000	 4.698466955904023e-001	 1.322536178757278e+001
 1.711921795081877e+000	 4.875650757628420e-001	 1.324023730877788e+001
 1.706777428713864e+000	 5.052788304768102e-001	 1.325273312243314e+001
 1.701435480490456e+000	 5.229848700002288e-001	 1.326177908633592e+001
 1.752598706222864e+000	 3.472368680066182e-001	 1.310138280684213e+001
 1.748991829013715e+000	 3.649700833917944e-001	 1.311161053732917e+001
 1.745193780307393e+000	 3.827194121230186e-001	 1.312421659088602e+001
 1.741203474317956e+000	 4.004819994839109e-001	 1.313886931100295e+001
 1.737019877447124e+000	 4.182549520839182e-001	 1.315511733829685e+001
 1.732642009645917e+000	 4.360353389230924e-001	 1.317239092362779e+001
 1.728068945754770e+000	 4.538201925078013e-001	 1.319000437843513e+001
 1.723299816820085e+000	 4.716065100170760e-001	 1.320715977762836e+001
 1.718333811385152e+000	 4.893912545192214e-001	 1.322295203178685e+001
 1.713170176753398e+000	 5.071713562382227e-001	 1.323637544593872e+001
 1.707808220221878e+000	 5.249437138693874e-001	 1.324633188173089e+001
 1.759138583050161e+000	 3.485325932290429e-001	 1.307899246845448e+001
 1.755518246666106e+000	 3.663319806613735e-001	 1.308966075482523e+001
 1.751706025422479e+000	 3.841475415672048e-001	 1.310279104797349e+001
 1.747700829481692e+000	 4.019764105776953e-001	 1.311805267292869e+001
 1.743501621388562e+000	 4.198156835055162e-001	 1.313499192080143e+001
 1.739107417437024e+000	 4.376624184136038e-001	 1.315303309912200e+001
 1.734517289015250e+000	 4.555136367350319e-001	 1.317148072661058e+001
 1.729730363927113e+000	 4.733663244437137e-001	 1.318952299083868e+001
 1.724745827687928e+000	 4.912174332755505e-001	 1.320623658880404e+001
 1.719562924792408e+000	 5.090638819995640e-001	 1.322059307108747e+001
 1.714180959952767e+000	 5.269025577384489e-001	 1.323146680990841e+001
 1.765678459877450e+000	 3.498283184513297e-001	 1.305709594176871e+001
 1.762044664318403e+000	 3.676938779308519e-001	 1.306822042069878e+001
 1.758218270537386e+000	 3.855756710113191e-001	 1.308188713749533e+001
 1.754198184645169e+000	 4.034708216714287e-001	 1.309776705437151e+001
 1.749983365329663e+000	 4.213764149270760e-001	 1.311540478027440e+001
 1.745572825227723e+000	 4.392894979040814e-001	 1.313421934935169e+001
 1.740965632275259e+000	 4.572070809622258e-001	 1.315350615075611e+001
 1.736160911033618e+000	 4.751261388703035e-001	 1.317244013143009e+001
 1.731157843990141e+000	 4.930436120318121e-001	 1.319008039522725e+001
 1.725955672830829e+000	 5.109564077608105e-001	 1.320537632250376e+001
 1.720553699683057e+000	 5.288614016073798e-001	 1.321717533407561e+001
 1.656826302361175e+000	 5.092729629161171e-001	 1.338722311508836e+001
 1.651431397679850e+000	 5.265042245356668e-001	 1.338754938855500e+001
 1.645842924156249e+000	 5.437218678370922e-001	 1.338671645013418e+001
 1.640060388744116e+000	 5.609227988524841e-001	 1.338439191831549e+001
 1.634083361056793e+000	 5.781038985210186e-001	 1.338024332908956e+001
 1.627911474392944e+000	 5.952620241932002e-001	 1.337395502643030e+001
 1.621544426721645e+000	 6.123940111778623e-001	 1.336524693917267e+001
 1.614981981624948e+000	 6.294966743307519e-001	 1.335389530155472e+001
 1.608223969196076e+000	 6.465668096834393e-001	 1.333975536544876e+001
 1.601270286891380e+000	 6.636011961111936e-001	 1.332278614196025e+001
 1.594120900334306e+000	 6.805965970383868e-001	 1.331256635133060e+001
 1.663199042094462e+000	 5.112318067850482e-001	 1.336734168207487e+001
 1.657783386702546e+000	 5.285293459288381e-001	 1.336850800479171e+001
 1.652173417934089e+000	 5.458132143736451e-001	 1.336840349803228e+001
 1.646368640846407e+000	 5.630803062510660e-001	 1.336664134592008e+001
 1.640368623397428e+000	 5.803274905032655e-001	 1.336282923827079e+001
 1.634172997475358e+000	 5.975516123930078e-001	 1.335658628629245e+001
 1.627781459887553e+000	 6.147494950566041e-001	 1.334756186493914e+001
 1.621193773306730e+000	 6.319179410986118e-001	 1.333545644210584e+001
 1.614409767172589e+000	 6.490537342270052e-001	 1.332004444549033e+001
 1.607429338547067e+000	 6.661536409274684e-001	 1.330119920745017e+001
 1.600252452921389e+000	 6.832144121753601e-001	 1.329231897939244e+001
 1.669571781827683e+000	 5.131906506541094e-001	 1.334814309422499e+001
 1.664135375725177e+000	 5.305544673221825e-001	 1.335014285977604e+001
 1.658503911711865e+000	 5.479045609104210e-001	 1.335075241831050e+001
 1.652676892948635e+000	 5.652378136499248e-001	 1.334952920759239e+001
 1.646653885738001e+000	 5.825510824858480e-001	 1.334601965856320e+001
 1.640434520557706e+000	 5.998412005932102e-001	 1.333977613114807e+001
 1.634018493053394e+000	 6.171049789358011e-001	 1.333037581749482e+001
 1.627405564988432e+000	 6.343392078669852e-001	 1.331744167582889e+001
 1.620595565149006e+000	 6.515406587711398e-001	 1.330066544862288e+001
 1.613588390202636e+000	 6.687060857443629e-001	 1.328002816552626e+001
 1.606384005508325e+000	 6.858322273129968e-001	 1.327282094693263e+001
 1.675944521560770e+000	 5.151494945232681e-001	 1.332960814176138e+001
 1.670487364747675e+000	 5.325795887156569e-001	 1.333243657057901e+001
 1.664834405489513e+000	 5.499959074473638e-001	 1.333374786115360e+001
 1.658985145050743e+000	 5.673953210489919e-001	 1.333304243179075e+001
 1.652939148078459e+000	 5.847746744686813e-001	 1.332980407957420e+001
 1.646696043639944e+000	 6.021307887937087e-001	 1.332351693093903e+001
 1.640255526219127e+000	 6.194604628153395e-001	 1.331368440098208e+001
 1.633617356670030e+000	 6.367604746357437e-001	 1.329985022776268e+001
 1.626781363125316e+000	 6.540275833157008e-001	 1.328162163824239e+001
 1.619747441858088e+000	 6.712585305617219e-001	 1.325969970114236e+001
 1.612515558095128e+000	 6.884500424511315e-001	 1.325407552243494e+001
 1.682317261293658e+000	 5.171083383924920e-001	 1.331171932692819e+001
 1.676839353769976e+000	 5.346047101092180e-001	 1.331537340530282e+001
 1.671164899266971e+000	 5.520872539844181e-001	 1.331737606542434e+001
 1.665293397152670e+000	 5.695528284481980e-001	 1.331716947245867e+001
 1.659224410418750e+000	 5.869982664516829e-001	 1.331417345288165e+001
 1.652957566722031e+000	 6.044203769944051e-001	 1.330780245425125e+001
 1.646492559384722e+000	 6.218159466951052e-001	 1.329748455554768e+001
 1.639829148351499e+000	 6.391817414047586e-001	 1.328268259748278e+001
 1.632967161101506e+000	 6.565145078605460e-001	 1.326291749245401e+001
 1.625906493513425e+000	 6.738109753793903e-001	 1.324023156444337e+001
 1.618647110681814e+000	 6.910678575895980e-001	 1.323608492455560e+001
 1.688690001026278e+000	 5.190671822617484e-001	 1.329446080074806e+001
 1.683191342792014e+000	 5.366298315028224e-001	 1.329893921734262e+001
 1.677495393044174e+000	 5.541786005215282e-001	 1.330162479046430e+001
 1.671601649254359e+000	 5.717103358474733e-001	 1.330190023840853e+001
 1.665509672758822e+000	 5.892218584347682e-001	 1.329912011905435e+001
 1.659219089803919e+000	 6.067099651952000e-001	 1.329262779303503e+001
 1.652729592550140e+000	 6.241714305749843e-001	 1.328177447983648e+001
 1.646040940032815e+000	 6.416030081739023e-001	 1.326594047945144e+001
 1.639152959077564e+000	 6.590014324055339e-001	 1.324455862237054e+001
 1.632065545168649e+000	 6.763634201972142e-001	 1.322162613540687e+001
 1.624778663268401e+000	 6.936856727282307e-001	 1.321885031979752e+001
 1.695062740758567e+000	 5.210260261310048e-001	 1.327781830027580e+001
 1.689543331813722e+000	 5.386549528964267e-001	 1.328312138015144e+001
 1.683825886821062e+000	 5.562699470586384e-001	 1.328648324840357e+001
 1.677909901355751e+000	 5.738678432467484e-001	 1.328722602321897e+001
 1.671794935098621e+000	 5.914454504178531e-001	 1.328463773518968e+001
 1.665480612885564e+000	 6.089995533959950e-001	 1.327798928784582e+001
 1.658966625715349e+000	 6.265269144548639e-001	 1.326655355400742e+001
 1.652252731713956e+000	 6.440242749430456e-001	 1.324962668389049e+001
 1.645338757053478e+000	 6.614883569505218e-001	 1.322655169093361e+001
 1.638224596823758e+000	 6.789158650150375e-001	 1.320388474774298e+001
 1.630910215854901e+000	 6.963034878668630e-001	 1.320237182070228e+001
 1.701435480490456e+000	 5.229848700002288e-001	 1.326177908633592e+001
 1.695895320835035e+000	 5.406800742899879e-001	 1.326790872249513e+001
 1.690156380597569e+000	 5.583612935956929e-001	 1.327194203696550e+001
 1.684218153456787e+000	 5.760253506459545e-001	 1.327313943563207e+001
 1.678080197438097e+000	 5.936690424008546e-001	 1.327072120295533e+001
 1.671742135966923e+000	 6.112891415966912e-001	 1.326388445359165e+001
 1.665203658880313e+000	 6.288823983346294e-001	 1.325182226325790e+001
 1.658464523394895e+000	 6.464455417120607e-001	 1.323374505816345e+001
 1.651524555029236e+000	 6.639752814953672e-001	 1.320890433224378e+001
 1.644383648478757e+000	 6.814683098327062e-001	 1.318700768680353e+001
 1.637041768441332e+000	 6.989213030053300e-001	 1.318664848454648e+001
 1.707808220221878e+000	 5.249437138693874e-001	 1.324633188173089e+001
 1.702247309855889e+000	 5.427051956834623e-001	 1.325329146418400e+001
 1.696486874373634e+000	 5.604526401326357e-001	 1.325799307275400e+001
 1.690526405557408e+000	 5.781828580450215e-001	 1.325963433043760e+001
 1.684365459777196e+000	 5.958926343836883e-001	 1.325736659712139e+001
 1.678003659047950e+000	 6.135787297971899e-001	 1.325031190577414e+001
 1.671440692044997e+000	 6.312378822141678e-001	 1.323758212184362e+001
 1.664676315075607e+000	 6.488668084808190e-001	 1.321830040865377e+001
 1.657710353004827e+000	 6.664622060399285e-001	 1.319162507138608e+001
 1.650542700133645e+000	 6.840207546500652e-001	 1.317099418798546e+001
 1.643173321027709e+000	 7.015391181434645e-001	 1.317167831252945e+001
 1.714180959952767e+000	 5.269025577384489e-001	 1.323146680990841e+001
 1.708599298876214e+000	 5.447303170768069e-001	 1.323926115226958e+001
 1.702817368149193e+000	 5.625439866694116e-001	 1.324462952501077e+001
 1.696834657657558e+000	 5.803403654438809e-001	 1.324670573983147e+001
 1.690650722115867e+000	 5.981162263662708e-001	 1.324457109457057e+001
 1.684265182128602e+000	 6.158683179973924e-001	 1.323727128720983e+001
 1.677677725209364e+000	 6.335933660933647e-001	 1.322383559758058e+001
 1.670888106756072e+000	 6.512880752491927e-001	 1.320329842312611e+001
 1.663896150980237e+000	 6.689491305840634e-001	 1.317495722835856e+001
 1.656701751788424e+000	 6.865731994669597e-001	 1.315584243561529e+001
 1.649304873614048e+000	 7.041569332811017e-001	 1.315745824943933e+001
 1.720553699683057e+000	 5.288614016073798e-001	 1.321717533407561e+001
 1.714951287895949e+000	 5.467554384699779e-001	 1.322581059769351e+001
 1.709147861924184e+000	 5.646353332059646e-001	 1.323184574982987e+001
 1.703142909757176e+000	 5.824978728424625e-001	 1.323434980523620e+001
 1.696935984454057e+000	 6.003398183485178e-001	 1.323233290377377e+001
 1.690526705208835e+000	 6.181579061972001e-001	 1.322476319522001e+001
 1.683914758373382e+000	 6.359488499721072e-001	 1.321058603681708e+001
 1.677099898436262e+000	 6.537093420170529e-001	 1.318874559355812e+001
 1.670081948955454e+000	 6.714360551276295e-001	 1.315923788945222e+001
 1.662860803443096e+000	 6.891256442832350e-001	 1.314154956230248e+001
 1.655436426200365e+000	 7.067747484180751e-001	 1.314398418378524e+001
 1.594120900334306e+000	 6.805965970383868e-001	 1.331256635133060e+001
 1.586776960647991e+000	 6.975472228038634e-001	 1.331190098560643e+001
 1.579237515303806e+000	 7.144523655646381e-001	 1.330571248833990e+001
 1.571502739887311e+000	 7.313087553462129e-001	 1.329453503922189e+001
 1.563572880804545e+000	 7.481131139287018e-001	 1.327889958604562e+001
 1.555448255818969e+000	 7.648621567133505e-001	 1.325933072643368e+001
 1.547129254530897e+000	 7.815525946160573e-001	 1.323634322698423e+001
 1.538616338798039e+000	 7.981811359858799e-001	 1.321043817424059e+001
 1.529910043095903e+000	 8.147444885464511e-001	 1.318209875493912e+001
 1.521010974816841e+000	 8.312393613581415e-001	 1.315178566626270e+001
 1.511919814506641e+000	 8.476624667987508e-001	 1.311993216030273e+001
 1.600252452921389e+000	 6.832144121753601e-001	 1.329231897939244e+001
 1.592880265846325e+000	 7.002302360404402e-001	 1.329316709915955e+001
 1.585311821129488e+000	 7.172004019571125e-001	 1.328835100280906e+001
 1.577547295031810e+000	 7.341216273734027e-001	 1.327838359337398e+001
 1.569586934907099e+000	 7.509906214602354e-001	 1.326377679424993e+001
 1.561431059741056e+000	 7.678040869851310e-001	 1.324503846965633e+001
 1.553080060632540e+000	 7.845587222130090e-001	 1.322266897054997e+001
 1.544534401215737e+000	 8.012512228320780e-001	 1.319715729973912e+001
 1.535794618021945e+000	 8.178782839027143e-001	 1.316897689306724e+001
 1.526861320779763e+000	 8.344366018271732e-001	 1.313858101688576e+001
 1.517735192652611e+000	 8.509228763379011e-001	 1.310639778559599e+001
 1.606384005508325e+000	 6.858322273129968e-001	 1.327282094693263e+001
 1.598983571044472e+000	 7.029132492777178e-001	 1.327507079525462e+001
 1.591386126954937e+000	 7.199484383503170e-001	 1.327152287948992e+001
 1.583591850176024e+000	 7.369344994013459e-001	 1.326266984510441e+001
 1.575600989009313e+000	 7.538681289925396e-001	 1.324900565910620e+001
 1.567413863662745e+000	 7.707460172576940e-001	 1.323102256904056e+001
 1.559030866733727e+000	 7.875648498107523e-001	 1.320920767519219e+001
 1.550452463632922e+000	 8.043213096790730e-001	 1.318403910907190e+001
 1.541679192947415e+000	 8.210120792597763e-001	 1.315598181445575e+001
 1.532711666742066e+000	 8.376338422970052e-001	 1.312548293067508e+001
 1.523550570797915e+000	 8.541832858778508e-001	 1.309296678150412e+001
 1.612515558095128e+000	 6.884500424511315e-001	 1.325407552243494e+001
 1.605086876242463e+000	 7.055962625155204e-001	 1.325761447566061e+001
 1.597460432780201e+000	 7.226964747440691e-001	 1.325522995130599e+001
 1.589636405320017e+000	 7.397473714298536e-001	 1.324739533733967e+001
 1.581615043111267e+000	 7.567456365254215e-001	 1.323458769348338e+001
 1.573396667584132e+000	 7.736879475308442e-001	 1.321728474859821e+001
 1.564981672834569e+000	 7.905709774090889e-001	 1.319596149875385e+001
 1.556370526049719e+000	 8.073913965266647e-001	 1.317108639836879e+001
 1.547563767872459e+000	 8.241458746174377e-001	 1.314311714007460e+001
 1.538562012703903e+000	 8.408310827674368e-001	 1.311249602246802e+001
 1.529365948942723e+000	 8.574436954184008e-001	 1.307964490865184e+001
 1.618647110681814e+000	 6.910678575895980e-001	 1.323608492455560e+001
 1.611190181440331e+000	 7.082792757536738e-001	 1.324079948056707e+001
 1.603534738605327e+000	 7.254445111381856e-001	 1.323947297557149e+001
 1.595680960463853e+000	 7.425602434587380e-001	 1.323256052111733e+001
 1.587629097213043e+000	 7.596231440586885e-001	 1.322052329986981e+001
 1.579379471505315e+000	 7.766298778043861e-001	 1.320382560130602e+001
 1.570932478935180e+000	 7.935771050078214e-001	 1.318293144528557e+001
 1.562288588466257e+000	 8.104614833746550e-001	 1.315830078517979e+001
 1.553448342797217e+000	 8.272796699754988e-001	 1.313038528558128e+001
 1.544412358665429e+000	 8.440283232382685e-001	 1.309962367320982e+001
 1.535181327087197e+000	 8.607041049593510e-001	 1.306643666345701e+001
 1.624778663268401e+000	 6.936856727282307e-001	 1.321885031979752e+001
 1.617293486638105e+000	 7.109622889920020e-001	 1.322462608709087e+001
 1.609609044430361e+000	 7.281925475324854e-001	 1.322425163336126e+001
 1.601725515607597e+000	 7.453731154878104e-001	 1.321816475584386e+001
 1.593643151314718e+000	 7.625006515921481e-001	 1.320681177153876e+001
 1.585362275426390e+000	 7.795718080781234e-001	 1.319064459119225e+001
 1.576883285035673e+000	 7.965832326067517e-001	 1.317011736806179e+001
 1.568206650882666e+000	 8.135315702228443e-001	 1.314568271242345e+001
 1.559332917721832e+000	 8.304134653337596e-001	 1.311778746619867e+001
 1.550262704626801e+000	 8.472255637093004e-001	 1.308686803575251e+001
 1.540996705231507e+000	 8.639645145005013e-001	 1.305334528483652e+001
 1.630910215854901e+000	 6.963034878668630e-001	 1.320237182070228e+001
 1.623396791835816e+000	 7.136453022303302e-001	 1.320909350829631e+001
 1.615683350255351e+000	 7.309405839267845e-001	 1.320956452938860e+001
 1.607770070751310e+000	 7.481859875168831e-001	 1.320420631005429e+001
 1.599657205416376e+000	 7.653781591256081e-001	 1.319345129420775e+001
 1.591345079347454e+000	 7.825137383518612e-001	 1.317774005590917e+001
 1.582834091136160e+000	 7.995893602056818e-001	 1.315751797307350e+001
 1.574124713299071e+000	 8.166016570710337e-001	 1.313323145280199e+001
 1.565217492646447e+000	 8.335472606920200e-001	 1.310532370204878e+001
 1.556113050588172e+000	 8.504228041803321e-001	 1.307423004109876e+001
 1.546812083375814e+000	 8.672249240416514e-001	 1.304037276134629e+001
 1.637041768441332e+000	 6.989213030053300e-001	 1.318664848454648e+001
 1.629500097033497e+000	 7.163283154684836e-001	 1.319419989271571e+001
 1.621757656080346e+000	 7.336886203209018e-001	 1.319540919237822e+001
 1.613814625895058e+000	 7.509988595457676e-001	 1.319068236266009e+001
 1.605671259518095e+000	 7.682556666588754e-001	 1.318043894817948e+001
 1.597327883268604e+000	 7.854556686254028e-001	 1.316510920977834e+001
 1.588784897236754e+000	 8.025954878044141e-001	 1.314513082298512e+001
 1.580042775715603e+000	 8.196717439190239e-001	 1.312094511367075e+001
 1.571102067571203e+000	 8.366810560500813e-001	 1.309299282393102e+001
 1.561963396549698e+000	 8.536200446511639e-001	 1.306170940507931e+001
 1.552627461520289e+000	 8.704853335826015e-001	 1.302751983874341e+001
 1.643173321027709e+000	 7.015391181434645e-001	 1.317167831252945e+001
 1.635603402231177e+000	 7.190113287062864e-001	 1.317994232435696e+001
 1.627831961905391e+000	 7.364366567146536e-001	 1.318178207592080e+001
 1.619859181038904e+000	 7.538117315742755e-001	 1.317758900467299e+001
 1.611685313619956e+000	 7.711331741917576e-001	 1.316777071095093e+001
 1.603310687189938e+000	 7.883975988985532e-001	 1.315274814729687e+001
 1.594735703337569e+000	 8.056016154027513e-001	 1.313295234154316e+001
 1.585960838132388e+000	 8.227418307666160e-001	 1.310882064235018e+001
 1.576986642496242e+000	 8.398148514077428e-001	 1.308079247953283e+001
 1.567813742511534e+000	 8.568172851215961e-001	 1.304930463545269e+001
 1.558442839665096e+000	 8.737457431231520e-001	 1.301478602795964e+001
 1.649304873614048e+000	 7.041569332811017e-001	 1.315745824943933e+001
 1.641706707428888e+000	 7.216943419435641e-001	 1.316631682318549e+001
 1.633906267730533e+000	 7.391846931078582e-001	 1.316867855979722e+001
 1.625903736182912e+000	 7.566246036022185e-001	 1.316492124139199e+001
 1.617699367722041e+000	 7.740106817240621e-001	 1.315544146027914e+001
 1.609293491111552e+000	 7.913395291711169e-001	 1.314065184709193e+001
 1.600686509438716e+000	 8.086077430004947e-001	 1.312097781842519e+001
 1.591878900549555e+000	 8.258119176136108e-001	 1.309685383186908e+001
 1.582871217421709e+000	 8.429486467648052e-001	 1.306871914006193e+001
 1.573664088473836e+000	 8.600145255914281e-001	 1.303701303941590e+001
 1.564258217810401e+000	 8.770061526631022e-001	 1.300216961347540e+001
 1.655436426200365e+000	 7.067747484180751e-001	 1.314398418378524e+001
 1.647810012626662e+000	 7.243773551801414e-001	 1.315331834606859e+001
 1.639980573555821e+000	 7.419327295003327e-001	 1.315609295175981e+001
 1.631948291327146e+000	 7.594374756294089e-001	 1.315267299504195e+001
 1.623713421824428e+000	 7.768881892555959e-001	 1.314344497769154e+001
 1.615276295033542e+000	 7.942814594428974e-001	 1.312881417631279e+001
 1.606637315540310e+000	 8.116138705974469e-001	 1.310920141451757e+001
 1.597796962967233e+000	 8.288820044598098e-001	 1.308503932712737e+001
 1.588755792347744e+000	 8.460824421210691e-001	 1.305676810728856e+001
 1.579514434436758e+000	 8.632117660604604e-001	 1.302483073151557e+001
 1.570073595956371e+000	 8.802665622022525e-001	 1.298966766208412e+001
 1.511919814506641e+000	 8.476624667987508e-001	 1.311993216030273e+001
 1.502635909414624e+000	 8.640129693766441e-001	 1.308542783388340e+001
 1.493161437663220e+000	 8.802851242522312e-001	 1.304730280530839e+001
 1.483497301674313e+000	 8.964756653057330e-001	 1.300617289183792e+001
 1.473644477357683e+000	 9.125813378375239e-001	 1.296266243868667e+001
 1.463604014020220e+000	 9.285989006069539e-001	 1.291739775425677e+001
 1.453377034207980e+000	 9.445251278751972e-001	 1.287100018001399e+001
 1.442964733480680e+000	 9.603568114495741e-001	 1.282407882593878e+001
 1.432368380118340e+000	 9.760907627267612e-001	 1.277722300680799e+001
 1.421589314759868e+000	 9.917238147322857e-001	 1.273099441880252e+001
 1.410628949973539e+000	 1.007252824153679e+000	 1.268591910004989e+001
 1.517735192652611e+000	 8.509228763379011e-001	 1.310639778559599e+001
 1.508415578379102e+000	 8.673362687296659e-001	 1.307153711599104e+001
 1.498904664459498e+000	 8.836710120661887e-001	 1.303324721394803e+001
 1.489203356786712e+000	 8.999238276650293e-001	 1.299213630664013e+001
 1.479312635024218e+000	 9.160914483078293e-001	 1.294882027119430e+001
 1.469233552514910e+000	 9.321706202869717e-001	 1.290391595725212e+001
 1.458967236122551e+000	 9.481581054562910e-001	 1.285803413459815e+001
 1.448514886005403e+000	 9.640506832832556e-001	 1.281177209719416e+001
 1.437877775321736e+000	 9.798451529000368e-001	 1.276570595939002e+001
 1.427057249867028e+000	 9.955383351508511e-001	 1.272038268443250e+001
 1.416054727642790e+000	 1.011127074632929e+000	 1.267631315502478e+001
 1.523550570797915e+000	 8.541832858778508e-001	 1.309296678150412e+001
 1.514195247342880e+000	 8.706595680834878e-001	 1.305775285998866e+001
 1.504647891255046e+000	 8.870568998809448e-001	 1.301929516444454e+001
 1.494909411898361e+000	 9.033719900251217e-001	 1.297819336201851e+001
 1.484980792689991e+000	 9.196015587789251e-001	 1.293505386056165e+001
 1.474863091008834e+000	 9.357423399677712e-001	 1.289048301880056e+001
 1.464557438036359e+000	 9.517910830381531e-001	 1.284507997180485e+001
 1.454065038529374e+000	 9.677445551176858e-001	 1.279942910349283e+001
 1.443387170524401e+000	 9.835995430740369e-001	 1.275409220246194e+001
 1.432525184973485e+000	 9.993528555701080e-001	 1.270960034189315e+001
 1.421480505311373e+000	 1.015001325112831e+000	 1.266644680306986e+001
 1.529365948942723e+000	 8.574436954184008e-001	 1.307964490865184e+001
 1.519974916306132e+000	 8.739828674379097e-001	 1.304408192505379e+001
 1.510391118050047e+000	 8.904427876963005e-001	 1.300545438558219e+001
 1.500615467009447e+000	 9.068201523858109e-001	 1.296435243809536e+001
 1.490648950355192e+000	 9.231116692506125e-001	 1.292137203163633e+001
 1.480492629502183e+000	 9.393140596491543e-001	 1.287710801449244e+001
 1.470147639949596e+000	 9.554240606205862e-001	 1.283214683757690e+001
 1.459615191052782e+000	 9.714384269526708e-001	 1.278705889527667e+001
 1.448896565726516e+000	 9.873539332485685e-001	 1.274239054056833e+001
 1.437993120079414e+000	 1.003167375989869e+000	 1.269865581578176e+001
 1.426906282979456e+000	 1.018875575593200e+000	 1.265632922242954e+001
 1.535181327087197e+000	 8.607041049593510e-001	 1.306643666345701e+001
 1.525754585269033e+000	 8.773061667927314e-001	 1.303052987699591e+001
 1.516134344844684e+000	 8.938286755120547e-001	 1.299173128742048e+001
 1.506321522120159e+000	 9.102683147468972e-001	 1.295062057447129e+001
 1.496317108020012e+000	 9.266217797226927e-001	 1.290778225027137e+001
 1.486122167995148e+000	 9.428857793309232e-001	 1.286379864554668e+001
 1.475737841862451e+000	 9.590570382033947e-001	 1.281924249098647e+001
 1.465165343575815e+000	 9.751322987880163e-001	 1.277466912628577e+001
 1.454405960928265e+000	 9.911083234234417e-001	 1.273060837418921e+001
 1.443461055184991e+000	 1.006981896409945e+000	 1.268755612154667e+001
 1.432332060647205e+000	 1.022749826073854e+000	 1.264596692930490e+001
 1.540996705231507e+000	 8.639645145005013e-001	 1.305334528483652e+001
 1.531534254231759e+000	 8.806294661477532e-001	 1.301710099579882e+001
 1.521877571639137e+000	 8.972145633280085e-001	 1.297813096954879e+001
 1.512027577230683e+000	 9.137164771081806e-001	 1.293700347907074e+001
 1.501985265684642e+000	 9.301318901949668e-001	 1.289429063264199e+001
 1.491751706487921e+000	 9.464574990128795e-001	 1.285056124848276e+001
 1.481328043775115e+000	 9.626900157863823e-001	 1.280637331414841e+001
 1.470715496098660e+000	 9.788261706235283e-001	 1.276226606360314e+001
 1.459915356129833e+000	 9.948627135984642e-001	 1.271875170980911e+001
 1.448928990290392e+000	 1.010796416830149e+000	 1.267630825115694e+001
 1.437757838314787e+000	 1.026624076554607e+000	 1.263536503754394e+001
 1.546812083375814e+000	 8.672249240416514e-001	 1.304037276134629e+001
 1.537313923194485e+000	 8.839527655027748e-001	 1.300379828358600e+001
 1.527620798433591e+000	 9.006004511439616e-001	 1.296465722975520e+001
 1.517733632341208e+000	 9.171646394694619e-001	 1.292350553739475e+001
 1.507653423349271e+000	 9.336420006672358e-001	 1.288090195496540e+001
 1.497381244980695e+000	 9.500292186948257e-001	 1.283740080519241e+001
 1.486918245687779e+000	 9.663229933693520e-001	 1.279354432253269e+001
 1.476265648621504e+000	 9.825200424590115e-001	 1.274985459809864e+001
 1.465424751331400e+000	 9.986171037734436e-001	 1.270682517038736e+001
 1.454396925395793e+000	 1.014610937250293e+000	 1.266491367453297e+001
 1.443183615982369e+000	 1.030498327035279e+000	 1.262452726886233e+001
 1.552627461520289e+000	 8.704853335826015e-001	 1.302751983874341e+001
 1.543093592157386e+000	 8.872760648575966e-001	 1.299062347299795e+001
 1.533364025228227e+000	 9.039863389597144e-001	 1.295131257309940e+001
 1.523439687451919e+000	 9.206128018305413e-001	 1.291012982217118e+001
 1.513321581014091e+000	 9.371521111393001e-001	 1.286761966361286e+001
 1.503010783473660e+000	 9.536009383765636e-001	 1.282432095340105e+001
 1.492508447600634e+000	 9.699559709521071e-001	 1.278075917566467e+001
 1.481815801144537e+000	 9.862139142942725e-001	 1.273743825526122e+001
 1.470934146533150e+000	 1.002371493948190e+000	 1.269483200621795e+001
 1.459864860501370e+000	 1.018425457670188e+000	 1.265337661853853e+001
 1.448609393650117e+000	 1.034372577515684e+000	 1.261345596346269e+001
 1.558442839665096e+000	 8.737457431231520e-001	 1.301478602795964e+001
 1.548873261120638e+000	 8.905993642120184e-001	 1.297757703597094e+001
 1.539107252023228e+000	 9.073722267750666e-001	 1.293809822137832e+001
 1.529145742563005e+000	 9.240609641912194e-001	 1.289687810339152e+001
 1.518989738679292e+000	 9.406622216109617e-001	 1.285444588560405e+001
 1.508640321967009e+000	 9.571726580578954e-001	 1.281132399750836e+001
 1.498098649513870e+000	 9.735889485344519e-001	 1.276802018820337e+001
 1.487365953667945e+000	 9.899077861291162e-001	 1.272501920640953e+001
 1.476443541735266e+000	 1.006125884122511e+000	 1.268277410617001e+001
 1.465332795607299e+000	 1.022239978089648e+000	 1.264169856637359e+001
 1.454035171318200e+000	 1.038246827995640e+000	 1.260215209104079e+001
 1.564258217810401e+000	 8.770061526631022e-001	 1.300216961347540e+001
 1.554652930084415e+000	 8.939226635658399e-001	 1.296465819290632e+001
 1.544850478818776e+000	 9.107581145898186e-001	 1.292501412297455e+001
 1.534851797674654e+000	 9.275091265512968e-001	 1.288375085872455e+001
 1.524657896345065e+000	 9.441723320820211e-001	 1.284138143947368e+001
 1.514269860460932e+000	 9.607443777386230e-001	 1.279841091979829e+001
 1.503688851427678e+000	 9.772219261161892e-001	 1.275532834138819e+001
 1.492916106191916e+000	 9.936016579633485e-001	 1.271259828027076e+001
 1.481952936937929e+000	 1.009880274296215e+000	 1.267065200929803e+001
 1.470800730713755e+000	 1.026054498508483e+000	 1.262987964594915e+001
 1.459460948986784e+000	 1.042121078474962e+000	 1.259061526216940e+001
 1.570073595956371e+000	 8.802665622022525e-001	 1.298966766208412e+001
 1.560432599048893e+000	 8.972459629188613e-001	 1.295186492222063e+001
 1.550593705615053e+000	 9.141440024037704e-001	 1.291205896307811e+001
 1.540557852787052e+000	 9.309572889105736e-001	 1.287074728429665e+001
 1.530326054011600e+000	 9.476824425522793e-001	 1.282842584650046e+001
 1.519899398955622e+000	 9.643160974185487e-001	 1.278558139200893e+001
 1.509279053342249e+000	 9.808549036971231e-001	 1.274268329484408e+001
 1.498466258716638e+000	 9.972955297967757e-001	 1.270017497491867e+001
 1.487462332141325e+000	 1.013634664469111e+000	 1.265846635319289e+001
 1.476268665820915e+000	 1.029869018926507e+000	 1.261791864179521e+001
 1.464886726656035e+000	 1.045995328953468e+000	 1.257884374004958e+001
 1.410628949973539e+000	 1.007252824153679e+000	 1.268591910004989e+001
 1.399488769361377e+000	 1.022674673023736e+000	 1.263944926503783e+001
 1.388170325810758e+000	 1.037986269689500e+000	 1.258852931149961e+001
 1.376675242076157e+000	 1.053184551797793e+000	 1.253282152040115e+001
 1.365005210482521e+000	 1.068266488614319e+000	 1.247187835512760e+001
 1.353161992161219e+000	 1.083229082987748e+000	 1.240513652471807e+001
 1.341147416219812e+000	 1.098069373291773e+000	 1.233190999724256e+001
 1.328963378846395e+000	 1.112784435342554e+000	 1.225156678999842e+001
 1.316611842349339e+000	 1.127371384288980e+000	 1.216497689120391e+001
 1.304094834133428e+000	 1.141827376473227e+000	 1.207068634671033e+001
 1.291414445613439e+000	 1.156149611259114e+000	 1.196637323275387e+001
 1.416054727642790e+000	 1.011127074632929e+000	 1.267631315502478e+001
 1.404871697957502e+000	 1.026608241386256e+000	 1.263077840659134e+001
 1.393509719671491e+000	 1.041978731866286e+000	 1.258060553855270e+001
 1.381970421780917e+000	 1.057235471940954e+000	 1.252550844595177e+001
 1.370255503120003e+000	 1.072375419218692e+000	 1.246509379139271e+001
 1.358366731594048e+000	 1.087395565020072e+000	 1.239885352819819e+001
 1.346305943346006e+000	 1.102292936327329e+000	 1.232615761571664e+001
 1.334075041857377e+000	 1.117064597709183e+000	 1.224624699169884e+001
 1.321675996984263e+000	 1.131707653218370e+000	 1.215942448285866e+001
 1.309110843929558e+000	 1.146219248259358e+000	 1.206551455523327e+001
 1.296381682152357e+000	 1.160596571423735e+000	 1.196224918148910e+001
 1.421480505311373e+000	 1.015001325112831e+000	 1.266644680306986e+001
 1.410254626553004e+000	 1.030541809749378e+000	 1.262175905335979e+001
 1.398849113531651e+000	 1.045971194043619e+000	 1.257225831568068e+001
 1.387265601485157e+000	 1.061286392084600e+000	 1.251771217835597e+001
 1.375505795757022e+000	 1.076484349823485e+000	 1.245778239112396e+001
 1.363571471026473e+000	 1.091562047052749e+000	 1.239201709259027e+001
 1.351464470471854e+000	 1.106516499363172e+000	 1.231984322163592e+001
 1.339186704868070e+000	 1.121344760076036e+000	 1.224055917933219e+001
 1.326740151618949e+000	 1.136043922147925e+000	 1.215372398374575e+001
 1.314126853725497e+000	 1.150611120045603e+000	 1.206009104899630e+001
 1.301348918691124e+000	 1.165043531588422e+000	 1.195779715564664e+001
 1.426906282979456e+000	 1.018875575593200e+000	 1.265632922242954e+001
 1.415637555148037e+000	 1.034475378112925e+000	 1.261239885515997e+001
 1.404188507391379e+000	 1.049963656221326e+000	 1.256349555358801e+001
 1.392560781189007e+000	 1.065337312228566e+000	 1.250944142549795e+001
 1.380756088393693e+000	 1.080593280428541e+000	 1.244995419252690e+001
 1.368776210458593e+000	 1.095728529085633e+000	 1.238463911636087e+001
 1.356622997597439e+000	 1.110740062399165e+000	 1.231298110036297e+001
 1.344298367878539e+000	 1.125624922442983e+000	 1.223433703484401e+001
 1.331804306253448e+000	 1.140380191077526e+000	 1.214794981060609e+001
 1.319142863521279e+000	 1.155002991831848e+000	 1.205449342783575e+001
 1.306316155229757e+000	 1.169490491753078e+000	 1.195309885725711e+001
 1.432332060647205e+000	 1.022749826073854e+000	 1.264596692930490e+001
 1.421020483742758e+000	 1.038408946476717e+000	 1.260270404378094e+001
 1.409527901250820e+000	 1.053956118399235e+000	 1.255432373147085e+001
 1.397855960892595e+000	 1.069388232372687e+000	 1.250070344284645e+001
 1.386006381030130e+000	 1.084702211033705e+000	 1.244161775326994e+001
 1.373980949890507e+000	 1.099895011118573e+000	 1.237672998233419e+001
 1.361781524722843e+000	 1.114963625435166e+000	 1.230558397977782e+001
 1.349410030888850e+000	 1.129905084809896e+000	 1.222759614787398e+001
 1.336868460887806e+000	 1.144716460007051e+000	 1.214204777198257e+001
 1.324158873316935e+000	 1.159394863617986e+000	 1.204879650647604e+001
 1.311283391768273e+000	 1.173937451917599e+000	 1.194823321895418e+001
 1.437757838314787e+000	 1.026624076554607e+000	 1.263536503754394e+001
 1.426403412337323e+000	 1.042342514840577e+000	 1.259267944261273e+001
 1.414867295110117e+000	 1.057948580577176e+000	 1.254474790654720e+001
 1.403151140596052e+000	 1.073439152516799e+000	 1.249150404297008e+001
 1.391256673666448e+000	 1.088811141638818e+000	 1.243278016006601e+001
 1.379185689322312e+000	 1.104061493151422e+000	 1.236829856741862e+001
 1.366940051848146e+000	 1.119187188471039e+000	 1.229766304022726e+001
 1.354521693899067e+000	 1.134185247176644e+000	 1.222035051251781e+001
 1.341932615522074e+000	 1.149052728936382e+000	 1.213570307284941e+001
 1.329174883112497e+000	 1.163786735403905e+000	 1.204307216125690e+001
 1.316250628306690e+000	 1.178384412081889e+000	 1.194327625236830e+001
 1.443183615982369e+000	 1.030498327035279e+000	 1.262452726886233e+001
 1.431786340931887e+000	 1.046276083204328e+000	 1.258232847668759e+001
 1.420206688969413e+000	 1.061941042754976e+000	 1.253477172400087e+001
 1.408446320299508e+000	 1.077490072660739e+000	 1.248184760546422e+001
 1.396506966302761e+000	 1.092920072243724e+000	 1.242344703866118e+001
 1.384390428754105e+000	 1.108227975184033e+000	 1.235935225273416e+001
 1.372098578973432e+000	 1.123410751506642e+000	 1.228922792486453e+001
 1.359633356909255e+000	 1.138465409543098e+000	 1.221261253795185e+001
 1.346996770156299e+000	 1.153388997865399e+000	 1.212891003483933e+001
 1.334190892908001e+000	 1.168178607189497e+000	 1.203738184589084e+001
 1.321217864845022e+000	 1.182831372245845e+000	 1.193830089684746e+001
 1.448609393650117e+000	 1.034372577515684e+000	 1.261345596346269e+001
 1.437169269526609e+000	 1.050209651567791e+000	 1.257165318312251e+001
 1.425546082828852e+000	 1.065933504932463e+000	 1.252439742732766e+001
 1.413741500003090e+000	 1.081540992804341e+000	 1.247173708727927e+001
 1.401757258939182e+000	 1.097029002848268e+000	 1.241362256422021e+001
 1.389595168185988e+000	 1.112394457216257e+000	 1.234989693412899e+001
 1.377257106098781e+000	 1.127634314541839e+000	 1.228028675036907e+001
 1.364745019919480e+000	 1.142745571909127e+000	 1.220439305942608e+001
 1.352060924790529e+000	 1.157725266793980e+000	 1.212168270695214e+001
 1.339206902703474e+000	 1.172570478974651e+000	 1.203148001288841e+001
 1.326185101383289e+000	 1.187278332409369e+000	 1.193337686849607e+001
 1.454035171318200e+000	 1.038246827995640e+000	 1.260215209104079e+001
 1.442552198121641e+000	 1.054143219930787e+000	 1.256065422195293e+001
 1.430885476688577e+000	 1.069925967109467e+000	 1.251362586907384e+001
 1.419036679706928e+000	 1.085591912947441e+000	 1.246117403343828e+001
 1.407007551575826e+000	 1.101137933452291e+000	 1.240330947209791e+001
 1.394799907618056e+000	 1.116560939247946e+000	 1.233993703307531e+001
 1.382415633224277e+000	 1.131857877576488e+000	 1.227084611803675e+001
 1.369856682929806e+000	 1.147025734274602e+000	 1.219570134961555e+001
 1.357125079424815e+000	 1.162061535722006e+000	 1.211403352251350e+001
 1.344222912498953e+000	 1.176962350759256e+000	 1.202523091914901e+001
 1.331152337921506e+000	 1.191725292572359e+000	 1.192857050952404e+001
 1.459460948986784e+000	 1.042121078474962e+000	 1.259061526216940e+001
 1.447935126717141e+000	 1.058076788293140e+000	 1.254933088734749e+001
 1.436224870548732e+000	 1.073918429285816e+000	 1.250245652195601e+001
 1.424331859411153e+000	 1.089642833089873e+000	 1.245015858813602e+001
 1.412257844212809e+000	 1.105246864055639e+000	 1.239250906898656e+001
 1.400004647050408e+000	 1.120727421278952e+000	 1.232947550793517e+001
 1.387574160350000e+000	 1.136081440610451e+000	 1.226091112523027e+001
 1.374968345940299e+000	 1.151305896639394e+000	 1.218654513032118e+001
 1.362189234059203e+000	 1.166397804649358e+000	 1.210597331118921e+001
 1.349238922294467e+000	 1.181354222543202e+000	 1.201864898343399e+001
 1.336119574459690e+000	 1.196172252734715e+000	 1.192387438306097e+001
 1.464886726656035e+000	 1.045995328953468e+000	 1.257884374004958e+001
 1.453318055313266e+000	 1.062010356654672e+000	 1.253768111919362e+001
 1.441564264409459e+000	 1.077910891461337e+000	 1.249088749035366e+001
 1.429627039115891e+000	 1.093693753231475e+000	 1.243868950620737e+001
 1.417508136850242e+000	 1.109355794658154e+000	 1.238122124443009e+001
 1.405209386483143e+000	 1.124893903309127e+000	 1.231851386558576e+001
 1.392732687476031e+000	 1.140305003643589e+000	 1.225048537718117e+001
 1.380080008951025e+000	 1.155586059003373e+000	 1.217693058451071e+001
 1.367253388693743e+000	 1.170734073575915e+000	 1.209751131132632e+001
 1.354254932090051e+000	 1.185746094326380e+000	 1.201174697520447e+001
 1.341086810997859e+000	 1.200619212896339e+000	 1.191900560371037e+001
 1.291414445613439e+000	 1.156149611259114e+000	 1.196637323275387e+001
 1.278574769382549e+000	 1.170333215629018e+000	 1.186296152138204e+001
 1.265576131551744e+000	 1.184377640798316e+000	 1.177093142821311e+001
 1.252420808518344e+000	 1.198280228121825e+000	 1.168714775319019e+001
 1.239111135684223e+000	 1.212038368913644e+000	 1.160840958221862e+001
 1.225649506076354e+000	 1.225649506076354e+000	 1.153149148536323e+001
 1.212038368913644e+000	 1.239111135684222e+000	 1.145318604879691e+001
 1.198280228121825e+000	 1.252420808518344e+000	 1.137034742390900e+001
 1.184377640798316e+000	 1.265576131551744e+000	 1.127993556449448e+001
 1.170333215629018e+000	 1.278574769382549e+000	 1.117906081294218e+001
 1.156149611259114e+000	 1.291414445613438e+000	 1.106502848893916e+001
 1.296381682152357e+000	 1.160596571423735e+000	 1.196224918148910e+001
 1.283492619987396e+000	 1.174834730950531e+000	 1.186052627234479e+001
 1.270443984799997e+000	 1.188933175944304e+000	 1.177067233191927e+001
 1.257238061743312e+000	 1.202889237533783e+000	 1.168939774596237e+001
 1.243877195201993e+000	 1.216700296999137e+000	 1.161333909184917e+001
 1.230363787407445e+000	 1.230363787407445e+000	 1.153910153080263e+001
 1.216700296999137e+000	 1.243877195201994e+000	 1.146330258902182e+001
 1.202889237533783e+000	 1.257238061743312e+000	 1.138261700328842e+001
 1.188933175944304e+000	 1.270443984799997e+000	 1.129382229374326e+001
 1.174834730950530e+000	 1.283492619987395e+000	 1.119384471619615e+001
 1.160596571423735e+000	 1.296381682152357e+000	 1.107980523865422e+001
 1.301348918691124e+000	 1.165043531588422e+000	 1.195779715564664e+001
 1.288410470592122e+000	 1.179336246272075e+000	 1.185768883896110e+001
 1.275311838048155e+000	 1.193488711090297e+000	 1.176991236884889e+001
 1.262055314968202e+000	 1.207498246945725e+000	 1.169102198207192e+001
 1.248643254719702e+000	 1.221362225084596e+000	 1.161748982252569e+001
 1.235078068738490e+000	 1.235078068738489e+000	 1.154574954973867e+001
 1.221362225084597e+000	 1.248643254719702e+000	 1.147224139276643e+001
 1.207498246945725e+000	 1.262055314968202e+000	 1.139345831707031e+001
 1.193488711090297e+000	 1.275311838048155e+000	 1.130599295869428e+001
 1.179336246272075e+000	 1.288410470592122e+000	 1.120658496938281e+001
 1.165043531588422e+000	 1.301348918691123e+000	 1.109216840833043e+001
 1.306316155229757e+000	 1.169490491753078e+000	 1.195309885725711e+001
 1.293328321196732e+000	 1.183837761593561e+000	 1.185453570330216e+001
 1.280179691296205e+000	 1.198044246236214e+000	 1.176874324527529e+001
 1.266872568192991e+000	 1.212107256357580e+000	 1.169211780445737e+001
 1.253409314237314e+000	 1.226024153169964e+000	 1.162096513036283e+001
 1.239792350069438e+000	 1.239792350069438e+000	 1.155154524808302e+001
 1.226024153169964e+000	 1.253409314237314e+000	 1.148011880887100e+001
 1.212107256357580e+000	 1.266872568192991e+000	 1.140299460343028e+001
 1.198044246236215e+000	 1.280179691296205e+000	 1.131657788368453e+001
 1.183837761593561e+000	 1.293328321196732e+000	 1.121741912779124e+001
 1.169490491753078e+000	 1.306316155229757e+000	 1.110226287492225e+001
 1.311283391768273e+000	 1.173937451917599e+000	 1.194823321895418e+001
 1.298246171801226e+000	 1.188339276914900e+000	 1.185115060749868e+001
 1.285047544544136e+000	 1.202599781381977e+000	 1.176725397330112e+001
 1.271689821417654e+000	 1.216716265769280e+000	 1.169277992333655e+001
 1.258175373754790e+000	 1.230686081255180e+000	 1.162386581518495e+001
 1.244506631400244e+000	 1.244506631400243e+000	 1.155659586610573e+001
 1.230686081255180e+000	 1.258175373754790e+000	 1.148704882458259e+001
 1.216716265769280e+000	 1.271689821417654e+000	 1.141134685552443e+001
 1.202599781381977e+000	 1.285047544544136e+000	 1.132570527620802e+001
 1.188339276914900e+000	 1.298246171801226e+000	 1.122648276867676e+001
 1.173937451917600e+000	 1.311283391768273e+000	 1.111023168578288e+001
 1.316250628306690e+000	 1.178384412081889e+000	 1.194327625236830e+001
 1.303164022405607e+000	 1.192840792236000e+000	 1.184761440400589e+001
 1.289915397791938e+000	 1.207155316527504e+000	 1.176553072314128e+001
 1.276507074642168e+000	 1.221325275180754e+000	 1.169310027064959e+001
 1.262941433272095e+000	 1.235348009340186e+000	 1.162628997726932e+001
 1.249220912730856e+000	 1.249220912730856e+000	 1.156100603761683e+001
 1.235348009340186e+000	 1.262941433272095e+000	 1.149314292730820e+001
 1.221325275180754e+000	 1.276507074642168e+000	 1.141863368594486e+001
 1.207155316527504e+000	 1.289915397791938e+000	 1.133350109419828e+001
 1.192840792235999e+000	 1.303164022405607e+000	 1.123390936149268e+001
 1.178384412081889e+000	 1.316250628306690e+000	 1.111621593196157e+001
 1.321217864845022e+000	 1.182831372245845e+000	 1.193830089684746e+001
 1.308081873009877e+000	 1.197342307556770e+000	 1.184400490617634e+001
 1.294783251039599e+000	 1.211710851672715e+000	 1.176365667569232e+001
 1.281324327866507e+000	 1.225934284591933e+000	 1.169316785476904e+001
 1.267707492789194e+000	 1.240009937424922e+000	 1.162833287433719e+001
 1.253935194061230e+000	 1.253935194061230e+000	 1.156487764937559e+001
 1.240009937424922e+000	 1.267707492789194e+000	 1.149850996657690e+001
 1.225934284591933e+000	 1.281324327866507e+000	 1.142497119136457e+001
 1.211710851672716e+000	 1.294783251039599e+000	 1.134008891348289e+001
 1.197342307556771e+000	 1.308081873009878e+000	 1.123983013827534e+001
 1.182831372245845e+000	 1.321217864845022e+000	 1.112035462163722e+001
 1.326185101383289e+000	 1.187278332409369e+000	 1.193337686849607e+001
 1.312999723614040e+000	 1.201843822877124e+000	 1.184039673913070e+001
 1.299651104287106e+000	 1.216266386817533e+000	 1.176171187538128e+001
 1.286141581090649e+000	 1.230543294002748e+000	 1.169306861546959e+001
 1.272473552306048e+000	 1.244671865509330e+000	 1.163008677878604e+001
 1.258649475391316e+000	 1.258649475391316e+000	 1.156830970072309e+001
 1.244671865509330e+000	 1.272473552306049e+000	 1.150325601620646e+001
 1.230543294002748e+000	 1.286141581090648e+000	 1.143047281736856e+001
 1.216266386817532e+000	 1.299651104287106e+000	 1.134558979540564e+001
 1.201843822877123e+000	 1.312999723614040e+000	 1.124437396417984e+001
 1.187278332409369e+000	 1.326185101383289e+000	 1.112278455368265e+001
 1.331152337921506e+000	 1.191725292572359e+000	 1.192857050952404e+001
 1.317917574218097e+000	 1.206345338196968e+000	 1.183686119091931e+001
 1.304518957534450e+000	 1.220821921961874e+000	 1.175977308328580e+001
 1.290958834314567e+000	 1.235152303413128e+000	 1.169288527915120e+001
 1.277239611822623e+000	 1.249333793593351e+000	 1.163164083515648e+001
 1.263363756721067e+000	 1.263363756721067e+000	 1.157139816343046e+001
 1.249333793593351e+000	 1.277239611822623e+000	 1.150748423666831e+001
 1.235152303413128e+000	 1.290958834314567e+000	 1.143524922346634e+001
 1.220821921961874e+000	 1.304518957534450e+000	 1.135012215461217e+001
 1.206345338196968e+000	 1.317917574218097e+000	 1.124766720816000e+001
 1.191725292572359e+000	 1.331152337921506e+000	 1.112364019135804e+001
 1.336119574459690e+000	 1.196172252734715e+000	 1.192387438306097e+001
 1.322835424822050e+000	 1.210846853516214e+000	 1.183346606396717e+001
 1.309386810781618e+000	 1.225377457105661e+000	 1.175791363051964e+001
 1.295776087538239e+000	 1.239761312823005e+000	 1.169269721430880e+001
 1.282005671338881e+000	 1.253995721676927e+000	 1.163308091782740e+001
 1.268078038050434e+000	 1.268078038050434e+000	 1.157423584175899e+001
 1.253995721676926e+000	 1.282005671338881e+000	 1.151129473764627e+001
 1.239761312823005e+000	 1.295776087538239e+000	 1.143940814828000e+001
 1.225377457105661e+000	 1.309386810781618e+000	 1.135380162699447e+001
 1.210846853516214e+000	 1.322835424822051e+000	 1.124983361379178e+001
 1.196172252734716e+000	 1.336119574459690e+000	 1.112361118632707e+001
 1.341086810997859e+000	 1.200619212896339e+000	 1.191900560371037e+001
 1.327753275425902e+000	 1.215348368834772e+000	 1.183027552679447e+001
 1.314254664028600e+000	 1.229932992248813e+000	 1.175620327187532e+001
 1.300593340761641e+000	 1.244370322232309e+000	 1.169258028724201e+001
 1.286771730854787e+000	 1.258657649759996e+000	 1.163448948893487e+001
 1.272792319379371e+000	 1.272792319379371e+000	 1.157691223272516e+001
 1.258657649759996e+000	 1.286771730854787e+000	 1.151478444078349e+001
 1.244370322232309e+000	 1.300593340761641e+000	 1.144305427490417e+001
 1.229932992248813e+000	 1.314254664028600e+000	 1.135674093779043e+001
 1.215348368834772e+000	 1.327753275425902e+000	 1.125099417023415e+001
 1.200619212896339e+000	 1.341086810997858e+000	 1.112534371359439e+001
 1.156149611259114e+000	 1.291414445613438e+000	 1.106502848893916e+001
 1.141827376473228e+000	 1.304094834133428e+000	 1.093995251198477e+001
 1.127371384288980e+000	 1.316611842349339e+000	 1.080487949458727e+001
 1.112784435342554e+000	 1.328963378846395e+000	 1.065583864764241e+001
 1.098069373291773e+000	 1.341147416219812e+000	 1.049487615587443e+001
 1.083229082987748e+000	 1.353161992161219e+000	 1.033936550448688e+001
 1.068266488614319e+000	 1.365005210482521e+000	 1.018950582584715e+001
 1.053184551797793e+000	 1.376675242076157e+000	 1.004389152895543e+001
 1.037986269689500e+000	 1.388170325810758e+000	 9.901187481047764e+000
 1.022674673023736e+000	 1.399488769361377e+000	 9.760122381664152e+000
 1.007252824153679e+000	 1.410628949973538e+000	 9.619474456504024e+000
 1.160596571423735e+000	 1.296381682152357e+000	 1.107980523865422e+001
 1.146219248259359e+000	 1.309110843929558e+000	 1.095343428524255e+001
 1.131707653218370e+000	 1.321675996984262e+000	 1.081552048847052e+001
 1.117064597709183e+000	 1.334075041857377e+000	 1.066215666072807e+001
 1.102292936327329e+000	 1.346305943346006e+000	 1.050506905019346e+001
 1.087395565020072e+000	 1.358366731594048e+000	 1.035424831994616e+001
 1.072375419218692e+000	 1.370255503120003e+000	 1.020826402612824e+001
 1.057235471940954e+000	 1.381970421780917e+000	 1.006576635530996e+001
 1.041978731866286e+000	 1.393509719671491e+000	 9.925479415155937e+000
 1.026608241386256e+000	 1.404871697957502e+000	 9.786194264737967e+000
 1.011127074632929e+000	 1.416054727642790e+000	 9.646761778485198e+000
 1.165043531588422e+000	 1.301348918691123e+000	 1.109216840833043e+001
 1.150611120045602e+000	 1.314126853725497e+000	 1.096410655793963e+001
 1.136043922147926e+000	 1.326740151618949e+000	 1.082295046481081e+001
 1.121344760076035e+000	 1.339186704868070e+000	 1.066778886229402e+001
 1.106516499363172e+000	 1.351464470471854e+000	 1.051589414688564e+001
 1.091562047052749e+000	 1.363571471026473e+000	 1.036942578307973e+001
 1.076484349823485e+000	 1.375505795757022e+000	 1.022701046684383e+001
 1.061286392084600e+000	 1.387265601485157e+000	 1.008735938045943e+001
 1.045971194043619e+000	 1.398849113531651e+000	 9.949261126883854e+000
 1.030541809749378e+000	 1.410254626553004e+000	 9.811574398786114e+000
 1.015001325112831e+000	 1.421480505311373e+000	 9.673220479262779e+000
 1.169490491753078e+000	 1.306316155229757e+000	 1.110226287492225e+001
 1.155002991831848e+000	 1.319142863521279e+000	 1.097212186368651e+001
 1.140380191077526e+000	 1.331804306253448e+000	 1.082733014519092e+001
 1.125624922442983e+000	 1.344298367878539e+000	 1.067444145545594e+001
 1.110740062399165e+000	 1.356622997597439e+000	 1.052738526692885e+001
 1.095728529085632e+000	 1.368776210458593e+000	 1.038494130260153e+001
 1.080593280428541e+000	 1.380756088393693e+000	 1.024579850349033e+001
 1.065337312228566e+000	 1.392560781189007e+000	 1.010873420723900e+001
 1.049963656221326e+000	 1.404188507391379e+000	 9.972606708557887e+000
 1.034475378112924e+000	 1.415637555148037e+000	 9.836347549361946e+000
 1.018875575593200e+000	 1.426906282979456e+000	 9.698953638719759e+000
 1.173937451917600e+000	 1.311283391768273e+000	 1.111023168578288e+001
 1.159394863617986e+000	 1.324158873316934e+000	 1.097763105899781e+001
 1.144716460007052e+000	 1.336868460887806e+000	 1.082986652867417e+001
 1.129905084809896e+000	 1.349410030888850e+000	 1.068213512168303e+001
 1.114963625435166e+000	 1.361781524722843e+000	 1.053957220255085e+001
 1.099895011118573e+000	 1.373980949890507e+000	 1.040083419155738e+001
 1.084702211033704e+000	 1.386006381030130e+000	 1.026467732263329e+001
 1.069388232372687e+000	 1.397855960892596e+000	 1.012995019127485e+001
 1.053956118399235e+000	 1.409527901250820e+000	 9.995585923339265e+000
 1.038408946476717e+000	 1.421020483742758e+000	 9.860594068562646e+000
 1.022749826073853e+000	 1.432332060647205e+000	 9.724052322107465e+000
 1.178384412081889e+000	 1.316250628306690e+000	 1.111621593196157e+001
 1.163786735403906e+000	 1.329174883112497e+000	 1.098078319985332e+001
 1.149052728936382e+000	 1.341932615522073e+000	 1.083363302089027e+001
 1.134185247176644e+000	 1.354521693899066e+000	 1.069088664313756e+001
 1.119187188471039e+000	 1.366940051848147e+000	 1.055248078719718e+001
 1.104061493151423e+000	 1.379185689322312e+000	 1.041713973712067e+001
 1.088811141638818e+000	 1.391256673666449e+000	 1.028369201156567e+001
 1.073439152516800e+000	 1.403151140596052e+000	 1.015106251052567e+001
 1.057948580577175e+000	 1.414867295110117e+000	 1.001826427465611e+001
 1.042342514840577e+000	 1.426403412337323e+000	 9.884389964344674e+000
 1.026624076554608e+000	 1.437757838314787e+000	 9.748603165118604e+000
 1.182831372245845e+000	 1.321217864845022e+000	 1.112035462163722e+001
 1.168178607189497e+000	 1.334190892908000e+000	 1.098178637143504e+001
 1.153388997865399e+000	 1.346996770156299e+000	 1.083882028058713e+001
 1.138465409543097e+000	 1.359633356909255e+000	 1.070070897292384e+001
 1.123410751506643e+000	 1.372098578973432e+000	 1.056613296553157e+001
 1.108227975184033e+000	 1.384390428754105e+000	 1.043388927039050e+001
 1.092920072243724e+000	 1.396506966302761e+000	 1.030288362793453e+001
 1.077490072660739e+000	 1.408446320299507e+000	 1.017212223475650e+001
 1.061941042754975e+000	 1.420206688969413e+000	 1.004070307553003e+001
 1.046276083204328e+000	 1.431786340931888e+000	 9.907806969696807e+000
 1.030498327035279e+000	 1.443183615982369e+000	 9.772688442885773e+000
 1.187278332409369e+000	 1.326185101383289e+000	 1.112278455368265e+001
 1.172570478974651e+000	 1.339206902703475e+000	 1.098324691924440e+001
 1.157725266793980e+000	 1.352060924790529e+000	 1.084542901174237e+001
 1.142745571909126e+000	 1.364745019919480e+000	 1.071161130540056e+001
 1.127634314541839e+000	 1.377257106098782e+000	 1.058054686347072e+001
 1.112394457216257e+000	 1.389595168185987e+000	 1.045111023619109e+001
 1.097029002848268e+000	 1.401757258939182e+000	 1.032228926933598e+001
 1.081540992804341e+000	 1.413741500003090e+000	 1.019317639494632e+001
 1.065933504932463e+000	 1.425546082828852e+000	 1.006295951780115e+001
 1.050209651567791e+000	 1.437169269526609e+000	 9.930912611673993e+000
 1.034372577515684e+000	 1.448609393650118e+000	 9.796386138805108e+000
 1.191725292572359e+000	 1.331152337921506e+000	 1.112364019135804e+001
 1.176962350759256e+000	 1.344222912498952e+000	 1.098647798748048e+001
 1.162061535722006e+000	 1.357125079424815e+000	 1.085345628153006e+001
 1.147025734274602e+000	 1.369856682929806e+000	 1.072359914655267e+001
 1.131857877576487e+000	 1.382415633224277e+000	 1.059573685825144e+001
 1.116560939247946e+000	 1.394799907618056e+000	 1.046882626287401e+001
 1.101137933452292e+000	 1.407007551575827e+000	 1.034194214287989e+001
 1.085591912947441e+000	 1.419036679706928e+000	 1.021426805263121e+001
 1.069925967109467e+000	 1.430885476688577e+000	 1.008508674125369e+001
 1.054143219930787e+000	 1.442552198121641e+000	 9.953770280297192e+000
 1.038246827995640e+000	 1.454035171318201e+000	 9.819770013188503e+000
 1.196172252734716e+000	 1.336119574459690e+000	 1.112361118632707e+001
 1.181354222543202e+000	 1.349238922294467e+000	 1.099146516605396e+001
 1.166397804649358e+000	 1.362189234059203e+000	 1.086289559113599e+001
 1.151305896639394e+000	 1.374968345940300e+000	 1.073667438442332e+001
 1.136081440610451e+000	 1.387574160349999e+000	 1.061171364852870e+001
 1.120727421278952e+000	 1.400004647050408e+000	 1.048705723212151e+001
 1.105246864055639e+000	 1.412257844212808e+000	 1.036187163472458e+001
 1.089642833089873e+000	 1.424331859411152e+000	 1.023543636918502e+001
 1.073918429285816e+000	 1.436224870548732e+000	 1.010713390264435e+001
 1.058076788293140e+000	 1.447935126717141e+000	 9.976439297320550e+000
 1.042121078474962e+000	 1.459460948986784e+000	 9.842909671749354e+000
 1.200619212896339e+000	 1.341086810997858e+000	 1.112534371359439e+001
 1.185746094326380e+000	 1.354254932090050e+000	 1.099819059229852e+001
 1.170734073575915e+000	 1.367253388693742e+000	 1.087373694665413e+001
 1.155586059003373e+000	 1.380080008951025e+000	 1.075083535960265e+001
 1.140305003643589e+000	 1.392732687476031e+000	 1.062848432450527e+001
 1.124893903309127e+000	 1.405209386483143e+000	 1.050581934875176e+001
 1.109355794658154e+000	 1.417508136850241e+000	 1.038210337958275e+001
 1.093693753231475e+000	 1.429627039115892e+000	 1.025671667503867e+001
 1.077910891461337e+000	 1.441564264409459e+000	 1.012914624463734e+001
 1.062010356654672e+000	 1.453318055313266e+000	 9.998974984871536e+000
 1.045995328953468e+000	 1.464886726656035e+000	 9.865870633926143e+000
 1.007252824153679e+000	 1.410628949973538e+000	 9.619474456504024e+000
 9.917238147322854e-001	 1.421589314759868e+000	 9.475079414033168e+000
 9.760907627267612e-001	 1.432368380118340e+000	 9.323744348760371e+000
 9.603568114495741e-001	 1.442964733480680e+000	 9.165812928156072e+000
 9.445251278751973e-001	 1.453377034207980e+000	 9.001663802462694e+000
 9.285989006069539e-001	 1.463604014020220e+000	 8.831701982174337e+000
 9.125813378375239e-001	 1.473644477357683e+000	 8.656350556325601e+000
 8.964756653057331e-001	 1.483497301674313e+000	 8.476042821250411e+000
 8.802851242522309e-001	 1.493161437663220e+000	 8.291214883019476e+000
 8.640129693766441e-001	 1.502635909414624e+000	 8.102298789826200e+000
 8.476624667987510e-001	 1.511919814506641e+000	 7.909716243253653e+000
 1.011127074632929e+000	 1.416054727642790e+000	 9.646761778485198e+000
 9.955383351508508e-001	 1.427057249867028e+000	 9.503105601369942e+000
 9.798451529000372e-001	 1.437877775321736e+000	 9.352160950471216e+000
 9.640506832832554e-001	 1.448514886005403e+000	 9.194326349265211e+000
 9.481581054562910e-001	 1.458967236122552e+000	 9.030043062630469e+000
 9.321706202869717e-001	 1.469233552514910e+000	 8.859779020277342e+000
 9.160914483078293e-001	 1.479312635024218e+000	 8.684020248929151e+000
 8.999238276650297e-001	 1.489203356786712e+000	 8.503262732231308e+000
 8.836710120661887e-001	 1.498904664459498e+000	 8.318004763520781e+000
 8.673362687296657e-001	 1.508415578379102e+000	 8.128739849450433e+000
 8.509228763379010e-001	 1.517735192652611e+000	 7.935950214908630e+000
 1.015001325112831e+000	 1.421480505311373e+000	 9.673220479262779e+000
 9.993528555701078e-001	 1.432525184973485e+000	 9.530233040054704e+000
 9.835995430740369e-001	 1.443387170524400e+000	 9.379644342054434e+000
 9.677445551176854e-001	 1.454065038529375e+000	 9.221908302338584e+000
 9.517910830381530e-001	 1.464557438036359e+000	 9.057521726132533e+000
 9.357423399677713e-001	 1.474863091008833e+000	 8.887008289138532e+000
 9.196015587789252e-001	 1.484980792689991e+000	 8.710909690664902e+000
 9.033719900251219e-001	 1.494909411898361e+000	 8.529777252175110e+000
 8.870568998809447e-001	 1.504647891255046e+000	 8.344164028331440e+000
 8.706595680834880e-001	 1.514195247342880e+000	 8.154617490265858e+000
 8.541832858778508e-001	 1.523550570797915e+000	 7.961672833032437e+000
 1.018875575593200e+000	 1.426906282979456e+000	 9.698953638719759e+000
 1.003167375989868e+000	 1.437993120079414e+000	 9.556567685922271e+000
 9.873539332485689e-001	 1.448896565726516e+000	 9.406310025969299e+000
 9.714384269526708e-001	 1.459615191052782e+000	 9.248683070598089e+000
 9.554240606205866e-001	 1.470147639949597e+000	 9.084232170487807e+000
 9.393140596491543e-001	 1.480492629502183e+000	 8.913529653061973e+000
 9.231116692506126e-001	 1.490648950355192e+000	 8.737165703407344e+000
 9.068201523858113e-001	 1.500615467009447e+000	 8.555739708747714e+000
 8.904427876963000e-001	 1.510391118050047e+000	 8.369852135509731e+000
 8.739828674379098e-001	 1.519974916306132e+000	 8.180097000458108e+000
 8.574436954184010e-001	 1.529365948942723e+000	 7.987054989390521e+000
 1.022749826073853e+000	 1.432332060647205e+000	 9.724052322107465e+000
 1.006981896409945e+000	 1.443461055184991e+000	 9.582210918350789e+000
 9.911083234234418e-001	 1.454405960928265e+000	 9.432268865067769e+000
 9.751322987880163e-001	 1.465165343575815e+000	 9.274770248341987e+000
 9.590570382033951e-001	 1.475737841862451e+000	 9.110302048016811e+000
 9.428857793309232e-001	 1.486122167995148e+000	 8.939478227109632e+000
 9.266217797226927e-001	 1.496317108020013e+000	 8.762930347148899e+000
 9.102683147468975e-001	 1.506321522120159e+000	 8.581298665652088e+000
 8.938286755120545e-001	 1.516134344844683e+000	 8.395223786760877e+000
 8.773061667927314e-001	 1.525754585269033e+000	 8.205338928278041e+000
 8.607041049593510e-001	 1.535181327087197e+000	 8.012262860134127e+000
 1.026624076554608e+000	 1.437757838314787e+000	 9.748603165118604e+000
 1.010796416830149e+000	 1.448928990290392e+000	 9.607266381754156e+000
 9.948627135984640e-001	 1.459915356129833e+000	 9.457627150872707e+000
 9.788261706235282e-001	 1.470715496098660e+000	 9.300284808365863e+000
 9.626900157863823e-001	 1.481328043775115e+000	 9.135854352167863e+000
 9.464574990128795e-001	 1.491751706487922e+000	 8.964984442123402e+000
 9.301318901949669e-001	 1.501985265684642e+000	 8.788340983535175e+000
 9.137164771081805e-001	 1.512027577230683e+000	 8.606597984517844e+000
 8.972145633280082e-001	 1.521877571639137e+000	 8.420428987554525e+000
 8.806294661477533e-001	 1.531534254231759e+000	 8.230499140282582e+000
 8.639645145005009e-001	 1.540996705231506e+000	 8.037457962087512e+000
 1.030498327035279e+000	 1.443183615982369e+000	 9.772688442885773e+000
 1.014610937250293e+000	 1.454396925395793e+000	 9.631812618040376e+000
 9.986171037734440e-001	 1.465424751331400e+000	 9.482486671612380e+000
 9.825200424590114e-001	 1.476265648621505e+000	 9.325337169115754e+000
 9.663229933693518e-001	 1.486918245687779e+000	 9.161007483558192e+000
 9.500292186948255e-001	 1.497381244980695e+000	 8.990174109448009e+000
 9.336420006672358e-001	 1.507653423349272e+000	 8.813530339089452e+000
 9.171646394694617e-001	 1.517733632341207e+000	 8.631776886476178e+000
 9.006004511439614e-001	 1.527620798433591e+000	 8.445613106921684e+000
 8.839527655027748e-001	 1.537313923194485e+000	 8.255728879254299e+000
 8.672249240416515e-001	 1.546812083375814e+000	 8.062797208715333e+000
 1.034372577515684e+000	 1.448609393650118e+000	 9.796386138805108e+000
 1.018425457670188e+000	 1.459864860501370e+000	 9.655944818386383e+000
 1.002371493948190e+000	 1.470934146533150e+000	 9.506944780017520e+000
 9.862139142942723e-001	 1.481815801144537e+000	 9.350033261581844e+000
 9.699559709521071e-001	 1.492508447600634e+000	 9.185875315736009e+000
 9.536009383765637e-001	 1.503010783473660e+000	 9.015168485361286e+000
 9.371521111392999e-001	 1.513321581014091e+000	 8.838626568136649e+000
 9.206128018305414e-001	 1.523439687451919e+000	 8.656970013426657e+000
 9.039863389597143e-001	 1.533364025228227e+000	 8.470916936941174e+000
 8.872760648575968e-001	 1.543093592157386e+000	 8.281174821808282e+000
 8.704853335826015e-001	 1.552627461520289e+000	 8.088432965778493e+000
 1.038246827995640e+000	 1.454035171318201e+000	 9.819770013188503e+000
 1.022239978089648e+000	 1.465332795607299e+000	 9.679746743079310e+000
 1.006125884122511e+000	 1.476443541735265e+000	 9.531094460886813e+000
 9.899077861291159e-001	 1.487365953667944e+000	 9.374474595937352e+000
 9.735889485344518e-001	 1.498098649513870e+000	 9.210567260672123e+000
 9.571726580578953e-001	 1.508640321967009e+000	 9.040084335220550e+000
 9.406622216109615e-001	 1.518989738679292e+000	 8.863753315431877e+000
 9.240609641912196e-001	 1.529145742563005e+000	 8.682307489003639e+000
 9.073722267750664e-001	 1.539107252023227e+000	 8.496476751922010e+000
 8.905993642120184e-001	 1.548873261120638e+000	 8.306979135695226e+000
 8.737457431231518e-001	 1.558442839665096e+000	 8.114513106686776e+000
 1.042121078474962e+000	 1.459460948986784e+000	 9.842909671749354e+000
 1.026054498508483e+000	 1.470800730713755e+000	 9.703297918179988e+000
 1.009880274296215e+000	 1.481952936937929e+000	 9.555024398426822e+000
 9.936016579633483e-001	 1.492916106191916e+000	 9.398758327931576e+000
 9.772219261161895e-001	 1.503688851427678e+000	 9.235188333987319e+000
 9.607443777386231e-001	 1.514269860460932e+000	 9.065033997331865e+000
 9.441723320820210e-001	 1.524657896345065e+000	 8.889029778505167e+000
 9.275091265512970e-001	 1.534851797674654e+000	 8.707914979250718e+000
 9.107581145898184e-001	 1.544850478818776e+000	 8.522424367290631e+000
 8.939226635658397e-001	 1.554652930084415e+000	 8.333279536808609e+000
 8.770061526631022e-001	 1.564258217810401e+000	 8.141181067555767e+000
 1.045995328953468e+000	 1.464886726656035e+000	 9.865870633926143e+000
 1.029869018926506e+000	 1.476268665820915e+000	 9.726673703377033e+000
 1.013634664469111e+000	 1.487462332141325e+000	 9.578825138889833e+000
 9.972955297967756e-001	 1.498466258716638e+000	 9.422977325041533e+000
 9.808549036971231e-001	 1.509279053342249e+000	 9.259839219922153e+000
 9.643160974185489e-001	 1.519899398955622e+000	 9.090125446549711e+000
 9.476824425522794e-001	 1.530326054011600e+000	 8.914570769725016e+000
 9.309572889105739e-001	 1.540557852787053e+000	 8.733913753010864e+000
 9.141440024037704e-001	 1.550593705615053e+000	 8.548887198190785e+000
 8.972459629188613e-001	 1.560432599048893e+000	 8.360209345901700e+000
 8.802665622022525e-001	 1.570073595956371e+000	 8.168575901976087e+000
 8.476624667987510e-001	 1.511919814506641e+000	 7.909716243253653e+000
 8.312393613581415e-001	 1.521010974816841e+000	 7.712955007532192e+000
 8.147444885464512e-001	 1.529910043095903e+000	 7.512722453579895e+000
 7.981811359858797e-001	 1.538616338798039e+000	 7.311352579757166e+000
 7.815525946160575e-001	 1.547129254530897e+000	 7.111182343870401e+000
 7.648621567133508e-001	 1.555448255818969e+000	 6.914544793328799e+000
 7.481131139287017e-001	 1.563572880804544e+000	 6.723762901760350e+000
 7.313087553462125e-001	 1.571502739887311e+000	 6.541144113171898e+000
 7.144523655646381e-001	 1.579237515303805e+000	 6.368975586895338e+000
 6.975472228038638e-001	 1.586776960647991e+000	 6.209520129002774e+000
 6.805965970383868e-001	 1.594120900334306e+000	 6.065012788648195e+000
 8.509228763379010e-001	 1.517735192652611e+000	 7.935950214908629e+000
 8.344366018271733e-001	 1.526861320779763e+000	 7.739349033749513e+000
 8.178782839027142e-001	 1.535794618021944e+000	 7.539730950480466e+000
 8.012512228320780e-001	 1.544534401215738e+000	 7.339280874623277e+000
 7.845587222130093e-001	 1.553080060632541e+000	 7.140184683796005e+000
 7.678040869851311e-001	 1.561431059741056e+000	 6.944622628687794e+000
 7.509906214602353e-001	 1.569586934907099e+000	 6.754763466724771e+000
 7.341216273734027e-001	 1.577547295031810e+000	 6.572759324727733e+000
 7.172004019571124e-001	 1.585311821129488e+000	 6.400741282817259e+000
 7.002302360404403e-001	 1.592880265846325e+000	 6.240815664058133e+000
 6.832144121753598e-001	 1.600252452921389e+000	 6.095061006927314e+000
 8.541832858778508e-001	 1.523550570797915e+000	 7.961672833032437e+000
 8.376338422970054e-001	 1.532711666742066e+000	 7.765253824147872e+000
 8.210120792597762e-001	 1.541679192947415e+000	 7.566237064642043e+000
 8.043213096790726e-001	 1.550452463632922e+000	 7.366664975767091e+000
 7.875648498107525e-001	 1.559030866733727e+000	 7.168578896207870e+000
 7.707460172576941e-001	 1.567413863662744e+000	 6.974012749991747e+000
 7.538681289925395e-001	 1.575600989009313e+000	 6.784987466163599e+000
 7.369344994013454e-001	 1.583591850176024e+000	 6.603506149763151e+000
 7.199484383503170e-001	 1.591386126954937e+000	 6.431549995381666e+000
 7.029132492777179e-001	 1.598983571044472e+000	 6.271074926612266e+000
 6.858322273129970e-001	 1.606384005508325e+000	 6.124008937102877e+000
 8.574436954184010e-001	 1.529365948942723e+000	 7.987054989390521e+000
 8.408310827674369e-001	 1.538562012703903e+000	 7.790846092263843e+000
 8.241458746174377e-001	 1.547563767872459e+000	 7.592423885020073e+000
 8.073913965266649e-001	 1.556370526049720e+000	 7.393694806133087e+000
 7.905709774090891e-001	 1.564981672834569e+000	 7.196562099920042e+000
 7.736879475308445e-001	 1.573396667584132e+000	 7.002919735550732e+000
 7.567456365254215e-001	 1.581615043111268e+000	 6.814647101749966e+000
 7.397473714298533e-001	 1.589636405320017e+000	 6.633604475983552e+000
 7.226964747440688e-001	 1.597460432780201e+000	 6.461629258443196e+000
 7.055962625155205e-001	 1.605086876242463e+000	 6.300532952968593e+000
 6.884500424511314e-001	 1.612515558095128e+000	 6.152098869248609e+000
 8.607041049593510e-001	 1.535181327087197e+000	 8.012262860134127e+000
 8.440283232382684e-001	 1.544412358665429e+000	 7.816297861651784e+000
 8.272796699754990e-001	 1.553448342797217e+000	 7.618469832584971e+000
 8.104614833746549e-001	 1.562288588466257e+000	 7.420555640551238e+000
 7.935771050078215e-001	 1.570932478935180e+000	 7.224326784858328e+000
 7.766298778043863e-001	 1.579379471505314e+000	 7.031543554821901e+000
 7.596231440586885e-001	 1.587629097213042e+000	 6.843949988568436e+000
 7.425602434587377e-001	 1.595680960463853e+000	 6.663269630387533e+000
 7.254445111381856e-001	 1.603534738605327e+000	 6.491202075998308e+000
 7.082792757536738e-001	 1.611190181440331e+000	 6.329420286703380e+000
 6.910678575895980e-001	 1.618647110681815e+000	 6.179568645398008e+000
 8.639645145005009e-001	 1.540996705231506e+000	 8.037457962087512e+000
 8.472255637093006e-001	 1.550262704626801e+000	 7.841776520275422e+000
 8.304134653337593e-001	 1.559332917721832e+000	 7.644548712975110e+000
 8.135315702228441e-001	 1.568206650882666e+000	 7.447428156789727e+000
 7.965832326067517e-001	 1.576883285035673e+000	 7.252060861630335e+000
 7.795718080781237e-001	 1.585362275426389e+000	 7.060079616592293e+000
 7.625006515921482e-001	 1.593643151314718e+000	 6.873099201985832e+000
 7.453731154878102e-001	 1.601725515607597e+000	 6.692712424877541e+000
 7.281925475324853e-001	 1.609609044430361e+000	 6.520486966569912e+000
 7.109622889920020e-001	 1.617293486638105e+000	 6.357963021832315e+000
 6.936856727282305e-001	 1.624778663268400e+000	 6.206651701483705e+000
 8.672249240416515e-001	 1.546812083375814e+000	 8.062797208715336e+000
 8.504228041803323e-001	 1.556113050588172e+000	 7.867444874579221e+000
 8.335472606920200e-001	 1.565217492646447e+000	 7.670829768827427e+000
 8.166016570710336e-001	 1.574124713299071e+000	 7.474488486279906e+000
 7.995893602056821e-001	 1.582834091136160e+000	 7.279947710759071e+000
 7.825137383518610e-001	 1.591345079347453e+000	 7.088718816815582e+000
 7.653781591256081e-001	 1.599657205416376e+000	 6.902293324164615e+000
 7.481859875168829e-001	 1.607770070751310e+000	 6.722139201503594e+000
 7.309405839267849e-001	 1.615683350255352e+000	 6.549698007211034e+000
 7.136453022303304e-001	 1.623396791835816e+000	 6.386382845589240e+000
 6.963034878668631e-001	 1.630910215854901e+000	 6.233577108880054e+000
 8.704853335826015e-001	 1.552627461520289e+000	 8.088432965778496e+000
 8.536200446511640e-001	 1.561963396549699e+000	 7.893461203247564e+000
 8.366810560500814e-001	 1.571102067571204e+000	 7.697477731793165e+000
 8.196717439190238e-001	 1.580042775715602e+000	 7.501908264520624e+000
 8.025954878044144e-001	 1.588784897236754e+000	 7.308166231588791e+000
 7.854556686254030e-001	 1.597327883268604e+000	 7.117647586111831e+000
 7.682556666588754e-001	 1.605671259518095e+000	 6.931726490229664e+000
 7.509988595457673e-001	 1.613814625895058e+000	 6.751751877349502e+000
 7.336886203209017e-001	 1.621757656080346e+000	 6.579044877144855e+000
 7.163283154684836e-001	 1.629500097033496e+000	 6.414897080828360e+000
 6.989213030053297e-001	 1.637041768441332e+000	 6.260569615560783e+000
 8.737457431231518e-001	 1.558442839665096e+000	 8.114513106686776e+000
 8.568172851215963e-001	 1.567813742511534e+000	 7.919979310661668e+000
 8.398148514077427e-001	 1.576986642496242e+000	 7.724652874247213e+000
 8.227418307666160e-001	 1.585960838132388e+000	 7.529854681170997e+000
 8.056016154027514e-001	 1.594735703337569e+000	 7.336890890872036e+000
 7.883975988985537e-001	 1.603310687189938e+000	 7.147047936940176e+000
 7.711331741917573e-001	 1.611685313619956e+000	 6.961588434097890e+000
 7.538117315742753e-001	 1.619859181038905e+000	 6.781747989071730e+000
 7.364366567146536e-001	 1.627831961905391e+000	 6.608732901044076e+000
 7.190113287062863e-001	 1.635603402231177e+000	 6.443718728060033e+000
 7.015391181434644e-001	 1.643173321027709e+000	 6.287849686882169e+000
 8.770061526631022e-001	 1.564258217810401e+000	 8.141181067555767e+000
 8.600145255914282e-001	 1.573664088473836e+000	 7.947148580059507e+000
 8.429486467648053e-001	 1.582871217421709e+000	 7.752511060698871e+000
 8.258119176136107e-001	 1.591878900549556e+000	 7.558490529839069e+000
 8.086077430004947e-001	 1.600686509438716e+000	 7.366291771044165e+000
 7.913395291711171e-001	 1.609293491111551e+000	 7.177097510450649e+000
 7.740106817240618e-001	 1.617699367722041e+000	 6.992064533978449e+000
 7.566246036022185e-001	 1.625903736182913e+000	 6.812320737099543e+000
 7.391846931078581e-001	 1.633906267730533e+000	 6.638963091964454e+000
 7.216943419435642e-001	 1.641706707428889e+000	 6.473056507128545e+000
 7.041569332811017e-001	 1.649304873614048e+000	 6.315633546000721e+000
 8.802665622022525e-001	 1.570073595956371e+000	 8.168575901976087e+000
 8.632117660604605e-001	 1.579514434436757e+000	 7.975114026410166e+000
 8.460824421210690e-001	 1.588755792347743e+000	 7.781203798912757e+000
 8.288820044598098e-001	 1.597796962967234e+000	 7.587974257574536e+000
 8.116138705974474e-001	 1.606637315540310e+000	 7.396534618197430e+000
 7.942814594428975e-001	 1.615276295033541e+000	 7.207969623025602e+000
 7.768881892555959e-001	 1.623713421824429e+000	 7.023335857552095e+000
 7.594374756294086e-001	 1.631948291327146e+000	 6.843659029504523e+000
 7.419327295003328e-001	 1.639980573555821e+000	 6.669932193936915e+000
 7.243773551801412e-001	 1.647810012626662e+000	 6.503114898541841e+000
 7.067747484180751e-001	 1.655436426200365e+000	 6.344133213935231e+000
 6.805965970383868e-001	 1.594120900334306e+000	 6.065012788648195e+000
 6.636011961111934e-001	 1.601270286891380e+000	 5.922494815923070e+000
 6.465668096834394e-001	 1.608223969196076e+000	 5.768992977713384e+000
 6.294966743307516e-001	 1.614981981624948e+000	 5.607103698166543e+000
 6.123940111778622e-001	 1.621544426721644e+000	 5.440126500263010e+000
 5.952620241932003e-001	 1.627911474392944e+000	 5.271027615490608e+000
 5.781038985210186e-001	 1.634083361056792e+000	 5.102483618528872e+000
 5.609227988524843e-001	 1.640060388744116e+000	 4.936921753471741e+000
 5.437218678370922e-001	 1.645842924156250e+000	 4.776556908611934e+000
 5.265042245356669e-001	 1.651431397679850e+000	 4.623425229072976e+000
 5.092729629161171e-001	 1.656826302361175e+000	 4.479414387154669e+000
 6.832144121753598e-001	 1.600252452921389e+000	 6.095061006927314e+000
 6.661536409274683e-001	 1.607429338547066e+000	 5.950723644323627e+000
 6.490537342270052e-001	 1.614409767172589e+000	 5.795970487384254e+000
 6.319179410986119e-001	 1.621193773306730e+000	 5.633083216309100e+000
 6.147494950566040e-001	 1.627781459887554e+000	 5.465343646477255e+000
 5.975516123930077e-001	 1.634172997475357e+000	 5.295702798576338e+000
 5.803274905032655e-001	 1.640368623397429e+000	 5.126825162541486e+000
 5.630803062510660e-001	 1.646368640846407e+000	 4.961129542065826e+000
 5.458132143736448e-001	 1.652173417934089e+000	 4.800826438257195e+000
 5.285293459288381e-001	 1.657783386702547e+000	 4.647951964075885e+000
 5.112318067850481e-001	 1.663199042094462e+000	 4.504398312506910e+000
 6.858322273129970e-001	 1.606384005508325e+000	 6.124008937102877e+000
 6.687060857443627e-001	 1.613588390202636e+000	 5.977746478641509e+000
 6.515406587711398e-001	 1.620595565149006e+000	 5.821610998763031e+000
 6.343392078669849e-001	 1.627405564988432e+000	 5.657671670614975e+000
 6.171049789358011e-001	 1.634018493053393e+000	 5.489155886860647e+000
 5.998412005932101e-001	 1.640434520557706e+000	 5.318990093168830e+000
 5.825510824858481e-001	 1.646653885738002e+000	 5.149817641768967e+000
 5.652378136499249e-001	 1.652676892948636e+000	 4.984040171921425e+000
 5.479045609104207e-001	 1.658503911711865e+000	 4.823855417128947e+000
 5.305544673221824e-001	 1.664135375725176e+000	 4.671291433132240e+000
 5.131906506541093e-001	 1.669571781827682e+000	 4.528237272799314e+000
 6.884500424511314e-001	 1.612515558095128e+000	 6.152098869248609e+000
 6.712585305617217e-001	 1.619747441858088e+000	 6.003880045863295e+000
 6.540275833157010e-001	 1.626781363125316e+000	 5.846183798191968e+000
 6.367604746357436e-001	 1.633617356670030e+000	 5.681137100390241e+000
 6.194604628153395e-001	 1.640255526219128e+000	 5.511829006609533e+000
 6.021307887937086e-001	 1.646696043639945e+000	 5.341152082142738e+000
 5.847746744686816e-001	 1.652939148078460e+000	 5.171719554763972e+000
 5.673953210489919e-001	 1.658985145050743e+000	 5.005907248759560e+000
 5.499959074473635e-001	 1.664834405489513e+000	 4.845891830252091e+000
 5.325795887156568e-001	 1.670487364747675e+000	 4.693685360335029e+000
 5.151494945232681e-001	 1.675944521560770e+000	 4.551166185378564e+000
 6.910678575895980e-001	 1.618647110681815e+000	 6.179568645398007e+000
 6.738109753793902e-001	 1.625906493513425e+000	 6.029371088444117e+000
 6.565145078605460e-001	 1.632967161101506e+000	 5.869955014995480e+000
 6.391817414047586e-001	 1.639829148351499e+000	 5.703744713844793e+000
 6.218159466951049e-001	 1.646492559384722e+000	 5.533626275094169e+000
 6.044203769944051e-001	 1.652957566722031e+000	 5.362449135248706e+000
 5.869982664516829e-001	 1.659224410418750e+000	 5.192787475298426e+000
 5.695528284481979e-001	 1.665293397152670e+000	 5.026982725824894e+000
 5.520872539844181e-001	 1.671164899266971e+000	 4.867182264878772e+000
 5.346047101092180e-001	 1.676839353769976e+000	 4.715374307677230e+000
 5.171083383924920e-001	 1.682317261293657e+000	 4.573419020805856e+000
 6.936856727282305e-001	 1.624778663268400e+000	 6.206651701483705e+000
 6.763634201972141e-001	 1.632065545168648e+000	 6.054459862629959e+000
 6.590014324055339e-001	 1.639152959077564e+000	 5.893187568825151e+000
 6.416030081739019e-001	 1.646040940032816e+000	 5.725756840106613e+000
 6.241714305749840e-001	 1.652729592550140e+000	 5.554808402247156e+000
 6.067099651952000e-001	 1.659219089803919e+000	 5.383139369608479e+000
 5.892218584347683e-001	 1.665509672758822e+000	 5.213276016708893e+000
 5.717103358474736e-001	 1.671601649254359e+000	 5.047516871853272e+000
 5.541786005215280e-001	 1.677495393044175e+000	 4.887971881879914e+000
 5.366298315028222e-001	 1.683191342792013e+000	 4.736597649675828e+000
 5.190671822617483e-001	 1.688690001026278e+000	 4.595228780557390e+000
 6.963034878668631e-001	 1.630910215854901e+000	 6.233577108880054e+000
 6.789158650150372e-001	 1.638224596823758e+000	 6.079382313858347e+000
 6.614883569505218e-001	 1.645338757053478e+000	 5.916141116599818e+000
 6.440242749430453e-001	 1.652252731713956e+000	 5.747432880831193e+000
 6.265269144548638e-001	 1.658966625715349e+000	 5.575633494555409e+000
 6.089995533959948e-001	 1.665480612885564e+000	 5.403478609815815e+000
 5.914454504178532e-001	 1.671794935098621e+000	 5.233437795862278e+000
 5.738678432467487e-001	 1.677909901355751e+000	 5.067758238673809e+000
 5.562699470586383e-001	 1.683825886821061e+000	 4.908504386772520e+000
 5.386549528964268e-001	 1.689543331813722e+000	 4.757593547647296e+000
 5.210260261310047e-001	 1.695062740758567e+000	 4.616827474387282e+000
 6.989213030053297e-001	 1.637041768441332e+000	 6.260569615560783e+000
 6.814683098327063e-001	 1.644383648478757e+000	 6.104370116591078e+000
 6.639752814953673e-001	 1.651524555029236e+000	 5.939071999055356e+000
 6.464455417120605e-001	 1.658464523394895e+000	 5.769029261425542e+000
 6.288823983346291e-001	 1.665203658880313e+000	 5.596357010668770e+000
 6.112891415966912e-001	 1.671742135966922e+000	 5.423720347663856e+000
 5.936690424008549e-001	 1.678080197438097e+000	 5.253523396751638e+000
 5.760253506459544e-001	 1.684218153456787e+000	 5.087953628448388e+000
 5.583612935956925e-001	 1.690156380597569e+000	 4.929022000400470e+000
 5.406800742899878e-001	 1.695895320835035e+000	 4.778598923645974e+000
 5.229848700002286e-001	 1.701435480490455e+000	 4.638446097361828e+000
 7.015391181434644e-001	 1.643173321027709e+000	 6.287849686882172e+000
 6.840207546500652e-001	 1.650542700133645e+000	 6.129650713766099e+000
 6.664622060399287e-001	 1.657710353004827e+000	 5.962233186911141e+000
 6.488668084808190e-001	 1.664676315075607e+000	 5.790799381889211e+000
 6.312378822141675e-001	 1.671440692044997e+000	 5.617231716631895e+000
 6.135787297971900e-001	 1.678003659047950e+000	 5.444115701500758e+000
 5.958926343836886e-001	 1.684365459777196e+000	 5.273781333732552e+000
 5.781828580450218e-001	 1.690526405557409e+000	 5.108348060561886e+000
 5.604526401326355e-001	 1.696486874373634e+000	 4.949765429275280e+000
 5.427051956834623e-001	 1.702247309855889e+000	 4.799849434070146e+000
 5.249437138693874e-001	 1.707808220221878e+000	 4.660314606571403e+000
 7.041569332811017e-001	 1.649304873614048e+000	 6.315633546000721e+000
 6.865731994669597e-001	 1.656701751788424e+000	 6.155447355878924e+000
 6.689491305840634e-001	 1.663896150980237e+000	 5.985901503186389e+000
 6.512880752491925e-001	 1.670888106756072e+000	 5.812993567287154e+000
 6.335933660933646e-001	 1.677677725209364e+000	 5.638507640750230e+000
 6.158683179973926e-001	 1.684265182128603e+000	 5.464913375228861e+000
 5.981162263662709e-001	 1.690650722115867e+000	 5.294458014408353e+000
 5.803403654438809e-001	 1.696834657657558e+000	 5.129184738170949e+000
 5.625439866694115e-001	 1.702817368149193e+000	 4.970973835582486e+000
 5.447303170768068e-001	 1.708599298876215e+000	 4.821579442946276e+000
 5.269025577384487e-001	 1.714180959952767e+000	 4.682661897532758e+000
 7.067747484180751e-001	 1.655436426200365e+000	 6.344133213935229e+000
 6.891256442832350e-001	 1.662860803443096e+000	 6.181979139704461e+000
 6.714360551276295e-001	 1.670081948955455e+000	 6.010349449603141e+000
 6.537093420170530e-001	 1.677099898436262e+000	 5.835859017860891e+000
 6.359488499721071e-001	 1.683914758373383e+000	 5.660432028101980e+000
 6.181579061972000e-001	 1.690526705208835e+000	 5.486359616952573e+000
 6.003398183485179e-001	 1.696935984454056e+000	 5.315797702174272e+000
 5.824978728424627e-001	 1.703142909757176e+000	 5.150705014419835e+000
 5.646353332059645e-001	 1.709147861924183e+000	 4.992884806868601e+000
 5.467554384699780e-001	 1.714951287895949e+000	 4.844021994902111e+000
 5.288614016073797e-001	 1.720553699683057e+000	 4.705715780283653e+000
 5.092729629161171e-001	 1.656826302361175e+000	 4.479414387154669e+000
 4.920311501469236e-001	 1.662028192427957e+000	 4.347992222937377e+000
 4.747818244681851e-001	 1.667037680950171e+000	 4.230465704702470e+000
 4.575279946036860e-001	 1.671855439951955e+000	 4.125337703897039e+000
 4.402726386897362e-001	 1.676482199660132e+000	 4.031063513771199e+000
 4.230187029988017e-001	 1.680918747307537e+000	 3.946070004337003e+000
 4.057691007109044e-001	 1.685165925907489e+000	 3.868771966231860e+000
 3.885267107333296e-001	 1.689224633001393e+000	 3.797585812731899e+000
 3.712943765690968e-001	 1.693095819381501e+000	 3.730940822320640e+000
 3.540749052345564e-001	 1.696780487790798e+000	 3.667288115017342e+000
 3.368710662263960e-001	 1.700279691602014e+000	 3.605107564066196e+000
 5.112318067850481e-001	 1.663199042094462e+000	 4.504398312506910e+000
 4.939236759081701e-001	 1.668420940469325e+000	 4.373524960514614e+000
 4.766080032244467e-001	 1.673449697255204e+000	 4.256515981818598e+000
 4.592878090302757e-001	 1.678285987061092e+000	 4.151864789126075e+000
 4.419660829169300e-001	 1.682930542922536e+000	 4.058022882539071e+000
 4.246457824892794e-001	 1.687384155100361e+000	 3.973418793603363e+000
 4.073298321324640e-001	 1.691647669850424e+000	 3.896474141854344e+000
 3.900211218270629e-001	 1.695721988166405e+000	 3.825616979698216e+000
 3.727225060132111e-001	 1.699608064497652e+000	 3.759292614901000e+000
 3.554368025040346e-001	 1.703306905444065e+000	 3.695972110936244e+000
 3.381667914486827e-001	 1.706819568430031e+000	 3.634158673982247e+000
 5.131906506541093e-001	 1.669571781827682e+000	 4.528237272799314e+000
 4.958162016695114e-001	 1.674813688510627e+000	 4.397941851888711e+000
 4.784341819807758e-001	 1.679861713560173e+000	 4.281470581333164e+000
 4.610476234569132e-001	 1.684716534170166e+000	 4.177309853388777e+000
 4.436595271441606e-001	 1.689378886184879e+000	 4.083910038123973e+000
 4.262728619797906e-001	 1.693849562893120e+000	 3.999704200898574e+000
 4.088905635540621e-001	 1.698129413793288e+000	 3.923123854321905e+000
 3.915155329208472e-001	 1.702219343331335e+000	 3.852611927296664e+000
 3.741506354573972e-001	 1.706120309613704e+000	 3.786633147450199e+000
 3.567986997736138e-001	 1.709833323097210e+000	 3.723682044420295e+000
 3.394625166711072e-001	 1.713359445257894e+000	 3.662288790149873e+000
 5.151494945232681e-001	 1.675944521560770e+000	 4.551166185378564e+000
 4.977087274309238e-001	 1.681206436551799e+000	 4.421470405018505e+000
 4.802603607371552e-001	 1.686273729865015e+000	 4.305548879723653e+000
 4.628074378835870e-001	 1.691147081279122e+000	 4.201883430353983e+000
 4.453529713714186e-001	 1.695827229447108e+000	 4.108925977730097e+000
 4.278999414703269e-001	 1.700314970685772e+000	 4.025117017576632e+000
 4.104512949756888e-001	 1.704611157736048e+000	 3.948901050299503e+000
 3.930099440146699e-001	 1.708716698496161e+000	 3.878739155127613e+000
 3.755787649016374e-001	 1.712632554729648e+000	 3.813118912126395e+000
 3.581605970432686e-001	 1.716359740750236e+000	 3.750561886942633e+000
 3.407582418936350e-001	 1.719899322085622e+000	 3.689628901966136e+000
 5.171083383924920e-001	 1.682317261293657e+000	 4.573419020805856e+000
 4.996012531923835e-001	 1.687599184592773e+000	 4.444337377222194e+000
 4.820865394935687e-001	 1.692685746169670e+000	 4.328969682148600e+000
 4.645672523102847e-001	 1.697577628387900e+000	 4.225795645447394e+000
 4.470464155986951e-001	 1.702275572709173e+000	 4.133271437812764e+000
 4.295270209608801e-001	 1.706780378478274e+000	 4.049847906914152e+000
 4.120120263973347e-001	 1.711092901678670e+000	 3.973985667057379e+000
 3.945043551085182e-001	 1.715214053660861e+000	 3.904167259005211e+000
 3.770068943459136e-001	 1.719144799845473e+000	 3.838906590825968e+000
 3.595224943129738e-001	 1.722886158403147e+000	 3.776755882209321e+000
 3.420539671162315e-001	 1.726439198913232e+000	 3.716310343643461e+000
 5.190671822617483e-001	 1.688690001026278e+000	 4.595228780557390e+000
 5.014937789538669e-001	 1.693991932633486e+000	 4.466768755775452e+000
 4.839127182499985e-001	 1.699097762474072e+000	 4.351951205721620e+000
 4.663270667369946e-001	 1.704008175496442e+000	 4.249256201575083e+000
 4.487398598259808e-001	 1.708723915971023e+000	 4.157146882026898e+000
 4.311541004514417e-001	 1.713245786270581e+000	 4.074087394047662e+000
 4.135727578189902e-001	 1.717574645621123e+000	 3.998557624165059e+000
 3.959987662023792e-001	 1.721711408825413e+000	 3.929064924172830e+000
 3.784350237902078e-001	 1.725657044961170e+000	 3.864153049680950e+000
 3.608843915827040e-001	 1.729412576055947e+000	 3.802408541703794e+000
 3.433496923388628e-001	 1.732979075740743e+000	 3.742464790566241e+000
 5.210260261310047e-001	 1.695062740758567e+000	 4.616827474387282e+000
 5.033863047153504e-001	 1.700384680673872e+000	 4.488989738179128e+000
 4.857388970064288e-001	 1.705509778778162e+000	 4.374711062467405e+000
 4.680868811637042e-001	 1.710438722604692e+000	 4.272474364543912e+000
 4.504333040532665e-001	 1.715172259232606e+000	 4.180752488881033e+000
 4.327811799420031e-001	 1.719711194062654e+000	 4.098025855632860e+000
 4.151334892406456e-001	 1.724056389563371e+000	 4.022796814921639e+000
 3.974931772962400e-001	 1.728208763989794e+000	 3.953600918270737e+000
 3.798631532345019e-001	 1.732169290076729e+000	 3.889015333331973e+000
 3.622462888524343e-001	 1.735938993708639e+000	 3.827664640025764e+000
 3.446454175614937e-001	 1.739518952568173e+000	 3.768224255460760e+000
 5.229848700002286e-001	 1.701435480490455e+000	 4.638446097361828e+000
 5.052788304768102e-001	 1.706777428713864e+000	 4.511224712110897e+000
 4.875650757628420e-001	 1.711921795081876e+000	 4.397466241968126e+000
 4.698466955904022e-001	 1.716869269712593e+000	 4.295658948181589e+000
 4.521267482805431e-001	 1.721620602493873e+000	 4.204288139105458e+000
 4.344082594325561e-001	 1.726176601854446e+000	 4.121853509233220e+000
 4.166942206622915e-001	 1.730538133505383e+000	 4.046883097532010e+000
 3.989875883900885e-001	 1.734706119153983e+000	 3.977944084067953e+000
 3.812912826787781e-001	 1.738681535192139e+000	 3.913650658977851e+000
 3.636081861221395e-001	 1.742465411361227e+000	 3.852669210028330e+000
 3.459411427840904e-001	 1.746058829395541e+000	 3.793721084384723e+000
 5.249437138693874e-001	 1.707808220221878e+000	 4.660314606571403e+000
 5.071713562382227e-001	 1.713170176753398e+000	 4.533697235063577e+000
 4.893912545192216e-001	 1.718333811385152e+000	 4.420433093712259e+000
 4.716065100170758e-001	 1.723299816820086e+000	 4.319018299170490e+000
 4.538201925078014e-001	 1.728068945754771e+000	 4.227953402746509e+000
 4.360353389230924e-001	 1.732642009645917e+000	 4.145760402443678e+000
 4.182549520839181e-001	 1.737019877447124e+000	 4.070996286032680e+000
 4.004819994839111e-001	 1.741203474317956e+000	 4.002263331955771e+000
 3.827194121230183e-001	 1.745193780307393e+000	 3.938216410209640e+000
 3.649700833917943e-001	 1.748991829013714e+000	 3.877567537757531e+000
 3.472368680066182e-001	 1.752598706222864e+000	 3.819087952540389e+000
 5.269025577384487e-001	 1.714180959952767e+000	 4.682661897532758e+000
 5.090638819995640e-001	 1.719562924792408e+000	 4.556630013680074e+000
 4.912174332755506e-001	 1.724745827687927e+000	 4.443827309145927e+000
 4.733663244437135e-001	 1.729730363927113e+000	 4.342760281596674e+000
 4.555136367350318e-001	 1.734517289015250e+000	 4.251947525987736e+000
 4.376624184136037e-001	 1.739107417437024e+000	 4.169936401757774e+000
 4.198156835055162e-001	 1.743501621388562e+000	 4.095316140974485e+000
 4.019764105776953e-001	 1.747700829481692e+000	 4.026727632218743e+000
 3.841475415672045e-001	 1.751706025422478e+000	 3.962870130634579e+000
 3.663319806613733e-001	 1.755518246666105e+000	 3.902505157198175e+000
 3.485325932290428e-001	 1.759138583050161e+000	 3.844457859914903e+000
 5.288614016073797e-001	 1.720553699683057e+000	 4.705715780283653e+000
 5.109564077608105e-001	 1.725955672830829e+000	 4.580244882795735e+000
 4.930436120318122e-001	 1.731157843990140e+000	 4.467863903442030e+000
 4.751261388703033e-001	 1.736160911033619e+000	 4.367092261226003e+000
 4.572070809622256e-001	 1.740965632275259e+000	 4.276469417709349e+000
 4.392894979040813e-001	 1.745572825227723e+000	 4.194571181185328e+000
 4.213764149270760e-001	 1.749983365329664e+000	 4.120022359870522e+000
 4.034708216714287e-001	 1.754198184645169e+000	 4.051506007081485e+000
 3.855756710113190e-001	 1.758218270537386e+000	 3.987769517294805e+000
 3.676938779308517e-001	 1.762044664318403e+000	 3.927627844837582e+000
 3.498283184513297e-001	 1.765678459877450e+000	 3.869964126755499e+000
 3.368710662263960e-001	 1.700279691602014e+000	 3.605107564066196e+000
 3.196881660605543e-001	 1.703594050286686e+000	 3.545053202849819e+000
 3.025263101366981e-001	 1.706725253859904e+000	 3.488840672454994e+000
 2.853881446684482e-001	 1.709674500355790e+000	 3.436615732505458e+000
 2.682762748280446e-001	 1.712443032933547e+000	 3.388550343034280e+000
 2.511932639628146e-001	 1.715032138482888e+000	 3.344839950989067e+000
 2.341416328608904e-001	 1.717443146220116e+000	 3.305700065514887e+000
 2.171238590659275e-001	 1.719677426276633e+000	 3.271362324959676e+000
 2.001423762404916e-001	 1.721736388281684e+000	 3.242070251032480e+000
 1.831995735777232e-001	 1.723621479941080e+000	 3.218074876634939e+000
 1.662977952608313e-001	 1.725334185613589e+000	 3.199630423776355e+000
 3.381667914486827e-001	 1.706819568430031e+000	 3.634158673982247e+000
 3.209177997738292e-001	 1.710146675309803e+000	 3.574581436945878e+000
 3.036899332845457e-001	 1.713289922598861e+000	 3.518996828769184e+000
 2.864858483727275e-001	 1.716250512939384e+000	 3.467525197574738e+000
 2.693081602310288e-001	 1.719029694272197e+000	 3.420313568982132e+000
 2.521594420663184e-001	 1.721628758436840e+000	 3.377532361490037e+000
 2.350422243625718e-001	 1.724049039762243e+000	 3.339371383126620e+000
 2.179589941929544e-001	 1.726291913649813e+000	 3.306035318751270e+000
 2.009121945807594e-001	 1.728358795150721e+000	 3.277738909583483e+000
 1.839042239088101e-001	 1.730251137539158e+000	 3.254702017351327e+000
 1.669374353768738e-001	 1.731970430883254e+000	 3.237144754988115e+000
 3.394625166711072e-001	 1.713359445257894e+000	 3.662288790149873e+000
 3.221474334872860e-001	 1.716699300332726e+000	 3.603254393878466e+000
 3.048535564326230e-001	 1.719854591337579e+000	 3.548368713693323e+000
 2.875835520772833e-001	 1.722826525522695e+000	 3.497724287838256e+000
 2.703400456343320e-001	 1.725616355610525e+000	 3.451440970742050e+000
 2.531256201701740e-001	 1.728225378390438e+000	 3.409662060384716e+000
 2.359428158646247e-001	 1.730654933303998e+000	 3.372549699075379e+000
 2.187941293203549e-001	 1.732906401022619e+000	 3.340279763591820e+000
 2.016820129213818e-001	 1.734981202019402e+000	 3.313036452564699e+000
 1.846088742402069e-001	 1.736880795136925e+000	 3.291006769499997e+000
 1.675770754931522e-001	 1.738606676152682e+000	 3.274375089023311e+000
 3.407582418936350e-001	 1.719899322085622e+000	 3.689628901966136e+000
 3.233770672008791e-001	 1.723251925355489e+000	 3.631189941610431e+000
 3.060171795808722e-001	 1.726419260076110e+000	 3.577061303806472e+000
 2.886812557820460e-001	 1.729402538105790e+000	 3.527305452229139e+000
 2.713719310378722e-001	 1.732203016948609e+000	 3.482012968685337e+000
 2.540917982742895e-001	 1.734821998343772e+000	 3.441298075075510e+000
 2.368434073669492e-001	 1.737260826845480e+000	 3.405293420544088e+000
 2.196292644480247e-001	 1.739520888395156e+000	 3.374144356501585e+000
 2.024518312622534e-001	 1.741603608887835e+000	 3.348002913850424e+000
 1.853135245718126e-001	 1.743510452734483e+000	 3.327021686943699e+000
 1.682167156095754e-001	 1.745242921421967e+000	 3.311347817663835e+000
 3.420539671162315e-001	 1.726439198913232e+000	 3.716310343643461e+000
 3.246067009145632e-001	 1.729804550378126e+000	 3.658506352761464e+000
 3.071808027292358e-001	 1.732983928814503e+000	 3.605180023969265e+000
 2.897789594869453e-001	 1.735978550688731e+000	 3.556361615569427e+000
 2.724038164415676e-001	 1.738789678286527e+000	 3.512110470932732e+000
 2.550579763785727e-001	 1.741418618296932e+000	 3.472509917146486e+000
 2.377439988694454e-001	 1.743866720386786e+000	 3.437661420275257e+000
 2.204643995758591e-001	 1.746135375767526e+000	 3.407678226795466e+000
 2.032216496032694e-001	 1.748226015756122e+000	 3.382678712147852e+000
 1.860181749035264e-001	 1.750140110331933e+000	 3.362779647204515e+000
 1.688563557260526e-001	 1.751879166691197e+000	 3.348089581984043e+000
 3.433496923388628e-001	 1.732979075740743e+000	 3.742464790566241e+000
 3.258363346282925e-001	 1.736357175400671e+000	 3.685322301615503e+000
 3.083444258776562e-001	 1.739548597552805e+000	 3.632830744905195e+000
 2.908766631919112e-001	 1.742554563271583e+000	 3.584986176682419e+000
 2.734357018453366e-001	 1.745376339624358e+000	 3.541814871971035e+000
 2.560241544829318e-001	 1.748015238250009e+000	 3.503367581481574e+000
 2.386445903720135e-001	 1.750472613928017e+000	 3.469713036201102e+000
 2.212995347037537e-001	 1.752749863139834e+000	 3.440930936262955e+000
 2.039914679443245e-001	 1.754848422624370e+000	 3.417104651792497e+000
 1.867228252352475e-001	 1.756769767929376e+000	 3.398313852962257e+000
 1.694959958424927e-001	 1.758515411960465e+000	 3.384627274648146e+000
 3.446454175614937e-001	 1.739518952568173e+000	 3.768224255460760e+000
 3.270659683420218e-001	 1.742909800423157e+000	 3.711756860959913e+000
 3.095080490260753e-001	 1.746113266291067e+000	 3.660119780640461e+000
 2.919743668968735e-001	 1.749130575854412e+000	 3.613273006379300e+000
 2.744675872490970e-001	 1.751963000962180e+000	 3.571208051155801e+000
 2.569903325872746e-001	 1.754611858203091e+000	 3.533941545275742e+000
 2.395451818745536e-001	 1.757078507469270e+000	 3.501508070983590e+000
 2.221346698316040e-001	 1.759364350512185e+000	 3.473952479268827e+000
 2.047612862853136e-001	 1.761470829492683e+000	 3.451321923466046e+000
 1.874274755668749e-001	 1.763399425526912e+000	 3.433657833463832e+000
 1.701356359588048e-001	 1.765151657229859e+000	 3.420988042119625e+000
 3.459411427840904e-001	 1.746058829395541e+000	 3.793721084384723e+000
 3.282956020557055e-001	 1.749462425445618e+000	 3.737929498768151e+000
 3.106716721744357e-001	 1.752677935029338e+000	 3.687153885802978e+000
 2.930720706017621e-001	 1.755706588437281e+000	 3.641316445323333e+000
 2.754994726527676e-001	 1.758549662300072e+000	 3.600372371110700e+000
 2.579565106915092e-001	 1.761208478156271e+000	 3.564302766956464e+000
 2.404457733769658e-001	 1.763684401010646e+000	 3.533106791465570e+000
 2.229698049593054e-001	 1.765978837884682e+000	 3.506793282771573e+000
 2.055311046261316e-001	 1.768093236361167e+000	 3.485372104834467e+000
 1.881321258983078e-001	 1.770029083124643e+000	 3.468845445859273e+000
 1.707752760748979e-001	 1.771787902499474e+000	 3.457199286783894e+000
 3.472368680066182e-001	 1.752598706222864e+000	 3.819087952540389e+000
 3.295252357692980e-001	 1.756015050468088e+000	 3.763960074725202e+000
 3.118352953226799e-001	 1.759242603767669e+000	 3.714040252786388e+000
 2.941697743065072e-001	 1.762282601020256e+000	 3.669211301774439e+000
 2.765313580562660e-001	 1.765136323638111e+000	 3.629390676017686e+000
 2.589226887955433e-001	 1.767805098109637e+000	 3.594522685010854e+000
 2.413463648791502e-001	 1.770290294552241e+000	 3.564569928041252e+000
 2.238049400867534e-001	 1.772593325257429e+000	 3.539504206263826e+000
 2.063009229666734e-001	 1.774715643229926e+000	 3.519297161108979e+000
 1.888367762294454e-001	 1.776658740722669e+000	 3.503910876451103e+000
 1.714149161906811e-001	 1.778424147769398e+000	 3.493288668985020e+000
 3.485325932290428e-001	 1.759138583050161e+000	 3.844457859914903e+000
 3.307548694827539e-001	 1.762567675490601e+000	 3.789968836601259e+000
 3.129989184707498e-001	 1.765807272506106e+000	 3.740886508777551e+000
 2.952674780110385e-001	 1.768858613603399e+000	 3.697052849217683e+000
 2.775632434595108e-001	 1.771722984976377e+000	 3.658346289809780e+000
 2.598888668992851e-001	 1.774401718063279e+000	 3.624673216720778e+000
 2.422469563810069e-001	 1.776896188094157e+000	 3.595958673943962e+000
 2.246400752138434e-001	 1.779207812630530e+000	 3.572136541637093e+000
 2.070707413068338e-001	 1.781338050099065e+000	 3.553139445533610e+000
 1.895414265601866e-001	 1.783288398321091e+000	 3.538888641876503e+000
 1.720545563060633e-001	 1.785060393039723e+000	 3.529284108981488e+000
 3.498283184513297e-001	 1.765678459877450e+000	 3.869964126755499e+000
 3.319845031960278e-001	 1.769120300513190e+000	 3.816076416478464e+000
 3.141625416185881e-001	 1.772371941244703e+000	 3.767800712658972e+000
 2.963651817152860e-001	 1.775434626186778e+000	 3.724936823877955e+000
 2.785951288624198e-001	 1.778309646314946e+000	 3.687323014259020e+000
 2.608550450026426e-001	 1.780998338017287e+000	 3.654826756812108e+000
 2.431475478824362e-001	 1.783502081636492e+000	 3.627334684451968e+000
 2.254752103404711e-001	 1.785822300004091e+000	 3.604742012971146e+000
 2.078405596465077e-001	 1.787960456968690e+000	 3.586941699800151e+000
 1.902460768904307e-001	 1.789918055920011e+000	 3.573813590205742e+000
 1.726941964209537e-001	 1.791696638310540e+000	 3.565213788819487e+000
 1.662977952608313e-001	 1.725334185613589e+000	 3.199630423776355e+000
 1.494368201778233e-001	 1.726876243502368e+000	 3.185852170394401e+000
 1.326214697038732e-001	 1.728248938176940e+000	 3.175259758093056e+000
 1.158539850830164e-001	 1.729453856524530e+000	 3.167212276709617e+000
 9.913655977982550e-002	 1.730492616438330e+000	 3.161075336669724e+000
 8.247133917471385e-002	 1.731366865391524e+000	 3.156220721664657e+000
 6.586042030425503e-002	 1.732078279018852e+000	 3.152026808146559e+000
 4.930585164565591e-002	 1.732628559707094e+000	 3.147879835656947e+000
 3.280963294448005e-002	 1.733019435195818e+000	 3.143176097690537e+000
 1.637371508468555e-002	 1.733252657189655e+000	 3.137325108594889e+000
 0.000000000000000e+000	 1.733329999983334e+000	 3.129753793208621e+000
 1.669374353768738e-001	 1.731970430883254e+000	 3.237144754988115e+000
 1.500116070224830e-001	 1.733518420071905e+000	 3.224146683292450e+000
 1.331315787655221e-001	 1.734896394615545e+000	 3.214232279105776e+000
 1.162996004706389e-001	 1.736105947505125e+000	 3.206781573966054e+000
 9.951787403924237e-002	 1.737148702856828e+000	 3.201175861813908e+000
 8.278855310363309e-002	 1.738026314480603e+000	 3.196796871006585e+000
 6.611374276632490e-002	 1.738740464456275e+000	 3.193026747840300e+000
 4.949549938368816e-002	 1.739292861718604e+000	 3.189248938348964e+000
 3.293583039301100e-002	 1.739685240652657e+000	 3.184850040400038e+000
 1.643669418203716e-002	 1.739919359700741e+000	 3.179222683444500e+000
 0.000000000000000e+000	 1.739996999982150e+000	 3.171769484413594e+000
 1.675770754931522e-001	 1.738606676152682e+000	 3.274375089023311e+000
 1.505863938672745e-001	 1.740160596641313e+000	 3.262187434909288e+000
 1.336416878271796e-001	 1.741543851054148e+000	 3.252977388885255e+000
 1.167452158581423e-001	 1.742758038485864e+000	 3.246147367987065e+000
 9.989918829842161e-002	 1.743804789275623e+000	 3.241095634698983e+000
 8.310576703221921e-002	 1.744685763570131e+000	 3.237214972640881e+000
 6.636706522800258e-002	 1.745402649894287e+000	 3.233892219565680e+000
 4.968514712131898e-002	 1.745957163730827e+000	 3.230508747260817e+000
 3.306202784119428e-002	 1.746351046110308e+000	 3.226441962734904e+000
 1.649967327917068e-002	 1.746586062212705e+000	 3.221067889957546e+000
 0.000000000000000e+000	 1.746663999981866e+000	 3.213764882478385e+000
 1.682167156095754e-001	 1.745242921421967e+000	 3.311347817663835e+000
 1.511611807121226e-001	 1.746802773210665e+000	 3.299995584150385e+000
 1.341517968887908e-001	 1.748191307492805e+000	 3.291511531704808e+000
 1.171908312454937e-001	 1.749410129466777e+000	 3.285322003211238e+000
 1.002805025573522e-001	 1.750460875694719e+000	 3.280843609374159e+000
 8.342298096048080e-002	 1.751345212660085e+000	 3.277481392022610e+000
 6.662038768931190e-002	 1.752064835332843e+000	 3.274627891653435e+000
 4.987479485858106e-002	 1.752621465743697e+000	 3.271663211699803e+000
 3.318822528906285e-002	 1.753016851568687e+000	 3.267956156334491e+000
 1.656265237610882e-002	 1.753252764725449e+000	 3.262866503031902e+000
 0.000000000000000e+000	 1.753330999982383e+000	 3.255748462071905e+000
 1.688563557260526e-001	 1.751879166691197e+000	 3.348089581984043e+000
 1.517359675569521e-001	 1.753444949780036e+000	 3.337592460064025e+000
 1.346619059503005e-001	 1.754838763931569e+000	 3.329851246841510e+000
 1.176364466326601e-001	 1.756062220447895e+000	 3.324317848990843e+000
 1.006618168160231e-001	 1.757116962114120e+000	 3.320428700801871e+000
 8.374019488842646e-002	 1.758004661750443e+000	 3.317602398628611e+000
 6.687371015027681e-002	 1.758727020771897e+000	 3.315238287667641e+000
 5.006444259550710e-002	 1.759285767757147e+000	 3.312716096502730e+000
 3.331442273664965e-002	 1.759682657027710e+000	 3.309396698701286e+000
 1.662563147287431e-002	 1.759919467238878e+000	 3.304624064712265e+000
 0.000000000000000e+000	 1.759997999983599e+000	 3.297728458124296e+000
 1.694959958424927e-001	 1.758515411960465e+000	 3.384627274648146e+000
 1.523107544016880e-001	 1.760087126349501e+000	 3.374999564920993e+000
 1.351720150116537e-001	 1.761486220370494e+000	 3.368013172275074e+000
 1.180820620196085e-001	 1.762714311429247e+000	 3.363147303774453e+000
 1.010431310744234e-001	 1.763773048533831e+000	 3.359859789387190e+000
 8.405740881606484e-002	 1.764664110841186e+000	 3.357584170710779e+000
 6.712703261092116e-002	 1.765389206211404e+000	 3.355727791284981e+000
 5.025409033212975e-002	 1.765950069771108e+000	 3.353670986941858e+000
 3.344062018398762e-002	 1.766348462487290e+000	 3.350767458045098e+000
 1.668861056948988e-002	 1.766586169752896e+000	 3.346345888901619e+000
 0.000000000000000e+000	 1.766664999985416e+000	 3.339712870350787e+000
 1.701356359588048e-001	 1.765151657229859e+000	 3.420988042119625e+000
 1.528855412462550e-001	 1.766729302919135e+000	 3.412238577194168e+000
 1.356821240727954e-001	 1.768133676809635e+000	 3.406014048291448e+000
 1.185276774063060e-001	 1.769366402410864e+000	 3.401822799182475e+000
 1.014244453325419e-001	 1.770429134953857e+000	 3.399145725398142e+000
 8.437462274340456e-002	 1.771323559932291e+000	 3.397432799946309e+000
 6.738035507126883e-002	 1.772051391651316e+000	 3.396100651056446e+000
 5.044373806848163e-002	 1.772614371785513e+000	 3.394531293513547e+000
 3.356681763110974e-002	 1.773014267947344e+000	 3.392072098016311e+000
 1.675158966597823e-002	 1.773252872267407e+000	 3.388037065968778e+000
 0.000000000000000e+000	 1.773331999987732e+000	 3.381709467672620e+000
 1.707752760748979e-001	 1.771787902499474e+000	 3.457199286783894e+000
 1.534603280905781e-001	 1.773371479489014e+000	 3.449331354448162e+000
 1.361922331336705e-001	 1.774781133249046e+000	 3.443870720977374e+000
 1.189732927927196e-001	 1.776018493392776e+000	 3.440356803974009e+000
 1.018057595903678e-001	 1.777085221374202e+000	 3.438295333276043e+000
 8.469183667045425e-002	 1.777983009023737e+000	 3.437154295967847e+000
 6.763367753134368e-002	 1.778713577091589e+000	 3.436360985065895e+000
 5.063338580459548e-002	 1.779278673800295e+000	 3.435300256620409e+000
 3.369301507804896e-002	 1.779680073407788e+000	 3.433314082332002e+000
 1.681456876236208e-002	 1.779919574782316e+000	 3.429702467251036e+000
 0.000000000000000e+000	 1.779998999990449e+000	 3.423725792540350e+000
 1.714149161906811e-001	 1.778424147769398e+000	 3.493288668985020e+000
 1.540351149345823e-001	 1.780013656059212e+000	 3.486299936130627e+000
 1.367023421942240e-001	 1.781428589688781e+000	 3.481600145625000e+000
 1.194189081788163e-001	 1.782670584375014e+000	 3.478761827915619e+000
 1.021870738478898e-001	 1.783741307794869e+000	 3.477317415839732e+000
 8.500905059722247e-002	 1.784642458115502e+000	 3.476754590794302e+000
 6.788699999116962e-002	 1.785375762532177e+000	 3.476512785473565e+000
 5.082303354050392e-002	 1.785942975815386e+000	 3.475980951144887e+000
 3.381921252483822e-002	 1.786345878868537e+000	 3.474496679299053e+000
 1.687754785866416e-002	 1.786586277297526e+000	 3.471346749458490e+000
 0.000000000000000e+000	 1.786665999993466e+000	 3.465769165158226e+000
 1.720545563060633e-001	 1.785060393039723e+000	 3.529284108981488e+000
 1.546099017781923e-001	 1.786655832629805e+000	 3.523166546279839e+000
 1.372124512544007e-001	 1.788076046128894e+000	 3.519219390030989e+000
 1.198645235645631e-001	 1.789322675357607e+000	 3.517050425546089e+000
 1.025683881050970e-001	 1.790397394215865e+000	 3.516220758387971e+000
 8.532626452371796e-002	 1.791301907207567e+000	 3.516239543155021e+000
 6.814032245077055e-002	 1.792037947973034e+000	 3.516559922962910e+000
 5.101268127623966e-002	 1.792607277830720e+000	 3.516576290922057e+000
 3.394540997151047e-002	 1.793011684329505e+000	 3.515622966237018e+000
 1.694052695490719e-002	 1.793252979812941e+000	 3.512974358975456e+000
 0.000000000000000e+000	 1.793332999996683e+000	 3.507846687616277e+000
 1.726941964209537e-001	 1.791696638310540e+000	 3.565213788819487e+000
 1.551846886213330e-001	 1.793298009200866e+000	 3.559953596138137e+000
 1.377225603141458e-001	 1.794723502569441e+000	 3.556745637711434e+000
 1.203101389499272e-001	 1.795974766340585e+000	 3.555235199845060e+000
 1.029497023619784e-001	 1.797053480637194e+000	 3.555014132701402e+000
 8.564347844994923e-002	 1.797961356299908e+000	 3.555614942708927e+000
 6.839364491017026e-002	 1.798700133414114e+000	 3.556506151077159e+000
 5.120232901183534e-002	 1.799271579846228e+000	 3.557089033109328e+000
 3.407160741809868e-002	 1.799677489790610e+000	 3.556695833797322e+000
 1.700350605111390e-002	 1.799919682328466e+000	 3.554589536069659e+000
 0.000000000000000e+000	 1.800000000000000e+000	 3.549965247929261e+000
 1.800000000000000e+000	 0.000000000000000e+000	 1.283060658583729e+001
 1.799919682328466e+000	 1.700350605111395e-002	 1.284605102814634e+001
 1.799677489790610e+000	 3.407160741809879e-002	 1.285549337052843e+001
 1.799271579846228e+000	 5.120232901183521e-002	 1.286073024837613e+001
 1.798700133414114e+000	 6.839364491017019e-002	 1.286351697418521e+001
 1.797961356299908e+000	 8.564347844994921e-002	 1.286556317520231e+001
 1.797053480637194e+000	 1.029497023619785e-001	 1.286852821256113e+001
 1.795974766340585e+000	 1.203101389499273e-001	 1.287401640135763e+001
 1.794723502569440e+000	 1.377225603141456e-001	 1.288357204831666e+001
 1.793298009200867e+000	 1.551846886213329e-001	 1.289867432889481e+001
 1.791696638310540e+000	 1.726941964209536e-001	 1.292073203117100e+001
 1.806667000003317e+000	 0.000000000000000e+000	 1.279739634323462e+001
 1.806586384844004e+000	 1.706648514730794e-002	 1.281335449550362e+001
 1.806343295251762e+000	 3.419780486463929e-002	 1.282322636757619e+001
 1.805935881861839e+000	 5.139197674733068e-002	 1.282883660333222e+001
 1.805362318855363e+000	 6.864696736940450e-002	 1.283196865304671e+001
 1.804620805392491e+000	 8.596069237594195e-002	 1.283436035067895e+001
 1.803709567058843e+000	 1.033310166185455e-001	 1.283769925611724e+001
 1.802626857323959e+000	 1.207557543349033e-001	 1.284361778130781e+001
 1.801370959010450e+000	 1.382326693734363e-001	 1.285368811652779e+001
 1.799940185772448e+000	 1.557594754639656e-001	 1.286941697839612e+001
 1.798332883581914e+000	 1.733338365353000e-001	 1.289224020687253e+001
 1.813334000006534e+000	 0.000000000000000e+000	 1.276425347001688e+001
 1.813253087359455e+000	 1.712946424351649e-002	 1.278073785575711e+001
 1.813009100712867e+000	 3.432400231118209e-002	 1.279105579695079e+001
 1.812600183877458e+000	 5.158162448279437e-002	 1.279705926618383e+001
 1.812024504296691e+000	 6.890028982855627e-002	 1.280055918088122e+001
 1.811280254485235e+000	 8.627790630179003e-002	 1.280332092033768e+001
 1.810365653480736e+000	 1.037123308748993e-001	 1.280705959071232e+001
 1.809278948307660e+000	 1.212013697195969e-001	 1.281343505636942e+001
 1.808018415451863e+000	 1.387427784323799e-001	 1.282404675341369e+001
 1.806582362344496e+000	 1.563342623061965e-001	 1.284042830674468e+001
 1.804969128853802e+000	 1.739734766492057e-001	 1.286404197776815e+001
 1.820001000009551e+000	 0.000000000000000e+000	 1.273111101798263e+001
 1.819919789874721e+000	 1.719244333976776e-002	 1.274814315681418e+001
 1.819674906173823e+000	 3.445019975778057e-002	 1.275893165434639e+001
 1.819264485892985e+000	 5.177127221830193e-002	 1.276535512249123e+001
 1.818686689738000e+000	 6.915361228772037e-002	 1.276925126837489e+001
 1.817939703578042e+000	 8.659512022760428e-002	 1.277241235126981e+001
 1.817021739902779e+000	 1.040936451311638e-001	 1.277658037003063e+001
 1.815931039291598e+000	 1.216469851041414e-001	 1.278344199884363e+001
 1.814665871893595e+000	 1.392528874911159e-001	 1.279462328670559e+001
 1.813224538916936e+000	 1.569090491481683e-001	 1.281168414167284e+001
 1.811605374126138e+000	 1.746131167628129e-001	 1.283611262688951e+001
 1.826668000012267e+000	 0.000000000000000e+000	 1.269790142127143e+001
 1.826586492389699e+000	 1.725542243608990e-002	 1.271551203991562e+001
 1.826340711634530e+000	 3.457639720448812e-002	 1.272680373502494e+001
 1.825928787908323e+000	 5.196091995392898e-002	 1.273368105876965e+001
 1.825348875179192e+000	 6.940693474699157e-002	 1.273800782365154e+001
 1.824599152670816e+000	 8.691233415349547e-002	 1.274160249955815e+001
 1.823677826324880e+000	 1.044749593874626e-001	 1.274623332338144e+001
 1.822583130275685e+000	 1.220926004886702e-001	 1.275361313841043e+001
 1.821313328335564e+000	 1.397629965497843e-001	 1.276539397846337e+001
 1.819866715489690e+000	 1.574838359900236e-001	 1.278316141749565e+001
 1.818241619398854e+000	 1.752527568762638e-001	 1.280842871155261e+001
 1.833335000014584e+000	 0.000000000000000e+000	 1.266455650759468e+001
 1.833253194904292e+000	 1.731840153251111e-002	 1.268278574996121e+001
 1.833006517094890e+000	 3.470259465135817e-002	 1.269462164298248e+001
 1.832593089923372e+000	 5.215056768975115e-002	 1.270199397024255e+001
 1.832011060620171e+000	 6.966025720646468e-002	 1.270679195836043e+001
 1.831258601763462e+000	 8.722954807957448e-002	 1.271085961444781e+001
 1.830333912746944e+000	 1.048562736439194e-001	 1.271599075770193e+001
 1.829235221259832e+000	 1.225382158733166e-001	 1.272392376171620e+001
 1.827960784777684e+000	 1.402731056085245e-001	 1.273633602200128e+001
 1.826508892062683e+000	 1.580586228319053e-001	 1.275483816913210e+001
 1.824877864671880e+000	 1.758923969897006e-001	 1.278096805423295e+001
 1.840002000016400e+000	 0.000000000000000e+000	 1.263100750922217e+001
 1.839919897418398e+000	 1.738138062905952e-002	 1.264990514560988e+001
 1.839672322554802e+000	 3.482879209844406e-002	 1.266233479991130e+001
 1.839257391938031e+000	 5.234021542584406e-002	 1.267025076841623e+001
 1.838673246060836e+000	 6.991357966623446e-002	 1.267556699361348e+001
 1.837918050855883e+000	 8.754676200595220e-002	 1.268015234239680e+001
 1.836989999168880e+000	 1.052375879006579e-001	 1.268582555947465e+001
 1.835887312243949e+000	 1.229838312582140e-001	 1.269434991191235e+001
 1.834608241219874e+000	 1.407832146674763e-001	 1.270742753880538e+001
 1.833151068635837e+000	 1.586334096739556e-001	 1.272669352616030e+001
 1.831514109945151e+000	 1.765320371032654e-001	 1.275370973352250e+001
 1.846669000017617e+000	 0.000000000000000e+000	 1.259718507373042e+001
 1.846586599931918e+000	 1.744435972576330e-002	 1.261681070915910e+001
 1.846338128014167e+000	 3.495498954579921e-002	 1.262989245396374e+001
 1.845921693952203e+000	 5.252986316228332e-002	 1.263840838847931e+001
 1.845335431501090e+000	 7.016690212639573e-002	 1.264429646577398e+001
 1.844577499947983e+000	 8.786397593273947e-002	 1.264944973100924e+001
 1.843646085590595e+000	 1.056189021578019e-001	 1.265571119656096e+001
 1.842539403227947e+000	 1.234294466434957e-001	 1.266486838814672e+001
 1.841255697662049e+000	 1.412933237267793e-001	 1.267864757544293e+001
 1.839793245209076e+000	 1.592081965163174e-001	 1.269870770690802e+001
 1.838150355218598e+000	 1.771716772171005e-001	 1.272663407516606e+001
 1.853336000018133e+000	 0.000000000000000e+000	 1.256301927451946e+001
 1.853253302444752e+000	 1.750733882265064e-002	 1.258344255621083e+001
 1.853003933472884e+000	 3.508118699347702e-002	 1.259724368832166e+001
 1.852585995965789e+000	 5.271951089914458e-002	 1.260642379653245e+001
 1.851997616940836e+000	 7.042022458704333e-002	 1.261294413210260e+001
 1.851236949039666e+000	 8.818118986004707e-002	 1.261872123285461e+001
 1.850302172011993e+000	 1.060002164154751e-001	 1.262562171995251e+001
 1.849191494211737e+000	 1.238750620292951e-001	 1.263545674500876e+001
 1.847903154104124e+000	 1.418034327865733e-001	 1.264997610046343e+001
 1.846435421782323e+000	 1.597829833591333e-001	 1.267086201257557e+001
 1.844786600492154e+000	 1.778113173313480e-001	 1.269972264317489e+001
 1.860003000017850e+000	 0.000000000000000e+000	 1.252843962110323e+001
 1.859920004956799e+000	 1.757031791974967e-002	 1.254974044512775e+001
 1.859669738930854e+000	 3.520738444153087e-002	 1.256433742957695e+001
 1.859250297978689e+000	 5.290915863650345e-002	 1.257425399665137e+001
 1.858659802379975e+000	 7.067354704827196e-002	 1.258147397626251e+001
 1.857896398130836e+000	 8.849840378798594e-002	 1.258793670917550e+001
 1.856958258432983e+000	 1.063815306738011e-001	 1.259553176544362e+001
 1.855843585195231e+000	 1.243206774157455e-001	 1.260609329192917e+001
 1.854550610546017e+000	 1.423135418469979e-001	 1.262139400129281e+001
 1.853077598355501e+000	 1.603577702025460e-001	 1.264313882139188e+001
 1.851422845765751e+000	 1.784509574461501e-001	 1.267295823101624e+001
 1.866670000016666e+000	 0.000000000000000e+000	 1.249337506917923e+001
 1.866586707467961e+000	 1.763329701708859e-002	 1.251564378628595e+001
 1.866335544387978e+000	 3.533358189001417e-002	 1.253112245592830e+001
 1.865914599990803e+000	 5.309880637443554e-002	 1.254185603778843e+001
 1.865321987818409e+000	 7.092686951017646e-002	 1.254985021368801e+001
 1.864555847221398e+000	 8.881561771666689e-002	 1.255706643348658e+001
 1.863614344853473e+000	 1.067628449329038e-001	 1.256541655522492e+001
 1.862495676178339e+000	 1.247662928029803e-001	 1.257675709253579e+001
 1.861198066987645e+000	 1.428236509081927e-001	 1.259288308111894e+001
 1.859719774928535e+000	 1.609325570466981e-001	 1.261552158280184e+001
 1.858059091039319e+000	 1.790905975616489e-001	 1.264632485287647e+001
 1.791696638310540e+000	 1.726941964209536e-001	 1.292073203117100e+001
 1.789918055920010e+000	 1.902460768904308e-001	 1.294431250051539e+001
 1.787960456968690e+000	 2.078405596465076e-001	 1.296375641571503e+001
 1.785822300004091e+000	 2.254752103404711e-001	 1.297998700514345e+001
 1.783502081636491e+000	 2.431475478824360e-001	 1.299381918762922e+001
 1.780998338017287e+000	 2.608550450026427e-001	 1.300595407334575e+001
 1.778309646314947e+000	 2.785951288624201e-001	 1.301697364812959e+001
 1.775434626186778e+000	 2.963651817152860e-001	 1.302733571386420e+001
 1.772371941244703e+000	 3.141625416185883e-001	 1.303736916409904e+001
 1.769120300513189e+000	 3.319845031960277e-001	 1.304726968047911e+001
 1.765678459877450e+000	 3.498283184513297e-001	 1.305709594176871e+001
 1.798332883581914e+000	 1.733338365353000e-001	 1.289224020687253e+001
 1.796547713519502e+000	 1.909507272201168e-001	 1.291665931274777e+001
 1.794582863838879e+000	 2.086103779856293e-001	 1.293692973739659e+001
 1.792436787378191e+000	 2.263103454665698e-001	 1.295397110489719e+001
 1.790107975179323e+000	 2.440481393833731e-001	 1.296859365045340e+001
 1.787594957971737e+000	 2.618212231055554e-001	 1.298149254054372e+001
 1.784896307653890e+000	 2.796270142649396e-001	 1.299324236298268e+001
 1.782010638770450e+000	 2.974628854192032e-001	 1.300429186069383e+001
 1.778936609983506e+000	 3.153261647661564e-001	 1.301495898973911e+001
 1.775672925535893e+000	 3.332141369090891e-001	 1.302542638876989e+001
 1.772218336704760e+000	 3.511240436734559e-001	 1.303573735348752e+001
 1.804969128853802e+000	 1.739734766492057e-001	 1.286404197776815e+001
 1.803177371119533e+000	 1.916553775493431e-001	 1.288932529977821e+001
 1.801205270709615e+000	 2.093801963242911e-001	 1.291045012985237e+001
 1.799051274752824e+000	 2.271454805922235e-001	 1.292833163297514e+001
 1.796713868722657e+000	 2.449487308838937e-001	 1.294377462856214e+001
 1.794191577926644e+000	 2.627874012080904e-001	 1.295746772877124e+001
 1.791482968993232e+000	 2.806588996671269e-001	 1.296997763256091e+001
 1.788586651354454e+000	 2.985605891228380e-001	 1.298174365046241e+001
 1.785501278722566e+000	 3.164897879134934e-001	 1.299307254199415e+001
 1.782225550558774e+000	 3.344437706219683e-001	 1.300413375448497e+001
 1.778758213532162e+000	 3.524197688954445e-001	 1.301495515872111e+001
 1.811605374126138e+000	 1.746131167628129e-001	 1.283611262688951e+001
 1.809807028720049e+000	 1.923600278782482e-001	 1.286228479925975e+001
 1.807827677580853e+000	 2.101500146626242e-001	 1.288429123697806e+001
 1.805665762127958e+000	 2.279806157175550e-001	 1.290304181846219e+001
 1.803319762266476e+000	 2.458493223841091e-001	 1.291933524441702e+001
 1.800788197882007e+000	 2.637535793103460e-001	 1.293385299311855e+001
 1.798069630332990e+000	 2.816907850690671e-001	 1.294715341661929e+001
 1.795162663938824e+000	 2.996582928262621e-001	 1.295966605401139e+001
 1.792065947461933e+000	 3.176534110606569e-001	 1.297168624506810e+001
 1.788778175581896e+000	 3.356734043347111e-001	 1.298337013464752e+001
 1.785298090359737e+000	 3.537154941173297e-001	 1.299473016511501e+001
 1.818241619398854e+000	 1.752527568762638e-001	 1.280842871155260e+001
 1.816436686320991e+000	 1.930646782069702e-001	 1.283551357723197e+001
 1.814450084452545e+000	 2.109198330007604e-001	 1.285842826251298e+001
 1.812280249503562e+000	 2.288157508426863e-001	 1.287807655922680e+001
 1.809925655810766e+000	 2.467499138841305e-001	 1.289525037585842e+001
 1.807384817837828e+000	 2.647197574124209e-001	 1.291062350852363e+001
 1.804656291673181e+000	 2.827226704708454e-001	 1.292474553736551e+001
 1.801738676523593e+000	 3.007559965295466e-001	 1.293803592568184e+001
 1.798630616201657e+000	 3.188170342077054e-001	 1.295077840650303e+001
 1.795330800605327e+000	 3.369030380473631e-001	 1.296311574863795e+001
 1.791837967187568e+000	 3.550112193391459e-001	 1.297504500130356e+001
 1.824877864671880e+000	 1.758923969897006e-001	 1.278096805423295e+001
 1.823066343922302e+000	 1.937693285356476e-001	 1.280898881578190e+001
 1.821072491324651e+000	 2.116896513388310e-001	 1.283283795458955e+001
 1.818894736879606e+000	 2.296508859677397e-001	 1.285341240346763e+001
 1.816531549355510e+000	 2.476505053840687e-001	 1.287149663476551e+001
 1.813981437794106e+000	 2.656859355144135e-001	 1.288775624566761e+001
 1.811242953013821e+000	 2.837545558725471e-001	 1.290273165272017e+001
 1.808314689108793e+000	 3.018537002327632e-001	 1.291683197407488e+001
 1.805195284941788e+000	 3.199806573546970e-001	 1.293032918558168e+001
 1.801883425629133e+000	 3.381326717599695e-001	 1.294335264438931e+001
 1.798377844015737e+000	 3.563069445609279e-001	 1.295588408105392e+001
 1.831514109945151e+000	 1.765320371032654e-001	 1.275370973352250e+001
 1.829696001523926e+000	 1.944739788644186e-001	 1.278268910083173e+001
 1.827694898197124e+000	 2.124594696769677e-001	 1.280749859045084e+001
 1.825509224256060e+000	 2.304860210928375e-001	 1.282902753146648e+001
 1.823137442900693e+000	 2.485510968840351e-001	 1.284805234595535e+001
 1.820578057750842e+000	 2.666521136164224e-001	 1.286522994713793e+001
 1.817829614354928e+000	 2.847864412742570e-001	 1.288109122986711e+001
 1.814890701694459e+000	 3.029514039359832e-001	 1.289603473312171e+001
 1.811759953682375e+000	 3.211442805016896e-001	 1.291032056205461e+001
 1.808436050653380e+000	 3.393623054725760e-001	 1.292406466491572e+001
 1.804917720844325e+000	 3.576026697827099e-001	 1.293723356774811e+001
 1.838150355218598e+000	 1.771716772171005e-001	 1.272663407516606e+001
 1.836325659125807e+000	 1.951786291934217e-001	 1.275659441005153e+001
 1.834317305069919e+000	 2.132292880153019e-001	 1.278238996133377e+001
 1.832123711632891e+000	 2.313211562181020e-001	 1.280490173754214e+001
 1.829743336446300e+000	 2.494516883841405e-001	 1.282489752631453e+001
 1.827174677708035e+000	 2.676182917185461e-001	 1.284302510385087e+001
 1.824416275696517e+000	 2.858183266760604e-001	 1.285980551908803e+001
 1.821466714280624e+000	 3.040491076392786e-001	 1.287562653345471e+001
 1.818324622423470e+000	 3.223079036487412e-001	 1.289073630518223e+001
 1.814988675678134e+000	 3.405919391852282e-001	 1.290523741516538e+001
 1.811457597673414e+000	 3.588983950045264e-001	 1.291908133919383e+001
 1.844786600492154e+000	 1.778113173313480e-001	 1.269972264317489e+001
 1.842955316727885e+000	 1.958832795227951e-001	 1.273068610089242e+001
 1.840939711942994e+000	 2.139991063539653e-001	 1.275749335751253e+001
 1.838738199010071e+000	 2.321562913436554e-001	 1.278101641220019e+001
 1.836349229992314e+000	 2.503522798844963e-001	 1.280201386415816e+001
 1.833771297665687e+000	 2.685844698208832e-001	 1.282112393172852e+001
 1.831002937038606e+000	 2.868502120780426e-001	 1.283885752787224e+001
 1.828042726867321e+000	 3.051468113427203e-001	 1.285559147407368e+001
 1.824889291165121e+000	 3.234715267959102e-001	 1.287156194308479e+001
 1.821541300703462e+000	 3.418215728979717e-001	 1.288685822919040e+001
 1.817997474503085e+000	 3.601941202264115e-001	 1.290141695275629e+001
 1.851422845765751e+000	 1.784509574461501e-001	 1.267295823101624e+001
 1.849584974330105e+000	 1.965879298526773e-001	 1.270494689873822e+001
 1.847562118816300e+000	 2.147689246930893e-001	 1.273279155349807e+001
 1.845352686387567e+000	 2.329914264696200e-001	 1.275735452447372e+001
 1.842955123538719e+000	 2.512528713852133e-001	 1.277938469880966e+001
 1.840367917623796e+000	 2.695506479235322e-001	 1.279951034862299e+001
 1.837589598381211e+000	 2.878820974802886e-001	 1.281823199529619e+001
 1.834618739454583e+000	 3.062445150463798e-001	 1.283591539429765e+001
 1.831453959907378e+000	 3.246351499432544e-001	 1.285278473239216e+001
 1.828093925729430e+000	 3.430512066108520e-001	 1.286891613762484e+001
 1.824537351333421e+000	 3.614898454484002e-001	 1.288423161080306e+001
 1.858059091039319e+000	 1.790905975616489e-001	 1.264632485287647e+001
 1.856214631932410e+000	 1.972925801832065e-001	 1.267936088517194e+001
 1.854184525689797e+000	 2.155387430328054e-001	 1.270826879339127e+001
 1.851967173765350e+000	 2.338265615961181e-001	 1.273390060445026e+001
 1.849561017085502e+000	 2.521534628864028e-001	 1.275699500039660e+001
 1.846964537582364e+000	 2.705168260265918e-001	 1.277816995148147e+001
 1.844176259724348e+000	 2.889139828828836e-001	 1.279791536666524e+001
 1.841194752042445e+000	 3.073422187503292e-001	 1.281658584599714e+001
 1.838018628650292e+000	 3.257987730908322e-001	 1.283439362818578e+001
 1.834646550756102e+000	 3.442808403239147e-001	 1.285140183546386e+001
 1.831077228164503e+000	 3.627855706705264e-001	 1.286751812645350e+001
 1.765678459877450e+000	 3.498283184513297e-001	 1.305709594176871e+001
 1.762044664318403e+000	 3.676938779308519e-001	 1.306822042069878e+001
 1.758218270537386e+000	 3.855756710113191e-001	 1.308188713749533e+001
 1.754198184645169e+000	 4.034708216714287e-001	 1.309776705437151e+001
 1.749983365329663e+000	 4.213764149270760e-001	 1.311540478027440e+001
 1.745572825227723e+000	 4.392894979040814e-001	 1.313421934935169e+001
 1.740965632275259e+000	 4.572070809622258e-001	 1.315350615075611e+001
 1.736160911033618e+000	 4.751261388703035e-001	 1.317244013143009e+001
 1.731157843990141e+000	 4.930436120318121e-001	 1.319008039522725e+001
 1.725955672830829e+000	 5.109564077608105e-001	 1.320537632250376e+001
 1.720553699683057e+000	 5.288614016073798e-001	 1.321717533407561e+001
 1.772218336704760e+000	 3.511240436734559e-001	 1.303573735348752e+001
 1.768571081970627e+000	 3.690557752002125e-001	 1.304733670199879e+001
 1.764730515652127e+000	 3.870038004553495e-001	 1.306155516804892e+001
 1.760695539808388e+000	 4.049652327651022e-001	 1.307806585523848e+001
 1.756465109270422e+000	 4.229371463485910e-001	 1.309641218477787e+001
 1.752038233018001e+000	 4.409165773945200e-001	 1.311600839267789e+001
 1.747413975534779e+000	 4.589005251893766e-001	 1.313614118490536e+001
 1.742591458139577e+000	 4.768859532968367e-001	 1.315597267539032e+001
 1.737569860291762e+000	 4.948697907879950e-001	 1.317454473364068e+001
 1.732348420868631e+000	 5.128489335219466e-001	 1.319078486963501e+001
 1.726926439412715e+000	 5.308202454761590e-001	 1.320351378354022e+001
 1.778758213532162e+000	 3.524197688954445e-001	 1.301495515872111e+001
 1.775097499622857e+000	 3.704176724694724e-001	 1.302705265581734e+001
 1.771242760766789e+000	 3.884319298993078e-001	 1.304184264873496e+001
 1.767192894971447e+000	 4.064596438587248e-001	 1.305900073846521e+001
 1.762946853210942e+000	 4.244978777700678e-001	 1.307806948348337e+001
 1.758503640807968e+000	 4.425436568849251e-001	 1.309845860594960e+001
 1.753862318793922e+000	 4.605939694164907e-001	 1.311944636224776e+001
 1.749022005245102e+000	 4.786457677233224e-001	 1.314018220605820e+001
 1.743981876592904e+000	 4.966959695441106e-001	 1.315969087418714e+001
 1.738741168905919e+000	 5.147414592829877e-001	 1.317687802643242e+001
 1.733299179141840e+000	 5.327790893448082e-001	 1.319053757076235e+001
 1.785298090359737e+000	 3.537154941173297e-001	 1.299473016511501e+001
 1.781623917275190e+000	 3.717795697386566e-001	 1.300735159653085e+001
 1.777755005881483e+000	 3.898600593432123e-001	 1.302273499133432e+001
 1.773690250134468e+000	 4.079540549523091e-001	 1.304055883967704e+001
 1.769428597151355e+000	 4.260586091915157e-001	 1.306036519929134e+001
 1.764969048597762e+000	 4.441707363753049e-001	 1.308155960078902e+001
 1.760310662052832e+000	 4.622874136435772e-001	 1.310341212340935e+001
 1.755452552350340e+000	 4.804055821497718e-001	 1.312505977278329e+001
 1.750393892893712e+000	 4.985221483001754e-001	 1.314551029447460e+001
 1.745133916942836e+000	 5.166339850439580e-001	 1.316364755825926e+001
 1.739671918870567e+000	 5.347379332133595e-001	 1.317823864822732e+001
 1.791837967187568e+000	 3.550112193391459e-001	 1.297504500130356e+001
 1.788150334927723e+000	 3.731414670077906e-001	 1.298821860552889e+001
 1.784267250996319e+000	 3.912881887870808e-001	 1.300421931594644e+001
 1.780187605297569e+000	 4.094484660458675e-001	 1.302272894002093e+001
 1.775910341091791e+000	 4.276193406129448e-001	 1.304328943436126e+001
 1.771434456387523e+000	 4.457978158656683e-001	 1.306530249900660e+001
 1.766759005311653e+000	 4.639808578706453e-001	 1.308803034799865e+001
 1.761883099455437e+000	 4.821653965761971e-001	 1.311059779124492e+001
 1.756805909194333e+000	 5.003483270562067e-001	 1.313199576504082e+001
 1.751526664979524e+000	 5.185265108048806e-001	 1.315108644996876e+001
 1.746044658599031e+000	 5.366967770818458e-001	 1.316661011514394e+001
 1.798377844015737e+000	 3.563069445609279e-001	 1.295588408105392e+001
 1.794676752580552e+000	 3.745033642768991e-001	 1.296964049333736e+001
 1.790779496111406e+000	 3.927163182309313e-001	 1.298628441099563e+001
 1.786684960460875e+000	 4.109428771394136e-001	 1.300550142396345e+001
 1.782392085032382e+000	 4.291800720343642e-001	 1.302683382561735e+001
 1.777899864177388e+000	 4.474248953560228e-001	 1.304967988573592e+001
 1.773207348570529e+000	 4.656743020977042e-001	 1.307329430529931e+001
 1.768313646560540e+000	 4.839252110026103e-001	 1.309678999163761e+001
 1.763217925494911e+000	 5.021745058122212e-001	 1.311914129497282e+001
 1.757919413016124e+000	 5.204190365657796e-001	 1.313918884890613e+001
 1.752417398327365e+000	 5.386556209502998e-001	 1.315564615778539e+001
 1.804917720844325e+000	 3.576026697827099e-001	 1.293723356774811e+001
 1.801203170233773e+000	 3.758652615460078e-001	 1.295160576208208e+001
 1.797291741226853e+000	 3.941444476747818e-001	 1.296892069358045e+001
 1.793182315624507e+000	 4.124372882329594e-001	 1.298886823743690e+001
 1.788873828973259e+000	 4.307408034557834e-001	 1.301099150060760e+001
 1.784365271967497e+000	 4.490519748463777e-001	 1.303468576292817e+001
 1.779655691829604e+000	 4.673677463247631e-001	 1.305919860532902e+001
 1.774744193665795e+000	 4.856850254290235e-001	 1.308363136722982e+001
 1.769629941795594e+000	 5.040006845682356e-001	 1.310694207790809e+001
 1.764312161052779e+000	 5.223115623266788e-001	 1.312795000830207e+001
 1.758790138055704e+000	 5.406144648187536e-001	 1.314534199023074e+001
 1.811457597673414e+000	 3.588983950045264e-001	 1.291908133919383e+001
 1.807729587887482e+000	 3.772271588151418e-001	 1.293410456828393e+001
 1.803803986342771e+000	 3.955725771186503e-001	 1.295212017015865e+001
 1.799679670788585e+000	 4.139316993265181e-001	 1.297282284632476e+001
 1.795355572914553e+000	 4.323015348772123e-001	 1.299575703370681e+001
 1.790830679757990e+000	 4.506790543367409e-001	 1.302031550319643e+001
 1.786104035089022e+000	 4.690611905518310e-001	 1.304573915025463e+001
 1.781174740771349e+000	 4.874448398554490e-001	 1.307111812328690e+001
 1.776041958096526e+000	 5.058268633242670e-001	 1.309539443840822e+001
 1.770704909089630e+000	 5.242040880876013e-001	 1.311736623104683e+001
 1.765162877784180e+000	 5.425733086872400e-001	 1.313569379549705e+001
 1.817997474503085e+000	 3.601941202264115e-001	 1.290141695275629e+001
 1.814256005541776e+000	 3.785890560843259e-001	 1.291712868597724e+001
 1.810316231459269e+000	 3.970007065625548e-001	 1.293587639755835e+001
 1.806177025953231e+000	 4.154261104201023e-001	 1.295736019527774e+001
 1.801837316856396e+000	 4.338622662986603e-001	 1.298112640265547e+001
 1.797296087549004e+000	 4.523061338271208e-001	 1.300656580400136e+001
 1.792552378348927e+000	 4.707546347789177e-001	 1.303291308615565e+001
 1.787605287877348e+000	 4.892046542818984e-001	 1.305924762634871e+001
 1.782453974397853e+000	 5.076530420803319e-001	 1.308449577869518e+001
 1.777097657126819e+000	 5.260966138485717e-001	 1.310743481383602e+001
 1.771535617512930e+000	 5.445321525557915e-001	 1.312669866705256e+001
 1.824537351333421e+000	 3.614898454484002e-001	 1.288423161080306e+001
 1.820782423196752e+000	 3.799509533535859e-001	 1.290067147014372e+001
 1.816828476576456e+000	 3.984288360065132e-001	 1.292018444430766e+001
 1.812674381118566e+000	 4.169205215137248e-001	 1.294247666685211e+001
 1.808319060798919e+000	 4.354229977201371e-001	 1.296709694542552e+001
 1.803761495340678e+000	 4.539332133175258e-001	 1.299343464216953e+001
 1.799000721609464e+000	 4.724480790060318e-001	 1.302071875512596e+001
 1.794035834983939e+000	 4.909644687083838e-001	 1.304801835385357e+001
 1.788865990699722e+000	 5.094792208364475e-001	 1.307424452574144e+001
 1.783490405164487e+000	 5.279891396096127e-001	 1.309815399167850e+001
 1.777908357242085e+000	 5.464909964244405e-001	 1.311835455070078e+001
 1.831077228164503e+000	 3.627855706705264e-001	 1.286751812645350e+001
 1.827308840852505e+000	 3.813128506229466e-001	 1.288472782045316e+001
 1.823340721694443e+000	 3.998569654505436e-001	 1.290504085227490e+001
 1.819171736284712e+000	 4.184149326073986e-001	 1.292817004096241e+001
 1.814800804742252e+000	 4.369837291416522e-001	 1.295366731740536e+001
 1.810226903133151e+000	 4.555602928079645e-001	 1.298092122873608e+001
 1.805449064870776e+000	 4.741415232331826e-001	 1.300915564770661e+001
 1.800466382091268e+000	 4.927242831349174e-001	 1.303742984409916e+001
 1.795278007002279e+000	 5.113053995926306e-001	 1.306464007870483e+001
 1.789883153202777e+000	 5.298816653707489e-001	 1.308952288275753e+001
 1.784281096971782e+000	 5.484498402932200e-001	 1.311066018682687e+001
 1.720553699683057e+000	 5.288614016073798e-001	 1.321717533407561e+001
 1.714951287895949e+000	 5.467554384699779e-001	 1.322581059769351e+001
 1.709147861924184e+000	 5.646353332059646e-001	 1.323184574982987e+001
 1.703142909757176e+000	 5.824978728424625e-001	 1.323434980523620e+001
 1.696935984454057e+000	 6.003398183485178e-001	 1.323233290377377e+001
 1.690526705208835e+000	 6.181579061972001e-001	 1.322476319522001e+001
 1.683914758373382e+000	 6.359488499721072e-001	 1.321058603681708e+001
 1.677099898436262e+000	 6.537093420170529e-001	 1.318874559355812e+001
 1.670081948955454e+000	 6.714360551276295e-001	 1.315923788945222e+001
 1.662860803443096e+000	 6.891256442832350e-001	 1.314154956230248e+001
 1.655436426200365e+000	 7.067747484180751e-001	 1.314398418378524e+001
 1.726926439412715e+000	 5.308202454761590e-001	 1.320351378354022e+001
 1.721303276915056e+000	 5.487805598629469e-001	 1.321299088778290e+001
 1.715478355698569e+000	 5.667266797422572e-001	 1.321968605669492e+001
 1.709451161856229e+000	 5.846553802407206e-001	 1.322260303555331e+001
 1.703221246791734e+000	 6.025634103303735e-001	 1.322068025833299e+001
 1.696788228288618e+000	 6.204474943965467e-001	 1.321280769584844e+001
 1.690151791537024e+000	 6.383043338503186e-001	 1.319784606215243e+001
 1.683311690116158e+000	 6.561306087843145e-001	 1.317464847291660e+001
 1.676267746930466e+000	 6.739229796705319e-001	 1.314445909118950e+001
 1.669019855097652e+000	 6.916780890987875e-001	 1.312809825586596e+001
 1.661567978786661e+000	 7.093925635542742e-001	 1.313123536577776e+001
 1.733299179141840e+000	 5.327790893448082e-001	 1.319053757076235e+001
 1.727655265933628e+000	 5.508056812557428e-001	 1.320085170242230e+001
 1.721808849472432e+000	 5.688180262783275e-001	 1.320819320992225e+001
 1.715759413954782e+000	 5.868128876387013e-001	 1.321150060412763e+001
 1.709506509128947e+000	 6.047870023118943e-001	 1.320964060734290e+001
 1.703049751367984e+000	 6.227370825954985e-001	 1.320142495685960e+001
 1.696388824700308e+000	 6.406598177280756e-001	 1.318562961268779e+001
 1.689523481795759e+000	 6.585518755510625e-001	 1.316101646701320e+001
 1.682453544905252e+000	 6.764099042128660e-001	 1.313061338286981e+001
 1.675178906752058e+000	 6.942305339137208e-001	 1.311547651127702e+001
 1.667699531372885e+000	 7.120103786898093e-001	 1.311919887518953e+001
 1.739671918870567e+000	 5.347379332133595e-001	 1.317823864822732e+001
 1.734007254951787e+000	 5.528308026484087e-001	 1.318938549152598e+001
 1.728139343245877e+000	 5.709093728142304e-001	 1.319736087607878e+001
 1.722067666052925e+000	 5.889703950364738e-001	 1.320103814885787e+001
 1.715791771465766e+000	 6.070105942931632e-001	 1.319921234841047e+001
 1.709311274446982e+000	 6.250266707941542e-001	 1.319061695562878e+001
 1.702625857863253e+000	 6.430153016054911e-001	 1.317394309504449e+001
 1.695735273475063e+000	 6.609731423174257e-001	 1.314786128809610e+001
 1.688639342879789e+000	 6.788968287547734e-001	 1.311770244138365e+001
 1.681337958406270e+000	 6.967829787281894e-001	 1.310368774000879e+001
 1.673831083958972e+000	 7.146281938248470e-001	 1.310788061685722e+001
 1.746044658599031e+000	 5.366967770818458e-001	 1.316661011514394e+001
 1.740359243969655e+000	 5.548559240409877e-001	 1.317858577493274e+001
 1.734469837019012e+000	 5.730007193500216e-001	 1.318718370613792e+001
 1.728375918150747e+000	 5.911279024341080e-001	 1.319121219856281e+001
 1.722077033802260e+000	 6.092341862742643e-001	 1.318939466936081e+001
 1.715572797525657e+000	 6.273162589926120e-001	 1.318038635258481e+001
 1.708862891025889e+000	 6.453707854826793e-001	 1.316279348601895e+001
 1.701947065154075e+000	 6.633944090835324e-001	 1.313519510073875e+001
 1.694825140854057e+000	 6.813837532963969e-001	 1.310572680379025e+001
 1.687497010060242e+000	 6.993354235423485e-001	 1.309273416596166e+001
 1.679962636544856e+000	 7.172460089595523e-001	 1.309728525187594e+001
 1.752417398327365e+000	 5.386556209502998e-001	 1.315564615778539e+001
 1.746711232987356e+000	 5.568810454335238e-001	 1.316844708014644e+001
 1.740800330791946e+000	 5.750920658857573e-001	 1.317765727078734e+001
 1.734684170248338e+000	 5.932854098316724e-001	 1.318202010602960e+001
 1.728362296138499e+000	 6.114577782552818e-001	 1.318018747920643e+001
 1.721834320604059e+000	 6.296058471909711e-001	 1.317073642028678e+001
 1.715099924188238e+000	 6.477262693597538e-001	 1.315218825995987e+001
 1.708158856832794e+000	 6.658156758495105e-001	 1.312303044771597e+001
 1.701010938828034e+000	 6.838706778378773e-001	 1.309468586973132e+001
 1.693656061713931e+000	 7.018878683563526e-001	 1.308261682948991e+001
 1.686094189130473e+000	 7.198638240940923e-001	 1.308741620338658e+001
 1.758790138055704e+000	 5.406144648187536e-001	 1.314534199023074e+001
 1.753063222005010e+000	 5.589061668260598e-001	 1.315896488048616e+001
 1.747130824564784e+000	 5.771834124214931e-001	 1.316877799615079e+001
 1.740992422345786e+000	 5.954429172292369e-001	 1.317345998147762e+001
 1.734647558474552e+000	 6.136813702362994e-001	 1.317159133952950e+001
 1.728095843682236e+000	 6.318954353893305e-001	 1.316167097290764e+001
 1.721336957350326e+000	 6.500817532368282e-001	 1.314213531654224e+001
 1.714370648511223e+000	 6.682369426154887e-001	 1.311148030463853e+001
 1.707196736801698e+000	 6.863576023793584e-001	 1.308457790421206e+001
 1.699815113367292e+000	 7.044403131703569e-001	 1.307333559177507e+001
 1.692225741715756e+000	 7.224816392286320e-001	 1.307827566268609e+001
 1.765162877784180e+000	 5.425733086872400e-001	 1.313569379549705e+001
 1.759415211022741e+000	 5.609312882186387e-001	 1.315013553363498e+001
 1.753461318337636e+000	 5.792747589572844e-001	 1.316054309991324e+001
 1.747300674443183e+000	 5.976004246268710e-001	 1.316553062642665e+001
 1.740932820810489e+000	 6.159049622174005e-001	 1.316360739626621e+001
 1.734357366760235e+000	 6.341850235877884e-001	 1.315319429611419e+001
 1.727573990512178e+000	 6.524372371140165e-001	 1.313264290892871e+001
 1.720582440189362e+000	 6.706582093815950e-001	 1.310091228511393e+001
 1.713382534775026e+000	 6.888445269209819e-001	 1.307540004074015e+001
 1.705974165020281e+000	 7.069927579845158e-001	 1.306488913953762e+001
 1.698357294300641e+000	 7.250994543633379e-001	 1.306986459565223e+001
 1.771535617512930e+000	 5.445321525557915e-001	 1.312669866705256e+001
 1.765767200040672e+000	 5.629564096113043e-001	 1.314195622057740e+001
 1.759791812110608e+000	 5.813661054931872e-001	 1.315295052783971e+001
 1.753608926540618e+000	 5.997579320246437e-001	 1.315823146795980e+001
 1.747218083146380e+000	 6.181285541986697e-001	 1.315623731188332e+001
 1.740618889838102e+000	 6.364746117864440e-001	 1.314531107733353e+001
 1.733811023673818e+000	 6.547927209914324e-001	 1.312371957230810e+001
 1.726794231867214e+000	 6.730794761479584e-001	 1.309135480327485e+001
 1.719568332747999e+000	 6.913314514628892e-001	 1.306714828481357e+001
 1.712133216672855e+000	 7.095452027989848e-001	 1.305727499007778e+001
 1.704488846885063e+000	 7.277172694983755e-001	 1.306218274947531e+001
 1.777908357242085e+000	 5.464909964244405e-001	 1.311835455070078e+001
 1.772119189058924e+000	 5.649815310041002e-001	 1.313442488491607e+001
 1.766122305883807e+000	 5.834574520292573e-001	 1.314599889067717e+001
 1.759917178638179e+000	 6.019154394226243e-001	 1.315156249337070e+001
 1.753503345482292e+000	 6.203521461801902e-001	 1.314948319793726e+001
 1.746880412915887e+000	 6.387641999853959e-001	 1.313802633639629e+001
 1.740048056835272e+000	 6.571482048691891e-001	 1.311537405280172e+001
 1.733006023544780e+000	 6.755007429147066e-001	 1.308280199092241e+001
 1.725754130720593e+000	 6.938183760052232e-001	 1.305981751774861e+001
 1.718292268324968e+000	 7.120976476139181e-001	 1.305048949663794e+001
 1.710620399468956e+000	 7.303350846339110e-001	 1.305522865968891e+001
 1.784281096971782e+000	 5.484498402932200e-001	 1.311066018682687e+001
 1.778471178077622e+000	 5.670066523970694e-001	 1.312754017255787e+001
 1.772452799657343e+000	 5.855487985655503e-001	 1.313968740143064e+001
 1.766225430735958e+000	 6.040729468208824e-001	 1.314552418518600e+001
 1.759788607818298e+000	 6.225757381620464e-001	 1.314334754800578e+001
 1.753141935993637e+000	 6.410537881847428e-001	 1.313134535654725e+001
 1.746285089996563e+000	 6.595036887474010e-001	 1.310761523672850e+001
 1.739217815222061e+000	 6.779220096819685e-001	 1.307524689078970e+001
 1.731939928692788e+000	 6.963053005481263e-001	 1.305340150083944e+001
 1.724451319976577e+000	 7.146500924294711e-001	 1.304452785407804e+001
 1.716751952052255e+000	 7.329528997701102e-001	 1.304899965749206e+001
 1.655436426200365e+000	 7.067747484180751e-001	 1.314398418378524e+001
 1.647810012626662e+000	 7.243773551801414e-001	 1.315331834606859e+001
 1.639980573555821e+000	 7.419327295003327e-001	 1.315609295175981e+001
 1.631948291327146e+000	 7.594374756294089e-001	 1.315267299504195e+001
 1.623713421824428e+000	 7.768881892555959e-001	 1.314344497769154e+001
 1.615276295033542e+000	 7.942814594428974e-001	 1.312881417631279e+001
 1.606637315540310e+000	 8.116138705974469e-001	 1.310920141451757e+001
 1.597796962967233e+000	 8.288820044598098e-001	 1.308503932712737e+001
 1.588755792347744e+000	 8.460824421210691e-001	 1.305676810728856e+001
 1.579514434436758e+000	 8.632117660604604e-001	 1.302483073151557e+001
 1.570073595956371e+000	 8.802665622022525e-001	 1.298966766208412e+001
 1.661567978786661e+000	 7.093925635542742e-001	 1.313123536577776e+001
 1.653913317824509e+000	 7.270603684159012e-001	 1.314092644519904e+001
 1.646054879381276e+000	 7.446807658919559e-001	 1.314400832556217e+001
 1.637992846471639e+000	 7.622503476557206e-001	 1.314083340745518e+001
 1.629727475927164e+000	 7.797656967862311e-001	 1.313177828408588e+001
 1.621259098955966e+000	 7.972233897137646e-001	 1.311724104839971e+001
 1.612588121642419e+000	 8.146199981934755e-001	 1.309763809039941e+001
 1.603715025385502e+000	 8.319520913050783e-001	 1.307340037090972e+001
 1.594640367274438e+000	 8.492162374763990e-001	 1.304496916192867e+001
 1.585364780400401e+000	 8.664090065285576e-001	 1.301279124792501e+001
 1.575888974103115e+000	 8.835269717404666e-001	 1.297731358695121e+001
 1.667699531372885e+000	 7.120103786898093e-001	 1.311919887518953e+001
 1.660016623022366e+000	 7.297433816509610e-001	 1.312913085327006e+001
 1.652129185206822e+000	 7.474288022828487e-001	 1.313241966343379e+001
 1.644037401616305e+000	 7.650632196812788e-001	 1.312940464336935e+001
 1.635741530030153e+000	 7.826432043160948e-001	 1.312045193419446e+001
 1.627241902878723e+000	 8.001653199838462e-001	 1.310595182872934e+001
 1.618538927744937e+000	 8.176261257887096e-001	 1.308631559515774e+001
 1.609633087804251e+000	 8.350221781495452e-001	 1.306197176146679e+001
 1.600524942201681e+000	 8.523500328309214e-001	 1.303336185004093e+001
 1.591215126364653e+000	 8.696062469958423e-001	 1.300093555609683e+001
 1.581704352250523e+000	 8.867873812778637e-001	 1.296514536826130e+001
 1.673831083958972e+000	 7.146281938248470e-001	 1.310788061685722e+001
 1.666119928220147e+000	 7.324263948854949e-001	 1.311794002323098e+001
 1.658203491032356e+000	 7.501768386731936e-001	 1.312133732165817e+001
 1.650081956761026e+000	 7.678760917062715e-001	 1.311839831263147e+001
 1.641755584133266e+000	 7.855207118453783e-001	 1.310947813779674e+001
 1.633224706801671e+000	 8.031072502533370e-001	 1.309495867071507e+001
 1.624489733847713e+000	 8.206322533833429e-001	 1.307524536812427e+001
 1.615551150223324e+000	 8.380922649934034e-001	 1.305076356621959e+001
 1.606409517129309e+000	 8.554838281848282e-001	 1.302195421054393e+001
 1.597065472329349e+000	 8.728034874625036e-001	 1.298926901248626e+001
 1.587519730398429e+000	 8.900477908146286e-001	 1.295316503010588e+001
 1.679962636544856e+000	 7.172460089595523e-001	 1.309728525187594e+001
 1.672223233417767e+000	 7.351094081196790e-001	 1.310736110965158e+001
 1.664277796857779e+000	 7.529248750631739e-001	 1.311077031492834e+001
 1.656126511905686e+000	 7.706889637308859e-001	 1.310782465148596e+001
 1.647769638236373e+000	 7.883982193742738e-001	 1.309886771002409e+001
 1.639207510724670e+000	 8.060491805224306e-001	 1.308427232280915e+001
 1.630440539950598e+000	 8.236383809775704e-001	 1.306443744385326e+001
 1.621469212642564e+000	 8.411623518368471e-001	 1.303978445825503e+001
 1.612294092057161e+000	 8.586176235383101e-001	 1.301075290848881e+001
 1.602915818294325e+000	 8.760007279287293e-001	 1.297779562993480e+001
 1.593335108546665e+000	 8.933082003509443e-001	 1.294137329276893e+001
 1.686094189130473e+000	 7.198638240940923e-001	 1.308741620338658e+001
 1.678326538615143e+000	 7.377924213536876e-001	 1.309739997623120e+001
 1.670352102682987e+000	 7.556729114529706e-001	 1.310072632535383e+001
 1.662171067050169e+000	 7.735018357553108e-001	 1.309769253285391e+001
 1.653783692339343e+000	 7.912757269029728e-001	 1.308863008268548e+001
 1.645190314647578e+000	 8.089911107913198e-001	 1.307390214064801e+001
 1.636391346053441e+000	 8.266445085715856e-001	 1.305390046485921e+001
 1.627387275061813e+000	 8.442324386800688e-001	 1.302904172942924e+001
 1.618178666985074e+000	 8.617514188915592e-001	 1.299976324830097e+001
 1.608766164259413e+000	 8.791979683947067e-001	 1.296651809082420e+001
 1.599150486695066e+000	 8.965686098869936e-001	 1.292976958556729e+001
 1.692225741715756e+000	 7.224816392286320e-001	 1.307827566268609e+001
 1.684429843812190e+000	 7.404754345876964e-001	 1.308806120360727e+001
 1.676426408507879e+000	 7.584209478427667e-001	 1.309121171174775e+001
 1.668215622194357e+000	 7.763147077797337e-001	 1.308800947687806e+001
 1.659797746442048e+000	 7.941532344316662e-001	 1.307877331584843e+001
 1.651173118570255e+000	 8.119330410601993e-001	 1.306385609944698e+001
 1.642342152156093e+000	 8.296506361655833e-001	 1.304364169460264e+001
 1.633305337480912e+000	 8.473025255232625e-001	 1.301854130372153e+001
 1.624063241912885e+000	 8.648852142447658e-001	 1.298898918727993e+001
 1.614616510224449e+000	 8.823952088606245e-001	 1.295543776049949e+001
 1.604965864843464e+000	 8.998290194229611e-001	 1.291835205997593e+001
 1.698357294300641e+000	 7.250994543633379e-001	 1.306986459565223e+001
 1.690533149008824e+000	 7.431584478218801e-001	 1.307934809745571e+001
 1.682500714332354e+000	 7.611689842327448e-001	 1.308223151918722e+001
 1.674260177338134e+000	 7.791275798043420e-001	 1.307878166172658e+001
 1.665811800544357e+000	 7.970307419605462e-001	 1.306930410966886e+001
 1.657155922492560e+000	 8.148749713292620e-001	 1.305414080663816e+001
 1.648292958258401e+000	 8.326567637597577e-001	 1.303366703071761e+001
 1.639223399899707e+000	 8.503726123666218e-001	 1.300828775083279e+001
 1.629947816840433e+000	 8.680190095981221e-001	 1.297843334935000e+001
 1.620466856189266e+000	 8.855924493266703e-001	 1.294455470095453e+001
 1.610781242991693e+000	 9.030894289590298e-001	 1.290711760303054e+001
 1.704488846885063e+000	 7.277172694983755e-001	 1.306218274947531e+001
 1.696636454204961e+000	 7.458414610564140e-001	 1.307126269687548e+001
 1.688575020156310e+000	 7.639170206230866e-001	 1.307378948883983e+001
 1.680304732481383e+000	 7.819404518293238e-001	 1.307001393464933e+001
 1.671825854646140e+000	 7.999082494898043e-001	 1.306022781646377e+001
 1.663138726414351e+000	 8.178169015987020e-001	 1.304476151474543e+001
 1.654243764360219e+000	 8.356628913543031e-001	 1.302398101847475e+001
 1.645141462318039e+000	 8.534426992103398e-001	 1.299828430002221e+001
 1.635832391767555e+000	 8.711528049518190e-001	 1.296809703905635e+001
 1.626317202153701e+000	 8.887896897930323e-001	 1.293386768477306e+001
 1.616596621139586e+000	 9.063498384953834e-001	 1.289606185100065e+001
 1.710620399468956e+000	 7.303350846339110e-001	 1.305522865968891e+001
 1.702739759400515e+000	 7.485244742914734e-001	 1.306380578305071e+001
 1.694649325979647e+000	 7.666650570139754e-001	 1.306588806804996e+001
 1.686349287623989e+000	 7.847533238548667e-001	 1.306170982328000e+001
 1.677839908747267e+000	 8.027857570196316e-001	 1.305154845302018e+001
 1.669121530335487e+000	 8.207588318687129e-001	 1.303572213449051e+001
 1.660194570461393e+000	 8.386690189494136e-001	 1.301458686447396e+001
 1.651059524735752e+000	 8.565127860546102e-001	 1.298853285417619e+001
 1.641716966694088e+000	 8.742866003060478e-001	 1.295798025579975e+001
 1.632167548117586e+000	 8.919869302598986e-001	 1.292337420931922e+001
 1.622411999286977e+000	 9.096102480322056e-001	 1.288517920332629e+001
 1.716751952052255e+000	 7.329528997701102e-001	 1.304899965749206e+001
 1.708843064595402e+000	 7.512074875272331e-001	 1.305697688818299e+001
 1.700723631802261e+000	 7.694130934055929e-001	 1.305852842067817e+001
 1.692393842765832e+000	 7.875661958811594e-001	 1.305387154717835e+001
 1.683853962847609e+000	 8.056632645502203e-001	 1.304326871313490e+001
 1.675104334255827e+000	 8.237007621394886e-001	 1.302702524812427e+001
 1.666145376561775e+000	 8.416751465452835e-001	 1.300548645056118e+001
 1.656977587152687e+000	 8.595828728996267e-001	 1.297903400410374e+001
 1.647601541619870e+000	 8.774203956610007e-001	 1.294808170830403e+001
 1.638017894080758e+000	 8.951841707274575e-001	 1.291307051117104e+001
 1.628227377433699e+000	 9.128706575696799e-001	 1.287446283681173e+001
 1.570073595956371e+000	 8.802665622022525e-001	 1.298966766208412e+001
 1.560432599048893e+000	 8.972459629188613e-001	 1.295186492222063e+001
 1.550593705615053e+000	 9.141440024037704e-001	 1.291205896307811e+001
 1.540557852787052e+000	 9.309572889105736e-001	 1.287074728429665e+001
 1.530326054011600e+000	 9.476824425522793e-001	 1.282842584650046e+001
 1.519899398955622e+000	 9.643160974185487e-001	 1.278558139200893e+001
 1.509279053342249e+000	 9.808549036971231e-001	 1.274268329484408e+001
 1.498466258716638e+000	 9.972955297967757e-001	 1.270017497491867e+001
 1.487462332141325e+000	 1.013634664469111e+000	 1.265846635319289e+001
 1.476268665820915e+000	 1.029869018926507e+000	 1.261791864179521e+001
 1.464886726656035e+000	 1.045995328953468e+000	 1.257884374004958e+001
 1.575888974103115e+000	 8.835269717404666e-001	 1.297731358695121e+001
 1.566212268014191e+000	 9.005692622709460e-001	 1.293922584481187e+001
 1.556336932412184e+000	 9.175298902167840e-001	 1.289925264634018e+001
 1.546263907900330e+000	 9.344054512689111e-001	 1.285787585718795e+001
 1.535994211679030e+000	 9.511925530215972e-001	 1.281557472059399e+001
 1.525528937451213e+000	 9.678878170975326e-001	 1.277281806633163e+001
 1.514869255257719e+000	 9.844878812771145e-001	 1.273005603699794e+001
 1.504016411242247e+000	 1.000989401629258e+000	 1.268771136691146e+001
 1.492971727345584e+000	 1.017389054641061e+000	 1.264617166875495e+001
 1.481736600928906e+000	 1.033683539343583e+000	 1.260577415281086e+001
 1.470312504326076e+000	 1.049869579431027e+000	 1.256680473258667e+001
 1.581704352250523e+000	 8.867873812778637e-001	 1.296514536826130e+001
 1.571991936980199e+000	 9.038925616222086e-001	 1.292677132484628e+001
 1.562080159210064e+000	 9.209157780289697e-001	 1.288661458767391e+001
 1.551969963014387e+000	 9.378536136264144e-001	 1.284514290409358e+001
 1.541662369347260e+000	 9.547026634900736e-001	 1.280282041799832e+001
 1.531158475947617e+000	 9.714595367756689e-001	 1.276009976379180e+001
 1.520459457174004e+000	 9.881208588562517e-001	 1.271741366522591e+001
 1.509566563768664e+000	 1.004683273460882e+000	 1.267516607476045e+001
 1.498481122550637e+000	 1.021143444812148e+000	 1.263372428382061e+001
 1.487204536037667e+000	 1.037498059759795e+000	 1.259340357888728e+001
 1.475738281996851e+000	 1.053743829907719e+000	 1.255446603063228e+001
 1.587519730398429e+000	 8.900477908146286e-001	 1.295316503010588e+001
 1.577771605946751e+000	 9.072158609728270e-001	 1.291450007444496e+001
 1.567823386008530e+000	 9.243016658404997e-001	 1.287414086310765e+001
 1.557676018129063e+000	 9.413017759832483e-001	 1.283254252221927e+001
 1.547330527016136e+000	 9.582127739578679e-001	 1.279015569591217e+001
 1.536788014444687e+000	 9.750312564531100e-001	 1.274741852211546e+001
 1.526049659090967e+000	 9.917538364346820e-001	 1.270474810022240e+001
 1.515116716295762e+000	 1.008377145291788e+000	 1.266253148667325e+001
 1.503990517756364e+000	 1.024897834982510e+000	 1.262111762132495e+001
 1.492672471147086e+000	 1.041312580175275e+000	 1.258080192664099e+001
 1.481164059668261e+000	 1.057618080383677e+000	 1.254182475652491e+001
 1.593335108546665e+000	 8.933082003509443e-001	 1.294137329276893e+001
 1.583551274913682e+000	 9.105391603229808e-001	 1.290240954134080e+001
 1.573566612807418e+000	 9.276875536515454e-001	 1.286182631361783e+001
 1.563382073244200e+000	 9.447499383395788e-001	 1.282006759314106e+001
 1.552998684685506e+000	 9.617228844251389e-001	 1.277757210560507e+001
 1.542417552942276e+000	 9.786029761300081e-001	 1.273476517329423e+001
 1.531639861008467e+000	 9.953868140125507e-001	 1.269205004787607e+001
 1.520666868823410e+000	 1.012071017122119e+000	 1.264980023785075e+001
 1.509499912962644e+000	 1.028652225152283e+000	 1.260834384451086e+001
 1.498140406257053e+000	 1.045127100590158e+000	 1.256796290780208e+001
 1.486589837340203e+000	 1.061492330859036e+000	 1.252887669445065e+001
 1.599150486695066e+000	 8.965686098869936e-001	 1.292976958556729e+001
 1.589330943880827e+000	 9.138624596728466e-001	 1.289049592135743e+001
 1.579309839606564e+000	 9.310734414622793e-001	 1.284966455737223e+001
 1.569088128359639e+000	 9.481981006955713e-001	 1.280770979493268e+001
 1.558666842355217e+000	 9.652329948920450e-001	 1.276506000454316e+001
 1.548047091440238e+000	 9.821746958065160e-001	 1.272212935581825e+001
 1.537230062926369e+000	 9.990197915900062e-001	 1.267930901171309e+001
 1.526217021351479e+000	 1.015764888952013e+000	 1.263695927250260e+001
 1.515009308169359e+000	 1.032406615321604e+000	 1.259539387008048e+001
 1.503608341367459e+000	 1.048941621004579e+000	 1.255487895285105e+001
 1.492015615012579e+000	 1.065366581333928e+000	 1.251561630464574e+001
 1.604965864843464e+000	 8.998290194229611e-001	 1.291835205997593e+001
 1.595110612848018e+000	 9.171857590226028e-001	 1.287875417118899e+001
 1.585053066405808e+000	 9.344593292728730e-001	 1.283764800228588e+001
 1.574794183475222e+000	 9.516462630513911e-001	 1.279545961461446e+001
 1.564335000025114e+000	 9.687431053587454e-001	 1.275260856884230e+001
 1.553676629938429e+000	 9.857464154827855e-001	 1.270949952723904e+001
 1.542820264844534e+000	 1.002652769167193e+000	 1.266651330566972e+001
 1.531767173879839e+000	 1.019458760781614e+000	 1.262399882765425e+001
 1.520518703376387e+000	 1.036161005490611e+000	 1.258225738166601e+001
 1.509076276478193e+000	 1.052756141418672e+000	 1.254154122496618e+001
 1.497441392685288e+000	 1.069240831808488e+000	 1.250203673789788e+001
 1.610781242991693e+000	 9.030894289590298e-001	 1.290711760303054e+001
 1.600890281815093e+000	 9.205090583724286e-001	 1.286717802147252e+001
 1.590796293204986e+000	 9.378452170834997e-001	 1.282576785888203e+001
 1.580500238590789e+000	 9.550944254072040e-001	 1.278330636091592e+001
 1.570003157695046e+000	 9.722532158253989e-001	 1.274020580604021e+001
 1.559306168436700e+000	 9.893181351589695e-001	 1.269686297705373e+001
 1.548410466762822e+000	 1.006285746744259e+000	 1.265365006718567e+001
 1.537317326408363e+000	 1.023152632611062e+000	 1.261090643810308e+001
 1.526028098583609e+000	 1.039915395659440e+000	 1.256892284361169e+001
 1.514544211589143e+000	 1.056570661832571e+000	 1.252793963427278e+001
 1.502867170358230e+000	 1.073115082282848e+000	 1.248812985033812e+001
 1.616596621139586e+000	 9.063498384953834e-001	 1.289606185100065e+001
 1.606669950781882e+000	 9.238323577225011e-001	 1.285575999014590e+001
 1.596539520003932e+000	 9.412311048943297e-001	 1.281401415345017e+001
 1.586206293706182e+000	 9.585425877631757e-001	 1.277123817734392e+001
 1.575671315364859e+000	 9.757633262921642e-001	 1.272783856817944e+001
 1.564935706934906e+000	 9.928898548352201e-001	 1.268420583990247e+001
 1.554000668681096e+000	 1.009918724321349e+000	 1.264070527061029e+001
 1.542867478936918e+000	 1.026846504440499e+000	 1.259766845867228e+001
 1.531537493790904e+000	 1.043669785828230e+000	 1.255537751505881e+001
 1.520012146700202e+000	 1.060385182246412e+000	 1.251406285238724e+001
 1.508292948031304e+000	 1.076989332757142e+000	 1.247388621851616e+001
 1.622411999286977e+000	 9.096102480322056e-001	 1.288517920332629e+001
 1.612449619748222e+000	 9.271556570729985e-001	 1.284449139608402e+001
 1.602282746802487e+000	 9.446169927055366e-001	 1.280237574149361e+001
 1.591912348821241e+000	 9.619907501194712e-001	 1.275924205554891e+001
 1.581339473034401e+000	 9.792734367592008e-001	 1.271549256519401e+001
 1.570565245432902e+000	 9.964615745116900e-001	 1.267151310907180e+001
 1.559590870599219e+000	 1.013551701898611e+000	 1.262766520565245e+001
 1.548417631465376e+000	 1.030540376270066e+000	 1.258427007821694e+001
 1.537046888998153e+000	 1.047424175997116e+000	 1.254160746432677e+001
 1.525480081811258e+000	 1.064199702660327e+000	 1.249989832724808e+001
 1.513718725704411e+000	 1.080863583231503e+000	 1.245929515475210e+001
 1.628227377433699e+000	 9.128706575696799e-001	 1.287446283681173e+001
 1.618229288713946e+000	 9.304789564240998e-001	 1.283336237300635e+001
 1.608025973600485e+000	 9.480028805172917e-001	 1.279084032145994e+001
 1.597618403935810e+000	 9.654389124762559e-001	 1.274730384898157e+001
 1.587007630703517e+000	 9.827835472266669e-001	 1.270315237859126e+001
 1.576194783930540e+000	 1.000033294188532e+000	 1.265876865029544e+001
 1.565181072517051e+000	 1.017184679476191e+000	 1.261451059250211e+001
 1.553967783993609e+000	 1.034234248099903e+000	 1.257069533392401e+001
 1.542556284205236e+000	 1.051178566166237e+000	 1.252759758358196e+001
 1.530948016922200e+000	 1.068014223074453e+000	 1.248543229822725e+001
 1.519144503377449e+000	 1.084737833706065e+000	 1.244434472275749e+001
 1.464886726656035e+000	 1.045995328953468e+000	 1.257884374004958e+001
 1.453318055313266e+000	 1.062010356654672e+000	 1.253768111919362e+001
 1.441564264409459e+000	 1.077910891461337e+000	 1.249088749035366e+001
 1.429627039115891e+000	 1.093693753231475e+000	 1.243868950620737e+001
 1.417508136850242e+000	 1.109355794658154e+000	 1.238122124443009e+001
 1.405209386483143e+000	 1.124893903309127e+000	 1.231851386558576e+001
 1.392732687476031e+000	 1.140305003643589e+000	 1.225048537718117e+001
 1.380080008951025e+000	 1.155586059003373e+000	 1.217693058451071e+001
 1.367253388693743e+000	 1.170734073575915e+000	 1.209751131132632e+001
 1.354254932090051e+000	 1.185746094326380e+000	 1.201174697520447e+001
 1.341086810997859e+000	 1.200619212896339e+000	 1.191900560371037e+001
 1.470312504326076e+000	 1.049869579431027e+000	 1.256680473258667e+001
 1.458700983910129e+000	 1.065943925015255e+000	 1.252568912286734e+001
 1.446903658270865e+000	 1.081903353635911e+000	 1.247892611889967e+001
 1.434922218821242e+000	 1.097744673372132e+000	 1.242680017501760e+001
 1.422758429488212e+000	 1.113464725259729e+000	 1.236950497844664e+001
 1.410414125916335e+000	 1.129060385338371e+000	 1.230713276520190e+001
 1.397891214602434e+000	 1.144528566675812e+000	 1.223966373105621e+001
 1.385191671962032e+000	 1.159866221366456e+000	 1.216695562008657e+001
 1.372317543328472e+000	 1.175070342501603e+000	 1.208873357582585e+001
 1.359270941885729e+000	 1.190137966108723e+000	 1.200458034198326e+001
 1.346054047536028e+000	 1.205066173057170e+000	 1.191392690101324e+001
 1.475738281996851e+000	 1.053743829907719e+000	 1.255446603063228e+001
 1.464083912507682e+000	 1.069877493374972e+000	 1.251334110213556e+001
 1.452243052132907e+000	 1.085895815809623e+000	 1.246658205144134e+001
 1.440217398527168e+000	 1.101795593511933e+000	 1.241452551443705e+001
 1.428008722126688e+000	 1.117573655860459e+000	 1.235741899756878e+001
 1.415618865349959e+000	 1.133226867366784e+000	 1.229540985657188e+001
 1.403049741729191e+000	 1.148752129707221e+000	 1.222853435926985e+001
 1.390303334973312e+000	 1.164146383728749e+000	 1.215670691683917e+001
 1.377381697963391e+000	 1.179406611426530e+000	 1.207970957057099e+001
 1.364286951681511e+000	 1.194529837890341e+000	 1.199718182319706e+001
 1.351021284074214e+000	 1.209513133217318e+000	 1.190861090525095e+001
 1.481164059668261e+000	 1.057618080383677e+000	 1.254182475652491e+001
 1.469466841105835e+000	 1.073811061733959e+000	 1.250063594489506e+001
 1.457582445995505e+000	 1.089888277982609e+000	 1.245385476504938e+001
 1.445512578233598e+000	 1.105846513651019e+000	 1.240186448260727e+001
 1.433259014765612e+000	 1.121682586460487e+000	 1.234496070307567e+001
 1.420823604783968e+000	 1.137393349394514e+000	 1.228334001812030e+001
 1.408208268856266e+000	 1.152975692737969e+000	 1.221708872498671e+001
 1.395414997984840e+000	 1.168426546090407e+000	 1.214617170536849e+001
 1.382445852598486e+000	 1.183742880350852e+000	 1.207042155276757e+001
 1.369302961477398e+000	 1.198921709671388e+000	 1.198952803953072e+001
 1.355988520612435e+000	 1.213960093376932e+000	 1.190302801624049e+001
 1.486589837340203e+000	 1.061492330859036e+000	 1.252887669445065e+001
 1.474849769704496e+000	 1.077744630092348e+000	 1.248757116253801e+001
 1.462921839858580e+000	 1.093880740155007e+000	 1.244074233904432e+001
 1.450807757940463e+000	 1.109897433789529e+000	 1.238881463493835e+001
 1.438509307404924e+000	 1.125791517059957e+000	 1.233212610394988e+001
 1.426028344218313e+000	 1.141559831421708e+000	 1.227091676097322e+001
 1.413366795983623e+000	 1.157199255768207e+000	 1.220531696277748e+001
 1.400526660996592e+000	 1.172706708451582e+000	 1.213533593923038e+001
 1.387510007233746e+000	 1.188079149274723e+000	 1.206085056610671e+001
 1.374318971273393e+000	 1.203313581452015e+000	 1.198159447279584e+001
 1.360955757150707e+000	 1.218407053536164e+000	 1.189714757980621e+001
 1.492015615012579e+000	 1.065366581333928e+000	 1.251561630464574e+001
 1.480232698303576e+000	 1.081678198450274e+000	 1.247414290456529e+001
 1.468261233722049e+000	 1.097873202326953e+000	 1.242724146964480e+001
 1.456102937647694e+000	 1.113948353927604e+000	 1.237537213843280e+001
 1.443759600044565e+000	 1.129900447659014e+000	 1.231890983053514e+001
 1.431233083652948e+000	 1.145726313448514e+000	 1.225813224162627e+001
 1.418525323111224e+000	 1.161422818798085e+000	 1.219320788999130e+001
 1.405638324008543e+000	 1.176986870812430e+000	 1.212418430472599e+001
 1.392574161869159e+000	 1.192415418198297e+000	 1.205097644870425e+001
 1.379334981069496e+000	 1.207705453232379e+000	 1.197335547177035e+001
 1.365922993689046e+000	 1.222854013695160e+000	 1.189093789129062e+001
 1.497441392685288e+000	 1.069240831808488e+000	 1.250203673789788e+001
 1.485615626902984e+000	 1.085611766807872e+000	 1.246034597348887e+001
 1.473600627585834e+000	 1.101865664498583e+000	 1.241334748490278e+001
 1.461398117355220e+000	 1.117999274065383e+000	 1.236153178630161e+001
 1.449009892684477e+000	 1.134009378257801e+000	 1.230530514849823e+001
 1.436437823087822e+000	 1.149892795475079e+000	 1.224497727493441e+001
 1.423683850239033e+000	 1.165646381827755e+000	 1.218074901847366e+001
 1.410749987020669e+000	 1.181267033173103e+000	 1.211270023106640e+001
 1.397638316504716e+000	 1.196751687121729e+000	 1.204077784144793e+001
 1.384350990865711e+000	 1.212097325012632e+000	 1.196478425848499e+001
 1.370890230227468e+000	 1.227300973854073e+000	 1.188436619955573e+001
 1.502867170358230e+000	 1.073115082282848e+000	 1.248812985033812e+001
 1.490998555502631e+000	 1.089545335165276e+000	 1.244617384001616e+001
 1.478940021449855e+000	 1.105858126670033e+000	 1.239905435991882e+001
 1.466693297062972e+000	 1.122050194203007e+000	 1.234728701286540e+001
 1.454260185324599e+000	 1.138118308856462e+000	 1.229130397308694e+001
 1.441642562522888e+000	 1.154059277501552e+000	 1.223144134741529e+001
 1.428842377367014e+000	 1.169869944857368e+000	 1.216792656662089e+001
 1.415861650032945e+000	 1.185547195533754e+000	 1.210086590090138e+001
 1.402702471140401e+000	 1.201087956045174e+000	 1.203023219674333e+001
 1.389367000662038e+000	 1.216489196792927e+000	 1.195585293494633e+001
 1.375857466765991e+000	 1.231747934013053e+000	 1.187739871146191e+001
 1.508292948031304e+000	 1.076989332757142e+000	 1.247388621851616e+001
 1.496381484102426e+000	 1.093478903522620e+000	 1.243161865850889e+001
 1.484279415314031e+000	 1.109850588841442e+000	 1.238435473233007e+001
 1.471988476770880e+000	 1.126101114340615e+000	 1.233262990873263e+001
 1.459510477964873e+000	 1.142227239455141e+000	 1.227689688367683e+001
 1.446847301958099e+000	 1.158225759528081e+000	 1.221751263085813e+001
 1.434000904495130e+000	 1.174093507887076e+000	 1.215472547176258e+001
 1.420973313045347e+000	 1.189827357894538e+000	 1.208866226120457e+001
 1.407766625776206e+000	 1.205424224968786e+000	 1.201931578764750e+001
 1.394383010458481e+000	 1.220881068573418e+000	 1.194653249028408e+001
 1.380824703304630e+000	 1.236194894172249e+000	 1.187000059681297e+001
 1.513718725704411e+000	 1.080863583231503e+000	 1.245929515475210e+001
 1.501764412702279e+000	 1.097412471880037e+000	 1.241667128270981e+001
 1.489618809178282e+000	 1.113843051012946e+000	 1.236923991806440e+001
 1.477283656478874e+000	 1.130152034478348e+000	 1.231755123624926e+001
 1.464760770605238e+000	 1.146336170053981e+000	 1.226207313859907e+001
 1.452052041393405e+000	 1.162392241554813e+000	 1.220317799623067e+001
 1.439159431623343e+000	 1.178317070917030e+000	 1.214112940286404e+001
 1.426084976057850e+000	 1.194107520255609e+000	 1.207606903450486e+001
 1.412830780412118e+000	 1.209760493892720e+000	 1.200800371738114e+001
 1.399399020255041e+000	 1.225272940354258e+000	 1.193679280831305e+001
 1.385791939843404e+000	 1.240641854331811e+000	 1.186213599375484e+001
 1.519144503377449e+000	 1.084737833706065e+000	 1.244434472275749e+001
 1.507147341302099e+000	 1.101346040237664e+000	 1.240132128173039e+001
 1.494958203042528e+000	 1.117835513184680e+000	 1.235369992735379e+001
 1.482578836186885e+000	 1.134202954616346e+000	 1.230204044521150e+001
 1.470011063245638e+000	 1.150445100653127e+000	 1.224682069024312e+001
 1.457256780828759e+000	 1.166558723581895e+000	 1.218842302787654e+001
 1.444317958751618e+000	 1.182540633947380e+000	 1.212712077354036e+001
 1.431196639070430e+000	 1.198387682617118e+000	 1.206306473045629e+001
 1.417894935048125e+000	 1.214096762817131e+000	 1.199626992920996e+001
 1.404415030051720e+000	 1.229664812135602e+000	 1.192660267549918e+001
 1.390759176382327e+000	 1.245088814491888e+000	 1.185376801461762e+001
 1.341086810997859e+000	 1.200619212896339e+000	 1.191900560371037e+001
 1.327753275425902e+000	 1.215348368834772e+000	 1.183027552679447e+001
 1.314254664028600e+000	 1.229932992248813e+000	 1.175620327187532e+001
 1.300593340761641e+000	 1.244370322232309e+000	 1.169258028724201e+001
 1.286771730854787e+000	 1.258657649759996e+000	 1.163448948893487e+001
 1.272792319379371e+000	 1.272792319379371e+000	 1.157691223272516e+001
 1.258657649759996e+000	 1.286771730854787e+000	 1.151478444078349e+001
 1.244370322232309e+000	 1.300593340761641e+000	 1.144305427490417e+001
 1.229932992248813e+000	 1.314254664028600e+000	 1.135674093779043e+001
 1.215348368834772e+000	 1.327753275425902e+000	 1.125099417023415e+001
 1.200619212896339e+000	 1.341086810997858e+000	 1.112534371359439e+001
 1.346054047536028e+000	 1.205066173057170e+000	 1.191392690101324e+001
 1.332671126029660e+000	 1.219849884152589e+000	 1.182725474927744e+001
 1.319122517275394e+000	 1.234488527391286e+000	 1.175451010855685e+001
 1.305410593984761e+000	 1.248979331641002e+000	 1.169229183594149e+001
 1.291537790370323e+000	 1.263319577842530e+000	 1.163550578399231e+001
 1.277506600707852e+000	 1.277506600707852e+000	 1.157894769738056e+001
 1.263319577842531e+000	 1.291537790370323e+000	 1.151736082842333e+001
 1.248979331641001e+000	 1.305410593984762e+000	 1.144549515902909e+001
 1.234488527391285e+000	 1.319122517275394e+000	 1.135816780072692e+001
 1.219849884152589e+000	 1.332671126029660e+000	 1.125032413037275e+001
 1.205066173057171e+000	 1.346054047536028e+000	 1.112816848712191e+001
 1.351021284074214e+000	 1.209513133217318e+000	 1.190861090525095e+001
 1.337588976633350e+000	 1.224351399469772e+000	 1.182417752752808e+001
 1.323990370522037e+000	 1.239044062533178e+000	 1.175266101380788e+001
 1.310227847207651e+000	 1.253588341049174e+000	 1.169154667464639e+001
 1.296303849885549e+000	 1.267981505924611e+000	 1.163572736347914e+001
 1.282220882035950e+000	 1.282220882035950e+000	 1.157982381784476e+001
 1.267981505924611e+000	 1.296303849885550e+000	 1.151839744827927e+001
 1.253588341049174e+000	 1.310227847207652e+000	 1.144601111307374e+001
 1.239044062533178e+000	 1.323990370522037e+000	 1.135729112168054e+001
 1.224351399469772e+000	 1.337588976633350e+000	 1.124815632286260e+001
 1.209513133217318e+000	 1.351021284074214e+000	 1.113109030143548e+001
 1.355988520612435e+000	 1.213960093376932e+000	 1.190302801624049e+001
 1.342506827237006e+000	 1.228852914786463e+000	 1.182077811965334e+001
 1.328858223768578e+000	 1.243599597674624e+000	 1.175065871413642e+001
 1.315045100430375e+000	 1.258197350456951e+000	 1.169035183763071e+001
 1.301069909400549e+000	 1.272643434006347e+000	 1.163516925960763e+001
 1.286935163363761e+000	 1.286935163363761e+000	 1.157956712387890e+001
 1.272643434006347e+000	 1.301069909400548e+000	 1.151793562954553e+001
 1.258197350456951e+000	 1.315045100430375e+000	 1.144466136320867e+001
 1.243599597674625e+000	 1.328858223768578e+000	 1.135419091096263e+001
 1.228852914786463e+000	 1.342506827237006e+000	 1.124637969535033e+001
 1.213960093376932e+000	 1.355988520612435e+000	 1.113408258852248e+001
 1.360955757150707e+000	 1.218407053536164e+000	 1.189714757980621e+001
 1.347424677840658e+000	 1.233354430102806e+000	 1.181701806331630e+001
 1.333726077015066e+000	 1.248155132815760e+000	 1.174850120987659e+001
 1.319862353652996e+000	 1.262806359864455e+000	 1.168871112099601e+001
 1.305835968915399e+000	 1.277305362087850e+000	 1.163384334869942e+001
 1.291649444691380e+000	 1.291649444691380e+000	 1.157820104322687e+001
 1.277305362087850e+000	 1.305835968915399e+000	 1.151601362613848e+001
 1.262806359864454e+000	 1.319862353652996e+000	 1.144150206119058e+001
 1.248155132815760e+000	 1.333726077015067e+000	 1.134895456301675e+001
 1.233354430102806e+000	 1.347424677840658e+000	 1.124496623104057e+001
 1.218407053536164e+000	 1.360955757150707e+000	 1.113711552427667e+001
 1.365922993689046e+000	 1.222854013695160e+000	 1.189093789129062e+001
 1.352342528444339e+000	 1.237855945418944e+000	 1.181286111102451e+001
 1.338593930261548e+000	 1.252710667956719e+000	 1.174596989454228e+001
 1.324679606875580e+000	 1.267415369271808e+000	 1.168662492423908e+001
 1.310602028430182e+000	 1.281967290169231e+000	 1.163175819517808e+001
 1.296363726018903e+000	 1.296363726018903e+000	 1.157574574897244e+001
 1.281967290169231e+000	 1.310602028430182e+000	 1.151266646831618e+001
 1.267415369271808e+000	 1.324679606875580e+000	 1.143658614109729e+001
 1.252710667956719e+000	 1.338593930261548e+000	 1.134321279394301e+001
 1.237855945418944e+000	 1.352342528444340e+000	 1.124385950711567e+001
 1.222854013695160e+000	 1.365922993689046e+000	 1.114015610321199e+001
 1.370890230227468e+000	 1.227300973854073e+000	 1.188436619955573e+001
 1.357260379048082e+000	 1.242357460735021e+000	 1.180827002908231e+001
 1.343461783508072e+000	 1.257266203097635e+000	 1.174288145058360e+001
 1.329496860098190e+000	 1.272024378679135e+000	 1.168409009235726e+001
 1.315368087944978e+000	 1.286629218250599e+000	 1.162891889607785e+001
 1.301078007346426e+000	 1.301078007346426e+000	 1.157221800737401e+001
 1.286629218250599e+000	 1.315368087944978e+000	 1.150792581471965e+001
 1.272024378679135e+000	 1.329496860098190e+000	 1.142996317641437e+001
 1.257266203097635e+000	 1.343461783508072e+000	 1.133804550005553e+001
 1.242357460735021e+000	 1.357260379048082e+000	 1.124300026009099e+001
 1.227300973854073e+000	 1.370890230227468e+000	 1.114316821323173e+001
 1.375857466765991e+000	 1.231747934013053e+000	 1.187739871146191e+001
 1.362178229651917e+000	 1.246858976051181e+000	 1.180320660014734e+001
 1.348329636754686e+000	 1.261821738238644e+000	 1.173919659503272e+001
 1.334314113320891e+000	 1.276633388086560e+000	 1.168109255342592e+001
 1.320134147459867e+000	 1.291291146332064e+000	 1.162532692605470e+001
 1.305792288674046e+000	 1.305792288674046e+000	 1.156763102616415e+001
 1.291291146332064e+000	 1.320134147459867e+000	 1.150181980482609e+001
 1.276633388086560e+000	 1.334314113320891e+000	 1.142173182321797e+001
 1.261821738238644e+000	 1.348329636754686e+000	 1.133336986338024e+001
 1.246858976051181e+000	 1.362178229651917e+000	 1.124232645697087e+001
 1.231747934013053e+000	 1.375857466765991e+000	 1.114611271045140e+001
 1.380824703304630e+000	 1.236194894172249e+000	 1.187000059681297e+001
 1.367096080255878e+000	 1.251360491367567e+000	 1.179763162628624e+001
 1.353197490001439e+000	 1.266377273379880e+000	 1.173487507458813e+001
 1.339131366543747e+000	 1.281242397494204e+000	 1.167739873453255e+001
 1.324900206974929e+000	 1.295953074413737e+000	 1.162097998288809e+001
 1.310506570001856e+000	 1.310506570001856e+000	 1.156199430330325e+001
 1.295953074413737e+000	 1.324900206974929e+000	 1.149437291180347e+001
 1.281242397494204e+000	 1.339131366543747e+000	 1.141348005531532e+001
 1.266377273379879e+000	 1.353197490001439e+000	 1.132910059112796e+001
 1.251360491367567e+000	 1.367096080255878e+000	 1.124177336656316e+001
 1.236194894172249e+000	 1.380824703304631e+000	 1.114894749407433e+001
 1.385791939843404e+000	 1.240641854331811e+000	 1.186213599375484e+001
 1.372013930859996e+000	 1.255862006684323e+000	 1.179150493251677e+001
 1.358065343248378e+000	 1.270932808521476e+000	 1.172987566809157e+001
 1.343948619766823e+000	 1.285851406902192e+000	 1.167287099207955e+001
 1.329666266490246e+000	 1.300615002495729e+000	 1.161587183346007e+001
 1.315220851329954e+000	 1.315220851329954e+000	 1.155531347617431e+001
 1.300615002495729e+000	 1.329666266490246e+000	 1.148560579575575e+001
 1.285851406902192e+000	 1.343948619766822e+000	 1.140585672755518e+001
 1.270932808521476e+000	 1.358065343248378e+000	 1.132514998417644e+001
 1.255862006684323e+000	 1.372013930859996e+000	 1.124127363094882e+001
 1.240641854331811e+000	 1.385791939843404e+000	 1.115162758131816e+001
 1.390759176382327e+000	 1.245088814491888e+000	 1.185376801461762e+001
 1.376931781464302e+000	 1.260363522001592e+000	 1.178478537082425e+001
 1.362933196495552e+000	 1.275488343663569e+000	 1.172415618949324e+001
 1.348765872990182e+000	 1.290460416310646e+000	 1.166746921448607e+001
 1.334432326005897e+000	 1.305276930578148e+000	 1.160998395992778e+001
 1.319935132658436e+000	 1.319935132658435e+000	 1.154759017120989e+001
 1.305276930578149e+000	 1.334432326005897e+000	 1.147559254171194e+001
 1.290460416310646e+000	 1.348765872990182e+000	 1.139875381249372e+001
 1.275488343663570e+000	 1.362933196495552e+000	 1.132142800579230e+001
 1.260363522001592e+000	 1.376931781464302e+000	 1.124075733710264e+001
 1.245088814491889e+000	 1.390759176382327e+000	 1.115410518239128e+001
 1.200619212896339e+000	 1.341086810997858e+000	 1.112534371359439e+001
 1.185746094326380e+000	 1.354254932090050e+000	 1.099819059229852e+001
 1.170734073575915e+000	 1.367253388693742e+000	 1.087373694665413e+001
 1.155586059003373e+000	 1.380080008951025e+000	 1.075083535960265e+001
 1.140305003643589e+000	 1.392732687476031e+000	 1.062848432450527e+001
 1.124893903309127e+000	 1.405209386483143e+000	 1.050581934875176e+001
 1.109355794658154e+000	 1.417508136850241e+000	 1.038210337958275e+001
 1.093693753231475e+000	 1.429627039115892e+000	 1.025671667503867e+001
 1.077910891461337e+000	 1.441564264409459e+000	 1.012914624463734e+001
 1.062010356654672e+000	 1.453318055313266e+000	 9.998974984871536e+000
 1.045995328953468e+000	 1.464886726656035e+000	 9.865870633926143e+000
 1.205066173057171e+000	 1.346054047536028e+000	 1.112816848712191e+001
 1.190137966108723e+000	 1.359270941885729e+000	 1.100567714029009e+001
 1.175070342501603e+000	 1.372317543328472e+000	 1.088505891784088e+001
 1.159866221366456e+000	 1.385191671962032e+000	 1.076524462343870e+001
 1.144528566675812e+000	 1.397891214602435e+000	 1.064531658086179e+001
 1.129060385338371e+000	 1.410414125916335e+000	 1.052449927093998e+001
 1.113464725259729e+000	 1.422758429488212e+000	 1.040214927445348e+001
 1.097744673372132e+000	 1.434922218821242e+000	 1.027774464771544e+001
 1.081903353635911e+000	 1.446903658270865e+000	 1.015087385928126e+001
 1.065943925015255e+000	 1.458700983910129e+000	 1.002122441672148e+001
 1.049869579431026e+000	 1.470312504326076e+000	 9.888571311669432e+000
 1.209513133217318e+000	 1.351021284074214e+000	 1.113109030143549e+001
 1.194529837890342e+000	 1.364286951681511e+000	 1.101296095670064e+001
 1.179406611426530e+000	 1.377381697963390e+000	 1.089596165115810e+001
 1.164146383728749e+000	 1.390303334973312e+000	 1.077909218383014e+001
 1.148752129707221e+000	 1.403049741729192e+000	 1.066150913350654e+001
 1.133226867366785e+000	 1.415618865349959e+000	 1.054251603872997e+001
 1.117573655860459e+000	 1.428008722126688e+000	 1.042155286785912e+001
 1.101795593511933e+000	 1.440217398527168e+000	 1.029818490977391e+001
 1.085895815809623e+000	 1.452243052132907e+000	 1.017209121754349e+001
 1.069877493374973e+000	 1.464083912507682e+000	 1.004305273786964e+001
 1.053743829907719e+000	 1.475738281996851e+000	 9.910940258363508e+000
 1.213960093376932e+000	 1.355988520612435e+000	 1.113408258852248e+001
 1.198921709671387e+000	 1.369302961477398e+000	 1.102003885018279e+001
 1.183742880350852e+000	 1.382445852598486e+000	 1.090646207729169e+001
 1.168426546090406e+000	 1.395414997984840e+000	 1.079241194803256e+001
 1.152975692737969e+000	 1.408208268856267e+000	 1.067710983382242e+001
 1.137393349394514e+000	 1.420823604783969e+000	 1.055992853177069e+001
 1.121682586460487e+000	 1.433259014765612e+000	 1.044038127169100e+001
 1.105846513651019e+000	 1.445512578233598e+000	 1.031811013211073e+001
 1.089888277982609e+000	 1.457582445995505e+000	 1.019287400151148e+001
 1.073811061733959e+000	 1.469466841105835e+000	 1.006453622152340e+001
 1.057618080383677e+000	 1.481164059668260e+000	 9.933052048011003e+000
 1.218407053536164e+000	 1.360955757150707e+000	 1.113711552427667e+001
 1.203313581452016e+000	 1.374318971273392e+000	 1.102690410410841e+001
 1.188079149274723e+000	 1.387510007233746e+000	 1.091657337626677e+001
 1.172706708451582e+000	 1.400526660996592e+000	 1.080523388991851e+001
 1.157199255768207e+000	 1.413366795983623e+000	 1.069216245857270e+001
 1.141559831421708e+000	 1.426028344218314e+000	 1.057679145414267e+001
 1.125791517059957e+000	 1.438509307404925e+000	 1.045869736038848e+001
 1.109897433789529e+000	 1.450807757940463e+000	 1.033758872410367e+001
 1.093880740155007e+000	 1.462921839858580e+000	 1.021329364422762e+001
 1.077744630092348e+000	 1.474849769704496e+000	 1.008574693955580e+001
 1.061492330859036e+000	 1.486589837340203e+000	 9.954977134896083e+000
 1.222854013695160e+000	 1.365922993689046e+000	 1.114015610321199e+001
 1.207705453232379e+000	 1.379334981069496e+000	 1.103354655494040e+001
 1.192415418198296e+000	 1.392574161869159e+000	 1.092630505854082e+001
 1.176986870812430e+000	 1.405638324008543e+000	 1.081758413288717e+001
 1.161422818798085e+000	 1.418525323111225e+000	 1.070670679375430e+001
 1.145726313448514e+000	 1.431233083652948e+000	 1.059315541831639e+001
 1.129900447659014e+000	 1.443759600044566e+000	 1.047655985419809e+001
 1.113948353927604e+000	 1.456102937647694e+000	 1.035668491540123e+001
 1.097873202326952e+000	 1.468261233722049e+000	 1.023341740927554e+001
 1.081678198450274e+000	 1.480232698303576e+000	 1.010675283919029e+001
 1.065366581333929e+000	 1.492015615012579e+000	 9.976781926706682e+000
 1.227300973854073e+000	 1.370890230227468e+000	 1.114316821323173e+001
 1.212097325012632e+000	 1.384350990865711e+000	 1.103995267055101e+001
 1.196751687121729e+000	 1.397638316504715e+000	 1.093566304595316e+001
 1.181267033173102e+000	 1.410749987020669e+000	 1.082948503255881e+001
 1.165646381827755e+000	 1.423683850239034e+000	 1.072077871818281e+001
 1.149892795475079e+000	 1.436437823087822e+000	 1.060906702880541e+001
 1.134009378257801e+000	 1.449009892684477e+000	 1.049402340210592e+001
 1.117999274065384e+000	 1.461398117355220e+000	 1.037545883738103e+001
 1.101865664498583e+000	 1.473600627585835e+000	 1.025330847004418e+001
 1.085611766807872e+000	 1.485615626902985e+000	 1.012761781938802e+001
 1.069240831808489e+000	 1.497441392685288e+000	 9.998528857396487e+000
 1.231747934013053e+000	 1.375857466765991e+000	 1.114611271045140e+001
 1.216489196792927e+000	 1.389367000662038e+000	 1.104610562848803e+001
 1.201087956045174e+000	 1.402702471140401e+000	 1.094464975253530e+001
 1.185547195533754e+000	 1.415861650032945e+000	 1.084095525925983e+001
 1.169869944857368e+000	 1.428842377367014e+000	 1.073441028681457e+001
 1.154059277501552e+000	 1.441642562522888e+000	 1.062456896552056e+001
 1.138118308856462e+000	 1.454260185324599e+000	 1.051113866445171e+001
 1.122050194203007e+000	 1.466693297062972e+000	 1.039396660428410e+001
 1.105858126670033e+000	 1.478940021449855e+000	 1.027302598867883e+001
 1.089545335165276e+000	 1.490998555502631e+000	 1.014840180694491e+001
 1.073115082282848e+000	 1.502867170358230e+000	 1.002027645979485e+001
 1.236194894172249e+000	 1.380824703304631e+000	 1.114894749407433e+001
 1.220881068573418e+000	 1.394383010458481e+000	 1.105198539419006e+001
 1.205424224968787e+000	 1.407766625776206e+000	 1.095326416518452e+001
 1.189827357894538e+000	 1.420973313045347e+000	 1.085200988030361e+001
 1.174093507887076e+000	 1.434000904495129e+000	 1.074762981381374e+001
 1.158225759528081e+000	 1.446847301958099e+000	 1.063970006683408e+001
 1.142227239455140e+000	 1.459510477964873e+000	 1.052795239523265e+001
 1.126101114340616e+000	 1.471988476770880e+000	 1.041226039403471e+001
 1.109850588841442e+000	 1.484279415314031e+000	 1.029262519472613e+001
 1.093478903522619e+000	 1.496381484102427e+000	 1.016916083230615e+001
 1.076989332757142e+000	 1.508292948031304e+000	 1.004207943796942e+001
 1.240641854331811e+000	 1.385791939843404e+000	 1.115162758131816e+001
 1.225272940354258e+000	 1.399399020255041e+000	 1.105756879915240e+001
 1.209760493892720e+000	 1.412830780412117e+000	 1.096150192420513e+001
 1.194107520255608e+000	 1.426084976057850e+000	 1.086266044207198e+001
 1.178317070917029e+000	 1.439159431623343e+000	 1.076046195537015e+001
 1.162392241554813e+000	 1.452052041393404e+000	 1.065449541235957e+001
 1.146336170053981e+000	 1.464760770605239e+000	 1.054450752410408e+001
 1.130152034478348e+000	 1.477283656478874e+000	 1.043038852875248e+001
 1.113843051012946e+000	 1.489618809178283e+000	 1.031215746348119e+001
 1.097412471880037e+000	 1.501764412702279e+000	 1.018994710510569e+001
 1.080863583231503e+000	 1.513718725704410e+000	 1.006398873934874e+001
 1.245088814491889e+000	 1.390759176382327e+000	 1.115410518239128e+001
 1.229664812135602e+000	 1.404415030051719e+000	 1.106282961904461e+001
 1.214096762817131e+000	 1.417894935048125e+000	 1.096935540371993e+001
 1.198387682617119e+000	 1.431196639070430e+000	 1.087291505190299e+001
 1.182540633947380e+000	 1.444317958751618e+000	 1.077292779227407e+001
 1.166558723581895e+000	 1.457256780828759e+000	 1.066898640545611e+001
 1.150445100653127e+000	 1.470011063245638e+000	 1.056084323808574e+001
 1.134202954616346e+000	 1.482578836186884e+000	 1.044839555496519e+001
 1.117835513184680e+000	 1.494958203042528e+000	 1.033167039404423e+001
 1.101346040237664e+000	 1.507147341302099e+000	 1.021080908943616e+001
 1.084737833706065e+000	 1.519144503377448e+000	 1.008605162661026e+001
 1.045995328953468e+000	 1.464886726656035e+000	 9.865870633926143e+000
 1.029869018926506e+000	 1.476268665820915e+000	 9.726673703377033e+000
 1.013634664469111e+000	 1.487462332141325e+000	 9.578825138889833e+000
 9.972955297967756e-001	 1.498466258716638e+000	 9.422977325041533e+000
 9.808549036971231e-001	 1.509279053342249e+000	 9.259839219922153e+000
 9.643160974185489e-001	 1.519899398955622e+000	 9.090125446549711e+000
 9.476824425522794e-001	 1.530326054011600e+000	 8.914570769725016e+000
 9.309572889105739e-001	 1.540557852787053e+000	 8.733913753010864e+000
 9.141440024037704e-001	 1.550593705615053e+000	 8.548887198190785e+000
 8.972459629188613e-001	 1.560432599048893e+000	 8.360209345901700e+000
 8.802665622022525e-001	 1.570073595956371e+000	 8.168575901976087e+000
 1.049869579431026e+000	 1.470312504326076e+000	 9.888571311669432e+000
 1.033683539343583e+000	 1.481736600928906e+000	 9.749831897630255e+000
 1.017389054641061e+000	 1.492971727345584e+000	 9.602451481197257e+000
 1.000989401629258e+000	 1.504016411242247e+000	 9.447082918083810e+000
 9.844878812771145e-001	 1.514869255257719e+000	 9.284434228083052e+000
 9.678878170975326e-001	 1.525528937451213e+000	 9.115219506782220e+000
 9.511925530215970e-001	 1.535994211679030e+000	 8.940171822413483e+000
 9.344054512689113e-001	 1.546263907900330e+000	 8.760026988029891e+000
 9.175298902167840e-001	 1.556336932412184e+000	 8.575513812597935e+000
 9.005692622709460e-001	 1.566212268014191e+000	 8.387345139253755e+000
 8.835269717404662e-001	 1.575888974103115e+000	 8.196209736917014e+000
 1.053743829907719e+000	 1.475738281996851e+000	 9.910940258363508e+000
 1.037498059759795e+000	 1.487204536037667e+000	 9.772732430672551e+000
 1.021143444812148e+000	 1.498481122550637e+000	 9.625872632562318e+000
 1.004683273460882e+000	 1.509566563768664e+000	 9.471016485448098e+000
 9.881208588562515e-001	 1.520459457174004e+000	 9.308873506401193e+000
 9.714595367756690e-001	 1.531158475947617e+000	 9.140159759994395e+000
 9.547026634900736e-001	 1.541662369347260e+000	 8.965609206212244e+000
 9.378536136264148e-001	 1.551969963014387e+000	 8.785957564006237e+000
 9.209157780289695e-001	 1.562080159210064e+000	 8.601932361643494e+000
 9.038925616222084e-001	 1.571991936980199e+000	 8.414243800709910e+000
 8.867873812778638e-001	 1.581704352250523e+000	 8.223576501679352e+000
 1.057618080383677e+000	 1.481164059668260e+000	 9.933052048011003e+000
 1.041312580175275e+000	 1.492672471147086e+000	 9.795447709759305e+000
 1.024897834982510e+000	 1.503990517756364e+000	 9.649160084274127e+000
 1.008377145291788e+000	 1.515116716295762e+000	 9.494849826289858e+000
 9.917538364346820e-001	 1.526049659090967e+000	 9.333230357264810e+000
 9.750312564531100e-001	 1.536788014444687e+000	 9.165022176702898e+000
 9.582127739578679e-001	 1.547330527016136e+000	 8.990962692249280e+000
 9.413017759832485e-001	 1.557676018129063e+000	 8.811790150673533e+000
 9.243016658404996e-001	 1.567823386008530e+000	 8.628233475003350e+000
 9.072158609728270e-001	 1.577771605946751e+000	 8.441002942317025e+000
 8.900477908146289e-001	 1.587519730398429e+000	 8.250781771880119e+000
 1.061492330859036e+000	 1.486589837340203e+000	 9.954977134896083e+000
 1.045127100590158e+000	 1.498140406257054e+000	 9.818046111894230e+000
 1.028652225152283e+000	 1.509499912962645e+000	 9.672381370149063e+000
 1.012071017122118e+000	 1.520666868823410e+000	 9.518656642755458e+000
 9.953868140125510e-001	 1.531639861008467e+000	 9.357574224825838e+000
 9.786029761300082e-001	 1.542417552942276e+000	 9.189878897473554e+000
 9.617228844251389e-001	 1.552998684685507e+000	 9.016308237017569e+000
 9.447499383395789e-001	 1.563382073244200e+000	 8.837605606405006e+000
 9.276875536515453e-001	 1.573566612807418e+000	 8.654503963148443e+000
 9.105391603229807e-001	 1.583551274913682e+000	 8.467716338865273e+000
 8.933082003509443e-001	 1.593335108546665e+000	 8.277927258521963e+000
 1.065366581333929e+000	 1.492015615012579e+000	 9.976781926706682e+000
 1.048941621004579e+000	 1.503608341367459e+000	 9.840592053214008e+000
 1.032406615321604e+000	 1.515009308169358e+000	 9.695600132462108e+000
 1.015764888952013e+000	 1.526217021351479e+000	 9.542489068127924e+000
 9.990197915900062e-001	 1.537230062926369e+000	 9.381970754857976e+000
 9.821746958065158e-001	 1.548047091440238e+000	 9.214798290151583e+000
 9.652329948920445e-001	 1.558666842355216e+000	 9.041718037243026e+000
 9.481981006955714e-001	 1.569088128359639e+000	 8.863481030978196e+000
 9.310734414622792e-001	 1.579309839606565e+000	 8.680826868259507e+000
 9.138624596728466e-001	 1.589330943880827e+000	 8.494473977201587e+000
 8.965686098869936e-001	 1.599150486695066e+000	 8.305110855947238e+000
 1.069240831808489e+000	 1.497441392685288e+000	 9.998528857396487e+000
 1.052756141418672e+000	 1.509076276478193e+000	 9.863146058154385e+000
 1.036161005490611e+000	 1.520518703376387e+000	 9.718876187694477e+000
 1.019458760781614e+000	 1.531767173879840e+000	 9.566413524134619e+000
 1.002652769167193e+000	 1.542820264844534e+000	 9.406481854479829e+000
 9.857464154827852e-001	 1.553676629938429e+000	 9.239845006972026e+000
 9.687431053587454e-001	 1.564335000025115e+000	 9.067260584640980e+000
 9.516462630513914e-001	 1.574794183475222e+000	 8.889489818232439e+000
 9.344593292728730e-001	 1.585053066405808e+000	 8.707281515034419e+000
 9.171857590226031e-001	 1.595110612848019e+000	 8.521362105428567e+000
 8.998290194229609e-001	 1.604965864843464e+000	 8.332426689665118e+000
 1.073115082282848e+000	 1.502867170358230e+000	 1.002027645979485e+001
 1.056570661832571e+000	 1.514544211589144e+000	 9.885764828403779e+000
 1.039915395659441e+000	 1.526028098583609e+000	 9.742265592101621e+000
 1.023152632611062e+000	 1.537317326408362e+000	 9.590486584128435e+000
 1.006285746744259e+000	 1.548410466762821e+000	 9.431165751746550e+000
 9.893181351589695e-001	 1.559306168436700e+000	 9.265080041553892e+000
 9.722532158253990e-001	 1.570003157695046e+000	 9.093000720566650e+000
 9.550944254072042e-001	 1.580500238590789e+000	 8.915701708623354e+000
 9.378452170834997e-001	 1.590796293204986e+000	 8.733943561389468e+000
 9.205090583724285e-001	 1.600890281815093e+000	 8.548463281990802e+000
 9.030894289590297e-001	 1.610781242991693e+000	 8.359965164054902e+000
 1.076989332757142e+000	 1.508292948031304e+000	 1.004207943796942e+001
 1.060385182246412e+000	 1.520012146700202e+000	 9.908501311648637e+000
 1.043669785828230e+000	 1.531537493790905e+000	 9.765820707105807e+000
 1.026846504440499e+000	 1.542867478936918e+000	 9.614761171115308e+000
 1.009918724321349e+000	 1.554000668681096e+000	 9.456077055113124e+000
 9.928898548352203e-001	 1.564935706934907e+000	 9.290560785780290e+000
 9.757633262921642e-001	 1.575671315364859e+000	 9.118999690559843e+000
 9.585425877631757e-001	 1.586206293706181e+000	 8.942182841675686e+000
 9.412311048943298e-001	 1.596539520003933e+000	 8.760885049058391e+000
 9.238323577225011e-001	 1.606669950781882e+000	 8.575856424652480e+000
 9.063498384953833e-001	 1.616596621139586e+000	 8.387813009948243e+000
 1.080863583231503e+000	 1.513718725704410e+000	 1.006398873934874e+001
 1.064199702660327e+000	 1.525480081811258e+000	 9.931404770117043e+000
 1.047424175997117e+000	 1.537046888998154e+000	 9.789590264518699e+000
 1.030540376270066e+000	 1.548417631465377e+000	 9.639286619910529e+000
 1.013551701898611e+000	 1.559590870599219e+000	 9.481272046123893e+000
 9.964615745116900e-001	 1.570565245432902e+000	 9.316341086568359e+000
 9.792734367592008e-001	 1.581339473034401e+000	 9.145315198788723e+000
 9.619907501194712e-001	 1.591912348821241e+000	 8.968995808337805e+000
 9.446169927055365e-001	 1.602282746802487e+000	 8.788174454090781e+000
 9.271556570729986e-001	 1.612449619748221e+000	 8.603616859367529e+000
 9.096102480322056e-001	 1.622411999286977e+000	 8.416053332093991e+000
 1.084737833706065e+000	 1.519144503377448e+000	 1.008605162661026e+001
 1.068014223074453e+000	 1.530948016922200e+000	 9.954520848924476e+000
 1.051178566166237e+000	 1.542556284205236e+000	 9.813619431597376e+000
 1.034234248099904e+000	 1.553967783993609e+000	 9.664108739153324e+000
 1.017184679476191e+000	 1.565181072517051e+000	 9.506787501510571e+000
 1.000033294188532e+000	 1.576194783930540e+000	 9.342471302530898e+000
 9.827835472266669e-001	 1.587007630703517e+000	 9.172001462392922e+000
 9.654389124762561e-001	 1.597618403935809e+000	 8.996199703240349e+000
 9.480028805172913e-001	 1.608025973600485e+000	 8.815876737253477e+000
 9.304789564241000e-001	 1.618229288713945e+000	 8.631816369046490e+000
 9.128706575696799e-001	 1.628227377433698e+000	 8.444765656507792e+000
 8.802665622022525e-001	 1.570073595956371e+000	 8.168575901976087e+000
 8.632117660604605e-001	 1.579514434436757e+000	 7.975114026410166e+000
 8.460824421210690e-001	 1.588755792347743e+000	 7.781203798912757e+000
 8.288820044598098e-001	 1.597796962967234e+000	 7.587974257574536e+000
 8.116138705974474e-001	 1.606637315540310e+000	 7.396534618197430e+000
 7.942814594428975e-001	 1.615276295033541e+000	 7.207969623025602e+000
 7.768881892555959e-001	 1.623713421824429e+000	 7.023335857552095e+000
 7.594374756294086e-001	 1.631948291327146e+000	 6.843659029504523e+000
 7.419327295003328e-001	 1.639980573555821e+000	 6.669932193936915e+000
 7.243773551801412e-001	 1.647810012626662e+000	 6.503114898541841e+000
 7.067747484180751e-001	 1.655436426200365e+000	 6.344133213935231e+000
 8.835269717404662e-001	 1.575888974103115e+000	 8.196209736917014e+000
 8.664090065285576e-001	 1.585364780400400e+000	 8.003334962191037e+000
 8.492162374763993e-001	 1.594640367274438e+000	 7.810148845979149e+000
 8.319520913050782e-001	 1.603715025385501e+000	 7.617691596118333e+000
 8.146199981934758e-001	 1.612588121642420e+000	 7.426980927399365e+000
 7.972233897137646e-001	 1.621259098955965e+000	 7.239007571212813e+000
 7.797656967862306e-001	 1.629727475927164e+000	 7.054731784424178e+000
 7.622503476557205e-001	 1.637992846471639e+000	 6.875080850986923e+000
 7.446807658919559e-001	 1.646054879381276e+000	 6.700947559349821e+000
 7.270603684159014e-001	 1.653913317824509e+000	 6.533189628644375e+000
 7.093925635542742e-001	 1.661567978786661e+000	 6.372630047030780e+000
 8.867873812778638e-001	 1.581704352250523e+000	 8.223576501679352e+000
 8.696062469958423e-001	 1.591215126364653e+000	 8.031254230688401e+000
 8.523500328309214e-001	 1.600524942201680e+000	 7.838748982290062e+000
 8.350221781495452e-001	 1.609633087804250e+000	 7.647014583461937e+000
 8.176261257887098e-001	 1.618538927744937e+000	 7.456979599829351e+000
 8.001653199838463e-001	 1.627241902878722e+000	 7.269543000880799e+000
 7.826432043160947e-001	 1.635741530030153e+000	 7.085570856473837e+000
 7.650632196812786e-001	 1.644037401616305e+000	 6.905894057545988e+000
 7.474288022828487e-001	 1.652129185206822e+000	 6.731307043219030e+000
 7.297433816509610e-001	 1.660016623022366e+000	 6.562567506151277e+000
 7.120103786898093e-001	 1.667699531372885e+000	 6.400397038127360e+000
 8.900477908146289e-001	 1.587519730398429e+000	 8.250781771880119e+000
 8.728034874625038e-001	 1.597065472329349e+000	 8.058985948986930e+000
 8.554838281848283e-001	 1.606409517129309e+000	 7.867127044007462e+000
 8.380922649934033e-001	 1.615551150223324e+000	 7.676074908814139e+000
 8.206322533833427e-001	 1.624489733847713e+000	 7.486671266239934e+000
 8.031072502533373e-001	 1.633224706801671e+000	 7.299725525506943e+000
 7.855207118453781e-001	 1.641755584133266e+000	 7.116011661923166e+000
 7.678760917062713e-001	 1.650081956761025e+000	 6.936266153175790e+000
 7.501768386731937e-001	 1.658203491032357e+000	 6.761186953543225e+000
 7.324263948854953e-001	 1.666119928220147e+000	 6.591433476740396e+000
 7.146281938248470e-001	 1.673831083958972e+000	 6.427627547989324e+000
 8.933082003509443e-001	 1.593335108546665e+000	 8.277927258521963e+000
 8.760007279287294e-001	 1.602915818294325e+000	 8.086640339017761e+000
 8.586176235383102e-001	 1.612294092057161e+000	 7.895401944475858e+000
 8.411623518368468e-001	 1.621469212642563e+000	 7.705000314558283e+000
 8.236383809775706e-001	 1.630440539950599e+000	 7.516192590959060e+000
 8.060491805224308e-001	 1.639207510724670e+000	 7.329700777674284e+000
 7.883982193742737e-001	 1.647769638236373e+000	 7.146208799448051e+000
 7.706889637308856e-001	 1.656126511905686e+000	 6.966360650145377e+000
 7.529248750631739e-001	 1.664277796857779e+000	 6.790759611507481e+000
 7.351094081196791e-001	 1.672223233417767e+000	 6.619968511859657e+000
 7.172460089595523e-001	 1.679962636544857e+000	 6.454510983953663e+000
 8.965686098869936e-001	 1.599150486695066e+000	 8.305110855947238e+000
 8.791979683947069e-001	 1.608766164259413e+000	 8.114323774293252e+000
 8.617514188915589e-001	 1.618178666985074e+000	 7.923688719775073e+000
 8.442324386800686e-001	 1.627387275061812e+000	 7.733914640656113e+000
 8.266445085715856e-001	 1.636391346053441e+000	 7.545676315171673e+000
 8.089911107913201e-001	 1.645190314647578e+000	 7.359610451251315e+000
 7.912757269029727e-001	 1.653783692339343e+000	 7.176312919270202e+000
 7.735018357553106e-001	 1.662171067050169e+000	 6.996337109008828e+000
 7.556729114529706e-001	 1.670352102682987e+000	 6.820193390412837e+000
 7.377924213536878e-001	 1.678326538615143e+000	 6.648349646571601e+000
 7.198638240940923e-001	 1.686094189130473e+000	 6.481232836675411e+000
 8.998290194229609e-001	 1.604965864843464e+000	 8.332426689665118e+000
 8.823952088606245e-001	 1.614616510224449e+000	 8.142138826499730e+000
 8.648852142447659e-001	 1.624063241912885e+000	 7.952098574116764e+000
 8.473025255232624e-001	 1.633305337480912e+000	 7.762937868880312e+000
 8.296506361655831e-001	 1.642342152156092e+000	 7.575251300014243e+000
 8.119330410601997e-001	 1.651173118570255e+000	 7.389592343369456e+000
 7.941532344316662e-001	 1.659797746442048e+000	 7.206470764031459e+000
 7.763147077797333e-001	 1.668215622194357e+000	 7.026351178384905e+000
 7.584209478427668e-001	 1.676426408507879e+000	 6.849652754362449e+000
 7.404754345876963e-001	 1.684429843812191e+000	 6.676750017140471e+000
 7.224816392286320e-001	 1.692225741715756e+000	 6.507974716605485e+000
 9.030894289590297e-001	 1.610781242991693e+000	 8.359965164054902e+000
 8.855924493266706e-001	 1.620466856189266e+000	 8.170184311951326e+000
 8.680190095981221e-001	 1.629947816840433e+000	 7.980738925087446e+000
 8.503726123666219e-001	 1.639223399899708e+000	 7.792186166878413e+000
 8.326567637597575e-001	 1.648292958258401e+000	 7.605042569486178e+000
 8.148749713292621e-001	 1.657155922492560e+000	 7.419780396201888e+000
 7.970307419605464e-001	 1.665811800544357e+000	 7.236825209455207e+000
 7.791275798043416e-001	 1.674260177338135e+000	 7.056554634509921e+000
 7.611689842327447e-001	 1.682500714332355e+000	 6.879298296708785e+000
 7.431584478218802e-001	 1.690533149008824e+000	 6.705338898369292e+000
 7.250994543633376e-001	 1.698357294300641e+000	 6.534914390206474e+000
 9.063498384953833e-001	 1.616596621139586e+000	 8.387813009948243e+000
 8.887896897930325e-001	 1.626317202153701e+000	 8.198555337910831e+000
 8.711528049518191e-001	 1.635832391767555e+000	 8.009713448742755e+000
 8.534426992103396e-001	 1.645141462318039e+000	 7.821771932073736e+000
 8.356628913543031e-001	 1.654243764360218e+000	 7.635171353183440e+000
 8.178169015987024e-001	 1.663138726414351e+000	 7.450304738550857e+000
 7.999082494898043e-001	 1.671825854646140e+000	 7.267515304802346e+000
 7.819404518293236e-001	 1.680304732481384e+000	 7.087095420571133e+000
 7.639170206230865e-001	 1.688575020156310e+000	 6.909286778267066e+000
 7.458414610564141e-001	 1.696636454204960e+000	 6.734281740691734e+000
 7.277172694983755e-001	 1.704488846885063e+000	 6.562225815913831e+000
 9.096102480322056e-001	 1.622411999286977e+000	 8.416053332093991e+000
 8.919869302598991e-001	 1.632167548117587e+000	 8.227343348776433e+000
 8.742866003060481e-001	 1.641716966694088e+000	 8.039122124556139e+000
 8.565127860546103e-001	 1.651059524735752e+000	 7.851803835405324e+000
 8.386690189494137e-001	 1.660194570461393e+000	 7.665755128856922e+000
 8.207588318687134e-001	 1.669121530335487e+000	 7.481291727245825e+000
 8.027857570196315e-001	 1.677839908747267e+000	 7.298676313124538e+000
 7.847533238548664e-001	 1.686349287623988e+000	 7.118117685824852e+000
 7.666650570139753e-001	 1.694649325979646e+000	 6.939771165302769e+000
 7.485244742914735e-001	 1.702739759400515e+000	 6.763740207026307e+000
 7.303350846339108e-001	 1.710620399468956e+000	 6.590079179849059e+000
 9.128706575696799e-001	 1.628227377433698e+000	 8.444765656507792e+000
 8.951841707274577e-001	 1.638017894080757e+000	 8.256636172143029e+000
 8.774203956610007e-001	 1.647601541619870e+000	 8.069061280225629e+000
 8.595828728996265e-001	 1.656977587152687e+000	 7.882386864913854e+000
 8.416751465452838e-001	 1.666145376561775e+000	 7.696907664803057e+000
 8.237007621394887e-001	 1.675104334255827e+000	 7.512863988359428e+000
 8.056632645502202e-001	 1.683853962847609e+000	 7.330439751321250e+000
 7.875661958811588e-001	 1.692393842765832e+000	 7.149761824505821e+000
 7.694130934055927e-001	 1.700723631802261e+000	 6.970900667297665e+000
 7.512074875272330e-001	 1.708843064595402e+000	 6.793872209397741e+000
 7.329528997701102e-001	 1.716751952052255e+000	 6.618640931289608e+000
 7.067747484180751e-001	 1.655436426200365e+000	 6.344133213935229e+000
 6.891256442832350e-001	 1.662860803443096e+000	 6.181979139704461e+000
 6.714360551276295e-001	 1.670081948955455e+000	 6.010349449603141e+000
 6.537093420170530e-001	 1.677099898436262e+000	 5.835859017860891e+000
 6.359488499721071e-001	 1.683914758373383e+000	 5.660432028101980e+000
 6.181579061972000e-001	 1.690526705208835e+000	 5.486359616952573e+000
 6.003398183485179e-001	 1.696935984454056e+000	 5.315797702174272e+000
 5.824978728424627e-001	 1.703142909757176e+000	 5.150705014419835e+000
 5.646353332059645e-001	 1.709147861924183e+000	 4.992884806868601e+000
 5.467554384699780e-001	 1.714951287895949e+000	 4.844021994902111e+000
 5.288614016073797e-001	 1.720553699683057e+000	 4.705715780283653e+000
 7.093925635542742e-001	 1.661567978786661e+000	 6.372630047030780e+000
 6.916780890987874e-001	 1.669019855097652e+000	 6.208508942511099e+000
 6.739229796705322e-001	 1.676267746930466e+000	 6.034818549903076e+000
 6.561306087843143e-001	 1.683311690116159e+000	 5.858630301534220e+000
 6.383043338503188e-001	 1.690151791537025e+000	 5.682211263306217e+000
 6.204474943965466e-001	 1.696788228288618e+000	 5.507633734323624e+000
 6.025634103303735e-001	 1.703221246791734e+000	 5.336955335680640e+000
 5.846553802407206e-001	 1.709451161856229e+000	 5.172043756714791e+000
 5.667266797422573e-001	 1.715478355698570e+000	 5.014619012588240e+000
 5.487805598629469e-001	 1.721303276915057e+000	 4.866290993629029e+000
 5.308202454761591e-001	 1.726926439412715e+000	 4.728592364848521e+000
 7.120103786898093e-001	 1.667699531372885e+000	 6.400397038127360e+000
 6.942305339137207e-001	 1.675178906752059e+000	 6.234291859709271e+000
 6.764099042128660e-001	 1.682453544905252e+000	 6.058542847154401e+000
 6.585518755510623e-001	 1.689523481795759e+000	 5.880536206590164e+000
 6.406598177280756e-001	 1.696388824700307e+000	 5.703046870415714e+000
 6.227370825954987e-001	 1.703049751367984e+000	 5.527911044078413e+000
 6.047870023118943e-001	 1.709506509128947e+000	 5.357082658735584e+000
 5.868128876387017e-001	 1.715759413954782e+000	 5.192333336302868e+000
 5.688180262783273e-001	 1.721808849472432e+000	 5.035295203879057e+000
 5.508056812557428e-001	 1.727655265933628e+000	 4.887498858427314e+000
 5.327790893448081e-001	 1.733299179141840e+000	 4.750406544187411e+000
 7.146281938248470e-001	 1.673831083958972e+000	 6.427627547989324e+000
 6.967829787281894e-001	 1.681337958406270e+000	 6.259529260033204e+000
 6.788968287547734e-001	 1.688639342879789e+000	 6.081731173949353e+000
 6.609731423174254e-001	 1.695735273475064e+000	 5.901810467110749e+000
 6.430153016054910e-001	 1.702625857863253e+000	 5.723174523201368e+000
 6.250266707941541e-001	 1.709311274446982e+000	 5.547428022281214e+000
 6.070105942931632e-001	 1.715791771465766e+000	 5.376415828057604e+000
 5.889703950364740e-001	 1.722067666052925e+000	 5.211808493489437e+000
 5.709093728142300e-001	 1.728139343245877e+000	 5.055145640855994e+000
 5.528308026484086e-001	 1.734007254951787e+000	 4.907874347314791e+000
 5.347379332133595e-001	 1.739671918870567e+000	 4.771382602575505e+000
 7.172460089595523e-001	 1.679962636544857e+000	 6.454510983953663e+000
 6.993354235423483e-001	 1.687497010060242e+000	 6.284418590189087e+000
 6.813837532963969e-001	 1.694825140854057e+000	 6.104588484427935e+000
 6.633944090835321e-001	 1.701947065154074e+000	 5.922683544694965e+000
 6.453707854826792e-001	 1.708862891025889e+000	 5.742826969867855e+000
 6.273162589926119e-001	 1.715572797525657e+000	 5.566418551907714e+000
 6.092341862742645e-001	 1.722077033802260e+000	 5.395188724200565e+000
 5.911279024341078e-001	 1.728375918150746e+000	 5.230701992784862e+000
 5.730007193500214e-001	 1.734469837019012e+000	 5.074400890778851e+000
 5.548559240409877e-001	 1.740359243969655e+000	 4.927644790203062e+000
 5.366967770818458e-001	 1.746044658599031e+000	 4.791743642101342e+000
 7.198638240940923e-001	 1.686094189130473e+000	 6.481232836675411e+000
 7.018878683563526e-001	 1.693656061713931e+000	 6.309153410447786e+000
 6.838706778378775e-001	 1.701010938828034e+000	 6.127315888637519e+000
 6.658156758495102e-001	 1.708158856832794e+000	 5.943382575896647e+000
 6.477262693597536e-001	 1.715099924188238e+000	 5.762233985134790e+000
 6.296058471909712e-001	 1.721834320604060e+000	 5.585113879306301e+000
 6.114577782552817e-001	 1.728362296138498e+000	 5.413632912133293e+000
 5.932854098316726e-001	 1.734684170248338e+000	 5.249244587355564e+000
 5.750920658857573e-001	 1.740800330791946e+000	 5.093289796132122e+000
 5.568810454335235e-001	 1.746711232987356e+000	 4.947036060378895e+000
 5.386556209502997e-001	 1.752417398327365e+000	 4.811711557323256e+000
 7.224816392286320e-001	 1.692225741715756e+000	 6.507974716605485e+000
 7.044403131703568e-001	 1.699815113367292e+000	 6.333923429961532e+000
 6.863576023793586e-001	 1.707196736801698e+000	 6.150110686609798e+000
 6.682369426154885e-001	 1.714370648511223e+000	 5.964141437460492e+000
 6.500817532368282e-001	 1.721336957350326e+000	 5.781622322031645e+000
 6.318954353893304e-001	 1.728095843682236e+000	 5.603742570370221e+000
 6.136813702362994e-001	 1.734647558474552e+000	 5.431977601535954e+000
 5.954429172292370e-001	 1.740992422345786e+000	 5.267664983194345e+000
 5.771834124214930e-001	 1.747130824564785e+000	 5.112039442431311e+000
 5.589061668260594e-001	 1.753063222005010e+000	 4.966272545712491e+000
 5.406144648187535e-001	 1.758790138055704e+000	 4.831507009666254e+000
 7.250994543633376e-001	 1.698357294300641e+000	 6.534914390206474e+000
 7.069927579845159e-001	 1.705974165020281e+000	 6.358914541809262e+000
 6.888445269209820e-001	 1.713382534775026e+000	 6.173166402160784e+000
 6.706582093815950e-001	 1.720582440189363e+000	 5.985208248728156e+000
 6.524372371140166e-001	 1.727573990512178e+000	 5.801215663411014e+000
 6.341850235877884e-001	 1.734357366760234e+000	 5.622530466430559e+000
 6.159049622174005e-001	 1.740932820810489e+000	 5.450449606818257e+000
 5.976004246268710e-001	 1.747300674443183e+000	 5.286189803018115e+000
 5.792747589572844e-001	 1.753461318337636e+000	 5.130875125762471e+000
 5.609312882186387e-001	 1.759415211022741e+000	 4.985577119610277e+000
 5.425733086872400e-001	 1.765162877784180e+000	 4.851349401564785e+000
 7.277172694983755e-001	 1.704488846885063e+000	 6.562225815913831e+000
 7.095452027989849e-001	 1.712133216672855e+000	 6.384308857779549e+000
 6.913314514628894e-001	 1.719568332747999e+000	 6.196672816422263e+000
 6.730794761479583e-001	 1.726794231867214e+000	 6.006783739749500e+000
 6.547927209914322e-001	 1.733811023673818e+000	 5.821234573188511e+000
 6.364746117864439e-001	 1.740618889838102e+000	 5.641700639878481e+000
 6.181285541986700e-001	 1.747218083146380e+000	 5.469273306869342e+000
 5.997579320246437e-001	 1.753608926540618e+000	 5.305043549901225e+000
 5.813661054931871e-001	 1.759791812110608e+000	 5.150020320059906e+000
 5.629564096113042e-001	 1.765767200040672e+000	 5.005171111711796e+000
 5.445321525557914e-001	 1.771535617512930e+000	 4.871456850359902e+000
 7.303350846339108e-001	 1.710620399468956e+000	 6.590079179849059e+000
 7.120976476139183e-001	 1.718292268324968e+000	 6.410284742896883e+000
 6.938183760052235e-001	 1.725754130720593e+000	 6.220816001111292e+000
 6.755007429147064e-001	 1.733006023544780e+000	 6.029061228903727e+000
 6.571482048691891e-001	 1.740048056835272e+000	 5.841896447315898e+000
 6.387641999853959e-001	 1.746880412915887e+000	 5.661473349519102e+000
 6.203521461801904e-001	 1.753503345482293e+000	 5.488670604543631e+000
 6.019154394226245e-001	 1.759917178638180e+000	 5.324448570647371e+000
 5.834574520292573e-001	 1.766122305883808e+000	 5.169696644131947e+000
 5.649815310041002e-001	 1.772119189058925e+000	 5.025274278338252e+000
 5.464909964244404e-001	 1.777908357242085e+000	 4.892046161955014e+000
 7.329528997701102e-001	 1.716751952052255e+000	 6.618640931289608e+000
 7.146500924294713e-001	 1.724451319976578e+000	 6.437016849697439e+000
 6.963053005481267e-001	 1.731939928692788e+000	 6.245778351543928e+000
 6.779220096819681e-001	 1.739217815222061e+000	 6.052230405369341e+000
 6.595036887474008e-001	 1.746285089996563e+000	 5.863415464496102e+000
 6.410537881847429e-001	 1.753141935993637e+000	 5.682065995668507e+000
 6.225757381620465e-001	 1.759788607818298e+000	 5.508860885890011e+000
 6.040729468208826e-001	 1.766225430735958e+000	 5.344625018912050e+000
 5.855487985655503e-001	 1.772452799657344e+000	 5.190123828438284e+000
 5.670066523970694e-001	 1.778471178077622e+000	 5.046104772702013e+000
 5.484498402932199e-001	 1.784281096971782e+000	 4.913332804238452e+000
 5.288614016073797e-001	 1.720553699683057e+000	 4.705715780283653e+000
 5.109564077608105e-001	 1.725955672830829e+000	 4.580244882795735e+000
 4.930436120318122e-001	 1.731157843990140e+000	 4.467863903442030e+000
 4.751261388703033e-001	 1.736160911033619e+000	 4.367092261226003e+000
 4.572070809622256e-001	 1.740965632275259e+000	 4.276469417709349e+000
 4.392894979040813e-001	 1.745572825227723e+000	 4.194571181185328e+000
 4.213764149270760e-001	 1.749983365329664e+000	 4.120022359870522e+000
 4.034708216714287e-001	 1.754198184645169e+000	 4.051506007081485e+000
 3.855756710113190e-001	 1.758218270537386e+000	 3.987769517294805e+000
 3.676938779308517e-001	 1.762044664318403e+000	 3.927627844837582e+000
 3.498283184513297e-001	 1.765678459877450e+000	 3.869964126755499e+000
 5.308202454761591e-001	 1.726926439412715e+000	 4.728592364848521e+000
 5.128489335219464e-001	 1.732348420868630e+000	 4.603670073821355e+000
 4.948697907879952e-001	 1.737569860291762e+000	 4.491692215765831e+000
 4.768859532968365e-001	 1.742591458139576e+000	 4.391192401395093e+000
 4.589005251893766e-001	 1.747413975534780e+000	 4.300732530829946e+000
 4.409165773945198e-001	 1.752038233018001e+000	 4.218918718110694e+000
 4.229371463485911e-001	 1.756465109270422e+000	 4.144413470852323e+000
 4.049652327651024e-001	 1.760695539808388e+000	 4.075944376374187e+000
 3.870038004553492e-001	 1.764730515652127e+000	 4.012309561864311e+000
 3.690557752002124e-001	 1.768571081970627e+000	 3.952380209218706e+000
 3.511240436734558e-001	 1.772218336704760e+000	 3.895100415136054e+000
 5.327790893448081e-001	 1.733299179141840e+000	 4.750406544187411e+000
 5.147414592829877e-001	 1.738741168905919e+000	 4.626032745200728e+000
 4.966959695441108e-001	 1.743981876592904e+000	 4.514460604023135e+000
 4.786457677233223e-001	 1.749022005245103e+000	 4.414237942286239e+000
 4.605939694164905e-001	 1.753862318793922e+000	 4.323949438330558e+000
 4.425436568849251e-001	 1.758503640807968e+000	 4.242232156935847e+000
 4.244978777700678e-001	 1.762946853210943e+000	 4.167787238282477e+000
 4.064596438587249e-001	 1.767192894971447e+000	 4.099388006020648e+000
 3.884319298993076e-001	 1.771242760766789e+000	 4.035884770872663e+000
 3.704176724694722e-001	 1.775097499622856e+000	 3.976206619489973e+000
 3.524197688954444e-001	 1.778758213532161e+000	 3.919360488384168e+000
 5.347379332133595e-001	 1.739671918870567e+000	 4.771382602575505e+000
 5.166339850439580e-001	 1.745133916942836e+000	 4.647551752781080e+000
 4.985221483001757e-001	 1.750393892893712e+000	 4.536381545301150e+000
 4.804055821497716e-001	 1.755452552350340e+000	 4.436434075302885e+000
 4.622874136435771e-001	 1.760310662052832e+000	 4.346317190009773e+000
 4.441707363753049e-001	 1.764969048597763e+000	 4.264699608172345e+000
 4.260586091915158e-001	 1.769428597151354e+000	 4.190322100779390e+000
 4.079540549523092e-001	 1.773690250134467e+000	 4.122005001633624e+000
 3.898600593432121e-001	 1.777755005881483e+000	 4.058652333275054e+000
 3.717795697386564e-001	 1.781623917275190e+000	 3.999252847252903e+000
 3.537154941173296e-001	 1.785298090359737e+000	 3.942878288010983e+000
 5.366967770818458e-001	 1.746044658599031e+000	 4.791743642101342e+000
 5.185265108048808e-001	 1.751526664979524e+000	 4.668444997390296e+000
 5.003483270562070e-001	 1.756805909194333e+000	 4.557666770574059e+000
 4.821653965761968e-001	 1.761883099455437e+000	 4.457985436522288e+000
 4.639808578706451e-001	 1.766759005311653e+000	 4.368032453254063e+000
 4.457978158656681e-001	 1.771434456387523e+000	 4.286508955300122e+000
 4.276193406129448e-001	 1.775910341091791e+000	 4.212196408211886e+000
 4.094484660458677e-001	 1.780187605297570e+000	 4.143963501783966e+000
 3.912881887870805e-001	 1.784267250996319e+000	 4.080769576725074e+000
 3.731414670077904e-001	 1.788150334927723e+000	 4.021664893268125e+000
 3.550112193391459e-001	 1.791837967187569e+000	 3.965788060630777e+000
 5.386556209502997e-001	 1.752417398327365e+000	 4.811711557323256e+000
 5.204190365657798e-001	 1.757919413016124e+000	 4.688929402448273e+000
 5.021745058122215e-001	 1.763217925494912e+000	 4.578527245045118e+000
 4.839252110026102e-001	 1.768313646560540e+000	 4.479096089547356e+000
 4.656743020977039e-001	 1.773207348570528e+000	 4.389291498178004e+000
 4.474248953560228e-001	 1.777899864177388e+000	 4.307847841982175e+000
 4.291800720343642e-001	 1.782392085032381e+000	 4.233588410782601e+000
 4.109428771394136e-001	 1.786684960460876e+000	 4.165431668752094e+000
 3.927163182309312e-001	 1.790779496111406e+000	 4.102393959800569e+000
 3.745033642768990e-001	 1.794676752580552e+000	 4.043588980968920e+000
 3.563069445609279e-001	 1.798377844015737e+000	 3.988224352580485e+000
 5.406144648187535e-001	 1.758790138055704e+000	 4.831507009666254e+000
 5.223115623266789e-001	 1.764312161052779e+000	 4.709220891330037e+000
 5.040006845682359e-001	 1.769629941795594e+000	 4.599173148247409e+000
 4.856850254290233e-001	 1.774744193665795e+000	 4.499969508123650e+000
 4.673677463247629e-001	 1.779655691829604e+000	 4.410290182540992e+000
 4.490519748463777e-001	 1.784365271967498e+000	 4.328903659072457e+000
 4.307408034557834e-001	 1.788873828973259e+000	 4.254676247917494e+000
 4.124372882329595e-001	 1.793182315624507e+000	 4.186577679096161e+000
 3.941444476747816e-001	 1.797291741226853e+000	 4.123683064059495e+000
 3.758652615460078e-001	 1.801203170233773e+000	 4.065171549816226e+000
 3.576026697827099e-001	 1.804917720844325e+000	 4.010322004394634e+000
 5.425733086872400e-001	 1.765162877784180e+000	 4.851349401564785e+000
 5.242040880876014e-001	 1.770704909089630e+000	 4.729534364480702e+000
 5.058268633242670e-001	 1.776041958096526e+000	 4.619813853908384e+000
 4.874448398554488e-001	 1.781174740771349e+000	 4.520808558531249e+000
 4.690611905518310e-001	 1.786104035089022e+000	 4.431223936452499e+000
 4.506790543367408e-001	 1.790830679757990e+000	 4.349863531418037e+000
 4.323015348772123e-001	 1.795355572914553e+000	 4.275637936961241e+000
 4.139316993265182e-001	 1.799679670788585e+000	 4.207569714043399e+000
 3.955725771186502e-001	 1.803803986342771e+000	 4.144794585928651e+000
 3.772271588151415e-001	 1.807729587887482e+000	 4.086559248502257e+000
 3.588983950045264e-001	 1.811457597673414e+000	 4.032216145144786e+000
 5.445321525557914e-001	 1.771535617512930e+000	 4.871456850359902e+000
 5.260966138485715e-001	 1.777097657126819e+000	 4.750083676293573e+000
 5.076530420803319e-001	 1.782453974397854e+000	 4.640657909585007e+000
 4.892046542818982e-001	 1.787605287877348e+000	 4.541815481757852e+000
 4.707546347789175e-001	 1.792552378348927e+000	 4.452287746864027e+000
 4.523061338271208e-001	 1.797296087549003e+000	 4.370914304463448e+000
 4.338622662986603e-001	 1.801837316856396e+000	 4.296651361686648e+000
 4.154261104201024e-001	 1.806177025953231e+000	 4.228575949705612e+000
 3.970007065625546e-001	 1.810316231459269e+000	 4.165886328433915e+000
 3.785890560843259e-001	 1.814256005541777e+000	 4.107898928005797e+000
 3.601941202264115e-001	 1.817997474503085e+000	 4.054042186643691e+000
 5.464909964244404e-001	 1.777908357242085e+000	 4.892046161955014e+000
 5.279891396096128e-001	 1.783490405164487e+000	 4.771081611754545e+000
 5.094792208364476e-001	 1.788865990699722e+000	 4.661913016074029e+000
 4.909644687083836e-001	 1.794035834983939e+000	 4.563191875455667e+000
 4.724480790060316e-001	 1.799000721609464e+000	 4.473676141859632e+000
 4.539332133175257e-001	 1.803761495340678e+000	 4.392242530661491e+000
 4.354229977201372e-001	 1.808319060798918e+000	 4.317894260622897e+000
 4.169205215137250e-001	 1.812674381118566e+000	 4.249764547123067e+000
 3.984288360065130e-001	 1.816828476576456e+000	 4.187116192770191e+000
 3.799509533535858e-001	 1.820782423196752e+000	 4.129337634504906e+000
 3.614898454484001e-001	 1.824537351333421e+000	 4.075935817519354e+000
 5.484498402932199e-001	 1.784281096971782e+000	 4.913332804238452e+000
 5.298816653707491e-001	 1.789883153202778e+000	 4.792739862860542e+000
 5.113053995926307e-001	 1.795278007002279e+000	 4.683786006604125e+000
 4.927242831349172e-001	 1.800466382091268e+000	 4.585138675689063e+000
 4.741415232331826e-001	 1.805449064870776e+000	 4.495583174744772e+000
 4.555602928079645e-001	 1.810226903133151e+000	 4.414034455695458e+000
 4.369837291416522e-001	 1.814800804742252e+000	 4.339544215205563e+000
 4.184149326073985e-001	 1.819171736284711e+000	 4.271303642145730e+000
 3.998569654505434e-001	 1.823340721694442e+000	 4.208642169719964e+000
 3.813128506229466e-001	 1.827308840852505e+000	 4.151022602145722e+000
 3.627855706705263e-001	 1.831077228164503e+000	 4.098032997159960e+000
 3.498283184513297e-001	 1.765678459877450e+000	 3.869964126755499e+000
 3.319845031960278e-001	 1.769120300513190e+000	 3.816076416478464e+000
 3.141625416185881e-001	 1.772371941244703e+000	 3.767800712658972e+000
 2.963651817152860e-001	 1.775434626186778e+000	 3.724936823877955e+000
 2.785951288624198e-001	 1.778309646314946e+000	 3.687323014259020e+000
 2.608550450026426e-001	 1.780998338017287e+000	 3.654826756812108e+000
 2.431475478824362e-001	 1.783502081636492e+000	 3.627334684451968e+000
 2.254752103404711e-001	 1.785822300004091e+000	 3.604742012971146e+000
 2.078405596465077e-001	 1.787960456968690e+000	 3.586941699800151e+000
 1.902460768904307e-001	 1.789918055920011e+000	 3.573813590205742e+000
 1.726941964209537e-001	 1.791696638310540e+000	 3.565213788819487e+000
 3.511240436734558e-001	 1.772218336704760e+000	 3.895100415136054e+000
 3.332141369090890e-001	 1.775672925535893e+000	 3.841824202266828e+000
 3.153261647661564e-001	 1.778936609983506e+000	 3.794370394867808e+000
 2.974628854192032e-001	 1.782010638770450e+000	 3.752494974852440e+000
 2.796270142649395e-001	 1.784896307653890e+000	 3.715994560535856e+000
 2.618212231055554e-001	 1.787594957971737e+000	 3.684696397170928e+000
 2.440481393833732e-001	 1.790107975179323e+000	 3.658447534071192e+000
 2.263103454665696e-001	 1.792436787378191e+000	 3.637103470640984e+000
 2.086103779856294e-001	 1.794582863838879e+000	 3.620516542876121e+000
 1.909507272201167e-001	 1.796547713519502e+000	 3.608524309329382e+000
 1.733338365353001e-001	 1.798332883581914e+000	 3.600938181391095e+000
 3.524197688954444e-001	 1.778758213532161e+000	 3.919360488384168e+000
 3.344437706219684e-001	 1.782225550558773e+000	 3.866754059122223e+000
 3.164897879134932e-001	 1.785501278722566e+000	 3.820183908185955e+000
 2.985605891228380e-001	 1.788586651354454e+000	 3.779360195345542e+000
 2.806588996671267e-001	 1.791482968993232e+000	 3.744036089901928e+000
 2.627874012080904e-001	 1.794191577926644e+000	 3.713996977523362e+000
 2.449487308838938e-001	 1.796713868722657e+000	 3.689048842171647e+000
 2.271454805922235e-001	 1.799051274752824e+000	 3.669006113666643e+000
 2.093801963242912e-001	 1.801205270709615e+000	 3.653679260335298e+000
 1.916553775493431e-001	 1.803177371119533e+000	 3.642862393262449e+000
 1.739734766492058e-001	 1.804969128853802e+000	 3.636321134092420e+000
 3.537154941173296e-001	 1.785298090359737e+000	 3.942878288010983e+000
 3.356734043347111e-001	 1.788778175581896e+000	 3.890987897704426e+000
 3.176534110606567e-001	 1.792065947461933e+000	 3.845351176022608e+000
 2.996582928262621e-001	 1.795162663938824e+000	 3.805630612478721e+000
 2.816907850690670e-001	 1.798069630332990e+000	 3.771534273681993e+000
 2.637535793103460e-001	 1.800788197882008e+000	 3.742804205011434e+000
 2.458493223841093e-001	 1.803319762266476e+000	 3.719203995483384e+000
 2.279806157175549e-001	 1.805665762127958e+000	 3.700505804753436e+000
 2.101500146626243e-001	 1.807827677580852e+000	 3.686477139771063e+000
 1.923600278782481e-001	 1.809807028720049e+000	 3.676867655276196e+000
 1.746131167628130e-001	 1.811605374126138e+000	 3.671396237356792e+000
 3.550112193391459e-001	 1.791837967187569e+000	 3.965788060630777e+000
 3.369030380473631e-001	 1.795330800605328e+000	 3.914647994305042e+000
 3.188170342077054e-001	 1.798630616201657e+000	 3.869982531250831e+000
 3.007559965295466e-001	 1.801738676523592e+000	 3.831404790225795e+000
 2.827226704708454e-001	 1.804656291673181e+000	 3.798576231313581e+000
 2.647197574124207e-001	 1.807384817837827e+000	 3.771194230399885e+000
 2.467499138841306e-001	 1.809925655810766e+000	 3.748978804537954e+000
 2.288157508426862e-001	 1.812280249503562e+000	 3.731658795729445e+000
 2.109198330007605e-001	 1.814450084452546e+000	 3.718957808868835e+000
 1.930646782069701e-001	 1.816436686320991e+000	 3.710580185898046e+000
 1.752527568762639e-001	 1.818241619398853e+000	 3.706197282803160e+000
 3.563069445609279e-001	 1.798377844015737e+000	 3.988224352580486e+000
 3.381326717599695e-001	 1.801883425629134e+000	 3.937856986431477e+000
 3.199806573546968e-001	 1.805195284941788e+000	 3.894188712663326e+000
 3.018537002327632e-001	 1.808314689108793e+000	 3.856781726671598e+000
 2.837545558725469e-001	 1.811242953013821e+000	 3.825249528362132e+000
 2.656859355144134e-001	 1.813981437794106e+000	 3.799243646815984e+000
 2.476505053840688e-001	 1.816531549355510e+000	 3.778439503132492e+000
 2.296508859677397e-001	 1.818894736879607e+000	 3.762521727746541e+000
 2.116896513388311e-001	 1.821072491324651e+000	 3.751169236384389e+000
 1.937693285356475e-001	 1.823066343922303e+000	 3.744040354723043e+000
 1.758923969897006e-001	 1.824877864671881e+000	 3.740758265963961e+000
 3.576026697827099e-001	 1.804917720844325e+000	 4.010322004394634e+000
 3.393623054725760e-001	 1.808436050653380e+000	 3.960737868263147e+000
 3.211442805016893e-001	 1.811759953682375e+000	 3.918080861316065e+000
 3.029514039359832e-001	 1.814890701694459e+000	 3.881860851169634e+000
 2.847864412742568e-001	 1.817829614354928e+000	 3.851642174442701e+000
 2.666521136164224e-001	 1.820578057750842e+000	 3.827029488408368e+000
 2.485510968840352e-001	 1.823137442900694e+000	 3.807652747711435e+000
 2.304860210928375e-001	 1.825509224256060e+000	 3.793151631399971e+000
 2.124594696769679e-001	 1.827694898197124e+000	 3.783159733035794e+000
 1.944739788644185e-001	 1.829696001523927e+000	 3.777288812137241e+000
 1.765320371032655e-001	 1.831514109945151e+000	 3.775113388914998e+000
 3.588983950045264e-001	 1.811457597673414e+000	 4.032216145144786e+000
 3.405919391852283e-001	 1.814988675678134e+000	 3.983413985984365e+000
 3.223079036487410e-001	 1.818324622423470e+000	 3.941770516761578e+000
 3.040491076392786e-001	 1.821466714280624e+000	 3.906742021401949e+000
 2.858183266760603e-001	 1.824416275696517e+000	 3.877842621050289e+000
 2.676182917185462e-001	 1.827174677708035e+000	 3.854629228916364e+000
 2.494516883841406e-001	 1.829743336446300e+000	 3.836685616668054e+000
 2.313211562181019e-001	 1.832123711632891e+000	 3.823605926772446e+000
 2.132292880153021e-001	 1.834317305069920e+000	 3.814977952319543e+000
 1.951786291934216e-001	 1.836325659125807e+000	 3.810366490958969e+000
 1.771716772171005e-001	 1.838150355218598e+000	 3.809297062815956e+000
 3.601941202264115e-001	 1.817997474503085e+000	 4.054042186643691e+000
 3.418215728979718e-001	 1.821541300703462e+000	 4.006009032995324e+000
 3.234715267959101e-001	 1.824889291165121e+000	 3.965369613170035e+000
 3.051468113427203e-001	 1.828042726867322e+000	 3.931525520335978e+000
 2.868502120780425e-001	 1.831002937038606e+000	 3.903939759301113e+000
 2.685844698208832e-001	 1.833771297665686e+000	 3.882120780157933e+000
 2.503522798844964e-001	 1.836349229992314e+000	 3.865605609567477e+000
 2.321562913436554e-001	 1.838738199010071e+000	 3.853942423399137e+000
 2.139991063539654e-001	 1.840939711942993e+000	 3.846672891248784e+000
 1.958832795227951e-001	 1.842955316727885e+000	 3.843314607995795e+000
 1.778113173313480e-001	 1.844786600492154e+000	 3.843343910355838e+000
 3.614898454484001e-001	 1.824537351333421e+000	 4.075935817519354e+000
 3.430512066108521e-001	 1.828093925729429e+000	 4.028647045007223e+000
 3.246351499432543e-001	 1.831453959907378e+000	 3.988990475348274e+000
 3.062445150463800e-001	 1.834618739454583e+000	 3.956312053091752e+000
 2.878820974802883e-001	 1.837589598381210e+000	 3.930022917587113e+000
 2.695506479235322e-001	 1.840367917623796e+000	 3.909582490442829e+000
 2.512528713852136e-001	 1.842955123538720e+000	 3.894480646296482e+000
 2.329914264696200e-001	 1.845352686387568e+000	 3.884219320160837e+000
 2.147689246930894e-001	 1.847562118816300e+000	 3.878293891013133e+000
 1.965879298526772e-001	 1.849584974330105e+000	 3.876174665521762e+000
 1.784509574461501e-001	 1.851422845765750e+000	 3.877288768114309e+000
 3.627855706705263e-001	 1.831077228164503e+000	 4.098032997159960e+000
 3.442808403239148e-001	 1.834646550756103e+000	 4.051452395020888e+000
 3.257987730908322e-001	 1.838018628650293e+000	 4.012745814654002e+000
 3.073422187503291e-001	 1.841194752042445e+000	 3.981202743710379e+000
 2.889139828828835e-001	 1.844176259724348e+000	 3.956181859147681e+000
 2.705168260265918e-001	 1.846964537582363e+000	 3.937093142900427e+000
 2.521534628864030e-001	 1.849561017085502e+000	 3.923379066137036e+000
 2.338265615961181e-001	 1.851967173765351e+000	 3.914495205103567e+000
 2.155387430328055e-001	 1.854184525689797e+000	 3.909890637569367e+000
 1.972925801832064e-001	 1.856214631932410e+000	 3.908988452676805e+000
 1.790905975616490e-001	 1.858059091039320e+000	 3.911166688833377e+000
 1.726941964209537e-001	 1.791696638310540e+000	 3.565213788819487e+000
 1.551846886213330e-001	 1.793298009200866e+000	 3.559953596138137e+000
 1.377225603141458e-001	 1.794723502569441e+000	 3.556745637711434e+000
 1.203101389499272e-001	 1.795974766340585e+000	 3.555235199845060e+000
 1.029497023619784e-001	 1.797053480637194e+000	 3.555014132701402e+000
 8.564347844994923e-002	 1.797961356299908e+000	 3.555614942708927e+000
 6.839364491017026e-002	 1.798700133414114e+000	 3.556506151077159e+000
 5.120232901183534e-002	 1.799271579846228e+000	 3.557089033109328e+000
 3.407160741809868e-002	 1.799677489790610e+000	 3.556695833797322e+000
 1.700350605111390e-002	 1.799919682328466e+000	 3.554589536069659e+000
 0.000000000000000e+000	 1.800000000000000e+000	 3.549965247929261e+000
 1.733338365353001e-001	 1.798332883581914e+000	 3.600938181391095e+000
 1.557594754639657e-001	 1.799940185772448e+000	 3.596538880907795e+000
 1.382326693734365e-001	 1.801370959010450e+000	 3.594069980847531e+000
 1.207557543349032e-001	 1.802626857323959e+000	 3.593217756610786e+000
 1.033310166185455e-001	 1.803709567058843e+000	 3.593608098083049e+000
 8.596069237594199e-002	 1.804620805392491e+000	 3.594799944951711e+000
 6.864696736940455e-002	 1.805362318855363e+000	 3.596280044890245e+000
 5.139197674733079e-002	 1.805935881861839e+000	 3.597459152784016e+000
 3.419780486463918e-002	 1.806343295251763e+000	 3.597669769397705e+000
 1.706648514730789e-002	 1.806586384844004e+000	 3.596165498238078e+000
 0.000000000000000e+000	 1.806667000003317e+000	 3.592122089019000e+000
 1.739734766492058e-001	 1.804969128853802e+000	 3.636321134092420e+000
 1.563342623061966e-001	 1.806582362344496e+000	 3.632803964350134e+000
 1.387427784323800e-001	 1.808018415451863e+000	 3.631087681640825e+000
 1.212013697195968e-001	 1.809278948307660e+000	 3.630904265475838e+000
 1.037123308748993e-001	 1.810365653480736e+000	 3.631918148985144e+000
 8.627790630179005e-002	 1.811280254485235e+000	 3.633718974688545e+000
 6.890028982855632e-002	 1.812024504296691e+000	 3.635815731351253e+000
 5.158162448279448e-002	 1.812600183877458e+000	 3.637632393637183e+000
 3.432400231118199e-002	 1.813009100712867e+000	 3.638505165963932e+000
 1.712946424351644e-002	 1.813253087359456e+000	 3.637681411740861e+000
 0.000000000000000e+000	 1.813334000006534e+000	 3.634320338611546e+000
 1.746131167628130e-001	 1.811605374126138e+000	 3.671396237356792e+000
 1.569090491481685e-001	 1.813224538916936e+000	 3.668777139789656e+000
 1.392528874911161e-001	 1.814665871893596e+000	 3.667822294624931e+000
 1.216469851041413e-001	 1.815931039291598e+000	 3.668314184011282e+000
 1.040936451311638e-001	 1.817021739902778e+000	 3.669960369662852e+000
 8.659512022760428e-002	 1.817939703578042e+000	 3.672385546206193e+000
 6.915361228772043e-002	 1.818686689738000e+000	 3.675125035285138e+000
 5.177127221830204e-002	 1.819264485892985e+000	 3.677619845775525e+000
 3.445019975778045e-002	 1.819674906173823e+000	 3.679213404571029e+000
 1.719244333976770e-002	 1.819919789874721e+000	 3.679150041612394e+000
 0.000000000000000e+000	 1.820001000009551e+000	 3.676575302041763e+000
 1.752527568762639e-001	 1.818241619398853e+000	 3.706197282803160e+000
 1.574838359900237e-001	 1.819866715489690e+000	 3.704486819936365e+000
 1.397629965497844e-001	 1.821313328335564e+000	 3.704297414336034e+000
 1.220926004886701e-001	 1.822583130275685e+000	 3.705466934337654e+000
 1.044749593874626e-001	 1.823677826324880e+000	 3.707750738898988e+000
 8.691233415349546e-002	 1.824599152670816e+000	 3.710813005202979e+000
 6.940693474699164e-002	 1.825348875179193e+000	 3.714219558177513e+000
 5.196091995392911e-002	 1.825928787908323e+000	 3.717432331005841e+000
 3.457639720448801e-002	 1.826340711634531e+000	 3.719805564214876e+000
 1.725542243608985e-002	 1.826586492389699e+000	 3.720583829566369e+000
 0.000000000000000e+000	 1.826668000012267e+000	 3.718901953933600e+000
 1.758923969897006e-001	 1.824877864671881e+000	 3.740758265963961e+000
 1.580586228319054e-001	 1.826508892062683e+000	 3.739961540505548e+000
 1.402731056085246e-001	 1.827960784777684e+000	 3.740536679686386e+000
 1.225382158733166e-001	 1.829235221259832e+000	 3.742381908118404e+000
 1.048562736439193e-001	 1.830333912746944e+000	 3.745305135486094e+000
 8.722954807957452e-002	 1.831258601763462e+000	 3.749014534639387e+000
 6.966025720646474e-002	 1.832011060620171e+000	 3.753110684273388e+000
 5.215056768975129e-002	 1.832593089923371e+000	 3.757080409067746e+000
 3.470259465135805e-002	 1.833006517094890e+000	 3.760292428073073e+000
 1.731840153251105e-002	 1.833253194904292e+000	 3.761994900181999e+000
 0.000000000000000e+000	 1.833335000014584e+000	 3.761314944213396e+000
 1.765320371032655e-001	 1.831514109945151e+000	 3.775113388914998e+000
 1.586334096739557e-001	 1.833151068635837e+000	 3.775229963730465e+000
 1.407832146674764e-001	 1.834608241219873e+000	 3.776563778221956e+000
 1.229838312582139e-001	 1.835887312243949e+000	 3.779078471431306e+000
 1.052375879006579e-001	 1.836989999168881e+000	 3.782639343582743e+000
 8.754676200595221e-002	 1.837918050855882e+000	 3.787003160456282e+000
 6.991357966623453e-002	 1.838673246060836e+000	 3.791809586540631e+000
 5.234021542584418e-002	 1.839257391938031e+000	 3.796574383730714e+000
 3.482879209844394e-002	 1.839672322554802e+000	 3.800684489629037e+000
 1.738138062905946e-002	 1.839919897418398e+000	 3.803395066955283e+000
 0.000000000000000e+000	 1.840002000016400e+000	 3.803828603991602e+000
 1.771716772171005e-001	 1.838150355218598e+000	 3.809297062815956e+000
 1.592081965163175e-001	 1.839793245209076e+000	 3.810320881774878e+000
 1.412933237267795e-001	 1.841255697662048e+000	 3.812402450271109e+000
 1.234294466434957e-001	 1.842539403227947e+000	 3.815575969519646e+000
 1.056189021578019e-001	 1.843646085590595e+000	 3.819769057944231e+000
 8.786397593273948e-002	 1.844577499947983e+000	 3.824791757163390e+000
 7.016690212639581e-002	 1.845335431501090e+000	 3.830327232500523e+000
 5.252986316228345e-002	 1.845921693952204e+000	 3.835924308758954e+000
 3.495498954579909e-002	 1.846338128014166e+000	 3.840991958664834e+000
 1.744435972576324e-002	 1.846586599931918e+000	 3.844795838218801e+000
 0.000000000000000e+000	 1.846669000017617e+000	 3.846456951319199e+000
 1.778113173313480e-001	 1.844786600492154e+000	 3.843343910355838e+000
 1.597829833591335e-001	 1.846435421782323e+000	 3.845263220042702e+000
 1.418034327865735e-001	 1.847903154104124e+000	 3.848076492981702e+000
 1.238750620292950e-001	 1.849191494211738e+000	 3.851893731428551e+000
 1.060002164154750e-001	 1.850302172011993e+000	 3.856709889031581e+000
 8.818118986004712e-002	 1.851236949039666e+000	 3.862393053301383e+000
 7.042022458704338e-002	 1.851997616940835e+000	 3.868674389930311e+000
 5.271951089914469e-002	 1.852585995965789e+000	 3.875139993742417e+000
 3.508118699347691e-002	 1.853003933472884e+000	 3.881224767120914e+000
 1.750733882265058e-002	 1.853253302444752e+000	 3.886208422933718e+000
 0.000000000000000e+000	 1.853336000018133e+000	 3.889213696817730e+000
 1.784509574461501e-001	 1.851422845765750e+000	 3.877288768114309e+000
 1.603577702025461e-001	 1.853077598355501e+000	 3.880086040390637e+000
 1.423135418469980e-001	 1.854550610546017e+000	 3.883609764254044e+000
 1.243206774157454e-001	 1.855843585195231e+000	 3.888051074528779e+000
 1.063815306738011e-001	 1.856958258432983e+000	 3.893477368000220e+000
 8.849840378798599e-002	 1.857896398130836e+000	 3.899819636782054e+000
 7.067354704827203e-002	 1.858659802379975e+000	 3.906861632439247e+000
 5.290915863650356e-002	 1.859250297978689e+000	 3.914231009804770e+000
 3.520738444153076e-002	 1.859669738930854e+000	 3.921392574831116e+000
 1.757031791974962e-002	 1.859920004956799e+000	 3.927643736356967e+000
 0.000000000000000e+000	 1.860003000017850e+000	 3.932112249189034e+000
 1.790905975616490e-001	 1.858059091039320e+000	 3.911166688833377e+000
 1.609325570466982e-001	 1.859719774928535e+000	 3.914818544245790e+000
 1.428236509081929e-001	 1.861198066987645e+000	 3.919026186569023e+000
 1.247662928029802e-001	 1.862495676178339e+000	 3.924067308928401e+000
 1.067628449329038e-001	 1.863614344853473e+000	 3.930086951578664e+000
 8.881561771666691e-002	 1.864555847221398e+000	 3.937083960108612e+000
 7.092686951017656e-002	 1.865321987818410e+000	 3.944899344923228e+000
 5.309880637443565e-002	 1.865914599990803e+000	 3.953206695185360e+000
 3.533358189001407e-002	 1.866335544387978e+000	 3.961504775134440e+000
 1.763329701708853e-002	 1.866586707467961e+000	 3.969112405587817e+000
 0.000000000000000e+000	 1.866670000016666e+000	 3.975165720607346e+000
 1.866670000016666e+000	 0.000000000000000e+000	 1.249337506917923e+001
 1.866586707467961e+000	 1.763329701708859e-002	 1.251564378628595e+001
 1.866335544387978e+000	 3.533358189001417e-002	 1.253112245592830e+001
 1.865914599990803e+000	 5.309880637443554e-002	 1.254185603778843e+001
 1.865321987818409e+000	 7.092686951017646e-002	 1.254985021368801e+001
 1.864555847221398e+000	 8.881561771666689e-002	 1.255706643348658e+001
 1.863614344853473e+000	 1.067628449329038e-001	 1.256541655522492e+001
 1.862495676178339e+000	 1.247662928029803e-001	 1.257675709253579e+001
 1.861198066987645e+000	 1.428236509081927e-001	 1.259288308111894e+001
 1.859719774928535e+000	 1.609325570466981e-001	 1.261552158280184e+001
 1.858059091039319e+000	 1.790905975616489e-001	 1.264632485287647e+001
 1.873336000292277e+000	 0.000000000000000e+000	 1.245795251616324e+001
 1.873252410300538e+000	 1.769626667091117e-002	 1.248123860147213e+001
 1.873000350301068e+000	 3.545976041553836e-002	 1.249765162845085e+001
 1.872577902684386e+000	 5.328842567514051e-002	 1.250925737688926e+001
 1.871983174255770e+000	 7.118015398689008e-002	 1.251808243090401e+001
 1.871214297721295e+000	 8.913278407965511e-002	 1.252610916142895e+001
 1.870269433187636e+000	 1.071441020144599e-001	 1.253527028157678e+001
 1.869146769674352e+000	 1.252118413706765e-001	 1.254744298711278e+001
 1.867844526637251e+000	 1.433336834789610e-001	 1.256444269324716e+001
 1.866360955501386e+000	 1.615072577019092e-001	 1.258801638584783e+001
 1.864694341202229e+000	 1.797301417633638e-001	 1.261983561252899e+001
 1.880002002233555e+000	 0.000000000000000e+000	 1.242220659696654e+001
 1.879918114798716e+000	 1.775923634067771e-002	 1.244654416158679e+001
 1.879665157879561e+000	 3.558593897297273e-002	 1.246393303452097e+001
 1.879241207043032e+000	 5.347804502374515e-002	 1.247645914192837e+001
 1.878644362357717e+000	 7.143343852751721e-002	 1.248616880231776e+001
 1.877872749885155e+000	 8.944995052259598e-002	 1.249506363274366e+001
 1.876924523184993e+000	 1.075253591920342e-001	 1.250509500638646e+001
 1.875797864832641e+000	 1.256573900504839e-001	 1.251815807298275e+001
 1.874490987948056e+000	 1.438437161779620e-001	 1.253608535273881e+001
 1.873002137734208e+000	 1.620819585015041e-001	 1.256063992142741e+001
 1.871329593023718e+000	 1.803696861256440e-001	 1.259350821190822e+001
 1.886668007507166e+000	 0.000000000000000e+000	 1.238594426318782e+001
 1.886583822629083e+000	 1.782220604206420e-002	 1.241141559184315e+001
 1.886329968789800e+000	 3.571211759374478e-002	 1.242986367001043e+001
 1.885904514732690e+000	 5.366766446750050e-002	 1.244339387964560e+001
 1.885305553789637e+000	 7.168672319520088e-002	 1.245407109570451e+001
 1.884531205377647e+000	 8.976711712458953e-002	 1.246391450331065e+001
 1.883579616509333e+000	 1.079066165607449e-001	 1.247489194469054e+001
 1.882448963315952e+000	 1.261029389535964e-001	 1.248891380657806e+001
 1.881137452581612e+000	 1.443537491325187e-001	 1.250782645816012e+001
 1.879643323287192e+000	 1.626566595889847e-001	 1.253340525687781e+001
 1.877964848162459e+000	 1.810092308082161e-001	 1.256734714713515e+001
 1.893334017779778e+000	 0.000000000000000e+000	 1.234897365064948e+001
 1.893249535458222e+000	 1.788517579074664e-002	 1.237570888199391e+001
 1.892994784698134e+000	 3.583829630928196e-002	 1.239534114161035e+001
 1.892567827419305e+000	 5.385728405365761e-002	 1.240999455984801e+001
 1.891966750216917e+000	 7.194000805308420e-002	 1.242175138011067e+001
 1.891189665863440e+000	 9.008428396473578e-002	 1.243264667441292e+001
 1.890234714824445e+000	 1.082878742157101e-001	 1.244466256694494e+001
 1.889100066787036e+000	 1.265484881912075e-001	 1.245972197558973e+001
 1.887783922199470e+000	 1.448637824699540e-001	 1.247968188091713e+001
 1.886284513820528e+000	 1.632313611078529e-001	 1.250632613960231e+001
 1.884600108277127e+000	 1.816487759708070e-001	 1.254135786714940e+001
 1.900000034718056e+000	 0.000000000000000e+000	 1.231110405836204e+001
 1.899915254952724e+000	 1.794814560240101e-002	 1.233928087375979e+001
 1.899659607270910e+000	 3.596447515101178e-002	 1.236026366121340e+001
 1.899231146768825e+000	 5.404690382946741e-002	 1.237619457523297e+001
 1.898627953304946e+000	 7.219329316431017e-002	 1.238917202960595e+001
 1.897848133007199e+000	 9.040145112213464e-002	 1.240124529890776e+001
 1.896889819794116e+000	 1.086691322520480e-001	 1.241440860610688e+001
 1.895751176908643e+000	 1.269940378745112e-001	 1.243059470545514e+001
 1.894430398463179e+000	 1.453738163175911e-001	 1.245166796965212e+001
 1.892925710994409e+000	 1.638060632016107e-001	 1.247941699788222e+001
 1.891235375026396e+000	 1.822883217731431e-001	 1.251554676945185e+001
 1.906666059988667e+000	 0.000000000000000e+000	 1.227214592792569e+001
 1.906580982779173e+000	 1.801111549270333e-002	 1.230198924851775e+001
 1.906324438174477e+000	 3.609065415036176e-002	 1.232453004040621e+001
 1.905894474447200e+000	 5.423652384218103e-002	 1.234192774120345e+001
 1.905289164719112e+000	 7.244657859202193e-002	 1.235629572693873e+001
 1.904506608473595e+000	 9.071861867588625e-002	 1.236969578724066e+001
 1.903544933082137e+000	 1.090503907648768e-001	 1.238413206452876e+001
 1.902402295343521e+000	 1.274395881147012e-001	 1.240154446565712e+001
 1.901076883034290e+000	 1.458838508027529e-001	 1.242380155447780e+001
 1.899566916469028e+000	 1.643807660137600e-001	 1.245269294158368e+001
 1.897870650068940e+000	 1.829278683749511e-001	 1.248992119582981e+001
 1.913332095258278e+000	 0.000000000000000e+000	 1.223191082335778e+001
 1.913246720604157e+000	 1.807408547732959e-002	 1.226369251524113e+001
 1.912989279075178e+000	 3.621683333875934e-002	 1.228803968507064e+001
 1.912557812120374e+000	 5.442614413904941e-002	 1.230712829567551e+001
 1.911950386124803e+000	 7.269986439936249e-002	 1.232308546709630e+001
 1.911165093927295e+000	 9.103578670509054e-002	 1.233798381330569e+001
 1.910200056352294e+000	 1.094316498493146e-001	 1.235383522066803e+001
 1.909053423754420e+000	 1.278851390229714e-001	 1.237258407583851e+001
 1.907723377574352e+000	 1.463938860527626e-001	 1.239609995105469e+001
 1.906208131904575e+000	 1.649554696878029e-001	 1.242616976276305e+001
 1.904505935063431e+000	 1.835674159359577e-001	 1.246448942806363e+001
 1.919998142193556e+000	 0.000000000000000e+000	 1.219021141133628e+001
 1.919912470094263e+000	 1.813705557195578e-002	 1.222424999868752e+001
 1.919654131639363e+000	 3.634301274763202e-002	 1.225069259009055e+001
 1.919221161454297e+000	 5.461576476732363e-002	 1.227173089887849e+001
 1.918611619187405e+000	 7.295315064947493e-002	 1.228950456077226e+001
 1.917823591032968e+000	 9.135295528884752e-002	 1.230609532015563e+001
 1.916855191268378e+000	 1.098129096004796e-001	 1.232352063561946e+001
 1.915704563804088e+000	 1.283306907105153e-001	 1.234372671173597e+001
 1.914369883744916e+000	 1.469039221949428e-001	 1.236858096451451e+001
 1.912849358961241e+000	 1.655301743672412e-001	 1.239986393617366e+001
 1.911141231668546e+000	 1.842069646158895e-001	 1.243926068361702e+001
 1.926664202461167e+000	 0.000000000000000e+000	 1.214686144184885e+001
 1.926578232916076e+000	 1.820002579225790e-002	 1.218352182782659e+001
 1.926318997533378e+000	 3.646919240840733e-002	 1.221238933416140e+001
 1.925884524114915e+000	 5.480538577425467e-002	 1.223567063314779e+001
 1.925272865572307e+000	 7.320643740550233e-002	 1.225551663774423e+001
 1.924482101455281e+000	 9.167012450625717e-002	 1.227401652556742e+001
 1.923510339494176e+000	 1.101941701134900e-001	 1.229319115947180e+001
 1.922355717155276e+000	 1.287762432885269e-001	 1.231498591093896e+001
 1.921016403207533e+000	 1.474139593566169e-001	 1.234126289323473e+001
 1.919490599299220e+000	 1.661048801955769e-001	 1.237379261967492e+001
 1.917776541542956e+000	 1.848465145744731e-001	 1.241424511130954e+001
 1.933330277727777e+000	 0.000000000000000e+000	 1.210167572923804e+001
 1.933244010736185e+000	 1.826299615391194e-002	 1.214136892450354e+001
 1.932983878423570e+000	 3.659537235251269e-002	 1.217303107470086e+001
 1.932547901768176e+000	 5.499500720709358e-002	 1.219888300271075e+001
 1.931934126944898e+000	 7.345972473058775e-002	 1.222108565016308e+001
 1.931140626858904e+000	 9.198729443641959e-002	 1.224173392746388e+001
 1.930165502693479e+000	 1.105754314834639e-001	 1.226284993749504e+001
 1.929006885470733e+000	 1.292217968681999e-001	 1.228637557847685e+001
 1.927662937623752e+000	 1.479239976651078e-001	 1.231416453246594e+001
 1.926131854578702e+000	 1.666795873163121e-001	 1.234797365454809e+001
 1.924411866345337e+000	 1.854860659714353e-001	 1.238945378697395e+001
 1.858059091039319e+000	 1.790905975616489e-001	 1.264632485287647e+001
 1.856214631932410e+000	 1.972925801832065e-001	 1.267936088517194e+001
 1.854184525689797e+000	 2.155387430328054e-001	 1.270826879339127e+001
 1.851967173765350e+000	 2.338265615961181e-001	 1.273390060445026e+001
 1.849561017085502e+000	 2.521534628864028e-001	 1.275699500039661e+001
 1.846964537582364e+000	 2.705168260265918e-001	 1.277816995148147e+001
 1.844176259724348e+000	 2.889139828828836e-001	 1.279791536666524e+001
 1.841194752042445e+000	 3.073422187503292e-001	 1.281658584599714e+001
 1.838018628650292e+000	 3.257987730908322e-001	 1.283439362818578e+001
 1.834646550756102e+000	 3.442808403239147e-001	 1.285140183546386e+001
 1.831077228164503e+000	 3.627855706705264e-001	 1.286751812645350e+001
 1.864694341202229e+000	 1.797301417633638e-001	 1.261983561252899e+001
 1.862843295411997e+000	 1.979971248515647e-001	 1.265394767672911e+001
 1.860805939527940e+000	 2.163084459382945e-001	 1.268395109671350e+001
 1.858580669295420e+000	 2.346615714940180e-001	 1.271068661157192e+001
 1.856165920073323e+000	 2.530539193436879e-001	 1.273488193762603e+001
 1.853560168372646e+000	 2.714828592509105e-001	 1.275714420814547e+001
 1.850761933392588e+000	 2.899457135538024e-001	 1.277795240979585e+001
 1.847769778552278e+000	 3.084397578530240e-001	 1.279764990145235e+001
 1.844582313016268e+000	 3.269622217524142e-001	 1.281643711015573e+001
 1.841198193211864e+000	 3.455102896525821e-001	 1.283436450804005e+001
 1.837616124336330e+000	 3.640811015977279e-001	 1.285132598293439e+001
 1.871329593023718e+000	 1.803696861256440e-001	 1.259350821190822e+001
 1.869471960548609e+000	 1.987016696966989e-001	 1.262872429919053e+001
 1.867427355021387e+000	 2.170781490368015e-001	 1.265985576155235e+001
 1.865194166478905e+000	 2.354965816012088e-001	 1.268773071460686e+001
 1.862770824712498e+000	 2.539543760265665e-001	 1.271306488324727e+001
 1.860155800812049e+000	 2.724488927171559e-001	 1.273645385092406e+001
 1.857347608707542e+000	 2.909774444830102e-001	 1.275836528400697e+001
 1.854344806706239e+000	 3.095372972303986e-001	 1.277913121805163e+001
 1.851145999023604e+000	 3.281256707050956e-001	 1.279894050220054e+001
 1.847749837306038e+000	 3.467397392887961e-001	 1.281783150727639e+001
 1.844155022143435e+000	 3.653766328489503e-001	 1.283568521227442e+001
 1.877964848162459e+000	 1.810092308082161e-001	 1.256734714713515e+001
 1.876100628999242e+000	 1.994062148945999e-001	 1.260368437209293e+001
 1.874048773825298e+000	 2.178478525206209e-001	 1.263596715533870e+001
 1.871807666968964e+000	 2.363315921263249e-001	 1.266500969145262e+001
 1.869375732654024e+000	 2.548548331600489e-001	 1.269151472750516e+001
 1.866751436549240e+000	 2.734149266667451e-001	 1.271606562468605e+001
 1.863933287315374e+000	 2.920091759283613e-001	 1.273911837241240e+001
 1.860919838147821e+000	 3.106348371567720e-001	 1.276099364291062e+001
 1.857709688312956e+000	 3.292891202396840e-001	 1.278186898395246e+001
 1.854301484676263e+000	 3.479691895398752e-001	 1.280177125703371e+001
 1.850693923220269e+000	 3.666721647480424e-001	 1.282056943771342e+001
 1.884600108277127e+000	 1.816487759708070e-001	 1.254135786714940e+001
 1.882729302420894e+000	 2.001107606212587e-001	 1.257882275107595e+001
 1.880670197594831e+000	 2.186175565820469e-001	 1.261227112062000e+001
 1.878421172418757e+000	 2.371666032780017e-001	 1.264250198992662e+001
 1.875980645548895e+000	 2.557552909691455e-001	 1.267020418128131e+001
 1.873347077232879e+000	 2.743809613410961e-001	 1.269594820175538e+001
 1.870518970862248e+000	 2.930409081477106e-001	 1.272017804875002e+001
 1.867494874520521e+000	 3.117323779064631e-001	 1.274320303360013e+001
 1.864273382524977e+000	 3.304525706469872e-001	 1.276518972236615e+001
 1.860853136960182e+000	 3.491986407131379e-001	 1.278615410283220e+001
 1.857232829201285e+000	 3.679676976188531e-001	 1.280595409645007e+001
 1.891235375026396e+000	 1.822883217731431e-001	 1.251554676945185e+001
 1.889357982470562e+000	 2.008153070526660e-001	 1.255413551804436e+001
 1.887291627985147e+000	 2.193872614133742e-001	 1.258875496009792e+001
 1.885034684481444e+000	 2.380016152648743e-001	 1.262018770814380e+001
 1.882585565048103e+000	 2.566557496788663e-001	 1.264910775228501e+001
 1.879942724511631e+000	 2.753469969816266e-001	 1.267607215439477e+001
 1.877104660994329e+000	 2.940726413989127e-001	 1.270151264664541e+001
 1.874069917467834e+000	 3.128299197537908e-001	 1.272572722468555e+001
 1.870837083300321e+000	 3.316160222178131e-001	 1.274887183603539e+001
 1.867404795795433e+000	 3.504280931159031e-001	 1.277095227445423e+001
 1.863771741720931e+000	 3.692632317852310e-001	 1.279181640104759e+001
 1.897870650068940e+000	 1.829278683749511e-001	 1.248992119582981e+001
 1.895986670805243e+000	 2.015198543648128e-001	 1.252961997140665e+001
 1.893913066651407e+000	 2.201569672068973e-001	 1.256540742182541e+001
 1.891648204810182e+000	 2.388366282955775e-001	 1.259804857512576e+001
 1.889190492802647e+000	 2.575562095142218e-001	 1.262820172153400e+001
 1.886538380034160e+000	 2.763130338297541e-001	 1.265640992762604e+001
 1.883690359357781e+000	 2.951043759398224e-001	 1.268309242924831e+001
 1.880644968633256e+000	 3.139274629730742e-001	 1.270853599466125e+001
 1.877400792279645e+000	 3.327794752429694e-001	 1.273288635991572e+001
 1.873956462819656e+000	 3.516575470554891e-001	 1.275613984895235e+001
 1.870310662413659e+000	 3.705587675710250e-001	 1.277813530123024e+001
 1.904505935063431e+000	 1.835674159359577e-001	 1.246448942806363e+001
 1.902615369081935e+000	 2.022244027336899e-001	 1.250527461638794e+001
 1.900534515248767e+000	 2.209266741549104e-001	 1.254221868455989e+001
 1.898261735058134e+000	 2.396716425787466e-001	 1.257606793163427e+001
 1.895795430463519e+000	 2.584566707002221e-001	 1.260746412011770e+001
 1.893134045449130e+000	 2.772790721268962e-001	 1.263693581238013e+001
 1.890276067598770e+000	 2.961361120282944e-001	 1.266488955923202e+001
 1.887220029660281e+000	 3.150250078386322e-001	 1.269160103327092e+001
 1.883964511103600e+000	 3.339429300132639e-001	 1.271720621044332e+001
 1.880508139670492e+000	 3.528870028392147e-001	 1.274169271405185e+001
 1.876849592913921e+000	 3.718543053000839e-001	 1.276489144606076e+001
 1.911141231668546e+000	 1.842069646158895e-001	 1.243926068361702e+001
 1.909244078957633e+000	 2.029289523352882e-001	 1.248109915541638e+001
 1.907155975432390e+000	 2.216963824497081e-001	 1.251918034326771e+001
 1.904875276878457e+000	 2.405066583230165e-001	 1.255423071122471e+001
 1.902400379681716e+000	 2.593571334618774e-001	 1.258687470623713e+001
 1.899729722405203e+000	 2.782451121144706e-001	 1.261762591896754e+001
 1.896861787363458e+000	 2.971678499221833e-001	 1.264687806914706e+001
 1.893795102192404e+000	 3.161225546247839e-001	 1.267489590920381e+001
 1.890528241412844e+000	 3.351063868195044e-001	 1.270180615104070e+001
 1.887059827985581e+000	 3.541164607743985e-001	 1.272758853193828e+001
 1.883388534856166e+000	 3.731498452962564e-001	 1.275206714649054e+001
 1.917776541542956e+000	 1.848465145744731e-001	 1.241424511130954e+001
 1.915872802089337e+000	 2.036335033455986e-001	 1.245709447858031e+001
 1.913777448857434e+000	 2.224660922835847e-001	 1.249628539477742e+001
 1.911488831924310e+000	 2.413416757370221e-001	 1.253252342151397e+001
 1.909005342108230e+000	 2.602575980241982e-001	 1.256641494251357e+001
 1.906325412551045e+000	 2.792111540338950e-001	 1.259845815086196e+001
 1.903447520298011e+000	 2.981995898793440e-001	 1.262903383212120e+001
 1.900370187873122e+000	 3.172201036058480e-001	 1.265839603815856e+001
 1.897091984848029e+000	 3.362698459524989e-001	 1.268666275799913e+001
 1.893611529402563e+000	 3.553459211683593e-001	 1.271380670342101e+001
 1.889927489874846e+000	 3.744453878833915e-001	 1.273964633827145e+001
 1.924411866345337e+000	 1.854860659714353e-001	 1.238945378697395e+001
 1.922501540134042e+000	 2.043380559406118e-001	 1.243326265415523e+001
 1.920398937179060e+000	 2.232358038488349e-001	 1.247352822357737e+001
 1.918102401848856e+000	 2.421766950293987e-001	 1.251093412565717e+001
 1.915610319394058e+000	 2.611580646121946e-001	 1.254606797356020e+001
 1.912921117535318e+000	 2.801771981265868e-001	 1.257941217879001e+001
 1.910033268048593e+000	 2.992313321576312e-001	 1.261133453289609e+001
 1.906945288345930e+000	 3.183176550561437e-001	 1.264207865126508e+001
 1.903655743049810e+000	 3.374333077030550e-001	 1.267175438672909e+001
 1.900163245559078e+000	 3.565753843284157e-001	 1.270032833246286e+001
 1.896466459604412e+000	 3.757409333853379e-001	 1.272761454522282e+001
 1.831077228164503e+000	 3.627855706705264e-001	 1.286751812645350e+001
 1.827308840852505e+000	 3.813128506229466e-001	 1.288472782045316e+001
 1.823340721694443e+000	 3.998569654505436e-001	 1.290504085227490e+001
 1.819171736284712e+000	 4.184149326073986e-001	 1.292817004096242e+001
 1.814800804742252e+000	 4.369837291416522e-001	 1.295366731740536e+001
 1.810226903133151e+000	 4.555602928079645e-001	 1.298092122873608e+001
 1.805449064870776e+000	 4.741415232331826e-001	 1.300915564770661e+001
 1.800466382091268e+000	 4.927242831349174e-001	 1.303742984409916e+001
 1.795278007002279e+000	 5.113053995926306e-001	 1.306464007870483e+001
 1.789883153202777e+000	 5.298816653707489e-001	 1.308952288275753e+001
 1.784281096971782e+000	 5.484498402932200e-001	 1.311066018682686e+001
 1.837616124336330e+000	 3.640811015977279e-001	 1.285132598293439e+001
 1.833834279867261e+000	 3.826745436747856e-001	 1.286934685617126e+001
 1.829851990296648e+000	 4.012848807454483e-001	 1.289049331694410e+001
 1.825668117167858e+000	 4.199091196129332e-001	 1.291448568365722e+001
 1.821281576743510e+000	 4.385442265302251e-001	 1.294087980443893e+001
 1.816691341433165e+000	 4.571871283165070e-001	 1.296906417388447e+001
 1.811896441198450e+000	 4.758347135269936e-001	 1.299825825840557e+001
 1.806895964933474e+000	 4.944838336758576e-001	 1.302751219116002e+001
 1.801689061818373e+000	 5.131313045118566e-001	 1.305570800122036e+001
 1.796274942643831e+000	 5.317739073461716e-001	 1.308156254417762e+001
 1.790652881104421e+000	 5.504083904318716e-001	 1.310363230265368e+001
 1.844155022143435e+000	 3.653766328489503e-001	 1.283568521227442e+001
 1.840359720513974e+000	 3.840362370671486e-001	 1.285456113965962e+001
 1.836363260527303e+000	 4.027127963974043e-001	 1.287657583957947e+001
 1.832164499675755e+000	 4.214033069920676e-001	 1.290145810008505e+001
 1.827762350365629e+000	 4.401047243089640e-001	 1.292876863664394e+001
 1.823155781349956e+000	 4.588139642317981e-001	 1.295789680917456e+001
 1.818343819138624e+000	 4.775279042441487e-001	 1.298805855095560e+001
 1.813325549383706e+000	 4.962433846567469e-001	 1.301829567437520e+001
 1.808100118237819e+000	 5.149572098876430e-001	 1.304747672238284e+001
 1.802666733683369e+000	 5.336661497947700e-001	 1.307429953723299e+001
 1.797024666830474e+000	 5.523669410603160e-001	 1.309729571955163e+001
 1.850693923220269e+000	 3.666721647480424e-001	 1.282056943771342e+001
 1.846885164423731e+000	 3.853979311404336e-001	 1.284035021745302e+001
 1.842874534013948e+000	 4.041407127633728e-001	 1.286327337861893e+001
 1.838660885432222e+000	 4.228974951183376e-001	 1.288907719060180e+001
 1.834243127228527e+000	 4.416652228679883e-001	 1.291732822919715e+001
 1.829620224499362e+000	 4.604408009605448e-001	 1.294741768165675e+001
 1.824791200302876e+000	 4.792210958079453e-001	 1.297855886651266e+001
 1.819755137049102e+000	 4.980029365174732e-001	 1.300978613720437e+001
 1.814511177863141e+000	 5.167831161764661e-001	 1.303995534265590e+001
 1.809058527919111e+000	 5.355583931896024e-001	 1.306774602086864e+001
 1.803396455742680e+000	 5.543254926681835e-001	 1.309166550321018e+001
 1.857232829201285e+000	 3.679676976188531e-001	 1.280595409645007e+001
 1.853410613227614e+000	 3.867596262350392e-001	 1.282669531880338e+001
 1.849385812384124e+000	 4.055686302003154e-001	 1.285057243905329e+001
 1.845157276061076e+000	 4.243916843652784e-001	 1.287733426171474e+001
 1.840723908952120e+000	 4.432257225974156e-001	 1.290655425949660e+001
 1.836084672497222e+000	 4.620676389094542e-001	 1.293762645387312e+001
 1.831238586302786e+000	 4.809142886416813e-001	 1.296976251294276e+001
 1.826184729536804e+000	 4.997624896979254e-001	 1.300199023974710e+001
 1.820922242296858e+000	 5.186090238348022e-001	 1.303315362855959e+001
 1.815450326948778e+000	 5.374506380037266e-001	 1.306191466977457e+001
 1.809768249433779e+000	 5.562840457451034e-001	 1.308675708581537e+001
 1.863771741720931e+000	 3.692632317852310e-001	 1.279181640104759e+001
 1.859936068556710e+000	 3.881213226913631e-001	 1.281357931609469e+001
 1.855897097265371e+000	 4.069965490651931e-001	 1.283846103174904e+001
 1.851653673186138e+000	 4.258858751064262e-001	 1.286622198421680e+001
 1.847204697156331e+000	 4.447862238873650e-001	 1.289644362401667e+001
 1.842549126959376e+000	 4.636944784852327e-001	 1.292852385934878e+001
 1.837685978749934e+000	 4.826074831686547e-001	 1.296167371887185e+001
 1.832614328453952e+000	 5.015220446379923e-001	 1.299491541127920e+001
 1.827333313141492e+000	 5.204349333191274e-001	 1.302708196362846e+001
 1.821842132370091e+000	 5.393428847102000e-001	 1.305681862370684e+001
 1.816140049496512e+000	 5.582426007807066e-001	 1.308258621368251e+001
 1.870310662413659e+000	 3.705587675710250e-001	 1.277813530123024e+001
 1.866461532042101e+000	 3.894830208498033e-001	 1.280098668562967e+001
 1.862408390285230e+000	 4.084244697149676e-001	 1.282692863312408e+001
 1.858150078431226e+000	 4.273800677153165e-001	 1.285573435165596e+001
 1.853685493461075e+000	 4.463467271279551e-001	 1.288699439548153e+001
 1.849013589501663e+000	 4.653213200945875e-001	 1.292011165838608e+001
 1.844133379255898e+000	 4.843006798121632e-001	 1.295429758802327e+001
 1.839043935407688e+000	 5.032816017775624e-001	 1.298856980306272e+001
 1.833744391999562e+000	 5.222608450859181e-001	 1.302175129962952e+001
 1.828233945780770e+000	 5.412351337820803e-001	 1.305247143705628e+001
 1.822511857523616e+000	 5.602011582646226e-001	 1.307916889512504e+001
 1.876849592913921e+000	 3.718543053000839e-001	 1.276489144606076e+001
 1.872987005314874e+000	 3.908447210507583e-001	 1.278890346877855e+001
 1.868919693071243e+000	 4.098523925065999e-001	 1.281596614516727e+001
 1.864646493420159e+000	 4.288742625654853e-001	 1.284586663913134e+001
 1.860166299486271e+000	 4.479072327093041e-001	 1.287820578034897e+001
 1.855478061739920e+000	 4.669481641442252e-001	 1.291239259415339e+001
 1.850580789432260e+000	 4.859938789955048e-001	 1.294764005383509e+001
 1.845473552005150e+000	 5.050411615565242e-001	 1.298296224142209e+001
 1.840155480473591e+000	 5.240867595916503e-001	 1.301717310803377e+001
 1.834625768778536e+000	 5.431273856924254e-001	 1.304888702865870e+001
 1.828883675107834e+000	 5.621597186864816e-001	 1.307652134855346e+001
 1.883388534856166e+000	 3.731498452962564e-001	 1.275206714649054e+001
 1.879512490006111e+000	 3.922064236346262e-001	 1.277731723348136e+001
 1.875431007250949e+000	 4.112803177970515e-001	 1.280556585579418e+001
 1.871142919776756e+000	 4.303684600304681e-001	 1.283661536240815e+001
 1.866647116851838e+000	 4.494677410215305e-001	 1.287007807659701e+001
 1.861942545289986e+000	 4.685750110408526e-001	 1.290537034906171e+001
 1.857028210890599e+000	 4.876870811419775e-001	 1.294170783435116e+001
 1.851903179853479e+000	 5.068007244147664e-001	 1.297810218107997e+001
 1.846566580166098e+000	 5.259126772928005e-001	 1.301335933173466e+001
 1.841017602961110e+000	 5.450196409142923e-001	 1.304607963183988e+001
 1.835255503841901e+000	 5.641182825359137e-001	 1.307465995079813e+001
 1.889927489874846e+000	 3.744453878833915e-001	 1.273964633827145e+001
 1.886037987746898e+000	 3.935681289418047e-001	 1.276621703609453e+001
 1.881942334451890e+000	 4.127082459432837e-001	 1.279572139952921e+001
 1.877639359124836e+000	 4.318626604838007e-001	 1.282797823734317e+001
 1.873127947177695e+000	 4.510282524547534e-001	 1.286261263180554e+001
 1.868407041767702e+000	 4.702018611911770e-001	 1.289904950142113e+001
 1.863475645242494e+000	 4.893802866748787e-001	 1.293650838737781e+001
 1.858332820559816e+000	 5.085602907921776e-001	 1.297399965874613e+001
 1.852977692679604e+000	 5.277385986458443e-001	 1.301032233700694e+001
 1.847409449926213e+000	 5.469118999207399e-001	 1.304406374468978e+001
 1.841627345318559e+000	 5.660768503025488e-001	 1.307360118565027e+001
 1.896466459604412e+000	 3.757409333853379e-001	 1.272761454522282e+001
 1.892563500168320e+000	 3.949298373126922e-001	 1.275559338357383e+001
 1.888453676301606e+000	 4.141361773022581e-001	 1.278642771850779e+001
 1.884135813088218e+000	 4.333568642990193e-001	 1.281995413961368e+001
 1.879608792083759e+000	 4.525887673990907e-001	 1.285581180152559e+001
 1.874871552788905e+000	 4.718287150019048e-001	 1.289343548237079e+001
 1.869923094099525e+000	 4.910734960175069e-001	 1.293204986590015e+001
 1.864762475731302e+000	 5.103198611286467e-001	 1.297066524695275e+001
 1.859388819616633e+000	 5.295645241072586e-001	 1.300807486570020e+001
 1.853801311271564e+000	 5.488041631848249e-001	 1.304285408055945e+001
 1.847999201130549e+000	 5.680354224760175e-001	 1.307336159261526e+001
 1.784281096971782e+000	 5.484498402932200e-001	 1.311066018682686e+001
 1.778471178077622e+000	 5.670066523970694e-001	 1.312754017255787e+001
 1.772452799657343e+000	 5.855487985655503e-001	 1.313968740143064e+001
 1.766225430735958e+000	 6.040729468208824e-001	 1.314552418518600e+001
 1.759788607818298e+000	 6.225757381620464e-001	 1.314334754800578e+001
 1.753141935993637e+000	 6.410537881847428e-001	 1.313134535654725e+001
 1.746285089996563e+000	 6.595036887474010e-001	 1.310761523672850e+001
 1.739217815222061e+000	 6.779220096819685e-001	 1.307524689078970e+001
 1.731939928692788e+000	 6.963053005481263e-001	 1.305340150083944e+001
 1.724451319976577e+000	 7.146500924294711e-001	 1.304452785407804e+001
 1.716751952052255e+000	 7.329528997701102e-001	 1.304899965749206e+001
 1.790652881104421e+000	 5.504083904318716e-001	 1.310363230265368e+001
 1.784822214610746e+000	 5.690314701215915e-001	 1.312131511668695e+001
 1.778782344168420e+000	 5.876398315029393e-001	 1.313402654028888e+001
 1.772532736906307e+000	 6.062301306994240e-001	 1.314012580503463e+001
 1.766072927674071e+000	 6.247989967148147e-001	 1.313783989574631e+001
 1.759402520150737e+000	 6.433430330588842e-001	 1.312527955190614e+001
 1.752521187909348e+000	 6.618588194193653e-001	 1.310045810561882e+001
 1.745428675435680e+000	 6.803429133788516e-001	 1.306868808089025e+001
 1.738124799098968e+000	 6.987918521752770e-001	 1.304790080418814e+001
 1.730609448072687e+000	 7.172021545045108e-001	 1.303939408989922e+001
 1.722882585203459e+000	 7.355703223635137e-001	 1.304350455761007e+001
 1.797024666830474e+000	 5.523669410603160e-001	 1.309729571955163e+001
 1.791173252732014e+000	 5.710562883525208e-001	 1.311577317102969e+001
 1.785111890262170e+000	 5.897308649633422e-001	 1.312903904905683e+001
 1.778840044653666e+000	 6.083873151175759e-001	 1.313539021157323e+001
 1.772357249100997e+000	 6.270222558237740e-001	 1.313298417952768e+001
 1.765663105872937e+000	 6.456322785057757e-001	 1.311985499743616e+001
 1.758757287380994e+000	 6.642139506806133e-001	 1.309393198082667e+001
 1.751639537201736e+000	 6.827638176815222e-001	 1.306313724291059e+001
 1.744309671050979e+000	 7.012784044246840e-001	 1.304332870828540e+001
 1.736767577707839e+000	 7.197542172182364e-001	 1.303510392122736e+001
 1.729013219886742e+000	 7.381877456119868e-001	 1.303876220529328e+001
 1.803396455742680e+000	 5.543254926681835e-001	 1.309166550321018e+001
 1.797524294029003e+000	 5.730811075960470e-001	 1.311093225201670e+001
 1.791441439520828e+000	 5.918218994694956e-001	 1.312474573079726e+001
 1.785147355554737e+000	 6.105445006146021e-001	 1.313134117050318e+001
 1.778641573670060e+000	 6.292455160446953e-001	 1.312880724258402e+001
 1.771923694725325e+000	 6.479215250976735e-001	 1.311510176617991e+001
 1.764993389970501e+000	 6.665690831198611e-001	 1.308807035307774e+001
 1.757850402072950e+000	 6.851847231951276e-001	 1.305860836985970e+001
 1.750494546095071e+000	 7.037649579178936e-001	 1.303969880941184e+001
 1.742925710421627e+000	 7.223062812085587e-001	 1.303167062704457e+001
 1.735143857634843e+000	 7.408051701697699e-001	 1.303478562949233e+001
 1.809768249433779e+000	 5.562840457451034e-001	 1.308675708581537e+001
 1.803875340089290e+000	 5.751059283583608e-001	 1.310681049449124e+001
 1.797770993526625e+000	 5.939129355441349e-001	 1.312116746021313e+001
 1.791454671186225e+000	 6.127016877297664e-001	 1.312800237456591e+001
 1.784925902952252e+000	 6.314687779333502e-001	 1.312533571361673e+001
 1.778184288272990e+000	 6.502107734068342e-001	 1.311104957894788e+001
 1.771229497236867e+000	 6.689242173258243e-001	 1.308308704136851e+001
 1.764061271602043e+000	 6.876056305248131e-001	 1.305511404088867e+001
 1.756679425777497e+000	 7.062515132764518e-001	 1.303702327887973e+001
 1.749083847753641e+000	 7.248583471133897e-001	 1.302910605201124e+001
 1.741274499980501e+000	 7.434225966911037e-001	 1.303158641703536e+001
 1.816140049496512e+000	 5.582426007807066e-001	 1.308258621368251e+001
 1.810226392500453e+000	 5.771307511456527e-001	 1.310342619762117e+001
 1.804100553861794e+000	 5.960039737099959e-001	 1.311832512782501e+001
 1.797761993124833e+000	 6.148588770023328e-001	 1.312539738597772e+001
 1.791210238518562e+000	 6.336920420455107e-001	 1.312259594748474e+001
 1.784444888081018e+000	 6.525000240055143e-001	 1.310772774326783e+001
 1.777465610739092e+000	 6.712793538872184e-001	 1.307922428628252e+001
 1.770272147341734e+000	 6.900265402757259e-001	 1.305266543175038e+001
 1.762864311644508e+000	 7.087380711219047e-001	 1.303531287454629e+001
 1.755241991243472e+000	 7.274104155706407e-001	 1.302742061899978e+001
 1.747405148456453e+000	 7.460400258302280e-001	 1.302917472614710e+001
 1.822511857523616e+000	 5.602011582646226e-001	 1.307916889512504e+001
 1.816577452850068e+000	 5.791555764641130e-001	 1.310079777103614e+001
 1.810430122108566e+000	 5.980950144898148e-001	 1.311623958436310e+001
 1.804069322947262e+000	 6.170160689715646e-001	 1.312354957906888e+001
 1.797494581939978e+000	 6.359153089369478e-001	 1.312061396608903e+001
 1.790705495714499e+000	 6.547892774659703e-001	 1.310516509251916e+001
 1.783701732036173e+000	 6.736344933927593e-001	 1.307649300414419e+001
 1.776483030844745e+000	 6.924474530530120e-001	 1.305127232542369e+001
 1.769049205242356e+000	 7.112246320757975e-001	 1.303457695248340e+001
 1.761400142430712e+000	 7.299624872182238e-001	 1.302662334177779e+001
 1.753535804595439e+000	 7.486574582413831e-001	 1.302755930011064e+001
 1.828883675107834e+000	 5.621597186864816e-001	 1.307652134855346e+001
 1.822928522725712e+000	 5.811804048199316e-001	 1.309894368118410e+001
 1.816759699849174e+000	 6.001860584063269e-001	 1.311493158536797e+001
 1.810376662230218e+000	 6.191732641767258e-001	 1.312248208312163e+001
 1.803778934787489e+000	 6.381385791634338e-001	 1.311941539944630e+001
 1.796966112738519e+000	 6.570785343604584e-001	 1.310338992524697e+001
 1.789937862687110e+000	 6.759896364311618e-001	 1.307490213034358e+001
 1.782693923663795e+000	 6.948683694618180e-001	 1.305094312289763e+001
 1.775234108117294e+000	 7.137111967596770e-001	 1.303482347880019e+001
 1.767558302854952e+000	 7.325145626940495e-001	 1.302672183783681e+001
 1.759666469930197e+000	 7.512748945788091e-001	 1.302674748106780e+001
 1.835255503841901e+000	 5.641182825359137e-001	 1.307465995079813e+001
 1.829279603714964e+000	 5.832052367192995e-001	 1.309788239790128e+001
 1.823089288665850e+000	 6.022771059822683e-001	 1.311442173599478e+001
 1.816684012550403e+000	 6.213304631570801e-001	 1.312221772540149e+001
 1.810063298632084e+000	 6.403618532807395e-001	 1.311902542694657e+001
 1.803226740718167e+000	 6.593677952612349e-001	 1.310242994465088e+001
 1.796174004250901e+000	 6.783447835911425e-001	 1.307445923800863e+001
 1.788904827351605e+000	 6.972892901072900e-001	 1.305168485411216e+001
 1.781419021815571e+000	 7.161977657950887e-001	 1.303605904161474e+001
 1.773716474055784e+000	 7.350666426360299e-001	 1.302772234136313e+001
 1.765797145993466e+000	 7.538923354967473e-001	 1.302674522395527e+001
 1.841627345318559e+000	 5.660768503025488e-001	 1.307360118565027e+001
 1.835630697405398e+000	 5.852300726684062e-001	 1.309763234118996e+001
 1.829418890140827e+000	 6.043681577403747e-001	 1.311473043601526e+001
 1.822991375484519e+000	 6.234876664518915e-001	 1.312277897437678e+001
 1.816347675044753e+000	 6.425851318446370e-001	 1.311946871878969e+001
 1.809487381218530e+000	 6.616570607405571e-001	 1.310231219824377e+001
 1.802410158286545e+000	 6.806999354614165e-001	 1.307517054804553e+001
 1.795115743460896e+000	 6.997102155945745e-001	 1.305350318905118e+001
 1.787603947883441e+000	 7.186843398035789e-001	 1.303828886317070e+001
 1.779874657572799e+000	 7.376187276820769e-001	 1.302962971634711e+001
 1.771927834317984e+000	 7.565097816494371e-001	 1.302755711057268e+001
 1.847999201130549e+000	 5.680354224760175e-001	 1.307336159261526e+001
 1.841981805384595e+000	 5.872549131734429e-001	 1.309821182819847e+001
 1.835748505856336e+000	 6.064592142033818e-001	 1.311587782501228e+001
 1.829298752609273e+000	 6.256448746004242e-001	 1.312418788312135e+001
 1.822632065596483e+000	 6.448084154108978e-001	 1.312076937759575e+001
 1.815748035804696e+000	 6.639463313706805e-001	 1.310306301767578e+001
 1.808646326353042e+000	 6.830550926306998e-001	 1.307704093933510e+001
 1.801326673544389e+000	 7.021311465288183e-001	 1.305640244898444e+001
 1.793788887867155e+000	 7.211709194066933e-001	 1.304151681209621e+001
 1.786032854945589e+000	 7.401708184701011e-001	 1.303244746982770e+001
 1.778058536436490e+000	 7.591272336911190e-001	 1.302918636377985e+001
 1.716751952052255e+000	 7.329528997701102e-001	 1.304899965749206e+001
 1.708843064595402e+000	 7.512074875272331e-001	 1.305697688818299e+001
 1.700723631802261e+000	 7.694130934055929e-001	 1.305852842067817e+001
 1.692393842765832e+000	 7.875661958811594e-001	 1.305387154717835e+001
 1.683853962847609e+000	 8.056632645502203e-001	 1.304326871313490e+001
 1.675104334255827e+000	 8.237007621394886e-001	 1.302702524812427e+001
 1.666145376561775e+000	 8.416751465452835e-001	 1.300548645056118e+001
 1.656977587152687e+000	 8.595828728996267e-001	 1.297903400410374e+001
 1.647601541619870e+000	 8.774203956610007e-001	 1.294808170830403e+001
 1.638017894080758e+000	 8.951841707274575e-001	 1.291307051117104e+001
 1.628227377433699e+000	 9.128706575696799e-001	 1.287446283681173e+001
 1.722882585203459e+000	 7.355703223635137e-001	 1.304350455761007e+001
 1.714945454593828e+000	 7.538900984437293e-001	 1.305079016306579e+001
 1.706797026776825e+000	 7.721607177277033e-001	 1.305172982583991e+001
 1.698437491520715e+000	 7.903786461158098e-001	 1.304652318260711e+001
 1.689867115134611e+000	 8.085403405970330e-001	 1.303541702760565e+001
 1.681086241048800e+000	 8.266422512662486e-001	 1.301870309927671e+001
 1.672095290332883e+000	 8.446808233706905e-001	 1.299671520509144e+001
 1.662894762150299e+000	 8.626524993834223e-001	 1.296982566137810e+001
 1.653485234147826e+000	 8.805537211015636e-001	 1.293844102975669e+001
 1.643867362778795e+000	 8.983809317669451e-001	 1.290299713700822e+001
 1.634041883558781e+000	 9.161305782067851e-001	 1.286395337082112e+001
 1.729013219886742e+000	 7.381877456119868e-001	 1.303876220529328e+001
 1.721047846117197e+000	 7.565727100316283e-001	 1.304526788800846e+001
 1.712870423269022e+000	 7.749083427374959e-001	 1.304551794913736e+001
 1.704481141785743e+000	 7.931910970543670e-001	 1.303969360301504e+001
 1.695880268924100e+000	 8.114174173639178e-001	 1.302802518508850e+001
 1.687068149336424e+000	 8.295837411291850e-001	 1.301078999683905e+001
 1.678045205590631e+000	 8.476865009483131e-001	 1.298830947309440e+001
 1.668811938626363e+000	 8.657221266354052e-001	 1.296094564747857e+001
 1.659368928145872e+000	 8.836870473262150e-001	 1.292909689663711e+001
 1.649716832938384e+000	 9.015776936063482e-001	 1.289319294920207e+001
 1.639856391136701e+000	 9.193904996595568e-001	 1.285368915119579e+001
 1.735143857634843e+000	 7.408051701697699e-001	 1.303478562949234e+001
 1.727150240691201e+000	 7.592553229614557e-001	 1.304042269710893e+001
 1.718943822797304e+000	 7.776559691217415e-001	 1.303990467661534e+001
 1.710524795071942e+000	 7.960035493998001e-001	 1.303339358759789e+001
 1.701893425719475e+000	 8.142944955699942e-001	 1.302110249448750e+001
 1.693050060614283e+000	 8.325252324635154e-001	 1.300329341234863e+001
 1.683995123822598e+000	 8.506921800294127e-001	 1.298027451911122e+001
 1.674729118060264e+000	 8.687917554228226e-001	 1.295239664890202e+001
 1.665252625085009e+000	 8.868203751181280e-001	 1.292004904611937e+001
 1.655566306021953e+000	 9.047744570447024e-001	 1.288365436533070e+001
 1.645670901621129e+000	 9.226504227428251e-001	 1.284366290792647e+001
 1.741274499980501e+000	 7.434225966911037e-001	 1.303158641703536e+001
 1.733252639841535e+000	 7.619379379037399e-001	 1.303626577871405e+001
 1.725017226880129e+000	 7.804035975672117e-001	 1.303490045168637e+001
 1.716568452890335e+000	 7.988160038550789e-001	 1.302763248252192e+001
 1.707906587024137e+000	 8.171715759343821e-001	 1.301465684750066e+001
 1.699031976377965e+000	 8.354667260044575e-001	 1.299621942192127e+001
 1.689945046516368e+000	 8.536978613652514e-001	 1.297261423975027e+001
 1.680646301931392e+000	 8.718613865129233e-001	 1.294418001715273e+001
 1.671136326436242e+000	 8.899537052604761e-001	 1.291129591852934e+001
 1.661415783491934e+000	 9.079712228810429e-001	 1.287437654923089e+001
 1.651485416465734e+000	 9.259103482714212e-001	 1.283386616509736e+001
 1.747405148456453e+000	 7.460400258302280e-001	 1.302917472614710e+001
 1.739355045093891e+000	 7.646205555290072e-001	 1.303280688983688e+001
 1.731090637035950e+000	 7.831512287606772e-001	 1.303051429030852e+001
 1.722612116751946e+000	 8.016284611231731e-001	 1.302241821672273e+001
 1.713919754341489e+000	 8.200486591762006e-001	 1.300869473490105e+001
 1.705013898123057e+000	 8.384082224872302e-001	 1.298957272287431e+001
 1.695894975159521e+000	 8.567035457070906e-001	 1.296533118051177e+001
 1.686563491719131e+000	 8.749310206729553e-001	 1.293629578562840e+001
 1.677020033670570e+000	 8.930870385364330e-001	 1.290283467415163e+001
 1.667265266810758e+000	 9.111679919144055e-001	 1.286535342758611e+001
 1.657299937124190e+000	 9.291702770601759e-001	 1.282428925711545e+001
 1.753535804595439e+000	 7.486574582413831e-001	 1.302755930011064e+001
 1.745457457973962e+000	 7.673031765077846e-001	 1.303005437071118e+001
 1.737164054783222e+000	 7.858988633889095e-001	 1.302675379629700e+001
 1.728655788167798e+000	 8.044409219070525e-001	 1.301775731783813e+001
 1.719932929174930e+000	 8.229257460145701e-001	 1.300322126295328e+001
 1.710995827345145e+000	 8.413497226470509e-001	 1.298335665048950e+001
 1.701844911239638e+000	 8.597092338061929e-001	 1.295842655275909e+001
 1.692480688902867e+000	 8.780006586701662e-001	 1.292874268666175e+001
 1.682903748258998e+000	 8.962203757291724e-001	 1.289466121020360e+001
 1.673114757440853e+000	 9.143647649438252e-001	 1.285657770669522e+001
 1.663114465050167e+000	 9.324302099239195e-001	 1.281492134513684e+001
 1.759666469930197e+000	 7.512748945788091e-001	 1.302674748106781e+001
 1.751559880007443e+000	 7.699858015105993e-001	 1.302801515947929e+001
 1.743237481640399e+000	 7.886465021386789e-001	 1.302362517676658e+001
 1.734699468648917e+000	 8.072533869096865e-001	 1.301365492827086e+001
 1.725946113027860e+000	 8.258028371686097e-001	 1.299824016996224e+001
 1.716977765539816e+000	 8.442912272191379e-001	 1.297757319491224e+001
 1.707794856244301e+000	 8.627149264138195e-001	 1.295190025083305e+001
 1.698397894961988e+000	 8.810703012718046e-001	 1.292151816871413e+001
 1.688787471672527e+000	 8.993537176218677e-001	 1.288677017797254e+001
 1.678964256844652e+000	 9.175615427683384e-001	 1.284804088941766e+001
 1.668929001697338e+000	 9.356901476774830e-001	 1.280575043368478e+001
 1.765797145993466e+000	 7.538923354967473e-001	 1.302674522395527e+001
 1.757662312720026e+000	 7.726684312079784e-001	 1.302669480701055e+001
 1.749310919125939e+000	 7.913941456967579e-001	 1.302113325770153e+001
 1.740743159706326e+000	 8.100658568340448e-001	 1.301011482137861e+001
 1.731959307403683e+000	 8.286799333574388e-001	 1.299375384295067e+001
 1.722959714202657e+000	 8.472327369387087e-001	 1.297222301818398e+001
 1.713744811661092e+000	 8.657206242812326e-001	 1.294575086930570e+001
 1.704315111375880e+000	 8.841399492451175e-001	 1.291461841371724e+001
 1.694671205382161e+000	 9.024870649976924e-001	 1.287915500011182e+001
 1.684813766484584e+000	 9.207583261869791e-001	 1.283973329229072e+001
 1.674743548519371e+000	 9.389500911356974e-001	 1.279676338745526e+001
 1.771927834317984e+000	 7.565097816494371e-001	 1.302755711057268e+001
 1.763764757637406e+000	 7.753510662704486e-001	 1.302609749184666e+001
 1.755384368758295e+000	 7.941417947499168e-001	 1.301928149964997e+001
 1.746786862851048e+000	 8.128783323830974e-001	 1.300713941778792e+001
 1.737972513805797e+000	 8.315570353001780e-001	 1.298976333446257e+001
 1.728941674829252e+000	 8.501742525409822e-001	 1.296730547140444e+001
 1.719694778977591e+000	 8.687263281596939e-001	 1.293997572037037e+001
 1.710232339623929e+000	 8.872096033573542e-001	 1.290803835455956e+001
 1.700554950858902e+000	 9.056204186398202e-001	 1.287180788809238e+001
 1.690663287823079e+000	 9.239551159987846e-001	 1.283164406281494e+001
 1.680558106969941e+000	 9.422100411133936e-001	 1.278794594830519e+001
 1.778058536436490e+000	 7.591272336911190e-001	 1.302918636377985e+001
 1.769867216285273e+000	 7.780337073685373e-001	 1.302622603527125e+001
 1.761457832055922e+000	 7.968894499849266e-001	 1.301807201353961e+001
 1.752830579594108e+000	 8.156908142598141e-001	 1.300472980182910e+001
 1.743985733737606e+000	 8.344341437159465e-001	 1.298626837948949e+001
 1.734923648915190e+000	 8.531157747611763e-001	 1.296281861202065e+001
 1.725644759681382e+000	 8.717320388004651e-001	 1.293457085136455e+001
 1.716149581185522e+000	 8.902792643757621e-001	 1.290177169271398e+001
 1.706438709573752e+000	 9.087537793314253e-001	 1.286471985980571e+001
 1.696512822322570e+000	 9.271519130027890e-001	 1.282376119690322e+001
 1.686372678502719e+000	 9.454699984254018e-001	 1.277928275241925e+001
 1.628227377433699e+000	 9.128706575696799e-001	 1.287446283681173e+001
 1.618229288713946e+000	 9.304789564240998e-001	 1.283336237300635e+001
 1.608025973600485e+000	 9.480028805172917e-001	 1.279084032145994e+001
 1.597618403935810e+000	 9.654389124762559e-001	 1.274730384898157e+001
 1.587007630703517e+000	 9.827835472266669e-001	 1.270315237859126e+001
 1.576194783930540e+000	 1.000033294188532e+000	 1.265876865029544e+001
 1.565181072517051e+000	 1.017184679476191e+000	 1.261451059250211e+001
 1.553967783993609e+000	 1.034234248099903e+000	 1.257069533392401e+001
 1.542556284205236e+000	 1.051178566166237e+000	 1.252759758358196e+001
 1.530948016922200e+000	 1.068014223074453e+000	 1.248543229822725e+001
 1.519144503377449e+000	 1.084737833706065e+000	 1.244434472275749e+001
 1.634041883558781e+000	 9.161305782067851e-001	 1.286395337082112e+001
 1.624008091012704e+000	 9.338017574444000e-001	 1.282241333924634e+001
 1.613768339196110e+000	 9.513882606129945e-001	 1.277944841453015e+001
 1.603323603421993e+000	 9.688865577788064e-001	 1.273546448294007e+001
 1.592674938427071e+000	 9.862931313506641e-001	 1.269085964178813e+001
 1.581823478273663e+000	 1.003604478283490e+000	 1.264601511722635e+001
 1.570770436178989e+000	 1.020817112286156e+000	 1.260128693413335e+001
 1.559517104271456e+000	 1.037927566030934e+000	 1.255698991606099e+001
 1.548064853273591e+000	 1.054932393361736e+000	 1.251339562256640e+001
 1.536415132111450e+000	 1.071828171498351e+000	 1.247071497337406e+001
 1.524569467450388e+000	 1.088611503233817e+000	 1.242908802295196e+001
 1.639856391136701e+000	 9.193904996595568e-001	 1.285368915119579e+001
 1.629786894755408e+000	 9.371245592960400e-001	 1.281168193992623e+001
 1.619510706226610e+000	 9.547736415556311e-001	 1.276823730945163e+001
 1.609028804333805e+000	 9.723342039438019e-001	 1.272376123072925e+001
 1.598342247566829e+000	 9.898027163525364e-001	 1.267865195545254e+001
 1.587452174023388e+000	 1.007175663271671e+000	 1.263329078786072e+001
 1.576359801237752e+000	 1.024449546004611e+000	 1.258803354850027e+001
 1.565066425936167e+000	 1.041620884885633e+000	 1.254319456234087e+001
 1.553573423718674e+000	 1.058686221496000e+000	 1.249904414165876e+001
 1.541882248667110e+000	 1.075642120876025e+000	 1.245579116659766e+001
 1.529994432879242e+000	 1.092485173730273e+000	 1.241357258661970e+001
 1.645670901621129e+000	 9.226504227428251e-001	 1.284366290792647e+001
 1.635565701386777e+000	 9.404473628095780e-001	 1.280115736656896e+001
 1.625253076127579e+000	 9.581590241914136e-001	 1.275719331257560e+001
 1.614734008097527e+000	 9.757818518330338e-001	 1.271217814916246e+001
 1.604009559539578e+000	 9.933123031095723e-001	 1.266651174514690e+001
 1.593080872586826e+000	 1.010746850045776e+000	 1.262057852223276e+001
 1.581949169090591e+000	 1.028081981539577e+000	 1.257473138606534e+001
 1.570615750374966e+000	 1.045314205587259e+000	 1.252929034618169e+001
 1.559081996917497e+000	 1.062440051507424e+000	 1.248452488963551e+001
 1.547349367955814e+000	 1.079456072160909e+000	 1.244064383887023e+001
 1.535419401020091e+000	 1.096358846163799e+000	 1.239778310855103e+001
 1.651485416465734e+000	 9.259103482714212e-001	 1.283386616509736e+001
 1.641344512351543e+000	 9.437701688155739e-001	 1.279082764989268e+001
 1.630995450334611e+000	 9.615444093665555e-001	 1.274630160456504e+001
 1.620439216139437e+000	 9.792295023082919e-001	 1.270069819461894e+001
 1.609676875762099e+000	 9.968218924990583e-001	 1.265442035153817e+001
 1.598709575371082e+000	 1.014318039498504e+000	 1.260785566325370e+001
 1.587538541134759e+000	 1.031714419799078e+000	 1.256136031501840e+001
 1.576165078975069e+000	 1.049007529059066e+000	 1.251525724624530e+001
 1.564590574247075e+000	 1.066193884334401e+000	 1.246981849914822e+001
 1.552816491344194e+000	 1.083270026306436e+000	 1.242525480505327e+001
 1.540844373229018e+000	 1.100232521502765e+000	 1.238170309911527e+001
 1.657299937124190e+000	 9.291702770601759e-001	 1.282428925711546e+001
 1.647123329094427e+000	 9.470929781445850e-001	 1.278067967567010e+001
 1.636737830283300e+000	 9.649297979272700e-001	 1.273554625599611e+001
 1.626144429885816e+000	 9.826771562313674e-001	 1.268930323849481e+001
 1.615344197651177e+000	 1.000331485398282e+000	 1.264235804580132e+001
 1.604338283783265e+000	 1.017889232522554e+000	 1.259510297283892e+001
 1.593127918767508e+000	 1.035346861691141e+000	 1.254789913687551e+001
 1.581714413123700e+000	 1.052700856224312e+000	 1.250107416226842e+001
 1.570099157084421e+000	 1.069947720915326e+000	 1.245490450287016e+001
 1.558283620198885e+000	 1.087083984266036e+000	 1.240960475043881e+001
 1.546269350862104e+000	 1.104106200715540e+000	 1.236531490126986e+001
 1.663114465050167e+000	 9.324302099239195e-001	 1.281492134513684e+001
 1.652902153060155e+000	 9.504157916271708e-001	 1.277069920079971e+001
 1.642480217409241e+000	 9.683151907197707e-001	 1.272491024318371e+001
 1.631849650762943e+000	 9.861248144640504e-001	 1.267797408288803e+001
 1.621011526623595e+000	 1.003841082684531e+000	 1.263030404526332e+001
 1.609966999230480e+000	 1.021460430010627e+000	 1.258229865667911e+001
 1.598717303386091e+000	 1.038979308123788e+000	 1.253432560232259e+001
 1.587263754208078e+000	 1.056394188006254e+000	 1.248671893113661e+001
 1.575607746806549e+000	 1.073701562188593e+000	 1.243976134988160e+001
 1.563750755886520e+000	 1.090897946993144e+000	 1.239367324752152e+001
 1.551694335275432e+000	 1.107979884770492e+000	 1.234859970779092e+001
 1.668929001697338e+000	 9.356901476774830e-001	 1.280575043368478e+001
 1.658680985693452e+000	 9.537386100938892e-001	 1.276087086958421e+001
 1.648222613148027e+000	 9.717005885902698e-001	 1.271437546422674e+001
 1.637554880197098e+000	 9.895724778681321e-001	 1.266669047651162e+001
 1.626678864096137e+000	 1.007350685235092e+000	 1.261823652928171e+001
 1.615595723119837e+000	 1.025031632855421e+000	 1.256941988863746e+001
 1.604306696387759e+000	 1.042611760005043e+000	 1.252061642729768e+001
 1.592813103615424e+000	 1.060087525328149e+000	 1.247216834319497e+001
 1.581116344790473e+000	 1.077455409092595e+000	 1.242436642228723e+001
 1.569217899773733e+000	 1.094711915441191e+000	 1.237743877299676e+001
 1.557119327825082e+000	 1.111853574635990e+000	 1.233153757872061e+001
 1.674743548519371e+000	 9.389500911356974e-001	 1.279676338745526e+001
 1.664459828439043e+000	 9.570614343752996e-001	 1.275117823021098e+001
 1.653965018935251e+000	 9.750859923849811e-001	 1.270392275526668e+001
 1.643260119614560e+000	 9.930201473054020e-001	 1.265543113082960e+001
 1.632346211485587e+000	 1.010860293927253e+000	 1.260613405556958e+001
 1.621224456858440e+000	 1.028602841949637e+000	 1.255644282691867e+001
 1.609896099169767e+000	 1.046244218242930e+000	 1.250674730930625e+001
 1.598362462732960e+000	 1.063780869113253e+000	 1.245739815878999e+001
 1.586624952413206e+000	 1.081209262565728e+000	 1.240869605206046e+001
 1.574685053227157e+000	 1.098525890563611e+000	 1.236087872497854e+001
 1.562544329867139e+000	 1.115727271280403e+000	 1.231410745902543e+001
 1.680558106969941e+000	 9.422100411133936e-001	 1.278794594830519e+001
 1.670238682741653e+000	 9.603842653019601e-001	 1.274160375142983e+001
 1.659707436206509e+000	 9.784714029501168e-001	 1.269353190695526e+001
 1.648965370441609e+000	 9.964678236376521e-001	 1.264417373641031e+001
 1.638013570208727e+000	 1.014369909638300e+000	 1.259396992692519e+001
 1.626853201853401e+000	 1.032174058185975e+000	 1.254334263046459e+001
 1.615485513129365e+000	 1.049876683745474e+000	 1.249269294396354e+001
 1.603911832947905e+000	 1.067474220284823e+000	 1.244238312503696e+001
 1.592133571051763e+000	 1.084963123546384e+000	 1.239272553810906e+001
 1.580152217613425e+000	 1.102339873313836e+000	 1.234396944043244e+001
 1.567969342757683e+000	 1.119600975672099e+000	 1.229628719646092e+001
 1.686372678502719e+000	 9.454699984254018e-001	 1.277928275241925e+001
 1.676017550046008e+000	 9.637071037044297e-001	 1.273212883942310e+001
 1.665449866397395e+000	 9.818568211318917e-001	 1.268318168112560e+001
 1.654670634104525e+000	 9.999155077266720e-001	 1.263289497949202e+001
 1.643680941682342e+000	 1.017879533245523e+000	 1.258172075527132e+001
 1.632481959511823e+000	 1.035745282457134e+000	 1.253009347557116e+001
 1.621074939663807e+000	 1.053509157420699e+000	 1.247842704175911e+001
 1.609461215647480e+000	 1.071167579766116e+000	 1.242709699280730e+001
 1.597642202083156e+000	 1.088716992972960e+000	 1.237642916355695e+001
 1.585619394299172e+000	 1.106153864645299e+000	 1.232668621281824e+001
 1.573394367852796e+000	 1.123474688779447e+000	 1.227805355963739e+001
 1.519144503377449e+000	 1.084737833706065e+000	 1.244434472275750e+001
 1.507147341302099e+000	 1.101346040237664e+000	 1.240132128173039e+001
 1.494958203042528e+000	 1.117835513184680e+000	 1.235369992735379e+001
 1.482578836186885e+000	 1.134202954616346e+000	 1.230204044521150e+001
 1.470011063245638e+000	 1.150445100653127e+000	 1.224682069024312e+001
 1.457256780828759e+000	 1.166558723581895e+000	 1.218842302787654e+001
 1.444317958751618e+000	 1.182540633947380e+000	 1.212712077354036e+001
 1.431196639070430e+000	 1.198387682617118e+000	 1.206306473045629e+001
 1.417894935048125e+000	 1.214096762817131e+000	 1.199626992920996e+001
 1.404415030051720e+000	 1.229664812135602e+000	 1.192660267549918e+001
 1.390759176382327e+000	 1.245088814491888e+000	 1.185376801461762e+001
 1.524569467450388e+000	 1.088611503233817e+000	 1.242908802295196e+001
 1.512529462727118e+000	 1.105279018753723e+000	 1.238562427369119e+001
 1.500296796260080e+000	 1.121827376683695e+000	 1.233779159060210e+001
 1.487873221878177e+000	 1.138253267315839e+000	 1.228615412381635e+001
 1.475260568600199e+000	 1.154553415115096e+000	 1.223119427416544e+001
 1.462460739809040e+000	 1.170724580841963e+000	 1.217329883573725e+001
 1.449475712354419e+000	 1.186763563651418e+000	 1.211274512628904e+001
 1.436307535584875e+000	 1.202667203165244e+000	 1.204968720740890e+001
 1.422958330309948e+000	 1.218432381514966e+000	 1.198414230004308e+001
 1.409430287693609e+000	 1.234056025352699e+000	 1.191597750402410e+001
 1.395725668080095e+000	 1.249535107827180e+000	 1.184489693249429e+001
 1.529994432879242e+000	 1.092485173730273e+000	 1.241357258661970e+001
 1.517911585497376e+000	 1.109211998253325e+000	 1.236963014459711e+001
 1.505635390812015e+000	 1.125819241180998e+000	 1.232156584180163e+001
 1.493167608892833e+000	 1.142303581028267e+000	 1.226994280248802e+001
 1.480510075266928e+000	 1.158661730604541e+000	 1.221524241413543e+001
 1.467664700090127e+000	 1.174890439143936e+000	 1.215785017578005e+001
 1.454633467246502e+000	 1.190986494411673e+000	 1.209804152372637e+001
 1.441418433376919e+000	 1.206946724783770e+000	 1.203596773853211e+001
 1.428021726837531e+000	 1.222768001297256e+000	 1.197164204101748e+001
 1.414445546589267e+000	 1.238447239668167e+000	 1.190492598818518e+001
 1.400692161019491e+000	 1.253981402274614e+000	 1.183551628230065e+001
 1.535419401020091e+000	 1.096358846163799e+000	 1.239778310855103e+001
 1.523293710958232e+000	 1.113144979719667e+000	 1.235332498664098e+001
 1.510973988032811e+000	 1.129811107674509e+000	 1.230500902823162e+001
 1.498461998554266e+000	 1.146353896766162e+000	 1.225339200607233e+001
 1.485759584558018e+000	 1.162770048148489e+000	 1.219894880182164e+001
 1.472868662972828e+000	 1.179056299529222e+000	 1.214205796439113e+001
 1.459791224717125e+000	 1.195209427283813e+000	 1.208298723522612e+001
 1.446529333724109e+000	 1.211226248542506e+000	 1.202187914643382e+001
 1.433085125896549e+000	 1.227103623247825e+000	 1.195873680165760e+001
 1.419460807992339e+000	 1.242838456179720e+000	 1.189340995285233e+001
 1.405658656441975e+000	 1.258427698945665e+000	 1.182558148858100e+001
 1.540844373229018e+000	 1.100232521502765e+000	 1.238170309911527e+001
 1.528675840455049e+000	 1.117077964135948e+000	 1.233669367315110e+001
 1.516312589256935e+000	 1.133802977162149e+000	 1.228810625922204e+001
 1.503756392185890e+000	 1.150404215542052e+000	 1.223648601699853e+001
 1.491009097785662e+000	 1.166878368773969e+000	 1.218229589588338e+001
 1.478072629757950e+000	 1.183222163039228e+000	 1.212590190748417e+001
 1.464948986055546e+000	 1.199432363323505e+000	 1.206755835460865e+001
 1.451640237903991e+000	 1.215505775511260e+000	 1.200739312472122e+001
 1.438148528752678e+000	 1.231439248450499e+000	 1.194539315992411e+001
 1.424476073156471e+000	 1.247229675985073e+000	 1.188139021890064e+001
 1.410625155589007e+000	 1.262873998951811e+000	 1.181504704883339e+001
 1.546269350862104e+000	 1.104106200715540e+000	 1.236531490126986e+001
 1.534057975333185e+000	 1.121010952485367e+000	 1.231971987592842e+001
 1.521651195818862e+000	 1.137794850641838e+000	 1.227084142347867e+001
 1.509050791111123e+000	 1.154454538368468e+000	 1.221920789226739e+001
 1.496258616262053e+000	 1.170986693508005e+000	 1.216526493831132e+001
 1.483276601746298e+000	 1.187388030715361e+000	 1.210936051589870e+001
 1.470106752551023e+000	 1.203655303586418e+000	 1.205172981431799e+001
 1.456751147194114e+000	 1.219785306759841e+000	 1.199248025069476e+001
 1.443211936671595e+000	 1.235774877989101e+000	 1.193157663317804e+001
 1.429491343335313e+000	 1.251620900181940e+000	 1.186882661221633e+001
 1.415591659702049e+000	 1.267320303404528e+000	 1.180386654034588e+001
 1.551694335275432e+000	 1.107979884770492e+000	 1.234859970779092e+001
 1.539440116938005e+000	 1.124943945751123e+000	 1.230238608279829e+001
 1.526989809053061e+000	 1.141786729111496e+000	 1.225319720662233e+001
 1.514345196653381e+000	 1.158504866257943e+000	 1.220153948065808e+001
 1.501508141299385e+000	 1.175095023377626e+000	 1.214783597099777e+001
 1.488480580238682e+000	 1.191553903599028e+000	 1.209241112104406e+001
 1.475264525492813e+000	 1.207878249128222e+000	 1.203547539986629e+001
 1.461862062872021e+000	 1.224064843358056e+000	 1.197710999833434e+001
 1.448275350918976e+000	 1.240110512947457e+000	 1.191725168946790e+001
 1.434506619782508e+000	 1.256012129868037e+000	 1.185567797306008e+001
 1.420558170022561e+000	 1.271766613415290e+000	 1.179199262742804e+001
 1.557119327825082e+000	 1.111853574635990e+000	 1.233153757872061e+001
 1.544822266614867e+000	 1.128876944916414e+000	 1.228467361537155e+001
 1.532328430294005e+000	 1.145778613569043e+000	 1.223515510893604e+001
 1.519639610136075e+000	 1.162555200223005e+000	 1.218346144014857e+001
 1.506757674209851e+000	 1.179203359409859e+000	 1.212998785253068e+001
 1.493684566535907e+000	 1.195719782731637e+000	 1.207502989078343e+001
 1.480422306170173e+000	 1.212101201004582e+000	 1.201876776453817e+001
 1.466972986215262e+000	 1.228344386375714e+000	 1.196125075157163e+001
 1.453338772760495e+000	 1.244446154409389e+000	 1.190238175913260e+001
 1.439521903751706e+000	 1.260403366141076e+000	 1.184190216577935e+001
 1.425524687792004e+000	 1.276212930095576e+000	 1.177937706902907e+001
 1.562544329867139e+000	 1.115727271280403e+000	 1.231410745902543e+001
 1.550204425709133e+000	 1.132809950964440e+000	 1.226656264700980e+001
 1.537667060876166e+000	 1.149770505012400e+000	 1.221669546331600e+001
 1.524934032882624e+000	 1.166605541276186e+000	 1.216495325554374e+001
 1.512007216305645e+000	 1.183311702631730e+000	 1.211169827520606e+001
 1.498888561938780e+000	 1.199885669154594e+000	 1.205719184555087e+001
 1.485580095872362e+000	 1.216324160271170e+000	 1.200157844434923e+001
 1.472083918501383e+000	 1.232623936882623e+000	 1.194486981784067e+001
 1.458402203461830e+000	 1.248781803458724e+000	 1.188692924671129e+001
 1.444537196496551e+000	 1.264794610098774e+000	 1.182745608886091e+001
 1.430491214251839e+000	 1.280659254556861e+000	 1.176597072673207e+001
 1.567969342757683e+000	 1.119600975672099e+000	 1.229628719646092e+001
 1.555586595566164e+000	 1.136742964878400e+000	 1.224803222099020e+001
 1.543005702134014e+000	 1.153762404439487e+000	 1.219779745342067e+001
 1.530228466216443e+000	 1.170655890430016e+000	 1.214599325630715e+001
 1.517256768898960e+000	 1.187420054070268e+000	 1.209294378225349e+001
 1.504092567748108e+000	 1.204051563909306e+000	 1.203887087469723e+001
 1.490737895888636e+000	 1.220547127983652e+000	 1.198387787325233e+001
 1.477194861007929e+000	 1.236903495948591e+000	 1.192793344190082e+001
 1.463465644288655e+000	 1.253117461179285e+000	 1.187085554315382e+001
 1.449552499270689e+000	 1.269185862838843e+000	 1.181229568531567e+001
 1.435457750643527e+000	 1.285105587910620e+000	 1.175172357311645e+001
 1.573394367852796e+000	 1.123474688779447e+000	 1.227805355963739e+001
 1.560968777531320e+000	 1.140675987641491e+000	 1.222906026886487e+001
 1.548344355402024e+000	 1.157754312848225e+000	 1.217843913201383e+001
 1.535522911460947e+000	 1.174706248697026e+000	 1.212655863459085e+001
 1.522506333301989e+000	 1.191528414752497e+000	 1.207369978526998e+001
 1.509296585264699e+000	 1.208217468037181e+000	 1.202003975305829e+001
 1.495895707508254e+000	 1.224770105197696e+000	 1.196563539858577e+001
 1.482305815012449e+000	 1.241183064643427e+000	 1.191040681992475e+001
 1.468529096506648e+000	 1.257453128654897e+000	 1.185412103832396e+001
 1.454567813327771e+000	 1.273577125459001e+000	 1.179637595338743e+001
 1.440424298208528e+000	 1.289551931268331e+000	 1.173658470047853e+001
 1.390759176382327e+000	 1.245088814491888e+000	 1.185376801461762e+001
 1.376931781464302e+000	 1.260363522001592e+000	 1.178478537082425e+001
 1.362933196495552e+000	 1.275488343663569e+000	 1.172415618949324e+001
 1.348765872990182e+000	 1.290460416310646e+000	 1.166746921448607e+001
 1.334432326005897e+000	 1.305276930578148e+000	 1.160998395992778e+001
 1.319935132658436e+000	 1.319935132658435e+000	 1.154759017120989e+001
 1.305276930578149e+000	 1.334432326005897e+000	 1.147559254171194e+001
 1.290460416310646e+000	 1.348765872990182e+000	 1.139875381249372e+001
 1.275488343663570e+000	 1.362933196495552e+000	 1.132142800579230e+001
 1.260363522001592e+000	 1.376931781464302e+000	 1.124075733710264e+001
 1.245088814491889e+000	 1.390759176382327e+000	 1.115410518239128e+001
 1.395725668080095e+000	 1.249535107827180e+000	 1.184489693249429e+001
 1.381848894632969e+000	 1.264864362313474e+000	 1.177745725416228e+001
 1.367800319804291e+000	 1.280043195699931e+000	 1.171768638963095e+001
 1.353582403862687e+000	 1.295068734594818e+000	 1.166115035948505e+001
 1.339197670847297e+000	 1.309938159601035e+000	 1.160308134722203e+001
 1.324648707076913e+000	 1.324648707076912e+000	 1.153878840646135e+001
 1.309938159601035e+000	 1.339197670847297e+000	 1.146564630779124e+001
 1.295068734594818e+000	 1.353582403862687e+000	 1.139199586551219e+001
 1.280043195699931e+000	 1.367800319804292e+000	 1.131776233256970e+001
 1.264864362313473e+000	 1.381848894632969e+000	 1.124005911562945e+001
 1.249535107827180e+000	 1.395725668080095e+000	 1.115622614432479e+001
 1.400692161019491e+000	 1.253981402274614e+000	 1.183551628230065e+001
 1.386766009030979e+000	 1.269365203751116e+000	 1.176949810704524e+001
 1.372667444329943e+000	 1.284598048875522e+000	 1.171042907855671e+001
 1.358398935939528e+000	 1.299677054031539e+000	 1.165386417595679e+001
 1.343963016880310e+000	 1.314599389789641e+000	 1.159502030427541e+001
 1.329362282674131e+000	 1.329362282674130e+000	 1.152886071244458e+001
 1.314599389789641e+000	 1.343963016880310e+000	 1.145618670354187e+001
 1.299677054031539e+000	 1.358398935939528e+000	 1.138539890417951e+001
 1.284598048875522e+000	 1.372667444329943e+000	 1.131397315626197e+001
 1.269365203751116e+000	 1.386766009030979e+000	 1.123900717429066e+001
 1.253981402274614e+000	 1.400692161019491e+000	 1.115783094781328e+001
 1.405658656441975e+000	 1.258427698945665e+000	 1.182558148858100e+001
 1.391683125887454e+000	 1.273866047439626e+000	 1.176085838079094e+001
 1.377534571289138e+000	 1.289152904328944e+000	 1.170233303636593e+001
 1.363215470424692e+000	 1.304285375772770e+000	 1.164556096027808e+001
 1.348728365296131e+000	 1.319260622309147e+000	 1.158575571360357e+001
 1.334075860628347e+000	 1.334075860628347e+000	 1.151780865436490e+001
 1.319260622309147e+000	 1.348728365296131e+000	 1.144707748975157e+001
 1.304285375772770e+000	 1.363215470424692e+000	 1.137884223555340e+001
 1.289152904328944e+000	 1.377534571289138e+000	 1.130995762761306e+001
 1.273866047439626e+000	 1.391683125887454e+000	 1.123751866696442e+001
 1.258427698945666e+000	 1.405658656441974e+000	 1.115885877115180e+001
 1.410625155589007e+000	 1.262873998951811e+000	 1.181504704883339e+001
 1.396600246431514e+000	 1.278366894504106e+000	 1.175148765812134e+001
 1.382401701898505e+000	 1.293707763198798e+000	 1.169334618842090e+001
 1.368032008522168e+000	 1.308893700970471e+000	 1.163619012529895e+001
 1.353493717285959e+000	 1.323921858324734e+000	 1.157524150472395e+001
 1.338789442117826e+000	 1.338789442117826e+000	 1.150651167801411e+001
 1.323921858324734e+000	 1.353493717285959e+000	 1.143818078200548e+001
 1.308893700970470e+000	 1.368032008522168e+000	 1.137220338377555e+001
 1.293707763198798e+000	 1.382401701898506e+000	 1.130561093765373e+001
 1.278366894504106e+000	 1.396600246431514e+000	 1.123550857419644e+001
 1.262873998951811e+000	 1.410625155589007e+000	 1.115924637118207e+001
 1.415591659702049e+000	 1.267320303404528e+000	 1.180386654034588e+001
 1.401517371892282e+000	 1.282867746069662e+000	 1.174133465811062e+001
 1.387268837374675e+000	 1.298262626623684e+000	 1.168341560915533e+001
 1.372848551435941e+000	 1.313502030776599e+000	 1.162570020371773e+001
 1.358259074040989e+000	 1.328583099001582e+000	 1.156343065778665e+001
 1.343503028320826e+000	 1.343503028320826e+000	 1.149533277427338e+001
 1.328583099001582e+000	 1.358259074040988e+000	 1.142935711497520e+001
 1.313502030776599e+000	 1.372848551435941e+000	 1.136535815602203e+001
 1.298262626623683e+000	 1.387268837374675e+000	 1.130082638580915e+001
 1.282867746069663e+000	 1.401517371892282e+000	 1.123288977392938e+001
 1.267320303404527e+000	 1.415591659702049e+000	 1.115892815707644e+001
 1.420558170022561e+000	 1.271766613415290e+000	 1.179199262742804e+001
 1.406434503498881e+000	 1.287368603261401e+000	 1.173034724156102e+001
 1.392135978934277e+000	 1.302817495742201e+000	 1.167248752632129e+001
 1.377665100370002e+000	 1.318110366343118e+000	 1.161403885189830e+001
 1.363024436752418e+000	 1.333244345504872e+000	 1.155027520763124e+001
 1.348216620415608e+000	 1.348216620415608e+000	 1.148410924317618e+001
 1.333244345504872e+000	 1.363024436752418e+000	 1.142046550706001e+001
 1.318110366343118e+000	 1.377665100370002e+000	 1.135818070874989e+001
 1.302817495742201e+000	 1.392135978934277e+000	 1.129549544823422e+001
 1.287368603261400e+000	 1.406434503498881e+000	 1.122957311237976e+001
 1.271766613415290e+000	 1.420558170022561e+000	 1.115783626417839e+001
 1.425524687792004e+000	 1.276212930095576e+000	 1.177937706902907e+001
 1.411351642480431e+000	 1.291869467204425e+000	 1.171847241679507e+001
 1.397003127793942e+000	 1.307372371692950e+000	 1.166050732566787e+001
 1.382481656528336e+000	 1.322718708821985e+000	 1.160115285411887e+001
 1.367789806611446e+000	 1.337905598999786e+000	 1.153641100448213e+001
 1.352930219580434e+000	 1.352930219580434e+000	 1.147268040523282e+001
 1.337905598999786e+000	 1.367789806611446e+000	 1.141125293347594e+001
 1.322718708821984e+000	 1.382481656528336e+000	 1.135054361423267e+001
 1.307372371692951e+000	 1.397003127793941e+000	 1.128950784637137e+001
 1.291869467204424e+000	 1.411351642480431e+000	 1.122546747505962e+001
 1.276212930095576e+000	 1.425524687792005e+000	 1.115590062789955e+001
 1.430491214251839e+000	 1.280659254556861e+000	 1.176597072673207e+001
 1.416268790066055e+000	 1.296370339023840e+000	 1.170565634585491e+001
 1.401870285170298e+000	 1.311927255614532e+000	 1.164741955604132e+001
 1.387298221114932e+000	 1.327327059365160e+000	 1.158698812724120e+001
 1.372555184809268e+000	 1.342566860651502e+000	 1.152243161158318e+001
 1.357643826993563e+000	 1.357643826993563e+000	 1.146088757885699e+001
 1.342566860651503e+000	 1.372555184809268e+000	 1.140145533307593e+001
 1.327327059365160e+000	 1.387298221114932e+000	 1.134231792737889e+001
 1.311927255614533e+000	 1.401870285170298e+000	 1.128275161572569e+001
 1.296370339023840e+000	 1.416268790066055e+000	 1.122047985793919e+001
 1.280659254556861e+000	 1.430491214251839e+000	 1.115304905767122e+001
 1.435457750643527e+000	 1.285105587910620e+000	 1.175172357311645e+001
 1.421185947484873e+000	 1.300871219844750e+000	 1.169184435109817e+001
 1.406737452279978e+000	 1.316482148645548e+000	 1.163316793489569e+001
 1.392114795333778e+000	 1.331935419124604e+000	 1.157148972579065e+001
 1.377320572537081e+000	 1.347228131625204e+000	 1.150817540336912e+001
 1.362357443833257e+000	 1.362357443833257e+000	 1.144857405817437e+001
 1.347228131625204e+000	 1.377320572537081e+000	 1.139092339585505e+001
 1.331935419124604e+000	 1.392114795333778e+000	 1.133337325282625e+001
 1.316482148645548e+000	 1.406737452279977e+000	 1.127511317485280e+001
 1.300871219844750e+000	 1.421185947484873e+000	 1.121451543874831e+001
 1.285105587910620e+000	 1.435457750643527e+000	 1.114920731095030e+001
 1.440424298208528e+000	 1.289551931268331e+000	 1.173658470047853e+001
 1.426103115966008e+000	 1.305372110792263e+000	 1.167698092218129e+001
 1.411604630339610e+000	 1.321037051924598e+000	 1.161769535420497e+001
 1.396931380388861e+000	 1.336543789252277e+000	 1.155488846174173e+001
 1.382085970986084e+000	 1.351889413086072e+000	 1.149348268241645e+001
 1.367071071277777e+000	 1.367071071277777e+000	 1.143558509120590e+001
 1.351889413086072e+000	 1.382085970986084e+000	 1.137950967104914e+001
 1.336543789252277e+000	 1.396931380388861e+000	 1.132352960282428e+001
 1.321037051924597e+000	 1.411604630339610e+000	 1.126647739455450e+001
 1.305372110792263e+000	 1.426103115966009e+000	 1.120747764841273e+001
 1.289551931268331e+000	 1.440424298208528e+000	 1.114429916727820e+001
 1.245088814491889e+000	 1.390759176382327e+000	 1.115410518239128e+001
 1.229664812135602e+000	 1.404415030051719e+000	 1.106282961904461e+001
 1.214096762817131e+000	 1.417894935048125e+000	 1.096935540371993e+001
 1.198387682617119e+000	 1.431196639070430e+000	 1.087291505190299e+001
 1.182540633947380e+000	 1.444317958751618e+000	 1.077292779227407e+001
 1.166558723581895e+000	 1.457256780828759e+000	 1.066898640545611e+001
 1.150445100653127e+000	 1.470011063245638e+000	 1.056084323808575e+001
 1.134202954616346e+000	 1.482578836186884e+000	 1.044839555496520e+001
 1.117835513184680e+000	 1.494958203042528e+000	 1.033167039404422e+001
 1.101346040237664e+000	 1.507147341302099e+000	 1.021080908943616e+001
 1.084737833706065e+000	 1.519144503377448e+000	 1.008605162661026e+001
 1.249535107827180e+000	 1.395725668080095e+000	 1.115622614432479e+001
 1.234056025352699e+000	 1.409430287693609e+000	 1.106762702648235e+001
 1.218432381514966e+000	 1.422958330309948e+000	 1.097669648855557e+001
 1.202667203165244e+000	 1.436307535584875e+000	 1.088265727989837e+001
 1.186763563651419e+000	 1.449475712354419e+000	 1.078492113922450e+001
 1.170724580841963e+000	 1.462460739809040e+000	 1.068307525155268e+001
 1.154553415115096e+000	 1.475260568600200e+000	 1.057686786755876e+001
 1.138253267315839e+000	 1.487873221878177e+000	 1.046619325231830e+001
 1.121827376683695e+000	 1.500296796260079e+000	 1.035107613244001e+001
 1.105279018753723e+000	 1.512529462727118e+000	 1.023165581103768e+001
 1.088611503233817e+000	 1.524569467450388e+000	 1.010817011887796e+001
 1.253981402274614e+000	 1.400692161019491e+000	 1.115783094781328e+001
 1.238447239668167e+000	 1.414445546589267e+000	 1.107181584588720e+001
 1.222768001297256e+000	 1.428021726837530e+000	 1.098339367384732e+001
 1.206946724783770e+000	 1.441418433376919e+000	 1.089176821041075e+001
 1.190986494411673e+000	 1.454633467246502e+000	 1.079633418037195e+001
 1.174890439143936e+000	 1.467664700090127e+000	 1.069666333842247e+001
 1.158661730604541e+000	 1.480510075266929e+000	 1.059248970275427e+001
 1.142303581028268e+000	 1.493167608892833e+000	 1.048369410970135e+001
 1.125819241180998e+000	 1.505635390812016e+000	 1.037028826271790e+001
 1.109211998253325e+000	 1.517911585497376e+000	 1.025239844942821e+001
 1.092485173730272e+000	 1.529994432879242e+000	 1.013024909932575e+001
 1.258427698945666e+000	 1.405658656441974e+000	 1.115885877115180e+001
 1.242838456179720e+000	 1.419460807992339e+000	 1.107535674844764e+001
 1.227103623247825e+000	 1.433085125896548e+000	 1.098942619617509e+001
 1.211226248542506e+000	 1.446529333724109e+000	 1.090024282812660e+001
 1.195209427283812e+000	 1.459791224717125e+000	 1.080717494513452e+001
 1.179056299529222e+000	 1.472868662972828e+000	 1.070976915412746e+001
 1.162770048148490e+000	 1.485759584558018e+000	 1.060773522463048e+001
 1.146353896766162e+000	 1.498461998554265e+000	 1.050093025828394e+001
 1.129811107674509e+000	 1.510973988032811e+000	 1.038934234902561e+001
 1.113144979719667e+000	 1.523293710958232e+000	 1.027307391200385e+001
 1.096358846163799e+000	 1.535419401020091e+000	 1.015232485808478e+001
 1.262873998951811e+000	 1.410625155589007e+000	 1.115924637118207e+001
 1.247229675985073e+000	 1.424476073156471e+000	 1.107820773766722e+001
 1.231439248450499e+000	 1.438148528752678e+000	 1.099477041432655e+001
 1.215505775511260e+000	 1.451640237903991e+000	 1.090807306495400e+001
 1.199432363323505e+000	 1.464948986055546e+000	 1.081744826926911e+001
 1.183222163039228e+000	 1.478072629757949e+000	 1.072240788525398e+001
 1.166878368773969e+000	 1.491009097785662e+000	 1.062262753687133e+001
 1.150404215542052e+000	 1.503756392185891e+000	 1.051793040710808e+001
 1.133802977162149e+000	 1.516312589256935e+000	 1.040827051838419e+001
 1.117077964135948e+000	 1.528675840455049e+000	 1.029371568277637e+001
 1.100232521502765e+000	 1.540844373229018e+000	 1.017443030325177e+001
 1.267320303404527e+000	 1.415591659702049e+000	 1.115892815707644e+001
 1.251620900181940e+000	 1.429491343335313e+000	 1.108032422600727e+001
 1.235774877989102e+000	 1.443211936671596e+000	 1.099939988801316e+001
 1.219785306759841e+000	 1.456751147194113e+000	 1.091524788005599e+001
 1.203655303586418e+000	 1.470106752551023e+000	 1.082715587549524e+001
 1.187388030715362e+000	 1.483276601746298e+000	 1.073459149743144e+001
 1.170986693508005e+000	 1.496258616262053e+000	 1.063718644563617e+001
 1.154454538368468e+000	 1.509050791111123e+000	 1.053471992143561e+001
 1.137794850641837e+000	 1.521651195818862e+000	 1.042710153703217e+001
 1.121010952485367e+000	 1.534057975333186e+000	 1.031435389614741e+001
 1.104106200715540e+000	 1.546269350862104e+000	 1.019659503155859e+001
 1.271766613415290e+000	 1.420558170022561e+000	 1.115783626417839e+001
 1.256012129868037e+000	 1.434506619782509e+000	 1.108165911149786e+001
 1.240110512947457e+000	 1.448275350918975e+000	 1.100328545648145e+001
 1.224064843358056e+000	 1.461862062872021e+000	 1.092175333972026e+001
 1.207878249128222e+000	 1.475264525492813e+000	 1.083629645391134e+001
 1.191553903599029e+000	 1.488480580238682e+000	 1.074632881561246e+001
 1.175095023377626e+000	 1.501508141299385e+000	 1.065142853905158e+001
 1.158504866257943e+000	 1.514345196653381e+000	 1.055132090083121e+001
 1.141786729111495e+000	 1.526989809053061e+000	 1.044586088651202e+001
 1.124943945751123e+000	 1.539440116938005e+000	 1.033501541044091e+001
 1.107979884770492e+000	 1.551694335275432e+000	 1.021884539882805e+001
 1.276212930095576e+000	 1.425524687792005e+000	 1.115590062789955e+001
 1.260403366141076e+000	 1.439521903751706e+000	 1.108216285431926e+001
 1.244446154409390e+000	 1.453338772760495e+000	 1.100639531702298e+001
 1.228344386375714e+000	 1.466972986215262e+000	 1.092757269707070e+001
 1.212101201004582e+000	 1.480422306170173e+000	 1.084486574220849e+001
 1.195719782731637e+000	 1.493684566535906e+000	 1.075762560411986e+001
 1.179203359409859e+000	 1.506757674209851e+000	 1.066536726645225e+001
 1.162555200223005e+000	 1.519639610136075e+000	 1.056775225698926e+001
 1.145778613569043e+000	 1.532328430294006e+000	 1.046457083950424e+001
 1.128876944916414e+000	 1.544822266614867e+000	 1.035572388120038e+001
 1.111853574635990e+000	 1.557119327825082e+000	 1.024120459021995e+001
 1.280659254556861e+000	 1.430491214251839e+000	 1.115304905767122e+001
 1.264794610098774e+000	 1.444537196496550e+000	 1.108178355335379e+001
 1.248781803458724e+000	 1.458402203461829e+000	 1.100869510338584e+001
 1.232623936882623e+000	 1.472083918501383e+000	 1.093268647162395e+001
 1.216324160271170e+000	 1.485580095872362e+000	 1.085285660568714e+001
 1.199885669154594e+000	 1.498888561938780e+000	 1.076848464646657e+001
 1.183311702631730e+000	 1.512007216305645e+000	 1.067901301737767e+001
 1.166605541276186e+000	 1.524934032882625e+000	 1.058402979130924e+001
 1.149770505012400e+000	 1.537667060876166e+000	 1.048325053541696e+001
 1.132809950964440e+000	 1.550204425709133e+000	 1.037649983425621e+001
 1.115727271280403e+000	 1.562544329867139e+000	 1.026369269027377e+001
 1.285105587910620e+000	 1.435457750643527e+000	 1.114920731095030e+001
 1.269185862838843e+000	 1.449552499270689e+000	 1.108046702271030e+001
 1.253117461179285e+000	 1.463465644288655e+000	 1.101014796408994e+001
 1.236903495948591e+000	 1.477194861007929e+000	 1.093707252869593e+001
 1.220547127983651e+000	 1.490737895888636e+000	 1.086025911708176e+001
 1.204051563909306e+000	 1.504092567748108e+000	 1.077890582495482e+001
 1.187420054070267e+000	 1.517256768898960e+000	 1.069237320032983e+001
 1.170655890430016e+000	 1.530228466216443e+000	 1.060016627222794e+001
 1.153762404439487e+000	 1.543005702134015e+000	 1.050191605573596e+001
 1.136742964878399e+000	 1.555586595566163e+000	 1.039736073856997e+001
 1.119600975672099e+000	 1.567969342757683e+000	 1.028632675275275e+001
 1.289551931268331e+000	 1.440424298208528e+000	 1.114429916727820e+001
 1.273577125459001e+000	 1.454567813327771e+000	 1.107815686822158e+001
 1.257453128654896e+000	 1.468529096506647e+000	 1.101071464064945e+001
 1.241183064643427e+000	 1.482305815012449e+000	 1.094070615866164e+001
 1.224770105197696e+000	 1.495895707508254e+000	 1.086706063619870e+001
 1.208217468037181e+000	 1.509296585264699e+000	 1.078888620005949e+001
 1.191528414752497e+000	 1.522506333301989e+000	 1.070545232129951e+001
 1.174706248697026e+000	 1.535522911460947e+000	 1.061617151231315e+001
 1.157754312848225e+000	 1.548344355402024e+000	 1.052058049914192e+001
 1.140675987641491e+000	 1.560968777531320e+000	 1.041832107886003e+001
 1.123474688779447e+000	 1.573394367852797e+000	 1.030912087029452e+001
 1.084737833706065e+000	 1.519144503377448e+000	 1.008605162661026e+001
 1.068014223074453e+000	 1.530948016922200e+000	 9.954520848924473e+000
 1.051178566166237e+000	 1.542556284205236e+000	 9.813619431597376e+000
 1.034234248099904e+000	 1.553967783993609e+000	 9.664108739153324e+000
 1.017184679476191e+000	 1.565181072517051e+000	 9.506787501510571e+000
 1.000033294188532e+000	 1.576194783930540e+000	 9.342471302530898e+000
 9.827835472266669e-001	 1.587007630703517e+000	 9.172001462392922e+000
 9.654389124762561e-001	 1.597618403935809e+000	 8.996199703240350e+000
 9.480028805172913e-001	 1.608025973600485e+000	 8.815876737253477e+000
 9.304789564241000e-001	 1.618229288713945e+000	 8.631816369046490e+000
 9.128706575696799e-001	 1.628227377433698e+000	 8.444765656507792e+000
 1.088611503233817e+000	 1.524569467450388e+000	 1.010817011887796e+001
 1.071828171498351e+000	 1.536415132111450e+000	 9.977741871114676e+000
 1.054932393361736e+000	 1.548064853273591e+000	 9.837789644332510e+000
 1.037927566030934e+000	 1.559517104271456e+000	 9.689096935747491e+000
 1.020817112286157e+000	 1.570770436178989e+000	 9.532485244848036e+000
 1.003604478283490e+000	 1.581823478273663e+000	 9.368793502479505e+000
 9.862931313506642e-001	 1.592674938427072e+000	 9.198885289116536e+000
 9.688865577788065e-001	 1.603323603421993e+000	 9.023605026791023e+000
 9.513882606129946e-001	 1.613768339196110e+000	 8.843785043835178e+000
 9.338017574444000e-001	 1.624008091012704e+000	 8.660229684272098e+000
 9.161305782067855e-001	 1.634041883558782e+000	 8.473705217372940e+000
 1.092485173730272e+000	 1.529994432879242e+000	 1.013024909932575e+001
 1.075642120876025e+000	 1.541882248667110e+000	 1.000096366304910e+001
 1.058686221496000e+000	 1.553573423718674e+000	 9.861986343922558e+000
 1.041620884885633e+000	 1.565066425936168e+000	 9.714124992750895e+000
 1.024449546004611e+000	 1.576359801237752e+000	 9.558226173833594e+000
 1.007175663271671e+000	 1.587452174023388e+000	 9.395154507528918e+000
 9.898027163525365e-001	 1.598342247566829e+000	 9.225798257834782e+000
 9.723342039438022e-001	 1.609028804333806e+000	 9.051026965670930e+000
 9.547736415556308e-001	 1.619510706226610e+000	 8.871697023507208e+000
 9.371245592960398e-001	 1.629786894755407e+000	 8.688635767487954e+000
 9.193904996595567e-001	 1.639856391136701e+000	 8.502631123654417e+000
 1.096358846163799e+000	 1.535419401020091e+000	 1.015232485808478e+001
 1.079456072160909e+000	 1.547349367955814e+000	 1.002422145601579e+001
 1.062440051507424e+000	 1.559081996917497e+000	 9.886244681411412e+000
 1.045314205587258e+000	 1.570615750374966e+000	 9.739228940644816e+000
 1.028081981539576e+000	 1.581949169090591e+000	 9.584048137582398e+000
 1.010746850045776e+000	 1.593080872586826e+000	 9.421599921127148e+000
 9.933123031095723e-001	 1.604009559539578e+000	 9.252784581850271e+000
 9.757818518330342e-001	 1.614734008097527e+000	 9.078514228515774e+000
 9.581590241914133e-001	 1.625253076127579e+000	 8.899666718893233e+000
 9.404473628095779e-001	 1.635565701386777e+000	 8.717094803543500e+000
 9.226504227428253e-001	 1.645670901621128e+000	 8.531610477921765e+000
 1.100232521502765e+000	 1.540844373229018e+000	 1.017443030325177e+001
 1.083270026306435e+000	 1.552816491344194e+000	 1.004754714751191e+001
 1.066193884334401e+000	 1.564590574247075e+000	 9.910596509842003e+000
 1.049007529059066e+000	 1.576165078975069e+000	 9.764441536146334e+000
 1.031714419799079e+000	 1.587538541134760e+000	 9.609985725030194e+000
 1.014318039498504e+000	 1.598709575371082e+000	 9.448156735450919e+000
 9.968218924990582e-001	 1.609676875762099e+000	 9.279885213118382e+000
 9.792295023082922e-001	 1.620439216139437e+000	 9.106112249617194e+000
 9.615444093665553e-001	 1.630995450334611e+000	 8.927744878177423e+000
 9.437701688155737e-001	 1.641344512351542e+000	 8.745663656514948e+000
 9.259103482714212e-001	 1.651485416465734e+000	 8.560707030245167e+000
 1.104106200715540e+000	 1.546269350862104e+000	 1.019659503155859e+001
 1.087083984266036e+000	 1.558283620198885e+000	 1.007096936865166e+001
 1.069947720915326e+000	 1.570099157084421e+000	 9.935070448597687e+000
 1.052700856224312e+000	 1.581714413123700e+000	 9.789792323675458e+000
 1.035346861691141e+000	 1.593127918767508e+000	 9.636070323715556e+000
 1.017889232522554e+000	 1.604338283783265e+000	 9.474864408461652e+000
 1.000331485398282e+000	 1.615344197651177e+000	 9.307137896211655e+000
 9.826771562313678e-001	 1.626144429885816e+000	 9.133863240749470e+000
 9.649297979272699e-001	 1.636737830283300e+000	 8.955979004968606e+000
 9.470929781445853e-001	 1.647123329094427e+000	 8.774395917778502e+000
 9.291702770601759e-001	 1.657299937124190e+000	 8.589981224643216e+000
 1.107979884770492e+000	 1.551694335275432e+000	 1.021884539882805e+001
 1.090897946993144e+000	 1.563750755886520e+000	 1.009451355139003e+001
 1.073701562188594e+000	 1.575607746806549e+000	 9.959691947584494e+000
 1.056394188006254e+000	 1.587263754208078e+000	 9.815307696683300e+000
 1.038979308123788e+000	 1.598717303386091e+000	 9.662330178439007e+000
 1.021460430010627e+000	 1.609966999230480e+000	 9.501753924595359e+000
 1.003841082684530e+000	 1.621011526623595e+000	 9.334577222182679e+000
 9.861248144640508e-001	 1.631849650762943e+000	 9.161806242899440e+000
 9.683151907197705e-001	 1.642480217409241e+000	 8.984413408068352e+000
 9.504157916271706e-001	 1.652902153060155e+000	 8.803341953984301e+000
 9.324302099239196e-001	 1.663114465050168e+000	 8.619490245426400e+000
 1.111853574635990e+000	 1.557119327825082e+000	 1.024120459021995e+001
 1.094711915441191e+000	 1.569217899773733e+000	 1.011820199556619e+001
 1.077455409092595e+000	 1.581116344790473e+000	 9.984483351257319e+000
 1.060087525328149e+000	 1.592813103615424e+000	 9.841010958845271e+000
 1.042611760005043e+000	 1.604306696387760e+000	 9.688790449803575e+000
 1.025031632855421e+000	 1.615595723119837e+000	 9.528853180461594e+000
 1.007350685235092e+000	 1.626678864096137e+000	 9.362234682327337e+000
 9.895724778681322e-001	 1.637554880197098e+000	 9.189977177901012e+000
 9.717005885902695e-001	 1.648222613148027e+000	 9.013089251144860e+000
 9.537386100938896e-001	 1.658680985693452e+000	 8.832548954933163e+000
 9.356901476774832e-001	 1.668929001697338e+000	 8.649288063437803e+000
 1.115727271280403e+000	 1.562544329867139e+000	 1.026369269027377e+001
 1.098525890563611e+000	 1.574685053227156e+000	 1.014205393577156e+001
 1.081209262565728e+000	 1.586624952413206e+000	 1.000946396249533e+001
 1.063780869113253e+000	 1.598362462732960e+000	 9.866922385122084e+000
 1.046244218242930e+000	 1.609896099169767e+000	 9.715473272638484e+000
 1.028602841949637e+000	 1.621224456858440e+000	 9.556187040803875e+000
 1.010860293927253e+000	 1.632346211485587e+000	 9.390143262151179e+000
 9.930201473054026e-001	 1.643260119614560e+000	 9.218408899977218e+000
 9.750859923849807e-001	 1.653965018935252e+000	 9.042044602314819e+000
 9.570614343752997e-001	 1.664459828439043e+000	 8.862060981360161e+000
 9.389500911356973e-001	 1.674743548519371e+000	 8.679425482194109e+000
 1.119600975672099e+000	 1.567969342757683e+000	 1.028632675275275e+001
 1.102339873313836e+000	 1.580152217613425e+000	 1.016608560804700e+001
 1.084963123546385e+000	 1.592133571051762e+000	 1.003465010632919e+001
 1.067474220284823e+000	 1.603911832947904e+000	 9.893059282692589e+000
 1.049876683745474e+000	 1.615485513129365e+000	 9.742397814309895e+000
 1.032174058185975e+000	 1.626853201853401e+000	 9.583777394358190e+000
 1.014369909638300e+000	 1.638013570208727e+000	 9.418319050093459e+000
 9.964678236376523e-001	 1.648965370441609e+000	 9.247131247192135e+000
 9.784714029501171e-001	 1.659707436206510e+000	 9.071314483636233e+000
 9.603842653019601e-001	 1.670238682741653e+000	 8.891919012625335e+000
 9.422100411133937e-001	 1.680558106969942e+000	 8.709950183929367e+000
 1.123474688779447e+000	 1.573394367852797e+000	 1.030912087029452e+001
 1.106153864645299e+000	 1.585619394299173e+000	 1.019031031641350e+001
 1.088716992972960e+000	 1.597642202083156e+000	 1.006005519352478e+001
 1.071167579766116e+000	 1.609461215647480e+000	 9.919436051761235e+000
 1.053509157420699e+000	 1.621074939663807e+000	 9.769580332920919e+000
 1.035745282457134e+000	 1.632481959511823e+000	 9.611643209612428e+000
 1.017879533245523e+000	 1.643680941682343e+000	 9.446789395662730e+000
 9.999155077266725e-001	 1.654670634104525e+000	 9.276171092815019e+000
 9.818568211318918e-001	 1.665449866397395e+000	 9.100930920513678e+000
 9.637071037044300e-001	 1.676017550046008e+000	 8.922160994315110e+000
 9.454699984254019e-001	 1.686372678502719e+000	 8.740906775543584e+000
 9.128706575696799e-001	 1.628227377433698e+000	 8.444765656507792e+000
 8.951841707274577e-001	 1.638017894080757e+000	 8.256636172143033e+000
 8.774203956610007e-001	 1.647601541619870e+000	 8.069061280225629e+000
 8.595828728996265e-001	 1.656977587152687e+000	 7.882386864913854e+000
 8.416751465452838e-001	 1.666145376561775e+000	 7.696907664803055e+000
 8.237007621394887e-001	 1.675104334255827e+000	 7.512863988359427e+000
 8.056632645502202e-001	 1.683853962847609e+000	 7.330439751321250e+000
 7.875661958811588e-001	 1.692393842765832e+000	 7.149761824505820e+000
 7.694130934055927e-001	 1.700723631802261e+000	 6.970900667297666e+000
 7.512074875272330e-001	 1.708843064595402e+000	 6.793872209397740e+000
 7.329528997701102e-001	 1.716751952052255e+000	 6.618640931289610e+000
 9.161305782067855e-001	 1.634041883558782e+000	 8.473705217372940e+000
 8.983809317669452e-001	 1.643867362778795e+000	 8.286168128728360e+000
 8.805537211015639e-001	 1.653485234147827e+000	 8.099242608916871e+000
 8.626524993834223e-001	 1.662894762150299e+000	 7.913208404679221e+000
 8.446808233706907e-001	 1.672095290332883e+000	 7.728290381386787e+000
 8.266422512662489e-001	 1.681086241048800e+000	 7.544655345065487e+000
 8.085403405970330e-001	 1.689867115134612e+000	 7.362410227213578e+000
 7.903786461158097e-001	 1.698437491520715e+000	 7.181601620328639e+000
 7.721607177277033e-001	 1.706797026776825e+000	 7.002216638557886e+000
 7.538900984437295e-001	 1.714945454593828e+000	 6.824185064864184e+000
 7.355703223635138e-001	 1.722882585203459e+000	 6.647382733665229e+000
 9.193904996595567e-001	 1.639856391136701e+000	 8.502631123654417e+000
 9.015776936063481e-001	 1.649716832938383e+000	 8.315677014069351e+000
 8.836870473262152e-001	 1.659368928145872e+000	 8.129380860458420e+000
 8.657221266354049e-001	 1.668811938626362e+000	 7.943958438757242e+000
 8.476865009483131e-001	 1.678045205590631e+000	 7.759566782309907e+000
 8.295837411291853e-001	 1.687068149336423e+000	 7.576301104807524e+000
 8.114174173639180e-001	 1.695880268924100e+000	 7.394193127911934e+000
 7.931910970543666e-001	 1.704481141785743e+000	 7.213210800965046e+000
 7.749083427374958e-001	 1.712870423269022e+000	 7.033259386336989e+000
 7.565727100316281e-001	 1.721047846117197e+000	 6.854183870611156e+000
 7.381877456119866e-001	 1.729013219886742e+000	 6.675772649052468e+000
 9.226504227428253e-001	 1.645670901621128e+000	 8.531610477921765e+000
 9.047744570447027e-001	 1.655566306021953e+000	 8.345237309836262e+000
 8.868203751181282e-001	 1.665252625085010e+000	 8.159558044174299e+000
 8.687917554228225e-001	 1.674729118060264e+000	 7.974726615267216e+000
 8.506921800294128e-001	 1.683995123822599e+000	 7.790834226155532e+000
 8.325252324635154e-001	 1.693050060614283e+000	 7.607906366735670e+000
 8.142944955699941e-001	 1.701893425719475e+000	 7.425901279564898e+000
 7.960035493997998e-001	 1.710524795071942e+000	 7.244709860215945e+000
 7.776559691217416e-001	 1.718943822797304e+000	 7.064156964874261e+000
 7.592553229614560e-001	 1.727150240691201e+000	 6.884004084176370e+000
 7.408051701697700e-001	 1.735143857634843e+000	 6.703953329209117e+000
 9.259103482714212e-001	 1.651485416465734e+000	 8.560707030245167e+000
 9.079712228810430e-001	 1.661415783491934e+000	 8.374920112824380e+000
 8.899537052604762e-001	 1.671136326436241e+000	 8.189852756180242e+000
 8.718613865129231e-001	 1.680646301931392e+000	 8.005599145575825e+000
 8.536978613652514e-001	 1.689945046516368e+000	 7.822186616711727e+000
 8.354667260044577e-001	 1.699031976377965e+000	 7.639572763345032e+000
 8.171715759343823e-001	 1.707906587024138e+000	 7.457644036633393e+000
 7.988160038550786e-001	 1.716568452890335e+000	 7.276215822597035e+000
 7.804035975672117e-001	 1.725017226880129e+000	 7.095033969532419e+000
 7.619379379037400e-001	 1.733252639841535e+000	 6.913777723168078e+000
 7.434225966911037e-001	 1.741274499980501e+000	 6.732064013943086e+000
 9.291702770601759e-001	 1.657299937124190e+000	 8.589981224643216e+000
 9.111679919144056e-001	 1.667265266810758e+000	 8.404793179870568e+000
 8.930870385364329e-001	 1.677020033670570e+000	 8.220340222790370e+000
 8.749310206729554e-001	 1.686563491719130e+000	 8.036658846208940e+000
 8.567035457070905e-001	 1.695894975159520e+000	 7.853714443400933e+000
 8.384082224872305e-001	 1.705013898123057e+000	 7.671398499429124e+000
 8.200486591762006e-001	 1.713919754341490e+000	 7.489527319369680e+000
 8.016284611231731e-001	 1.722612116751946e+000	 7.307842279341466e+000
 7.831512287606770e-001	 1.731090637035950e+000	 7.126011571316371e+000
 7.646205555290072e-001	 1.739355045093891e+000	 6.943633398287161e+000
 7.460400258302277e-001	 1.747405148456453e+000	 6.760240562616806e+000
 9.324302099239196e-001	 1.663114465050168e+000	 8.619490245426400e+000
 9.143647649438255e-001	 1.673114757440853e+000	 8.434920972658203e+000
 8.962203757291724e-001	 1.682903748258998e+000	 8.251092343803682e+000
 8.780006586701662e-001	 1.692480688902867e+000	 8.067985180636914e+000
 8.597092338061930e-001	 1.701844911239638e+000	 7.885504821574688e+000
 8.413497226470509e-001	 1.710995827345145e+000	 7.703478390892292e+000
 8.229257460145700e-001	 1.719932929174930e+000	 7.521653651150826e+000
 8.044409219070522e-001	 1.728655788167799e+000	 7.339699424251811e+000
 7.858988633889094e-001	 1.737164054783222e+000	 7.157207551236670e+000
 7.673031765077846e-001	 1.745457457973962e+000	 6.973696346189682e+000
 7.486574582413830e-001	 1.753535804595439e+000	 6.788615485494389e+000
 9.356901476774832e-001	 1.668929001697338e+000	 8.649288063437806e+000
 9.175615427683381e-001	 1.678964256844651e+000	 8.465364702412151e+000
 8.993537176218678e-001	 1.688787471672527e+000	 8.282177735673860e+000
 8.810703012718043e-001	 1.698397894961988e+000	 8.099654300935182e+000
 8.627149264138193e-001	 1.707794856244301e+000	 7.917641532678378e+000
 8.442912272191381e-001	 1.716977765539817e+000	 7.735903903425640e+000
 8.258028371686094e-001	 1.725946113027861e+000	 7.554122195669505e+000
 8.072533869096863e-001	 1.734699468648917e+000	 7.371894089404440e+000
 7.886465021386790e-001	 1.743237481640400e+000	 7.188736334522059e+000
 7.699858015105995e-001	 1.751559880007444e+000	 7.004088462196814e+000
 7.512748945788093e-001	 1.759666469930197e+000	 6.817317974931941e+000
 9.389500911356973e-001	 1.674743548519371e+000	 8.679425482194109e+000
 9.207583261869795e-001	 1.684813766484584e+000	 8.496182374486704e+000
 9.024870649976925e-001	 1.694671205382161e+000	 8.313661774564798e+000
 8.841399492451179e-001	 1.704315111375880e+000	 8.131739089324155e+000
 8.657206242812326e-001	 1.713744811661092e+000	 7.950205064287812e+000
 8.472327369387090e-001	 1.722959714202656e+000	 7.768763191049227e+000
 8.286799333574388e-001	 1.731959307403683e+000	 7.587028793984814e+000
 8.100658568340449e-001	 1.740743159706326e+000	 7.404529780709948e+000
 7.913941456967576e-001	 1.749310919125939e+000	 7.220709024683484e+000
 7.726684312079784e-001	 1.757662312720026e+000	 7.034928332854029e+000
 7.538923354967474e-001	 1.765797145993466e+000	 6.846473936417839e+000
 9.422100411133937e-001	 1.680558106969942e+000	 8.709950183929367e+000
 9.239551159987848e-001	 1.690663287823079e+000	 8.527428832849601e+000
 9.056204186398202e-001	 1.700554950858902e+000	 8.345606639295280e+000
 8.872096033573542e-001	 1.710232339623929e+000	 8.164309199591417e+000
 8.687263281596938e-001	 1.719694778977591e+000	 7.983272650021273e+000
 8.501742525409826e-001	 1.728941674829252e+000	 7.802141134522793e+000
 8.315570353001780e-001	 1.737972513805797e+000	 7.620466001438105e+000
 8.128783323830974e-001	 1.746786862851048e+000	 7.437706713332736e+000
 7.941417947499166e-001	 1.755384368758295e+000	 7.253233437434846e+000
 7.753510662704489e-001	 1.763764757637405e+000	 7.066331268343283e+000
 7.565097816494371e-001	 1.771927834317984e+000	 6.876206019463656e+000
 9.454699984254019e-001	 1.686372678502719e+000	 8.740906775543584e+000
 9.271519130027892e-001	 1.696512822322570e+000	 8.559155804463899e+000
 9.087537793314252e-001	 1.706438709573753e+000	 8.378071354174642e+000
 8.902792643757620e-001	 1.716149581185522e+000	 8.197431098397717e+000
 8.717320388004656e-001	 1.725644759681382e+000	 8.016918309329912e+000
 8.531157747611764e-001	 1.734923648915190e+000	 7.836119379630004e+000
 8.344341437159466e-001	 1.743985733737606e+000	 7.654523124434836e+000
 8.156908142598138e-001	 1.752830579594108e+000	 7.471521846973442e+000
 7.968894499849265e-001	 1.761457832055922e+000	 7.286414134472020e+000
 7.780337073685373e-001	 1.769867216285273e+000	 7.098409334752781e+000
 7.591272336911190e-001	 1.778058536436490e+000	 6.906633648351127e+000
 7.329528997701102e-001	 1.716751952052255e+000	 6.618640931289610e+000
 7.146500924294713e-001	 1.724451319976578e+000	 6.437016849697439e+000
 6.963053005481267e-001	 1.731939928692788e+000	 6.245778351543925e+000
 6.779220096819681e-001	 1.739217815222061e+000	 6.052230405369341e+000
 6.595036887474008e-001	 1.746285089996563e+000	 5.863415464496102e+000
 6.410537881847429e-001	 1.753141935993637e+000	 5.682065995668507e+000
 6.225757381620465e-001	 1.759788607818298e+000	 5.508860885890010e+000
 6.040729468208826e-001	 1.766225430735958e+000	 5.344625018912050e+000
 5.855487985655503e-001	 1.772452799657344e+000	 5.190123828438284e+000
 5.670066523970694e-001	 1.778471178077622e+000	 5.046104772702011e+000
 5.484498402932199e-001	 1.784281096971782e+000	 4.913332804238452e+000
 7.355703223635138e-001	 1.722882585203459e+000	 6.647382733665229e+000
 7.172021545045106e-001	 1.730609448072686e+000	 6.463939590752930e+000
 6.987918521752771e-001	 1.738124799098968e+000	 6.270956219253095e+000
 6.803429133788512e-001	 1.745428675435680e+000	 6.075649879928876e+000
 6.618588194193650e-001	 1.752521187909347e+000	 5.885131846914382e+000
 6.433430330588841e-001	 1.759402520150736e+000	 5.702782073569779e+000
 6.247989967148149e-001	 1.766072927674072e+000	 5.529113717733637e+000
 6.062301306994241e-001	 1.772532736906307e+000	 5.364812507390680e+000
 5.876398315029389e-001	 1.778782344168420e+000	 5.210516692176351e+000
 5.690314701215915e-001	 1.784822214610746e+000	 5.066858975804630e+000
 5.504083904318715e-001	 1.790652881104421e+000	 4.934502276077388e+000
 7.381877456119866e-001	 1.729013219886742e+000	 6.675772649052468e+000
 7.197542172182362e-001	 1.736767577707839e+000	 6.490482429867709e+000
 7.012784044246840e-001	 1.744309671050978e+000	 6.295739926568724e+000
 6.827638176815221e-001	 1.751639537201736e+000	 6.098671377910790e+000
 6.642139506806132e-001	 1.758757287380995e+000	 5.906378505954899e+000
 6.456322785057757e-001	 1.765663105872937e+000	 5.722917866595243e+000
 6.270222558237740e-001	 1.772357249100997e+000	 5.548691864645725e+000
 6.083873151175759e-001	 1.778840044653666e+000	 5.384244507904893e+000
 5.897308649633422e-001	 1.785111890262170e+000	 5.230084771519033e+000
 5.710562883525207e-001	 1.791173252732014e+000	 5.086728988430805e+000
 5.523669410603161e-001	 1.797024666830474e+000	 4.954736896262669e+000
 7.408051701697700e-001	 1.735143857634843e+000	 6.703953329209117e+000
 7.223062812085586e-001	 1.742925710421628e+000	 6.516795057669134e+000
 7.037649579178940e-001	 1.750494546095071e+000	 6.320286126307653e+000
 6.851847231951275e-001	 1.757850402072951e+000	 6.121458423108156e+000
 6.665690831198611e-001	 1.764993389970501e+000	 5.927343940330084e+000
 6.479215250976732e-001	 1.771923694725325e+000	 5.742666218123771e+000
 6.292455160446951e-001	 1.778641573670060e+000	 5.567791477831708e+000
 6.105445006146022e-001	 1.785147355554737e+000	 5.403119432923928e+000
 5.918218994694955e-001	 1.791441439520828e+000	 5.249027693836141e+000
 5.730811075960469e-001	 1.797524294029003e+000	 5.105914616484708e+000
 5.543254926681834e-001	 1.803396455742680e+000	 4.974235632477426e+000
 7.434225966911037e-001	 1.741274499980501e+000	 6.732064013943086e+000
 7.248583471133896e-001	 1.749083847753640e+000	 6.543023788801499e+000
 7.062515132764518e-001	 1.756679425777496e+000	 6.344748137762608e+000
 6.876056305248127e-001	 1.764061271602043e+000	 6.144171254511048e+000
 6.689242173258243e-001	 1.771229497236867e+000	 5.948227671140204e+000
 6.502107734068341e-001	 1.778184288272990e+000	 5.762217151796110e+000
 6.314687779333503e-001	 1.784925902952253e+000	 5.586606241657292e+000
 6.127016877297666e-001	 1.791454671186225e+000	 5.421633558758506e+000
 5.939129355441347e-001	 1.797770993526625e+000	 5.267543258353757e+000
 5.751059283583608e-001	 1.803875340089290e+000	 5.124614122748467e+000
 5.562840457451034e-001	 1.809768249433779e+000	 4.993196171115478e+000
 7.460400258302277e-001	 1.747405148456453e+000	 6.760240562616805e+000
 7.274104155706407e-001	 1.755241991243472e+000	 6.569311591917681e+000
 7.087380711219047e-001	 1.762864311644508e+000	 6.369275975209997e+000
 6.900265402757256e-001	 1.770272147341734e+000	 6.166966853367236e+000
 6.712793538872184e-001	 1.777465610739092e+000	 5.969217819289463e+000
 6.525000240055142e-001	 1.784444888081018e+000	 5.781757822059059e+000
 6.336920420455108e-001	 1.791210238518562e+000	 5.605327328416974e+000
 6.148588770023327e-001	 1.797761993124833e+000	 5.439980984370153e+000
 5.960039737099959e-001	 1.804100553861794e+000	 5.285827398821161e+000
 5.771307511456527e-001	 1.810226392500453e+000	 5.143024193230772e+000
 5.582426007807066e-001	 1.816140049496512e+000	 5.011814887128442e+000
 7.486574582413830e-001	 1.753535804595439e+000	 6.788615485494389e+000
 7.299624872182234e-001	 1.761400142430711e+000	 6.595798119511644e+000
 7.112246320757975e-001	 1.769049205242356e+000	 6.394016376260622e+000
 6.924474530530118e-001	 1.776483030844745e+000	 6.189998970085038e+000
 6.736344933927588e-001	 1.783701732036173e+000	 5.990475114183972e+000
 6.547892774659702e-001	 1.790705495714499e+000	 5.801472464551083e+000
 6.359153089369479e-001	 1.797494581939978e+000	 5.624143352944834e+000
 6.170160689715646e-001	 1.804069322947262e+000	 5.458353590026325e+000
 5.980950144898145e-001	 1.810430122108566e+000	 5.304074146029805e+000
 5.791555764641129e-001	 1.816577452850068e+000	 5.161339903364562e+000
 5.602011582646226e-001	 1.822511857523617e+000	 5.030286813727912e+000
 7.512748945788093e-001	 1.759666469930197e+000	 6.817317974931941e+000
 7.325145626940491e-001	 1.767558302854952e+000	 6.622619737595901e+000
 7.137111967596772e-001	 1.775234108117293e+000	 6.419112830052830e+000
 6.948683694618177e-001	 1.782693923663795e+000	 6.213418150980576e+000
 6.759896364311617e-001	 1.789937862687110e+000	 6.012157075577862e+000
 6.570785343604583e-001	 1.796966112738519e+000	 5.821542346334057e+000
 6.381385791634338e-001	 1.803778934787489e+000	 5.643240327076237e+000
 6.191732641767257e-001	 1.810376662230218e+000	 5.476940995808385e+000
 6.001860584063267e-001	 1.816759699849174e+000	 5.322475590184354e+000
 5.811804048199316e-001	 1.822928522725712e+000	 5.179754684063464e+000
 5.621597186864817e-001	 1.828883675107834e+000	 5.048805611943617e+000
 7.538923354967474e-001	 1.765797145993466e+000	 6.846473936417839e+000
 7.350666426360297e-001	 1.773716474055784e+000	 6.649909555225325e+000
 7.161977657950889e-001	 1.781419021815571e+000	 6.444705605295315e+000
 6.972892901072898e-001	 1.788904827351606e+000	 6.237371764873097e+000
 6.783447835911426e-001	 1.796174004250901e+000	 6.034418094824804e+000
 6.593677952612350e-001	 1.803226740718167e+000	 5.842145715974990e+000
 6.403618532807395e-001	 1.810063298632084e+000	 5.662801613960294e+000
 6.213304631570803e-001	 1.816684012550403e+000	 5.495930519972709e+000
 6.022771059822680e-001	 1.823089288665851e+000	 5.341221843131090e+000
 5.832052367192991e-001	 1.829279603714964e+000	 5.198460287633393e+000
 5.641182825359137e-001	 1.835255503841901e+000	 5.067563540043816e+000
 7.565097816494371e-001	 1.771927834317984e+000	 6.876206019463656e+000
 7.376187276820767e-001	 1.779874657572799e+000	 6.677797453874792e+000
 7.186843398035792e-001	 1.787603947883441e+000	 6.470931778159724e+000
 6.997102155945745e-001	 1.795115743460896e+000	 6.262004029532754e+000
 6.806999354614164e-001	 1.802410158286546e+000	 6.057409459920699e+000
 6.616570607405570e-001	 1.809487381218530e+000	 5.863457753478165e+000
 6.425851318446371e-001	 1.816347675044753e+000	 5.683007882225556e+000
 6.234876664518918e-001	 1.822991375484520e+000	 5.515507137168363e+000
 6.043681577403745e-001	 1.829418890140827e+000	 5.360501000443974e+000
 5.852300726684062e-001	 1.835630697405398e+000	 5.217646753549114e+000
 5.660768503025488e-001	 1.841627345318559e+000	 5.086751422816642e+000
 7.591272336911190e-001	 1.778058536436490e+000	 6.906633648351127e+000
 7.401708184701011e-001	 1.786032854945589e+000	 6.706410116670094e+000
 7.211709194066933e-001	 1.793788887867156e+000	 6.497925260030295e+000
 7.021311465288181e-001	 1.801326673544389e+000	 6.287456037982944e+000
 6.830550926306996e-001	 1.808646326353043e+000	 6.081279380402179e+000
 6.639463313706804e-001	 1.815748035804697e+000	 5.885650520072234e+000
 6.448084154108978e-001	 1.822632065596484e+000	 5.704037060005696e+000
 6.256448746004242e-001	 1.829298752609273e+000	 5.535853436515422e+000
 6.064592142033819e-001	 1.835748505856337e+000	 5.380499103375348e+000
 5.872549131734427e-001	 1.841981805384595e+000	 5.237502374091907e+000
 5.680354224760176e-001	 1.847999201130549e+000	 5.106558620720150e+000
 5.484498402932199e-001	 1.784281096971782e+000	 4.913332804238452e+000
 5.298816653707491e-001	 1.789883153202778e+000	 4.792739862860538e+000
 5.113053995926307e-001	 1.795278007002279e+000	 4.683786006604120e+000
 4.927242831349172e-001	 1.800466382091268e+000	 4.585138675689063e+000
 4.741415232331826e-001	 1.805449064870776e+000	 4.495583174744777e+000
 4.555602928079645e-001	 1.810226903133151e+000	 4.414034455695453e+000
 4.369837291416522e-001	 1.814800804742252e+000	 4.339544215205558e+000
 4.184149326073985e-001	 1.819171736284711e+000	 4.271303642145734e+000
 3.998569654505434e-001	 1.823340721694442e+000	 4.208642169719964e+000
 3.813128506229466e-001	 1.827308840852505e+000	 4.151022602145727e+000
 3.627855706705263e-001	 1.831077228164503e+000	 4.098032997159964e+000
 5.504083904318715e-001	 1.790652881104421e+000	 4.934502276077388e+000
 5.317739073461716e-001	 1.796274942643831e+000	 4.814241469095962e+000
 5.131313045118567e-001	 1.801689061818372e+000	 4.705465536495427e+000
 4.944838336758576e-001	 1.806895964933475e+000	 4.606857622329268e+000
 4.758347135269936e-001	 1.811896441198451e+000	 4.517230547116772e+000
 4.571871283165069e-001	 1.816691341433165e+000	 4.435538044065207e+000
 4.385442265302251e-001	 1.821281576743510e+000	 4.360881194082894e+000
 4.199091196129334e-001	 1.825668117167858e+000	 4.292510405425881e+000
 4.012848807454481e-001	 1.829851990296648e+000	 4.229823303367353e+000
 3.826745436747854e-001	 1.833834279867260e+000	 4.172358910777645e+000
 3.640811015977278e-001	 1.837616124336330e+000	 4.119788512070222e+000
 5.523669410603161e-001	 1.797024666830474e+000	 4.954736896262669e+000
 5.336661497947700e-001	 1.802666733683369e+000	 4.834767396077138e+000
 5.149572098876430e-001	 1.808100118237819e+000	 4.726139245464299e+000
 4.962433846567466e-001	 1.813325549383705e+000	 4.627550463858516e+000
 4.775279042441486e-001	 1.818343819138624e+000	 4.537840976709901e+000
 4.588139642317982e-001	 1.823155781349956e+000	 4.456003287901395e+000
 4.401047243089640e-001	 1.827762350365629e+000	 4.381188232740051e+000
 4.214033069920677e-001	 1.832164499675755e+000	 4.312706167970607e+000
 4.027127963974042e-001	 1.836363260527303e+000	 4.250023975161597e+000
 3.840362370671483e-001	 1.840359720513975e+000	 4.192758269595313e+000
 3.653766328489503e-001	 1.844155022143435e+000	 4.140665218512980e+000
 5.543254926681834e-001	 1.803396455742680e+000	 4.974235632477426e+000
 5.355583931896026e-001	 1.809058527919111e+000	 4.854514699973904e+000
 5.167831161764662e-001	 1.814511177863141e+000	 4.746001164943350e+000
 4.980029365174731e-001	 1.819755137049102e+000	 4.647407151925292e+000
 4.792210958079450e-001	 1.824791200302876e+000	 4.557599346977299e+000
 4.604408009605449e-001	 1.829620224499363e+000	 4.475609088736182e+000
 4.416652228679882e-001	 1.834243127228526e+000	 4.400637419350824e+000
 4.228974951183376e-001	 1.838660885432222e+000	 4.332055462566356e+000
 4.041407127633725e-001	 1.842874534013948e+000	 4.269400516502564e+000
 3.853979311404335e-001	 1.846885164423731e+000	 4.212368264726203e+000
 3.666721647480425e-001	 1.850693923220270e+000	 4.160801521102988e+000
 5.562840457451034e-001	 1.809768249433779e+000	 4.993196171115478e+000
 5.374506380037267e-001	 1.815450326948778e+000	 4.873679395433789e+000
 5.186090238348023e-001	 1.820922242296858e+000	 4.765244503684067e+000
 4.997624896979254e-001	 1.826184729536804e+000	 4.666617013405677e+000
 4.809142886416810e-001	 1.831238586302786e+000	 4.576690093684789e+000
 4.620676389094542e-001	 1.836084672497223e+000	 4.494534056887258e+000
 4.432257225974157e-001	 1.840723908952121e+000	 4.419400687049949e+000
 4.243916843652784e-001	 1.845157276061076e+000	 4.350722783254314e+000
 4.055686302003150e-001	 1.849385812384124e+000	 4.288109316960703e+000
 3.867596262350390e-001	 1.853410613227614e+000	 4.231336618597046e+000
 3.679676976188531e-001	 1.857232829201285e+000	 4.180336020773991e+000
 5.582426007807066e-001	 1.816140049496512e+000	 5.011814887128442e+000
 5.393428847102001e-001	 1.821842132370091e+000	 4.892456428732299e+000
 5.204349333191276e-001	 1.827333313141492e+000	 4.784061623995473e+000
 5.015220446379921e-001	 1.832614328453952e+000	 4.685368729526392e+000
 4.826074831686546e-001	 1.837685978749934e+000	 4.595297186716100e+000
 4.636944784852327e-001	 1.842549126959377e+000	 4.512956495755771e+000
 4.447862238873651e-001	 1.847204697156331e+000	 4.437649800540873e+000
 4.258858751064263e-001	 1.851653673186138e+000	 4.368872574071208e+000
 4.069965490651929e-001	 1.855897097265371e+000	 4.306306814984309e+000
 3.881213226913629e-001	 1.859936068556710e+000	 4.249811182456872e+000
 3.692632317852309e-001	 1.863771741720931e+000	 4.199407508969684e+000
 5.602011582646226e-001	 1.822511857523617e+000	 5.030286813727912e+000
 5.412351337820803e-001	 1.828233945780770e+000	 4.911039650779752e+000
 5.222608450859182e-001	 1.833744391999562e+000	 4.802644017844044e+000
 5.032816017775622e-001	 1.839043935407688e+000	 4.703850314849782e+000
 4.843006798121632e-001	 1.844133379255899e+000	 4.613604111746147e+000
 4.653213200945875e-001	 1.849013589501663e+000	 4.531054385992358e+000
 4.463467271279553e-001	 1.853685493461075e+000	 4.455556342572648e+000
 4.273800677153167e-001	 1.858150078431226e+000	 4.386669217662700e+000
 4.084244697149673e-001	 1.862408390285230e+000	 4.324149488486336e+000
 3.894830208498031e-001	 1.866461532042101e+000	 4.267939928777672e+000
 3.705587675710249e-001	 1.870310662413659e+000	 4.218154961714084e+000
 5.621597186864817e-001	 1.828883675107834e+000	 5.048805611943617e+000
 5.431273856924253e-001	 1.834625768778536e+000	 4.929621789987065e+000
 5.240867595916505e-001	 1.840155480473590e+000	 4.821182282813837e+000
 5.050411615565240e-001	 1.845473552005149e+000	 4.722249096121971e+000
 4.859938789955047e-001	 1.850580789432260e+000	 4.631793851777355e+000
 4.669481641442250e-001	 1.855478061739920e+000	 4.549005369533526e+000
 4.479072327093042e-001	 1.860166299486271e+000	 4.473291700290707e+000
 4.288742625654854e-001	 1.864646493420159e+000	 4.404277023774571e+000
 4.098523925065996e-001	 1.868919693071243e+000	 4.341793845308843e+000
 3.908447210507582e-001	 1.872987005314873e+000	 4.285870943536386e+000
 3.718543053000838e-001	 1.876849592913921e+000	 4.236717533566351e+000
 5.641182825359137e-001	 1.835255503841901e+000	 5.067563540043816e+000
 5.450196409142923e-001	 1.841017602961110e+000	 4.948394424994315e+000
 5.259126772928003e-001	 1.846566580166098e+000	 4.839866097932102e+000
 5.068007244147662e-001	 1.851903179853479e+000	 4.740751690991048e+000
 4.876870811419773e-001	 1.857028210890599e+000	 4.650048868550702e+000
 4.685750110408526e-001	 1.861942545289987e+000	 4.566986733512214e+000
 4.494677410215306e-001	 1.866647116851838e+000	 4.491027051466182e+000
 4.303684600304682e-001	 1.871142919776756e+000	 4.421860217623208e+000
 4.112803177970513e-001	 1.875431007250949e+000	 4.359396413570080e+000
 3.922064236346260e-001	 1.879512490006111e+000	 4.303752418384992e+000
 3.731498452962563e-001	 1.883388534856166e+000	 4.255234551463359e+000
 5.660768503025488e-001	 1.841627345318559e+000	 5.086751422816642e+000
 5.469118999207399e-001	 1.847409449926213e+000	 4.967547957264427e+000
 5.277385986458446e-001	 1.852977692679605e+000	 4.858884199362520e+000
 5.085602907921774e-001	 1.858332820559816e+000	 4.759543986593111e+000
 4.893802866748787e-001	 1.863475645242494e+000	 4.668551083827031e+000
 4.702018611911770e-001	 1.868407041767702e+000	 4.585175394044033e+000
 4.510282524547534e-001	 1.873127947177695e+000	 4.508933350600869e+000
 4.318626604838010e-001	 1.877639359124836e+000	 4.439582928148265e+000
 4.127082459432835e-001	 1.881942334451890e+000	 4.377113731897008e+000
 3.935681289418045e-001	 1.886037987746897e+000	 4.321732642703328e+000
 3.744453878833915e-001	 1.889927489874846e+000	 4.273845508449985e+000
 5.680354224760176e-001	 1.847999201130549e+000	 5.106558620720150e+000
 5.488041631848251e-001	 1.853801311271564e+000	 4.987271583545307e+000
 5.295645241072590e-001	 1.859388819616633e+000	 4.878424355969018e+000
 5.103198611286465e-001	 1.864762475731302e+000	 4.778811118013990e+000
 4.910734960175067e-001	 1.869923094099526e+000	 4.687481860546662e+000
 4.718287150019048e-001	 1.874871552788906e+000	 4.603747879893334e+000
 4.525887673990908e-001	 1.879608792083759e+000	 4.527181314918456e+000
 4.333568642990193e-001	 1.884135813088218e+000	 4.457609176150488e+000
 4.141361773022579e-001	 1.888453676301606e+000	 4.395102339545724e+000
 3.949298373126922e-001	 1.892563500168320e+000	 4.339959995545738e+000
 3.757409333853378e-001	 1.896466459604412e+000	 4.292690057302709e+000
 3.627855706705263e-001	 1.831077228164503e+000	 4.098032997159964e+000
 3.442808403239148e-001	 1.834646550756103e+000	 4.051452395020888e+000
 3.257987730908322e-001	 1.838018628650293e+000	 4.012745814654002e+000
 3.073422187503291e-001	 1.841194752042445e+000	 3.981202743710379e+000
 2.889139828828835e-001	 1.844176259724348e+000	 3.956181859147676e+000
 2.705168260265918e-001	 1.846964537582363e+000	 3.937093142900427e+000
 2.521534628864030e-001	 1.849561017085502e+000	 3.923379066137036e+000
 2.338265615961181e-001	 1.851967173765351e+000	 3.914495205103567e+000
 2.155387430328055e-001	 1.854184525689797e+000	 3.909890637569367e+000
 1.972925801832064e-001	 1.856214631932410e+000	 3.908988452676800e+000
 1.790905975616490e-001	 1.858059091039320e+000	 3.911166688833382e+000
 3.640811015977278e-001	 1.837616124336330e+000	 4.119788512070222e+000
 3.455102896525823e-001	 1.841198193211864e+000	 4.073932556053492e+000
 3.269622217524142e-001	 1.844582313016268e+000	 4.036197143384787e+000
 3.084397578530240e-001	 1.847769778552278e+000	 4.005812584831845e+000
 2.899457135538023e-001	 1.850761933392588e+000	 3.982082580275852e+000
 2.714828592509105e-001	 1.853560168372646e+000	 3.964365340147468e+000
 2.530539193436880e-001	 1.856165920073323e+000	 3.952053760240408e+000
 2.346615714940181e-001	 1.858580669295420e+000	 3.944555022839165e+000
 2.163084459382946e-001	 1.860805939527940e+000	 3.941269982703270e+000
 1.979971248515646e-001	 1.862843295411997e+000	 3.941572679813192e+000
 1.797301417633639e-001	 1.864694341202229e+000	 3.944790302112622e+000
 3.653766328489503e-001	 1.844155022143435e+000	 4.140665218512980e+000
 3.467397392887963e-001	 1.847749837306038e+000	 4.095604404109067e+000
 3.281256707050955e-001	 1.851145999023604e+000	 4.058916333206384e+000
 3.095372972303986e-001	 1.854344806706239e+000	 4.029767522162566e+000
 2.909774444830101e-001	 1.857347608707543e+000	 4.007402276811392e+000
 2.724488927171557e-001	 1.860155800812049e+000	 3.991122800042608e+000
 2.539543760265666e-001	 1.862770824712498e+000	 3.980268336984313e+000
 2.354965816012087e-001	 1.865194166478905e+000	 3.974193740849693e+000
 2.170781490368016e-001	 1.867427355021387e+000	 3.972247827722450e+000
 1.987016696966988e-001	 1.869471960548609e+000	 3.973751871451975e+000
 1.803696861256440e-001	 1.871329593023718e+000	 3.977978570672989e+000
 3.666721647480425e-001	 1.850693923220270e+000	 4.160801521102988e+000
 3.479691895398753e-001	 1.854301484676264e+000	 4.116596533357403e+000
 3.292891202396838e-001	 1.857709688312956e+000	 4.081021398467444e+000
 3.106348371567720e-001	 1.860919838147821e+000	 4.053174417398934e+000
 2.920091759283612e-001	 1.863933287315374e+000	 4.032236284312714e+000
 2.734149266667451e-001	 1.866751436549240e+000	 4.017449160001986e+000
 2.548548331600491e-001	 1.869375732654024e+000	 4.008094766586511e+000
 2.363315921263248e-001	 1.871807666968964e+000	 4.003471896855172e+000
 2.178478525206209e-001	 1.874048773825298e+000	 4.002873716453242e+000
 1.994062148945998e-001	 1.876100628999242e+000	 4.005565219539112e+000
 1.810092308082162e-001	 1.877964848162459e+000	 4.010761178880420e+000
 3.679676976188531e-001	 1.857232829201285e+000	 4.180336020773991e+000
 3.491986407131379e-001	 1.860853136960182e+000	 4.137037781264574e+000
 3.304525706469872e-001	 1.864273382524976e+000	 4.102630635198184e+000
 3.117323779064631e-001	 1.867494874520521e+000	 4.076140443542256e+000
 2.930409081477106e-001	 1.870518970862248e+000	 4.056680270402163e+000
 2.743809613410961e-001	 1.873347077232878e+000	 4.043428401351952e+000
 2.557552909691456e-001	 1.875980645548894e+000	 4.035605366114036e+000
 2.371666032780017e-001	 1.878421172418758e+000	 4.032450369508179e+000
 2.186175565820471e-001	 1.880670197594831e+000	 4.033197518978341e+000
 2.001107606212586e-001	 1.882729302420894e+000	 4.037052218973994e+000
 1.816487759708071e-001	 1.884600108277128e+000	 4.043168082281303e+000
 3.692632317852309e-001	 1.863771741720931e+000	 4.199407508969680e+000
 3.504280931159031e-001	 1.867404795795433e+000	 4.157057224241815e+000
 3.316160222178131e-001	 1.870837083300321e+000	 4.123862617953548e+000
 3.128299197537909e-001	 1.874069917467834e+000	 4.098773082705421e+000
 2.940726413989126e-001	 1.877104660994329e+000	 4.080830233330619e+000
 2.753469969816266e-001	 1.879942724511631e+000	 4.069144848479277e+000
 2.566557496788665e-001	 1.882585565048103e+000	 4.062872799079432e+000
 2.380016152648743e-001	 1.885034684481444e+000	 4.061190378324930e+000
 2.193872614133744e-001	 1.887291627985147e+000	 4.063269431820773e+000
 2.008153070526659e-001	 1.889357982470562e+000	 4.068252667993022e+000
 1.822883217731432e-001	 1.891235375026396e+000	 4.075229508170038e+000
 3.705587675710249e-001	 1.870310662413659e+000	 4.218154961714084e+000
 3.516575470554892e-001	 1.873956462819656e+000	 4.176784173176185e+000
 3.327794752429693e-001	 1.877400792279644e+000	 4.144836196543789e+000
 3.139274629730742e-001	 1.880644968633256e+000	 4.121180123811674e+000
 2.951043759398223e-001	 1.883690359357782e+000	 4.104782500445615e+000
 2.763130338297540e-001	 1.886538380034160e+000	 4.094683167898206e+000
 2.575562095142220e-001	 1.889190492802647e+000	 4.089970074960174e+000
 2.388366282955775e-001	 1.891648204810183e+000	 4.089753483548695e+000
 2.201569672068974e-001	 1.893913066651406e+000	 4.093139978070885e+000
 2.015198543648128e-001	 1.895986670805244e+000	 4.099206668506623e+000
 1.829278683749512e-001	 1.897870650068939e+000	 4.106975956110381e+000
 3.718543053000838e-001	 1.876849592913921e+000	 4.236717533566351e+000
 3.528870028392147e-001	 1.880508139670492e+000	 4.196348168849307e+000
 3.339429300132638e-001	 1.883964511103601e+000	 4.165670492658923e+000
 3.150250078386324e-001	 1.887220029660280e+000	 4.143469660195829e+000
 2.961361120282943e-001	 1.890276067598770e+000	 4.128633726568664e+000
 2.772790721268962e-001	 1.893134045449129e+000	 4.120128367230779e+000
 2.584566707002223e-001	 1.895795430463520e+000	 4.116970548646414e+000
 2.396716425787466e-001	 1.898261735058134e+000	 4.118201585949469e+000
 2.209266741549105e-001	 1.900534515248767e+000	 4.122860007453872e+000
 2.022244027336898e-001	 1.902615369081935e+000	 4.129954626384927e+000
 1.835674159359578e-001	 1.904505935063431e+000	 4.138438198416963e+000
 3.731498452962563e-001	 1.883388534856166e+000	 4.255234551463359e+000
 3.541164607743986e-001	 1.887059827985581e+000	 4.215878977244692e+000
 3.351063868195043e-001	 1.890528241412844e+000	 4.186484896387638e+000
 3.161225546247840e-001	 1.893795102192404e+000	 4.165750087105517e+000
 2.971678499221832e-001	 1.896861787363458e+000	 4.152480892280448e+000
 2.782451121144706e-001	 1.899729722405203e+000	 4.145565794108878e+000
 2.593571334618776e-001	 1.902400379681715e+000	 4.143947919814528e+000
 2.405066583230164e-001	 1.904875276878457e+000	 4.146596926559859e+000
 2.216963824497082e-001	 1.907155975432390e+000	 4.152480696345462e+000
 2.029289523352882e-001	 1.909244078957634e+000	 4.160537251698534e+000
 1.842069646158896e-001	 1.911141231668545e+000	 4.169647280594900e+000
 3.744453878833915e-001	 1.889927489874846e+000	 4.273845508449985e+000
 3.553459211683593e-001	 1.893611529402563e+000	 4.235506584749824e+000
 3.362698459524988e-001	 1.897091984848029e+000	 4.207399062632227e+000
 3.172201036058481e-001	 1.900370187873122e+000	 4.188130099108221e+000
 2.981995898793438e-001	 1.903447520298011e+000	 4.176421302120144e+000
 2.792111540338949e-001	 1.906325412551045e+000	 4.171081134995600e+000
 2.602575980241983e-001	 1.909005342108230e+000	 4.170976232231820e+000
 2.413416757370221e-001	 1.911488831924311e+000	 4.175002086348882e+000
 2.224660922835849e-001	 1.913777448857435e+000	 4.182053547734610e+000
 2.036335033455984e-001	 1.915872802089337e+000	 4.190995558911157e+000
 1.848465145744732e-001	 1.917776541542956e+000	 4.200634521738226e+000
 3.757409333853378e-001	 1.896466459604412e+000	 4.292690057302709e+000
 3.565753843284157e-001	 1.900163245559079e+000	 4.255361193250820e+000
 3.374333077030549e-001	 1.903655743049810e+000	 4.228532907427185e+000
 3.183176550561437e-001	 1.906945288345930e+000	 4.210718687401953e+000
 2.992313321576309e-001	 1.910033268048593e+000	 4.200552582697750e+000
 2.801771981265868e-001	 1.912921117535318e+000	 4.196760413929226e+000
 2.611580646121947e-001	 1.915610319394058e+000	 4.198129872991885e+000
 2.421766950293987e-001	 1.918102401848856e+000	 4.203479985838518e+000
 2.232358038488350e-001	 1.920398937179060e+000	 4.211630391131156e+000
 2.043380559406117e-001	 1.922501540134042e+000	 4.221370867028520e+000
 1.854860659714354e-001	 1.924411866345337e+000	 4.231431514889609e+000
 1.790905975616490e-001	 1.858059091039320e+000	 3.911166688833382e+000
 1.609325570466982e-001	 1.859719774928535e+000	 3.914818544245790e+000
 1.428236509081929e-001	 1.861198066987645e+000	 3.919026186569023e+000
 1.247662928029802e-001	 1.862495676178339e+000	 3.924067308928396e+000
 1.067628449329038e-001	 1.863614344853473e+000	 3.930086951578664e+000
 8.881561771666691e-002	 1.864555847221398e+000	 3.937083960108607e+000
 7.092686951017656e-002	 1.865321987818410e+000	 3.944899344923218e+000
 5.309880637443565e-002	 1.865914599990803e+000	 3.953206695185360e+000
 3.533358189001407e-002	 1.866335544387978e+000	 3.961504775134440e+000
 1.763329701708853e-002	 1.866586707467961e+000	 3.969112405587812e+000
 0.000000000000000e+000	 1.866670000016666e+000	 3.975165720607346e+000
 1.797301417633639e-001	 1.864694341202229e+000	 3.944790302112622e+000
 1.615072577019093e-001	 1.866360955501386e+000	 3.949254941811514e+000
 1.433336834789612e-001	 1.867844526637250e+000	 3.954093566586343e+000
 1.252118413706765e-001	 1.869146769674353e+000	 3.959684091269407e+000
 1.071441020144599e-001	 1.870269433187636e+000	 3.966262617298835e+000
 8.913278407965512e-002	 1.871214297721295e+000	 3.973908976986451e+000
 7.118015398689018e-002	 1.871983174255770e+000	 3.982534251628071e+000
 5.328842567514063e-002	 1.872577902684386e+000	 3.991870420969641e+000
 3.545976041553825e-002	 1.873000350301069e+000	 4.001462275612416e+000
 1.769626667091111e-002	 1.873252410300538e+000	 4.010661698161488e+000
 0.000000000000000e+000	 1.873336000292277e+000	 4.018624405737332e+000
 1.803696861256440e-001	 1.871329593023718e+000	 3.977978570672989e+000
 1.620819585015042e-001	 1.873002137734208e+000	 3.983194850982816e+000
 1.438437161779622e-001	 1.874490987948056e+000	 3.988585480298152e+000
 1.256573900504839e-001	 1.875797864832641e+000	 3.994650404792769e+000
 1.075253591920342e-001	 1.876924523184994e+000	 4.001738328514339e+000
 8.944995052259598e-002	 1.877872749885155e+000	 4.010031292067113e+000
 7.143343852751727e-002	 1.878644362357717e+000	 4.019531300161943e+000
 5.347804502374528e-002	 1.879241207043033e+000	 4.030049160006625e+000
 3.558593897297262e-002	 1.879665157879560e+000	 4.041195665874890e+000
 1.775923634067765e-002	 1.879918114798716e+000	 4.052375238733986e+000
 0.000000000000000e+000	 1.880002002233555e+000	 4.062782116256821e+000
 1.810092308082162e-001	 1.877964848162459e+000	 4.010761178880420e+000
 1.626566595889848e-001	 1.879643323287192e+000	 4.016660243123434e+000
 1.443537491325189e-001	 1.881137452581612e+000	 4.022518747349791e+000
 1.261029389535963e-001	 1.882448963315952e+000	 4.028980399770539e+000
 1.079066165607448e-001	 1.883579616509333e+000	 4.036527968463942e+000
 8.976711712458955e-002	 1.884531205377647e+000	 4.045466842466135e+000
 7.168672319520096e-002	 1.885305553789637e+000	 4.055910719247422e+000
 5.366766446750064e-002	 1.885904514732689e+000	 4.067769585114281e+000
 3.571211759374466e-002	 1.886329968789800e+000	 4.080740127725255e+000
 1.782220604206414e-002	 1.886583822629083e+000	 4.094298692767120e+000
 0.000000000000000e+000	 1.886668007507166e+000	 4.107696882874236e+000
 1.816487759708071e-001	 1.884600108277128e+000	 4.043168082281303e+000
 1.632313611078530e-001	 1.886284513820528e+000	 4.049673310136797e+000
 1.448637824699542e-001	 1.887783922199470e+000	 4.055910330606032e+000
 1.265484881912075e-001	 1.889100066787036e+000	 4.062688269741120e+000
 1.082878742157101e-001	 1.890234714824445e+000	 4.070645345083453e+000
 9.008428396473579e-002	 1.891189665863439e+000	 4.080231356801042e+000
 7.194000805308426e-002	 1.891966750216917e+000	 4.091692385239883e+000
 5.385728405365773e-002	 1.892567827419305e+000	 4.105057866102590e+000
 3.583829630928184e-002	 1.892994784698134e+000	 4.120130186406690e+000
 1.788517579074657e-002	 1.893249535458222e+000	 4.136476916493710e+000
 0.000000000000000e+000	 1.893334017779778e+000	 4.153425779016844e+000
 1.822883217731432e-001	 1.891235375026396e+000	 4.075229508170038e+000
 1.638060632016108e-001	 1.892925710994410e+000	 4.082256465407748e+000
 1.453738163175913e-001	 1.894430398463179e+000	 4.088777337835271e+000
 1.269940378745112e-001	 1.895751176908643e+000	 4.095788254261443e+000
 1.086691322520480e-001	 1.896889819794116e+000	 4.104104195116110e+000
 9.040145112213467e-002	 1.897848133007199e+000	 4.114340360910744e+000
 7.219329316431025e-002	 1.898627953304946e+000	 4.126895829667259e+000
 5.404690382946755e-002	 1.899231146768825e+000	 4.141939679317651e+000
 3.596447515101166e-002	 1.899659607270911e+000	 4.159399722286406e+000
 1.794814560240096e-002	 1.899915254952724e+000	 4.178953970848212e+000
 0.000000000000000e+000	 1.900000034718056e+000	 4.200024937079544e+000
 1.829278683749512e-001	 1.897870650068939e+000	 4.106975956110381e+000
 1.643807660137601e-001	 1.899566916469028e+000	 4.114432344702570e+000
 1.458838508027531e-001	 1.901076883034290e+000	 4.121137023343480e+000
 1.274395881147012e-001	 1.902402295343521e+000	 4.128294641591135e+000
 1.090503907648768e-001	 1.903544933082137e+000	 4.136918188128198e+000
 9.071861867588626e-002	 1.904506608473594e+000	 4.147809183449604e+000
 7.244657859202201e-002	 1.905289164719112e+000	 4.161540246613924e+000
 5.423652384218115e-002	 1.905894474447200e+000	 4.178440216981987e+000
 3.609065415036164e-002	 1.906324438174477e+000	 4.198581982295477e+000
 1.801111549270328e-002	 1.906580982779173e+000	 4.221773135105996e+000
 0.000000000000000e+000	 1.906666059988667e+000	 4.247549564329206e+000
 1.835674159359578e-001	 1.904505935063431e+000	 4.138438198416963e+000
 1.649554696878030e-001	 1.906208131904575e+000	 4.146223807027867e+000
 1.463938860527627e-001	 1.907723377574352e+000	 4.153006789553241e+000
 1.278851390229712e-001	 1.909053423754419e+000	 4.160221771305988e+000
 1.094316498493146e-001	 1.910200056352295e+000	 4.169100930433652e+000
 9.103578670509055e-002	 1.911165093927295e+000	 4.180652961357182e+000
 7.269986439936259e-002	 1.911950386124803e+000	 4.195644499941560e+000
 5.442614413904955e-002	 1.912557812120374e+000	 4.214584196338272e+000
 3.621683333875921e-002	 1.912989279075178e+000	 4.237709591125555e+000
 1.807408547732953e-002	 1.913246720604157e+000	 4.264976920235100e+000
 0.000000000000000e+000	 1.913332095258278e+000	 4.296053958478116e+000
 1.842069646158896e-001	 1.911141231668545e+000	 4.169647280594900e+000
 1.655301743672413e-001	 1.912849358961241e+000	 4.177653935445412e+000
 1.469039221949430e-001	 1.914369883744917e+000	 4.184404188537531e+000
 1.283306907105152e-001	 1.915704563804088e+000	 4.191584036849887e+000
 1.098129096004796e-001	 1.916855191268378e+000	 4.200665968927811e+000
 9.135295528884754e-002	 1.917823591032968e+000	 4.212886645214139e+000
 7.295315064947502e-002	 1.918611619187405e+000	 4.229227130359612e+000
 5.461576476732376e-002	 1.919221161454297e+000	 4.250395868600077e+000
 3.634301274763190e-002	 1.919654131639363e+000	 4.276814562191958e+000
 1.813705557195572e-002	 1.919912470094263e+000	 4.308607081968251e+000
 0.000000000000000e+000	 1.919998142193556e+000	 4.345591522929154e+000
 1.848465145744732e-001	 1.917776541542956e+000	 4.200634521738226e+000
 1.661048801955770e-001	 1.919490599299220e+000	 4.208746037850507e+000
 1.474139593566171e-001	 1.921016403207533e+000	 4.215346923502097e+000
 1.287762432885268e-001	 1.922355717155276e+000	 4.222395888017574e+000
 1.101941701134899e-001	 1.923510339494176e+000	 4.231626794834703e+000
 9.167012450625718e-002	 1.924482101455281e+000	 4.244525004475866e+000
 7.320643740550242e-002	 1.925272865572307e+000	 4.262306362344352e+000
 5.480538577425480e-002	 1.925884524114915e+000	 4.285899027715235e+000
 3.646919240840720e-002	 1.926318997533377e+000	 4.315928308368935e+000
 1.820002579225783e-002	 1.926578232916076e+000	 4.352704633604390e+000
 0.000000000000000e+000	 1.926664202461167e+000	 4.396214781705218e+000
 1.854860659714354e-001	 1.924411866345337e+000	 4.231431514889609e+000
 1.666795873163122e-001	 1.926131854578701e+000	 4.239523647708996e+000
 1.479239976651079e-001	 1.927662937623752e+000	 4.245852850222430e+000
 1.292217968681999e-001	 1.929006885470733e+000	 4.252671833377828e+000
 1.105754314834638e-001	 1.930165502693479e+000	 4.261996847370661e+000
 9.198729443641961e-002	 1.931140626858904e+000	 4.275582632598179e+000
 7.345972473058783e-002	 1.931934126944898e+000	 4.294900110913523e+000
 5.499500720709370e-002	 1.932547901768176e+000	 4.321117018944282e+000
 3.659537235251258e-002	 1.932983878423570e+000	 4.355081652497747e+000
 1.826299615391188e-002	 1.933244010736185e+000	 4.397309858540283e+000
 0.000000000000000e+000	 1.933330277727777e+000	 4.447975394066578e+000
 1.933330277727777e+000	 0.000000000000000e+000	 1.210167572923804e+001
 1.933244010736185e+000	 1.826299615391194e-002	 1.214136892450354e+001
 1.932983878423570e+000	 3.659537235251269e-002	 1.217303107470086e+001
 1.932547901768176e+000	 5.499500720709358e-002	 1.219888300271075e+001
 1.931934126944898e+000	 7.345972473058775e-002	 1.222108565016308e+001
 1.931140626858904e+000	 9.198729443641959e-002	 1.224173392746388e+001
 1.930165502693479e+000	 1.105754314834639e-001	 1.226284993749504e+001
 1.929006885470733e+000	 1.292217968681999e-001	 1.228637557847685e+001
 1.927662937623752e+000	 1.479239976651078e-001	 1.231416453246594e+001
 1.926131854578702e+000	 1.666795873163121e-001	 1.234797365454809e+001
 1.924411866345337e+000	 1.854860659714353e-001	 1.238945378697395e+001
 1.939997367452674e+000	 0.000000000000000e+000	 1.205521883165003e+001
 1.939910802969274e+000	 1.832597609816482e-002	 1.209810506113564e+001
 1.939649773590140e+000	 3.672157149831520e-002	 1.213274026728479e+001
 1.939212293468885e+000	 5.518465749610362e-002	 1.216135405200899e+001
 1.938596402042668e+000	 7.371305060054145e-002	 1.218611063943669e+001
 1.937800165571101e+000	 9.230451263318919e-002	 1.220910252401903e+001
 1.936821678689428e+000	 1.109567508736156e-001	 1.223234347017168e+001
 1.935659065974620e+000	 1.296674182522145e-001	 1.225776086827167e+001
 1.934310483522944e+000	 1.484341135914297e-001	 1.228718745306738e+001
 1.932774120537524e+000	 1.672543818963984e-001	 1.232235239935326e+001
 1.931048200924337e+000	 1.861257146959755e-001	 1.236487181917242e+001
 1.946664462180621e+000	 0.000000000000000e+000	 1.200783677849184e+001
 1.946577600205163e+000	 1.838895608939119e-002	 1.205390089936979e+001
 1.946315673758754e+000	 3.684777073830725e-002	 1.209156083226436e+001
 1.945876690170387e+000	 5.537430792675014e-002	 1.212304507339978e+001
 1.945258682139485e+000	 7.396637665979743e-002	 1.215050894543771e+001
 1.944459709280108e+000	 9.262173106713360e-002	 1.217602799962976e+001
 1.943477859679464e+000	 1.113380705490088e-001	 1.220159074914968e+001
 1.942311251469391e+000	 1.301130399697187e-001	 1.222909073787973e+001
 1.940958034409342e+000	 1.489442298996580e-001	 1.226031795042574e+001
 1.939416391479402e+000	 1.678291769069628e-001	 1.229694957813868e+001
 1.937684540481774e+000	 1.867653638997075e-001	 1.234054016556124e+001
 1.953331550244001e+000	 0.000000000000000e+000	 1.195900093826742e+001
 1.953244390776765e+000	 1.845193601748950e-002	 1.200838693607651e+001
 1.952981567263933e+000	 3.697396985182642e-002	 1.204926039401340e+001
 1.952541080209884e+000	 5.556395816736879e-002	 1.208383888136926e+001
 1.951920955576322e+000	 7.421970246526730e-002	 1.211425671813605e+001
 1.951119246331762e+000	 9.293894918333730e-002	 1.214255808752160e+001
 1.950134034015393e+000	 1.117193898425177e-001	 1.217068946104657e+001
 1.948963430313926e+000	 1.305586612410130e-001	 1.220049134007346e+001
 1.947605578650012e+000	 1.494543456971768e-001	 1.223368931939056e+001
 1.946058655780713e+000	 1.684039713421516e-001	 1.227188448768915e+001
 1.944320873404466e+000	 1.874050124632389e-001	 1.231654318964154e+001
 1.959998619975199e+000	 0.000000000000000e+000	 1.190818838455214e+001
 1.959911163016998e+000	 1.851491577235820e-002	 1.196119757159893e+001
 1.959647442440198e+000	 3.710016861821019e-002	 1.200560895453428e+001
 1.959205451924581e+000	 5.575360788629519e-002	 1.204361941675476e+001
 1.958583210694151e+000	 7.447302757386257e-002	 1.207733025574845e+001
 1.957778765071903e+000	 9.325616642688481e-002	 1.210873996263571e+001
 1.956790190049017e+000	 1.121007080870163e-001	 1.213973629742472e+001
 1.955615590867101e+000	 1.310042812863982e-001	 1.217208766353240e+001
 1.954253104612022e+000	 1.499644600913703e-001	 1.220743378716957e+001
 1.952700901817834e+000	 1.689787641961107e-001	 1.224727571661968e+001
 1.950957188079231e+000	 1.880446592671768e-001	 1.229296516654705e+001
 1.966665659706596e+000	 0.000000000000000e+000	 1.185488180139965e+001
 1.966577905258778e+000	 1.857789524389573e-002	 1.191197104800695e+001
 1.966313287622068e+000	 3.722636681679614e-002	 1.196037885956125e+001
 1.965869793651682e+000	 5.594325675186496e-002	 1.200227173571670e+001
 1.965245435833949e+000	 7.472635154249477e-002	 1.203970601162143e+001
 1.964438253846368e+000	 9.357338224286060e-002	 1.207462026148909e+001
 1.963446316132142e+000	 1.124820246153790e-001	 1.210882698272553e+001
 1.962267721487796e+000	 1.314498993261747e-001	 1.214400356398260e+001
 1.960900600662440e+000	 1.504745721896228e-001	 1.218168254284066e+001
 1.959343117967145e+000	 1.695535544629860e-001	 1.222324116847211e+001
 1.957593472892883e+000	 1.886843031921286e-001	 1.226989029498226e+001
 1.973332657770577e+000	 0.000000000000000e+000	 1.179856939065701e+001
 1.973244605835021e+000	 1.864087432200055e-002	 1.186034938859774e+001
 1.972979091144063e+000	 3.735256422692177e-002	 1.191334476534625e+001
 1.972534093728390e+000	 5.613290443241377e-002	 1.195968199892629e+001
 1.971907619336688e+000	 7.497967392807546e-002	 1.200136060095797e+001
 1.971097701000996e+000	 9.389059607634927e-002	 1.204024510160397e+001
 1.970102400616569e+000	 1.128633387604796e-001	 1.207805630159422e+001
 1.968919810534888e+000	 1.318955145806430e-001	 1.211636179464229e+001
 1.967548055168334e+000	 1.509846810993184e-001	 1.215656576618242e+001
 1.965985292605024e+000	 1.701283411369238e-001	 1.219989808423398e+001
 1.964229716232241e+000	 1.893239431187017e-001	 1.224740270878086e+001
 1.979999602499524e+000	 0.000000000000000e+000	 1.173874478114475e+001
 1.979911253078643e+000	 1.870385289657111e-002	 1.180597833861384e+001
 1.979644841340705e+000	 3.747876062792465e-002	 1.186428360610965e+001
 1.979198340491908e+000	 5.632255059627724e-002	 1.191573746096108e+001
 1.978569749543343e+000	 7.523299428751624e-002	 1.196227080739108e+001
 1.977757094881625e+000	 9.420780737243521e-002	 1.200566010051670e+001
 1.976758431854105e+000	 1.132446498551925e-001	 1.204751812560992e+001
 1.975571846367256e+000	 1.323411262701039e-001	 1.208928403599131e+001
 1.974195456496769e+000	 1.514947859278415e-001	 1.213221265583803e+001
 1.972627414107849e+000	 1.707031232120700e-001	 1.217736306429346e+001
 1.970865906484120e+000	 1.899635779275032e-001	 1.222558648809156e+001
 1.986666482225822e+000	 0.000000000000000e+000	 1.167490693965826e+001
 1.986577835322561e+000	 1.876683085750586e-002	 1.174850730715109e+001
 1.986310526546514e+000	 3.760495579914228e-002	 1.181297456214197e+001
 1.985862522279442e+000	 5.651219491179096e-002	 1.187032645990522e+001
 1.985231814794886e+000	 7.548631217772855e-002	 1.192241358940750e+001
 1.984416423834092e+000	 9.452501557620295e-002	 1.197091039437425e+001
 1.983414398196552e+000	 1.136259572323918e-001	 1.201730543943233e+001
 1.982223817343778e+000	 1.327867336148577e-001	 1.206289092487802e+001
 1.980842793014816e+000	 1.520048857825762e-001	 1.210875145682719e+001
 1.979269470851998e+000	 1.712778996825705e-001	 1.215575208984160e+001
 1.977502032035339e+000	 1.906032064991406e-001	 1.220452567020010e+001
 1.993333285281853e+000	 0.000000000000000e+000	 1.160656008375006e+001
 1.993244340899691e+000	 1.882980809470324e-002	 1.168758931022807e+001
 1.992976135096009e+000	 3.773114951991224e-002	 1.175919902854056e+001
 1.992526627428193e+000	 5.670183704729064e-002	 1.182333840714831e+001
 1.991893803432292e+000	 7.573962715562399e-002	 1.188176608662458e+001
 1.991075676204236e+000	 9.484222013273701e-002	 1.193604065612821e+001
 1.990070287995715e+000	 1.140072602249516e-001	 1.198751036637968e+001
 1.988875711823331e+000	 1.332323358352051e-001	 1.203730208297900e+001
 1.987490053089539e+000	 1.525149797709067e-001	 1.208630948742127e+001
 1.985911451213851e+000	 1.718526695425716e-001	 1.213518054373483e+001
 1.984138081272714e+000	 1.912428277142212e-001	 1.218430425999487e+001
 2.000000000000000e+000	 0.000000000000000e+000	 1.153321359625145e+001
 1.999910758142949e+000	 1.889278449806171e-002	 1.162288091499169e+001
 1.999641655323712e+000	 3.785734156957202e-002	 1.170274058456663e+001
 1.999190644275366e+000	 5.689147667111187e-002	 1.177466377737859e+001
 1.998555703796535e+000	 7.599293877811417e-002	 1.184030562592276e+001
 1.997734840337895e+000	 9.515942048712189e-002	 1.190109511333396e+001
 1.996726089603397e+000	 1.143885581657462e-001	 1.195822419344861e+001
 1.995527518164795e+000	 1.336779321514466e-001	 1.201263614462452e+001
 1.994137225088007e+000	 1.530250670002173e-001	 1.206501316539409e+001
 1.992553343569784e+000	 1.724274317862191e-001	 1.211576323082917e+001
 1.990774042583062e+000	 1.918824404533523e-001	 1.216500624008440e+001
 1.924411866345337e+000	 1.854860659714353e-001	 1.238945378697395e+001
 1.922501540134042e+000	 2.043380559406118e-001	 1.243326265415523e+001
 1.920398937179060e+000	 2.232358038488349e-001	 1.247352822357736e+001
 1.918102401848856e+000	 2.421766950293987e-001	 1.251093412565717e+001
 1.915610319394058e+000	 2.611580646121946e-001	 1.254606797356020e+001
 1.912921117535318e+000	 2.801771981265868e-001	 1.257941217879001e+001
 1.910033268048593e+000	 2.992313321576312e-001	 1.261133453289609e+001
 1.906945288345930e+000	 3.183176550561437e-001	 1.264207865126508e+001
 1.903655743049810e+000	 3.374333077030550e-001	 1.267175438672909e+001
 1.900163245559078e+000	 3.565753843284157e-001	 1.270032833246286e+001
 1.896466459604412e+000	 3.757409333853379e-001	 1.272761454522282e+001
 1.931048200924337e+000	 1.861257146959755e-001	 1.236487181917242e+001
 1.929131286952813e+000	 2.050427157553048e-001	 1.240961940152999e+001
 1.927021433171348e+000	 2.240056325498700e-001	 1.245094876851936e+001
 1.924716978238935e+000	 2.430118413962970e-001	 1.248952038516988e+001
 1.922216301837717e+000	 2.620586682346834e-001	 1.252590246915446e+001
 1.919517826266314e+000	 2.811433892335523e-001	 1.256056164320570e+001
 1.916620018030578e+000	 3.002632314483342e-001	 1.259385332251459e+001
 1.913521389429823e+000	 3.194153735338842e-001	 1.262601193415575e+001
 1.910220500136607e+000	 3.385969465114715e-001	 1.265714107767700e+001
 1.906715958768053e+000	 3.578050345906109e-001	 1.268720374805767e+001
 1.903006424446688e+000	 3.770366760460168e-001	 1.271601275415662e+001
 1.937684540481774e+000	 1.867653638997075e-001	 1.234054016556124e+001
 1.935761038744943e+000	 2.057473760980256e-001	 1.238621338985758e+001
 1.933643934131447e+000	 2.247754618278888e-001	 1.242860032576759e+001
 1.931331559590807e+000	 2.438469883892481e-001	 1.246833684569993e+001
 1.928822289236666e+000	 2.629592725323993e-001	 1.250597123816503e+001
 1.926114539945610e+000	 2.821095810650167e-001	 1.254195471209211e+001
 1.923206772953378e+000	 3.012951315128971e-001	 1.257663160328302e+001
 1.920097495446545e+000	 3.205130928349259e-001	 1.261022938107439e+001
 1.916785262147738e+000	 3.397605861927041e-001	 1.264284856570495e+001
 1.913268676892355e+000	 3.590346857752013e-001	 1.267445267928568e+001
 1.909546394194761e+000	 3.783324196787251e-001	 1.270485836553191e+001
 1.944320873404466e+000	 1.874050124632389e-001	 1.231654318964154e+001
 1.942390783908820e+000	 2.064520357355793e-001	 1.236308675913356e+001
 1.940266428470466e+000	 2.255452903356298e-001	 1.240648903822418e+001
 1.937946134329452e+000	 2.446821345466726e-001	 1.244735992671421e+001
 1.935428270030934e+000	 2.638598759292083e-001	 1.248622729552731e+001
 1.932711247029466e+000	 2.830757719300687e-001	 1.252352735779390e+001
 1.929793521290675e+000	 3.023270305454238e-001	 1.255959470750303e+001
 1.926673594888409e+000	 3.216108110381967e-001	 1.259465212477010e+001
 1.923350017595366e+000	 3.409242247103263e-001	 1.262880025952975e+001
 1.919821388465220e+000	 3.602643357302445e-001	 1.266200731820973e+001
 1.916086357404184e+000	 3.796281620158600e-001	 1.269409889055017e+001
 1.950957188079231e+000	 1.880446592671768e-001	 1.229296516654705e+001
 1.949020510842833e+000	 2.071566934347714e-001	 1.234028225566159e+001
 1.946888904599510e+000	 2.263151167258317e-001	 1.238462224125366e+001
 1.944560690879855e+000	 2.455172784069913e-001	 1.242656771775916e+001
 1.942034232660551e+000	 2.647604768489764e-001	 1.246662569544305e+001
 1.939307935974137e+000	 2.840419601377974e-001	 1.250521785290898e+001
 1.936380251516154e+000	 3.033589267400191e-001	 1.254267042087167e+001
 1.933249676247729e+000	 3.227085262226244e-001	 1.257920379716395e+001
 1.929914754991652e+000	 3.420878600279121e-001	 1.261492200605757e+001
 1.926374082019887e+000	 3.614939823037993e-001	 1.264980212807154e+001
 1.922626302630512e+000	 3.809239007898189e-001	 1.268368383940983e+001
 1.957593472892883e+000	 1.886843031921286e-001	 1.226989029498226e+001
 1.955650207945371e+000	 2.078613479624075e-001	 1.231784323124344e+001
 1.953511350929684e+000	 2.270849396512331e-001	 1.236300845065351e+001
 1.951175217666995e+000	 2.463524185086249e-001	 1.240593995675011e+001
 1.948640165565545e+000	 2.656610737155694e-001	 1.244712350153402e+001
 1.945904595235886e+000	 2.850081439972916e-001	 1.248696673385858e+001
 1.942966952103496e+000	 3.043908182907876e-001	 1.252578894102469e+001
 1.939825728016818e+000	 3.238062364671364e-001	 1.256381048442860e+001
 1.936479462848755e+000	 3.432514901090352e-001	 1.260114204356458e+001
 1.932926746089595e+000	 3.627236233439242e-001	 1.263777379613984e+001
 1.929166218429299e+000	 3.822196337329991e-001	 1.267356467539043e+001
 1.964229716232241e+000	 1.893239431187017e-001	 1.224740270878086e+001
 1.962279863614822e+000	 2.085659980852931e-001	 1.229581364221517e+001
 1.960133755872096e+000	 2.278547577645727e-001	 1.234165735066715e+001
 1.957789703115855e+000	 2.471875533899939e-001	 1.238545800846720e+001
 1.955246057185943e+000	 2.665616649528533e-001	 1.242767975733501e+001
 1.952501213270967e+000	 2.859743218176405e-001	 1.246871676489758e+001
 1.949553611526384e+000	 3.054227033918336e-001	 1.250888283659062e+001
 1.946401738687989e+000	 3.249039398506607e-001	 1.254840068261494e+001
 1.943044129678839e+000	 3.444151129172695e-001	 1.258739095542949e+001
 1.939479369207581e+000	 3.639532566986775e-001	 1.262586118708514e+001
 1.935706093356100e+000	 3.835153585777981e-001	 1.266369476940537e+001
 1.970865906484120e+000	 1.899635779275032e-001	 1.222558648809156e+001
 1.968909466249573e+000	 2.092706425702335e-001	 1.227423804833363e+001
 1.966756107837849e+000	 2.286245697185889e-001	 1.232057978203828e+001
 1.964404135651418e+000	 2.480226815895192e-001	 1.236510484325355e+001
 1.961851895961775e+000	 2.674622489846945e-001	 1.240825545711882e+001
 1.959097778535640e+000	 2.869404919079331e-001	 1.245041290255566e+001
 1.956140218258501e+000	 3.064545802372620e-001	 1.249188700674234e+001
 1.952977696753554e+000	 3.260016344521250e-001	 1.253290525381374e+001
 1.949608743994064e+000	 3.455787264161886e-001	 1.257360162440760e+001
 1.946031939907083e+000	 3.651828802161176e-001	 1.261400529686923e+001
 1.942245915966470e+000	 3.848110730566133e-001	 1.265402935501253e+001
 1.977502032035339e+000	 1.906032064991406e-001	 1.220452567020010e+001
 1.975539004248015e+000	 2.099752801840344e-001	 1.225316161151610e+001
 1.973378395238052e+000	 2.293943741660205e-001	 1.229978773010558e+001
 1.971018503698665e+000	 2.488578016456213e-001	 1.234486501591086e+001
 1.968457670333070e+000	 2.683628242349581e-001	 1.238881351704514e+001
 1.965694279486164e+000	 2.879066525772582e-001	 1.243200226049923e+001
 1.962726760773528e+000	 3.074864470211772e-001	 1.247473864123621e+001
 1.959553590705827e+000	 3.270993183504568e-001	 1.251725738284051e+001
 1.956173294306592e+000	 3.467423285693666e-001	 1.255970918743260e+001
 1.952584446721340e+000	 3.664124917443030e-001	 1.260214920713878e+001
 1.948785674815963e+000	 3.861067749018420e-001	 1.264452548387413e+001
 1.984138081272714e+000	 1.912428277142212e-001	 1.218430425999487e+001
 1.982168466008534e+000	 2.106799096935011e-001	 1.223263009443569e+001
 1.980000606483809e+000	 2.301641697596058e-001	 1.227929431293605e+001
 1.977632795682577e+000	 2.496929120967210e-001	 1.232472464478693e+001
 1.975063368739857e+000	 2.692633891275107e-001	 1.236931874662681e+001
 1.972290704578797e+000	 2.888728021347050e-001	 1.241343407480433e+001
 1.969313227545150e+000	 3.085183019376837e-001	 1.245737718092724e+001
 1.966129409037122e+000	 3.281969896245840e-001	 1.250139253443140e+001
 1.962737769128583e+000	 3.479059173403772e-001	 1.254565099093601e+001
 1.959136878183591e+000	 3.676420891312922e-001	 1.259023804011163e+001
 1.955325358460134e+000	 3.874024618458816e-001	 1.263514198165557e+001
 1.990774042583062e+000	 1.918824404533523e-001	 1.216500624008440e+001
 1.988797839929520e+000	 2.113845298654391e-001	 1.221268985897551e+001
 1.986622729986227e+000	 2.309339551520839e-001	 1.225911376949643e+001
 1.984247000028138e+000	 2.505280114812390e-001	 1.230467139105186e+001
 1.981668979622164e+000	 2.701639420862183e-001	 1.234973782050385e+001
 1.978887042269796e+000	 2.898389388893622e-001	 1.239465966963180e+001
 1.975899607047047e+000	 3.095501431808861e-001	 1.243974427874979e+001
 1.972705140239751e+000	 3.292946463534344e-001	 1.248524841093975e+001
 1.969302156972200e+000	 3.490694906927942e-001	 1.253136654667213e+001
 1.965689222827072e+000	 3.688716702251433e-001	 1.257821891394627e+001
 1.961864955454538e+000	 3.886981316211295e-001	 1.262583940435470e+001
 1.896466459604412e+000	 3.757409333853379e-001	 1.272761454522282e+001
 1.892563500168320e+000	 3.949298373126922e-001	 1.275559338357383e+001
 1.888453676301606e+000	 4.141361773022581e-001	 1.278642771850779e+001
 1.884135813088218e+000	 4.333568642990193e-001	 1.281995413961368e+001
 1.879608792083759e+000	 4.525887673990907e-001	 1.285581180152560e+001
 1.874871552788905e+000	 4.718287150019048e-001	 1.289343548237079e+001
 1.869923094099525e+000	 4.910734960175069e-001	 1.293204986590015e+001
 1.864762475731302e+000	 5.103198611286467e-001	 1.297066524695275e+001
 1.859388819616633e+000	 5.295645241072586e-001	 1.300807486570020e+001
 1.853801311271564e+000	 5.488041631848249e-001	 1.304285408055945e+001
 1.847999201130549e+000	 5.680354224760175e-001	 1.307336159261526e+001
 1.903006424446688e+000	 3.770366760460168e-001	 1.271601275415662e+001
 1.899090005654519e+000	 3.962917529111596e-001	 1.274547854885899e+001
 1.894966009059619e+000	 4.155643259668070e-001	 1.277770817442191e+001
 1.890633255694253e+000	 4.348512955053325e-001	 1.281255781835203e+001
 1.886090623257090e+000	 4.541495198259258e-001	 1.284968244484590e+001
 1.881337047591688e+000	 4.734558163907507e-001	 1.288852833272785e+001
 1.876371524141627e+000	 4.927669630364044e-001	 1.292832683665660e+001
 1.871193109380035e+000	 5.120796992403628e-001	 1.296808957595155e+001
 1.865800922211312e+000	 5.313907274419983e-001	 1.300660526145065e+001
 1.860194145342777e+000	 5.506967144176710e-001	 1.304243837549465e+001
 1.854372026624021e+000	 5.699942927092772e-001	 1.307392992329875e+001
 1.909546394194761e+000	 3.783324196787251e-001	 1.270485836553191e+001
 1.905616516036455e+000	 3.976536695313453e-001	 1.273588946262678e+001
 1.901478346702779e+000	 4.169924757028027e-001	 1.276957818372376e+001
 1.897130703174315e+000	 4.363457278328529e-001	 1.280580261773255e+001
 1.892572459292788e+000	 4.557102734237521e-001	 1.284423569157389e+001
 1.887802547244642e+000	 4.750829190003875e-001	 1.288433716921598e+001
 1.882819959021162e+000	 4.944604313259012e-001	 1.292534687325182e+001
 1.877623747852923e+000	 5.138395386724858e-001	 1.296627933816288e+001
 1.872213029616325e+000	 5.332169321469448e-001	 1.300592011074832e+001
 1.866586984209952e+000	 5.525892670705059e-001	 1.304282391812836e+001
 1.860744856898537e+000	 5.719531644122836e-001	 1.307531492711530e+001
 1.916086357404184e+000	 3.796281620158600e-001	 1.269409889055017e+001
 1.912143019893252e+000	 3.990155847898394e-001	 1.272679129538448e+001
 1.907990677835036e+000	 4.184206240109177e-001	 1.276201872415529e+001
 1.903628144158436e+000	 4.378401586662455e-001	 1.279968351194172e+001
 1.899054288848237e+000	 4.572710254611572e-001	 1.283947874555594e+001
 1.894268040433766e+000	 4.767100199832762e-001	 1.288087970506443e+001
 1.889268387454018e+000	 4.961538979223016e-001	 1.292313652679424e+001
 1.884054379897014e+000	 5.155993763451566e-001	 1.296526830186113e+001
 1.878625130611152e+000	 5.350431350260875e-001	 1.300605883086729e+001
 1.872979816686288e+000	 5.544818178312048e-001	 1.304405426059994e+001
 1.867117680802294e+000	 5.739120341568522e-001	 1.307756283217136e+001
 1.922626302630512e+000	 3.809239007898189e-001	 1.268368383940983e+001
 1.918669505804034e+000	 4.003774963032317e-001	 1.271815089766555e+001
 1.914502991060339e+000	 4.198487683918247e-001	 1.275501214612283e+001
 1.910125567276648e+000	 4.393345853901751e-001	 1.279419655291419e+001
 1.905536100580816e+000	 4.588317732067282e-001	 1.283541960676257e+001
 1.900733515845056e+000	 4.783371164918771e-001	 1.287817418214839e+001
 1.895716798156077e+000	 4.978473598619106e-001	 1.292172262456405e+001
 1.890484994259351e+000	 5.173592091785162e-001	 1.296509027488106e+001
 1.885037213975278e+000	 5.368693328834175e-001	 1.300706065874962e+001
 1.879372631584984e+000	 5.563743633876412e-001	 1.304617257239380e+001
 1.873490487183485e+000	 5.758708985147968e-001	 1.308071930000625e+001
 1.929166218429299e+000	 3.822196337329991e-001	 1.267356467539043e+001
 1.925195962347924e+000	 4.017394016881122e-001	 1.270993675594238e+001
 1.921015274982634e+000	 4.212769063461962e-001	 1.274854213005516e+001
 1.916622961158985e+000	 4.408290053893066e-001	 1.278933882875647e+001
 1.912017883147906e+000	 4.603925139290530e-001	 1.283206703040157e+001
 1.907198962164510e+000	 4.799642056786505e-001	 1.287623933041920e+001
 1.902165179843225e+000	 4.995408141810327e-001	 1.292113222939185e+001
 1.896915579686980e+000	 5.191190340927052e-001	 1.296577906358093e+001
 1.891449268488183e+000	 5.386955225229246e-001	 1.300896460919405e+001
 1.885765417719239e+000	 5.582669004276901e-001	 1.304922159740020e+001
 1.879863264890306e+000	 5.778297540579320e-001	 1.308482938117687e+001
 1.935706093356100e+000	 3.835153585777981e-001	 1.266369476940537e+001
 1.931722378104047e+000	 4.031012985610708e-001	 1.270211894893607e+001
 1.927527518205872e+000	 4.227050353747045e-001	 1.274259364409572e+001
 1.923120314435480e+000	 4.423234160483052e-001	 1.278510842244834e+001
 1.918499625206888e+000	 4.619532448967189e-001	 1.282943048625877e+001
 1.913664368078124e+000	 4.815912846960572e-001	 1.287509432751889e+001
 1.908613521231345e+000	 5.012342579159725e-001	 1.292139259918549e+001
 1.903346124926945e+000	 5.208788480078646e-001	 1.296736843192442e+001
 1.897861282929353e+000	 5.405217007485994e-001	 1.301180943314079e+001
 1.892158163902252e+000	 5.601594256392254e-001	 1.305324361105603e+001
 1.886236002770952e+000	 5.797885973580729e-001	 1.308993747091359e+001
 1.942245915966470e+000	 3.848110730566133e-001	 1.265402935501253e+001
 1.938248741651528e+000	 4.044631845386976e-001	 1.269466910431643e+001
 1.934039709333999e+000	 4.241331529780222e-001	 1.273715290212181e+001
 1.929617615736164e+000	 4.438178147518357e-001	 1.278150437081590e+001
 1.924981315415146e+000	 4.635139633783134e-001	 1.282752011826249e+001
 1.920129722271896e+000	 4.832183506965573e-001	 1.287475875857655e+001
 1.915061811036321e+000	 5.029276881030343e-001	 1.292253114660343e+001
 1.909776618726292e+000	 5.226386478441352e-001	 1.296989206068074e+001
 1.904273246078267e+000	 5.423478643644319e-001	 1.301563357605293e+001
 1.898550858947221e+000	 5.620519357101217e-001	 1.305828037756698e+001
 1.892608689673620e+000	 5.817474249870338e-001	 1.309608726484847e+001
 1.948785674815963e+000	 3.861067749018420e-001	 1.264452548387413e+001
 1.944775041569488e+000	 4.058250572375823e-001	 1.268756035578327e+001
 1.940551836970966e+000	 4.255612566568219e-001	 1.273220732208572e+001
 1.936114853691072e+000	 4.453121988845630e-001	 1.277852662377250e+001
 1.931462942430058e+000	 4.650746666424240e-001	 1.282634670426810e+001
 1.926595013431823e+000	 4.848454008326115e-001	 1.287525257618451e+001
 1.921510037974037e+000	 5.046211017785234e-001	 1.292457539887388e+001
 1.916207049832067e+000	 5.243984305216578e-001	 1.297338350674275e+001
 1.910685146714410e+000	 5.441740101744127e-001	 1.302047513639458e+001
 1.904943491667344e+000	 5.639444273282532e-001	 1.306437310721218e+001
 1.898981314446504e+000	 5.837062335166293e-001	 1.310332171481818e+001
 1.955325358460134e+000	 3.874024618458816e-001	 1.263514198165557e+001
 1.951301266437051e+000	 4.071869142743148e-001	 1.268076730052198e+001
 1.947063889720720e+000	 4.269893439117760e-001	 1.272774548467083e+001
 1.942612016930235e+000	 4.468065658311523e-001	 1.277617600382276e+001
 1.937944494909006e+000	 4.666353519576381e-001	 1.282592161606000e+001
 1.933060230243902e+000	 4.864724322566804e-001	 1.287659606055192e+001
 1.927958190760378e+000	 5.063144959787437e-001	 1.292755295775848e+001
 1.922637406991314e+000	 5.261581929605732e-001	 1.297787616256325e+001
 1.917096973617263e+000	 5.460001349825318e-001	 1.302637182420665e+001
 1.911336050875822e+000	 5.658368971814942e-001	 1.307156241373220e+001
 1.905353865937798e+000	 5.856650195186739e-001	 1.311168298474230e+001
 1.961864955454538e+000	 3.886981316211295e-001	 1.262583940435470e+001
 1.957827404833344e+000	 4.085487532654855e-001	 1.267426595702549e+001
 1.953575856187211e+000	 4.284174122435571e-001	 1.272375709225748e+001
 1.949109094083688e+000	 4.483009129762684e-001	 1.277445416582483e+001
 1.944425961509372e+000	 4.681960165925432e-001	 1.282625677956713e+001
 1.939525361394130e+000	 4.880994421212243e-001	 1.287880977983389e+001
 1.934406258111227e+000	 5.080078677400004e-001	 1.293149145965937e+001
 1.929067678951077e+000	 5.279179320810223e-001	 1.298340321570846e+001
 1.923508715566310e+000	 5.478262355927795e-001	 1.303336091978099e+001
 1.917728525385851e+000	 5.677293419577193e-001	 1.307988827180188e+001
 1.911726332995700e+000	 5.876237795649825e-001	 1.312121240657912e+001
 1.847999201130549e+000	 5.680354224760175e-001	 1.307336159261526e+001
 1.841981805384595e+000	 5.872549131734429e-001	 1.309821182819847e+001
 1.835748505856336e+000	 6.064592142033818e-001	 1.311587782501228e+001
 1.829298752609273e+000	 6.256448746004242e-001	 1.312418788312135e+001
 1.822632065596483e+000	 6.448084154108978e-001	 1.312076937759575e+001
 1.815748035804696e+000	 6.639463313706805e-001	 1.310306301767578e+001
 1.808646326353042e+000	 6.830550926306998e-001	 1.307704093933510e+001
 1.801326673544389e+000	 7.021311465288183e-001	 1.305640244898444e+001
 1.793788887867155e+000	 7.211709194066933e-001	 1.304151681209621e+001
 1.786032854945589e+000	 7.401708184701011e-001	 1.303244746982770e+001
 1.778058536436490e+000	 7.591272336911190e-001	 1.302918636377985e+001
 1.854372026624021e+000	 5.699942927092772e-001	 1.307392992329875e+001
 1.848333879887951e+000	 5.892800618231178e-001	 1.309961224199688e+001
 1.842079084825410e+000	 6.085505888878965e-001	 1.311785953392741e+001
 1.835607089603429e+000	 6.278024110375446e-001	 1.312644581683905e+001
 1.828917412519633e+000	 6.470320373212148e-001	 1.312293583090938e+001
 1.822009643150254e+000	 6.662359503868776e-001	 1.310469903381924e+001
 1.814883443452677e+000	 6.854106082127709e-001	 1.308007224100254e+001
 1.807538548820397e+000	 7.045524458853990e-001	 1.306039151973543e+001
 1.799974769088290e+000	 7.236578774226530e-001	 1.304575903648506e+001
 1.792191989486165e+000	 7.427232976405553e-001	 1.303619887279132e+001
 1.784190171538583e+000	 7.617450840619972e-001	 1.303166286737400e+001
 1.860744856898537e+000	 5.719531644122836e-001	 1.307531492711530e+001
 1.854685959156884e+000	 5.913052119922639e-001	 1.310184488825623e+001
 1.848409668544039e+000	 6.106419651415646e-001	 1.312069087046139e+001
 1.841915431330562e+000	 6.299599490934507e-001	 1.312957342016719e+001
 1.835202764158619e+000	 6.492556608998898e-001	 1.312599525875344e+001
 1.828271255193945e+000	 6.685255711209363e-001	 1.310735414759916e+001
 1.821120565232174e+000	 6.877661255621314e-001	 1.308428264676346e+001
 1.813750428757426e+000	 7.069737470586097e-001	 1.306549422856418e+001
 1.806160654951032e+000	 7.261448373044901e-001	 1.305104518235303e+001
 1.798351128648357e+000	 7.452757787260291e-001	 1.304091924485661e+001
 1.790321811241721e+000	 7.643629363969243e-001	 1.303502711375020e+001
 1.867117680802294e+000	 5.739120341568522e-001	 1.307756283217136e+001
 1.861038032075868e+000	 5.933303601367139e-001	 1.310495778337963e+001
 1.854740245934266e+000	 6.127333393043351e-001	 1.312442132038048e+001
 1.848223766751578e+000	 6.321174849923246e-001	 1.313362138101726e+001
 1.841488109514515e+000	 6.514792822554775e-001	 1.312999933474574e+001
 1.834532860978315e+000	 6.708151895659438e-001	 1.311127431520713e+001
 1.827357680776868e+000	 6.901216405565783e-001	 1.308970041266110e+001
 1.819962302484917e+000	 7.093950458111605e-001	 1.307173659550237e+001
 1.812346534630249e+000	 7.286317947000452e-001	 1.305739879810553e+001
 1.804510261653793e+000	 7.478282572597389e-001	 1.304662941726592e+001
 1.796453444815625e+000	 7.669807861147554e-001	 1.303929696214886e+001
 1.873490487183485e+000	 5.758708985147968e-001	 1.308071930000625e+001
 1.867390087529377e+000	 5.953555027123006e-001	 1.310899820552095e+001
 1.861070805918133e+000	 6.148247077161561e-001	 1.312909946559832e+001
 1.854532084827383e+000	 6.342750149583490e-001	 1.313863932479467e+001
 1.847773437588392e+000	 6.537028974965337e-001	 1.313499851915605e+001
 1.840794449545912e+000	 6.731048017149862e-001	 1.311649456656644e+001
 1.833594779172092e+000	 6.924771490739101e-001	 1.309635211134262e+001
 1.826174159132310e+000	 7.118163379057594e-001	 1.307914297818548e+001
 1.818532397300815e+000	 7.311187452571608e-001	 1.306484179702714e+001
 1.810669377724103e+000	 7.503807287749005e-001	 1.305334861939120e+001
 1.802585061530014e+000	 7.695986286343437e-001	 1.304448870886257e+001
 1.879863264890306e+000	 5.778297540579320e-001	 1.308482938117687e+001
 1.873742114401887e+000	 5.973806361748562e-001	 1.311401264847060e+001
 1.867401337417683e+000	 6.169160667169766e-001	 1.313477293626491e+001
 1.860840374518883e+000	 6.364325352157069e-001	 1.314467576459845e+001
 1.854058737381323e+000	 6.559265027316127e-001	 1.314104200712950e+001
 1.847056009939280e+000	 6.753944035611510e-001	 1.312304178890805e+001
 1.839831849503180e+000	 6.948326469919245e-001	 1.310426264880803e+001
 1.832385987829046e+000	 7.142376191051162e-001	 1.308773608925671e+001
 1.824718232137600e+000	 7.336056846236778e-001	 1.307339447522995e+001
 1.816828466080916e+000	 7.529331888047299e-001	 1.306109449711507e+001
 1.808716650654608e+000	 7.722164593745430e-001	 1.305061710593772e+001
 1.886236002770952e+000	 5.797885973580729e-001	 1.308993747091359e+001
 1.880094101577871e+000	 5.994057569802134e-001	 1.312004677560781e+001
 1.873731829354958e+000	 6.190074126467445e-001	 1.314148836291892e+001
 1.867148624786985e+000	 6.385900419885805e-001	 1.315177805148313e+001
 1.860343997894379e+000	 6.581500940692703e-001	 1.314817767697333e+001
 1.853317531200968e+000	 6.776839910975244e-001	 1.313094120368188e+001
 1.846068880855466e+000	 6.971881301884189e-001	 1.311345528123122e+001
 1.838597777704565e+000	 7.166588851719399e-001	 1.309753701384374e+001
 1.830904028315475e+000	 7.360926084474380e-001	 1.308307552967758e+001
 1.822987515945862e+000	 7.554856328824438e-001	 1.306988313129254e+001
 1.814848201459126e+000	 7.748342737542070e-001	 1.305769537996335e+001
 1.892608689673620e+000	 5.817474249870338e-001	 1.309608726484847e+001
 1.886446037941803e+000	 6.014308615842047e-001	 1.312714537392090e+001
 1.880062270652001e+000	 6.210987418454090e-001	 1.314929132870596e+001
 1.873456824592595e+000	 6.407475315011525e-001	 1.315999232478584e+001
 1.866629208128634e+000	 6.603736676180615e-001	 1.315645203850965e+001
 1.859579002373519e+000	 6.799735603171935e-001	 1.314021638268611e+001
 1.852305862314284e+000	 6.995435945411912e-001	 1.312395163185152e+001
 1.844809517888308e+000	 7.190801318689394e-001	 1.310856522710723e+001
 1.837089775009311e+000	 7.385795123762833e-001	 1.309390207628353e+001
 1.829146516540569e+000	 7.580380565412579e-001	 1.307972905629137e+001
 1.820979703213291e+000	 7.774520671921900e-001	 1.306573525094484e+001
 1.898981314446504e+000	 5.837062335166293e-001	 1.310332171481818e+001
 1.892797912378158e+000	 6.034559464426624e-001	 1.313535230809817e+001
 1.886392650230855e+000	 6.231900506529178e-001	 1.315822632166449e+001
 1.879764962896621e+000	 6.429049999776058e-001	 1.316936346252079e+001
 1.872914357085160e+000	 6.625972194865417e-001	 1.316591018149715e+001
 1.865840412499481e+000	 6.822631072132447e-001	 1.315088926426598e+001
 1.858542782964969e+000	 7.018990359280392e-001	 1.313577170793452e+001
 1.851021197509714e+000	 7.215013549588242e-001	 1.312083861185912e+001
 1.843275461393978e+000	 7.410663920580548e-001	 1.310588966808207e+001
 1.835305457086669e+000	 7.605904553143885e-001	 1.309064527860951e+001
 1.827111145186820e+000	 7.800698351073454e-001	 1.307474695126099e+001
 1.905353865937798e+000	 5.856650195186739e-001	 1.311168298474230e+001
 1.899149713771413e+000	 6.054810080114197e-001	 1.314471047469024e+001
 1.892722957013562e+000	 6.252813354092200e-001	 1.316833668708206e+001
 1.886073028659967e+000	 6.450624436421223e-001	 1.317993503184378e+001
 1.879199433765028e+000	 6.648207457832659e-001	 1.317659572412438e+001
 1.872101750621401e+000	 6.845526277787645e-001	 1.316298016958195e+001
 1.864779631892853e+000	 7.042544502267606e-001	 1.314893391780056e+001
 1.857232805698227e+000	 7.239225502043032e-001	 1.313437347624960e+001
 1.849461076644348e+000	 7.435532431405942e-001	 1.311905231347023e+001
 1.841464326805790e+000	 7.631428247350516e-001	 1.310264329556766e+001
 1.833242516649435e+000	 7.826875729185272e-001	 1.308473924470201e+001
 1.911726332995700e+000	 5.876237795649825e-001	 1.312121240657912e+001
 1.905501431006039e+000	 6.075060427463086e-001	 1.315526175634696e+001
 1.899053179922165e+000	 6.273725924542639e-001	 1.317966457992397e+001
 1.892381010843542e+000	 6.472198587188855e-001	 1.319174923958934e+001
 1.885484427169312e+000	 6.670442426167896e-001	 1.318855346078467e+001
 1.878363005781824e+000	 6.868421180068403e-001	 1.317650781894505e+001
 1.871016398183272e+000	 7.066098333151537e-001	 1.316345508791976e+001
 1.863444331583285e+000	 7.263437133680856e-001	 1.314918457152126e+001
 1.855646609935292e+000	 7.460400612717433e-001	 1.313340249451917e+001
 1.847623114919561e+000	 7.656951603364637e-001	 1.311573311407549e+001
 1.839373806870855e+000	 7.853052760445893e-001	 1.309571944558689e+001
 1.778058536436490e+000	 7.591272336911190e-001	 1.302918636377985e+001
 1.769867216285273e+000	 7.780337073685373e-001	 1.302622603527125e+001
 1.761457832055922e+000	 7.968894499849266e-001	 1.301807201353961e+001
 1.752830579594108e+000	 8.156908142598141e-001	 1.300472980182910e+001
 1.743985733737606e+000	 8.344341437159465e-001	 1.298626837948949e+001
 1.734923648915190e+000	 8.531157747611763e-001	 1.296281861202065e+001
 1.725644759681382e+000	 8.717320388004651e-001	 1.293457085136455e+001
 1.716149581185522e+000	 8.902792643757621e-001	 1.290177169271398e+001
 1.706438709573752e+000	 9.087537793314253e-001	 1.286471985980571e+001
 1.696512822322570e+000	 9.271519130027890e-001	 1.282376119690322e+001
 1.686372678502719e+000	 9.454699984254018e-001	 1.277928275241925e+001
 1.784190171538583e+000	 7.617450840619972e-001	 1.303166286737400e+001
 1.775970603618635e+000	 7.807167567163823e-001	 1.302711605128472e+001
 1.767532219626498e+000	 7.996375233636357e-001	 1.301754519722275e+001
 1.758875216083226e+000	 8.185037241456411e-001	 1.300293029218576e+001
 1.749999868774379e+000	 8.373116899757885e-001	 1.298331645504054e+001
 1.740906533350988e+000	 8.560577446280370e-001	 1.295881243061031e+001
 1.731595645866143e+000	 8.747382068562040e-001	 1.292958825667348e+001
 1.722067723245688e+000	 8.933493925412196e-001	 1.289587206883114e+001
 1.712323363691582e+000	 9.118876168640174e-001	 1.285794601400466e+001
 1.702363247016608e+000	 9.303491965016510e-001	 1.281614124968416e+001
 1.692188134909175e+000	 9.487304518441456e-001	 1.277083201292779e+001
 1.790321811241721e+000	 7.643629363969243e-001	 1.303502711375020e+001
 1.782073995531895e+000	 7.833998080771781e-001	 1.302881238538996e+001
 1.773606611755243e+000	 8.023855988040650e-001	 1.301774941276893e+001
 1.764919857108205e+000	 8.213166361418183e-001	 1.300179201958603e+001
 1.756014008324126e+000	 8.401892383944618e-001	 1.298096081777085e+001
 1.746889422276294e+000	 8.589997167020528e-001	 1.295534178877015e+001
 1.737546536516372e+000	 8.777443771672542e-001	 1.292508402016165e+001
 1.727985869746704e+000	 8.964195230099687e-001	 1.289039656120939e+001
 1.718208022225071e+000	 9.150214567476976e-001	 1.285154436688728e+001
 1.708213676100544e+000	 9.335464823992025e-001	 1.280884330637904e+001
 1.698003595679197e+000	 9.519909077089775e-001	 1.276265421907920e+001
 1.796453444815625e+000	 7.669807861147554e-001	 1.303929696214886e+001
 1.788177381344190e+000	 7.860828567557169e-001	 1.303132976736412e+001
 1.779680997812046e+000	 8.051336714972515e-001	 1.301869619750717e+001
 1.770964492091011e+000	 8.241295453259533e-001	 1.300132325470116e+001
 1.762028141862216e+000	 8.430667839364915e-001	 1.297920638701132e+001
 1.752872305221204e+000	 8.619416858350344e-001	 1.295240816016432e+001
 1.743497421218200e+000	 8.807505444731013e-001	 1.292105606675873e+001
 1.733904010332051e+000	 8.994896504095807e-001	 1.288533943520610e+001
 1.724092674876353e+000	 9.181552934985529e-001	 1.284550540666485e+001
 1.714064099336459e+000	 9.367437651004994e-001	 1.280185395483542e+001
 1.703819050636108e+000	 9.552513603143963e-001	 1.275473193063890e+001
 1.802585061530014e+000	 7.695986286343437e-001	 1.304448870886257e+001
 1.794280750374658e+000	 7.887658980567923e-001	 1.303468140689930e+001
 1.785755367166793e+000	 8.078817366342320e-001	 1.302039561380757e+001
 1.777009110453612e+000	 8.269424467756533e-001	 1.300153084039696e+001
 1.768042258864021e+000	 8.459443215664022e-001	 1.297805670323772e+001
 1.758855171715808e+000	 8.648836468787908e-001	 1.295001169012535e+001
 1.749448289557761e+000	 8.837567035132303e-001	 1.291750104494332e+001
 1.739822134645212e+000	 9.025597693676257e-001	 1.288069373275729e+001
 1.729977311347563e+000	 9.212891216326701e-001	 1.283981845210834e+001
 1.719914506486442e+000	 9.399410390105988e-001	 1.279515866820463e+001
 1.709634489603235e+000	 9.585118039549020e-001	 1.274704664800646e+001
 1.808716650654608e+000	 7.722164593745430e-001	 1.305061710593772e+001
 1.800384091942436e+000	 7.914489272851957e-001	 1.303887901253629e+001
 1.791829709189373e+000	 8.106297894060444e-001	 1.302285626818200e+001
 1.783053701617973e+000	 8.297553355685250e-001	 1.300242021093479e+001
 1.774056348804909e+000	 8.488218462487185e-001	 1.297751394730416e+001
 1.764838011290203e+000	 8.678255946851337e-001	 1.294815121485074e+001
 1.755399131121186e+000	 8.867628490271263e-001	 1.291441434583223e+001
 1.745740232329667e+000	 9.056298745116745e-001	 1.287645129128852e+001
 1.735861921340835e+000	 9.244229356661369e-001	 1.283447167120811e+001
 1.725764887312575e+000	 9.431382985345573e-001	 1.278874182327739e+001
 1.715449902403902e+000	 9.617722329249945e-001	 1.273957883015322e+001
 1.814848201459126e+000	 7.748342737542070e-001	 1.305769537996335e+001
 1.806487395366662e+000	 7.941319397457214e-001	 1.304393281069325e+001
 1.797904013249672e+000	 8.133778250037248e-001	 1.302608533048844e+001
 1.789098255006059e+000	 8.325682067821764e-001	 1.300399541128586e+001
 1.780070401160249e+000	 8.516993529479654e-001	 1.297757895980017e+001
 1.770820813474479e+000	 8.707675241058726e-001	 1.294682428073459e+001
 1.761349935494609e+000	 8.897689757542748e-001	 1.291179012241710e+001
 1.751658293028898e+000	 9.086999604692971e-001	 1.287260276278574e+001
 1.741746494558303e+000	 9.275567301150403e-001	 1.282945210000782e+001
 1.731615231576942e+000	 9.463355380774317e-001	 1.278258671900816e+001
 1.721265278861435e+000	 9.650326415191733e-001	 1.273230791276408e+001
 1.820979703213291e+000	 7.774520671921900e-001	 1.306573525094484e+001
 1.812590649966475e+000	 7.968149307431615e-001	 1.304985156478711e+001
 1.803978268717579e+000	 8.161258386183107e-001	 1.303008855323648e+001
 1.795142760039838e+000	 8.353810554942145e-001	 1.300625911655593e+001
 1.786084405405412e+000	 8.545768366286670e-001	 1.297825126052843e+001
 1.776803567798732e+000	 8.737094299928179e-001	 1.294602716383078e+001
 1.767300692264160e+000	 8.927750784341609e-001	 1.290962130894449e+001
 1.757576306386385e+000	 9.117700218680643e-001	 1.286913763302247e+001
 1.747631020702102e+000	 9.306904994954678e-001	 1.282474566160804e+001
 1.737465529041629e+000	 9.495327520442786e-001	 1.277667559522380e+001
 1.727080608799158e+000	 9.682930240319374e-001	 1.272521232657869e+001
 1.827111145186820e+000	 7.800698351073454e-001	 1.307474695126099e+001
 1.818693845061012e+000	 7.994978955823091e-001	 1.305664259444542e+001
 1.810052464962980e+000	 8.188738254408386e-001	 1.303487029099157e+001
 1.801187206141276e+000	 8.381938767822470e-001	 1.300921265151789e+001
 1.792098351015767e+000	 8.574542922553488e-001	 1.297952906810017e+001
 1.782786263793054e+000	 8.766513071977802e-001	 1.294575488944463e+001
 1.773251391015974e+000	 8.957811518062694e-001	 1.290789964043577e+001
 1.763494262045610e+000	 9.148400533355463e-001	 1.286604424093932e+001
 1.753515489474366e+000	 9.338242383235065e-001	 1.282033718533528e+001
 1.743315769468720e+000	 9.527299348401539e-001	 1.277098965151148e+001
 1.732895882040398e+000	 9.715533747577873e-001	 1.271826951592723e+001
 1.833242516649435e+000	 7.826875729185272e-001	 1.308473924470201e+001
 1.824796969969410e+000	 8.021808295679572e-001	 1.306431179480669e+001
 1.816126591355764e+000	 8.216217806623462e-001	 1.304043351987557e+001
 1.807231582732339e+000	 8.410066657238807e-001	 1.301285601024931e+001
 1.798112227466683e+000	 8.603317147925348e-001	 1.298140931964526e+001
 1.788768890987538e+000	 8.795931505725696e-001	 1.294600125184952e+001
 1.779202021336181e+000	 8.987871906100857e-001	 1.290661567234346e+001
 1.769412149650055e+000	 9.179100494993141e-001	 1.286330979817169e+001
 1.759399890577228e+000	 9.369579411152434e-001	 1.281621042607239e+001
 1.749165942620299e+000	 9.559270808701148e-001	 1.276550906628176e+001
 1.738711088408478e+000	 9.748136879912216e-001	 1.271145595745540e+001
 1.839373806870855e+000	 7.853052760445893e-001	 1.309571944558689e+001
 1.830900014010807e+000	 8.048637280048985e-001	 1.307286365590672e+001
 1.822200637265818e+000	 8.243696994738701e-001	 1.304677985716126e+001
 1.813275879234993e+000	 8.438194173967231e-001	 1.301718787587259e+001
 1.804126024233530e+000	 8.632090992047500e-001	 1.298388769063406e+001
 1.794751438912278e+000	 8.825349549689966e-001	 1.294675883412553e+001
 1.785152572810915e+000	 9.017931895850956e-001	 1.290575880034032e+001
 1.775329958843201e+000	 9.209800049869374e-001	 1.286092040872228e+001
 1.765284213712824e+000	 9.400916023867665e-001	 1.281234808374592e+001
 1.755016038258451e+000	 9.591241845392181e-001	 1.276021301600196e+001
 1.744526217726725e+000	 9.780739580267407e-001	 1.270474717903398e+001
 1.686372678502719e+000	 9.454699984254018e-001	 1.277928275241925e+001
 1.676017550046008e+000	 9.637071037044297e-001	 1.273212883942310e+001
 1.665449866397395e+000	 9.818568211318917e-001	 1.268318168112560e+001
 1.654670634104525e+000	 9.999155077266720e-001	 1.263289497949202e+001
 1.643680941682342e+000	 1.017879533245523e+000	 1.258172075527132e+001
 1.632481959511823e+000	 1.035745282457134e+000	 1.253009347557116e+001
 1.621074939663807e+000	 1.053509157420699e+000	 1.247842704175911e+001
 1.609461215647480e+000	 1.071167579766116e+000	 1.242709699280730e+001
 1.597642202083156e+000	 1.088716992972960e+000	 1.237642916355695e+001
 1.585619394299172e+000	 1.106153864645299e+000	 1.232668621281824e+001
 1.573394367852796e+000	 1.123474688779447e+000	 1.227805355963739e+001
 1.692188134909175e+000	 9.487304518441456e-001	 1.277083201292779e+001
 1.681797296790355e+000	 9.670304477830335e-001	 1.272281413163843e+001
 1.671193170483049e+000	 9.852427545133563e-001	 1.267293605933741e+001
 1.660376766005977e+000	 1.003363716491180e+000	 1.262166271101921e+001
 1.649349175627830e+000	 1.021389690954367e+000	 1.256945839980886e+001
 1.638111573765636e+000	 1.039317050204487e+000	 1.251677099043141e+001
 1.626665216808004e+000	 1.057142183893234e+000	 1.246402839236784e+001
 1.615011442862724e+000	 1.074861501310506e+000	 1.241162074746292e+001
 1.603151671428428e+000	 1.092471433671216e+000	 1.235988879617127e+001
 1.591087402990088e+000	 1.109968436397971e+000	 1.230911014299019e+001
 1.578820218538282e+000	 1.127348991396634e+000	 1.225948490922140e+001
 1.698003595679197e+000	 9.519909077089775e-001	 1.276265421907920e+001
 1.687577047871365e+000	 9.703537943549184e-001	 1.271372240122117e+001
 1.676936478877901e+000	 9.886286904350722e-001	 1.266286111370443e+001
 1.666082902188611e+000	 1.006811927842678e+000	 1.261054692458495e+001
 1.655017413825931e+000	 1.024899851296698e+000	 1.255725701332989e+001
 1.643741192242959e+000	 1.042888820631569e+000	 1.250345334791498e+001
 1.632255498146073e+000	 1.060775213091481e+000	 1.244957868241703e+001
 1.620561674241674e+000	 1.078555425626313e+000	 1.239603872563407e+001
 1.608661144906720e+000	 1.096225877186315e+000	 1.234319021206499e+001
 1.596555415782833e+000	 1.113783011012618e+000	 1.229132690065310e+001
 1.584246073293903e+000	 1.131223296920624e+000	 1.224066493935148e+001
 1.703819050636108e+000	 9.552513603143963e-001	 1.275473193063890e+001
 1.693356793174896e+000	 9.736771376045056e-001	 1.270483245922971e+001
 1.682679781531623e+000	 9.920146229719017e-001	 1.265293259049293e+001
 1.671789032667180e+000	 1.010260135747011e+000	 1.259952097662568e+001
 1.660685646357755e+000	 1.028410008129908e+000	 1.254508822904288e+001
 1.649370805092509e+000	 1.046460587487910e+000	 1.249011111633260e+001
 1.637845773895593e+000	 1.064408238657718e+000	 1.243504806628250e+001
 1.626111900072022e+000	 1.082249346249206e+000	 1.238032131170908e+001
 1.614170612877078e+000	 1.099980316947971e+000	 1.232630466306037e+001
 1.602023423109025e+000	 1.117597581813683e+000	 1.227330923643549e+001
 1.589671922625073e+000	 1.135097598571297e+000	 1.222156852524129e+001
 1.709634489603235e+000	 9.585118039549020e-001	 1.274704664800646e+001
 1.699136522586807e+000	 9.770004717162161e-001	 1.269612210752492e+001
 1.688423068393885e+000	 9.954005461987061e-001	 1.264312526610150e+001
 1.677495147456441e+000	 1.013708334170022e+000	 1.258855854780312e+001
 1.666353863304406e+000	 1.031920155311388e+000	 1.253292275638613e+001
 1.655000402463004e+000	 1.050032344523041e+000	 1.247671394705117e+001
 1.643436034274148e+000	 1.068041254234226e+000	 1.242040577747888e+001
 1.631662110641460e+000	 1.085943256714852e+000	 1.236443795464359e+001
 1.619680065698537e+000	 1.103734746385898e+000	 1.230920244043798e+001
 1.607491415400281e+000	 1.121412142125609e+000	 1.225502890492088e+001
 1.595097757037207e+000	 1.138971889568530e+000	 1.220216950033251e+001
 1.715449902403902e+000	 9.617722329249945e-001	 1.273957883015322e+001
 1.704916225992957e+000	 9.803237908744716e-001	 1.268756815632956e+001
 1.694166329414357e+000	 9.987864541903470e-001	 1.263341296435594e+001
 1.683201236571147e+000	 1.017156517077555e+000	 1.257762854767566e+001
 1.672022054746992e+000	 1.035430286698532e+000	 1.252073039812508e+001
 1.660629974503159e+000	 1.053604085486492e+000	 1.246323059165320e+001
 1.649026269499319e+000	 1.071674253463287e+000	 1.240562014598499e+001
 1.637212296237679e+000	 1.089637150558919e+000	 1.234835718555366e+001
 1.625189493730138e+000	 1.107489158929809e+000	 1.229185289289690e+001
 1.612959383088218e+000	 1.125226685272839e+000	 1.223645668307207e+001
 1.600523567035720e+000	 1.142846163132202e+000	 1.218244067527712e+001
 1.721265278861435e+000	 9.650326415191733e-001	 1.273230791276408e+001
 1.710695893279204e+000	 9.836470892636930e-001	 1.267914644200686e+001
 1.699909554542710e+000	 1.002172341021685e+000	 1.262376857403485e+001
 1.688907290026054e+000	 1.020604678435454e+000	 1.256670287638827e+001
 1.677690210766617e+000	 1.038940396148730e+000	 1.250848006769568e+001
 1.666259511361695e+000	 1.057175804127793e+000	 1.244962891934521e+001
 1.654616469788687e+000	 1.075307229987180e+000	 1.239065861581910e+001
 1.642762447148372e+000	 1.093331021317075e+000	 1.233204663555675e+001
 1.630698887330922e+000	 1.111243548009421e+000	 1.227422444475775e+001
 1.618427316604453e+000	 1.129041204579818e+000	 1.221756238889055e+001
 1.605949343126026e+000	 1.146720412482190e+000	 1.216235385714483e+001
 1.727080608799158e+000	 9.682930240319374e-001	 1.272521232657869e+001
 1.716475514331406e+000	 9.869703610683014e-001	 1.267083184505262e+001
 1.705652733728614e+000	 1.005558200767583e+000	 1.261416406662050e+001
 1.694613297835917e+000	 1.024052812209563e+000	 1.255575122871133e+001
 1.683358321444389e+000	 1.042450477519377e+000	 1.249613980678720e+001
 1.671889003187328e+000	 1.060747494196473e+000	 1.243587593460926e+001
 1.660206625359837e+000	 1.078940177448188e+000	 1.237548776285736e+001
 1.648312553661232e+000	 1.097024862524986e+000	 1.231547305385382e+001
 1.636208236859930e+000	 1.114997907054446e+000	 1.225628461440251e+001
 1.623895206380604e+000	 1.132855693370989e+000	 1.219831490030520e+001
 1.611375075813539e+000	 1.150594630838373e+000	 1.214187986885002e+001
 1.732895882040398e+000	 9.715533747577873e-001	 1.271826951592723e+001
 1.722255079035424e+000	 9.902936004727183e-001	 1.266259830829569e+001
 1.711395856921740e+000	 1.008944027502901e+000	 1.260457051426910e+001
 1.700319250015491e+000	 1.027500912365726e+000	 1.254474242799417e+001
 1.689026376861413e+000	 1.045960524667863e+000	 1.248367680315873e+001
 1.677518440128775e+000	 1.064319149442063e+000	 1.242193779509084e+001
 1.665796726430350e+000	 1.082573089488590e+000	 1.236007331288971e+001
 1.653862606063951e+000	 1.100718667718323e+000	 1.229860232604643e+001
 1.641717532676200e+000	 1.118752229494599e+000	 1.223800003294457e+001
 1.629363042848288e+000	 1.136670144970794e+000	 1.217868217428453e+001
 1.616800755603675e+000	 1.154468811420628e+000	 1.212098856879246e+001
 1.738711088408478e+000	 9.748136879912216e-001	 1.271145595745540e+001
 1.728034577277114e+000	 9.936168016613646e-001	 1.265441885530146e+001
 1.717138914071758e+000	 1.012329815302501e+000	 1.259495927361216e+001
 1.706025136579531e+000	 1.030948972869786e+000	 1.253364444423040e+001
 1.694694367098797e+000	 1.049470531451580e+000	 1.247105740868340e+001
 1.683147812334755e+000	 1.067890763614093e+000	 1.240777982971782e+001
 1.671386763217806e+000	 1.086205959750667e+000	 1.234438015990670e+001
 1.659412594644220e+000	 1.104412430432750e+000	 1.228139949268329e+001
 1.647226765138773e+000	 1.122506508759595e+000	 1.221933646312350e+001
 1.634830816439122e+000	 1.140484552703678e+000	 1.215863126616647e+001
 1.622226373001848e+000	 1.158342947448835e+000	 1.209964887070674e+001
 1.744526217726725e+000	 9.780739580267407e-001	 1.270474717903398e+001
 1.733813998942337e+000	 9.969399588186622e-001	 1.264626560897282e+001
 1.722881895128340e+000	 1.015715558241244e+000	 1.258529729197776e+001
 1.711730947542792e+000	 1.034396987687588e+000	 1.252242441233969e+001
 1.700362282237645e+000	 1.052980491727922e+000	 1.245824715761430e+001
 1.688777109953985e+000	 1.071462330462093e+000	 1.239336655704383e+001
 1.676976725939789e+000	 1.089838781876700e+000	 1.232837238461175e+001
 1.664962509689733e+000	 1.108106144203938e+000	 1.226382876802982e+001
 1.652735924606690e+000	 1.126260738279147e+000	 1.220025881841885e+001
 1.640298517584723e+000	 1.144298909894085e+000	 1.213812834920043e+001
 1.627651918513473e+000	 1.162217032142869e+000	 1.207782876371427e+001
 1.573394367852796e+000	 1.123474688779447e+000	 1.227805355963739e+001
 1.560968777531320e+000	 1.140675987641491e+000	 1.222906026886487e+001
 1.548344355402024e+000	 1.157754312848225e+000	 1.217843913201383e+001
 1.535522911460947e+000	 1.174706248697026e+000	 1.212655863459085e+001
 1.522506333301989e+000	 1.191528414752497e+000	 1.207369978526998e+001
 1.509296585264699e+000	 1.208217468037181e+000	 1.202003975305829e+001
 1.495895707508254e+000	 1.224770105197696e+000	 1.196563539858577e+001
 1.482305815012449e+000	 1.241183064643427e+000	 1.191040681992475e+001
 1.468529096506648e+000	 1.257453128654897e+000	 1.185412103832396e+001
 1.454567813327771e+000	 1.273577125459001e+000	 1.179637595338743e+001
 1.440424298208528e+000	 1.289551931268331e+000	 1.173658470047853e+001
 1.578820218538282e+000	 1.127348991396634e+000	 1.225948490922140e+001
 1.566351778566836e+000	 1.144609608940324e+000	 1.220971961148141e+001
 1.553683821116071e+000	 1.161746828754073e+000	 1.215868511413651e+001
 1.540818162423808e+000	 1.178757223356185e+000	 1.210670426404490e+001
 1.527756696593324e+000	 1.195637400653814e+000	 1.205401101626417e+001
 1.514501394738202e+000	 1.212384006141222e+000	 1.200073380893063e+001
 1.501054304053116e+000	 1.228993725073395e+000	 1.194687882177871e+001
 1.487417546811380e+000	 1.245463284612102e+000	 1.189231324084141e+001
 1.473593319290200e+000	 1.261789455941541e+000	 1.183674865700333e+001
 1.459583890624727e+000	 1.277969056350728e+000	 1.177972473035877e+001
 1.445391601592109e+000	 1.293998951279851e+000	 1.172059325569749e+001
 1.584246073293903e+000	 1.131223296920624e+000	 1.224066493935148e+001
 1.571734783640297e+000	 1.148543233190479e+000	 1.219008917889855e+001
 1.559023290835383e+000	 1.165739347655439e+000	 1.213860681595651e+001
 1.546113417358764e+000	 1.182808201054727e+000	 1.208649242561046e+001
 1.533007063823095e+000	 1.199746389638040e+000	 1.203393013339819e+001
 1.519706208115996e+000	 1.216550547371352e+000	 1.198099672724474e+001
 1.506212904467642e+000	 1.233217348118006e+000	 1.192764464248167e+001
 1.492529282444869e+000	 1.249743507792146e+000	 1.187368494465208e+001
 1.478657545872725e+000	 1.266125786481637e+000	 1.181877044008643e+001
 1.464599971684596e+000	 1.282360990537607e+000	 1.176237904865351e+001
 1.450358908702072e+000	 1.298445974627835e+000	 1.170379757658320e+001
 1.589671922625073e+000	 1.135097598571297e+000	 1.222156852524129e+001
 1.577117783332126e+000	 1.152476853507997e+000	 1.217014577639708e+001
 1.564362755216589e+000	 1.169731862565275e+000	 1.211818198472767e+001
 1.551408666999837e+000	 1.186859174703291e+000	 1.206590085673649e+001
 1.538257425803892e+000	 1.203855374514287e+000	 1.201343395078980e+001
 1.524911016290401e+000	 1.220717084435966e+000	 1.196080352535535e+001
 1.511371499725030e+000	 1.237440966940041e+000	 1.190790524968970e+001
 1.497641012968119e+000	 1.254023726693041e+000	 1.185449090386080e+001
 1.483721767392554e+000	 1.270462112686509e+000	 1.180015120043169e+001
 1.469616047729940e+000	 1.286752920333694e+000	 1.174429886469174e+001
 1.455326210846296e+000	 1.302892993529981e+000	 1.168615211393801e+001
 1.595097757037207e+000	 1.138971889568530e+000	 1.220216950033251e+001
 1.582500768222747e+000	 1.156410463008918e+000	 1.214986512281820e+001
 1.569702204916320e+000	 1.173724366496536e+000	 1.209738724857105e+001
 1.556703902081051e+000	 1.190910137212508e+000	 1.204490615465971e+001
 1.543507773348307e+000	 1.207964348091664e+000	 1.199249813251874e+001
 1.530115810153738e+000	 1.224883610043461e+000	 1.194012807164725e+001
 1.516530080798473e+000	 1.241664574148013e+000	 1.188763189503069e+001
 1.502752729436335e+000	 1.258303933824269e+000	 1.183469897538326e+001
 1.488785974988019e+000	 1.274798426967479e+000	 1.178085466690565e+001
 1.474632109983321e+000	 1.291144838053048e+000	 1.172544309195692e+001
 1.460293499332663e+000	 1.307340000203990e+000	 1.166761032578211e+001
 1.600523567035720e+000	 1.142846163132202e+000	 1.218244067527712e+001
 1.587883728892580e+000	 1.160344054809284e+000	 1.212922187000708e+001
 1.575041630591203e+000	 1.177716852462174e+000	 1.207619813609896e+001
 1.561999113336428e+000	 1.194961081493018e+000	 1.202348379593481e+001
 1.548758097268932e+000	 1.212073303179280e+000	 1.197109721179583e+001
 1.535320580598326e+000	 1.229050116902231e+000	 1.191894310408384e+001
 1.521688638661166e+000	 1.245888162350435e+000	 1.186679471044189e+001
 1.507864422904721e+000	 1.262584121695313e+000	 1.181427591710803e+001
 1.493850159797450e+000	 1.279134721735873e+000	 1.176084349959386e+001
 1.479648149667302e+000	 1.295536736009724e+000	 1.170576961463053e+001
 1.465260765469056e+000	 1.311786986867562e+000	 1.164812468919604e+001
 1.605949343126026e+000	 1.146720412482190e+000	 1.216235385714483e+001
 1.593266655922049e+000	 1.164277622025134e+000	 1.210818962247303e+001
 1.580381022897869e+000	 1.181709313475142e+000	 1.205458909625128e+001
 1.567294291499992e+000	 1.199012000455454e+000	 1.200160815617752e+001
 1.554008388378355e+000	 1.216182232586246e+000	 1.194920461035034e+001
 1.540525318516483e+000	 1.233216597720671e+000	 1.189722024898359e+001
 1.526847164286307e+000	 1.250111724155819e+000	 1.184536272608832e+001
 1.512976084428482e+000	 1.266864282815654e+000	 1.179318740471764e+001
 1.498914312959179e+000	 1.283470989403013e+000	 1.174007930529392e+001
 1.484664158004444e+000	 1.299928606517779e+000	 1.168523530153498e+001
 1.470228000563354e+000	 1.316233945738397e+000	 1.162764671249974e+001
 1.611375075813539e+000	 1.150594630838373e+000	 1.214187986885002e+001
 1.598649539891577e+000	 1.168211157772510e+000	 1.208674095726035e+001
 1.585720372492949e+000	 1.185701742548394e+000	 1.203253351833904e+001
 1.572589427305767e+000	 1.203062887010452e+000	 1.197925253001553e+001
 1.559258637489170e+000	 1.220291129121669e+000	 1.192679265803022e+001
 1.545730014800531e+000	 1.237383045207176e+000	 1.187493004001921e+001
 1.532005648647089e+000	 1.254335252172679e+000	 1.182330388851728e+001
 1.518087705062822e+000	 1.271144409694776e+000	 1.177139804876331e+001
 1.503978425611540e+000	 1.287807222380225e+000	 1.171852265328351e+001
 1.489680126217312e+000	 1.304320441891270e+000	 1.166379602037659e+001
 1.475195195923441e+000	 1.320680869034195e+000	 1.160612694776122e+001
 1.616800755603675e+000	 1.154468811420628e+000	 1.212098856879246e+001
 1.604032371381585e+000	 1.172144655167453e+000	 1.206484744402493e+001
 1.591059670033068e+000	 1.189694132694881e+000	 1.201000375228941e+001
 1.577884511487775e+000	 1.207113734068648e+000	 1.195638915124185e+001
 1.564508835413967e+000	 1.224399985594661e+000	 1.190383261261010e+001
 1.550934660342789e+000	 1.241549452070141e+000	 1.185204193743338e+001
 1.537164082716710e+000	 1.258558739009527e+000	 1.180058507904320e+001
 1.523199275862945e+000	 1.275424494842162e+000	 1.174887141198743e+001
 1.509042488892863e+000	 1.292143413078832e+000	 1.169613309135737e+001
 1.494696045528467e+000	 1.308712234444254e+000	 1.164140665228203e+001
 1.480162342857196e+000	 1.325127748972656e+000	 1.158351500362632e+001
 1.622226373001848e+000	 1.158342947448835e+000	 1.209964887070674e+001
 1.609415140972496e+000	 1.176078107326003e+000	 1.204247966531082e+001
 1.596398906174859e+000	 1.193686476927557e+000	 1.198697112908746e+001
 1.583179534780040e+000	 1.211164534540678e+000	 1.193298921316528e+001
 1.569758972965336e+000	 1.228508794814330e+000	 1.188029467980135e+001
 1.556139246035576e+000	 1.245715811017961e+000	 1.182852434746596e+001
 1.542322457468363e+000	 1.262782177274876e+000	 1.177717213235681e+001
 1.528310787884055e+000	 1.279704530767292e+000	 1.172557002688741e+001
 1.514106493941479e+000	 1.296479553910158e+000	 1.167286916212590e+001
 1.499711907160471e+000	 1.313103976490788e+000	 1.161802110662080e+001
 1.485129432672502e+000	 1.329574577771481e+000	 1.155975955846224e+001
 1.627651918513473e+000	 1.162217032142869e+000	 1.207782876371427e+001
 1.614797839244732e+000	 1.180011507364201e+000	 1.201960723702191e+001
 1.601738071574950e+000	 1.197678768259376e+000	 1.196340598140919e+001
 1.588474487916584e+000	 1.215215281337177e+000	 1.190902288915334e+001
 1.575009040955869e+000	 1.232617549589786e+000	 1.185614803345926e+001
 1.561343762771212e+000	 1.249882114759033e+000	 1.180434464198727e+001
 1.547480763875244e+000	 1.267005559577238e+000	 1.175302985535311e+001
 1.533422232181358e+000	 1.283984509979651e+000	 1.170145541351466e+001
 1.519170431895721e+000	 1.300815637285527e+000	 1.164868841956978e+001
 1.504727702335888e+000	 1.317495660344928e+000	 1.159359233610722e+001
 1.490096456677240e+000	 1.334021347648369e+000	 1.153481572918630e+001
 1.440424298208528e+000	 1.289551931268331e+000	 1.173658470047853e+001
 1.426103115966008e+000	 1.305372110792263e+000	 1.167698092218129e+001
 1.411604630339610e+000	 1.321037051924598e+000	 1.161769535420497e+001
 1.396931380388861e+000	 1.336543789252277e+000	 1.155488846174173e+001
 1.382085970986084e+000	 1.351889413086072e+000	 1.149348268241645e+001
 1.367071071277777e+000	 1.367071071277777e+000	 1.143558509120590e+001
 1.351889413086072e+000	 1.382085970986084e+000	 1.137950967104914e+001
 1.336543789252277e+000	 1.396931380388861e+000	 1.132352960282428e+001
 1.321037051924597e+000	 1.411604630339610e+000	 1.126647739455450e+001
 1.305372110792263e+000	 1.426103115966009e+000	 1.120747764841273e+001
 1.289551931268331e+000	 1.440424298208528e+000	 1.114429916727820e+001
 1.445391601592109e+000	 1.293998951279851e+000	 1.172059325569749e+001
 1.431021032751211e+000	 1.309873686694677e+000	 1.166112512623165e+001
 1.416472549095766e+000	 1.325592648378173e+000	 1.160108939995770e+001
 1.401748698441228e+000	 1.341152860691077e+000	 1.153807717140893e+001
 1.386852094642795e+000	 1.356551403910124e+000	 1.147841058980562e+001
 1.371785416051495e+000	 1.371785416051494e+000	 1.142201726229369e+001
 1.356551403910124e+000	 1.386852094642795e+000	 1.136734939127880e+001
 1.341152860691077e+000	 1.401748698441228e+000	 1.131282201340725e+001
 1.325592648378172e+000	 1.416472549095766e+000	 1.125705300606733e+001
 1.309873686694677e+000	 1.431021032751211e+000	 1.119960202633275e+001
 1.293998951279852e+000	 1.445391601592110e+000	 1.113857653307953e+001
 1.450358908702072e+000	 1.298445974627835e+000	 1.170379757658320e+001
 1.435938953225800e+000	 1.314375265974459e+000	 1.164434513450127e+001
 1.421340471503854e+000	 1.330148248249615e+000	 1.158344659516635e+001
 1.406566020107614e+000	 1.345761935587832e+000	 1.152113864012150e+001
 1.391618221875167e+000	 1.361213398231795e+000	 1.146302605562964e+001
 1.376499764362070e+000	 1.376499764362070e+000	 1.140797526557469e+001
 1.361213398231795e+000	 1.391618221875167e+000	 1.135458403379616e+001
 1.345761935587833e+000	 1.406566020107614e+000	 1.130141689786325e+001
 1.330148248249616e+000	 1.421340471503854e+000	 1.124704788549036e+001
 1.314375265974459e+000	 1.435938953225800e+000	 1.119112090395600e+001
 1.298445974627835e+000	 1.450358908702072e+000	 1.113228548808637e+001
 1.455326210846296e+000	 1.302892993529981e+000	 1.168615211393801e+001
 1.440856868784037e+000	 1.318876840753897e+000	 1.162659081656212e+001
 1.426208389045570e+000	 1.334703843566746e+000	 1.156475928684000e+001
 1.411383336958204e+000	 1.350371005876853e+000	 1.150392300572108e+001
 1.396384344342898e+000	 1.365875387892865e+000	 1.144718021040961e+001
 1.381214107959740e+000	 1.381214107959740e+000	 1.139331327425134e+001
 1.365875387892865e+000	 1.396384344342898e+000	 1.134107279530510e+001
 1.350371005876853e+000	 1.411383336958204e+000	 1.128918038615717e+001
 1.334703843566746e+000	 1.426208389045570e+000	 1.123633149364318e+001
 1.318876840753896e+000	 1.440856868784036e+000	 1.118192706405397e+001
 1.302892993529981e+000	 1.455326210846295e+000	 1.112533588410824e+001
 1.460293499332663e+000	 1.307340000203990e+000	 1.166761032578211e+001
 1.445774770820179e+000	 1.323378403155276e+000	 1.160781108736715e+001
 1.431076293202615e+000	 1.339259426357381e+000	 1.154561834667219e+001
 1.416200640563178e+000	 1.354980063492449e+000	 1.148628224153280e+001
 1.401150453705688e+000	 1.370537364735112e+000	 1.143072599517029e+001
 1.385928438594741e+000	 1.385928438594741e+000	 1.137788721839826e+001
 1.370537364735112e+000	 1.401150453705688e+000	 1.132667654814242e+001
 1.354980063492449e+000	 1.416200640563178e+000	 1.127598017611401e+001
 1.339259426357381e+000	 1.431076293202615e+000	 1.122466239831378e+001
 1.323378403155276e+000	 1.445774770820179e+000	 1.117191181971532e+001
 1.307340000203990e+000	 1.460293499332663e+000	 1.111763591429870e+001
 1.465260765469056e+000	 1.311786986867562e+000	 1.164812468919604e+001
 1.450692650728490e+000	 1.327879945300884e+000	 1.158795391744519e+001
 1.435944175456685e+000	 1.343814988649339e+000	 1.152611107597308e+001
 1.421017922492720e+000	 1.359589100368930e+000	 1.146807013720216e+001
 1.405916541623238e+000	 1.375199320600313e+000	 1.141351814262186e+001
 1.390642748017308e+000	 1.390642748017308e+000	 1.136155476697448e+001
 1.375199320600312e+000	 1.405916541623238e+000	 1.131125782359002e+001
 1.359589100368930e+000	 1.421017922492720e+000	 1.126168551848269e+001
 1.343814988649339e+000	 1.435944175456685e+000	 1.121187871563822e+001
 1.327879945300884e+000	 1.450692650728490e+000	 1.116096508661950e+001
 1.311786986867562e+000	 1.465260765469056e+000	 1.110909218699810e+001
 1.470228000563354e+000	 1.316233945738397e+000	 1.162764671249974e+001
 1.455610499903227e+000	 1.332381459313008e+000	 1.156696634345925e+001
 1.440812027289479e+000	 1.348370522470437e+000	 1.150609417279312e+001
 1.425835174317011e+000	 1.364198108440607e+000	 1.144914227981955e+001
 1.410682599755248e+000	 1.379861247330245e+000	 1.139541315862337e+001
 1.395357027977678e+000	 1.395357027977678e+000	 1.134417531010228e+001
 1.379861247330246e+000	 1.410682599755248e+000	 1.129468079542898e+001
 1.364198108440607e+000	 1.425835174317012e+000	 1.124616720220895e+001
 1.348370522470437e+000	 1.440812027289478e+000	 1.119785961162828e+001
 1.332381459313007e+000	 1.455610499903227e+000	 1.114897545551803e+001
 1.316233945738397e+000	 1.470228000563354e+000	 1.109960979972656e+001
 1.475195195923441e+000	 1.320680869034195e+000	 1.160612694776122e+001
 1.460528309738652e+000	 1.336882937313932e+000	 1.154502312499790e+001
 1.445679840182694e+000	 1.352926019848496e+000	 1.148542610980518e+001
 1.430652387606235e+000	 1.368807079641790e+000	 1.142935603532451e+001
 1.415448619761416e+000	 1.384523136766689e+000	 1.137626930392091e+001
 1.400071270226088e+000	 1.400071270226088e+000	 1.132560994160594e+001
 1.384523136766689e+000	 1.415448619761416e+000	 1.127681126373018e+001
 1.368807079641790e+000	 1.430652387606236e+000	 1.122929753991215e+001
 1.352926019848495e+000	 1.445679840182694e+000	 1.118248564920021e+001
 1.336882937313932e+000	 1.460528309738653e+000	 1.113578671660008e+001
 1.320680869034195e+000	 1.475195195923441e+000	 1.108909241332123e+001
 1.480162342857196e+000	 1.325127748972656e+000	 1.158351500362632e+001
 1.465446071629025e+000	 1.341384371425945e+000	 1.152250410712063e+001
 1.450547605618029e+000	 1.357481472811331e+000	 1.146396711612724e+001
 1.435469553930574e+000	 1.373416005906789e+000	 1.140857053018337e+001
 1.420214593301443e+000	 1.389184980751421e+000	 1.135594657615324e+001
 1.404785466512774e+000	 1.404785466512774e+000	 1.130572144180404e+001
 1.389184980751421e+000	 1.420214593301443e+000	 1.125751663887493e+001
 1.373416005906789e+000	 1.435469553930574e+000	 1.121095035356083e+001
 1.357481472811331e+000	 1.450547605618029e+000	 1.116563877591479e+001
 1.341384371425946e+000	 1.465446071629025e+000	 1.112119739984158e+001
 1.325127748972656e+000	 1.480162342857196e+000	 1.107744232621023e+001
 1.485129432672502e+000	 1.329574577771481e+000	 1.155975955846224e+001
 1.470363776968606e+000	 1.345885753771334e+000	 1.149928996007736e+001
 1.455415315077183e+000	 1.362036873386762e+000	 1.144157915940720e+001
 1.440286664860211e+000	 1.378024879169914e+000	 1.138664663333319e+001
 1.424980512035029e+000	 1.393846771126218e+000	 1.133430669211933e+001
 1.409499608587972e+000	 1.409499608587972e+000	 1.128437426054859e+001
 1.393846771126218e+000	 1.424980512035029e+000	 1.123666592580041e+001
 1.378024879169914e+000	 1.440286664860211e+000	 1.119100096034194e+001
 1.362036873386762e+000	 1.455415315077183e+000	 1.114720231187203e+001
 1.345885753771334e+000	 1.470363776968606e+000	 1.110509755255532e+001
 1.329574577771481e+000	 1.485129432672502e+000	 1.106456054881669e+001
 1.490096456677240e+000	 1.334021347648369e+000	 1.153481572918630e+001
 1.475281417151654e+000	 1.350387076472384e+000	 1.147524744571154e+001
 1.460282960041853e+000	 1.366592213602607e+000	 1.141812592816393e+001
 1.445103711965328e+000	 1.382633691365476e+000	 1.136344693838588e+001
 1.429746367621873e+000	 1.398508499732860e+000	 1.131121307029999e+001
 1.414213688201919e+000	 1.414213688201919e+000	 1.126143450050566e+001
 1.398508499732861e+000	 1.429746367621873e+000	 1.121412970846372e+001
 1.382633691365476e+000	 1.445103711965328e+000	 1.116932615871858e+001
 1.366592213602607e+000	 1.460282960041853e+000	 1.112706093775686e+001
 1.350387076472384e+000	 1.475281417151654e+000	 1.108738133833107e+001
 1.334021347648369e+000	 1.490096456677241e+000	 1.105034538438179e+001
 1.289551931268331e+000	 1.440424298208528e+000	 1.114429916727820e+001
 1.273577125459001e+000	 1.454567813327771e+000	 1.107815686822158e+001
 1.257453128654896e+000	 1.468529096506647e+000	 1.101071464064945e+001
 1.241183064643427e+000	 1.482305815012449e+000	 1.094070615866164e+001
 1.224770105197696e+000	 1.495895707508254e+000	 1.086706063619870e+001
 1.208217468037181e+000	 1.509296585264699e+000	 1.078888620005949e+001
 1.191528414752497e+000	 1.522506333301989e+000	 1.070545232129951e+001
 1.174706248697026e+000	 1.535522911460947e+000	 1.061617151231315e+001
 1.157754312848225e+000	 1.548344355402024e+000	 1.052058049914192e+001
 1.140675987641491e+000	 1.560968777531320e+000	 1.041832107886003e+001
 1.123474688779447e+000	 1.573394367852797e+000	 1.030912087029452e+001
 1.293998951279852e+000	 1.445391601592110e+000	 1.113857653307953e+001
 1.277969056350728e+000	 1.459583890624728e+000	 1.107510718582257e+001
 1.261789455941542e+000	 1.473593319290200e+000	 1.101063683216194e+001
 1.245463284612102e+000	 1.487417546811380e+000	 1.094380470046152e+001
 1.228993725073395e+000	 1.501054304053116e+000	 1.087344485811097e+001
 1.212384006141222e+000	 1.514501394738202e+000	 1.079856927018373e+001
 1.195637400653813e+000	 1.527756696593324e+000	 1.071834990606470e+001
 1.178757223356185e+000	 1.540818162423809e+000	 1.063210010612749e+001
 1.161746828754073e+000	 1.553683821116071e+000	 1.053925542280405e+001
 1.144609608940324e+000	 1.566351778566835e+000	 1.043935415067808e+001
 1.127348991396634e+000	 1.578820218538282e+000	 1.033201775857605e+001
 1.298445974627835e+000	 1.450358908702072e+000	 1.113228548808637e+001
 1.282360990537607e+000	 1.464599971684597e+000	 1.107156374986768e+001
 1.266125786481637e+000	 1.478657545872725e+000	 1.101014592902577e+001
 1.249743507792146e+000	 1.492529282444869e+000	 1.094657369646161e+001
 1.233217348118006e+000	 1.506212904467643e+000	 1.087958268385902e+001
 1.216550547371352e+000	 1.519706208115996e+000	 1.080808522366130e+001
 1.199746389638040e+000	 1.533007063823095e+000	 1.073115212668804e+001
 1.182808201054727e+000	 1.546113417358764e+000	 1.064799371433489e+001
 1.165739347655438e+000	 1.559023290835383e+000	 1.055794032458382e+001
 1.148543233190479e+000	 1.571734783640297e+000	 1.046042251132012e+001
 1.131223296920624e+000	 1.584246073293903e+000	 1.035495115472989e+001
 1.302892993529981e+000	 1.455326210846295e+000	 1.112533588410824e+001
 1.286752920333694e+000	 1.469616047729940e+000	 1.106745336704251e+001
 1.270462112686508e+000	 1.483721767392554e+000	 1.100918393390703e+001
 1.254023726693041e+000	 1.497641012968118e+000	 1.094896863495227e+001
 1.237440966940040e+000	 1.511371499725030e+000	 1.088544142840561e+001
 1.220717084435967e+000	 1.524911016290401e+000	 1.081741159717302e+001
 1.203855374514287e+000	 1.538257425803892e+000	 1.074384519292598e+001
 1.186859174703290e+000	 1.551408666999836e+000	 1.066384572946639e+001
 1.169731862565275e+000	 1.564362755216590e+000	 1.057663434956887e+001
 1.152476853507997e+000	 1.577117783332126e+000	 1.048152968974688e+001
 1.135097598571297e+000	 1.589671922625073e+000	 1.037792766560013e+001
 1.307340000203990e+000	 1.460293499332663e+000	 1.111763591429870e+001
 1.291144838053048e+000	 1.474632109983321e+000	 1.106270099157697e+001
 1.274798426967479e+000	 1.488785974988019e+000	 1.100769082133209e+001
 1.258303933824268e+000	 1.502752729436335e+000	 1.095094281844811e+001
 1.241664574148013e+000	 1.516530080798473e+000	 1.089098608127774e+001
 1.224883610043462e+000	 1.530115810153738e+000	 1.082652348020230e+001
 1.207964348091664e+000	 1.543507773348307e+000	 1.075641276338854e+001
 1.190910137212508e+000	 1.556703902081050e+000	 1.067964690667476e+001
 1.173724366496536e+000	 1.569702204916320e+000	 1.059533393684620e+001
 1.156410463008918e+000	 1.582500768222747e+000	 1.050267645778289e+001
 1.138971889568530e+000	 1.595097757037207e+000	 1.040095110710816e+001
 1.311786986867562e+000	 1.465260765469056e+000	 1.110909218699810e+001
 1.295536736009724e+000	 1.479648149667302e+000	 1.105722980057752e+001
 1.279134721735873e+000	 1.493850159797450e+000	 1.100560461405117e+001
 1.262584121695312e+000	 1.507864422904721e+000	 1.095244744063551e+001
 1.245888162350435e+000	 1.521688638661166e+000	 1.089617938366393e+001
 1.229050116902231e+000	 1.535320580598325e+000	 1.083539359186076e+001
 1.212073303179280e+000	 1.548758097268932e+000	 1.076883602168523e+001
 1.194961081493018e+000	 1.561999113336428e+000	 1.069538543880651e+001
 1.177716852462174e+000	 1.575041630591203e+000	 1.061403289311981e+001
 1.160344054809283e+000	 1.587883728892580e+000	 1.052386090191469e+001
 1.142846163132202e+000	 1.600523567035720e+000	 1.042402257388014e+001
 1.316233945738397e+000	 1.470228000563354e+000	 1.109960979972656e+001
 1.299928606517779e+000	 1.484664158004445e+000	 1.105096126945361e+001
 1.283470989403013e+000	 1.498914312959180e+000	 1.100286145944646e+001
 1.266864282815654e+000	 1.512976084428482e+000	 1.095343166332421e+001
 1.250111724155819e+000	 1.526847164286307e+000	 1.090098190548196e+001
 1.233216597720671e+000	 1.540525318516483e+000	 1.084399235765795e+001
 1.216182232586246e+000	 1.554008388378355e+000	 1.078109375249629e+001
 1.199012000455454e+000	 1.567294291499993e+000	 1.071104703138694e+001
 1.181709313475142e+000	 1.580381022897870e+000	 1.063272246623663e+001
 1.164277622025134e+000	 1.593266655922050e+000	 1.054507849499832e+001
 1.146720412482190e+000	 1.605949343126026e+000	 1.044714050879185e+001
 1.320680869034195e+000	 1.475195195923441e+000	 1.108909241332123e+001
 1.304320441891271e+000	 1.489680126217312e+000	 1.104381524743252e+001
 1.287807222380225e+000	 1.503978425611540e+000	 1.099939570598196e+001
 1.271144409694777e+000	 1.518087705062822e+000	 1.095384269339970e+001
 1.254335252172679e+000	 1.532005648647089e+000	 1.090535212241491e+001
 1.237383045207176e+000	 1.545730014800532e+000	 1.085228798621443e+001
 1.220291129121670e+000	 1.559258637489170e+000	 1.079316241756831e+001
 1.203062887010452e+000	 1.572589427305767e+000	 1.072661497751841e+001
 1.185701742548394e+000	 1.585720372492949e+000	 1.065139141862015e+001
 1.168211157772510e+000	 1.598649539891577e+000	 1.056632216787586e+001
 1.150594630838373e+000	 1.611375075813539e+000	 1.047030077242942e+001
 1.325127748972656e+000	 1.480162342857196e+000	 1.107744232621023e+001
 1.308712234444254e+000	 1.494696045528466e+000	 1.103571003315724e+001
 1.292143413078832e+000	 1.509042488892863e+000	 1.099513997968933e+001
 1.275424494842161e+000	 1.523199275862945e+000	 1.095362585977337e+001
 1.258558739009527e+000	 1.537164082716710e+000	 1.090924649291319e+001
 1.241549452070141e+000	 1.550934660342789e+000	 1.086024654591565e+001
 1.224399985594661e+000	 1.564508835413966e+000	 1.080501623163348e+001
 1.207113734068648e+000	 1.577884511487775e+000	 1.074207023269048e+001
 1.189694132694881e+000	 1.591059670033068e+000	 1.067002610061158e+001
 1.172144655167453e+000	 1.604032371381585e+000	 1.058758238090059e+001
 1.154468811420629e+000	 1.616800755603675e+000	 1.049349671246663e+001
 1.329574577771481e+000	 1.485129432672502e+000	 1.106456054881669e+001
 1.313103976490788e+000	 1.499711907160471e+000	 1.102656245036193e+001
 1.296479553910158e+000	 1.514106493941479e+000	 1.099002526068648e+001
 1.279704530767292e+000	 1.528310787884055e+000	 1.095272469032717e+001
 1.262782177274876e+000	 1.542322457468363e+000	 1.091261953516004e+001
 1.245715811017962e+000	 1.556139246035576e+000	 1.086783204150557e+001
 1.228508794814330e+000	 1.569758972965335e+000	 1.081662723825067e+001
 1.211164534540678e+000	 1.583179534780040e+000	 1.075739148950157e+001
 1.193686476927557e+000	 1.596398906174859e+000	 1.068861052371759e+001
 1.176078107326003e+000	 1.609415140972496e+000	 1.060884719537088e+001
 1.158342947448835e+000	 1.622226373001849e+000	 1.051671923295804e+001
 1.334021347648369e+000	 1.490096456677241e+000	 1.105034538438179e+001
 1.317495660344928e+000	 1.504727702335888e+000	 1.101628792361957e+001
 1.300815637285527e+000	 1.519170431895721e+000	 1.098398095972397e+001
 1.283984509979651e+000	 1.533422232181358e+000	 1.095108098884908e+001
 1.267005559577238e+000	 1.547480763875244e+000	 1.091542390399832e+001
 1.249882114759033e+000	 1.561343762771212e+000	 1.087500649061809e+001
 1.232617549589786e+000	 1.575009040955869e+000	 1.082796538556790e+001
 1.215215281337177e+000	 1.588474487916584e+000	 1.077255525229111e+001
 1.197678768259375e+000	 1.601738071574951e+000	 1.070712643376452e+001
 1.180011507364201e+000	 1.614797839244733e+000	 1.063010234487186e+001
 1.162217032142869e+000	 1.627651918513473e+000	 1.053995686354748e+001
 1.123474688779447e+000	 1.573394367852797e+000	 1.030912087029452e+001
 1.106153864645299e+000	 1.585619394299173e+000	 1.019031031641350e+001
 1.088716992972960e+000	 1.597642202083156e+000	 1.006005519352478e+001
 1.071167579766116e+000	 1.609461215647480e+000	 9.919436051761235e+000
 1.053509157420699e+000	 1.621074939663807e+000	 9.769580332920917e+000
 1.035745282457134e+000	 1.632481959511823e+000	 9.611643209612428e+000
 1.017879533245523e+000	 1.643680941682343e+000	 9.446789395662730e+000
 9.999155077266725e-001	 1.654670634104525e+000	 9.276171092815019e+000
 9.818568211318918e-001	 1.665449866397395e+000	 9.100930920513678e+000
 9.637071037044300e-001	 1.676017550046008e+000	 8.922160994315110e+000
 9.454699984254019e-001	 1.686372678502719e+000	 8.740906775543584e+000
 1.127348991396634e+000	 1.578820218538282e+000	 1.033201775857605e+001
 1.109968436397971e+000	 1.591087402990088e+000	 1.021465113830851e+001
 1.092471433671216e+000	 1.603151671428428e+000	 1.008559350855163e+001
 1.074861501310506e+000	 1.615011442862725e+000	 9.945966867449501e+000
 1.057142183893234e+000	 1.626665216808005e+000	 9.796941355644920e+000
 1.039317050204486e+000	 1.638111573765636e+000	 9.639715548630097e+000
 1.021389690954367e+000	 1.649349175627829e+000	 9.475497748048426e+000
 1.003363716491180e+000	 1.660376766005978e+000	 9.305483747313758e+000
 9.852427545133561e-001	 1.671193170483048e+000	 9.130858136872496e+000
 9.670304477830336e-001	 1.681797296790355e+000	 8.952754655882824e+000
 9.487304518441457e-001	 1.692188134909175e+000	 8.772258589463901e+000
 1.131223296920624e+000	 1.584246073293903e+000	 1.035495115472989e+001
 1.113783011012618e+000	 1.596555415782833e+000	 1.023902384079257e+001
 1.096225877186315e+000	 1.608661144906721e+000	 1.011117308951049e+001
 1.078555425626313e+000	 1.620561674241674e+000	 9.972560137403786e+000
 1.060775213091481e+000	 1.632255498146073e+000	 9.824395555117070e+000
 1.042888820631569e+000	 1.643741192242959e+000	 9.667918985313120e+000
 1.024899851296698e+000	 1.655017413825931e+000	 9.504379907844772e+000
 1.006811927842678e+000	 1.666082902188611e+000	 9.335015205455155e+000
 9.886286904350721e-001	 1.676936478877901e+000	 9.161048888070678e+000
 9.703537943549183e-001	 1.687577047871365e+000	 8.983653640940448e+000
 9.519909077089775e-001	 1.698003595679197e+000	 8.803951812727352e+000
 1.135097598571297e+000	 1.589671922625073e+000	 1.037792766560013e+001
 1.117597581813682e+000	 1.602023423109025e+000	 1.026343739901315e+001
 1.099980316947971e+000	 1.614170612877078e+000	 1.013680514867031e+001
 1.082249346249206e+000	 1.626111900072022e+000	 9.999229215730169e+000
 1.064408238657718e+000	 1.637845773895593e+000	 9.851958367064244e+000
 1.046460587487910e+000	 1.649370805092509e+000	 9.696271010797199e+000
 1.028410008129908e+000	 1.660685646357755e+000	 9.533455428098907e+000
 1.010260135747011e+000	 1.671789032667180e+000	 9.364787120098635e+000
 9.920146229719017e-001	 1.682679781531623e+000	 9.191526993772431e+000
 9.736771376045057e-001	 1.693356793174897e+000	 9.014884030773679e+000
 9.552513603143963e-001	 1.703819050636108e+000	 8.836014908594892e+000
 1.138971889568530e+000	 1.595097757037207e+000	 1.040095110710816e+001
 1.121412142125609e+000	 1.607491415400281e+000	 1.028789797336444e+001
 1.103734746385898e+000	 1.619680065698536e+000	 1.016249806255125e+001
 1.085943256714852e+000	 1.631662110641459e+000	 1.002598460287318e+001
 1.068041254234226e+000	 1.643436034274148e+000	 9.879642358960366e+000
 1.050032344523041e+000	 1.655000402463004e+000	 9.724786236919806e+000
 1.031920155311388e+000	 1.666353863304406e+000	 9.562740975270886e+000
 1.013708334170022e+000	 1.677495147456441e+000	 9.394822092573712e+000
 9.954005461987061e-001	 1.688423068393885e+000	 9.222313384517076e+000
 9.770004717162162e-001	 1.699136522586807e+000	 9.046469022605169e+000
 9.585118039549021e-001	 1.709634489603235e+000	 8.868473465730391e+000
 1.142846163132202e+000	 1.600523567035720e+000	 1.042402257388014e+001
 1.125226685272839e+000	 1.612959383088218e+000	 1.031240897673320e+001
 1.107489158929809e+000	 1.625189493730138e+000	 1.018825743671196e+001
 1.089637150558919e+000	 1.637212296237679e+000	 1.005283400787748e+001
 1.071674253463287e+000	 1.649026269499319e+000	 9.907457289703183e+000
 1.053604085486492e+000	 1.660629974503159e+000	 9.753476453262222e+000
 1.035430286698531e+000	 1.672022054746992e+000	 9.592250383599472e+000
 1.017156517077555e+000	 1.683201236571147e+000	 9.425128113390915e+000
 9.987864541903467e-001	 1.694166329414357e+000	 9.253426150642721e+000
 9.803237908744715e-001	 1.704916225992957e+000	 9.078428975770621e+000
 9.617722329249945e-001	 1.715449902403902e+000	 8.901350241623215e+000
 1.146720412482190e+000	 1.605949343126026e+000	 1.044714050879185e+001
 1.129041204579818e+000	 1.618427316604453e+000	 1.033697114167243e+001
 1.111243548009421e+000	 1.630698887330922e+000	 1.021408617047709e+001
 1.093331021317074e+000	 1.642762447148372e+000	 1.007978241060227e+001
 1.075307229987180e+000	 1.654616469788688e+000	 9.935410169257695e+000
 1.057175804127793e+000	 1.666259511361695e+000	 9.782350684172476e+000
 1.038940396148730e+000	 1.677690210766617e+000	 9.621994709464392e+000
 1.020604678435454e+000	 1.688907290026054e+000	 9.455722428145061e+000
 1.002172341021685e+000	 1.699909554542709e+000	 9.284880591237144e+000
 9.836470892636930e-001	 1.710695893279204e+000	 9.110781457938305e+000
 9.650326415191733e-001	 1.721265278861435e+000	 8.934665206069521e+000
 1.150594630838373e+000	 1.611375075813539e+000	 1.047030077242942e+001
 1.132855693370989e+000	 1.623895206380605e+000	 1.036158258750236e+001
 1.114997907054446e+000	 1.636208236859930e+000	 1.023998452160397e+001
 1.097024862524986e+000	 1.648312553661232e+000	 1.010683212388772e+001
 1.078940177448188e+000	 1.660206625359837e+000	 9.963505318265030e+000
 1.060747494196473e+000	 1.671889003187328e+000	 9.811415245768153e+000
 1.042450477519376e+000	 1.683358321444389e+000	 9.651982285742381e+000
 1.024052812209563e+000	 1.694613297835917e+000	 9.486615439789143e+000
 1.005558200767583e+000	 1.705652733728614e+000	 9.316689263114181e+000
 9.869703610683014e-001	 1.716475514331406e+000	 9.143541291369511e+000
 9.682930240319377e-001	 1.727080608799159e+000	 8.968435584710914e+000
 1.154468811420629e+000	 1.616800755603675e+000	 1.049349671246663e+001
 1.136670144970795e+000	 1.629363042848288e+000	 1.038623888733877e+001
 1.118752229494600e+000	 1.641717532676200e+000	 1.026595017088840e+001
 1.100718667718322e+000	 1.653862606063951e+000	 1.013398285567324e+001
 1.082573089488589e+000	 1.665796726430349e+000	 9.991744427616599e+000
 1.064319149442063e+000	 1.677518440128775e+000	 9.840673802918214e+000
 1.045960524667862e+000	 1.689026376861413e+000	 9.682218776157498e+000
 1.027500912365726e+000	 1.700319250015491e+000	 9.517814868041146e+000
 1.008944027502901e+000	 1.711395856921740e+000	 9.348862029813766e+000
 9.902936004727182e-001	 1.722255079035423e+000	 9.176720599218475e+000
 9.715533747577871e-001	 1.732895882040398e+000	 9.002675902628015e+000
 1.158342947448835e+000	 1.622226373001849e+000	 1.051671923295804e+001
 1.140484552703679e+000	 1.634830816439122e+000	 1.041093313504779e+001
 1.122506508759595e+000	 1.647226765138774e+000	 1.029197828670855e+001
 1.104412430432750e+000	 1.659412594644220e+000	 1.016123177106626e+001
 1.086205959750667e+000	 1.671386763217806e+000	 1.002012661799216e+001
 1.067890763614093e+000	 1.683147812334755e+000	 9.870127426202759e+000
 1.049470531451580e+000	 1.694694367098797e+000	 9.712707229623510e+000
 1.030948972869787e+000	 1.706025136579531e+000	 9.549325801078732e+000
 1.012329815302501e+000	 1.717138914071758e+000	 9.381409569089877e+000
 9.936168016613649e-001	 1.728034577277114e+000	 9.210328851870735e+000
 9.748136879912218e-001	 1.738711088408478e+000	 9.037398027987974e+000
 1.162217032142869e+000	 1.627651918513473e+000	 1.053995686354748e+001
 1.144298909894084e+000	 1.640298517584723e+000	 1.043565601212684e+001
 1.126260738279148e+000	 1.652735924606690e+000	 1.031806158950684e+001
 1.108106144203938e+000	 1.664962509689734e+000	 1.018857355436154e+001
 1.089838781876700e+000	 1.676976725939790e+000	 1.004864849936124e+001
 1.071462330462093e+000	 1.688777109953985e+000	 9.899774648850022e+000
 1.052980491727922e+000	 1.700362282237645e+000	 9.743448134577545e+000
 1.034396987687588e+000	 1.711730947542792e+000	 9.581150747239335e+000
 1.015715558241244e+000	 1.722881895128340e+000	 9.414329343908340e+000
 9.969399588186622e-001	 1.733813998942337e+000	 9.244372913316880e+000
 9.780739580267407e-001	 1.744526217726725e+000	 9.072611215742915e+000
 9.454699984254019e-001	 1.686372678502719e+000	 8.740906775543584e+000
 9.271519130027892e-001	 1.696512822322570e+000	 8.559155804463899e+000
 9.087537793314252e-001	 1.706438709573753e+000	 8.378071354174642e+000
 8.902792643757620e-001	 1.716149581185522e+000	 8.197431098397717e+000
 8.717320388004656e-001	 1.725644759681382e+000	 8.016918309329912e+000
 8.531157747611764e-001	 1.734923648915190e+000	 7.836119379630004e+000
 8.344341437159466e-001	 1.743985733737606e+000	 7.654523124434836e+000
 8.156908142598138e-001	 1.752830579594108e+000	 7.471521846973442e+000
 7.968894499849265e-001	 1.761457832055922e+000	 7.286414134472020e+000
 7.780337073685373e-001	 1.769867216285273e+000	 7.098409334752782e+000
 7.591272336911190e-001	 1.778058536436490e+000	 6.906633648351125e+000
 9.487304518441457e-001	 1.692188134909175e+000	 8.772258589463901e+000
 9.303491965016513e-001	 1.702363247016608e+000	 8.591312384699176e+000
 9.118876168640173e-001	 1.712323363691582e+000	 8.410981771811137e+000
 8.933493925412196e-001	 1.722067723245688e+000	 8.231000086347491e+000
 8.747382068562042e-001	 1.731595645866144e+000	 8.051001244437533e+000
 8.560577446280374e-001	 1.740906533350988e+000	 7.870517309000784e+000
 8.373116899757883e-001	 1.749999868774379e+000	 7.688977888117344e+000
 8.185037241456409e-001	 1.758875216083226e+000	 7.505711348697880e+000
 7.996375233636354e-001	 1.767532219626498e+000	 7.319947811302383e+000
 7.807167567163826e-001	 1.775970603618635e+000	 7.130823875260979e+000
 7.617450840619970e-001	 1.784190171538584e+000	 6.937389007287720e+000
 9.519909077089775e-001	 1.698003595679197e+000	 8.803951812727352e+000
 9.335464823992025e-001	 1.708213676100543e+000	 8.623827665965665e+000
 9.150214567476976e-001	 1.718208022225071e+000	 8.444241706673312e+000
 8.964195230099689e-001	 1.727985869746704e+000	 8.264888202182430e+000
 8.777443771672541e-001	 1.737546536516372e+000	 8.085356973398044e+000
 8.589997167020532e-001	 1.746889422276294e+000	 7.905130991067413e+000
 8.401892383944617e-001	 1.756014008324126e+000	 7.723585857448371e+000
 8.213166361418183e-001	 1.764919857108205e+000	 7.539991156113540e+000
 8.023855988040649e-001	 1.773606611755243e+000	 7.353513634913541e+000
 7.833998080771785e-001	 1.782073995531895e+000	 7.163222170014665e+000
 7.643629363969243e-001	 1.790321811241722e+000	 6.968094442571116e+000
 9.552513603143963e-001	 1.703819050636108e+000	 8.836014908594892e+000
 9.367437651004996e-001	 1.714064099336459e+000	 8.656733277267113e+000
 9.181552934985530e-001	 1.724092674876353e+000	 8.477887341587092e+000
 8.994896504095808e-001	 1.733904010332052e+000	 8.299137502331456e+000
 8.807505444731012e-001	 1.743497421218201e+000	 8.120034674476903e+000
 8.619416858350344e-001	 1.752872305221203e+000	 7.940017899368415e+000
 8.430667839364915e-001	 1.762028141862217e+000	 7.758413896647987e+000
 8.241295453259528e-001	 1.770964492091011e+000	 7.574438538306421e+000
 8.051336714972514e-001	 1.779680997812046e+000	 7.387200209073848e+000
 7.860828567557172e-001	 1.788177381344190e+000	 7.195704999840360e+000
 7.669807861147552e-001	 1.796453444815625e+000	 6.998863664034962e+000
 9.585118039549021e-001	 1.709634489603235e+000	 8.868473465730391e+000
 9.399410390105990e-001	 1.719914506486441e+000	 8.690057978277910e+000
 9.212891216326701e-001	 1.729977311347563e+000	 8.511951983322444e+000
 9.025597693676256e-001	 1.739822134645212e+000	 8.333787149750378e+000
 8.837567035132306e-001	 1.749448289557761e+000	 8.155080605641739e+000
 8.648836468787912e-001	 1.758855171715808e+000	 7.975232552174580e+000
 8.459443215664021e-001	 1.768042258864021e+000	 7.793525872790929e+000
 8.269424467756527e-001	 1.777009110453612e+000	 7.609127719641877e+000
 8.078817366342320e-001	 1.785755367166793e+000	 7.421093040741003e+000
 7.887658980567921e-001	 1.794280750374657e+000	 7.228369993300135e+000
 7.695986286343436e-001	 1.802585061530013e+000	 7.029807171550992e+000
 9.617722329249945e-001	 1.715449902403902e+000	 8.901350241623215e+000
 9.431382985345579e-001	 1.725764887312575e+000	 8.723827700160967e+000
 9.244229356661369e-001	 1.735861921340835e+000	 8.546466101098121e+000
 9.056298745116742e-001	 1.745740232329667e+000	 8.368873450392659e+000
 8.867628490271267e-001	 1.755399131121187e+000	 8.190538139268281e+000
 8.678255946851337e-001	 1.764838011290203e+000	 8.010826545685850e+000
 8.488218462487185e-001	 1.774056348804909e+000	 7.828982687737173e+000
 8.297553355685249e-001	 1.783053701617973e+000	 7.644129910660401e+000
 8.106297894060444e-001	 1.791829709189373e+000	 7.455274570139512e+000
 7.914489272851957e-001	 1.800384091942436e+000	 7.261311656156110e+000
 7.722164593745428e-001	 1.808716650654608e+000	 7.061032284071682e+000
 9.650326415191733e-001	 1.721265278861435e+000	 8.934665206069521e+000
 9.463355380774321e-001	 1.731615231576942e+000	 8.758065586457866e+000
 9.275567301150404e-001	 1.741746494558303e+000	 8.581457365166264e+000
 9.086999604692969e-001	 1.751658293028898e+000	 8.404429889763865e+000
 8.897689757542746e-001	 1.761349935494609e+000	 8.226447796926795e+000
 8.707675241058728e-001	 1.770820813474479e+000	 8.046848587300779e+000
 8.516993529479655e-001	 1.780070401160249e+000	 7.864842310123556e+000
 8.325682067821763e-001	 1.789098255006060e+000	 7.679513339017290e+000
 8.133778250037246e-001	 1.797904013249672e+000	 7.489824200863581e+000
 7.941319397457213e-001	 1.806487395366663e+000	 7.294621400836787e+000
 7.748342737542070e-001	 1.814848201459126e+000	 7.092643168648457e+000
 9.682930240319377e-001	 1.727080608799159e+000	 8.968435584710914e+000
 9.495327520442785e-001	 1.737465529041629e+000	 8.792792034049356e+000
 9.306904994954675e-001	 1.747631020702102e+000	 8.616950685475214e+000
 9.117700218680644e-001	 1.757576306386385e+000	 8.440487169555754e+000
 8.927750784341609e-001	 1.767300692264160e+000	 8.262847284245646e+000
 8.737094299928181e-001	 1.776803567798732e+000	 8.083344528955955e+000
 8.545768366286672e-001	 1.786084405405412e+000	 7.901159807414314e+000
 8.353810554942143e-001	 1.795142760039838e+000	 7.715343280466843e+000
 8.161258386183103e-001	 1.803978268717579e+000	 7.524818330004437e+000
 7.968149307431616e-001	 1.812590649966475e+000	 7.328387575905747e+000
 7.774520671921896e-001	 1.820979703213290e+000	 7.124740869426438e+000
 9.715533747577871e-001	 1.732895882040398e+000	 9.002675902628015e+000
 9.527299348401541e-001	 1.743315769468720e+000	 8.828024734183767e+000
 9.338242383235065e-001	 1.753515489474366e+000	 8.652968250408131e+000
 9.148400533355462e-001	 1.763494262045610e+000	 8.477073244358888e+000
 8.957811518062693e-001	 1.773251391015973e+000	 8.299771525851638e+000
 8.766513071977804e-001	 1.782786263793054e+000	 8.120357400536021e+000
 8.574542922553489e-001	 1.792098351015767e+000	 7.937987378010281e+000
 8.381938767822468e-001	 1.801187206141276e+000	 7.751682089889599e+000
 8.188738254408385e-001	 1.810052464962980e+000	 7.560330378302838e+000
 7.994978955823092e-001	 1.818693845061012e+000	 7.362695495533836e+000
 7.800698351073454e-001	 1.827111145186820e+000	 7.157423336617906e+000
 9.748136879912218e-001	 1.738711088408478e+000	 9.037398027987974e+000
 9.559270808701150e-001	 1.749165942620299e+000	 8.863778713572080e+000
 9.369579411152436e-001	 1.759399890577228e+000	 8.689529565595048e+000
 9.179100494993139e-001	 1.769412149650055e+000	 8.514213358451903e+000
 8.987871906100859e-001	 1.779202021336181e+000	 8.337252700384150e+000
 8.795931505725697e-001	 1.788768890987538e+000	 8.157927443350362e+000
 8.603317147925348e-001	 1.798112227466683e+000	 7.975374383415043e+000
 8.410066657238805e-001	 1.807231582732339e+000	 7.788589232363116e+000
 8.216217806623460e-001	 1.816126591355764e+000	 7.596430820326312e+000
 8.021808295679572e-001	 1.824796969969410e+000	 7.397627468973856e+000
 7.826875729185272e-001	 1.833242516649435e+000	 7.190785455453973e+000
 9.780739580267407e-001	 1.744526217726725e+000	 9.072611215742915e+000
 9.591241845392182e-001	 1.755016038258451e+000	 8.900066375546984e+000
 9.400916023867665e-001	 1.765284213712824e+000	 8.726651492797092e+000
 9.209800049869374e-001	 1.775329958843201e+000	 8.551930082664851e+000
 9.017931895850956e-001	 1.785152572810915e+000	 8.375320275582009e+000
 8.825349549689967e-001	 1.794751438912278e+000	 8.196092143676854e+000
 8.632090992047501e-001	 1.804126024233531e+000	 8.013367380457126e+000
 8.438194173967226e-001	 1.813275879234992e+000	 7.826121314272815e+000
 8.243696994738701e-001	 1.822200637265818e+000	 7.633187214670388e+000
 8.048637280048987e-001	 1.830900014010807e+000	 7.433262830039292e+000
 7.853052760445892e-001	 1.839373806870855e+000	 7.224919075117788e+000
 7.591272336911190e-001	 1.778058536436490e+000	 6.906633648351125e+000
 7.401708184701011e-001	 1.786032854945589e+000	 6.706410116670094e+000
 7.211709194066933e-001	 1.793788887867156e+000	 6.497925260030296e+000
 7.021311465288181e-001	 1.801326673544389e+000	 6.287456037982942e+000
 6.830550926306996e-001	 1.808646326353043e+000	 6.081279380402179e+000
 6.639463313706804e-001	 1.815748035804697e+000	 5.885650520072232e+000
 6.448084154108978e-001	 1.822632065596484e+000	 5.704037060005696e+000
 6.256448746004242e-001	 1.829298752609273e+000	 5.535853436515422e+000
 6.064592142033819e-001	 1.835748505856337e+000	 5.380499103375350e+000
 5.872549131734427e-001	 1.841981805384595e+000	 5.237502374091907e+000
 5.680354224760176e-001	 1.847999201130549e+000	 5.106558620720150e+000
 7.617450840619970e-001	 1.784190171538584e+000	 6.937389007287720e+000
 7.427232976405556e-001	 1.792191989486165e+000	 6.735358231025341e+000
 7.236578774226532e-001	 1.799974769088290e+000	 6.525282095762775e+000
 7.045524458853989e-001	 1.807538548820397e+000	 6.313314633603216e+000
 6.854106082127708e-001	 1.814883443452677e+000	 6.105609410673464e+000
 6.662359503868772e-001	 1.822009643150254e+000	 5.908319209892682e+000
 6.470320373212150e-001	 1.828917412519633e+000	 5.725481225579841e+000
 6.278024110375445e-001	 1.835607089603428e+000	 5.556556093481549e+000
 6.085505888878960e-001	 1.842079084825410e+000	 5.400793214629424e+000
 5.892800618231178e-001	 1.848333879887951e+000	 5.257588390112990e+000
 5.699942927092772e-001	 1.854372026624021e+000	 5.126522273103229e+000
 7.643629363969243e-001	 1.790321811241722e+000	 6.968094442571117e+000
 7.452757787260289e-001	 1.798351128648356e+000	 6.764246562165281e+000
 7.261448373044902e-001	 1.806160654951032e+000	 6.552594985068703e+000
 7.069737470586095e-001	 1.813750428757426e+000	 6.339164611199283e+000
 6.877661255621314e-001	 1.821120565232174e+000	 6.129979131882613e+000
 6.685255711209364e-001	 1.828271255193945e+000	 5.931061696149863e+000
 6.492556608998900e-001	 1.835202764158619e+000	 5.746927057411060e+000
 6.299599490934508e-001	 1.841915431330562e+000	 5.577192956961018e+000
 6.106419651415644e-001	 1.848409668544040e+000	 5.420946881173709e+000
 5.913052119922638e-001	 1.854685959156884e+000	 5.277446641534283e+000
 5.719531644122837e-001	 1.860744856898537e+000	 5.146153099126198e+000
 7.669807861147552e-001	 1.796453444815625e+000	 6.998863664034963e+000
 7.478282572597390e-001	 1.804510261653793e+000	 6.793201131649707e+000
 7.286317947000455e-001	 1.812346534630249e+000	 6.580000344182243e+000
 7.093950458111602e-001	 1.819962302484917e+000	 6.365150881319073e+000
 6.901216405565783e-001	 1.827357680776867e+000	 6.154540064089179e+000
 6.708151895659436e-001	 1.834532860978315e+000	 5.954054134160760e+000
 6.514792822554776e-001	 1.841488109514515e+000	 5.768549744895203e+000
 6.321174849923246e-001	 1.848223766751578e+000	 5.597939032809804e+000
 6.127333393043349e-001	 1.854740245934267e+000	 5.441131955485329e+000
 5.933303601367137e-001	 1.861038032075868e+000	 5.297242905599083e+000
 5.739120341568522e-001	 1.867117680802294e+000	 5.165607938898156e+000
 7.695986286343436e-001	 1.802585061530013e+000	 7.029807171550992e+000
 7.503807287749006e-001	 1.810669377724103e+000	 6.822344709595106e+000
 7.311187452571608e-001	 1.818532397300815e+000	 6.607631329957997e+000
 7.118163379057592e-001	 1.826174159132310e+000	 6.391415120071031e+000
 6.924771490739102e-001	 1.833594779172092e+000	 6.179440550003090e+000
 6.731048017149861e-001	 1.840794449545912e+000	 5.977450184588593e+000
 6.537028974965337e-001	 1.847773437588392e+000	 5.790521463054126e+000
 6.342750149583490e-001	 1.854532084827382e+000	 5.618966775210274e+000
 6.148247077161557e-001	 1.861070805918133e+000	 5.461518200032279e+000
 5.953555027123004e-001	 1.867390087529377e+000	 5.317141329236012e+000
 5.758708985147967e-001	 1.873490487183485e+000	 5.185042459109399e+000
 7.722164593745428e-001	 1.808716650654608e+000	 7.061032284071682e+000
 7.529331888047300e-001	 1.816828466080916e+000	 6.851796843178220e+000
 7.336056846236779e-001	 1.824718232137600e+000	 6.635617867427325e+000
 7.142376191051160e-001	 1.832385987829046e+000	 6.418095795337737e+000
 6.948326469919245e-001	 1.839831849503180e+000	 6.204825779473454e+000
 6.753944035611510e-001	 1.847056009939280e+000	 6.001399951274026e+000
 6.559265027316127e-001	 1.854058737381323e+000	 5.813011323895310e+000
 6.364325352157069e-001	 1.860840374518883e+000	 5.640446040559229e+000
 6.169160667169764e-001	 1.867401337417683e+000	 5.482273243146566e+000
 5.973806361748560e-001	 1.873742114401887e+000	 5.337304386381170e+000
 5.778297540579321e-001	 1.879863264890306e+000	 5.204611111279580e+000
 7.748342737542070e-001	 1.814848201459126e+000	 7.092643168648457e+000
 7.554856328824438e-001	 1.822987515945862e+000	 6.881673885091731e+000
 7.360926084474382e-001	 1.830904028315475e+000	 6.664086677293171e+000
 7.166588851719398e-001	 1.838597777704565e+000	 6.445328192921751e+000
 6.971881301884186e-001	 1.846068880855466e+000	 6.230837813910619e+000
 6.776839910975245e-001	 1.853317531200967e+000	 6.026050493898313e+000
 6.581500940692702e-001	 1.860343997894379e+000	 5.836185327742413e+000
 6.385900419885806e-001	 1.867148624786985e+000	 5.662544041343431e+000
 6.190074126467443e-001	 1.873731829354958e+000	 5.503562534907339e+000
 5.994057569802131e-001	 1.880094101577871e+000	 5.357892835340914e+000
 5.797885973580729e-001	 1.886236002770953e+000	 5.224467090084136e+000
 7.774520671921896e-001	 1.820979703213290e+000	 7.124740869426438e+000
 7.580380565412580e-001	 1.829146516540570e+000	 6.912089021953899e+000
 7.385795123762832e-001	 1.837089775009310e+000	 6.693161303362975e+000
 7.190801318689393e-001	 1.844809517888308e+000	 6.473244442624940e+000
 6.995435945411911e-001	 1.852305862314285e+000	 6.257615610645970e+000
 6.799735603171933e-001	 1.859579002373519e+000	 6.051545850269541e+000
 6.603736676180615e-001	 1.866629208128634e+000	 5.860206314541495e+000
 6.407475315011527e-001	 1.873456824592596e+000	 5.685425300005524e+000
 6.210987418454086e-001	 1.880062270652001e+000	 5.525549303035620e+000
 6.014308615842045e-001	 1.886446037941803e+000	 5.379065676199565e+000
 5.817474249870337e-001	 1.892608689673620e+000	 5.244762291765173e+000
 7.800698351073454e-001	 1.827111145186820e+000	 7.157423336617906e+000
 7.605904553143884e-001	 1.835305457086669e+000	 6.943152302675064e+000
 7.410663920580549e-001	 1.843275461393978e+000	 6.722962139925735e+000
 7.215013549588241e-001	 1.851021197509715e+000	 6.501973544265683e+000
 7.018990359280389e-001	 1.858542782964969e+000	 6.285295047231370e+000
 6.822631072132447e-001	 1.865840412499482e+000	 6.078027058558549e+000
 6.625972194865419e-001	 1.872914357085160e+000	 5.885233915150749e+000
 6.429049999776058e-001	 1.879764962896621e+000	 5.709251602804330e+000
 6.231900506529177e-001	 1.886392650230855e+000	 5.548394508808132e+000
 6.034559464426624e-001	 1.892797912378159e+000	 5.400980108272788e+000
 5.837062335166292e-001	 1.898981314446504e+000	 5.265647272625675e+000
 7.826875729185272e-001	 1.833242516649435e+000	 7.190785455453973e+000
 7.631428247350517e-001	 1.841464326805790e+000	 6.974970666780571e+000
 7.435532431405945e-001	 1.849461076644348e+000	 6.753606459073429e+000
 7.239225502043030e-001	 1.857232805698227e+000	 6.531641393634805e+000
 7.042544502267606e-001	 1.864779631892853e+000	 6.314008945680306e+000
 6.845526277787646e-001	 1.872101750621401e+000	 6.105632179486274e+000
 6.648207457832661e-001	 1.879199433765029e+000	 5.911424502619025e+000
 6.450624436421225e-001	 1.886073028659967e+000	 5.734181953678789e+000
 6.252813354092197e-001	 1.892722957013562e+000	 5.572256802991786e+000
 6.054810080114195e-001	 1.899149713771413e+000	 5.423791487612848e+000
 5.856650195186739e-001	 1.905353865937798e+000	 5.287271207611194e+000
 7.853052760445892e-001	 1.839373806870855e+000	 7.224919075117788e+000
 7.656951603364636e-001	 1.847623114919561e+000	 7.007647972694484e+000
 7.460400612717434e-001	 1.855646609935292e+000	 6.785208437967550e+000
 7.263437133680853e-001	 1.863444331583285e+000	 6.562370808393395e+000
 7.066098333151536e-001	 1.871016398183272e+000	 6.343887096651653e+000
 6.868421180068403e-001	 1.878363005781824e+000	 6.134496318464664e+000
 6.670442426167896e-001	 1.885484427169312e+000	 5.938931270306726e+000
 6.472198587188857e-001	 1.892381010843541e+000	 5.760372528115538e+000
 6.273725924542637e-001	 1.899053179922165e+000	 5.597292481804621e+000
 6.075060427463085e-001	 1.905501431006039e+000	 5.447653284563293e+000
 5.876237795649825e-001	 1.911726332995700e+000	 5.309781848975947e+000
 5.680354224760176e-001	 1.847999201130549e+000	 5.106558620720150e+000
 5.488041631848251e-001	 1.853801311271564e+000	 4.987271583545307e+000
 5.295645241072590e-001	 1.859388819616633e+000	 4.878424355969020e+000
 5.103198611286465e-001	 1.864762475731302e+000	 4.778811118013993e+000
 4.910734960175067e-001	 1.869923094099526e+000	 4.687481860546662e+000
 4.718287150019048e-001	 1.874871552788906e+000	 4.603747879893334e+000
 4.525887673990908e-001	 1.879608792083759e+000	 4.527181314918456e+000
 4.333568642990193e-001	 1.884135813088218e+000	 4.457609176150488e+000
 4.141361773022579e-001	 1.888453676301606e+000	 4.395102339545724e+000
 3.949298373126922e-001	 1.892563500168320e+000	 4.339959995545733e+000
 3.757409333853378e-001	 1.896466459604412e+000	 4.292690057302709e+000
 5.699942927092772e-001	 1.854372026624021e+000	 5.126522273103229e+000
 5.506967144176710e-001	 1.860194145342777e+000	 5.007069123607408e+000
 5.313907274419987e-001	 1.865800922211313e+000	 4.897950255012106e+000
 5.120796992403625e-001	 1.871193109380035e+000	 4.797972885968320e+000
 4.927669630364041e-001	 1.876371524141626e+000	 4.706216629621043e+000
 4.734558163907506e-001	 1.881337047591688e+000	 4.622038241516696e+000
 4.541495198259259e-001	 1.886090623257090e+000	 4.545070267979797e+000
 4.348512955053326e-001	 1.890633255694253e+000	 4.475214057291206e+000
 4.155643259668068e-001	 1.894966009059619e+000	 4.412627619432309e+000
 3.962917529111595e-001	 1.899090005654519e+000	 4.357708838530076e+000
 3.770366760460168e-001	 1.903006424446688e+000	 4.311074555547983e+000
 5.719531644122837e-001	 1.860744856898537e+000	 5.146153099126198e+000
 5.525892670705060e-001	 1.866586984209952e+000	 5.026411691633718e+000
 5.332169321469450e-001	 1.872213029616325e+000	 4.916889124050525e+000
 5.138395386724857e-001	 1.877623747852923e+000	 4.816411356517678e+000
 4.944604313259011e-001	 1.882819959021162e+000	 4.724094232963501e+000
 4.750829190003874e-001	 1.887802547244642e+000	 4.639347441937860e+000
 4.557102734237521e-001	 1.892572459292788e+000	 4.561872232870948e+000
 4.363457278328530e-001	 1.897130703174315e+000	 4.491653363144081e+000
 4.169924757028024e-001	 1.901478346702779e+000	 4.428945775204156e+000
 3.976536695313452e-001	 1.905616516036455e+000	 4.374256521649143e+000
 3.783324196787251e-001	 1.909546394194761e+000	 4.328322469803360e+000
 5.739120341568522e-001	 1.867117680802294e+000	 5.165607938898156e+000
 5.544818178312048e-001	 1.872979816686288e+000	 5.045446996904874e+000
 5.350431350260877e-001	 1.878625130611152e+000	 4.935381956914987e+000
 5.155993763451565e-001	 1.884054379897014e+000	 4.834263208944906e+000
 4.961538979223014e-001	 1.889268387454018e+000	 4.741249428792517e+000
 4.767100199832761e-001	 1.894268040433766e+000	 4.655810711085364e+000
 4.572710254611572e-001	 1.899054288848237e+000	 4.577725309634452e+000
 4.378401586662455e-001	 1.903628144158436e+000	 4.507070473816914e+000
 4.184206240109175e-001	 1.907990677835037e+000	 4.444207894012867e+000
 3.990155847898393e-001	 1.912143019893252e+000	 4.389764288106541e+000
 3.796281620158599e-001	 1.916086357404184e+000	 4.344607674878415e+000
 5.758708985147967e-001	 1.873490487183485e+000	 5.185042459109399e+000
 5.563743633876412e-001	 1.879372631584984e+000	 5.064321993349746e+000
 5.368693328834177e-001	 1.885037213975278e+000	 4.953569336424827e+000
 5.173592091785159e-001	 1.890484994259351e+000	 4.851664983213298e+000
 4.978473598619105e-001	 1.895716798156078e+000	 4.757817036273714e+000
 4.783371164918770e-001	 1.900733515845056e+000	 4.671563470054896e+000
 4.588317732067284e-001	 1.905536100580816e+000	 4.592767851161496e+000
 4.393345853901752e-001	 1.910125567276648e+000	 4.521609017057466e+000
 4.198487683918245e-001	 1.914502991060339e+000	 4.458565240317687e+000
 4.003774963032317e-001	 1.918669505804034e+000	 4.404393424852546e+000
 3.809239007898188e-001	 1.922626302630512e+000	 4.360103894541460e+000
 5.778297540579321e-001	 1.879863264890306e+000	 5.204611111279580e+000
 5.582669004276902e-001	 1.885765417719239e+000	 5.083182838803523e+000
 5.386955225229247e-001	 1.891449268488184e+000	 4.971591395340607e+000
 5.191190340927049e-001	 1.896915579686979e+000	 4.868753043281199e+000
 4.995408141810325e-001	 1.902165179843225e+000	 4.773931901859454e+000
 4.799642056786503e-001	 1.907198962164509e+000	 4.686741301114148e+000
 4.603925139290531e-001	 1.912017883147906e+000	 4.607138437497121e+000
 4.408290053893068e-001	 1.916622961158985e+000	 4.535412847476047e+000
 4.212769063461959e-001	 1.921015274982634e+000	 4.472169240638836e+000
 4.017394016881121e-001	 1.925195962347924e+000	 4.418305253461537e+000
 3.822196337329991e-001	 1.929166218429299e+000	 4.374984699100539e+000
 5.797885973580729e-001	 1.886236002770953e+000	 5.224467090084136e+000
 5.601594256392255e-001	 1.892158163902251e+000	 5.102174854383319e+000
 5.405217007485995e-001	 1.897861282929353e+000	 4.989587777452145e+000
 5.208788480078644e-001	 1.903346124926945e+000	 4.885663540560008e+000
 5.012342579159722e-001	 1.908613521231345e+000	 4.789728865755898e+000
 4.815912846960570e-001	 1.913664368078124e+000	 4.701479917812570e+000
 4.619532448967190e-001	 1.918499625206889e+000	 4.620975850211384e+000
 4.423234160483053e-001	 1.923120314435479e+000	 4.548626025784286e+000
 4.227050353747044e-001	 1.927527518205872e+000	 4.485171468252998e+000
 4.031012985610707e-001	 1.931722378104048e+000	 4.431661120864123e+000
 3.835153585777980e-001	 1.935706093356100e+000	 4.389423502740958e+000
 5.817474249870337e-001	 1.892608689673620e+000	 5.244762291765173e+000
 5.620519357101217e-001	 1.898550858947220e+000	 5.121442483979100e+000
 5.423478643644321e-001	 1.904273246078267e+000	 5.007697598805007e+000
 5.226386478441351e-001	 1.909776618726293e+000	 4.902532377512941e+000
 5.029276881030343e-001	 1.915061811036321e+000	 4.805342728523357e+000
 4.832183506965573e-001	 1.920129722271896e+000	 4.715915135199182e+000
 4.635139633783135e-001	 1.924981315415146e+000	 4.634419046833351e+000
 4.438178147518359e-001	 1.929617615736164e+000	 4.561392798040562e+000
 4.241331529780221e-001	 1.934039709333999e+000	 4.497723627830817e+000
 4.044631845386975e-001	 1.938248741651527e+000	 4.444622389941279e+000
 3.848110730566132e-001	 1.942245915966469e+000	 4.403593560632481e+000
 5.837062335166292e-001	 1.898981314446504e+000	 5.265647272625675e+000
 5.639444273282532e-001	 1.904943491667344e+000	 5.141129253866333e+000
 5.441740101744128e-001	 1.910685146714410e+000	 5.026059409062694e+000
 5.243984305216576e-001	 1.916207049832067e+000	 4.919495171393741e+000
 5.046211017785232e-001	 1.921510037974037e+000	 4.820908217804568e+000
 4.848454008326115e-001	 1.926595013431823e+000	 4.730182840139258e+000
 4.650746666424240e-001	 1.931462942430058e+000	 4.647607135352490e+000
 4.453121988845631e-001	 1.936114853691072e+000	 4.573857574907454e+000
 4.255612566568218e-001	 1.940551836970967e+000	 4.509977540015011e+000
 4.058250572375821e-001	 1.944775041569487e+000	 4.457350429981922e+000
 3.861067749018419e-001	 1.948785674815963e+000	 4.417667965802000e+000
 5.856650195186739e-001	 1.905353865937798e+000	 5.287271207611194e+000
 5.658368971814944e-001	 1.911336050875822e+000	 5.161377732432270e+000
 5.460001349825319e-001	 1.917096973617263e+000	 5.044811153003384e+000
 5.261581929605731e-001	 1.922637406991314e+000	 4.936687218123486e+000
 5.063144959787436e-001	 1.927958190760378e+000	 4.836559955179768e+000
 4.864724322566803e-001	 1.933060230243902e+000	 4.744418961737454e+000
 4.666353519576381e-001	 1.937944494909006e+000	 4.660679348779916e+000
 4.468065658311524e-001	 1.942612016930235e+000	 4.586164910921491e+000
 4.269893439117758e-001	 1.947063889720721e+000	 4.522085125950236e+000
 4.071869142743147e-001	 1.951301266437051e+000	 4.470006607008545e+000
 3.874024618458815e-001	 1.955325358460134e+000	 4.431819645786129e+000
 5.876237795649825e-001	 1.911726332995700e+000	 5.309781848975947e+000
 5.677293419577194e-001	 1.917728525385851e+000	 5.182329490025076e+000
 5.478262355927797e-001	 1.923508715566310e+000	 5.064090132155690e+000
 5.279179320810222e-001	 1.929067678951077e+000	 4.954243456308276e+000
 5.080078677400003e-001	 1.934406258111227e+000	 4.852432423149481e+000
 4.880994421212242e-001	 1.939525361394130e+000	 4.758759441860839e+000
 4.681960165925433e-001	 1.944425961509372e+000	 4.673775019778277e+000
 4.483009129762685e-001	 1.949109094083688e+000	 4.598459483774789e+000
 4.284174122435568e-001	 1.953575856187211e+000	 4.534198391758630e+000
 4.085487532654853e-001	 1.957827404833344e+000	 4.482752273973404e+000
 3.886981316211295e-001	 1.961864955454538e+000	 4.446221359067986e+000
 3.757409333853378e-001	 1.896466459604412e+000	 4.292690057302709e+000
 3.565753843284157e-001	 1.900163245559079e+000	 4.255361193250816e+000
 3.374333077030549e-001	 1.903655743049810e+000	 4.228532907427180e+000
 3.183176550561437e-001	 1.906945288345930e+000	 4.210718687401953e+000
 2.992313321576309e-001	 1.910033268048593e+000	 4.200552582697744e+000
 2.801771981265868e-001	 1.912921117535318e+000	 4.196760413929226e+000
 2.611580646121947e-001	 1.915610319394058e+000	 4.198129872991890e+000
 2.421766950293987e-001	 1.918102401848856e+000	 4.203479985838518e+000
 2.232358038488350e-001	 1.920398937179060e+000	 4.211630391131156e+000
 2.043380559406117e-001	 1.922501540134042e+000	 4.221370867028516e+000
 1.854860659714354e-001	 1.924411866345337e+000	 4.231431514889605e+000
 3.770366760460168e-001	 1.903006424446688e+000	 4.311074555547983e+000
 3.578050345906110e-001	 1.906715958768053e+000	 4.274805886543559e+000
 3.385969465114715e-001	 1.910220500136607e+000	 4.249326313467588e+000
 3.194153735338842e-001	 1.913521389429823e+000	 4.233047201420906e+000
 3.002632314483341e-001	 1.916620018030578e+000	 4.224506480395647e+000
 2.811433892335524e-001	 1.919517826266315e+000	 4.222338650801838e+000
 2.620586682346835e-001	 1.922216301837717e+000	 4.225243659255487e+000
 2.430118413962970e-001	 1.924716978238935e+000	 4.231955128186746e+000
 2.240056325498701e-001	 1.927021433171347e+000	 4.241208404086784e+000
 2.050427157553048e-001	 1.929131286952813e+000	 4.251708867673641e+000
 1.861257146959756e-001	 1.931048200924337e+000	 4.262100925177109e+000
 3.783324196787251e-001	 1.909546394194761e+000	 4.328322469803360e+000
 3.590346857752014e-001	 1.913268676892355e+000	 4.293233491592399e+000
 3.397605861927039e-001	 1.916785262147738e+000	 4.269256760844861e+000
 3.205130928349259e-001	 1.920097495446545e+000	 4.254687783372587e+000
 3.012951315128967e-001	 1.923206772953377e+000	 4.247954192868068e+000
 2.821095810650167e-001	 1.926114539945610e+000	 4.247584561535510e+000
 2.629592725323994e-001	 1.928822289236666e+000	 4.252176059790028e+000
 2.438469883892480e-001	 1.931331559590807e+000	 4.260361460745295e+000
 2.247754618278889e-001	 1.933643934131447e+000	 4.270775966010631e+000
 2.057473760980255e-001	 1.935761038744943e+000	 4.282024307222974e+000
 1.867653638997075e-001	 1.937684540481774e+000	 4.292648553081677e+000
 3.796281620158599e-001	 1.916086357404184e+000	 4.344607674878415e+000
 3.602643357302445e-001	 1.919821388465220e+000	 4.310827737593385e+000
 3.409242247103262e-001	 1.923350017595366e+000	 4.288510005500522e+000
 3.216108110381968e-001	 1.926673594888409e+000	 4.275820721414052e+000
 3.023270305454236e-001	 1.929793521290676e+000	 4.271063386609007e+000
 2.830757719300686e-001	 1.932711247029466e+000	 4.272646384351665e+000
 2.638598759292085e-001	 1.935428270030935e+000	 4.279049430894612e+000
 2.446821345466725e-001	 1.937946134329452e+000	 4.288789361981584e+000
 2.255452903356299e-001	 1.940266428470466e+000	 4.300385743228266e+000
 2.064520357355792e-001	 1.942390783908820e+000	 4.312326770113756e+000
 1.874050124632389e-001	 1.944320873404466e+000	 4.323035898046291e+000
 3.809239007898188e-001	 1.922626302630512e+000	 4.360103894541460e+000
 3.614939823037994e-001	 1.926374082019887e+000	 4.327772020634112e+000
 3.420878600279120e-001	 1.929914754991651e+000	 4.307271372035715e+000
 3.227085262226244e-001	 1.933249676247730e+000	 4.296625855902669e+000
 3.033589267400189e-001	 1.936380251516154e+000	 4.294001343562502e+000
 2.840419601377973e-001	 1.939307935974137e+000	 4.297672113819469e+000
 2.647604768489766e-001	 1.942034232660551e+000	 4.305986101702389e+000
 2.455172784069913e-001	 1.944560690879855e+000	 4.317329473200002e+000
 2.263151167258319e-001	 1.946888904599510e+000	 4.330091026350668e+000
 2.071566934347713e-001	 1.949020510842834e+000	 4.342626895878117e+000
 1.880446592671768e-001	 1.950957188079231e+000	 4.353226012684651e+000
 3.822196337329991e-001	 1.929166218429299e+000	 4.374984699100539e+000
 3.627236233439242e-001	 1.932926746089595e+000	 4.344249407325005e+000
 3.432514901090351e-001	 1.936479462848755e+000	 4.325725761554408e+000
 3.238062364671366e-001	 1.939825728016818e+000	 4.317282589664916e+000
 3.043908182907874e-001	 1.942966952103496e+000	 4.316934972093407e+000
 2.850081439972916e-001	 1.945904595235886e+000	 4.322809510860393e+000
 2.656610737155696e-001	 1.948640165565544e+000	 4.333108381604514e+000
 2.463524185086248e-001	 1.951175217666995e+000	 4.346072701835595e+000
 2.270849396512333e-001	 1.953511350929684e+000	 4.359945727943495e+000
 2.078613479624075e-001	 1.955650207945372e+000	 4.372936369756505e+000
 1.886843031921287e-001	 1.957593472892883e+000	 4.383183484968391e+000
 3.835153585777980e-001	 1.935706093356100e+000	 4.389423502740958e+000
 3.639532566986776e-001	 1.939479369207581e+000	 4.360442638102661e+000
 3.444151129172693e-001	 1.943044129678839e+000	 4.344057659125427e+000
 3.249039398506607e-001	 1.946401738687988e+000	 4.337969897870136e+000
 3.054227033918336e-001	 1.949553611526385e+000	 4.340030817574919e+000
 2.859743218176406e-001	 1.952501213270967e+000	 4.348206112410384e+000
 2.665616649528536e-001	 1.955246057185943e+000	 4.360538567405187e+000
 2.471875533899939e-001	 1.957789703115855e+000	 4.375110224579093e+000
 2.278547577645728e-001	 1.960133755872095e+000	 4.390004380156859e+000
 2.085659980852930e-001	 1.962279863614822e+000	 4.403267913428076e+000
 1.893239431187017e-001	 1.964229716232240e+000	 4.412874420710915e+000
 3.848110730566132e-001	 1.942245915966469e+000	 4.403593560632481e+000
 3.651828802161178e-001	 1.946031939907083e+000	 4.376534130213994e+000
 3.455787264161885e-001	 1.949608743994064e+000	 4.362451140876158e+000
 3.260016344521249e-001	 1.952977696753554e+000	 4.358866337512997e+000
 3.064545802372619e-001	 1.956140218258500e+000	 4.363455072595658e+000
 2.869404919079331e-001	 1.959097778535641e+000	 4.374009240745074e+000
 2.674622489846945e-001	 1.961851895961775e+000	 4.388398950214988e+000
 2.480226815895191e-001	 1.964404135651418e+000	 4.404533490338990e+000
 2.286245697185891e-001	 1.966756107837849e+000	 4.420322132320599e+000
 2.092706425702335e-001	 1.968909466249573e+000	 4.433635275856696e+000
 1.899635779275033e-001	 1.970865906484120e+000	 4.442266426349255e+000
 3.861067749018419e-001	 1.948785674815963e+000	 4.417667965802000e+000
 3.664124917443031e-001	 1.952584446721340e+000	 4.392705980388341e+000
 3.467423285693665e-001	 1.956173294306592e+000	 4.381089880720919e+000
 3.270993183504568e-001	 1.959553590705827e+000	 4.380150056513469e+000
 3.074864470211771e-001	 1.962726760773528e+000	 4.387373586802014e+000
 2.879066525772582e-001	 1.965694279486164e+000	 4.400366012481433e+000
 2.683628242349583e-001	 1.968457670333070e+000	 4.416811822084287e+000
 2.488578016456213e-001	 1.971018503698664e+000	 4.434434223043764e+000
 2.293943741660206e-001	 1.973378395238052e+000	 4.450954748503908e+000
 2.099752801840343e-001	 1.975539004248015e+000	 4.464053224254317e+000
 1.906032064991407e-001	 1.977502032035339e+000	 4.471328592006735e+000
 3.874024618458815e-001	 1.955325358460134e+000	 4.431819645786129e+000
 3.676420891312922e-001	 1.959136878183590e+000	 4.409139967204122e+000
 3.479059173403771e-001	 1.962737769128583e+000	 4.400157156739111e+000
 3.281969896245841e-001	 1.966129409037122e+000	 4.401998802449403e+000
 3.085183019376836e-001	 1.969313227545150e+000	 4.411951876376948e+000
 2.888728021347050e-001	 1.972290704578797e+000	 4.427423347256434e+000
 2.692633891275109e-001	 1.975063368739857e+000	 4.445899482388348e+000
 2.496929120967210e-001	 1.977632795682577e+000	 4.464904424289693e+000
 2.301641697596060e-001	 1.980000606483809e+000	 4.481958605036173e+000
 2.106799096935010e-001	 1.982168466008534e+000	 4.494537535148911e+000
 1.912428277142213e-001	 1.984138081272714e+000	 4.500031474841417e+000
 3.886981316211295e-001	 1.961864955454538e+000	 4.446221359067986e+000
 3.688716702251434e-001	 1.965689222827072e+000	 4.426017553160476e+000
 3.490694906927941e-001	 1.969302156972200e+000	 4.419835857205025e+000
 3.292946463534344e-001	 1.972705140239751e+000	 4.424589930920891e+000
 3.095501431808860e-001	 1.975899607047047e+000	 4.437355133167109e+000
 2.898389388893622e-001	 1.978887042269796e+000	 4.455327976093658e+000
 2.701639420862184e-001	 1.981668979622164e+000	 4.475784243966276e+000
 2.505280114812389e-001	 1.984247000028137e+000	 4.496036375834532e+000
 2.309339551520840e-001	 1.986622729986227e+000	 4.513390688000147e+000
 2.113845298654391e-001	 1.988797839929521e+000	 4.525104985563663e+000
 1.918824404533524e-001	 1.990774042583062e+000	 4.528347082663420e+000
 1.854860659714354e-001	 1.924411866345337e+000	 4.231431514889605e+000
 1.666795873163122e-001	 1.926131854578701e+000	 4.239523647708996e+000
 1.479239976651079e-001	 1.927662937623752e+000	 4.245852850222430e+000
 1.292217968681999e-001	 1.929006885470733e+000	 4.252671833377828e+000
 1.105754314834638e-001	 1.930165502693479e+000	 4.261996847370665e+000
 9.198729443641961e-002	 1.931140626858904e+000	 4.275582632598175e+000
 7.345972473058783e-002	 1.931934126944898e+000	 4.294900110913523e+000
 5.499500720709370e-002	 1.932547901768176e+000	 4.321117018944277e+000
 3.659537235251258e-002	 1.932983878423570e+000	 4.355081652497747e+000
 1.826299615391188e-002	 1.933244010736185e+000	 4.397309858540288e+000
 0.000000000000000e+000	 1.933330277727777e+000	 4.447975394066578e+000
 1.861257146959756e-001	 1.931048200924337e+000	 4.262100925177109e+000
 1.672543818963985e-001	 1.932774120537524e+000	 4.270031986124993e+000
 1.484341135914299e-001	 1.934310483522944e+000	 4.275920986237743e+000
 1.296674182522143e-001	 1.935659065974620e+000	 4.282341839591733e+000
 1.109567508736156e-001	 1.936821678689428e+000	 4.291620952624559e+000
 9.230451263318920e-002	 1.937800165571101e+000	 4.305810694545118e+000
 7.371305060054152e-002	 1.938596402042668e+000	 4.326665705873241e+000
 5.518465749610375e-002	 1.939212293468885e+000	 4.355622252457756e+000
 3.672157149831509e-002	 1.939649773590140e+000	 4.393780798742442e+000
 1.832597609816476e-002	 1.939910802969275e+000	 4.441891940687074e+000
 0.000000000000000e+000	 1.939997367452674e+000	 4.500345821024673e+000
 1.867653638997075e-001	 1.937684540481774e+000	 4.292648553081677e+000
 1.678291769069630e-001	 1.939416391479403e+000	 4.300237445350390e+000
 1.489442298996582e-001	 1.940958034409341e+000	 4.305461019427138e+000
 1.301130399697185e-001	 1.942311251469391e+000	 4.311247296086950e+000
 1.113380705490088e-001	 1.943477859679464e+000	 4.320267151411864e+000
 9.262173106713363e-002	 1.944459709280108e+000	 4.334906184951052e+000
 7.396637665979752e-002	 1.945258682139485e+000	 4.357239525873948e+000
 5.537430792675029e-002	 1.945876690170387e+000	 4.389009790334201e+000
 3.684777073830714e-002	 1.946315673758754e+000	 4.431608368803096e+000
 1.838895608939113e-002	 1.946577600205162e+000	 4.486060187918366e+000
 0.000000000000000e+000	 1.946664462180621e+000	 4.553012073102676e+000
 1.874050124632389e-001	 1.944320873404466e+000	 4.323035898046291e+000
 1.684039713421517e-001	 1.946058655780712e+000	 4.330060749839189e+000
 1.494543456971769e-001	 1.947605578650012e+000	 4.334372150383165e+000
 1.305586612410129e-001	 1.948963430313925e+000	 4.339284908938353e+000
 1.117193898425177e-001	 1.950134034015393e+000	 4.347848451128950e+000
 9.293894918333731e-002	 1.951119246331762e+000	 4.362816963099167e+000
 7.421970246526738e-002	 1.951920955576322e+000	 4.386622575600643e+000
 5.556395816736891e-002	 1.952541080209884e+000	 4.421351807354583e+000
 3.697396985182630e-002	 1.952981567263934e+000	 4.468725451691068e+000
 1.845193601748944e-002	 1.953244390776765e+000	 4.530082055372821e+000
 0.000000000000000e+000	 1.953331550244001e+000	 4.606365119629537e+000
 1.880446592671768e-001	 1.950957188079231e+000	 4.353226012684651e+000
 1.689787641961108e-001	 1.952700901817834e+000	 4.359424577995656e+000
 1.499644600913704e-001	 1.954253104612022e+000	 4.362555678069604e+000
 1.310042812863981e-001	 1.955615590867102e+000	 4.366353377156511e+000
 1.121007080870163e-001	 1.956790190049017e+000	 4.374279503452859e+000
 9.325616642688482e-002	 1.957778765071903e+000	 4.389491947448261e+000
 7.447302757386264e-002	 1.958583210694152e+000	 4.414816104238490e+000
 5.575360788629531e-002	 1.959205451924581e+000	 4.452719685535366e+000
 3.710016861821008e-002	 1.959647442440198e+000	 4.505291090870393e+000
 1.851491577235813e-002	 1.959911163016998e+000	 4.574221491485044e+000
 0.000000000000000e+000	 1.959998619975199e+000	 4.660790760911256e+000
 1.886843031921287e-001	 1.957593472892883e+000	 4.383183484968391e+000
 1.695535544629862e-001	 1.959343117967145e+000	 4.388253537383432e+000
 1.504745721896229e-001	 1.960900600662440e+000	 4.389914972236379e+000
 1.314498993261746e-001	 1.962267721487796e+000	 4.392353366414563e+000
 1.124820246153789e-001	 1.963446316132141e+000	 4.399476583410460e+000
 9.357338224286063e-002	 1.964438253846369e+000	 4.414881103996009e+000
 7.472635154249487e-002	 1.965245435833950e+000	 4.441821607002995e+000
 5.594325675186510e-002	 1.965869793651682e+000	 4.483184032615666e+000
 3.722636681679602e-002	 1.966313287622068e+000	 4.541462323406301e+000
 1.857789524389567e-002	 1.966577905258778e+000	 4.618739001417660e+000
 0.000000000000000e+000	 1.966665659706596e+000	 4.716669719479467e+000
 1.893239431187017e-001	 1.964229716232240e+000	 4.412874420710915e+000
 1.701283411369239e-001	 1.965985292605024e+000	 4.416474140385050e+000
 1.509846810993186e-001	 1.967548055168333e+000	 4.416355446348825e+000
 1.318955145806430e-001	 1.968919810534888e+000	 4.417187483270442e+000
 1.128633387604796e-001	 1.970102400616570e+000	 4.423357568849007e+000
 9.389059607634927e-002	 1.971097701000996e+000	 4.438935434867872e+000
 7.497967392807554e-002	 1.971907619336689e+000	 4.467640826639078e+000
 5.613290443241391e-002	 1.972534093728390e+000	 4.512814700181392e+000
 3.735256422692166e-002	 1.972979091144063e+000	 4.577394218346533e+000
 1.864087432200049e-002	 1.973244605835021e+000	 4.663891709247038e+000
 0.000000000000000e+000	 1.973332657770577e+000	 4.774377729542402e+000
 1.899635779275033e-001	 1.970865906484120e+000	 4.442266426349255e+000
 1.707031232120701e-001	 1.972627414107849e+000	 4.444014780301978e+000
 1.514947859278417e-001	 1.974195456496769e+000	 4.441784531023675e+000
 1.323411262701038e-001	 1.975571846367256e+000	 4.440760249885027e+000
 1.132446498551925e-001	 1.976758431854105e+000	 4.445841920298918e+000
 9.420780737243523e-002	 1.977757094881625e+000	 4.461606967123396e+000
 7.523299428751630e-002	 1.978569749543343e+000	 4.492275754891503e+000
 5.632255059627736e-002	 1.979198340491909e+000	 4.541680801435202e+000
 3.747876062792453e-002	 1.979644841340705e+000	 4.613239914351297e+000
 1.870385289657105e-002	 1.979911253078644e+000	 4.709933418928023e+000
 0.000000000000000e+000	 1.979999602499524e+000	 4.834285624677795e+000
 1.906032064991407e-001	 1.977502032035339e+000	 4.471328592006735e+000
 1.712778996825707e-001	 1.979269470851999e+000	 4.470805707884224e+000
 1.520048857825763e-001	 1.980842793014815e+000	 4.466111647960883e+000
 1.327867336148576e-001	 1.982223817343778e+000	 4.462978079212896e+000
 1.136259572323918e-001	 1.983414398196552e+000	 4.466850661223662e+000
 9.452501557620298e-002	 1.984416423834092e+000	 4.482848741781409e+000
 7.548631217772864e-002	 1.985231814794886e+000	 4.515728633946100e+000
 5.651219491179111e-002	 1.985862522279442e+000	 4.569850728624108e+000
 3.760495579914217e-002	 1.986310526546513e+000	 4.649150656589270e+000
 1.876683085750579e-002	 1.986577835322561e+000	 4.757114674067034e+000
 0.000000000000000e+000	 1.986666482225822e+000	 4.896759423810942e+000
 1.912428277142213e-001	 1.984138081272714e+000	 4.500031474841417e+000
 1.718526695425717e-001	 1.985911451213851e+000	 4.496779008284706e+000
 1.525149797709069e-001	 1.987490053089539e+000	 4.489248184351282e+000
 1.332323358352050e-001	 1.988875711823331e+000	 4.483749250664021e+000
 1.140072602249516e-001	 1.990070287995715e+000	 4.486306358644447e+000
 9.484222013273704e-002	 1.991075676204236e+000	 4.502614803052481e+000
 7.573962715562410e-002	 1.991893803432292e+000	 4.538001957842125e+000
 5.670183704729077e-002	 1.992526627428193e+000	 4.597392170123924e+000
 3.773114951991211e-002	 1.992976135096009e+000	 4.685275832917152e+000
 1.882980809470318e-002	 1.993244340899691e+000	 4.805682816533680e+000
 0.000000000000000e+000	 1.993333285281853e+000	 4.962160415512984e+000
 1.918824404533524e-001	 1.990774042583062e+000	 4.528347082663420e+000
 1.724274317862193e-001	 1.992553343569785e+000	 4.521868578416700e+000
 1.530250670002175e-001	 1.994137225088007e+000	 4.511107467763758e+000
 1.336779321514465e-001	 1.995527518164795e+000	 4.502983886219557e+000
 1.143885581657461e-001	 1.996726089603397e+000	 4.504133104131523e+000
 9.515942048712194e-002	 1.997734840337895e+000	 4.520860187777995e+000
 7.599293877811425e-002	 1.998555703796535e+000	 4.559098473859241e+000
 5.689147667111200e-002	 1.999190644275366e+000	 4.624372127199116e+000
 3.785734156957191e-002	 1.999641655323712e+000	 4.721763009358496e+000
 1.889278449806165e-002	 1.999910758142949e+000	 4.855882043932053e+000
 0.000000000000000e+000	 2.000000000000000e+000	 5.030845240660757e+000
