patch_n	x	y	stress_yy
0	 0.000000000000000e+000	 0.000000000000000e+000	 3.954441868932230e+000
0	 0.000000000000000e+000	 6.666714722864756e-002	 2.389878855036759e+000
0	 0.000000000000000e+000	 1.333351778131789e-001	 1.235024420334747e+000
0	 0.000000000000000e+000	 2.000039750814772e-001	 4.519078202591072e-001
0	 0.000000000000000e+000	 2.666734223614256e-001	 2.560069710568482e-003
0	 0.000000000000000e+000	 3.333434029809069e-001	-1.509860571805154e-001
0	 0.000000000000000e+000	 4.000138002678044e-001	-4.669602724615428e-002
0	 0.000000000000000e+000	 4.666844975500011e-001	 2.774664515734681e-001
0	 0.000000000000000e+000	 5.333553781553803e-001	 7.835394301303642e-001
0	 0.000000000000000e+000	 6.000263254118248e-001	 1.433562718015277e+000
0	 0.000000000000000e+000	 6.666972226472175e-001	 2.189577883550384e+000
0	 6.666714722864756e-002	 0.000000000000000e+000	 2.854934027810815e+000
0	 6.666714722864756e-002	 6.666714722864756e-002	 2.138250711737906e+000
0	 6.666714722864754e-002	 1.333351778131789e-001	 1.623063670619072e+000
0	 6.666714722864754e-002	 2.000039750814772e-001	 1.282120336966433e+000
0	 6.666714722864757e-002	 2.666734223614254e-001	 1.088168471445742e+000
0	 6.666714722864760e-002	 3.333434029809069e-001	 1.013956162822840e+000
0	 6.666714722864757e-002	 4.000138002678046e-001	 1.032231827918697e+000
0	 6.666714722864756e-002	 4.666844975500011e-001	 1.115744211573070e+000
0	 6.666714722864754e-002	 5.333553781553803e-001	 1.237242386616793e+000
0	 6.666714722864757e-002	 6.000263254118247e-001	 1.369475753852643e+000
0	 6.666714722864757e-002	 6.666972226472178e-001	 1.485194042044848e+000
0	 1.333351778131789e-001	 0.000000000000000e+000	 2.456136531136339e+000
0	 1.333351778131789e-001	 6.666714722864753e-002	 2.105867032459204e+000
0	 1.333351778131789e-001	 1.333351778131789e-001	 1.854495298484735e+000
0	 1.333351778131789e-001	 2.000039750814772e-001	 1.684754909423316e+000
0	 1.333351778131789e-001	 2.666734223614256e-001	 1.579379392890426e+000
0	 1.333351778131790e-001	 3.333434029809069e-001	 1.521102223902497e+000
0	 1.333351778131789e-001	 4.000138002678044e-001	 1.492656824871378e+000
0	 1.333351778131790e-001	 4.666844975500011e-001	 1.476776565597417e+000
0	 1.333351778131789e-001	 5.333553781553803e-001	 1.456194763261169e+000
0	 1.333351778131789e-001	 6.000263254118246e-001	 1.413644682413715e+000
0	 1.333351778131790e-001	 6.666972226472178e-001	 1.331859534965607e+000
0	 2.000039750814772e-001	 0.000000000000000e+000	 2.614854359584327e+000
0	 2.000039750814772e-001	 6.666714722864756e-002	 2.242259250996170e+000
0	 2.000039750814772e-001	 1.333351778131789e-001	 1.952294622075308e+000
0	 2.000039750814772e-001	 2.000039750814772e-001	 1.736949352147460e+000
0	 2.000039750814772e-001	 2.666734223614255e-001	 1.588212735260157e+000
0	 2.000039750814773e-001	 3.333434029809069e-001	 1.498074480119262e+000
0	 2.000039750814773e-001	 4.000138002678044e-001	 1.458524710036408e+000
0	 2.000039750814772e-001	 4.666844975500011e-001	 1.461553962887315e+000
0	 2.000039750814772e-001	 5.333553781553803e-001	 1.499153191080987e+000
0	 2.000039750814773e-001	 6.000263254118247e-001	 1.563313761539791e+000
0	 2.000039750814773e-001	 6.666972226472178e-001	 1.646027455690419e+000
0	 2.666734223614256e-001	 0.000000000000000e+000	 3.187892618580809e+000
0	 2.666734223614255e-001	 6.666714722864758e-002	 2.496958668339969e+000
0	 2.666734223614256e-001	 1.333351778131790e-001	 1.939436627773220e+000
0	 2.666734223614256e-001	 2.000039750814772e-001	 1.515840999906259e+000
0	 2.666734223614255e-001	 2.666734223614256e-001	 1.226687815368137e+000
0	 2.666734223614256e-001	 3.333434029809070e-001	 1.072494632186263e+000
0	 2.666734223614255e-001	 4.000138002678043e-001	 1.053780535621510e+000
0	 2.666734223614256e-001	 4.666844975500010e-001	 1.171066138043430e+000
0	 2.666734223614256e-001	 5.333553781553803e-001	 1.424873578845549e+000
0	 2.666734223614256e-001	 6.000263254118247e-001	 1.815726524400760e+000
0	 2.666734223614255e-001	 6.666972226472174e-001	 2.344150168056786e+000
0	 3.333434029809069e-001	 0.000000000000000e+000	 4.032056538279611e+000
0	 3.333434029809069e-001	 6.666714722864757e-002	 2.819496452697835e+000
0	 3.333434029809069e-001	 1.333351778131790e-001	 1.838895970251525e+000
0	 3.333434029809069e-001	 2.000039750814773e-001	 1.098566707789732e+000
0	 3.333434029809070e-001	 2.666734223614256e-001	 6.068233657108806e-001
0	 3.333434029809070e-001	 3.333434029809070e-001	 3.719837275604936e-001
0	 3.333434029809069e-001	 4.000138002678044e-001	 4.023686597098796e-001
0	 3.333434029809069e-001	 4.666844975500011e-001	 7.063021111157583e-001
0	 3.333434029809070e-001	 5.333553781553805e-001	 1.292111113160811e+000
0	 3.333434029809069e-001	 6.000263254118248e-001	 2.168125779575150e+000
0	 3.333434029809069e-001	 6.666972226472177e-001	 3.342679306438688e+000
0	 4.000138002678044e-001	 0.000000000000000e+000	 5.004151473542907e+000
0	 4.000138002678045e-001	 6.666714722864756e-002	 3.159403639510016e+000
0	 4.000138002678044e-001	 1.333351778131789e-001	 1.673646972516952e+000
0	 4.000138002678044e-001	 2.000039750814773e-001	 5.622628512709074e-001
0	 4.000138002678042e-001	 2.666734223614255e-001	-1.593624654614562e-001
0	 4.000138002678042e-001	 3.333434029809068e-001	-4.758378394827994e-001
0	 4.000138002678044e-001	 4.000138002678044e-001	-3.717672536657816e-001
0	 4.000138002678044e-001	 4.666844975500011e-001	 1.682501876743597e-001
0	 4.000138002678043e-001	 5.333553781553800e-001	 1.159620258535296e+000
0	 4.000138002678045e-001	 6.000263254118249e-001	 2.617753611111161e+000
0	 4.000138002678044e-001	 6.666972226472177e-001	 4.558065775804155e+000
0	 4.666844975500011e-001	 0.000000000000000e+000	 5.960982903925062e+000
0	 4.666844975500011e-001	 6.666714722864756e-002	 3.466211131463224e+000
0	 4.666844975500012e-001	 1.333351778131790e-001	 1.466663625944254e+000
0	 4.666844975500012e-001	 2.000039750814773e-001	-1.593467374642296e-002
0	 4.666844975500011e-001	 2.666734223614255e-001	-9.598521140900986e-001
0	 4.666844975500011e-001	 3.333434029809069e-001	-1.343350327792869e+000
0	 4.666844975500011e-001	 4.000138002678044e-001	-1.144684234467443e+000
0	 4.666844975500012e-001	 4.666844975500012e-001	-3.421020411386898e-001
0	 4.666844975500011e-001	 5.333553781553804e-001	 1.086154757427016e+000
0	 4.666844975500012e-001	 6.000263254118249e-001	 3.161851378568674e+000
0	 4.666844975500012e-001	 6.666972226472175e-001	 5.906759751753707e+000
0	 5.333553781553803e-001	 0.000000000000000e+000	 6.759356433659720e+000
0	 5.333553781553805e-001	 6.666714722864757e-002	 3.689449698500618e+000
0	 5.333553781553803e-001	 1.333351778131789e-001	 1.240919590301846e+000
0	 5.333553781553804e-001	 2.000039750814772e-001	-5.588904508925232e-001
0	 5.333553781553800e-001	 2.666734223614255e-001	-1.682628600268008e+000
0	 5.333553781553805e-001	 3.333434029809070e-001	-2.102934649303371e+000
0	 5.333553781553801e-001	 4.000138002678044e-001	-1.792440006614149e+000
0	 5.333553781553804e-001	 4.666844975500011e-001	-7.237676985760877e-001
0	 5.333553781553803e-001	 5.333553781553803e-001	 1.130467630271471e+000
0	 5.333553781553803e-001	 6.000263254118248e-001	 3.797659717042240e+000
0	 5.333553781553801e-001	 6.666972226472177e-001	 7.305210680539642e+000
0	 6.000263254118248e-001	 0.000000000000000e+000	 7.256077791650202e+000
0	 6.000263254118247e-001	 6.666714722864756e-002	 3.778649977828279e+000
0	 6.000263254118247e-001	 1.333351778131789e-001	 1.019388193768746e+000
0	 6.000263254118248e-001	 2.000039750814773e-001	-9.894695433091196e-001
0	 6.000263254118248e-001	 2.666734223614256e-001	-2.215675528215574e+000
0	 6.000263254118247e-001	 3.333434029809070e-001	-2.626972369009412e+000
0	 6.000263254118248e-001	 4.000138002678045e-001	-2.191092987962642e+000
0	 6.000263254118248e-001	 4.666844975500011e-001	-8.757606222708543e-001
0	 6.000263254118247e-001	 5.333553781553800e-001	 1.351311175490669e+000
0	 6.000263254118247e-001	 6.000263254118247e-001	 4.522418537165052e+000
0	 6.000263254118247e-001	 6.666972226472175e-001	 8.669867279066159e+000
0	 6.666972226472175e-001	 0.000000000000000e+000	 7.307952831463142e+000
0	 6.666972226472178e-001	 6.666714722864757e-002	 3.683342473918201e+000
0	 6.666972226472178e-001	 1.333351778131789e-001	 8.250424329427945e-001
0	 6.666972226472178e-001	 2.000039750814772e-001	-1.230537493639402e+000
0	 6.666972226472178e-001	 2.666734223614256e-001	-2.446977086271637e+000
0	 6.666972226472177e-001	 3.333434029809069e-001	-2.787845704961741e+000
0	 6.666972226472179e-001	 4.000138002678045e-001	-2.216702290306198e+000
0	 6.666972226472175e-001	 4.666844975500010e-001	-6.970953642406241e-001
0	 6.666972226472177e-001	 5.333553781553801e-001	 1.807436969483210e+000
0	 6.666972226472178e-001	 6.000263254118248e-001	 5.333367025093901e+000
0	 6.666972226472177e-001	 6.666972226472177e-001	 9.917177534870367e+000
0	 0.000000000000000e+000	 6.666972226472175e-001	 2.189577883550384e+000
0	 0.000000000000000e+000	 7.333579753122049e-001	 3.166076442276438e+000
0	 0.000000000000000e+000	 8.000185779984417e-001	 4.513551743501520e+000
0	 0.000000000000000e+000	 8.666790473703454e-001	 6.247690570213430e+000
0	 0.000000000000000e+000	 9.333394000923322e-001	 8.384179023337749e+000
0	 0.000000000000000e+000	 9.999996528288191e-001	 1.093870252172849e+001
0	 0.000000000000000e+000	 1.066659822244222e+000	 1.392694580216132e+001
0	 0.000000000000000e+000	 1.133319925002959e+000	 1.736459291932932e+001
0	 0.000000000000000e+000	 1.199979977769445e+000	 2.126732724584129e+001
0	 0.000000000000000e+000	 1.266639997208098e+000	 2.565083147222268e+001
0	 0.000000000000000e+000	 1.333299999983334e+000	 3.053078760691900e+001
0	 6.666714722864757e-002	 6.666972226472178e-001	 1.485194042044848e+000
0	 6.666714722864757e-002	 7.333579753122048e-001	 1.847212507341053e+000
0	 6.666714722864754e-002	 8.000185779984415e-001	 2.744168534320994e+000
0	 6.666714722864754e-002	 8.666790473703453e-001	 4.187500349508420e+000
0	 6.666714722864754e-002	 9.333394000923321e-001	 6.188645281762997e+000
0	 6.666714722864757e-002	 9.999996528288190e-001	 8.759039762266371e+000
0	 6.666714722864756e-002	 1.066659822244222e+000	 1.191011932451152e+001
0	 6.666714722864756e-002	 1.133319925002959e+000	 1.565331860429560e+001
0	 6.666714722864757e-002	 1.199979977769445e+000	 2.000007133971598e+001
0	 6.666714722864756e-002	 1.266639997208098e+000	 2.496181037116978e+001
0	 6.666714722864757e-002	 1.333299999983334e+000	 3.054996764135676e+001
0	 1.333351778131790e-001	 6.666972226472178e-001	 1.331859534965607e+000
0	 1.333351778131790e-001	 7.333579753122046e-001	 1.517973444034479e+000
0	 1.333351778131790e-001	 8.000185779984417e-001	 2.295589661519070e+000
0	 1.333351778131790e-001	 8.666790473703454e-001	 3.672192556960098e+000
0	 1.333351778131789e-001	 9.333394000923321e-001	 5.655265546719331e+000
0	 1.333351778131789e-001	 9.999996528288191e-001	 8.252291093964445e+000
0	 1.333351778131789e-001	 1.066659822244222e+000	 1.147075070865740e+001
0	 1.333351778131790e-001	 1.133319925002959e+000	 1.531812494754650e+001
0	 1.333351778131790e-001	 1.199979977769445e+000	 1.980189341416186e+001
0	 1.333351778131789e-001	 1.266639997208097e+000	 2.492953475881460e+001
0	 1.333351778131789e-001	 1.333299999983334e+000	 3.070852667859959e+001
0	 2.000039750814773e-001	 6.666972226472178e-001	 1.646027455690420e+000
0	 2.000039750814772e-001	 7.333579753122048e-001	 2.013677661807473e+000
0	 2.000039750814773e-001	 8.000185779984419e-001	 2.940563836844401e+000
0	 2.000039750814772e-001	 8.666790473703453e-001	 4.430511326375821e+000
0	 2.000039750814772e-001	 9.333394000923322e-001	 6.487344599524392e+000
0	 2.000039750814773e-001	 9.999996528288189e-001	 9.114887248947316e+000
0	 2.000039750814772e-001	 1.066659822244222e+000	 1.231696199082603e+001
0	 2.000039750814772e-001	 1.133319925002958e+000	 1.609739066485932e+001
0	 2.000039750814772e-001	 1.199979977769445e+000	 2.045999423425959e+001
0	 2.000039750814772e-001	 1.266639997208098e+000	 2.540859278575245e+001
0	 2.000039750814772e-001	 1.333299999983334e+000	 3.094700552957973e+001
0	 2.666734223614255e-001	 6.666972226472174e-001	 2.344150168056786e+000
0	 2.666734223614256e-001	 7.333579753122047e-001	 3.169642827417697e+000
0	 2.666734223614255e-001	 8.000185779984416e-001	 4.451839009231873e+000
0	 2.666734223614256e-001	 8.666790473703452e-001	 6.191200004765912e+000
0	 2.666734223614257e-001	 9.333394000923323e-001	 8.388186409958205e+000
0	 2.666734223614255e-001	 9.999996528288188e-001	 1.104325812540925e+001
0	 2.666734223614256e-001	 1.066659822244222e+000	 1.415687435637457e+001
0	 2.666734223614256e-001	 1.133319925002959e+000	 1.772949361276024e+001
0	 2.666734223614256e-001	 1.199979977769445e+000	 2.176157370912103e+001
0	 2.666734223614255e-001	 1.266639997208098e+000	 2.625357176466112e+001
0	 2.666734223614254e-001	 1.333299999983334e+000	 3.120594420323744e+001
0	 3.333434029809069e-001	 6.666972226472177e-001	 3.342679306438688e+000
0	 3.333434029809069e-001	 7.333579753122046e-001	 4.821185865005874e+000
0	 3.333434029809069e-001	 8.000185779984415e-001	 6.602162364880672e+000
0	 3.333434029809068e-001	 8.666790473703451e-001	 8.683001152425470e+000
0	 3.333434029809070e-001	 9.333394000923321e-001	 1.106109413634979e+001
0	 3.333434029809069e-001	 9.999996528288191e-001	 1.373383278770615e+001
0	 3.333434029809068e-001	 1.066659822244222e+000	 1.669860813988738e+001
0	 3.333434029809069e-001	 1.133319925002959e+000	 1.995281078862577e+001
0	 3.333434029809069e-001	 1.199979977769445e+000	 2.349383089199365e+001
0	 3.333434029809068e-001	 1.266639997208097e+000	 2.731905817040579e+001
0	 3.333434029809069e-001	 1.333299999983334e+000	 3.142588190662337e+001
0	 4.000138002678044e-001	 6.666972226472177e-001	 4.558065775804153e+000
0	 4.000138002678044e-001	 7.333579753122048e-001	 6.803622956152455e+000
0	 4.000138002678044e-001	 8.000185779984415e-001	 9.164280327312344e+000
0	 4.000138002678044e-001	 8.666790473703453e-001	 1.163465654299547e+001
0	 4.000138002678043e-001	 9.333394000923319e-001	 1.420937012564256e+001
0	 4.000138002678044e-001	 9.999996528288191e-001	 1.688303946642566e+001
0	 4.000138002678044e-001	 1.066659822244222e+000	 1.965028282525088e+001
0	 4.000138002678044e-001	 1.133319925002958e+000	 2.250571833076158e+001
0	 4.000138002678044e-001	 1.199979977769445e+000	 2.544396398034204e+001
0	 4.000138002678043e-001	 1.266639997208098e+000	 2.845963764012178e+001
0	 4.000138002678044e-001	 1.333299999983334e+000	 3.154735704498011e+001
0	 4.666844975500012e-001	 6.666972226472175e-001	 5.906759751753707e+000
0	 4.666844975500011e-001	 7.333579753122047e-001	 8.952269539914806e+000
0	 4.666844975500012e-001	 8.000185779984417e-001	 1.191093855740878e+001
0	 4.666844975500010e-001	 8.666790473703451e-001	 1.477490716350328e+001
0	 4.666844975500011e-001	 9.333394000923321e-001	 1.753631591343830e+001
0	 4.666844975500012e-001	 9.999996528288191e-001	 2.018730555843539e+001
0	 4.666844975500012e-001	 1.066659822244222e+000	 2.272001704570594e+001
0	 4.666844975500012e-001	 1.133319925002959e+000	 2.512659151845886e+001
0	 4.666844975500012e-001	 1.199979977769445e+000	 2.739917031590741e+001
0	 4.666844975500011e-001	 1.266639997208098e+000	 2.952989497327542e+001
0	 4.666844975500012e-001	 1.333299999983334e+000	 3.151090722180267e+001
0	 5.333553781553801e-001	 6.666972226472177e-001	 7.305210680539641e+000
0	 5.333553781553801e-001	 7.333579753122047e-001	 1.110244031284487e+001
0	 5.333553781553803e-001	 8.000185779984418e-001	 1.461488195343029e+001
0	 5.333553781553803e-001	 8.666790473703456e-001	 1.783249321438246e+001
0	 5.333553781553803e-001	 9.333394000923324e-001	 2.074523222401998e+001
0	 5.333553781553803e-001	 9.999996528288188e-001	 2.334305762690919e+001
0	 5.333553781553801e-001	 1.066659822244222e+000	 2.561592858387807e+001
0	 5.333553781553804e-001	 1.133319925002959e+000	 2.755380477202810e+001
0	 5.333553781553803e-001	 1.199979977769445e+000	 2.914664638474420e+001
0	 5.333553781553803e-001	 1.266639997208098e+000	 3.038441413170276e+001
0	 5.333553781553803e-001	 1.333299999983334e+000	 3.125706923887775e+001
0	 6.000263254118247e-001	 6.666972226472175e-001	 8.669867279066159e+000
0	 6.000263254118247e-001	 7.333579753122048e-001	 1.308944922898736e+001
0	 6.000263254118247e-001	 8.000185779984417e-001	 1.704885465101349e+001
0	 6.000263254118247e-001	 8.666790473703451e-001	 2.053615410947199e+001
0	 6.000263254118247e-001	 9.333394000923321e-001	 2.353941897035314e+001
0	 6.000263254118246e-001	 9.999996528288189e-001	 2.604672140133162e+001
0	 6.000263254118248e-001	 1.066659822244222e+000	 2.804613437178518e+001
0	 6.000263254118249e-001	 1.133319925002959e+000	 2.952573165281025e+001
0	 6.000263254118246e-001	 1.199979977769445e+000	 3.047358781723452e+001
0	 6.000263254118248e-001	 1.266639997208098e+000	 3.087777823962649e+001
0	 6.000263254118247e-001	 1.333299999983334e+000	 3.072637909630217e+001
0	 6.666972226472177e-001	 6.666972226472177e-001	 9.917177534870367e+000
0	 6.666972226472175e-001	 7.333579753122045e-001	 1.474860949985849e+001
0	 6.666972226472177e-001	 8.000185779984415e-001	 1.898560002314936e+001
0	 6.666972226472177e-001	 8.666790473703451e-001	 2.261462847599476e+001
0	 6.666972226472177e-001	 9.333394000923322e-001	 2.562217525406608e+001
0	 6.666972226472177e-001	 9.999996528288189e-001	 2.799472177748048e+001
0	 6.666972226472174e-001	 1.066659822244222e+000	 2.971875049082313e+001
0	 6.666972226472178e-001	 1.133319925002959e+000	 3.078074486316551e+001
0	 6.666972226472177e-001	 1.199979977769445e+000	 3.116718938808003e+001
0	 6.666972226472175e-001	 1.266639997208098e+000	 3.086456958365073e+001
0	 6.666972226472175e-001	 1.333299999983334e+000	 2.985937199248007e+001
0	 0.000000000000000e+000	 1.333299999983334e+000	 3.053078760691900e+001
0	 0.000000000000000e+000	 1.399969999982150e+000	 3.511184974828252e+001
0	 0.000000000000000e+000	 1.466639999981866e+000	 3.858177921545732e+001
0	 0.000000000000000e+000	 1.533309999982383e+000	 4.093322860170319e+001
0	 0.000000000000000e+000	 1.599979999983599e+000	 4.215885050026947e+001
0	 0.000000000000000e+000	 1.666649999985416e+000	 4.225129750439500e+001
0	 0.000000000000000e+000	 1.733319999987733e+000	 4.120322220730824e+001
0	 0.000000000000000e+000	 1.799989999990450e+000	 3.900727720222713e+001
0	 0.000000000000000e+000	 1.866659999993466e+000	 3.565611508235922e+001
0	 0.000000000000000e+000	 1.933329999996683e+000	 3.114238844090156e+001
0	 0.000000000000000e+000	 2.000000000000000e+000	 2.545874987104078e+001
0	 6.666714722864757e-002	 1.333299999983334e+000	 3.054996764135676e+001
0	 6.666714722864754e-002	 1.399969999982149e+000	 3.583313910908139e+001
0	 6.666714722864754e-002	 1.466639999981867e+000	 3.986763224355845e+001
0	 6.666714722864756e-002	 1.533309999982382e+000	 4.264910317515001e+001
0	 6.666714722864754e-002	 1.599979999983599e+000	 4.417320803420664e+001
0	 6.666714722864756e-002	 1.666649999985416e+000	 4.443560295106735e+001
0	 6.666714722864756e-002	 1.733319999987733e+000	 4.343194405605959e+001
0	 6.666714722864756e-002	 1.799989999990450e+000	 4.115788747949920e+001
0	 6.666714722864756e-002	 1.866659999993467e+000	 3.760908935169062e+001
0	 6.666714722864756e-002	 1.933329999996682e+000	 3.278120580292655e+001
0	 6.666714722864756e-002	 2.000000000000000e+000	 2.666989296348823e+001
0	 1.333351778131789e-001	 1.333299999983334e+000	 3.070852667859959e+001
0	 1.333351778131790e-001	 1.399969999982150e+000	 3.617052770684217e+001
0	 1.333351778131789e-001	 1.466639999981867e+000	 4.033921333501375e+001
0	 1.333351778131790e-001	 1.533309999982383e+000	 4.321283447915067e+001
0	 1.333351778131789e-001	 1.599979999983599e+000	 4.478964205527750e+001
0	 1.333351778131790e-001	 1.666649999985416e+000	 4.506788697940693e+001
0	 1.333351778131789e-001	 1.733319999987733e+000	 4.404582016753980e+001
0	 1.333351778131789e-001	 1.799989999990450e+000	 4.172169253566516e+001
0	 1.333351778131789e-001	 1.866659999993466e+000	 3.809375499976026e+001
0	 1.333351778131789e-001	 1.933329999996683e+000	 3.316025847579038e+001
0	 1.333351778131789e-001	 2.000000000000000e+000	 2.691945387970908e+001
0	 2.000039750814772e-001	 1.333299999983334e+000	 3.094700552957973e+001
0	 2.000039750814773e-001	 1.399969999982150e+000	 3.615242472939529e+001
0	 2.000039750814773e-001	 1.466639999981867e+000	 4.009803771346191e+001
0	 2.000039750814773e-001	 1.533309999982383e+000	 4.278428146086041e+001
0	 2.000039750814772e-001	 1.599979999983599e+000	 4.421159295066038e+001
0	 2.000039750814773e-001	 1.666649999985417e+000	 4.438040916191979e+001
0	 2.000039750814772e-001	 1.733319999987733e+000	 4.329116707368540e+001
0	 2.000039750814772e-001	 1.799989999990449e+000	 4.094430366499228e+001
0	 2.000039750814772e-001	 1.866659999993466e+000	 3.734025591486428e+001
0	 2.000039750814773e-001	 1.933329999996683e+000	 3.247946080231374e+001
0	 2.000039750814773e-001	 2.000000000000000e+000	 2.636235530634157e+001
0	 2.666734223614254e-001	 1.333299999983334e+000	 3.120594420323744e+001
0	 2.666734223614255e-001	 1.399969999982150e+000	 3.580723861826088e+001
0	 2.666734223614255e-001	 1.466639999981867e+000	 3.924561992860558e+001
0	 2.666734223614256e-001	 1.533309999982383e+000	 4.152330247827270e+001
0	 2.666734223614256e-001	 1.599979999983599e+000	 4.264250061125297e+001
0	 2.666734223614256e-001	 1.666649999985416e+000	 4.260542867152661e+001
0	 2.666734223614254e-001	 1.733319999987733e+000	 4.141430100306338e+001
0	 2.666734223614255e-001	 1.799989999990449e+000	 3.907133194982264e+001
0	 2.666734223614256e-001	 1.866659999993467e+000	 3.557873585575322e+001
0	 2.666734223614256e-001	 1.933329999996683e+000	 3.093872706479349e+001
0	 2.666734223614255e-001	 2.000000000000000e+000	 2.515351992087139e+001
0	 3.333434029809069e-001	 1.333299999983334e+000	 3.142588190662336e+001
0	 3.333434029809069e-001	 1.399969999982150e+000	 3.516337706874560e+001
0	 3.333434029809069e-001	 1.466639999981866e+000	 3.788347385630016e+001
0	 3.333434029809068e-001	 1.533309999982383e+000	 3.958975530029727e+001
0	 3.333434029809069e-001	 1.599979999983599e+000	 4.028580443173819e+001
0	 3.333434029809069e-001	 1.666649999985416e+000	 3.997520428161508e+001
0	 3.333434029809069e-001	 1.733319999987733e+000	 3.866153788091096e+001
0	 3.333434029809069e-001	 1.799989999990450e+000	 3.634838826059984e+001
0	 3.333434029809069e-001	 1.866659999993467e+000	 3.303933845164671e+001
0	 3.333434029809068e-001	 1.933329999996683e+000	 2.873797148500734e+001
0	 3.333434029809069e-001	 2.000000000000000e+000	 2.344787039162855e+001
0	 4.000138002678044e-001	 1.333299999983334e+000	 3.154735704498011e+001
0	 4.000138002678045e-001	 1.399969999982150e+000	 3.424924703002026e+001
0	 4.000138002678044e-001	 1.466639999981866e+000	 3.611311269862447e+001
0	 4.000138002678043e-001	 1.533309999982383e+000	 3.714349710682252e+001
0	 4.000138002678044e-001	 1.599979999983599e+000	 3.734494331063679e+001
0	 4.000138002678043e-001	 1.666649999985415e+000	 3.672199436608226e+001
0	 4.000138002678042e-001	 1.733319999987733e+000	 3.527919332916649e+001
0	 4.000138002678044e-001	 1.799989999990450e+000	 3.302108325588969e+001
0	 4.000138002678043e-001	 1.866659999993466e+000	 2.995220720224468e+001
0	 4.000138002678044e-001	 1.933329999996683e+000	 2.607710822421680e+001
0	 4.000138002678044e-001	 2.000000000000000e+000	 2.140032937778409e+001
0	 4.666844975500012e-001	 1.333299999983334e+000	 3.151090722180267e+001
0	 4.666844975500012e-001	 1.399969999982150e+000	 3.309325470517725e+001
0	 4.666844975500011e-001	 1.466639999981866e+000	 3.403604898393392e+001
0	 4.666844975500012e-001	 1.533309999982383e+000	 3.434438448876240e+001
0	 4.666844975500011e-001	 1.599979999983599e+000	 3.402335565034695e+001
0	 4.666844975500012e-001	 1.666649999985416e+000	 3.307805689936621e+001
0	 4.666844975500011e-001	 1.733319999987733e+000	 3.151358266649326e+001
0	 4.666844975500011e-001	 1.799989999990450e+000	 2.933502738239563e+001
0	 4.666844975500012e-001	 1.866659999993466e+000	 2.654748547773527e+001
0	 4.666844975500010e-001	 1.933329999996683e+000	 2.315605138316861e+001
0	 4.666844975500011e-001	 2.000000000000000e+000	 1.916581952934649e+001
0	 5.333553781553803e-001	 1.333299999983334e+000	 3.125706923887775e+001
0	 5.333553781553803e-001	 1.399969999982150e+000	 3.172380555126904e+001
0	 5.333553781553801e-001	 1.466639999981867e+000	 3.175379456689599e+001
0	 5.333553781553803e-001	 1.533309999982383e+000	 3.135227344808809e+001
0	 5.333553781553803e-001	 1.599979999983599e+000	 3.052447935717116e+001
0	 5.333553781553801e-001	 1.666649999985417e+000	 2.927564945646724e+001
0	 5.333553781553803e-001	 1.733319999987733e+000	 2.761102090829480e+001
0	 5.333553781553803e-001	 1.799989999990450e+000	 2.553583087496849e+001
0	 5.333553781553803e-001	 1.866659999993466e+000	 2.305531651879932e+001
0	 5.333553781553800e-001	 1.933329999996683e+000	 2.017471500209457e+001
0	 5.333553781553803e-001	 2.000000000000000e+000	 1.689926348715786e+001
0	 6.000263254118247e-001	 1.333299999983334e+000	 3.072637909630217e+001
0	 6.000263254118247e-001	 1.399969999982150e+000	 3.016930427932666e+001
0	 6.000263254118249e-001	 1.466639999981866e+000	 2.936786062850811e+001
0	 6.000263254118246e-001	 1.533309999982383e+000	 2.832701939784392e+001
0	 6.000263254118247e-001	 1.599979999983600e+000	 2.705175184132957e+001
0	 6.000263254118249e-001	 1.666649999985417e+000	 2.554702921295852e+001
0	 6.000263254118248e-001	 1.733319999987733e+000	 2.381782276672238e+001
0	 6.000263254118246e-001	 1.799989999990450e+000	 2.186910375661074e+001
0	 6.000263254118247e-001	 1.866659999993466e+000	 1.970584343661130e+001
0	 6.000263254118247e-001	 1.933329999996683e+000	 1.733301306070976e+001
0	 6.000263254118247e-001	 2.000000000000000e+000	 1.475558388288990e+001
0	 6.666972226472175e-001	 1.333299999983334e+000	 2.985937199248008e+001
0	 6.666972226472177e-001	 1.399969999982150e+000	 2.845815485435879e+001
0	 6.666972226472177e-001	 1.466639999981867e+000	 2.697975767609769e+001
0	 6.666972226472178e-001	 1.533309999982383e+000	 2.542847716214807e+001
0	 6.666972226472177e-001	 1.599979999983600e+000	 2.380861001696080e+001
0	 6.666972226472177e-001	 1.666649999985416e+000	 2.212445294498631e+001
0	 6.666972226472177e-001	 1.733319999987733e+000	 2.038030265067456e+001
0	 6.666972226472177e-001	 1.799989999990450e+000	 1.858045583847511e+001
0	 6.666972226472178e-001	 1.866659999993466e+000	 1.672920921283710e+001
0	 6.666972226472175e-001	 1.933329999996683e+000	 1.483085947820919e+001
0	 6.666972226472177e-001	 2.000000000000000e+000	 1.288970333903962e+001
0	 0.000000000000000e+000	 2.000000000000000e+000	 2.545874987104078e+001
0	 0.000000000000000e+000	 2.066670000003316e+000	 1.959700059893860e+001
0	 0.000000000000000e+000	 2.133340000006534e+000	 1.455400233955222e+001
0	 0.000000000000000e+000	 2.200010000009550e+000	 1.032999841925925e+001
0	 0.000000000000000e+000	 2.266680000012268e+000	 6.925232164444759e+000
0	 0.000000000000000e+000	 2.333350000014584e+000	 4.339946901501373e+000
0	 0.000000000000000e+000	 2.400020000016401e+000	 2.574385956829226e+000
0	 0.000000000000000e+000	 2.466690000017617e+000	 1.628792656835956e+000
0	 0.000000000000000e+000	 2.533360000018134e+000	 1.503410327936730e+000
0	 0.000000000000000e+000	 2.600030000017850e+000	 2.198482296554195e+000
0	 0.000000000000000e+000	 2.666700000016666e+000	 3.714251889118521e+000
0	 6.666714722864756e-002	 2.000000000000000e+000	 2.666989296348823e+001
0	 6.666714722864756e-002	 2.066670000003317e+000	 2.036055767076321e+001
0	 6.666714722864754e-002	 2.133340000006534e+000	 1.494058628528806e+001
0	 6.666714722864757e-002	 2.200010000009551e+000	 1.040860422206495e+001
0	 6.666714722864756e-002	 2.266680000012268e+000	 6.763236896104046e+000
0	 6.666714722864756e-002	 2.333350000014584e+000	 4.003109722423641e+000
0	 6.666714722864756e-002	 2.400020000016402e+000	 2.126848116050046e+000
0	 6.666714722864757e-002	 2.466690000017617e+000	 1.133077492017637e+000
0	 6.666714722864754e-002	 2.533360000018134e+000	 1.020423265368846e+000
0	 6.666714722864757e-002	 2.600030000017850e+000	 1.787510851154141e+000
0	 6.666714722864756e-002	 2.666700000016667e+000	 3.432965664432041e+000
0	 1.333351778131789e-001	 2.000000000000000e+000	 2.691945387970908e+001
0	 1.333351778131789e-001	 2.066670000003317e+000	 2.048245955925615e+001
0	 1.333351778131789e-001	 2.133340000006535e+000	 1.495977756258917e+001
0	 1.333351778131789e-001	 2.200010000009550e+000	 1.034873435628561e+001
0	 1.333351778131790e-001	 2.266680000012268e+000	 6.646656406931089e+000
0	 1.333351778131790e-001	 2.333350000014585e+000	 3.850870181119479e+000
0	 1.333351778131790e-001	 2.400020000016402e+000	 1.958702145452846e+000
0	 1.333351778131789e-001	 2.466690000017618e+000	 9.674787665414407e-001
0	 1.333351778131790e-001	 2.533360000018134e+000	 8.745265110037247e-001
0	 1.333351778131790e-001	 2.600030000017851e+000	 1.677171845466354e+000
0	 1.333351778131789e-001	 2.666700000016666e+000	 3.372741236564192e+000
0	 2.000039750814773e-001	 2.000000000000000e+000	 2.636235530634157e+001
0	 2.000039750814773e-001	 2.066670000003318e+000	 2.006861345149723e+001
0	 2.000039750814773e-001	 2.133340000006534e+000	 1.467518225129288e+001
0	 2.000039750814773e-001	 2.200010000009550e+000	 1.017840816817099e+001
0	 2.000039750814773e-001	 2.266680000012268e+000	 6.574637664581992e+000
0	 2.000039750814773e-001	 2.333350000014585e+000	 3.860217202984390e+000
0	 2.000039750814772e-001	 2.400020000016401e+000	 2.031493245844681e+000
0	 2.000039750814773e-001	 2.466690000017618e+000	 1.084812255637372e+000
0	 2.000039750814772e-001	 2.533360000018133e+000	 1.016520694844982e+000
0	 2.000039750814772e-001	 2.600030000017851e+000	 1.822965025958043e+000
0	 2.000039750814772e-001	 2.666700000016666e+000	 3.500491711475097e+000
0	 2.666734223614255e-001	 2.000000000000000e+000	 2.515351992087139e+001
0	 2.666734223614255e-001	 2.066670000003317e+000	 1.922492655611515e+001
0	 2.666734223614256e-001	 2.133340000006534e+000	 1.415040646489311e+001
0	 2.666734223614256e-001	 2.200010000009550e+000	 9.925645034491181e+000
0	 2.666734223614256e-001	 2.266680000012267e+000	 6.546327652202788e+000
0	 2.666734223614256e-001	 2.333350000014583e+000	 4.008139705328943e+000
0	 2.666734223614256e-001	 2.400020000016402e+000	 2.306766581178190e+000
0	 2.666734223614255e-001	 2.466690000017618e+000	 1.437893667066656e+000
0	 2.666734223614255e-001	 2.533360000018133e+000	 1.397206350317972e+000
0	 2.666734223614255e-001	 2.600030000017850e+000	 2.180390018263357e+000
0	 2.666734223614256e-001	 2.666700000016667e+000	 3.783130058241562e+000
0	 3.333434029809069e-001	 2.000000000000000e+000	 2.344787039162855e+001
0	 3.333434029809069e-001	 2.066670000003317e+000	 1.805730610327962e+001
0	 3.333434029809069e-001	 2.133340000006534e+000	 1.344905635053032e+001
0	 3.333434029809069e-001	 2.200010000009550e+000	 9.618464362526526e+000
0	 3.333434029809069e-001	 2.266680000012267e+000	 6.560873368420942e+000
0	 3.333434029809069e-001	 2.333350000014584e+000	 4.271626597373181e+000
0	 3.333434029809068e-001	 2.400020000016401e+000	 2.746067278549741e+000
0	 3.333434029809068e-001	 2.466690000017617e+000	 1.979538641123974e+000
0	 3.333434029809069e-001	 2.533360000018134e+000	 1.967383914276115e+000
0	 3.333434029809070e-001	 2.600030000017851e+000	 2.704946327193277e+000
0	 3.333434029809069e-001	 2.666700000016666e+000	 4.187569109069443e+000
0	 4.000138002678044e-001	 2.000000000000000e+000	 2.140032937778409e+001
0	 4.000138002678045e-001	 2.066670000003317e+000	 1.667165934469399e+001
0	 4.000138002678044e-001	 2.133340000006534e+000	 1.263473808898223e+001
0	 4.000138002678044e-001	 2.200010000009551e+000	 9.284885590058172e+000
0	 4.000138002678043e-001	 2.266680000012267e+000	 6.617421827337230e+000
0	 4.000138002678044e-001	 2.333350000014584e+000	 4.627666780240872e+000
0	 4.000138002678044e-001	 2.400020000016401e+000	 3.310940428196620e+000
0	 4.000138002678044e-001	 2.466690000017617e+000	 2.662562750638025e+000
0	 4.000138002678044e-001	 2.533360000018134e+000	 2.677853727004707e+000
0	 4.000138002678045e-001	 2.600030000017851e+000	 3.352133336742306e+000
0	 4.000138002678044e-001	 2.666700000016665e+000	 4.680721559302527e+000
0	 4.666844975500011e-001	 2.000000000000000e+000	 1.916581952934649e+001
0	 4.666844975500009e-001	 2.066670000003316e+000	 1.517389355358852e+001
0	 4.666844975500012e-001	 2.133340000006534e+000	 1.177105789465549e+001
0	 4.666844975500011e-001	 2.200010000009550e+000	 8.952928185359577e+000
0	 4.666844975500011e-001	 2.266680000012267e+000	 6.715120058518086e+000
0	 4.666844975500012e-001	 2.333350000014585e+000	 5.053249146953468e+000
0	 4.666844975500011e-001	 2.400020000016400e+000	 3.962931083493293e+000
0	 4.666844975500012e-001	 2.466690000017617e+000	 3.439781500970257e+000
0	 4.666844975500011e-001	 2.533360000018134e+000	 3.479416032222171e+000
0	 4.666844975500012e-001	 2.600030000017851e+000	 4.077450310091982e+000
0	 4.666844975500012e-001	 2.666700000016666e+000	 5.229499967427760e+000
0	 5.333553781553803e-001	 2.000000000000000e+000	 1.689926348715786e+001
0	 5.333553781553804e-001	 2.066670000003317e+000	 1.366991602471417e+001
0	 5.333553781553803e-001	 2.133340000006534e+000	 1.092162201557826e+001
0	 5.333553781553804e-001	 2.200010000009550e+000	 8.650611647188724e+000
0	 5.333553781553801e-001	 2.266680000012267e+000	 6.853115106988302e+000
0	 5.333553781553804e-001	 2.333350000014584e+000	 5.525362582423914e+000
0	 5.333553781553804e-001	 2.400020000016401e+000	 4.663584260946671e+000
0	 5.333553781553801e-001	 2.466690000017616e+000	 4.264010330011828e+000
0	 5.333553781553803e-001	 2.533360000018133e+000	 4.322870977078817e+000
0	 5.333553781553803e-001	 2.600030000017851e+000	 4.836396389611259e+000
0	 5.333553781553803e-001	 2.666700000016666e+000	 5.800816755076921e+000
0	 6.000263254118247e-001	 2.000000000000000e+000	 1.475558388288990e+001
0	 6.000263254118248e-001	 2.066670000003317e+000	 1.226563407433690e+001
0	 6.000263254118247e-001	 2.133340000006534e+000	 1.015003673339357e+001
0	 6.000263254118247e-001	 2.200010000009550e+000	 8.405955504781170e+000
0	 6.000263254118247e-001	 2.266680000012267e+000	 7.030554033224145e+000
0	 6.000263254118246e-001	 2.333350000014584e+000	 6.020995963450234e+000
0	 6.000263254118247e-001	 2.400020000016400e+000	 5.374444940190396e+000
0	 6.000263254118248e-001	 2.466690000017617e+000	 5.088064608178846e+000
0	 6.000263254118247e-001	 2.533360000018134e+000	 5.159018612153033e+000
0	 6.000263254118247e-001	 2.600030000017850e+000	 5.584470596853660e+000
0	 6.000263254118247e-001	 2.666700000016666e+000	 6.361584207024667e+000
0	 6.666972226472177e-001	 2.000000000000000e+000	 1.288970333903962e+001
0	 6.666972226472177e-001	 2.066670000003317e+000	 1.106695504023268e+001
0	 6.666972226472178e-001	 2.133340000006534e+000	 9.519908363353679e+000
0	 6.666972226472177e-001	 2.200010000009550e+000	 8.246979317843874e+000
0	 6.666972226472177e-001	 2.266680000012268e+000	 7.246583913146911e+000
0	 6.666972226472175e-001	 2.333350000014584e+000	 6.517138158708854e+000
0	 6.666972226472175e-001	 2.400020000016400e+000	 6.057058063978184e+000
0	 6.666972226472178e-001	 2.466690000017616e+000	 5.864759638405785e+000
0	 6.666972226472178e-001	 2.533360000018134e+000	 5.938658891444921e+000
0	 6.666972226472177e-001	 2.600030000017850e+000	 6.277171832551303e+000
0	 6.666972226472177e-001	 2.666700000016667e+000	 6.878714471183013e+000
0	 0.000000000000000e+000	 2.666700000016666e+000	 3.714251889118521e+000
0	 0.000000000000000e+000	 2.733360000014533e+000	 5.503985691759419e+000
0	 0.000000000000000e+000	 2.800020000011600e+000	 7.023534133960656e+000
0	 0.000000000000000e+000	 2.866680000008067e+000	 8.276149560749015e+000
0	 0.000000000000000e+000	 2.933340000004133e+000	 9.265084317155948e+000
0	 0.000000000000000e+000	 3.000000000000000e+000	 9.993590748217573e+000
0	 0.000000000000000e+000	 3.066659999995867e+000	 1.046492119897470e+001
0	 0.000000000000000e+000	 3.133319999991933e+000	 1.068232801447280e+001
0	 0.000000000000000e+000	 3.199979999988401e+000	 1.064906353976203e+001
0	 0.000000000000000e+000	 3.266639999985467e+000	 1.036838011989722e+001
0	 0.000000000000000e+000	 3.333299999983334e+000	 9.843530099937887e+000
0	 6.666714722864756e-002	 2.666700000016667e+000	 3.432965664432041e+000
0	 6.666714722864754e-002	 2.733360000014533e+000	 5.368031223825108e+000
0	 6.666714722864756e-002	 2.800020000011599e+000	 7.008034260150283e+000
0	 6.666714722864754e-002	 2.866680000008067e+000	 8.356787172554892e+000
0	 6.666714722864758e-002	 2.933340000004133e+000	 9.418102360191332e+000
0	 6.666714722864757e-002	 3.000000000000000e+000	 1.019579222221702e+001
0	 6.666714722864757e-002	 3.066659999995867e+000	 1.069366915779448e+001
0	 6.666714722864756e-002	 3.133319999991933e+000	 1.091554556609125e+001
0	 6.666714722864756e-002	 3.199979999988400e+000	 1.086523384627996e+001
0	 6.666714722864756e-002	 3.266639999985467e+000	 1.054654639753829e+001
0	 6.666714722864756e-002	 3.333299999983333e+000	 9.963295619048969e+000
0	 1.333351778131789e-001	 2.666700000016666e+000	 3.372741236564191e+000
0	 1.333351778131790e-001	 2.733360000014533e+000	 5.359600529978859e+000
0	 1.333351778131789e-001	 2.800020000011600e+000	 7.041336104211540e+000
0	 1.333351778131789e-001	 2.866680000008067e+000	 8.422141760201015e+000
0	 1.333351778131789e-001	 2.933340000004134e+000	 9.506211298891255e+000
0	 1.333351778131789e-001	 3.000000000000000e+000	 1.029773852123141e+001
0	 1.333351778131789e-001	 3.066659999995868e+000	 1.080091722817584e+001
0	 1.333351778131790e-001	 3.133319999991934e+000	 1.101994122068408e+001
0	 1.333351778131790e-001	 3.199979999988401e+000	 1.095900429972088e+001
0	 1.333351778131789e-001	 3.266639999985468e+000	 1.062230026625615e+001
0	 1.333351778131789e-001	 3.333299999983334e+000	 1.001402292126501e+001
0	 2.000039750814772e-001	 2.666700000016666e+000	 3.500491711475097e+000
0	 2.000039750814772e-001	 2.733360000014533e+000	 5.459344405878535e+000
0	 2.000039750814773e-001	 2.800020000011600e+000	 7.115767017997836e+000
0	 2.000039750814773e-001	 2.866680000008066e+000	 8.474156106868735e+000
0	 2.000039750814773e-001	 2.933340000004133e+000	 9.538908231532053e+000
0	 2.000039750814773e-001	 3.000000000000000e+000	 1.031441995103374e+001
0	 2.000039750814772e-001	 3.066659999995867e+000	 1.080508782442486e+001
0	 2.000039750814772e-001	 3.133319999991933e+000	 1.101530841076159e+001
0	 2.000039750814772e-001	 3.199979999988401e+000	 1.094947826910519e+001
0	 2.000039750814772e-001	 3.266639999985467e+000	 1.061199395852205e+001
0	 2.000039750814772e-001	 3.333299999983334e+000	 1.000725203808368e+001
0	 2.666734223614256e-001	 2.666700000016667e+000	 3.783130058241562e+000
0	 2.666734223614256e-001	 2.733360000014533e+000	 5.647913504931469e+000
0	 2.666734223614255e-001	 2.800020000011599e+000	 7.223654215419475e+000
0	 2.666734223614255e-001	 2.866680000008067e+000	 8.514772869902183e+000
0	 2.666734223614256e-001	 2.933340000004134e+000	 9.525690148581038e+000
0	 2.666734223614255e-001	 2.999999999999999e+000	 1.026082673166235e+001
0	 2.666734223614254e-001	 3.066659999995866e+000	 1.072460329935727e+001
0	 2.666734223614255e-001	 3.133319999991933e+000	 1.092144053188182e+001
0	 2.666734223614256e-001	 3.199979999988401e+000	 1.085575910945688e+001
0	 2.666734223614255e-001	 3.266639999985467e+000	 1.053197971230815e+001
0	 2.666734223614255e-001	 3.333299999983333e+000	 9.954523020666240e+000
0	 3.333434029809069e-001	 2.666700000016666e+000	 4.187569109069445e+000
0	 3.333434029809069e-001	 2.733360000014533e+000	 5.905958338308165e+000
0	 3.333434029809069e-001	 2.800020000011600e+000	 7.357324772457459e+000
0	 3.333434029809069e-001	 2.866680000008067e+000	 8.545934580821205e+000
0	 3.333434029809069e-001	 2.933340000004133e+000	 9.476053932707760e+000
0	 3.333434029809070e-001	 3.000000000000000e+000	 1.015194899742991e+001
0	 3.333434029809069e-001	 3.066659999995867e+000	 1.057788594430496e+001
0	 3.333434029809069e-001	 3.133319999991934e+000	 1.075813094265460e+001
0	 3.333434029809069e-001	 3.199979999988400e+000	 1.069695016180503e+001
0	 3.333434029809069e-001	 3.266639999985467e+000	 1.039860977108688e+001
0	 3.333434029809069e-001	 3.333299999983334e+000	 9.867375939835265e+000
0	 4.000138002678044e-001	 2.666700000016665e+000	 4.680721559302528e+000
0	 4.000138002678044e-001	 2.733360000014533e+000	 6.214129274952260e+000
0	 4.000138002678044e-001	 2.800020000011600e+000	 7.509105627173613e+000
0	 4.000138002678043e-001	 2.866680000008066e+000	 8.569583645330891e+000
0	 4.000138002678044e-001	 2.933340000004134e+000	 9.399496358792382e+000
0	 4.000138002678044e-001	 3.000000000000000e+000	 1.000277679693032e+001
0	 4.000138002678043e-001	 3.066659999995866e+000	 1.038335798912093e+001
0	 4.000138002678044e-001	 3.133319999991934e+000	 1.054517296474438e+001
0	 4.000138002678044e-001	 3.199979999988400e+000	 1.049215475318478e+001
0	 4.000138002678044e-001	 3.266639999985467e+000	 1.022823638383024e+001
0	 4.000138002678044e-001	 3.333299999983334e+000	 9.757350886072805e+000
0	 4.666844975500012e-001	 2.666700000016666e+000	 5.229499967427760e+000
0	 4.666844975500011e-001	 2.733360000014533e+000	 6.553076541586769e+000
0	 4.666844975500012e-001	 2.800020000011600e+000	 7.671323579717154e+000
0	 4.666844975500011e-001	 2.866680000008067e+000	 8.587662343327862e+000
0	 4.666844975500011e-001	 2.933340000004133e+000	 9.305514093931272e+000
0	 4.666844975500010e-001	 3.000000000000000e+000	 9.828300093043128e+000
0	 4.666844975500011e-001	 3.066659999995867e+000	 1.015944160218261e+001
0	 4.666844975500011e-001	 3.133319999991933e+000	 1.030235988287227e+001
0	 4.666844975500012e-001	 3.199979999988400e+000	 1.026047619663808e+001
0	 4.666844975500011e-001	 3.266639999985468e+000	 1.003721180500942e+001
0	 4.666844975500011e-001	 3.333299999983334e+000	 9.635987969519041e+000
0	 5.333553781553803e-001	 2.666700000016666e+000	 5.800816755076921e+000
0	 5.333553781553801e-001	 2.733360000014532e+000	 6.903450222716585e+000
0	 5.333553781553803e-001	 2.800020000011600e+000	 7.836305292327599e+000
0	 5.333553781553803e-001	 2.866680000008067e+000	 8.602112828903277e+000
0	 5.333553781553801e-001	 2.933340000004133e+000	 9.203603697439725e+000
0	 5.333553781553803e-001	 3.000000000000000e+000	 9.643508762935877e+000
0	 5.333553781553803e-001	 3.066659999995867e+000	 9.924558890393469e+000
0	 5.333553781553801e-001	 3.133319999991934e+000	 1.004948494481706e+001
0	 5.333553781553801e-001	 3.199979999988401e+000	 1.002101779121402e+001
0	 5.333553781553801e-001	 3.266639999985467e+000	 9.841888294594519e+000
0	 5.333553781553803e-001	 3.333299999983335e+000	 9.514827319971534e+000
0	 6.000263254118247e-001	 2.666700000016666e+000	 6.361584207024668e+000
0	 6.000263254118247e-001	 2.733360000014532e+000	 7.245900260627223e+000
0	 6.000263254118247e-001	 2.800020000011599e+000	 7.996377289334053e+000
0	 6.000263254118247e-001	 2.866680000008067e+000	 8.614877130342437e+000
0	 6.000263254118248e-001	 2.933340000004133e+000	 9.103261620851892e+000
0	 6.000263254118248e-001	 3.000000000000000e+000	 9.463392598064159e+000
0	 6.000263254118246e-001	 3.066659999995866e+000	 9.697131899183207e+000
0	 6.000263254118249e-001	 3.133319999991934e+000	 9.806341361415248e+000
0	 6.000263254118247e-001	 3.199979999988401e+000	 9.792882821968734e+000
0	 6.000263254118248e-001	 3.266639999985468e+000	 9.658618118054321e+000
0	 6.000263254118246e-001	 3.333299999983333e+000	 9.405409086884943e+000
0	 6.666972226472177e-001	 2.666700000016667e+000	 6.878714471183012e+000
0	 6.666972226472175e-001	 2.733360000014533e+000	 7.561076455379890e+000
0	 6.666972226472178e-001	 2.800020000011599e+000	 8.143865957150885e+000
0	 6.666972226472177e-001	 2.866680000008067e+000	 8.627897150121232e+000
0	 6.666972226472178e-001	 2.933340000004133e+000	 9.013984207917853e+000
0	 6.666972226472175e-001	 3.000000000000000e+000	 9.302941304169364e+000
0	 6.666972226472178e-001	 3.066659999995867e+000	 9.495582612506100e+000
0	 6.666972226472175e-001	 3.133319999991933e+000	 9.592722306560082e+000
0	 6.666972226472178e-001	 3.199979999988400e+000	 9.595174559965036e+000
0	 6.666972226472177e-001	 3.266639999985467e+000	 9.503753546356379e+000
0	 6.666972226472175e-001	 3.333299999983334e+000	 9.319273439371234e+000
0	 0.000000000000000e+000	 3.333299999983334e+000	 9.843530099937887e+000
0	 0.000000000000000e+000	 3.399969999982150e+000	 9.252962422240550e+000
0	 0.000000000000000e+000	 3.466639999981866e+000	 8.771043080158204e+000
0	 0.000000000000000e+000	 3.533309999982383e+000	 8.394609334040819e+000
0	 0.000000000000000e+000	 3.599979999983600e+000	 8.120498444239168e+000
0	 0.000000000000000e+000	 3.666649999985416e+000	 7.945547671104911e+000
0	 0.000000000000000e+000	 3.733319999987733e+000	 7.866594274990498e+000
0	 0.000000000000000e+000	 3.799989999990449e+000	 7.880475516249241e+000
0	 0.000000000000000e+000	 3.866659999993467e+000	 7.984028655235291e+000
0	 0.000000000000000e+000	 3.933329999996684e+000	 8.174090952303608e+000
0	 0.000000000000000e+000	 4.000000000000000e+000	 8.447499667810019e+000
0	 6.666714722864756e-002	 3.333299999983333e+000	 9.963295619048969e+000
0	 6.666714722864756e-002	 3.399969999982149e+000	 9.309707238491532e+000
0	 6.666714722864754e-002	 3.466639999981866e+000	 8.775441288545846e+000
0	 6.666714722864756e-002	 3.533309999982382e+000	 8.357140176015045e+000
0	 6.666714722864754e-002	 3.599979999983600e+000	 8.051446307703142e+000
0	 6.666714722864756e-002	 3.666649999985416e+000	 7.855002090415073e+000
0	 6.666714722864756e-002	 3.733319999987732e+000	 7.764449930956738e+000
0	 6.666714722864754e-002	 3.799989999990449e+000	 7.776432236134917e+000
0	 6.666714722864756e-002	 3.866659999993467e+000	 7.887591412757323e+000
0	 6.666714722864756e-002	 3.933329999996683e+000	 8.094569867632588e+000
0	 6.666714722864757e-002	 4.000000000000001e+000	 8.394010007570270e+000
0	 1.333351778131789e-001	 3.333299999983334e+000	 1.001402292126501e+001
0	 1.333351778131789e-001	 3.399969999982150e+000	 9.334322809614962e+000
0	 1.333351778131789e-001	 3.466639999981866e+000	 8.778480819875348e+000
0	 1.333351778131789e-001	 3.533309999982381e+000	 8.343052035425226e+000
0	 1.333351778131789e-001	 3.599979999983600e+000	 8.024591539644565e+000
0	 1.333351778131790e-001	 3.666649999985417e+000	 7.819654415914319e+000
0	 1.333351778131790e-001	 3.733319999987733e+000	 7.724795747616387e+000
0	 1.333351778131789e-001	 3.799989999990449e+000	 7.736570618133621e+000
0	 1.333351778131789e-001	 3.866659999993466e+000	 7.851534110849849e+000
0	 1.333351778131789e-001	 3.933329999996684e+000	 8.066241309149827e+000
0	 1.333351778131789e-001	 4.000000000000000e+000	 8.377247296419277e+000
0	 2.000039750814772e-001	 3.333299999983334e+000	 1.000725203808368e+001
0	 2.000039750814772e-001	 3.399969999982150e+000	 9.332919506259884e+000
0	 2.000039750814773e-001	 3.466639999981866e+000	 8.781670272892336e+000
0	 2.000039750814772e-001	 3.533309999982382e+000	 8.350079623608261e+000
0	 2.000039750814772e-001	 3.599979999983600e+000	 8.034722844035821e+000
0	 2.000039750814773e-001	 3.666649999985417e+000	 7.832175219804147e+000
0	 2.000039750814773e-001	 3.733319999987733e+000	 7.739012036543301e+000
0	 2.000039750814773e-001	 3.799989999990450e+000	 7.751808579884305e+000
0	 2.000039750814772e-001	 3.866659999993467e+000	 7.867140135459128e+000
0	 2.000039750814773e-001	 3.933329999996684e+000	 8.081581988900688e+000
0	 2.000039750814773e-001	 4.000000000000000e+000	 8.391709425842834e+000
0	 2.666734223614255e-001	 3.333299999983333e+000	 9.954523020666239e+000
0	 2.666734223614255e-001	 3.399969999982149e+000	 9.311607726192321e+000
0	 2.666734223614256e-001	 3.466639999981866e+000	 8.786518274828993e+000
0	 2.666734223614256e-001	 3.533309999982383e+000	 8.375957676802674e+000
0	 2.666734223614256e-001	 3.599979999983600e+000	 8.076628942340662e+000
0	 2.666734223614256e-001	 3.666649999985417e+000	 7.885235081671168e+000
0	 2.666734223614255e-001	 3.733319999987733e+000	 7.798479105023313e+000
0	 2.666734223614256e-001	 3.799989999990450e+000	 7.813064022627110e+000
0	 2.666734223614256e-001	 3.866659999993466e+000	 7.925692844713505e+000
0	 2.666734223614255e-001	 3.933329999996683e+000	 8.133068581514326e+000
0	 2.666734223614255e-001	 4.000000000000001e+000	 8.431894243262311e+000
0	 3.333434029809069e-001	 3.333299999983334e+000	 9.867375939835267e+000
0	 3.333434029809069e-001	 3.399969999982149e+000	 9.276497894291982e+000
0	 3.333434029809069e-001	 3.466639999981867e+000	 8.794533481400572e+000
0	 3.333434029809069e-001	 3.533309999982384e+000	 8.418420956145429e+000
0	 3.333434029809068e-001	 3.599979999983599e+000	 8.145098573511765e+000
0	 3.333434029809069e-001	 3.666649999985416e+000	 7.971504588485640e+000
0	 3.333434029809069e-001	 3.733319999987733e+000	 7.894577256053950e+000
0	 3.333434029809068e-001	 3.799989999990450e+000	 7.911254831204410e+000
0	 3.333434029809069e-001	 3.866659999993467e+000	 8.018475568925599e+000
0	 3.333434029809069e-001	 3.933329999996685e+000	 8.213177724206901e+000
0	 3.333434029809069e-001	 4.000000000000000e+000	 8.492299552038562e+000
0	 4.000138002678044e-001	 3.333299999983334e+000	 9.757350886072803e+000
0	 4.000138002678045e-001	 3.399969999982150e+000	 9.233700462549818e+000
0	 4.000138002678044e-001	 3.466639999981866e+000	 8.807224576802669e+000
0	 4.000138002678043e-001	 3.533309999982383e+000	 8.475204247669391e+000
0	 4.000138002678045e-001	 3.599979999983599e+000	 8.234920493988724e+000
0	 4.000138002678043e-001	 3.666649999985415e+000	 8.083654334600199e+000
0	 4.000138002678043e-001	 3.733319999987732e+000	 8.018686788344068e+000
0	 4.000138002678043e-001	 3.799989999990449e+000	 8.037298874061330e+000
0	 4.000138002678043e-001	 3.866659999993466e+000	 8.136771610593732e+000
0	 4.000138002678043e-001	 3.933329999996683e+000	 8.314386016783764e+000
0	 4.000138002678044e-001	 4.000000000000000e+000	 8.567423111474657e+000
0	 4.666844975500011e-001	 3.333299999983334e+000	 9.635987969519041e+000
0	 4.666844975500011e-001	 3.399969999982150e+000	 9.189325910066151e+000
0	 4.666844975500011e-001	 3.466639999981867e+000	 8.826100273709240e+000
0	 4.666844975500012e-001	 3.533309999982384e+000	 8.544042362301449e+000
0	 4.666844975500011e-001	 3.599979999983599e+000	 8.340883477696496e+000
0	 4.666844975500012e-001	 3.666649999985417e+000	 8.214354921748786e+000
0	 4.666844975500011e-001	 3.733319999987733e+000	 8.162187996313350e+000
0	 4.666844975500011e-001	 3.799989999990451e+000	 8.182114003245875e+000
0	 4.666844975500011e-001	 3.866659999993466e+000	 8.271864244402670e+000
0	 4.666844975500010e-001	 3.933329999996683e+000	 8.429170021640690e+000
0	 4.666844975500010e-001	 3.999999999999999e+000	 8.651762636817541e+000
0	 5.333553781553803e-001	 3.333299999983335e+000	 9.514827319971534e+000
0	 5.333553781553803e-001	 3.399969999982150e+000	 9.149484743049593e+000
0	 5.333553781553801e-001	 3.466639999981867e+000	 8.852669313271390e+000
0	 5.333553781553803e-001	 3.533309999982383e+000	 8.622670135861313e+000
0	 5.333553781553800e-001	 3.599979999983599e+000	 8.457776316044285e+000
0	 5.333553781553803e-001	 3.666649999985416e+000	 8.356276959045744e+000
0	 5.333553781553801e-001	 3.733319999987733e+000	 8.316461170091674e+000
0	 5.333553781553803e-001	 3.799989999990450e+000	 8.336618054408600e+000
0	 5.333553781553803e-001	 3.866659999993466e+000	 8.415036717223561e+000
0	 5.333553781553803e-001	 3.933329999996683e+000	 8.550006263764141e+000
0	 5.333553781553803e-001	 4.000000000000000e+000	 8.739815799258439e+000
0	 6.000263254118246e-001	 3.333299999983333e+000	 9.405409086884939e+000
0	 6.000263254118247e-001	 3.399969999982150e+000	 9.120287494816678e+000
0	 6.000263254118248e-001	 3.466639999981867e+000	 8.888440465116851e+000
0	 6.000263254118246e-001	 3.533309999982382e+000	 8.708822429060964e+000
0	 6.000263254118248e-001	 3.599979999983600e+000	 8.580387817924962e+000
0	 6.000263254118247e-001	 3.666649999985416e+000	 8.502091062985176e+000
0	 6.000263254118249e-001	 3.733319999987733e+000	 8.472886595518418e+000
0	 6.000263254118247e-001	 3.799989999990450e+000	 8.491728846801889e+000
0	 6.000263254118247e-001	 3.866659999993467e+000	 8.557572248113218e+000
0	 6.000263254118247e-001	 3.933329999996683e+000	 8.669371230730480e+000
0	 6.000263254118247e-001	 4.000000000000000e+000	 8.826080225932149e+000
0	 6.666972226472175e-001	 3.333299999983334e+000	 9.319273439371234e+000
0	 6.666972226472177e-001	 3.399969999982150e+000	 9.107844725792173e+000
0	 6.666972226472177e-001	 3.466639999981867e+000	 8.934922527350297e+000
0	 6.666972226472177e-001	 3.533309999982382e+000	 8.800234127504703e+000
0	 6.666972226472177e-001	 3.599979999983599e+000	 8.703506809714828e+000
0	 6.666972226472175e-001	 3.666649999985416e+000	 8.644467857440429e+000
0	 6.666972226472175e-001	 3.733319999987733e+000	 8.622844554141597e+000
0	 6.666972226472175e-001	 3.799989999990450e+000	 8.638364183278750e+000
0	 6.666972226472177e-001	 3.866659999993467e+000	 8.690754028312629e+000
0	 6.666972226472175e-001	 3.933329999996683e+000	 8.779741372704315e+000
0	 6.666972226472175e-001	 4.000000000000001e+000	 8.905053499915217e+000
0	 0.000000000000000e+000	 4.000000000000000e+000	 8.447499667810019e+000
0	 0.000000000000000e+000	 4.066670000003317e+000	 8.737218265658775e+000
0	 0.000000000000000e+000	 4.133340000006535e+000	 8.979713876446494e+000
0	 0.000000000000000e+000	 4.200010000009550e+000	 9.177079260567894e+000
0	 0.000000000000000e+000	 4.266680000012268e+000	 9.331407178417393e+000
0	 0.000000000000000e+000	 4.333350000014584e+000	 9.444790390389024e+000
0	 0.000000000000000e+000	 4.400020000016401e+000	 9.519321656876546e+000
0	 0.000000000000000e+000	 4.466690000017617e+000	 9.557093738273354e+000
0	 0.000000000000000e+000	 4.533360000018134e+000	 9.560199394972525e+000
0	 0.000000000000000e+000	 4.600030000017850e+000	 9.530731387366808e+000
0	 0.000000000000000e+000	 4.666700000016666e+000	 9.470782475848621e+000
0	 6.666714722864757e-002	 4.000000000000001e+000	 8.394010007570270e+000
0	 6.666714722864756e-002	 4.066670000003317e+000	 8.711879807234224e+000
0	 6.666714722864757e-002	 4.133340000006534e+000	 8.977830255688362e+000
0	 6.666714722864756e-002	 4.200010000009550e+000	 9.194028281342668e+000
0	 6.666714722864756e-002	 4.266680000012267e+000	 9.362640812606822e+000
0	 6.666714722864757e-002	 4.333350000014583e+000	 9.485834777890105e+000
0	 6.666714722864754e-002	 4.400020000016402e+000	 9.565777105601434e+000
0	 6.666714722864756e-002	 4.466690000017618e+000	 9.604634724149364e+000
0	 6.666714722864754e-002	 4.533360000018135e+000	 9.604574561942080e+000
0	 6.666714722864756e-002	 4.600030000017849e+000	 9.567763547387395e+000
0	 6.666714722864756e-002	 4.666700000016666e+000	 9.496368608892762e+000
0	 1.333351778131789e-001	 4.000000000000000e+000	 8.377247296419277e+000
0	 1.333351778131789e-001	 4.066670000003315e+000	 8.707518326879043e+000
0	 1.333351778131789e-001	 4.133340000006534e+000	 8.983770619482689e+000
0	 1.333351778131789e-001	 4.200010000009550e+000	 9.208184204715460e+000
0	 1.333351778131790e-001	 4.266680000012268e+000	 9.382939113062188e+000
0	 1.333351778131789e-001	 4.333350000014582e+000	 9.510215375007379e+000
0	 1.333351778131790e-001	 4.400020000016403e+000	 9.592193021035106e+000
0	 1.333351778131789e-001	 4.466690000017618e+000	 9.631052081629058e+000
0	 1.333351778131790e-001	 4.533360000018134e+000	 9.628972587272564e+000
0	 1.333351778131789e-001	 4.600030000017852e+000	 9.588134568448549e+000
0	 1.333351778131790e-001	 4.666700000016667e+000	 9.510718055639558e+000
0	 2.000039750814773e-001	 4.000000000000000e+000	 8.391709425842834e+000
0	 2.000039750814773e-001	 4.066670000003317e+000	 8.720899276184808e+000
0	 2.000039750814772e-001	 4.133340000006534e+000	 8.996232892040455e+000
0	 2.000039750814772e-001	 4.200010000009551e+000	 9.219842342365990e+000
0	 2.000039750814773e-001	 4.266680000012268e+000	 9.393859696117250e+000
0	 2.000039750814773e-001	 4.333350000014583e+000	 9.520417022249673e+000
0	 2.000039750814772e-001	 4.400020000016401e+000	 9.601646389718335e+000
0	 2.000039750814773e-001	 4.466690000017619e+000	 9.639679867477895e+000
0	 2.000039750814773e-001	 4.533360000018134e+000	 9.636649524482671e+000
0	 2.000039750814772e-001	 4.600030000017852e+000	 9.594687429686536e+000
0	 2.000039750814772e-001	 4.666700000016667e+000	 9.515925652043030e+000
0	 2.666734223614255e-001	 4.000000000000001e+000	 8.431894243262311e+000
0	 2.666734223614255e-001	 4.066670000003317e+000	 8.748788059814658e+000
0	 2.666734223614256e-001	 4.133340000006534e+000	 9.013914951218110e+000
0	 2.666734223614255e-001	 4.200010000009550e+000	 9.229297962990209e+000
0	 2.666734223614255e-001	 4.266680000012268e+000	 9.396960140648073e+000
0	 2.666734223614255e-001	 4.333350000014584e+000	 9.518924529708487e+000
0	 2.666734223614256e-001	 4.400020000016402e+000	 9.597214175687844e+000
0	 2.666734223614256e-001	 4.466690000017617e+000	 9.633852124102178e+000
0	 2.666734223614256e-001	 4.533360000018133e+000	 9.630861420467141e+000
0	 2.666734223614256e-001	 4.600030000017850e+000	 9.590265110298009e+000
0	 2.666734223614255e-001	 4.666700000016667e+000	 9.514086239109721e+000
0	 3.333434029809069e-001	 4.000000000000000e+000	 8.492299552038562e+000
0	 3.333434029809069e-001	 4.066670000003318e+000	 8.787950035507494e+000
0	 3.333434029809069e-001	 4.133340000006533e+000	 9.035514628521900e+000
0	 3.333434029809069e-001	 4.200010000009550e+000	 9.236846292304234e+000
0	 3.333434029809069e-001	 4.266680000012268e+000	 9.393797988076635e+000
0	 3.333434029809069e-001	 4.333350000014583e+000	 9.508222677060887e+000
0	 3.333434029809069e-001	 4.400020000016400e+000	 9.581973320478417e+000
0	 3.333434029809069e-001	 4.466690000017617e+000	 9.616902879550338e+000
0	 3.333434029809069e-001	 4.533360000018134e+000	 9.614864315497373e+000
0	 3.333434029809070e-001	 4.600030000017851e+000	 9.577710589539930e+000
0	 3.333434029809069e-001	 4.666700000016667e+000	 9.507294662898064e+000
0	 4.000138002678044e-001	 4.000000000000000e+000	 8.567423111474655e+000
0	 4.000138002678044e-001	 4.066670000003318e+000	 8.835150514081075e+000
0	 4.000138002678045e-001	 4.133340000006535e+000	 9.059729709110842e+000
0	 4.000138002678043e-001	 4.200010000009550e+000	 9.242782513047217e+000
0	 4.000138002678043e-001	 4.266680000012268e+000	 9.385930742373212e+000
0	 4.000138002678044e-001	 4.333350000014584e+000	 9.490796213571452e+000
0	 4.000138002678044e-001	 4.400020000016402e+000	 9.559000743124326e+000
0	 4.000138002678044e-001	 4.466690000017617e+000	 9.592166147513844e+000
0	 4.000138002678044e-001	 4.533360000018134e+000	 9.591914243221737e+000
0	 4.000138002678044e-001	 4.600030000017851e+000	 9.559866846729429e+000
0	 4.000138002678044e-001	 4.666700000016665e+000	 9.497645774518004e+000
0	 4.666844975500010e-001	 3.999999999999999e+000	 8.651762636817542e+000
0	 4.666844975500010e-001	 4.066670000003317e+000	 8.887154759433754e+000
0	 4.666844975500011e-001	 4.133340000006535e+000	 9.085257931798600e+000
0	 4.666844975500011e-001	 4.200010000009551e+000	 9.247401764983085e+000
0	 4.666844975500011e-001	 4.266680000012267e+000	 9.374915870057928e+000
0	 4.666844975500011e-001	 4.333350000014584e+000	 9.469129858093577e+000
0	 4.666844975500011e-001	 4.400020000016402e+000	 9.531373340160213e+000
0	 4.666844975500012e-001	 4.466690000017619e+000	 9.562975927327752e+000
0	 4.666844975500011e-001	 4.533360000018135e+000	 9.565267230665812e+000
0	 4.666844975500011e-001	 4.600030000017849e+000	 9.539576861243759e+000
0	 4.666844975500011e-001	 4.666700000016666e+000	 9.487234430130672e+000
0	 5.333553781553803e-001	 4.000000000000000e+000	 8.739815799258439e+000
0	 5.333553781553803e-001	 4.066670000003318e+000	 8.940727988545081e+000
0	 5.333553781553804e-001	 4.133340000006535e+000	 9.110796989054117e+000
0	 5.333553781553803e-001	 4.200010000009550e+000	 9.250999144901087e+000
0	 5.333553781553801e-001	 4.266680000012268e+000	 9.362310800201298e+000
0	 5.333553781553803e-001	 4.333350000014583e+000	 9.445708299069809e+000
0	 5.333553781553803e-001	 4.400020000016401e+000	 9.502167985621460e+000
0	 5.333553781553804e-001	 4.466690000017618e+000	 9.532666203970861e+000
0	 5.333553781553804e-001	 4.533360000018134e+000	 9.538179298232388e+000
0	 5.333553781553804e-001	 4.600030000017851e+000	 9.519683612520167e+000
0	 5.333553781553803e-001	 4.666700000016666e+000	 9.478155490948121e+000
0	 6.000263254118247e-001	 4.000000000000000e+000	 8.826080225932149e+000
0	 6.000263254118247e-001	 4.066670000003318e+000	 8.992635371475126e+000
0	 6.000263254118248e-001	 4.133340000006535e+000	 9.135044527000950e+000
0	 6.000263254118246e-001	 4.200010000009550e+000	 9.253869706615314e+000
0	 6.000263254118247e-001	 4.266680000012267e+000	 9.349672924423738e+000
0	 6.000263254118248e-001	 4.333350000014584e+000	 9.423016194531526e+000
0	 6.000263254118246e-001	 4.400020000016401e+000	 9.474461531043795e+000
0	 6.000263254118247e-001	 4.466690000017618e+000	 9.504570948065474e+000
0	 6.000263254118248e-001	 4.533360000018133e+000	 9.513906459701305e+000
0	 6.000263254118247e-001	 4.600030000017850e+000	 9.503030080055838e+000
0	 6.000263254118248e-001	 4.666700000016667e+000	 9.472503823233421e+000
0	 6.666972226472175e-001	 4.000000000000001e+000	 8.905053499915217e+000
0	 6.666972226472178e-001	 4.066670000003317e+000	 9.039642031362606e+000
0	 6.666972226472177e-001	 4.133340000006535e+000	 9.156698145415499e+000
0	 6.666972226472177e-001	 4.200010000009550e+000	 9.256308460963034e+000
0	 6.666972226472177e-001	 4.266680000012267e+000	 9.338559596894186e+000
0	 6.666972226472175e-001	 4.333350000014583e+000	 9.403538172097781e+000
0	 6.666972226472175e-001	 4.400020000016400e+000	 9.451330805462499e+000
0	 6.666972226472175e-001	 4.466690000017618e+000	 9.482024115876836e+000
0	 6.666972226472177e-001	 4.533360000018134e+000	 9.495704722229201e+000
0	 6.666972226472177e-001	 4.600030000017851e+000	 9.492459243407778e+000
0	 6.666972226472178e-001	 4.666700000016666e+000	 9.472374298300618e+000
0	 0.000000000000000e+000	 4.666700000016666e+000	 9.470782475848621e+000
0	 0.000000000000000e+000	 4.733360000014534e+000	 9.405320858731203e+000
0	 0.000000000000000e+000	 4.800020000011600e+000	 9.357088905892137e+000
0	 0.000000000000000e+000	 4.866680000008066e+000	 9.324874154693541e+000
0	 0.000000000000000e+000	 4.933340000004134e+000	 9.307464142497350e+000
0	 0.000000000000000e+000	 5.000000000000000e+000	 9.303646406665312e+000
0	 0.000000000000000e+000	 5.066659999995866e+000	 9.312208484558980e+000
0	 0.000000000000000e+000	 5.133319999991934e+000	 9.331937913539724e+000
0	 0.000000000000000e+000	 5.199979999988400e+000	 9.361622230968735e+000
0	 0.000000000000000e+000	 5.266639999985467e+000	 9.400048974207044e+000
0	 0.000000000000000e+000	 5.333299999983334e+000	 9.446005680615460e+000
0	 6.666714722864756e-002	 4.666700000016666e+000	 9.496368608892762e+000
0	 6.666714722864754e-002	 4.733360000014533e+000	 9.418474620611281e+000
0	 6.666714722864757e-002	 4.800020000011601e+000	 9.359864804664136e+000
0	 6.666714722864756e-002	 4.866680000008067e+000	 9.319293193497321e+000
0	 6.666714722864756e-002	 4.933340000004133e+000	 9.295513819556584e+000
0	 6.666714722864756e-002	 5.000000000000001e+000	 9.287280715287478e+000
0	 6.666714722864757e-002	 5.066659999995869e+000	 9.293347913135323e+000
0	 6.666714722864756e-002	 5.133319999991934e+000	 9.312469445545238e+000
0	 6.666714722864756e-002	 5.199979999988400e+000	 9.343399344962098e+000
0	 6.666714722864756e-002	 5.266639999985467e+000	 9.384891643830581e+000
0	 6.666714722864757e-002	 5.333299999983336e+000	 9.435700374595147e+000
0	 1.333351778131790e-001	 4.666700000016667e+000	 9.510718055639556e+000
0	 1.333351778131790e-001	 4.733360000014534e+000	 9.426326382834734e+000
0	 1.333351778131789e-001	 4.800020000011599e+000	 9.362250599286497e+000
0	 1.333351778131790e-001	 4.866680000008067e+000	 9.317245046822292e+000
0	 1.333351778131789e-001	 4.933340000004133e+000	 9.290064067269302e+000
0	 1.333351778131789e-001	 5.000000000000001e+000	 9.279462002454459e+000
0	 1.333351778131789e-001	 5.066659999995866e+000	 9.284193194204498e+000
0	 1.333351778131789e-001	 5.133319999991935e+000	 9.303011984345885e+000
0	 1.333351778131790e-001	 5.199979999988402e+000	 9.334672714704880e+000
0	 1.333351778131789e-001	 5.266639999985468e+000	 9.377929727107466e+000
0	 1.333351778131789e-001	 5.333299999983333e+000	 9.431537363379421e+000
0	 2.000039750814772e-001	 4.666700000016667e+000	 9.515925652043030e+000
0	 2.000039750814772e-001	 4.733360000014534e+000	 9.430117193505490e+000
0	 2.000039750814772e-001	 4.800020000011601e+000	 9.364757052394921e+000
0	 2.000039750814773e-001	 4.866680000008068e+000	 9.318633692964079e+000
0	 2.000039750814772e-001	 4.933340000004133e+000	 9.290535579465439e+000
0	 2.000039750814773e-001	 4.999999999999999e+000	 9.279251176151268e+000
0	 2.000039750814772e-001	 5.066659999995867e+000	 9.283568947273588e+000
0	 2.000039750814772e-001	 5.133319999991935e+000	 9.302277357084158e+000
0	 2.000039750814773e-001	 5.199979999988400e+000	 9.334164869834517e+000
0	 2.000039750814772e-001	 5.266639999985467e+000	 9.378019949775929e+000
0	 2.000039750814772e-001	 5.333299999983335e+000	 9.432631061159476e+000
0	 2.666734223614255e-001	 4.666700000016667e+000	 9.514086239109721e+000
0	 2.666734223614256e-001	 4.733360000014533e+000	 9.431088108604493e+000
0	 2.666734223614255e-001	 4.800020000011599e+000	 9.367894935348890e+000
0	 2.666734223614255e-001	 4.866680000008066e+000	 9.323363118166256e+000
0	 2.666734223614256e-001	 4.933340000004134e+000	 9.296349055879661e+000
0	 2.666734223614256e-001	 5.000000000000000e+000	 9.285709147311950e+000
0	 2.666734223614255e-001	 5.066659999995866e+000	 9.290299791285724e+000
0	 2.666734223614255e-001	 5.133319999991935e+000	 9.308977386623369e+000
0	 2.666734223614256e-001	 5.199979999988402e+000	 9.340598332147005e+000
0	 2.666734223614254e-001	 5.266639999985468e+000	 9.384019026678528e+000
0	 2.666734223614254e-001	 5.333299999983333e+000	 9.438095869039588e+000
0	 3.333434029809069e-001	 4.666700000016667e+000	 9.507294662898067e+000
0	 3.333434029809069e-001	 4.733360000014533e+000	 9.430480191988751e+000
0	 3.333434029809068e-001	 4.800020000011599e+000	 9.372175028230705e+000
0	 3.333434029809069e-001	 4.866680000008066e+000	 9.331337316619527e+000
0	 3.333434029809069e-001	 4.933340000004134e+000	 9.306925202150625e+000
0	 3.333434029809070e-001	 5.000000000000000e+000	 9.297896829819152e+000
0	 3.333434029809069e-001	 5.066659999995866e+000	 9.303210344620055e+000
0	 3.333434029809069e-001	 5.133319999991934e+000	 9.321823891548034e+000
0	 3.333434029809069e-001	 5.199979999988400e+000	 9.352695615597588e+000
0	 3.333434029809069e-001	 5.266639999985467e+000	 9.394783661762997e+000
0	 3.333434029809069e-001	 5.333299999983335e+000	 9.447046175038274e+000
0	 4.000138002678044e-001	 4.666700000016665e+000	 9.497645774518004e+000
0	 4.000138002678044e-001	 4.733360000014533e+000	 9.429534515390792e+000
0	 4.000138002678044e-001	 4.800020000011599e+000	 9.378108119844788e+000
0	 4.000138002678045e-001	 4.866680000008067e+000	 9.342460290461069e+000
0	 4.000138002678044e-001	 4.933340000004134e+000	 9.321684729820554e+000
0	 4.000138002678044e-001	 5.000000000000000e+000	 9.314875140503931e+000
0	 4.000138002678044e-001	 5.066659999995868e+000	 9.321125225091697e+000
0	 4.000138002678045e-001	 5.133319999991935e+000	 9.339528686164117e+000
0	 4.000138002678044e-001	 5.199979999988400e+000	 9.369179226301293e+000
0	 4.000138002678044e-001	 5.266639999985467e+000	 9.409170548083077e+000
0	 4.000138002678044e-001	 5.333299999983333e+000	 9.458596354089144e+000
0	 4.666844975500011e-001	 4.666700000016666e+000	 9.487234430130672e+000
0	 4.666844975500011e-001	 4.733360000014533e+000	 9.429492158418205e+000
0	 4.666844975500011e-001	 4.800020000011597e+000	 9.386205007717244e+000
0	 4.666844975500012e-001	 4.866680000008068e+000	 9.356636049774091e+000
0	 4.666844975500011e-001	 4.933340000004134e+000	 9.340048356334858e+000
0	 4.666844975500011e-001	 5.000000000000000e+000	 9.335704999145488e+000
0	 4.666844975500011e-001	 5.066659999995867e+000	 9.342869049951727e+000
0	 4.666844975500012e-001	 5.133319999991935e+000	 9.360803580499143e+000
0	 4.666844975500011e-001	 5.199979999988399e+000	 9.388771662533133e+000
0	 4.666844975500012e-001	 5.266639999985468e+000	 9.426036367798904e+000
0	 4.666844975500012e-001	 5.333299999983334e+000	 9.471860768041454e+000
0	 5.333553781553803e-001	 4.666700000016666e+000	 9.478155490948124e+000
0	 5.333553781553800e-001	 4.733360000014533e+000	 9.431594208553340e+000
0	 5.333553781553804e-001	 4.800020000011601e+000	 9.396976498095604e+000
0	 5.333553781553803e-001	 4.866680000008067e+000	 9.373768612587631e+000
0	 5.333553781553803e-001	 4.933340000004133e+000	 9.361436805041986e+000
0	 5.333553781553803e-001	 5.000000000000000e+000	 9.359447328471063e+000
0	 5.333553781553804e-001	 5.066659999995867e+000	 9.367266435887105e+000
0	 5.333553781553805e-001	 5.133319999991935e+000	 9.384360380302198e+000
0	 5.333553781553803e-001	 5.199979999988401e+000	 9.410195414728269e+000
0	 5.333553781553801e-001	 5.266639999985467e+000	 9.444237792177100e+000
0	 5.333553781553803e-001	 5.333299999983334e+000	 9.485953765660266e+000
0	 6.000263254118248e-001	 4.666700000016667e+000	 9.472503823233421e+000
0	 6.000263254118247e-001	 4.733360000014531e+000	 9.437081761153385e+000
0	 6.000263254118247e-001	 4.800020000011600e+000	 9.410933405948800e+000
0	 6.000263254118248e-001	 4.866680000008066e+000	 9.393762004876542e+000
0	 6.000263254118248e-001	 4.933340000004134e+000	 9.385270805193368e+000
0	 6.000263254118247e-001	 5.000000000000000e+000	 9.385163054155898e+000
0	 6.000263254118246e-001	 5.066659999995867e+000	 9.393141999020603e+000
0	 6.000263254118247e-001	 5.133319999991935e+000	 9.408910887043843e+000
0	 6.000263254118247e-001	 5.199979999988401e+000	 9.432172965481827e+000
0	 6.000263254118247e-001	 5.266639999985467e+000	 9.462631481590650e+000
0	 6.000263254118248e-001	 5.333299999983335e+000	 9.499989682626254e+000
0	 6.666972226472178e-001	 4.666700000016666e+000	 9.472374298300620e+000
0	 6.666972226472177e-001	 4.733360000014533e+000	 9.447195919450506e+000
0	 6.666972226472177e-001	 4.800020000011600e+000	 9.428586554967405e+000
0	 6.666972226472178e-001	 4.866680000008067e+000	 9.416520260561670e+000
0	 6.666972226472175e-001	 4.933340000004133e+000	 9.410971091943573e+000
0	 6.666972226472174e-001	 4.999999999999999e+000	 9.411913104823238e+000
0	 6.666972226472178e-001	 5.066659999995868e+000	 9.419320354910701e+000
0	 6.666972226472177e-001	 5.133319999991935e+000	 9.433166897915880e+000
0	 6.666972226472178e-001	 5.199979999988400e+000	 9.453426789548590e+000
0	 6.666972226472177e-001	 5.266639999985468e+000	 9.480074085518497e+000
0	 6.666972226472175e-001	 5.333299999983334e+000	 9.513082841535203e+000
0	 0.000000000000000e+000	 5.333299999983334e+000	 9.446005680615460e+000
0	 0.000000000000000e+000	 5.399969999982149e+000	 9.491685015388013e+000
0	 0.000000000000000e+000	 5.466639999981866e+000	 9.530473982748713e+000
0	 0.000000000000000e+000	 5.533309999982383e+000	 9.562973823712927e+000
0	 0.000000000000000e+000	 5.599979999983600e+000	 9.589785779295932e+000
0	 0.000000000000000e+000	 5.666649999985417e+000	 9.611511090513059e+000
0	 0.000000000000000e+000	 5.733319999987733e+000	 9.628750998379486e+000
0	 0.000000000000000e+000	 5.799989999990450e+000	 9.642106743910491e+000
0	 0.000000000000000e+000	 5.866659999993467e+000	 9.652179568121191e+000
0	 0.000000000000000e+000	 5.933329999996683e+000	 9.659570712026790e+000
0	 0.000000000000000e+000	 6.000000000000000e+000	 9.664881416642372e+000
0	 6.666714722864757e-002	 5.333299999983336e+000	 9.435700374595147e+000
0	 6.666714722864756e-002	 5.399969999982148e+000	 9.486660089239820e+000
0	 6.666714722864756e-002	 5.466639999981866e+000	 9.529834048685990e+000
0	 6.666714722864756e-002	 5.533309999982381e+000	 9.565844124492438e+000
0	 6.666714722864753e-002	 5.599979999983598e+000	 9.595312188217932e+000
0	 6.666714722864757e-002	 5.666649999985415e+000	 9.618860111421162e+000
0	 6.666714722864756e-002	 5.733319999987733e+000	 9.637109765660801e+000
0	 6.666714722864757e-002	 5.799989999990449e+000	 9.650683022495471e+000
0	 6.666714722864756e-002	 5.866659999993468e+000	 9.660201753483799e+000
0	 6.666714722864757e-002	 5.933329999996683e+000	 9.666287830184283e+000
0	 6.666714722864756e-002	 6.000000000000000e+000	 9.669563124155486e+000
0	 1.333351778131789e-001	 5.333299999983333e+000	 9.431537363379421e+000
0	 1.333351778131789e-001	 5.399969999982151e+000	 9.485556632517396e+000
0	 1.333351778131789e-001	 5.466639999981865e+000	 9.531277925400273e+000
0	 1.333351778131789e-001	 5.533309999982383e+000	 9.569325924781710e+000
0	 1.333351778131790e-001	 5.599979999983600e+000	 9.600325313415329e+000
0	 1.333351778131790e-001	 5.666649999985418e+000	 9.624900774054707e+000
0	 1.333351778131789e-001	 5.733319999987733e+000	 9.643676989453368e+000
0	 1.333351778131789e-001	 5.799989999990448e+000	 9.657278642364805e+000
0	 1.333351778131789e-001	 5.866659999993466e+000	 9.666330415542477e+000
0	 1.333351778131789e-001	 5.933329999996686e+000	 9.671456991739770e+000
0	 1.333351778131789e-001	 6.000000000000000e+000	 9.673283053710037e+000
0	 2.000039750814772e-001	 5.333299999983335e+000	 9.432631061159478e+000
0	 2.000039750814772e-001	 5.399969999982151e+000	 9.487788181803090e+000
0	 2.000039750814772e-001	 5.466639999981867e+000	 9.534477552836071e+000
0	 2.000039750814772e-001	 5.533309999982384e+000	 9.573308849534699e+000
0	 2.000039750814772e-001	 5.599979999983600e+000	 9.604891747175197e+000
0	 2.000039750814772e-001	 5.666649999985415e+000	 9.629835921033720e+000
0	 2.000039750814772e-001	 5.733319999987732e+000	 9.648751046386417e+000
0	 2.000039750814773e-001	 5.799989999990449e+000	 9.662246798509367e+000
0	 2.000039750814772e-001	 5.866659999993465e+000	 9.670932852678607e+000
0	 2.000039750814773e-001	 5.933329999996684e+000	 9.675418884170137e+000
0	 2.000039750814772e-001	 5.999999999999999e+000	 9.676314568259894e+000
0	 2.666734223614254e-001	 5.333299999983333e+000	 9.438095869039586e+000
0	 2.666734223614254e-001	 5.399969999982147e+000	 9.492768259528821e+000
0	 2.666734223614255e-001	 5.466639999981866e+000	 9.539104856755401e+000
0	 2.666734223614256e-001	 5.533309999982383e+000	 9.577682510335118e+000
0	 2.666734223614255e-001	 5.599979999983599e+000	 9.609078069883680e+000
0	 2.666734223614255e-001	 5.666649999985415e+000	 9.633868385016760e+000
0	 2.666734223614255e-001	 5.733319999987732e+000	 9.652630305350000e+000
0	 2.666734223614255e-001	 5.799989999990449e+000	 9.665940680498984e+000
0	 2.666734223614255e-001	 5.866659999993464e+000	 9.674376360079249e+000
0	 2.666734223614255e-001	 5.933329999996683e+000	 9.678514193706278e+000
0	 2.666734223614256e-001	 6.000000000000001e+000	 9.678931030995512e+000
0	 3.333434029809069e-001	 5.333299999983335e+000	 9.447046175038272e+000
0	 3.333434029809069e-001	 5.399969999982149e+000	 9.499910373977381e+000
0	 3.333434029809069e-001	 5.466639999981866e+000	 9.544831748739082e+000
0	 3.333434029809068e-001	 5.533309999982383e+000	 9.582336505397608e+000
0	 3.333434029809069e-001	 5.599979999983598e+000	 9.612950850027136e+000
0	 3.333434029809069e-001	 5.666649999985415e+000	 9.637200988701805e+000
0	 3.333434029809070e-001	 5.733319999987733e+000	 9.655613127495718e+000
0	 3.333434029809068e-001	 5.799989999990449e+000	 9.668713472482910e+000
0	 3.333434029809068e-001	 5.866659999993468e+000	 9.677028229737376e+000
0	 3.333434029809068e-001	 5.933329999996682e+000	 9.681083605333086e+000
0	 3.333434029809069e-001	 6.000000000000000e+000	 9.681405805343941e+000
0	 4.000138002678044e-001	 5.333299999983333e+000	 9.458596354089144e+000
0	 4.000138002678045e-001	 5.399969999982150e+000	 9.508628019283371e+000
0	 4.000138002678044e-001	 5.466639999981865e+000	 9.551330126187684e+000
0	 4.000138002678043e-001	 5.533309999982383e+000	 9.587160419568654e+000
0	 4.000138002678045e-001	 5.599979999983599e+000	 9.616576644192884e+000
0	 4.000138002678043e-001	 5.666649999985415e+000	 9.640036544826879e+000
0	 4.000138002678043e-001	 5.733319999987731e+000	 9.657997866237125e+000
0	 4.000138002678044e-001	 5.799989999990450e+000	 9.670918353190055e+000
0	 4.000138002678043e-001	 5.866659999993467e+000	 9.679255750452061e+000
0	 4.000138002678044e-001	 5.933329999996684e+000	 9.683467802789485e+000
0	 4.000138002678044e-001	 6.000000000000001e+000	 9.684012254968630e+000
0	 4.666844975500012e-001	 5.333299999983334e+000	 9.471860768041454e+000
0	 4.666844975500011e-001	 5.399969999982149e+000	 9.518334675433783e+000
0	 4.666844975500011e-001	 5.466639999981864e+000	 9.558271872322072e+000
0	 4.666844975500012e-001	 5.533309999982383e+000	 9.592043824327110e+000
0	 4.666844975500011e-001	 5.599979999983600e+000	 9.620021997069655e+000
0	 4.666844975500012e-001	 5.666649999985417e+000	 9.642577856170412e+000
0	 4.666844975500012e-001	 5.733319999987733e+000	 9.660082867250059e+000
0	 4.666844975500011e-001	 5.799989999990449e+000	 9.672908495929224e+000
0	 4.666844975500012e-001	 5.866659999993467e+000	 9.681426207828483e+000
0	 4.666844975500012e-001	 5.933329999996683e+000	 9.686007468568386e+000
0	 4.666844975500011e-001	 5.999999999999999e+000	 9.687023743769437e+000
0	 5.333553781553803e-001	 5.333299999983334e+000	 9.485953765660266e+000
0	 5.333553781553804e-001	 5.399969999982151e+000	 9.528443808268133e+000
0	 5.333553781553801e-001	 5.466639999981866e+000	 9.565328856183619e+000
0	 5.333553781553801e-001	 5.533309999982382e+000	 9.596876277784313e+000
0	 5.333553781553801e-001	 5.599979999983598e+000	 9.623353441447717e+000
0	 5.333553781553803e-001	 5.666649999985417e+000	 9.645027715551354e+000
0	 5.333553781553803e-001	 5.733319999987733e+000	 9.662166468472659e+000
0	 5.333553781553803e-001	 5.799989999990449e+000	 9.675037068589063e+000
0	 5.333553781553801e-001	 5.866659999993465e+000	 9.683906884277944e+000
0	 5.333553781553804e-001	 5.933329999996683e+000	 9.689043283916645e+000
0	 5.333553781553801e-001	 5.999999999999998e+000	 9.690713635882471e+000
0	 6.000263254118248e-001	 5.333299999983335e+000	 9.499989682626252e+000
0	 6.000263254118247e-001	 5.399969999982149e+000	 9.538368869478346e+000
0	 6.000263254118247e-001	 5.466639999981865e+000	 9.572172932634031e+000
0	 6.000263254118246e-001	 5.533309999982383e+000	 9.601547324683954e+000
0	 6.000263254118247e-001	 5.599979999983601e+000	 9.626637498218743e+000
0	 6.000263254118247e-001	 5.666649999985416e+000	 9.647588905828984e+000
0	 6.000263254118248e-001	 5.733319999987733e+000	 9.664547000105223e+000
0	 6.000263254118248e-001	 5.799989999990451e+000	 9.677657233637993e+000
0	 6.000263254118247e-001	 5.866659999993466e+000	 9.687065059017764e+000
0	 6.000263254118246e-001	 5.933329999996682e+000	 9.692915928834967e+000
0	 6.000263254118248e-001	 6.000000000000001e+000	 9.695355295680040e+000
0	 6.666972226472175e-001	 5.333299999983334e+000	 9.513082841535201e+000
0	 6.666972226472177e-001	 5.399969999982150e+000	 9.547523296608160e+000
0	 6.666972226472175e-001	 5.466639999981865e+000	 9.578475942354725e+000
0	 6.666972226472177e-001	 5.533309999982382e+000	 9.605946496401556e+000
0	 6.666972226472177e-001	 5.599979999983599e+000	 9.629940676375291e+000
0	 6.666972226472174e-001	 5.666649999985414e+000	 9.650464199902551e+000
0	 6.666972226472177e-001	 5.733319999987732e+000	 9.667522784609902e+000
0	 6.666972226472177e-001	 5.799989999990449e+000	 9.681122148123892e+000
0	 6.666972226472178e-001	 5.866659999993467e+000	 9.691268008071027e+000
0	 6.666972226472177e-001	 5.933329999996684e+000	 9.697966082077789e+000
0	 6.666972226472177e-001	 6.000000000000000e+000	 9.701222087770628e+000
0	 0.000000000000000e+000	 6.000000000000000e+000	 9.664881416642372e+000
0	 0.000000000000000e+000	 6.066670000003317e+000	 9.670292079674823e+000
0	 0.000000000000000e+000	 6.133340000006534e+000	 9.677395234559892e+000
0	 0.000000000000000e+000	 6.200010000009551e+000	 9.685910325906020e+000
0	 0.000000000000000e+000	 6.266680000012268e+000	 9.695556798321633e+000
0	 0.000000000000000e+000	 6.333350000014584e+000	 9.706054096415169e+000
0	 0.000000000000000e+000	 6.400020000016401e+000	 9.717121664795080e+000
0	 0.000000000000000e+000	 6.466690000017618e+000	 9.728478948069764e+000
0	 0.000000000000000e+000	 6.533360000018134e+000	 9.739845390847666e+000
0	 0.000000000000000e+000	 6.600030000017850e+000	 9.750940437737212e+000
0	 0.000000000000000e+000	 6.666700000016666e+000	 9.761483533346848e+000
0	 6.666714722864756e-002	 6.000000000000000e+000	 9.669563124155486e+000
0	 6.666714722864754e-002	 6.066670000003317e+000	 9.672780179606130e+000
0	 6.666714722864756e-002	 6.133340000006531e+000	 9.678080160693623e+000
0	 6.666714722864756e-002	 6.200010000009550e+000	 9.685167868899374e+000
0	 6.666714722864756e-002	 6.266680000012269e+000	 9.693748105704835e+000
0	 6.666714722864756e-002	 6.333350000014582e+000	 9.703525672591439e+000
0	 6.666714722864754e-002	 6.400020000016401e+000	 9.714205371040587e+000
0	 6.666714722864757e-002	 6.466690000017620e+000	 9.725492002533756e+000
0	 6.666714722864756e-002	 6.533360000018132e+000	 9.737090368552343e+000
0	 6.666714722864756e-002	 6.600030000017848e+000	 9.748705270577817e+000
0	 6.666714722864757e-002	 6.666700000016668e+000	 9.760041510091613e+000
0	 1.333351778131789e-001	 6.000000000000000e+000	 9.673283053710037e+000
0	 1.333351778131789e-001	 6.066670000003318e+000	 9.674941077711477e+000
0	 1.333351778131790e-001	 6.133340000006535e+000	 9.678946738764823e+000
0	 1.333351778131789e-001	 6.200010000009550e+000	 9.684999517767260e+000
0	 1.333351778131789e-001	 6.266680000012267e+000	 9.692798895615949e+000
0	 1.333351778131790e-001	 6.333350000014583e+000	 9.702044353208054e+000
0	 1.333351778131789e-001	 6.400020000016401e+000	 9.712435371440733e+000
0	 1.333351778131789e-001	 6.466690000017617e+000	 9.723671431211207e+000
0	 1.333351778131790e-001	 6.533360000018136e+000	 9.735452013416641e+000
0	 1.333351778131790e-001	 6.600030000017853e+000	 9.747476598954222e+000
0	 1.333351778131789e-001	 6.666700000016666e+000	 9.759444668721132e+000
0	 2.000039750814772e-001	 5.999999999999999e+000	 9.676314568259894e+000
0	 2.000039750814773e-001	 6.066670000003318e+000	 9.676965526455575e+000
0	 2.000039750814772e-001	 6.133340000006531e+000	 9.680113251735399e+000
0	 2.000039750814773e-001	 6.200010000009552e+000	 9.685461226580950e+000
0	 2.000039750814772e-001	 6.266680000012267e+000	 9.692712933473857e+000
0	 2.000039750814773e-001	 6.333350000014584e+000	 9.701571854895768e+000
0	 2.000039750814772e-001	 6.400020000016400e+000	 9.711741473328269e+000
0	 2.000039750814773e-001	 6.466690000017618e+000	 9.722925271253036e+000
0	 2.000039750814772e-001	 6.533360000018134e+000	 9.734826731151708e+000
0	 2.000039750814773e-001	 6.600030000017851e+000	 9.747149335505922e+000
0	 2.000039750814772e-001	 6.666700000016666e+000	 9.759596566797340e+000
0	 2.666734223614256e-001	 6.000000000000001e+000	 9.678931030995512e+000
0	 2.666734223614255e-001	 6.066670000003315e+000	 9.679044279417232e+000
0	 2.666734223614256e-001	 6.133340000006533e+000	 9.681697984003868e+000
0	 2.666734223614254e-001	 6.200010000009550e+000	 9.686608950714073e+000
0	 2.666734223614255e-001	 6.266680000012266e+000	 9.693493985506505e+000
0	 2.666734223614256e-001	 6.333350000014583e+000	 9.702069894339847e+000
0	 2.666734223614255e-001	 6.400020000016399e+000	 9.712053483172742e+000
0	 2.666734223614255e-001	 6.466690000017617e+000	 9.723161557963914e+000
0	 2.666734223614256e-001	 6.533360000018133e+000	 9.735110924672009e+000
0	 2.666734223614255e-001	 6.600030000017849e+000	 9.747618389255745e+000
0	 2.666734223614256e-001	 6.666700000016667e+000	 9.760400757673827e+000
0	 3.333434029809069e-001	 6.000000000000000e+000	 9.681405805343941e+000
0	 3.333434029809069e-001	 6.066670000003317e+000	 9.681368091289130e+000
0	 3.333434029809069e-001	 6.133340000006532e+000	 9.683819221405303e+000
0	 3.333434029809069e-001	 6.200010000009552e+000	 9.688498646842477e+000
0	 3.333434029809070e-001	 6.266680000012269e+000	 9.695145818750715e+000
0	 3.333434029809069e-001	 6.333350000014584e+000	 9.703500188280074e+000
0	 3.333434029809069e-001	 6.400020000016399e+000	 9.713301206580622e+000
0	 3.333434029809069e-001	 6.466690000017618e+000	 9.724288324802419e+000
0	 3.333434029809069e-001	 6.533360000018135e+000	 9.736200994095563e+000
0	 3.333434029809070e-001	 6.600030000017851e+000	 9.748778665610134e+000
0	 3.333434029809068e-001	 6.666700000016665e+000	 9.761760790496206e+000
0	 4.000138002678044e-001	 6.000000000000001e+000	 9.684012254968630e+000
0	 4.000138002678044e-001	 6.066670000003316e+000	 9.684127717877722e+000
0	 4.000138002678044e-001	 6.133340000006533e+000	 9.686595251211049e+000
0	 4.000138002678045e-001	 6.200010000009552e+000	 9.691186272944027e+000
0	 4.000138002678044e-001	 6.266680000012268e+000	 9.697672201052109e+000
0	 4.000138002678044e-001	 6.333350000014584e+000	 9.705824453510704e+000
0	 4.000138002678044e-001	 6.400020000016401e+000	 9.715414448295276e+000
0	 4.000138002678044e-001	 6.466690000017616e+000	 9.726213603381273e+000
0	 4.000138002678043e-001	 6.533360000018133e+000	 9.737993336744172e+000
0	 4.000138002678044e-001	 6.600030000017851e+000	 9.750525066359410e+000
0	 4.000138002678044e-001	 6.666700000016665e+000	 9.763580210202504e+000
0	 4.666844975500011e-001	 5.999999999999999e+000	 9.687023743769437e+000
0	 4.666844975500010e-001	 6.066670000003315e+000	 9.687513916103095e+000
0	 4.666844975500012e-001	 6.133340000006535e+000	 9.690144362128699e+000
0	 4.666844975500011e-001	 6.200010000009551e+000	 9.694727788298563e+000
0	 4.666844975500011e-001	 6.266680000012268e+000	 9.701076901065008e+000
0	 4.666844975500012e-001	 6.333350000014587e+000	 9.709004406880375e+000
0	 4.666844975500011e-001	 6.400020000016400e+000	 9.718323012197006e+000
0	 4.666844975500011e-001	 6.466690000017615e+000	 9.728845423467242e+000
0	 4.666844975500011e-001	 6.533360000018134e+000	 9.740384347143444e+000
0	 4.666844975500012e-001	 6.600030000017849e+000	 9.752752489677988e+000
0	 4.666844975500011e-001	 6.666700000016666e+000	 9.765762557523244e+000
0	 5.333553781553801e-001	 5.999999999999998e+000	 9.690713635882471e+000
0	 5.333553781553803e-001	 6.066670000003319e+000	 9.691717443998881e+000
0	 5.333553781553803e-001	 6.133340000006533e+000	 9.694584844301936e+000
0	 5.333553781553804e-001	 6.200010000009550e+000	 9.699179153487730e+000
0	 5.333553781553801e-001	 6.266680000012267e+000	 9.705363688252422e+000
0	 5.333553781553804e-001	 6.333350000014582e+000	 9.713001765292137e+000
0	 5.333553781553801e-001	 6.400020000016399e+000	 9.721956701303029e+000
0	 5.333553781553804e-001	 6.466690000017618e+000	 9.732091812981249e+000
0	 5.333553781553801e-001	 6.533360000018132e+000	 9.743270417022963e+000
0	 5.333553781553801e-001	 6.600030000017849e+000	 9.755355830124344e+000
0	 5.333553781553803e-001	 6.666700000016667e+000	 9.768211368981579e+000
0	 6.000263254118248e-001	 6.000000000000001e+000	 9.695355295680040e+000
0	 6.000263254118247e-001	 6.066670000003315e+000	 9.696929060712202e+000
0	 6.000263254118248e-001	 6.133340000006534e+000	 9.700034989310503e+000
0	 6.000263254118248e-001	 6.200010000009551e+000	 9.704596330395052e+000
0	 6.000263254118248e-001	 6.266680000012269e+000	 9.710536332885988e+000
0	 6.000263254118246e-001	 6.333350000014585e+000	 9.717778245703409e+000
0	 6.000263254118247e-001	 6.400020000016399e+000	 9.726245317767479e+000
0	 6.000263254118248e-001	 6.466690000017618e+000	 9.735860797998344e+000
0	 6.000263254118247e-001	 6.533360000018133e+000	 9.746547935316150e+000
0	 6.000263254118248e-001	 6.600030000017851e+000	 9.758229978641081e+000
0	 6.000263254118246e-001	 6.666700000016665e+000	 9.770830176893293e+000
0	 6.666972226472177e-001	 6.000000000000000e+000	 9.701222087770628e+000
0	 6.666972226472178e-001	 6.066670000003318e+000	 9.703339526503617e+000
0	 6.666972226472178e-001	 6.133340000006534e+000	 9.706613090170203e+000
0	 6.666972226472177e-001	 6.200010000009551e+000	 9.711035282205806e+000
0	 6.666972226472178e-001	 6.266680000012268e+000	 9.716598606045883e+000
0	 6.666972226472175e-001	 6.333350000014583e+000	 9.723295565125898e+000
0	 6.666972226472175e-001	 6.400020000016400e+000	 9.731118662881308e+000
0	 6.666972226472177e-001	 6.466690000017618e+000	 9.740060402747593e+000
0	 6.666972226472174e-001	 6.533360000018134e+000	 9.750113288160231e+000
0	 6.666972226472178e-001	 6.600030000017851e+000	 9.761269822554707e+000
0	 6.666972226472178e-001	 6.666700000016667e+000	 9.773522509366558e+000
0	 0.000000000000000e+000	 6.666700000016666e+000	 9.761483533346848e+000
0	 0.000000000000000e+000	 6.733360000014533e+000	 9.771287002805229e+000
0	 0.000000000000000e+000	 6.800020000011600e+000	 9.780428992224202e+000
0	 0.000000000000000e+000	 6.866680000008066e+000	 9.789023099795243e+000
0	 0.000000000000000e+000	 6.933340000004133e+000	 9.797182923709793e+000
0	 0.000000000000000e+000	 7.000000000000000e+000	 9.805022062159269e+000
0	 0.000000000000000e+000	 7.066659999995865e+000	 9.812654113335146e+000
0	 0.000000000000000e+000	 7.133319999991934e+000	 9.820192675428880e+000
0	 0.000000000000000e+000	 7.199979999988400e+000	 9.827751346631878e+000
0	 0.000000000000000e+000	 7.266639999985467e+000	 9.835443725135644e+000
0	 0.000000000000000e+000	 7.333299999983335e+000	 9.843383409131619e+000
0	 6.666714722864757e-002	 6.666700000016668e+000	 9.760041510091613e+000
0	 6.666714722864754e-002	 6.733360000014533e+000	 9.770681869172353e+000
0	 6.666714722864757e-002	 6.800020000011601e+000	 9.780492040762253e+000
0	 6.666714722864756e-002	 6.866680000008067e+000	 9.789596198558927e+000
0	 6.666714722864757e-002	 6.933340000004135e+000	 9.798118516259967e+000
0	 6.666714722864757e-002	 7.000000000000002e+000	 9.806183167562994e+000
0	 6.666714722864758e-002	 7.066659999995868e+000	 9.813914326165575e+000
0	 6.666714722864756e-002	 7.133319999991934e+000	 9.821436165765384e+000
0	 6.666714722864757e-002	 7.199979999988400e+000	 9.828872860059978e+000
0	 6.666714722864754e-002	 7.266639999985467e+000	 9.836348582747004e+000
0	 6.666714722864756e-002	 7.333299999983333e+000	 9.843987507524071e+000
0	 1.333351778131789e-001	 6.666700000016666e+000	 9.759444668721132e+000
0	 1.333351778131789e-001	 6.733360000014533e+000	 9.770757371916483e+000
0	 1.333351778131789e-001	 6.800020000011598e+000	 9.781106431862169e+000
0	 1.333351778131789e-001	 6.866680000008065e+000	 9.790621863068520e+000
0	 1.333351778131789e-001	 6.933340000004130e+000	 9.799433680045848e+000
0	 1.333351778131789e-001	 7.000000000000000e+000	 9.807671897304472e+000
0	 1.333351778131789e-001	 7.066659999995866e+000	 9.815466529354728e+000
0	 1.333351778131790e-001	 7.133319999991935e+000	 9.822947590706976e+000
0	 1.333351778131790e-001	 7.199979999988401e+000	 9.830245095871536e+000
0	 1.333351778131790e-001	 7.266639999985467e+000	 9.837489059358756e+000
0	 1.333351778131789e-001	 7.333299999983334e+000	 9.844809495678998e+000
0	 2.000039750814772e-001	 6.666700000016666e+000	 9.759596566797343e+000
0	 2.000039750814772e-001	 6.733360000014534e+000	 9.771430462064760e+000
0	 2.000039750814773e-001	 6.800020000011600e+000	 9.782201873608692e+000
0	 2.000039750814773e-001	 6.866680000008068e+000	 9.792041922265206e+000
0	 2.000039750814772e-001	 6.933340000004133e+000	 9.801081728870329e+000
0	 2.000039750814773e-001	 7.000000000000001e+000	 9.809452414260118e+000
0	 2.000039750814772e-001	 7.066659999995867e+000	 9.817285099270640e+000
0	 2.000039750814772e-001	 7.133319999991936e+000	 9.824710904737948e+000
0	 2.000039750814773e-001	 7.199979999988401e+000	 9.831860951498127e+000
0	 2.000039750814773e-001	 7.266639999985467e+000	 9.838866360387238e+000
0	 2.000039750814772e-001	 7.333299999983335e+000	 9.845858252241387e+000
0	 2.666734223614256e-001	 6.666700000016667e+000	 9.760400757673827e+000
0	 2.666734223614254e-001	 6.733360000014532e+000	 9.772618086145975e+000
0	 2.666734223614255e-001	 6.800020000011598e+000	 9.783708069574729e+000
0	 2.666734223614255e-001	 6.866680000008067e+000	 9.793798200791587e+000
0	 2.666734223614256e-001	 6.933340000004135e+000	 9.803015972628023e+000
0	 2.666734223614256e-001	 6.999999999999999e+000	 9.811488877915528e+000
0	 2.666734223614256e-001	 7.066659999995866e+000	 9.819344409485597e+000
0	 2.666734223614255e-001	 7.133319999991935e+000	 9.826710060169749e+000
0	 2.666734223614256e-001	 7.199979999988401e+000	 9.833713322799516e+000
0	 2.666734223614256e-001	 7.266639999985467e+000	 9.840481690206403e+000
0	 2.666734223614256e-001	 7.333299999983333e+000	 9.847142655221965e+000
0	 3.333434029809068e-001	 6.666700000016665e+000	 9.761760790496206e+000
0	 3.333434029809069e-001	 6.733360000014531e+000	 9.774237186191090e+000
0	 3.333434029809069e-001	 6.800020000011599e+000	 9.785554718821821e+000
0	 3.333434029809070e-001	 6.866680000008065e+000	 9.795832518992077e+000
0	 3.333434029809069e-001	 6.933340000004132e+000	 9.805189717305476e+000
0	 3.333434029809070e-001	 7.000000000000001e+000	 9.813745444365683e+000
0	 3.333434029809069e-001	 7.066659999995866e+000	 9.821618830776332e+000
0	 3.333434029809069e-001	 7.133319999991934e+000	 9.828929007141129e+000
0	 3.333434029809069e-001	 7.199979999988399e+000	 9.835795104063740e+000
0	 3.333434029809069e-001	 7.266639999985466e+000	 9.842336252147872e+000
0	 3.333434029809069e-001	 7.333299999983336e+000	 9.848671581997211e+000
0	 4.000138002678044e-001	 6.666700000016665e+000	 9.763580210202505e+000
0	 4.000138002678042e-001	 6.733360000014530e+000	 9.776204699733487e+000
0	 4.000138002678044e-001	 6.800020000011601e+000	 9.787671515900469e+000
0	 4.000138002678043e-001	 6.866680000008066e+000	 9.798086692913216e+000
0	 4.000138002678043e-001	 6.933340000004133e+000	 9.807556264981566e+000
0	 4.000138002678044e-001	 7.000000000000001e+000	 9.816186266315297e+000
0	 4.000138002678044e-001	 7.066659999995867e+000	 9.824082731124257e+000
0	 4.000138002678044e-001	 7.133319999991936e+000	 9.831351693618281e+000
0	 4.000138002678044e-001	 7.199979999988400e+000	 9.838099188007242e+000
0	 4.000138002678045e-001	 7.266639999985468e+000	 9.844431248500966e+000
0	 4.000138002678045e-001	 7.333299999983335e+000	 9.850453909309362e+000
0	 4.666844975500011e-001	 6.666700000016666e+000	 9.765762557523244e+000
0	 4.666844975500012e-001	 6.733360000014534e+000	 9.778437559809250e+000
0	 4.666844975500012e-001	 6.800020000011600e+000	 9.789988150850283e+000
0	 4.666844975500010e-001	 6.866680000008067e+000	 9.800502534303858e+000
0	 4.666844975500011e-001	 6.933340000004133e+000	 9.810068913827545e+000
0	 4.666844975500011e-001	 6.999999999999999e+000	 9.818775493078910e+000
0	 4.666844975500011e-001	 7.066659999995867e+000	 9.826710475715510e+000
0	 4.666844975500011e-001	 7.133319999991935e+000	 9.833962065394950e+000
0	 4.666844975500012e-001	 7.199979999988400e+000	 9.840618465774819e+000
0	 4.666844975500012e-001	 7.266639999985467e+000	 9.846767880512754e+000
0	 4.666844975500011e-001	 7.333299999983333e+000	 9.852498513266363e+000
0	 5.333553781553803e-001	 6.666700000016667e+000	 9.768211368981580e+000
0	 5.333553781553803e-001	 6.733360000014532e+000	 9.780852694957130e+000
0	 5.333553781553803e-001	 6.800020000011601e+000	 9.792434309200099e+000
0	 5.333553781553803e-001	 6.866680000008066e+000	 9.803021850615204e+000
0	 5.333553781553803e-001	 6.933340000004135e+000	 9.812680958107219e+000
0	 5.333553781553803e-001	 7.000000000000000e+000	 9.821477270580886e+000
0	 5.333553781553803e-001	 7.066659999995868e+000	 9.829476426940996e+000
0	 5.333553781553803e-001	 7.133319999991937e+000	 9.836744066092329e+000
0	 5.333553781553803e-001	 7.199979999988400e+000	 9.843345826939707e+000
0	 5.333553781553804e-001	 7.266639999985468e+000	 9.849347348387942e+000
0	 5.333553781553803e-001	 7.333299999983335e+000	 9.854814269341880e+000
0	 6.000263254118246e-001	 6.666700000016665e+000	 9.770830176893293e+000
0	 6.000263254118248e-001	 6.733360000014534e+000	 9.783367029218629e+000
0	 6.000263254118247e-001	 6.800020000011600e+000	 9.794939671967962e+000
0	 6.000263254118248e-001	 6.866680000008067e+000	 9.805586445000829e+000
0	 6.000263254118249e-001	 6.933340000004134e+000	 9.815345688176787e+000
0	 6.000263254118247e-001	 7.000000000000000e+000	 9.824255741355422e+000
0	 6.000263254118249e-001	 7.066659999995869e+000	 9.832354944396345e+000
0	 6.000263254118248e-001	 7.133319999991934e+000	 9.839681637159137e+000
0	 6.000263254118248e-001	 7.199979999988401e+000	 9.846274159503460e+000
0	 6.000263254118248e-001	 7.266639999985467e+000	 9.852170851288923e+000
0	 6.000263254118248e-001	 7.333299999983334e+000	 9.857410052375201e+000
0	 6.666972226472178e-001	 6.666700000016667e+000	 9.773522509366558e+000
0	 6.666972226472175e-001	 6.733360000014532e+000	 9.785897482137775e+000
0	 6.666972226472177e-001	 6.800020000011597e+000	 9.797433915660918e+000
0	 6.666972226472177e-001	 6.866680000008066e+000	 9.808138116316430e+000
0	 6.666972226472177e-001	 6.933340000004131e+000	 9.818016390484766e+000
0	 6.666972226472175e-001	 6.999999999999999e+000	 9.827075044546399e+000
0	 6.666972226472178e-001	 7.066659999995868e+000	 9.835320384881793e+000
0	 6.666972226472177e-001	 7.133319999991935e+000	 9.842758717871435e+000
0	 6.666972226472177e-001	 7.199979999988400e+000	 9.849396349895878e+000
0	 6.666972226472175e-001	 7.266639999985466e+000	 9.855239587335626e+000
0	 6.666972226472177e-001	 7.333299999983333e+000	 9.860294736571243e+000
0	 0.000000000000000e+000	 7.333299999983335e+000	 9.843383409131617e+000
0	 0.000000000000000e+000	 7.399969999982150e+000	 9.851405908566804e+000
0	 0.000000000000000e+000	 7.466639999981865e+000	 9.859242146477275e+000
0	 0.000000000000000e+000	 7.533309999982385e+000	 9.866852486593771e+000
0	 0.000000000000000e+000	 7.599979999983599e+000	 9.874197292647093e+000
0	 0.000000000000000e+000	 7.666649999985417e+000	 9.881236928368018e+000
0	 0.000000000000000e+000	 7.733319999987733e+000	 9.887931757487309e+000
0	 0.000000000000000e+000	 7.799989999990449e+000	 9.894242143735740e+000
0	 0.000000000000000e+000	 7.866659999993465e+000	 9.900128450844065e+000
0	 0.000000000000000e+000	 7.933329999996683e+000	 9.905551042543035e+000
0	 0.000000000000000e+000	 8.000000000000000e+000	 9.910470282563429e+000
0	 6.666714722864756e-002	 7.333299999983333e+000	 9.843987507524071e+000
0	 6.666714722864756e-002	 7.399969999982149e+000	 9.851709390453861e+000
0	 6.666714722864756e-002	 7.466639999981865e+000	 9.859317565141939e+000
0	 6.666714722864757e-002	 7.533309999982386e+000	 9.866765064812437e+000
0	 6.666714722864754e-002	 7.599979999983599e+000	 9.874004922689418e+000
0	 6.666714722864756e-002	 7.666649999985415e+000	 9.880990171996961e+000
0	 6.666714722864756e-002	 7.733319999987732e+000	 9.887673845959130e+000
0	 6.666714722864756e-002	 7.799989999990451e+000	 9.894008977799992e+000
0	 6.666714722864756e-002	 7.866659999993467e+000	 9.899948600743606e+000
0	 6.666714722864756e-002	 7.933329999996682e+000	 9.905445748014030e+000
0	 6.666714722864756e-002	 8.000000000000002e+000	 9.910453452835306e+000
0	 1.333351778131789e-001	 7.333299999983334e+000	 9.844809495678998e+000
0	 1.333351778131789e-001	 7.399969999982150e+000	 9.852207169259843e+000
0	 1.333351778131789e-001	 7.466639999981865e+000	 9.859559364914814e+000
0	 1.333351778131789e-001	 7.533309999982381e+000	 9.866814208971265e+000
0	 1.333351778131789e-001	 7.599979999983598e+000	 9.873919827756543e+000
0	 1.333351778131790e-001	 7.666649999985415e+000	 9.880824347597946e+000
0	 1.333351778131789e-001	 7.733319999987733e+000	 9.887475894822837e+000
0	 1.333351778131789e-001	 7.799989999990448e+000	 9.893822595758522e+000
0	 1.333351778131790e-001	 7.866659999993467e+000	 9.899812576732332e+000
0	 1.333351778131789e-001	 7.933329999996682e+000	 9.905393964071562e+000
0	 1.333351778131789e-001	 7.999999999999999e+000	 9.910514884103554e+000
0	 2.000039750814772e-001	 7.333299999983335e+000	 9.845858252241387e+000
0	 2.000039750814772e-001	 7.399969999982151e+000	 9.852914667599345e+000
0	 2.000039750814772e-001	 7.466639999981868e+000	 9.859987886196079e+000
0	 2.000039750814773e-001	 7.533309999982383e+000	 9.867023550956427e+000
0	 2.000039750814772e-001	 7.599979999983599e+000	 9.873967304805168e+000
0	 2.000039750814773e-001	 7.666649999985417e+000	 9.880764790667149e+000
0	 2.000039750814772e-001	 7.733319999987731e+000	 9.887361651467174e+000
0	 2.000039750814773e-001	 7.799989999990449e+000	 9.893703530130045e+000
0	 2.000039750814772e-001	 7.866659999993469e+000	 9.899736069580570e+000
0	 2.000039750814773e-001	 7.933329999996684e+000	 9.905404912743530e+000
0	 2.000039750814773e-001	 8.000000000000002e+000	 9.910655702543748e+000
0	 2.666734223614256e-001	 7.333299999983333e+000	 9.847142655221964e+000
0	 2.666734223614255e-001	 7.399969999982150e+000	 9.853847307702264e+000
0	 2.666734223614256e-001	 7.466639999981866e+000	 9.860623469105253e+000
0	 2.666734223614256e-001	 7.533309999982385e+000	 9.867416722357147e+000
0	 2.666734223614256e-001	 7.599979999983598e+000	 9.874172650384216e+000
0	 2.666734223614256e-001	 7.666649999985416e+000	 9.880836836112659e+000
0	 2.666734223614254e-001	 7.733319999987733e+000	 9.887354862468722e+000
0	 2.666734223614254e-001	 7.799989999990450e+000	 9.893672312378630e+000
0	 2.666734223614256e-001	 7.866659999993468e+000	 9.899734768768616e+000
0	 2.666734223614256e-001	 7.933329999996682e+000	 9.905487814564864e+000
0	 2.666734223614255e-001	 8.000000000000002e+000	 9.910877032693632e+000
0	 3.333434029809069e-001	 7.333299999983336e+000	 9.848671581997209e+000
0	 3.333434029809069e-001	 7.399969999982151e+000	 9.855020511413869e+000
0	 3.333434029809069e-001	 7.466639999981866e+000	 9.861486453481161e+000
0	 3.333434029809069e-001	 7.533309999982384e+000	 9.868017354465861e+000
0	 3.333434029809068e-001	 7.599979999983598e+000	 9.874561160634720e+000
0	 3.333434029809069e-001	 7.666649999985418e+000	 9.881065818254511e+000
0	 3.333434029809070e-001	 7.733319999987734e+000	 9.887479273591943e+000
0	 3.333434029809068e-001	 7.799989999990449e+000	 9.893749472913807e+000
0	 3.333434029809069e-001	 7.866659999993466e+000	 9.899824362486818e+000
0	 3.333434029809069e-001	 7.933329999996684e+000	 9.905651888577735e+000
0	 3.333434029809069e-001	 7.999999999999999e+000	 9.911179997453292e+000
0	 4.000138002678045e-001	 7.333299999983335e+000	 9.850453909309360e+000
0	 4.000138002678045e-001	 7.399969999982150e+000	 9.856449700194718e+000
0	 4.000138002678043e-001	 7.466639999981865e+000	 9.862597178881925e+000
0	 4.000138002678043e-001	 7.533309999982381e+000	 9.868849078277997e+000
0	 4.000138002678045e-001	 7.599979999983600e+000	 9.875158131289895e+000
0	 4.000138002678044e-001	 7.666649999985416e+000	 9.881477070824644e+000
0	 4.000138002678044e-001	 7.733319999987733e+000	 9.887758629789188e+000
0	 4.000138002678045e-001	 7.799989999990448e+000	 9.893955541090540e+000
0	 4.000138002678043e-001	 7.866659999993465e+000	 9.900020537635671e+000
0	 4.000138002678044e-001	 7.933329999996683e+000	 9.905906352331558e+000
0	 4.000138002678044e-001	 8.000000000000000e+000	 9.911565718085186e+000
0	 4.666844975500011e-001	 7.333299999983333e+000	 9.852498513266363e+000
0	 4.666844975500010e-001	 7.399969999982147e+000	 9.858150295120691e+000
0	 4.666844975500011e-001	 7.466639999981866e+000	 9.863975984584917e+000
0	 4.666844975500012e-001	 7.533309999982382e+000	 9.869935524492057e+000
0	 4.666844975500011e-001	 7.599979999983599e+000	 9.875988857675067e+000
0	 4.666844975500012e-001	 7.666649999985417e+000	 9.882095926966967e+000
0	 4.666844975500011e-001	 7.733319999987733e+000	 9.888216675200743e+000
0	 4.666844975500011e-001	 7.799989999990450e+000	 9.894311045209383e+000
0	 4.666844975500012e-001	 7.866659999993467e+000	 9.900338979825863e+000
0	 4.666844975500010e-001	 7.933329999996682e+000	 9.906260421883179e+000
0	 4.666844975500011e-001	 8.000000000000000e+000	 9.912035314214316e+000
0	 5.333553781553803e-001	 7.333299999983335e+000	 9.854814269341880e+000
0	 5.333553781553803e-001	 7.399969999982151e+000	 9.860137716882939e+000
0	 5.333553781553801e-001	 7.466639999981864e+000	 9.865643209586736e+000
0	 5.333553781553801e-001	 7.533309999982384e+000	 9.871300323509560e+000
0	 5.333553781553800e-001	 7.599979999983598e+000	 9.877078634707669e+000
0	 5.333553781553803e-001	 7.666649999985416e+000	 9.882947719237333e+000
0	 5.333553781553801e-001	 7.733319999987733e+000	 9.888877153154819e+000
0	 5.333553781553804e-001	 7.799989999990451e+000	 9.894836512516378e+000
0	 5.333553781553801e-001	 7.866659999993466e+000	 9.900795373378305e+000
0	 5.333553781553803e-001	 7.933329999996682e+000	 9.906723311796833e+000
0	 5.333553781553804e-001	 8.000000000000000e+000	 9.912589903828222e+000
0	 6.000263254118248e-001	 7.333299999983334e+000	 9.857410052375201e+000
0	 6.000263254118247e-001	 7.399969999982150e+000	 9.862427385787784e+000
0	 6.000263254118246e-001	 7.466639999981863e+000	 9.867619192603153e+000
0	 6.000263254118246e-001	 7.533309999982382e+000	 9.872967105435041e+000
0	 6.000263254118248e-001	 7.599979999983600e+000	 9.878452756897236e+000
0	 6.000263254118248e-001	 7.666649999985419e+000	 9.884057779603479e+000
0	 6.000263254118248e-001	 7.733319999987734e+000	 9.889763806167521e+000
0	 6.000263254118248e-001	 7.799989999990450e+000	 9.895552469203130e+000
0	 6.000263254118247e-001	 7.866659999993466e+000	 9.901405401324073e+000
0	 6.000263254118247e-001	 7.933329999996684e+000	 9.907304235144080e+000
0	 6.000263254118246e-001	 7.999999999999999e+000	 9.913230603276922e+000
0	 6.666972226472177e-001	 7.333299999983333e+000	 9.860294736571243e+000
0	 6.666972226472178e-001	 7.399969999982152e+000	 9.865034721756768e+000
0	 6.666972226472177e-001	 7.466639999981865e+000	 9.869924272069056e+000
0	 6.666972226472175e-001	 7.533309999982382e+000	 9.874959500075953e+000
0	 6.666972226472175e-001	 7.599979999983599e+000	 9.880136518345319e+000
0	 6.666972226472177e-001	 7.666649999985417e+000	 9.885451439444994e+000
0	 6.666972226472175e-001	 7.733319999987731e+000	 9.890900375942838e+000
0	 6.666972226472177e-001	 7.799989999990449e+000	 9.896479440406701e+000
0	 6.666972226472177e-001	 7.866659999993466e+000	 9.902184745404432e+000
0	 6.666972226472177e-001	 7.933329999996682e+000	 9.908012403503895e+000
0	 6.666972226472177e-001	 8.000000000000000e+000	 9.913958527272941e+000
0	 0.000000000000000e+000	 8.000000000000000e+000	 9.910470282563429e+000
0	 0.000000000000000e+000	 8.066670000003317e+000	 9.915088862798619e+000
0	 0.000000000000000e+000	 8.133340000006534e+000	 9.919645443587896e+000
0	 0.000000000000000e+000	 8.200010000009550e+000	 9.924154341330782e+000
0	 0.000000000000000e+000	 8.266680000012267e+000	 9.928629872426759e+000
0	 0.000000000000000e+000	 8.333350000014583e+000	 9.933086353275366e+000
0	 0.000000000000000e+000	 8.400020000016401e+000	 9.937538100276068e+000
0	 0.000000000000000e+000	 8.466690000017616e+000	 9.941999429828410e+000
0	 0.000000000000000e+000	 8.533360000018133e+000	 9.946484658331857e+000
0	 0.000000000000000e+000	 8.600030000017851e+000	 9.951008102185957e+000
0	 0.000000000000000e+000	 8.666700000016666e+000	 9.955584077790171e+000
0	 6.666714722864756e-002	 8.000000000000002e+000	 9.910453452835306e+000
0	 6.666714722864753e-002	 8.066670000003313e+000	 9.915148209778213e+000
0	 6.666714722864754e-002	 8.133340000006532e+000	 9.919750698805517e+000
0	 6.666714722864756e-002	 8.200010000009552e+000	 9.924280231229345e+000
0	 6.666714722864754e-002	 8.266680000012265e+000	 9.928756118361768e+000
0	 6.666714722864756e-002	 8.333350000014582e+000	 9.933197671514943e+000
0	 6.666714722864754e-002	 8.400020000016403e+000	 9.937624202000912e+000
0	 6.666714722864756e-002	 8.466690000017618e+000	 9.942055021131804e+000
0	 6.666714722864754e-002	 8.533360000018135e+000	 9.946509440219689e+000
0	 6.666714722864757e-002	 8.600030000017849e+000	 9.951006770576701e+000
0	 6.666714722864757e-002	 8.666700000016668e+000	 9.955566323514915e+000
0	 1.333351778131789e-001	 7.999999999999999e+000	 9.910514884103554e+000
0	 1.333351778131789e-001	 8.066670000003317e+000	 9.915317943150068e+000
0	 1.333351778131790e-001	 8.133340000006534e+000	 9.919995695364865e+000
0	 1.333351778131789e-001	 8.200010000009552e+000	 9.924571188823181e+000
0	 1.333351778131789e-001	 8.266680000012270e+000	 9.929067471600279e+000
0	 1.333351778131790e-001	 8.333350000014583e+000	 9.933507591771416e+000
0	 1.333351778131789e-001	 8.400020000016401e+000	 9.937914597411821e+000
0	 1.333351778131789e-001	 8.466690000017618e+000	 9.942311536596765e+000
0	 1.333351778131790e-001	 8.533360000018133e+000	 9.946721457401463e+000
0	 1.333351778131789e-001	 8.600030000017851e+000	 9.951167407901195e+000
0	 1.333351778131789e-001	 8.666700000016666e+000	 9.955672436171188e+000
0	 2.000039750814773e-001	 8.000000000000002e+000	 9.910655702543748e+000
0	 2.000039750814773e-001	 8.066670000003317e+000	 9.915591082203376e+000
0	 2.000039750814772e-001	 8.133340000006530e+000	 9.920366950831614e+000
0	 2.000039750814773e-001	 8.200010000009552e+000	 9.925008835183730e+000
0	 2.000039750814772e-001	 8.266680000012267e+000	 9.929542262015032e+000
0	 2.000039750814772e-001	 8.333350000014583e+000	 9.933992758080768e+000
0	 2.000039750814772e-001	 8.400020000016403e+000	 9.938385850136234e+000
0	 2.000039750814772e-001	 8.466690000017618e+000	 9.942747064936716e+000
0	 2.000039750814772e-001	 8.533360000018135e+000	 9.947101929237485e+000
0	 2.000039750814772e-001	 8.600030000017851e+000	 9.951475969793798e+000
0	 2.000039750814772e-001	 8.666700000016666e+000	 9.955894713360969e+000
0	 2.666734223614255e-001	 8.000000000000002e+000	 9.910877032693632e+000
0	 2.666734223614255e-001	 8.066670000003315e+000	 9.915960644521544e+000
0	 2.666734223614256e-001	 8.133340000006532e+000	 9.920850981067956e+000
0	 2.666734223614255e-001	 8.200010000009550e+000	 9.925574789738205e+000
0	 2.666734223614256e-001	 8.266680000012267e+000	 9.930158817937587e+000
0	 2.666734223614256e-001	 8.333350000014582e+000	 9.934629813071410e+000
0	 2.666734223614255e-001	 8.400020000016399e+000	 9.939014522544998e+000
0	 2.666734223614256e-001	 8.466690000017618e+000	 9.943339693763637e+000
0	 2.666734223614255e-001	 8.533360000018133e+000	 9.947632074132645e+000
0	 2.666734223614256e-001	 8.600030000017849e+000	 9.951918411057317e+000
0	 2.666734223614255e-001	 8.666700000016668e+000	 9.956225451942943e+000
0	 3.333434029809069e-001	 7.999999999999999e+000	 9.911179997453292e+000
0	 3.333434029809069e-001	 8.066670000003319e+000	 9.916419645982339e+000
0	 3.333434029809068e-001	 8.133340000006532e+000	 9.921434300232733e+000
0	 3.333434029809069e-001	 8.200010000009549e+000	 9.926250670269718e+000
0	 3.333434029809069e-001	 8.266680000012267e+000	 9.930895466158534e+000
0	 3.333434029809069e-001	 8.333350000014582e+000	 9.935395397964410e+000
0	 3.333434029809069e-001	 8.400020000016399e+000	 9.939777175752573e+000
0	 3.333434029809068e-001	 8.466690000017618e+000	 9.944067509588248e+000
0	 3.333434029809069e-001	 8.533360000018137e+000	 9.948293109536664e+000
0	 3.333434029809070e-001	 8.600030000017853e+000	 9.952480685663076e+000
0	 3.333434029809069e-001	 8.666700000016665e+000	 9.956656948032675e+000
0	 4.000138002678044e-001	 8.000000000000000e+000	 9.911565718085186e+000
0	 4.000138002678044e-001	 8.066670000003317e+000	 9.916961100758075e+000
0	 4.000138002678044e-001	 8.133340000006534e+000	 9.922103420781593e+000
0	 4.000138002678044e-001	 8.200010000009550e+000	 9.927018092917498e+000
0	 4.000138002678043e-001	 8.266680000012268e+000	 9.931730531927544e+000
0	 4.000138002678044e-001	 8.333350000014585e+000	 9.936266152573484e+000
0	 4.000138002678044e-001	 8.400020000016399e+000	 9.940650369617051e+000
0	 4.000138002678044e-001	 8.466690000017620e+000	 9.944908597820014e+000
0	 4.000138002678044e-001	 8.533360000018133e+000	 9.949066251944094e+000
0	 4.000138002678044e-001	 8.600030000017851e+000	 9.953148746751023e+000
0	 4.000138002678044e-001	 8.666700000016668e+000	 9.957181497002560e+000
0	 4.666844975500011e-001	 8.000000000000000e+000	 9.912035314214316e+000
0	 4.666844975500010e-001	 8.066670000003317e+000	 9.917578021315627e+000
0	 4.666844975500012e-001	 8.133340000006536e+000	 9.922844853467026e+000
0	 4.666844975500012e-001	 8.200010000009552e+000	 9.927858672176850e+000
0	 4.666844975500011e-001	 8.266680000012268e+000	 9.932642338953452e+000
0	 4.666844975500012e-001	 8.333350000014585e+000	 9.937218715305145e+000
0	 4.666844975500011e-001	 8.400020000016399e+000	 9.941610662740294e+000
0	 4.666844975500011e-001	 8.466690000017618e+000	 9.945841042767208e+000
0	 4.666844975500011e-001	 8.533360000018133e+000	 9.949932716894230e+000
0	 4.666844975500012e-001	 8.600030000017851e+000	 9.953908546629675e+000
0	 4.666844975500011e-001	 8.666700000016665e+000	 9.957791393481886e+000
0	 5.333553781553804e-001	 8.000000000000000e+000	 9.912589903828222e+000
0	 5.333553781553803e-001	 8.066670000003319e+000	 9.918263418416535e+000
0	 5.333553781553803e-001	 8.133340000006536e+000	 9.923645107338446e+000
0	 5.333553781553803e-001	 8.200010000009550e+000	 9.928754020899252e+000
0	 5.333553781553801e-001	 8.266680000012268e+000	 9.933609209404235e+000
0	 5.333553781553803e-001	 8.333350000014585e+000	 9.938229723158667e+000
0	 5.333553781553801e-001	 8.400020000016399e+000	 9.942634612467797e+000
0	 5.333553781553804e-001	 8.466690000017620e+000	 9.946842927636915e+000
0	 5.333553781553804e-001	 8.533360000018135e+000	 9.950873718971291e+000
0	 5.333553781553803e-001	 8.600030000017849e+000	 9.954746036776154e+000
0	 5.333553781553803e-001	 8.666700000016666e+000	 9.958478931356797e+000
0	 6.000263254118246e-001	 7.999999999999999e+000	 9.913230603276922e+000
0	 6.000263254118246e-001	 8.066670000003315e+000	 9.919010301116881e+000
0	 6.000263254118248e-001	 8.133340000006534e+000	 9.924490689742141e+000
0	 6.000263254118248e-001	 8.200010000009550e+000	 9.929685750292338e+000
0	 6.000263254118248e-001	 8.266680000012267e+000	 9.934609463907114e+000
0	 6.000263254118248e-001	 8.333350000014583e+000	 9.939275811726057e+000
0	 6.000263254118248e-001	 8.400020000016401e+000	 9.943698774888819e+000
0	 6.000263254118249e-001	 8.466690000017620e+000	 9.947892334535016e+000
0	 6.000263254118248e-001	 8.533360000018135e+000	 9.951870471804245e+000
0	 6.000263254118247e-001	 8.600030000017849e+000	 9.955647167836117e+000
0	 6.000263254118247e-001	 8.666700000016668e+000	 9.959236403770250e+000
0	 6.666972226472177e-001	 8.000000000000000e+000	 9.913958527272941e+000
0	 6.666972226472178e-001	 8.066670000003317e+000	 9.919811676767361e+000
0	 6.666972226472177e-001	 8.133340000006532e+000	 9.925368106321237e+000
0	 6.666972226472175e-001	 8.200010000009550e+000	 9.930635469919821e+000
0	 6.666972226472178e-001	 8.266680000012267e+000	 9.935621421548348e+000
0	 6.666972226472177e-001	 8.333350000014583e+000	 9.940333615192074e+000
0	 6.666972226472177e-001	 8.400020000016401e+000	 9.944779704836241e+000
0	 6.666972226472177e-001	 8.466690000017616e+000	 9.948967344466093e+000
0	 6.666972226472173e-001	 8.533360000018133e+000	 9.952904188066839e+000
0	 6.666972226472178e-001	 8.600030000017851e+000	 9.956597889623748e+000
0	 6.666972226472177e-001	 8.666700000016666e+000	 9.960056103122017e+000
0	 0.000000000000000e+000	 8.666700000016666e+000	 9.955584077790169e+000
0	 0.000000000000000e+000	 8.733360002791903e+000	 9.960045817129867e+000
0	 0.000000000000000e+000	 8.800020022230555e+000	 9.964222920298470e+000
0	 0.000000000000000e+000	 8.866680074997042e+000	 9.968122183333826e+000
0	 0.000000000000000e+000	 8.933340177755779e+000	 9.971750402978321e+000
0	 0.000000000000000e+000	 9.000000347171183e+000	 9.975114376678977e+000
0	 0.000000000000000e+000	 9.066660599907667e+000	 9.978220902587481e+000
0	 0.000000000000000e+000	 9.133320952629655e+000	 9.981076779560024e+000
0	 0.000000000000000e+000	 9.199981422001557e+000	 9.983688807157471e+000
0	 0.000000000000000e+000	 9.266642024687796e+000	 9.986063785645278e+000
0	 0.000000000000000e+000	 9.333302777352781e+000	 9.988208515993401e+000
0	 6.666714722864757e-002	 8.666700000016668e+000	 9.955566323514915e+000
0	 6.666714722864754e-002	 8.733360002791905e+000	 9.960025389755703e+000
0	 6.666714722864758e-002	 8.800020022230559e+000	 9.964211812762066e+000
0	 6.666714722864754e-002	 8.866680074997040e+000	 9.968128664899806e+000
0	 6.666714722864758e-002	 8.933340177755779e+000	 9.971779019246023e+000
0	 6.666714722864756e-002	 9.000000347171183e+000	 9.975165949589165e+000
0	 6.666714722864757e-002	 9.066660599907671e+000	 9.978292530429046e+000
0	 6.666714722864756e-002	 9.133320952629656e+000	 9.981161836976769e+000
0	 6.666714722864754e-002	 9.199981422001560e+000	 9.983776945154698e+000
0	 6.666714722864754e-002	 9.266642024687792e+000	 9.986140931596573e+000
0	 6.666714722864757e-002	 9.333302777352785e+000	 9.988256873647327e+000
0	 1.333351778131789e-001	 8.666700000016666e+000	 9.955672436171188e+000
0	 1.333351778131789e-001	 8.733360002791903e+000	 9.960086030735356e+000
0	 1.333351778131789e-001	 8.800020022230553e+000	 9.964243734256703e+000
0	 1.333351778131790e-001	 8.866680074997039e+000	 9.968145632637622e+000
0	 1.333351778131790e-001	 8.933340177755779e+000	 9.971791812485581e+000
0	 1.333351778131789e-001	 9.000000347171183e+000	 9.975182361113083e+000
0	 1.333351778131789e-001	 9.066660599907666e+000	 9.978317366537700e+000
0	 1.333351778131790e-001	 9.133320952629656e+000	 9.981196917482031e+000
0	 1.333351778131790e-001	 9.199981422001562e+000	 9.983821103373698e+000
0	 1.333351778131789e-001	 9.266642024687798e+000	 9.986190014345345e+000
0	 1.333351778131789e-001	 9.333302777352783e+000	 9.988303741234585e+000
0	 2.000039750814772e-001	 8.666700000016666e+000	 9.955894713360967e+000
0	 2.000039750814772e-001	 8.733360002791903e+000	 9.960226548284076e+000
0	 2.000039750814773e-001	 8.800020022230557e+000	 9.964322737276703e+000
0	 2.000039750814772e-001	 8.866680074997040e+000	 9.968181116940928e+000
0	 2.000039750814773e-001	 8.933340177755779e+000	 9.971799524566487e+000
0	 2.000039750814773e-001	 9.000000347171184e+000	 9.975175798130813e+000
0	 2.000039750814772e-001	 9.066660599907669e+000	 9.978307776299026e+000
0	 2.000039750814772e-001	 9.133320952629655e+000	 9.981193298423948e+000
0	 2.000039750814773e-001	 9.199981422001558e+000	 9.983830204545997e+000
0	 2.000039750814773e-001	 9.266642024687794e+000	 9.986216335393305e+000
0	 2.000039750814772e-001	 9.333302777352783e+000	 9.988349532381609e+000
0	 2.666734223614255e-001	 8.666700000016668e+000	 9.956225451942943e+000
0	 2.666734223614254e-001	 8.733360002791899e+000	 9.960445749916998e+000
0	 2.666734223614256e-001	 8.800020022230552e+000	 9.964452873618471e+000
0	 2.666734223614256e-001	 8.866680074997042e+000	 9.968243147474320e+000
0	 2.666734223614254e-001	 8.933340177755778e+000	 9.971812896572613e+000
0	 2.666734223614256e-001	 9.000000347171181e+000	 9.975158446662592e+000
0	 2.666734223614255e-001	 9.066660599907669e+000	 9.978276124154590e+000
0	 2.666734223614256e-001	 9.133320952629655e+000	 9.981162256120078e+000
0	 2.666734223614255e-001	 9.199981422001558e+000	 9.983813170291638e+000
0	 2.666734223614255e-001	 9.266642024687796e+000	 9.986225195062987e+000
0	 2.666734223614256e-001	 9.333302777352781e+000	 9.988394659488842e+000
0	 3.333434029809069e-001	 8.666700000016665e+000	 9.956656948032672e+000
0	 3.333434029809069e-001	 8.733360002791903e+000	 9.960742442449165e+000
0	 3.333434029809068e-001	 8.800020022230553e+000	 9.964638194380385e+000
0	 3.333434029809069e-001	 8.866680074997040e+000	 9.968339753173339e+000
0	 3.333434029809069e-001	 8.933340177755776e+000	 9.971842668802301e+000
0	 3.333434029809069e-001	 9.000000347171179e+000	 9.975142491868857e+000
0	 3.333434029809069e-001	 9.066660599907667e+000	 9.978234773601882e+000
0	 3.333434029809069e-001	 9.133320952629655e+000	 9.981115065857521e+000
0	 3.333434029809070e-001	 9.199981422001560e+000	 9.983778921119212e+000
0	 3.333434029809070e-001	 9.266642024687798e+000	 9.986221892497651e+000
0	 3.333434029809070e-001	 9.333302777352783e+000	 9.988439533730775e+000
0	 4.000138002678044e-001	 8.666700000016668e+000	 9.957181497002560e+000
0	 4.000138002678044e-001	 8.733360002791903e+000	 9.961115431995587e+000
0	 4.000138002678044e-001	 8.800020022230557e+000	 9.964882749962975e+000
0	 4.000138002678045e-001	 8.866680074997040e+000	 9.968478962244596e+000
0	 4.000138002678044e-001	 8.933340177755779e+000	 9.971899580768357e+000
0	 4.000138002678045e-001	 9.000000347171184e+000	 9.975140118050284e+000
0	 4.000138002678045e-001	 9.066660599907666e+000	 9.978196087194444e+000
0	 4.000138002678044e-001	 9.133320952629656e+000	 9.981063001892919e+000
0	 4.000138002678044e-001	 9.199981422001560e+000	 9.983736376425888e+000
0	 4.000138002678044e-001	 9.266642024687798e+000	 9.986211725661532e+000
0	 4.000138002678044e-001	 9.333302777352781e+000	 9.988484565056098e+000
0	 4.666844975500011e-001	 8.666700000016665e+000	 9.957791393481886e+000
0	 4.666844975500012e-001	 8.733360002791903e+000	 9.961563523971202e+000
0	 4.666844975500012e-001	 8.800020022230561e+000	 9.965190590068811e+000
0	 4.666844975500012e-001	 8.866680074997040e+000	 9.968668802165686e+000
0	 4.666844975500011e-001	 8.933340177755778e+000	 9.971994371198161e+000
0	 4.666844975500011e-001	 9.000000347171181e+000	 9.975163508647892e+000
0	 4.666844975500010e-001	 9.066660599907666e+000	 9.978172426541910e+000
0	 4.666844975500012e-001	 9.133320952629656e+000	 9.981017337452551e+000
0	 4.666844975500011e-001	 9.199981422001558e+000	 9.983694454497512e+000
0	 4.666844975500012e-001	 9.266642024687798e+000	 9.986199991339802e+000
0	 4.666844975500012e-001	 9.333302777352783e+000	 9.988530162187711e+000
0	 5.333553781553803e-001	 8.666700000016666e+000	 9.958478931356799e+000
0	 5.333553781553801e-001	 8.733360002791901e+000	 9.962085523090879e+000
0	 5.333553781553801e-001	 8.800020022230555e+000	 9.965565763702541e+000
0	 5.333553781553801e-001	 8.866680074997039e+000	 9.968917299685261e+000
0	 5.333553781553801e-001	 8.933340177755778e+000	 9.972137778033540e+000
0	 5.333553781553800e-001	 9.000000347171181e+000	 9.975224846242897e+000
0	 5.333553781553803e-001	 9.066660599907667e+000	 9.978176152309954e+000
0	 5.333553781553803e-001	 9.133320952629656e+000	 9.980989344732326e+000
0	 5.333553781553803e-001	 9.199981422001560e+000	 9.983662072508629e+000
0	 5.333553781553804e-001	 9.266642024687796e+000	 9.986191985138563e+000
0	 5.333553781553800e-001	 9.333302777352779e+000	 9.988576732622768e+000
0	 6.000263254118247e-001	 8.666700000016668e+000	 9.959236403770250e+000
0	 6.000263254118248e-001	 8.733360002791901e+000	 9.962680233369392e+000
0	 6.000263254118248e-001	 8.800020022230557e+000	 9.966012319170888e+000
0	 6.000263254118247e-001	 8.866680074997042e+000	 9.969232480822940e+000
0	 6.000263254118247e-001	 8.933340177755779e+000	 9.972340538430814e+000
0	 6.000263254118249e-001	 9.000000347171184e+000	 9.975336312556813e+000
0	 6.000263254118247e-001	 9.066660599907667e+000	 9.978219624220316e+000
0	 6.000263254118247e-001	 9.133320952629656e+000	 9.980990294897712e+000
0	 6.000263254118248e-001	 9.199981422001558e+000	 9.983648146522425e+000
0	 6.000263254118248e-001	 9.266642024687798e+000	 9.986193001484899e+000
0	 6.000263254118248e-001	 9.333302777352785e+000	 9.988624682632617e+000
0	 6.666972226472177e-001	 8.666700000016666e+000	 9.960056103122019e+000
0	 6.666972226472175e-001	 8.733360002791901e+000	 9.963346458121405e+000
0	 6.666972226472177e-001	 8.800020022230555e+000	 9.966534304082549e+000
0	 6.666972226472177e-001	 8.866680074997042e+000	 9.969622370869299e+000
0	 6.666972226472178e-001	 8.933340177755779e+000	 9.972613388760770e+000
0	 6.666972226472177e-001	 9.000000347171181e+000	 9.975510088451355e+000
0	 6.666972226472178e-001	 9.066660599907667e+000	 9.978315201050735e+000
0	 6.666972226472175e-001	 9.133320952629656e+000	 9.981031458083772e+000
0	 6.666972226472179e-001	 9.199981422001560e+000	 9.983661591490664e+000
0	 6.666972226472177e-001	 9.266642024687796e+000	 9.986208333626800e+000
0	 6.666972226472177e-001	 9.333302777352785e+000	 9.988674417262788e+000
0	 0.000000000000000e+000	 9.333302777352781e+000	 9.988208515993403e+000
0	 0.000000000000000e+000	 9.399973674588175e+000	 9.990154929408460e+000
0	 0.000000000000000e+000	 9.466644621844621e+000	 9.991932314092873e+000
0	 0.000000000000000e+000	 9.533315502450000e+000	 9.993544418172229e+000
0	 0.000000000000000e+000	 9.599986199732198e+000	 9.994994985370759e+000
0	 0.000000000000000e+000	 9.666656597019093e+000	 9.996287755010542e+000
0	 0.000000000000000e+000	 9.733326577638575e+000	 9.997426462011335e+000
0	 0.000000000000000e+000	 9.799996024918523e+000	 9.998414836889650e+000
0	 0.000000000000000e+000	 9.866664822186824e+000	 9.999256605757850e+000
0	 0.000000000000000e+000	 9.933332852771354e+000	 9.999955490323453e+000
0	 0.000000000000000e+000	 1.000000000000000e+001	 1.000051520788812e+001
0	 6.666714722864757e-002	 9.333302777352785e+000	 9.988256873647329e+000
0	 6.666714722864754e-002	 9.399973674588171e+000	 9.990163770705644e+000
0	 6.666714722864756e-002	 9.466644621844621e+000	 9.991903633418572e+000
0	 6.666714722864756e-002	 9.533315502450000e+000	 9.993484950264078e+000
0	 6.666714722864756e-002	 9.599986199732193e+000	 9.994916205468829e+000
0	 6.666714722864758e-002	 9.666656597019101e+000	 9.996205879007825e+000
0	 6.666714722864757e-002	 9.733326577638577e+000	 9.997362446603733e+000
0	 6.666714722864757e-002	 9.799996024918523e+000	 9.998394379726177e+000
0	 6.666714722864756e-002	 9.866664822186820e+000	 9.999310145591116e+000
0	 6.666714722864757e-002	 9.933332852771352e+000	 1.000011820715967e+001
0	 6.666714722864756e-002	 1.000000000000000e+001	 1.000082702313735e+001
0	 1.333351778131789e-001	 9.333302777352783e+000	 9.988303741234585e+000
0	 1.333351778131789e-001	 9.399973674588175e+000	 9.990200010246726e+000
0	 1.333351778131789e-001	 9.466644621844619e+000	 9.991924171725625e+000
0	 1.333351778131790e-001	 9.533315502450002e+000	 9.993488643962969e+000
0	 1.333351778131789e-001	 9.599986199732193e+000	 9.994905841054889e+000
0	 1.333351778131790e-001	 9.666656597019093e+000	 9.996188172901590e+000
0	 1.333351778131789e-001	 9.733326577638577e+000	 9.997348045206740e+000
0	 1.333351778131789e-001	 9.799996024918523e+000	 9.998397859476855e+000
0	 1.333351778131789e-001	 9.866664822186818e+000	 9.999350013020443e+000
0	 1.333351778131789e-001	 9.933332852771352e+000	 1.000021689894701e+001
0	 1.333351778131789e-001	 9.999999999999998e+000	 1.000101090616641e+001
0	 2.000039750814772e-001	 9.333302777352783e+000	 9.988349532381607e+000
0	 2.000039750814772e-001	 9.399973674588173e+000	 9.990259255472077e+000
0	 2.000039750814773e-001	 9.466644621844623e+000	 9.991986161984407e+000
0	 2.000039750814772e-001	 9.533315502449998e+000	 9.993545789518802e+000
0	 2.000039750814773e-001	 9.599986199732200e+000	 9.994953671456358e+000
0	 2.000039750814773e-001	 9.666656597019092e+000	 9.996225336958636e+000
0	 2.000039750814772e-001	 9.733326577638573e+000	 9.997376310966992e+000
0	 2.000039750814772e-001	 9.799996024918523e+000	 9.998422114202077e+000
0	 2.000039750814772e-001	 9.866664822186822e+000	 9.999378263162871e+000
0	 2.000039750814772e-001	 9.933332852771354e+000	 1.000026027012584e+001
0	 2.000039750814772e-001	 1.000000000000000e+001	 1.000108364314395e+001
0	 2.666734223614256e-001	 9.333302777352781e+000	 9.988394659488840e+000
0	 2.666734223614256e-001	 9.399973674588173e+000	 9.990337112575407e+000
0	 2.666734223614256e-001	 9.466644621844623e+000	 9.992081835918045e+000
0	 2.666734223614256e-001	 9.533315502450003e+000	 9.993646675945437e+000
0	 2.666734223614256e-001	 9.599986199732198e+000	 9.995049474779163e+000
0	 2.666734223614255e-001	 9.666656597019093e+000	 9.996308070233335e+000
0	 2.666734223614254e-001	 9.733326577638573e+000	 9.997440295813888e+000
0	 2.666734223614256e-001	 9.799996024918526e+000	 9.998463980717947e+000
0	 2.666734223614256e-001	 9.866664822186824e+000	 9.999396949833146e+000
0	 2.666734223614256e-001	 9.933332852771352e+000	 1.000025702373662e+001
0	 2.666734223614256e-001	 1.000000000000000e+001	 1.000106201869389e+001
0	 3.333434029809070e-001	 9.333302777352783e+000	 9.988439533730771e+000
0	 3.333434029809068e-001	 9.399973674588173e+000	 9.990429186503718e+000
0	 3.333434029809068e-001	 9.466644621844619e+000	 9.992203424002538e+000
0	 3.333434029809069e-001	 9.533315502450002e+000	 9.993781591020788e+000
0	 3.333434029809069e-001	 9.599986199732195e+000	 9.995183027907673e+000
0	 3.333434029809069e-001	 9.666656597019092e+000	 9.996427070567595e+000
0	 3.333434029809069e-001	 9.733326577638573e+000	 9.997533050459506e+000
0	 3.333434029809068e-001	 9.799996024918523e+000	 9.998520294596290e+000
0	 3.333434029809068e-001	 9.866664822186822e+000	 9.999408125543912e+000
0	 3.333434029809069e-001	 9.933332852771354e+000	 1.000021586142051e+001
0	 3.333434029809069e-001	 1.000000000000000e+001	 1.000096281589545e+001
0	 4.000138002678044e-001	 9.333302777352781e+000	 9.988484565056096e+000
0	 4.000138002678045e-001	 9.399973674588177e+000	 9.990531080957545e+000
0	 4.000138002678044e-001	 9.466644621844621e+000	 9.992343155466834e+000
0	 4.000138002678043e-001	 9.533315502449998e+000	 9.993940821286927e+000
0	 4.000138002678044e-001	 9.599986199732197e+000	 9.995344106504797e+000
0	 4.000138002678044e-001	 9.666656597019092e+000	 9.996573034590943e+000
0	 4.000138002678043e-001	 9.733326577638575e+000	 9.997647624398974e+000
0	 4.000138002678044e-001	 9.799996024918523e+000	 9.998587890164734e+000
0	 4.000138002678044e-001	 9.866664822186820e+000	 9.999413841505511e+000
0	 4.000138002678045e-001	 9.933332852771352e+000	 1.000014548341926e+001
0	 4.000138002678044e-001	 1.000000000000000e+001	 1.000080281628343e+001
0	 4.666844975500012e-001	 9.333302777352783e+000	 9.988530162187709e+000
0	 4.666844975500012e-001	 9.399973674588175e+000	 9.990638398390811e+000
0	 4.666844975500012e-001	 9.466644621844619e+000	 9.992493258292903e+000
0	 4.666844975500011e-001	 9.533315502450000e+000	 9.994114652050147e+000
0	 4.666844975500011e-001	 9.599986199732197e+000	 9.995522485011994e+000
0	 4.666844975500011e-001	 9.666656597019092e+000	 9.996736657720611e+000
0	 4.666844975500012e-001	 9.733326577638575e+000	 9.997777065910288e+000
0	 4.666844975500012e-001	 9.799996024918524e+000	 9.998663600506745e+000
0	 4.666844975500010e-001	 9.866664822186822e+000	 9.999416147626425e+000
0	 4.666844975500012e-001	 9.933332852771352e+000	 1.000005458857522e+001
0	 4.666844975500011e-001	 1.000000000000000e+001	 1.000059879984794e+001
0	 5.333553781553800e-001	 9.333302777352779e+000	 9.988576732622764e+000
0	 5.333553781553801e-001	 9.399973674588175e+000	 9.990746740011058e+000
0	 5.333553781553803e-001	 9.466644621844619e+000	 9.992645959215640e+000
0	 5.333553781553803e-001	 9.533315502450002e+000	 9.994293367380895e+000
0	 5.333553781553804e-001	 9.599986199732197e+000	 9.995707936649444e+000
0	 5.333553781553804e-001	 9.666656597019095e+000	 9.996908634161493e+000
0	 5.333553781553801e-001	 9.733326577638575e+000	 9.997914422054372e+000
0	 5.333553781553801e-001	 9.799996024918524e+000	 9.998744257461759e+000
0	 5.333553781553801e-001	 9.866664822186822e+000	 9.999417092512818e+000
0	 5.333553781553803e-001	 9.933332852771356e+000	 9.999951874331355e+000
0	 5.333553781553803e-001	 1.000000000000000e+001	 1.000036754503459e+001
0	 6.000263254118248e-001	 9.333302777352785e+000	 9.988624682632620e+000
0	 6.000263254118247e-001	 9.399973674588178e+000	 9.990851705779299e+000
0	 6.000263254118248e-001	 9.466644621844621e+000	 9.992793483723016e+000
0	 6.000263254118246e-001	 9.533315502450002e+000	 9.994467250113852e+000
0	 6.000263254118248e-001	 9.599986199732195e+000	 9.995890233415786e+000
0	 6.000263254118249e-001	 9.666656597019095e+000	 9.997079656906132e+000
0	 6.000263254118247e-001	 9.733326577638575e+000	 9.998052738675055e+000
0	 6.000263254118246e-001	 9.799996024918523e+000	 9.998826691624858e+000
0	 6.000263254118247e-001	 9.866664822186820e+000	 9.999418723469022e+000
0	 6.000263254118247e-001	 9.933332852771351e+000	 9.999846036731348e+000
0	 6.000263254118248e-001	 1.000000000000000e+001	 1.000012582874463e+001
0	 6.666972226472177e-001	 9.333302777352785e+000	 9.988674417262786e+000
0	 6.666972226472175e-001	 9.399973674588177e+000	 9.990948894409909e+000
0	 6.666972226472177e-001	 9.466644621844619e+000	 9.992928056055888e+000
0	 6.666972226472178e-001	 9.533315502450000e+000	 9.994626581847832e+000
0	 6.666972226472177e-001	 9.599986199732195e+000	 9.996059146088218e+000
0	 6.666972226472175e-001	 9.666656597019095e+000	 9.997240417734631e+000
0	 6.666972226472178e-001	 9.733326577638577e+000	 9.998185060399015e+000
0	 6.666972226472177e-001	 9.799996024918521e+000	 9.998907732347016e+000
0	 6.666972226472177e-001	 9.866664822186822e+000	 9.999423086497025e+000
0	 6.666972226472177e-001	 9.933332852771352e+000	 9.999745770419246e+000
0	 6.666972226472175e-001	 1.000000000000000e+001	 9.999890426334574e+000
0	 6.666972226472175e-001	 0.000000000000000e+000	 7.307952831463142e+000
0	 6.666972226472178e-001	 6.666714722864757e-002	 3.683342473918201e+000
0	 6.666972226472178e-001	 1.333351778131789e-001	 8.250424329427945e-001
0	 6.666972226472178e-001	 2.000039750814772e-001	-1.230537493639402e+000
0	 6.666972226472178e-001	 2.666734223614256e-001	-2.446977086271637e+000
0	 6.666972226472177e-001	 3.333434029809069e-001	-2.787845704961741e+000
0	 6.666972226472179e-001	 4.000138002678045e-001	-2.216702290306198e+000
0	 6.666972226472175e-001	 4.666844975500010e-001	-6.970953642406239e-001
0	 6.666972226472177e-001	 5.333553781553801e-001	 1.807436969483210e+000
0	 6.666972226472178e-001	 6.000263254118248e-001	 5.333367025093901e+000
0	 6.666972226472177e-001	 6.666972226472177e-001	 9.917177534870367e+000
0	 7.333579753122049e-001	 0.000000000000000e+000	 6.767010564274399e+000
0	 7.333579753122049e-001	 6.666714722864756e-002	 3.329443202273426e+000
0	 7.333579753122048e-001	 1.333351778131790e-001	 6.455630051254623e-001
0	 7.333579753122048e-001	 2.000039750814772e-001	-1.245221614721141e+000
0	 7.333579753122046e-001	 2.666734223614255e-001	-2.303491806547796e+000
0	 7.333579753122047e-001	 3.333434029809069e-001	-2.489818282646114e+000
0	 7.333579753122048e-001	 4.000138002678045e-001	-1.764761319324312e+000
0	 7.333579753122048e-001	 4.666844975500012e-001	-8.887075763962175e-002
0	 7.333579753122046e-001	 5.333553781553801e-001	 2.577313996143244e+000
0	 7.333579753122050e-001	 6.000263254118248e-001	 6.273263970367555e+000
0	 7.333579753122046e-001	 6.666972226472175e-001	 1.103846062807392e+001
0	 8.000185779984418e-001	 0.000000000000000e+000	 5.664389440936082e+000
0	 8.000185779984416e-001	 6.666714722864754e-002	 2.715325416902113e+000
0	 8.000185779984417e-001	 1.333351778131790e-001	 4.552573374328264e-001
0	 8.000185779984420e-001	 2.000039750814773e-001	-1.075031408422167e+000
0	 8.000185779984416e-001	 2.666734223614255e-001	-1.834747623089518e+000
0	 8.000185779984417e-001	 3.333434029809069e-001	-1.783088301649503e+000
0	 8.000185779984419e-001	 4.000138002678044e-001	-8.792406327558969e-001
0	 8.000185779984418e-001	 4.666844975500011e-001	 9.176180007016404e-001
0	 8.000185779984419e-001	 5.333553781553804e-001	 3.648320021192562e+000
0	 8.000185779984420e-001	 6.000263254118249e-001	 7.353707656397874e+000
0	 8.000185779984416e-001	 6.666972226472175e-001	 1.207463293931991e+001
0	 8.666790473703455e-001	 0.000000000000000e+000	 4.125657887321693e+000
0	 8.666790473703454e-001	 6.666714722864754e-002	 1.899297457234631e+000
0	 8.666790473703455e-001	 1.333351778131789e-001	 2.571162689816993e-001
0	 8.666790473703456e-001	 2.000039750814772e-001	-7.603516949905911e-001
0	 8.666790473703454e-001	 2.666734223614256e-001	-1.112563794319528e+000
0	 8.666790473703452e-001	 3.333434029809069e-001	-7.589687317319618e-001
0	 8.666790473703454e-001	 4.000138002678044e-001	 3.409934461772481e-001
0	 8.666790473703455e-001	 4.666844975500011e-001	 2.227891348394034e+000
0	 8.666790473703454e-001	 5.333553781553801e-001	 4.942302239161124e+000
0	 8.666790473703453e-001	 6.000263254118247e-001	 8.524812037881320e+000
0	 8.666790473703452e-001	 6.666972226472177e-001	 1.301601531924785e+001
0	 9.333394000923323e-001	 0.000000000000000e+000	 2.276384460568821e+000
0	 9.333394000923324e-001	 6.666714722864756e-002	 9.396678070799593e-001
0	 9.333394000923321e-001	 1.333351778131789e-001	 5.413078217716256e-002
0	 9.333394000923321e-001	 2.000039750814772e-001	-3.415671642408087e-001
0	 9.333394000923324e-001	 2.666734223614256e-001	-2.087594704049428e-001
0	 9.333394000923324e-001	 3.333434029809070e-001	 4.912275365411025e-001
0	 9.333394000923322e-001	 4.000138002678044e-001	 1.797074639944790e+000
0	 9.333394000923321e-001	 4.666844975500011e-001	 3.747469733235196e+000
0	 9.333394000923324e-001	 5.333553781553803e-001	 6.381107819700109e+000
0	 9.333394000923323e-001	 6.000263254118248e-001	 9.736691012449814e+000
0	 9.333394000923322e-001	 6.666972226472175e-001	 1.385292853456747e+001
0	 9.999996528288190e-001	 0.000000000000000e+000	 2.421378490811471e-001
0	 9.999996528288194e-001	 6.666714722864756e-002	-1.052549053720885e-001
0	 9.999996528288192e-001	 1.333351778131789e-001	-1.507079972852989e-001
0	 9.999996528288191e-001	 2.000039750814772e-001	 1.409376244483352e-001
0	 9.999996528288191e-001	 2.666734223614255e-001	 8.048463067441224e-001
0	 9.999996528288190e-001	 3.333434029809069e-001	 1.876187691799719e+000
0	 9.999996528288192e-001	 4.000138002678044e-001	 3.390136716708015e+000
0	 9.999996528288191e-001	 4.666844975500012e-001	 5.381873613209009e+000
0	 9.999996528288192e-001	 5.333553781553803e-001	 7.886583907580710e+000
0	 9.999996528288190e-001	 6.000263254118247e-001	 1.093945842066898e+001
0	 9.999996528288192e-001	 6.666972226472177e-001	 1.457569326805642e+001
0	 1.066659822244222e+000	 0.000000000000000e+000	-1.851513127469998e+000
0	 1.066659822244222e+000	 6.666714722864757e-002	-1.177161907549214e+000
0	 1.066659822244223e+000	 1.333351778131789e-001	-3.544088004182013e-001
0	 1.066659822244223e+000	 2.000039750814772e-001	 6.467782421349025e-001
0	 1.066659822244222e+000	 2.666734223614254e-001	 1.856434603475529e+000
0	 1.066659822244222e+000	 3.333434029809069e-001	 3.304599001869899e+000
0	 1.066659822244223e+000	 4.000138002678044e-001	 5.021313490319832e+000
0	 1.066659822244223e+000	 4.666844975500011e-001	 7.036623456485043e+000
0	 1.066659822244222e+000	 5.333553781553801e-001	 9.380577622693046e+000
0	 1.066659822244223e+000	 6.000263254118248e-001	 1.208322804603652e+001
0	 1.066659822244223e+000	 6.666972226472177e-001	 1.517463011855828e+001
0	 1.133319925002959e+000	 0.000000000000000e+000	-3.878999518144616e+000
0	 1.133319925002959e+000	 6.666714722864757e-002	-2.217744282495502e+000
0	 1.133319925002959e+000	 1.333351778131790e-001	-5.539802149410071e-001
0	 1.133319925002959e+000	 2.000039750814772e-001	 1.135570390314742e+000
0	 1.133319925002959e+000	 2.666734223614256e-001	 2.874186594395703e+000
0	 1.133319925002959e+000	 3.333434029809069e-001	 4.685148813773831e+000
0	 1.133319925002959e+000	 4.000138002678045e-001	 6.591738820324584e+000
0	 1.133319925002959e+000	 4.666844975500011e-001	 8.617239741417961e+000
0	 1.133319925002959e+000	 5.333553781553804e-001	 1.078493606004517e+001
0	 1.133319925002959e+000	 6.000263254118248e-001	 1.311811361498087e+001
0	 1.133319925002959e+000	 6.666972226472178e-001	 1.564005960098091e+001
0	 1.199979977769445e+000	 0.000000000000000e+000	-5.714752240733485e+000
0	 1.199979977769445e+000	 6.666714722864757e-002	-3.168692968870847e+000
0	 1.199979977769445e+000	 1.333351778131789e-001	-7.464306852796063e-001
0	 1.199979977769445e+000	 2.000039750814772e-001	 1.566929900921848e+000
0	 1.199979977769445e+000	 2.666734223614256e-001	 3.786283562369807e+000
0	 1.199979977769445e+000	 3.333434029809070e-001	 5.926524553729825e+000
0	 1.199979977769445e+000	 4.000138002678043e-001	 8.002546611957705e+000
0	 1.199979977769445e+000	 4.666844975500011e-001	 1.002924295654687e+001
0	 1.199979977769445e+000	 5.333553781553801e-001	 1.202150628976215e+001
0	 1.199979977769445e+000	 6.000263254118248e-001	 1.399422879685999e+001
0	 1.199979977769445e+000	 6.666972226472177e-001	 1.596230214629505e+001
0	 1.266639997208098e+000	 0.000000000000000e+000	-7.233202081758090e+000
0	 1.266639997208098e+000	 6.666714722864756e-002	-3.971698760950890e+000
0	 1.266639997208098e+000	 1.333351778131789e-001	-9.287685125663309e-001
0	 1.266639997208098e+000	 2.000039750814773e-001	 1.900472736328257e+000
0	 1.266639997208098e+000	 2.666734223614256e-001	 4.520906898521495e+000
0	 1.266639997208098e+000	 3.333434029809069e-001	 6.937413727151914e+000
0	 1.266639997208098e+000	 4.000138002678044e-001	 9.154870816145190e+000
0	 1.266639997208098e+000	 4.666844975500012e-001	 1.117815360059467e+001
0	 1.266639997208098e+000	 5.333553781553803e-001	 1.301213535708524e+001
0	 1.266639997208098e+000	 6.000263254118247e-001	 1.466168720396050e+001
0	 1.266639997208098e+000	 6.666972226472177e-001	 1.613167810153330e+001
0	 1.333299999983334e+000	 0.000000000000000e+000	-8.308779696471088e+000
0	 1.333299999983334e+000	 6.666714722864758e-002	-4.568452308627551e+000
0	 1.333299999983334e+000	 1.333351778131789e-001	-1.098001854640514e+000
0	 1.333299999983334e+000	 2.000039750814772e-001	 2.095814989343452e+000
0	 1.333299999983334e+000	 2.666734223614255e-001	 5.006238102232299e+000
0	 1.333299999983334e+000	 3.333434029809069e-001	 7.626503918649223e+000
0	 1.333299999983334e+000	 4.000138002678044e-001	 9.949845429502908e+000
0	 1.333299999983334e+000	 4.666844975500012e-001	 1.196949218246733e+001
0	 1.333299999983334e+000	 5.333553781553803e-001	 1.367867028237117e+001
0	 1.333299999983334e+000	 6.000263254118247e-001	 1.507060239149690e+001
0	 1.333299999983334e+000	 6.666972226472174e-001	 1.613850772978941e+001
0	 6.666972226472177e-001	 6.666972226472177e-001	 9.917177534870367e+000
0	 6.666972226472175e-001	 7.333579753122045e-001	 1.474860949985849e+001
0	 6.666972226472177e-001	 8.000185779984415e-001	 1.898560002314936e+001
0	 6.666972226472177e-001	 8.666790473703451e-001	 2.261462847599476e+001
0	 6.666972226472177e-001	 9.333394000923322e-001	 2.562217525406608e+001
0	 6.666972226472177e-001	 9.999996528288189e-001	 2.799472177748048e+001
0	 6.666972226472174e-001	 1.066659822244222e+000	 2.971875049082313e+001
0	 6.666972226472178e-001	 1.133319925002959e+000	 3.078074486316551e+001
0	 6.666972226472177e-001	 1.199979977769445e+000	 3.116718938808003e+001
0	 6.666972226472175e-001	 1.266639997208098e+000	 3.086456958365073e+001
0	 6.666972226472175e-001	 1.333299999983334e+000	 2.985937199248007e+001
0	 7.333579753122046e-001	 6.666972226472175e-001	 1.103846062807392e+001
0	 7.333579753122049e-001	 7.333579753122049e-001	 1.601783919031720e+001
0	 7.333579753122049e-001	 8.000185779984419e-001	 2.032181291286547e+001
0	 7.333579753122049e-001	 8.666790473703454e-001	 2.393569828661992e+001
0	 7.333579753122048e-001	 9.333394000923321e-001	 2.684481296575282e+001
0	 7.333579753122048e-001	 9.999996528288190e-001	 2.903447576773633e+001
0	 7.333579753122049e-001	 1.066659822244222e+000	 3.049000667336672e+001
0	 7.333579753122050e-001	 1.133319925002959e+000	 3.119672682678428e+001
0	 7.333579753122048e-001	 1.199979977769445e+000	 3.113995853548898e+001
0	 7.333579753122049e-001	 1.266639997208098e+000	 3.030502527035151e+001
0	 7.333579753122049e-001	 1.333299999983334e+000	 2.867725166562023e+001
0	 8.000185779984416e-001	 6.666972226472175e-001	 1.207463293931991e+001
0	 8.000185779984418e-001	 7.333579753122048e-001	 1.696695838018229e+001
0	 8.000185779984416e-001	 8.000185779984416e-001	 2.115068809854058e+001
0	 8.000185779984419e-001	 8.666790473703455e-001	 2.461053588991340e+001
0	 8.000185779984418e-001	 9.333394000923323e-001	 2.733121677336971e+001
0	 8.000185779984416e-001	 9.999996528288186e-001	 2.929744699155828e+001
0	 8.000185779984420e-001	 1.066659822244222e+000	 3.049394401073254e+001
0	 8.000185779984418e-001	 1.133319925002959e+000	 3.090542652077104e+001
0	 8.000185779984420e-001	 1.199979977769445e+000	 3.051661443519291e+001
0	 8.000185779984419e-001	 1.266639997208098e+000	 2.931222889116929e+001
0	 8.000185779984420e-001	 1.333299999983334e+000	 2.727699224952959e+001
0	 8.666790473703452e-001	 6.666972226472177e-001	 1.301601531924785e+001
0	 8.666790473703455e-001	 7.333579753122048e-001	 1.762848454814021e+001
0	 8.666790473703453e-001	 8.000185779984416e-001	 2.153899266254378e+001
0	 8.666790473703455e-001	 8.666790473703453e-001	 2.473221087523695e+001
0	 8.666790473703456e-001	 9.333394000923325e-001	 2.719281161617468e+001
0	 8.666790473703456e-001	 9.999996528288190e-001	 2.890546853251745e+001
0	 8.666790473703455e-001	 1.066659822244222e+000	 2.985485648865529e+001
0	 8.666790473703455e-001	 1.133319925002959e+000	 3.002565156622792e+001
0	 8.666790473703454e-001	 1.199979977769445e+000	 2.940253106413952e+001
0	 8.666790473703454e-001	 1.266639997208098e+000	 2.797017349856955e+001
0	 8.666790473703456e-001	 1.333299999983334e+000	 2.571325860297873e+001
0	 9.333394000923322e-001	 6.666972226472175e-001	 1.385292853456747e+001
0	 9.333394000923324e-001	 7.333579753122048e-001	 1.803493506929910e+001
0	 9.333394000923323e-001	 8.000185779984417e-001	 2.155349357093688e+001
0	 9.333394000923325e-001	 8.666790473703453e-001	 2.439379270899578e+001
0	 9.333394000923324e-001	 9.333394000923323e-001	 2.654102230906026e+001
0	 9.333394000923322e-001	 9.999996528288189e-001	 2.798037335281133e+001
0	 9.333394000923323e-001	 1.066659822244223e+000	 2.869703797804926e+001
0	 9.333394000923323e-001	 1.133319925002959e+000	 2.867620947871189e+001
0	 9.333394000923324e-001	 1.199979977769445e+000	 2.790308230488869e+001
0	 9.333394000923325e-001	 1.266639997208098e+000	 2.636285206283043e+001
0	 9.333394000923323e-001	 1.333299999983334e+000	 2.404071551495450e+001
0	 9.999996528288192e-001	 6.666972226472177e-001	 1.457569326805642e+001
0	 9.999996528288195e-001	 7.333579753122050e-001	 1.821882721518628e+001
0	 9.999996528288193e-001	 8.000185779984418e-001	 2.126095767347147e+001
0	 9.999996528288192e-001	 8.666790473703453e-001	 2.368835073463546e+001
0	 9.999996528288192e-001	 9.333394000923323e-001	 2.548727354255032e+001
0	 9.999996528288191e-001	 9.999996528288190e-001	 2.664399429326097e+001
0	 9.999996528288193e-001	 1.066659822244222e+000	 2.714478223500560e+001
0	 9.999996528288192e-001	 1.133319925002959e+000	 2.697590766823208e+001
0	 9.999996528288191e-001	 1.199979977769445e+000	 2.612364194561022e+001
0	 9.999996528288194e-001	 1.266639997208098e+000	 2.457425747204043e+001
0	 9.999996528288190e-001	 1.333299999983334e+000	 2.231402770465817e+001
0	 1.066659822244223e+000	 6.666972226472177e-001	 1.517463011855828e+001
0	 1.066659822244222e+000	 7.333579753122046e-001	 1.821267815374588e+001
0	 1.066659822244223e+000	 8.000185779984418e-001	 2.072815170358645e+001
0	 1.066659822244223e+000	 8.666790473703454e-001	 2.270895417263946e+001
0	 1.066659822244222e+000	 9.333394000923321e-001	 2.414298988279769e+001
0	 1.066659822244222e+000	 9.999996528288189e-001	 2.501816407330827e+001
0	 1.066659822244223e+000	 1.066659822244222e+000	 2.532238290079006e+001
0	 1.066659822244223e+000	 1.133319925002959e+000	 2.504355343924761e+001
0	 1.066659822244222e+000	 1.199979977769445e+000	 2.416958368008179e+001
0	 1.066659822244223e+000	 1.266639997208098e+000	 2.268838253209679e+001
0	 1.066659822244223e+000	 1.333299999983334e+000	 2.058785982150391e+001
0	 1.133319925002959e+000	 6.666972226472178e-001	 1.564005960098091e+001
0	 1.133319925002959e+000	 7.333579753122049e-001	 1.804900494933698e+001
0	 1.133319925002959e+000	 8.000185779984417e-001	 2.002184227840602e+001
0	 1.133319925002959e+000	 8.666790473703453e-001	 2.154867212052695e+001
0	 1.133319925002959e+000	 9.333394000923322e-001	 2.261959577158205e+001
0	 1.133319925002959e+000	 9.999996528288191e-001	 2.322471529101415e+001
0	 1.133319925002959e+000	 1.066659822244222e+000	 2.335413350184083e+001
0	 1.133319925002959e+000	 1.133319925002959e+000	 2.299795399066577e+001
0	 1.133319925002959e+000	 1.199979977769445e+000	 2.214628110768732e+001
0	 1.133319925002959e+000	 1.266639997208098e+000	 2.078921996670401e+001
0	 1.133319925002959e+000	 1.333299999983334e+000	 1.891687644511743e+001
0	 1.199979977769445e+000	 6.666972226472177e-001	 1.596230214629505e+001
0	 1.199979977769445e+000	 7.333579753122046e-001	 1.776032456273210e+001
0	 1.199979977769445e+000	 8.000185779984419e-001	 1.920879589873806e+001
0	 1.199979977769445e+000	 8.666790473703453e-001	 2.030057355285129e+001
0	 1.199979977769445e+000	 9.333394000923322e-001	 2.102851552630827e+001
0	 1.199979977769445e+000	 9.999996528288190e-001	 2.138548042305687e+001
0	 1.199979977769445e+000	 1.066659822244222e+000	 2.136432744976729e+001
0	 1.199979977769446e+000	 1.133319925002959e+000	 2.095791641584070e+001
0	 1.199979977769445e+000	 1.199979977769445e+000	 2.015910773341575e+001
0	 1.199979977769445e+000	 1.266639997208098e+000	 1.896076241737263e+001
0	 1.199979977769445e+000	 1.333299999983334e+000	 1.735574208533506e+001
0	 1.266639997208098e+000	 6.666972226472177e-001	 1.613167810153330e+001
0	 1.266639997208098e+000	 7.333579753122048e-001	 1.737915385111612e+001
0	 1.266639997208098e+000	 8.000185779984419e-001	 1.835577894907305e+001
0	 1.266639997208098e+000	 8.666790473703452e-001	 1.905772732119880e+001
0	 1.266639997208098e+000	 9.333394000923321e-001	 1.948117334000526e+001
0	 1.266639997208098e+000	 9.999996528288190e-001	 1.962229182473093e+001
0	 1.266639997208098e+000	 1.066659822244222e+000	 1.947725804134874e+001
0	 1.266639997208098e+000	 1.133319925002959e+000	 1.904224770257224e+001
0	 1.266639997208098e+000	 1.199979977769445e+000	 1.831343696786000e+001
0	 1.266639997208098e+000	 1.266639997208098e+000	 1.728700244341844e+001
0	 1.266639997208098e+000	 1.333299999983334e+000	 1.595912118220291e+001
0	 1.333299999983334e+000	 6.666972226472174e-001	 1.613850772978941e+001
0	 1.333299999983334e+000	 7.333579753122047e-001	 1.693800956808550e+001
0	 1.333299999983334e+000	 8.000185779984418e-001	 1.752955769758323e+001
0	 1.333299999983334e+000	 8.666790473703454e-001	 1.791320215418807e+001
0	 1.333299999983334e+000	 9.333394000923321e-001	 1.808899328132531e+001
0	 1.333299999983334e+000	 9.999996528288189e-001	 1.805698172994638e+001
0	 1.333299999983334e+000	 1.066659822244222e+000	 1.781721845853388e+001
0	 1.333299999983334e+000	 1.133319925002959e+000	 1.736975473310542e+001
0	 1.333299999983334e+000	 1.199979977769445e+000	 1.671464212721649e+001
0	 1.333299999983334e+000	 1.266639997208098e+000	 1.585193252196191e+001
0	 1.333299999983334e+000	 1.333299999983334e+000	 1.478167810597641e+001
0	 6.666972226472175e-001	 1.333299999983334e+000	 2.985937199248008e+001
0	 6.666972226472177e-001	 1.399969999982150e+000	 2.845815485435879e+001
0	 6.666972226472177e-001	 1.466639999981867e+000	 2.697975767609769e+001
0	 6.666972226472178e-001	 1.533309999982383e+000	 2.542847716214807e+001
0	 6.666972226472177e-001	 1.599979999983600e+000	 2.380861001696080e+001
0	 6.666972226472177e-001	 1.666649999985416e+000	 2.212445294498631e+001
0	 6.666972226472177e-001	 1.733319999987733e+000	 2.038030265067456e+001
0	 6.666972226472177e-001	 1.799989999990450e+000	 1.858045583847511e+001
0	 6.666972226472178e-001	 1.866659999993466e+000	 1.672920921283710e+001
0	 6.666972226472175e-001	 1.933329999996683e+000	 1.483085947820919e+001
0	 6.666972226472177e-001	 2.000000000000000e+000	 1.288970333903962e+001
0	 7.333579753122049e-001	 1.333299999983334e+000	 2.867725166562023e+001
0	 7.333579753122047e-001	 1.399969999982150e+000	 2.667307208181958e+001
0	 7.333579753122046e-001	 1.466639999981867e+000	 2.472161231716143e+001
0	 7.333579753122048e-001	 1.533309999982383e+000	 2.282632185527071e+001
0	 7.333579753122049e-001	 1.599979999983599e+000	 2.099065017977306e+001
0	 7.333579753122046e-001	 1.666649999985416e+000	 1.921804677429484e+001
0	 7.333579753122048e-001	 1.733319999987733e+000	 1.751196112246318e+001
0	 7.333579753122049e-001	 1.799989999990450e+000	 1.587584270790590e+001
0	 7.333579753122047e-001	 1.866659999993466e+000	 1.431314101425158e+001
0	 7.333579753122046e-001	 1.933329999996684e+000	 1.282730552512949e+001
0	 7.333579753122047e-001	 2.000000000000000e+000	 1.142178572416968e+001
0	 8.000185779984420e-001	 1.333299999983334e+000	 2.727699224952959e+001
0	 8.000185779984420e-001	 1.399969999982150e+000	 2.489307900074155e+001
0	 8.000185779984417e-001	 1.466639999981866e+000	 2.265536178388757e+001
0	 8.000185779984417e-001	 1.533309999982383e+000	 2.056650590045184e+001
0	 8.000185779984418e-001	 1.599979999983600e+000	 1.862917665192018e+001
0	 8.000185779984419e-001	 1.666649999985416e+000	 1.684603933977992e+001
0	 8.000185779984416e-001	 1.733319999987733e+000	 1.521975926552000e+001
0	 8.000185779984418e-001	 1.799989999990449e+000	 1.375300173063091e+001
0	 8.000185779984417e-001	 1.866659999993466e+000	 1.244843203660470e+001
0	 8.000185779984418e-001	 1.933329999996683e+000	 1.130871548493499e+001
0	 8.000185779984419e-001	 2.000000000000000e+000	 1.033651737711696e+001
0	 8.666790473703456e-001	 1.333299999983334e+000	 2.571325860297873e+001
0	 8.666790473703454e-001	 1.399969999982150e+000	 2.314184228607375e+001
0	 8.666790473703453e-001	 1.466639999981866e+000	 2.077829183519817e+001
0	 8.666790473703456e-001	 1.533309999982383e+000	 1.862455140937086e+001
0	 8.666790473703454e-001	 1.599979999983599e+000	 1.668256516761286e+001
0	 8.666790473703456e-001	 1.666649999985416e+000	 1.495427726894730e+001
0	 8.666790473703456e-001	 1.733319999987733e+000	 1.344163187239942e+001
0	 8.666790473703453e-001	 1.799989999990449e+000	 1.214657313699655e+001
0	 8.666790473703452e-001	 1.866659999993466e+000	 1.107104522176816e+001
0	 8.666790473703454e-001	 1.933329999996682e+000	 1.021699228574580e+001
0	 8.666790473703455e-001	 2.000000000000000e+000	 9.586358487963143e+000
0	 9.333394000923323e-001	 1.333299999983334e+000	 2.404071551495450e+001
0	 9.333394000923319e-001	 1.399969999982150e+000	 2.144302855487487e+001
0	 9.333394000923323e-001	 1.466639999981866e+000	 1.908768818328750e+001
0	 9.333394000923321e-001	 1.533309999982383e+000	 1.697598045731651e+001
0	 9.333394000923323e-001	 1.599979999983599e+000	 1.510919143408836e+001
0	 9.333394000923322e-001	 1.666649999985416e+000	 1.348860717073194e+001
0	 9.333394000923320e-001	 1.733319999987733e+000	 1.211551372437855e+001
0	 9.333394000923321e-001	 1.799989999990449e+000	 1.099119715216189e+001
0	 9.333394000923321e-001	 1.866659999993466e+000	 1.011694351121805e+001
0	 9.333394000923323e-001	 1.933329999996683e+000	 9.494038858685522e+000
0	 9.333394000923323e-001	 2.000000000000000e+000	 9.123769251705221e+000
0	 9.999996528288190e-001	 1.333299999983334e+000	 2.231402770465818e+001
0	 9.999996528288189e-001	 1.399969999982150e+000	 1.982030436631169e+001
0	 9.999996528288191e-001	 1.466639999981866e+000	 1.758083649362082e+001
0	 9.999996528288189e-001	 1.533309999982383e+000	 1.559631508318584e+001
0	 9.999996528288189e-001	 1.599979999983600e+000	 1.386743113160956e+001
0	 9.999996528288190e-001	 1.666649999985416e+000	 1.239487563549730e+001
0	 9.999996528288191e-001	 1.733319999987733e+000	 1.117933959145681e+001
0	 9.999996528288191e-001	 1.799989999990450e+000	 1.022151399609838e+001
0	 9.999996528288191e-001	 1.866659999993466e+000	 9.522089846034776e+000
0	 9.999996528288192e-001	 1.933329999996683e+000	 9.081758137881238e+000
0	 9.999996528288191e-001	 2.000000000000000e+000	 8.901209868255521e+000
0	 1.066659822244223e+000	 1.333299999983334e+000	 2.058785982150391e+001
0	 1.066659822244223e+000	 1.399969999982150e+000	 1.829733622165790e+001
0	 1.066659822244222e+000	 1.466639999981866e+000	 1.625502238493316e+001
0	 1.066659822244222e+000	 1.533309999982383e+000	 1.446107728948332e+001
0	 1.066659822244222e+000	 1.599979999983599e+000	 1.291565991346440e+001
0	 1.066659822244222e+000	 1.666649999985416e+000	 1.161892923503484e+001
0	 1.066659822244222e+000	 1.733319999987733e+000	 1.057104423235549e+001
0	 1.066659822244222e+000	 1.799989999990450e+000	 9.772163883589606e+000
0	 1.066659822244222e+000	 1.866659999993466e+000	 9.222447166902887e+000
0	 1.066659822244222e+000	 1.933329999996683e+000	 8.922053060463391e+000
0	 1.066659822244223e+000	 2.000000000000000e+000	 8.871140542441626e+000
0	 1.133319925002959e+000	 1.333299999983334e+000	 1.891687644511743e+001
0	 1.133319925002959e+000	 1.399969999982150e+000	 1.689779056429278e+001
0	 1.133319925002959e+000	 1.466639999981866e+000	 1.510753142922851e+001
0	 1.133319925002959e+000	 1.533309999982383e+000	 1.354578904232006e+001
0	 1.133319925002959e+000	 1.599979999983600e+000	 1.221225340596511e+001
0	 1.133319925002959e+000	 1.666649999985416e+000	 1.110661452256352e+001
0	 1.133319925002959e+000	 1.733319999987733e+000	 1.022856239451740e+001
0	 1.133319925002959e+000	 1.799989999990449e+000	 9.577787024231022e+000
0	 1.133319925002959e+000	 1.866659999993466e+000	 9.153978414110885e+000
0	 1.133319925002959e+000	 1.933329999996683e+000	 8.956826566565701e+000
0	 1.133319925002959e+000	 2.000000000000000e+000	 8.986021484006376e+000
0	 1.199979977769445e+000	 1.333299999983334e+000	 1.735574208533506e+001
0	 1.199979977769445e+000	 1.399969999982150e+000	 1.564533377970050e+001
0	 1.199979977769445e+000	 1.466639999981866e+000	 1.413564915177895e+001
0	 1.199979977769445e+000	 1.533309999982383e+000	 1.282597227141317e+001
0	 1.199979977769445e+000	 1.599979999983599e+000	 1.171558720844780e+001
0	 1.199979977769445e+000	 1.666649999985416e+000	 1.080377803272946e+001
0	 1.199979977769445e+000	 1.733319999987733e+000	 1.008982881410662e+001
0	 1.199979977769445e+000	 1.799989999990450e+000	 9.573023622429721e+000
0	 1.199979977769446e+000	 1.866659999993466e+000	 9.252646527551113e+000
0	 1.199979977769445e+000	 1.933329999996684e+000	 9.127981599325061e+000
0	 1.199979977769445e+000	 2.000000000000000e+000	 9.198312907607747e+000
0	 1.266639997208098e+000	 1.333299999983334e+000	 1.595912118220291e+001
0	 1.266639997208098e+000	 1.399969999982150e+000	 1.456363219546928e+001
0	 1.266639997208098e+000	 1.466639999981867e+000	 1.333666103112412e+001
0	 1.266639997208098e+000	 1.533309999982383e+000	 1.227714887008523e+001
0	 1.266639997208098e+000	 1.599979999983600e+000	 1.138403689327202e+001
0	 1.266639997208098e+000	 1.666649999985416e+000	 1.065626628160546e+001
0	 1.266639997208098e+000	 1.733319999987733e+000	 1.009277821600815e+001
0	 1.266639997208098e+000	 1.799989999990450e+000	 9.692513877404251e+000
0	 1.266639997208098e+000	 1.866659999993466e+000	 9.454414446719559e+000
0	 1.266639997208098e+000	 1.933329999996683e+000	 9.377421104881417e+000
0	 1.266639997208098e+000	 2.000000000000000e+000	 9.460475032818787e+000
0	 1.333299999983334e+000	 1.333299999983334e+000	 1.478167810597641e+001
0	 1.333299999983334e+000	 1.399969999982150e+000	 1.367635208129109e+001
0	 1.333299999983334e+000	 1.466639999981867e+000	 1.270785249907082e+001
0	 1.333299999983334e+000	 1.533309999982383e+000	 1.187484069526402e+001
0	 1.333299999983334e+000	 1.599979999983599e+000	 1.117597800582039e+001
0	 1.333299999983334e+000	 1.666649999985416e+000	 1.060992576669089e+001
0	 1.333299999983334e+000	 1.733319999987733e+000	 1.017534531382773e+001
0	 1.333299999983334e+000	 1.799989999990449e+000	 9.870897983184431e+000
0	 1.333299999983334e+000	 1.866659999993466e+000	 9.695245110715728e+000
0	 1.333299999983334e+000	 1.933329999996683e+000	 9.647048032377647e+000
0	 1.333299999983334e+000	 2.000000000000000e+000	 9.724968084127486e+000
0	 6.666972226472177e-001	 2.000000000000000e+000	 1.288970333903962e+001
0	 6.666972226472177e-001	 2.066670000003317e+000	 1.106695504023268e+001
0	 6.666972226472178e-001	 2.133340000006534e+000	 9.519908363353679e+000
0	 6.666972226472177e-001	 2.200010000009550e+000	 8.246979317843874e+000
0	 6.666972226472177e-001	 2.266680000012268e+000	 7.246583913146911e+000
0	 6.666972226472175e-001	 2.333350000014584e+000	 6.517138158708854e+000
0	 6.666972226472175e-001	 2.400020000016400e+000	 6.057058063978184e+000
0	 6.666972226472178e-001	 2.466690000017616e+000	 5.864759638405785e+000
0	 6.666972226472178e-001	 2.533360000018134e+000	 5.938658891444920e+000
0	 6.666972226472177e-001	 2.600030000017850e+000	 6.277171832551304e+000
0	 6.666972226472177e-001	 2.666700000016667e+000	 6.878714471183013e+000
0	 7.333579753122047e-001	 2.000000000000000e+000	 1.142178572416968e+001
0	 7.333579753122047e-001	 2.066670000003317e+000	 1.015354606406359e+001
0	 7.333579753122048e-001	 2.133340000006534e+000	 9.077072012450474e+000
0	 7.333579753122048e-001	 2.200010000009550e+000	 8.192094575383791e+000
0	 7.333579753122047e-001	 2.266680000012267e+000	 7.498344758918742e+000
0	 7.333579753122047e-001	 2.333350000014584e+000	 6.995553569112217e+000
0	 7.333579753122050e-001	 2.400020000016402e+000	 6.683452012022825e+000
0	 7.333579753122049e-001	 2.466690000017618e+000	 6.561771093710881e+000
0	 7.333579753122047e-001	 2.533360000018133e+000	 6.630241820238388e+000
0	 7.333579753122049e-001	 2.600030000017851e+000	 6.888595197669075e+000
0	 7.333579753122047e-001	 2.666700000016666e+000	 7.336562232068351e+000
0	 8.000185779984419e-001	 2.000000000000000e+000	 1.033651737711696e+001
0	 8.000185779984416e-001	 2.066670000003316e+000	 9.510519985144640e+000
0	 8.000185779984416e-001	 2.133340000006534e+000	 8.808197230780118e+000
0	 8.000185779984418e-001	 2.200010000009550e+000	 8.230401890172717e+000
0	 8.000185779984417e-001	 2.266680000012266e+000	 7.777986739472881e+000
0	 8.000185779984419e-001	 2.333350000014585e+000	 7.451804554832192e+000
0	 8.000185779984418e-001	 2.400020000016401e+000	 7.252708112403378e+000
0	 8.000185779984418e-001	 2.466690000017617e+000	 7.181550188340314e+000
0	 8.000185779984418e-001	 2.533360000018134e+000	 7.239183558798000e+000
0	 8.000185779984420e-001	 2.600030000017851e+000	 7.426460999932589e+000
0	 8.000185779984420e-001	 2.666700000016666e+000	 7.744235287901343e+000
0	 8.666790473703455e-001	 2.000000000000000e+000	 9.586358487963143e+000
0	 8.666790473703454e-001	 2.066670000003316e+000	 9.102429942787271e+000
0	 8.666790473703452e-001	 2.133340000006534e+000	 8.688384203665217e+000
0	 8.666790473703455e-001	 2.200010000009550e+000	 8.346002588252679e+000
0	 8.666790473703454e-001	 2.266680000012267e+000	 8.077066414206072e+000
0	 8.666790473703454e-001	 2.333350000014584e+000	 7.883356999182481e+000
0	 8.666790473703452e-001	 2.400020000016400e+000	 7.766655660839689e+000
0	 8.666790473703456e-001	 2.466690000017618e+000	 7.728743716836183e+000
0	 8.666790473703454e-001	 2.533360000018134e+000	 7.771402484831124e+000
0	 8.666790473703453e-001	 2.600030000017850e+000	 7.896413282484387e+000
0	 8.666790473703455e-001	 2.666700000016666e+000	 8.105557427456535e+000
0	 9.333394000923323e-001	 2.000000000000000e+000	 9.123769251705221e+000
0	 9.333394000923324e-001	 2.066670000003317e+000	 8.893829081612360e+000
0	 9.333394000923322e-001	 2.133340000006534e+000	 8.692733120839820e+000
0	 9.333394000923323e-001	 2.200010000009550e+000	 8.522997998177079e+000
0	 9.333394000923322e-001	 2.266680000012267e+000	 8.387140342413970e+000
0	 9.333394000923324e-001	 2.333350000014584e+000	 8.287676782340663e+000
0	 9.333394000923320e-001	 2.400020000016400e+000	 8.227123946747705e+000
0	 9.333394000923324e-001	 2.466690000017617e+000	 8.207998464425986e+000
0	 9.333394000923321e-001	 2.533360000018133e+000	 8.232816964166766e+000
0	 9.333394000923323e-001	 2.600030000017851e+000	 8.304096074761620e+000
0	 9.333394000923324e-001	 2.666700000016666e+000	 8.424352425002523e+000
0	 9.999996528288191e-001	 2.000000000000000e+000	 8.901209868255521e+000
0	 9.999996528288192e-001	 2.066670000003317e+000	 8.849270551550168e+000
0	 9.999996528288192e-001	 2.133340000006534e+000	 8.796344176449452e+000
0	 9.999996528288193e-001	 2.200010000009550e+000	 8.745489451010599e+000
0	 9.999996528288192e-001	 2.266680000012268e+000	 8.699765083290957e+000
0	 9.999996528288190e-001	 2.333350000014584e+000	 8.662229781347968e+000
0	 9.999996528288191e-001	 2.400020000016401e+000	 8.635942253239215e+000
0	 9.999996528288190e-001	 2.466690000017617e+000	 8.623961207022344e+000
0	 9.999996528288192e-001	 2.533360000018134e+000	 8.629345350755157e+000
0	 9.999996528288190e-001	 2.600030000017850e+000	 8.655153392495533e+000
0	 9.999996528288191e-001	 2.666700000016666e+000	 8.704444040301469e+000
0	 1.066659822244223e+000	 2.000000000000000e+000	 8.871140542441626e+000
0	 1.066659822244222e+000	 2.066670000003317e+000	 8.933307507840326e+000
0	 1.066659822244223e+000	 2.133340000006533e+000	 8.974317569051021e+000
0	 1.066659822244222e+000	 2.200010000009550e+000	 8.997578280329140e+000
0	 1.066659822244222e+000	 2.266680000012267e+000	 9.006497195930066e+000
0	 1.066659822244223e+000	 2.333350000014584e+000	 9.004481870109133e+000
0	 1.066659822244223e+000	 2.400020000016401e+000	 8.994939857121596e+000
0	 1.066659822244223e+000	 2.466690000017617e+000	 8.981278711222663e+000
0	 1.066659822244223e+000	 2.533360000018134e+000	 8.966905986667486e+000
0	 1.066659822244223e+000	 2.600030000017851e+000	 8.955229237711160e+000
0	 1.066659822244223e+000	 2.666700000016667e+000	 8.949656018608716e+000
0	 1.133319925002959e+000	 2.000000000000000e+000	 8.986021484006376e+000
0	 1.133319925002959e+000	 2.066670000003318e+000	 9.110493111031804e+000
0	 1.133319925002959e+000	 2.133340000006534e+000	 9.201753501612821e+000
0	 1.133319925002959e+000	 2.200010000009551e+000	 9.263365822219781e+000
0	 1.133319925002959e+000	 2.266680000012267e+000	 9.298893239322895e+000
0	 1.133319925002959e+000	 2.333350000014585e+000	 9.311898919392219e+000
0	 1.133319925002959e+000	 2.400020000016401e+000	 9.305946028897637e+000
0	 1.133319925002959e+000	 2.466690000017617e+000	 9.284597734308873e+000
0	 1.133319925002959e+000	 2.533360000018134e+000	 9.251417202095505e+000
0	 1.133319925002959e+000	 2.600030000017850e+000	 9.209967598726943e+000
0	 1.133319925002959e+000	 2.666700000016666e+000	 9.163812090672458e+000
0	 1.199979977769445e+000	 2.000000000000000e+000	 9.198312907607747e+000
0	 1.199979977769445e+000	 2.066670000003316e+000	 9.345380526982844e+000
0	 1.199979977769445e+000	 2.133340000006533e+000	 9.453752181514426e+000
0	 1.199979977769445e+000	 2.200010000009551e+000	 9.526953415280634e+000
0	 1.199979977769445e+000	 2.266680000012267e+000	 9.568509772359406e+000
0	 1.199979977769445e+000	 2.333350000014584e+000	 9.581946796828452e+000
0	 1.199979977769445e+000	 2.400020000016401e+000	 9.570790032765274e+000
0	 1.199979977769445e+000	 2.466690000017617e+000	 9.538565024247196e+000
0	 1.199979977769445e+000	 2.533360000018134e+000	 9.488797315351301e+000
0	 1.199979977769445e+000	 2.600030000017850e+000	 9.425012450154474e+000
0	 1.199979977769445e+000	 2.666700000016666e+000	 9.350735972733412e+000
0	 1.266639997208098e+000	 2.000000000000000e+000	 9.460475032818787e+000
0	 1.266639997208098e+000	 2.066670000003317e+000	 9.602522926860866e+000
0	 1.266639997208098e+000	 2.133340000006534e+000	 9.705413820546630e+000
0	 1.266639997208098e+000	 2.200010000009550e+000	 9.772442400620793e+000
0	 1.266639997208098e+000	 2.266680000012267e+000	 9.806903353827847e+000
0	 1.266639997208098e+000	 2.333350000014584e+000	 9.812091366912071e+000
0	 1.266639997208098e+000	 2.400020000016400e+000	 9.791301126617498e+000
0	 1.266639997208098e+000	 2.466690000017617e+000	 9.747827319687969e+000
0	 1.266639997208098e+000	 2.533360000018133e+000	 9.684964632867098e+000
0	 1.266639997208098e+000	 2.600030000017851e+000	 9.606007752898254e+000
0	 1.266639997208098e+000	 2.666700000016666e+000	 9.514251366524624e+000
0	 1.333299999983334e+000	 2.000000000000000e+000	 9.724968084127486e+000
0	 1.333299999983334e+000	 2.066670000003317e+000	 9.846473487142378e+000
0	 1.333299999983334e+000	 2.133340000006534e+000	 9.931838634911307e+000
0	 1.333299999983334e+000	 2.200010000009550e+000	 9.983934121860180e+000
0	 1.333299999983334e+000	 2.266680000012267e+000	 1.000563054241466e+001
0	 1.333299999983334e+000	 2.333350000014584e+000	 9.999798491000234e+000
0	 1.333299999983334e+000	 2.400020000016401e+000	 9.969308562042153e+000
0	 1.333299999983334e+000	 2.466690000017617e+000	 9.917031349965477e+000
0	 1.333299999983334e+000	 2.533360000018134e+000	 9.845837449195052e+000
0	 1.333299999983334e+000	 2.600030000017851e+000	 9.758597454155504e+000
0	 1.333299999983334e+000	 2.666700000016666e+000	 9.658181959271273e+000
0	 6.666972226472177e-001	 2.666700000016667e+000	 6.878714471183011e+000
0	 6.666972226472175e-001	 2.733360000014533e+000	 7.561076455379890e+000
0	 6.666972226472178e-001	 2.800020000011599e+000	 8.143865957150885e+000
0	 6.666972226472177e-001	 2.866680000008067e+000	 8.627897150121232e+000
0	 6.666972226472178e-001	 2.933340000004133e+000	 9.013984207917851e+000
0	 6.666972226472175e-001	 3.000000000000000e+000	 9.302941304169366e+000
0	 6.666972226472178e-001	 3.066659999995867e+000	 9.495582612506100e+000
0	 6.666972226472175e-001	 3.133319999991933e+000	 9.592722306560082e+000
0	 6.666972226472178e-001	 3.199979999988400e+000	 9.595174559965036e+000
0	 6.666972226472177e-001	 3.266639999985467e+000	 9.503753546356379e+000
0	 6.666972226472175e-001	 3.333299999983334e+000	 9.319273439371235e+000
0	 7.333579753122047e-001	 2.666700000016666e+000	 7.336562232068352e+000
0	 7.333579753122049e-001	 2.733360000014534e+000	 7.844517948983380e+000
0	 7.333579753122047e-001	 2.800020000011599e+000	 8.283017648669409e+000
0	 7.333579753122050e-001	 2.866680000008067e+000	 8.651818553576822e+000
0	 7.333579753122048e-001	 2.933340000004133e+000	 8.950677886157241e+000
0	 7.333579753122049e-001	 3.000000000000000e+000	 9.179352868863530e+000
0	 7.333579753122047e-001	 3.066659999995868e+000	 9.337600724149814e+000
0	 7.333579753122048e-001	 3.133319999991934e+000	 9.425178674471425e+000
0	 7.333579753122047e-001	 3.199979999988400e+000	 9.441843942284965e+000
0	 7.333579753122049e-001	 3.266639999985468e+000	 9.387353750048280e+000
0	 7.333579753122049e-001	 3.333299999983334e+000	 9.261465320220449e+000
0	 8.000185779984420e-001	 2.666700000016666e+000	 7.744235287901343e+000
0	 8.000185779984419e-001	 2.733360000014533e+000	 8.105701066037588e+000
0	 8.000185779984418e-001	 2.800020000011599e+000	 8.422839443877260e+000
0	 8.000185779984419e-001	 2.866680000008066e+000	 8.694510417370474e+000
0	 8.000185779984418e-001	 2.933340000004134e+000	 8.919573982468215e+000
0	 8.000185779984419e-001	 3.000000000000000e+000	 9.096890135122340e+000
0	 8.000185779984419e-001	 3.066659999995868e+000	 9.225318871285566e+000
0	 8.000185779984420e-001	 3.133319999991934e+000	 9.303720186911464e+000
0	 8.000185779984418e-001	 3.199979999988400e+000	 9.330954077954493e+000
0	 8.000185779984419e-001	 3.266639999985467e+000	 9.305880540369955e+000
0	 8.000185779984420e-001	 3.333299999983334e+000	 9.227359570114018e+000
0	 8.666790473703455e-001	 2.666700000016666e+000	 8.105557427456535e+000
0	 8.666790473703455e-001	 2.733360000014534e+000	 8.346048479770891e+000
0	 8.666790473703452e-001	 2.800020000011599e+000	 8.562736322487337e+000
0	 8.666790473703454e-001	 2.866680000008067e+000	 8.753743451421450e+000
0	 8.666790473703455e-001	 2.933340000004133e+000	 8.917192362389352e+000
0	 8.666790473703453e-001	 3.000000000000000e+000	 9.051205551207726e+000
0	 8.666790473703453e-001	 3.066659999995866e+000	 9.153905513693823e+000
0	 8.666790473703455e-001	 3.133319999991934e+000	 9.223414745665448e+000
0	 8.666790473703455e-001	 3.199979999988401e+000	 9.257855742940929e+000
0	 8.666790473703454e-001	 3.266639999985467e+000	 9.255351001339191e+000
0	 8.666790473703454e-001	 3.333299999983333e+000	 9.214023016679684e+000
0	 9.333394000923324e-001	 2.666700000016666e+000	 8.424352425002523e+000
0	 9.333394000923323e-001	 2.733360000014533e+000	 8.566982849333094e+000
0	 9.333394000923322e-001	 2.800020000011600e+000	 8.702113251637764e+000
0	 9.333394000923322e-001	 2.866680000008067e+000	 8.827288355414813e+000
0	 9.333394000923324e-001	 2.933340000004133e+000	 8.940052884162858e+000
0	 9.333394000923324e-001	 3.000000000000000e+000	 9.037951561380790e+000
0	 9.333394000923324e-001	 3.066659999995867e+000	 9.118529110567827e+000
0	 9.333394000923321e-001	 3.133319999991933e+000	 9.179330255223505e+000
0	 9.333394000923322e-001	 3.199979999988401e+000	 9.217899718847644e+000
0	 9.333394000923324e-001	 3.266639999985467e+000	 9.231782224940396e+000
0	 9.333394000923324e-001	 3.333299999983334e+000	 9.218522497002210e+000
0	 9.999996528288191e-001	 2.666700000016666e+000	 8.704444040301469e+000
0	 9.999996528288191e-001	 2.733360000014533e+000	 8.769926819794968e+000
0	 9.999996528288192e-001	 2.800020000011600e+000	 8.840375185891436e+000
0	 9.999996528288192e-001	 2.866680000008067e+000	 8.912915818801087e+000
0	 9.999996528288193e-001	 2.933340000004133e+000	 8.984675398734305e+000
0	 9.999996528288189e-001	 2.999999999999999e+000	 9.052780605901562e+000
0	 9.999996528288193e-001	 3.066659999995867e+000	 9.114358120513453e+000
0	 9.999996528288191e-001	 3.133319999991934e+000	 9.166534622780706e+000
0	 9.999996528288192e-001	 3.199979999988401e+000	 9.206436792914149e+000
0	 9.999996528288191e-001	 3.266639999985467e+000	 9.231191311124739e+000
0	 9.999996528288191e-001	 3.333299999983334e+000	 9.237924857623554e+000
0	 1.066659822244223e+000	 2.666700000016667e+000	 8.949656018608719e+000
0	 1.066659822244223e+000	 2.733360000014533e+000	 8.956303022147917e+000
0	 1.066659822244223e+000	 2.800020000011600e+000	 8.976927067235705e+000
0	 1.066659822244222e+000	 2.866680000008066e+000	 9.008396520795918e+000
0	 1.066659822244223e+000	 2.933340000004133e+000	 9.047579749752373e+000
0	 1.066659822244222e+000	 2.999999999999999e+000	 9.091345121028859e+000
0	 1.066659822244222e+000	 3.066659999995865e+000	 9.136561001549161e+000
0	 1.066659822244223e+000	 3.133319999991933e+000	 9.180095758237002e+000
0	 1.066659822244223e+000	 3.199979999988401e+000	 9.218817758016135e+000
0	 1.066659822244222e+000	 3.266639999985466e+000	 9.249595367810240e+000
0	 1.066659822244222e+000	 3.333299999983333e+000	 9.269296954543014e+000
0	 1.133319925002959e+000	 2.666700000016666e+000	 9.163812090672462e+000
0	 1.133319925002959e+000	 2.733360000014532e+000	 9.127534073303583e+000
0	 1.133319925002959e+000	 2.800020000011601e+000	 9.111173825082089e+000
0	 1.133319925002959e+000	 2.866680000008066e+000	 9.111501130379859e+000
0	 1.133319925002959e+000	 2.933340000004133e+000	 9.125285773568658e+000
0	 1.133319925002959e+000	 3.000000000000000e+000	 9.149297539020148e+000
0	 1.133319925002959e+000	 3.066659999995867e+000	 9.180306211105870e+000
0	 1.133319925002959e+000	 3.133319999991934e+000	 9.215081574197219e+000
0	 1.133319925002959e+000	 3.199979999988400e+000	 9.250393412665476e+000
0	 1.133319925002959e+000	 3.266639999985467e+000	 9.283011510881837e+000
0	 1.133319925002959e+000	 3.333299999983334e+000	 9.309705653217332e+000
0	 1.199979977769445e+000	 2.666700000016666e+000	 9.350735972733414e+000
0	 1.199979977769445e+000	 2.733360000014534e+000	 9.285042576093622e+000
0	 1.199979977769445e+000	 2.800020000011600e+000	 9.242520376265972e+000
0	 1.199979977769446e+000	 2.866680000008067e+000	 9.220000306298108e+000
0	 1.199979977769445e+000	 2.933340000004133e+000	 9.214313299237485e+000
0	 1.199979977769445e+000	 3.000000000000000e+000	 9.222290288131399e+000
0	 1.199979977769445e+000	 3.066659999995865e+000	 9.240762206026927e+000
0	 1.199979977769445e+000	 3.133319999991933e+000	 9.266559985970991e+000
0	 1.199979977769445e+000	 3.199979999988401e+000	 9.296514561010314e+000
0	 1.199979977769445e+000	 3.266639999985467e+000	 9.327456864191435e+000
0	 1.199979977769445e+000	 3.333299999983334e+000	 9.356217828560720e+000
0	 1.266639997208098e+000	 2.666700000016666e+000	 9.514251366524624e+000
0	 1.266639997208098e+000	 2.733360000014533e+000	 9.430251119269430e+000
0	 1.266639997208098e+000	 2.800020000011600e+000	 9.370371625046428e+000
0	 1.266639997208098e+000	 2.866680000008066e+000	 9.331664697060365e+000
0	 1.266639997208098e+000	 2.933340000004134e+000	 9.311182148515766e+000
0	 1.266639997208098e+000	 3.000000000000000e+000	 9.305975792616941e+000
0	 1.266639997208098e+000	 3.066659999995867e+000	 9.313097442567980e+000
0	 1.266639997208098e+000	 3.133319999991934e+000	 9.329598911572751e+000
0	 1.266639997208098e+000	 3.199979999988401e+000	 9.352532012834924e+000
0	 1.266639997208098e+000	 3.266639999985467e+000	 9.378948559557912e+000
0	 1.266639997208098e+000	 3.333299999983334e+000	 9.405900364944939e+000
0	 1.333299999983334e+000	 2.666700000016666e+000	 9.658181959271273e+000
0	 1.333299999983334e+000	 2.733360000014532e+000	 9.564582277502003e+000
0	 1.333299999983334e+000	 2.800020000011599e+000	 9.494132463106041e+000
0	 1.333299999983334e+000	 2.866680000008067e+000	 9.444264940940650e+000
0	 1.333299999983334e+000	 2.933340000004133e+000	 9.412412135862843e+000
0	 1.333299999983334e+000	 3.000000000000000e+000	 9.396006472729408e+000
0	 1.333299999983334e+000	 3.066659999995867e+000	 9.392480376396906e+000
0	 1.333299999983334e+000	 3.133319999991934e+000	 9.399266271721663e+000
0	 1.333299999983334e+000	 3.199979999988401e+000	 9.413796583559774e+000
0	 1.333299999983334e+000	 3.266639999985467e+000	 9.433503736767090e+000
0	 1.333299999983334e+000	 3.333299999983334e+000	 9.455820156199259e+000
0	 6.666972226472175e-001	 3.333299999983334e+000	 9.319273439371235e+000
0	 6.666972226472177e-001	 3.399969999982150e+000	 9.107844725792173e+000
0	 6.666972226472177e-001	 3.466639999981867e+000	 8.934922527350297e+000
0	 6.666972226472177e-001	 3.533309999982382e+000	 8.800234127504703e+000
0	 6.666972226472177e-001	 3.599979999983599e+000	 8.703506809714828e+000
0	 6.666972226472175e-001	 3.666649999985416e+000	 8.644467857440430e+000
0	 6.666972226472175e-001	 3.733319999987733e+000	 8.622844554141597e+000
0	 6.666972226472175e-001	 3.799989999990450e+000	 8.638364183278750e+000
0	 6.666972226472177e-001	 3.866659999993467e+000	 8.690754028312629e+000
0	 6.666972226472175e-001	 3.933329999996683e+000	 8.779741372704315e+000
0	 6.666972226472175e-001	 4.000000000000001e+000	 8.905053499915217e+000
0	 7.333579753122049e-001	 3.333299999983334e+000	 9.261465320220450e+000
0	 7.333579753122048e-001	 3.399969999982150e+000	 9.112345536894646e+000
0	 7.333579753122047e-001	 3.466639999981868e+000	 8.988700986498959e+000
0	 7.333579753122048e-001	 3.533309999982382e+000	 8.891025686906650e+000
0	 7.333579753122049e-001	 3.599979999983600e+000	 8.819813655991238e+000
0	 7.333579753122046e-001	 3.666649999985416e+000	 8.775558911626479e+000
0	 7.333579753122047e-001	 3.733319999987733e+000	 8.758755471686396e+000
0	 7.333579753122048e-001	 3.799989999990450e+000	 8.769897354045225e+000
0	 7.333579753122048e-001	 3.866659999993467e+000	 8.809478576577494e+000
0	 7.333579753122047e-001	 3.933329999996684e+000	 8.877993157157942e+000
0	 7.333579753122048e-001	 4.000000000000002e+000	 8.975935113661572e+000
0	 8.000185779984420e-001	 3.333299999983334e+000	 9.227359570114018e+000
0	 8.000185779984421e-001	 3.399969999982151e+000	 9.128718144370545e+000
0	 8.000185779984418e-001	 3.466639999981866e+000	 9.044835756795036e+000
0	 8.000185779984418e-001	 3.533309999982383e+000	 8.976853642188816e+000
0	 8.000185779984419e-001	 3.599979999983600e+000	 8.925913035353370e+000
0	 8.000185779984420e-001	 3.666649999985417e+000	 8.893155171090374e+000
0	 8.000185779984417e-001	 3.733319999987733e+000	 8.879721284201688e+000
0	 8.000185779984418e-001	 3.799989999990451e+000	 8.886752609489351e+000
0	 8.000185779984416e-001	 3.866659999993466e+000	 8.915390381755577e+000
0	 8.000185779984418e-001	 3.933329999996683e+000	 8.966775835802780e+000
0	 8.000185779984418e-001	 4.000000000000001e+000	 9.042050206433528e+000
0	 8.666790473703454e-001	 3.333299999983333e+000	 9.214023016679684e+000
0	 8.666790473703452e-001	 3.399969999982150e+000	 9.155182722276676e+000
0	 8.666790473703453e-001	 3.466639999981866e+000	 9.102523754368503e+000
0	 8.666790473703455e-001	 3.533309999982383e+000	 9.057715045951118e+000
0	 8.666790473703453e-001	 3.599979999983600e+000	 9.022425530020636e+000
0	 8.666790473703453e-001	 3.666649999985416e+000	 8.998324139573279e+000
0	 8.666790473703456e-001	 3.733319999987733e+000	 8.987079807605390e+000
0	 8.666790473703456e-001	 3.799989999990451e+000	 8.990361467113473e+000
0	 8.666790473703452e-001	 3.866659999993467e+000	 9.009838051094139e+000
0	 8.666790473703453e-001	 3.933329999996683e+000	 9.047178492544123e+000
0	 8.666790473703455e-001	 4.000000000000001e+000	 9.104051724460296e+000
0	 9.333394000923324e-001	 3.333299999983334e+000	 9.218522497002207e+000
0	 9.333394000923320e-001	 3.399969999982149e+000	 9.189959454607367e+000
0	 9.333394000923324e-001	 3.466639999981867e+000	 9.160961904866509e+000
0	 9.333394000923322e-001	 3.533309999982383e+000	 9.133606959168859e+000
0	 9.333394000923324e-001	 3.599979999983600e+000	 9.109971728903743e+000
0	 9.333394000923322e-001	 3.666649999985416e+000	 9.092133325460544e+000
0	 9.333394000923323e-001	 3.733319999987733e+000	 9.082168860228775e+000
0	 9.333394000923319e-001	 3.799989999990449e+000	 9.082155444598023e+000
0	 9.333394000923324e-001	 3.866659999993468e+000	 9.094170189957946e+000
0	 9.333394000923323e-001	 3.933329999996683e+000	 9.120290207698323e+000
0	 9.333394000923324e-001	 4.000000000000000e+000	 9.162592609209003e+000
0	 9.999996528288191e-001	 3.333299999983334e+000	 9.237924857623554e+000
0	 9.999996528288189e-001	 3.399969999982150e+000	 9.231268535294626e+000
0	 9.999996528288191e-001	 3.466639999981867e+000	 9.219347143453611e+000
0	 9.999996528288190e-001	 3.533309999982383e+000	 9.204526451192853e+000
0	 9.999996528288191e-001	 3.599979999983600e+000	 9.189172227604761e+000
0	 9.999996528288190e-001	 3.666649999985416e+000	 9.175650241781789e+000
0	 9.999996528288191e-001	 3.733319999987733e+000	 9.166326262816487e+000
0	 9.999996528288192e-001	 3.799989999990450e+000	 9.163566059801415e+000
0	 9.999996528288191e-001	 3.866659999993466e+000	 9.169735401829247e+000
0	 9.999996528288193e-001	 3.933329999996685e+000	 9.187200057992653e+000
0	 9.999996528288191e-001	 4.000000000000000e+000	 9.218325797384447e+000
0	 1.066659822244222e+000	 3.333299999983333e+000	 9.269296954543014e+000
0	 1.066659822244222e+000	 3.399969999982150e+000	 9.277330168208309e+000
0	 1.066659822244222e+000	 3.466639999981866e+000	 9.276876414811879e+000
0	 1.066659822244222e+000	 3.533309999982383e+000	 9.270470599749576e+000
0	 1.066659822244222e+000	 3.599979999983600e+000	 9.260647628417290e+000
0	 1.066659822244222e+000	 3.666649999985416e+000	 9.249942406210954e+000
0	 1.066659822244222e+000	 3.733319999987733e+000	 9.240889838526552e+000
0	 1.066659822244223e+000	 3.799989999990450e+000	 9.236024830760082e+000
0	 1.066659822244222e+000	 3.866659999993466e+000	 9.237882288307612e+000
0	 1.066659822244223e+000	 3.933329999996684e+000	 9.248997116565219e+000
0	 1.066659822244223e+000	 4.000000000000000e+000	 9.271904220929050e+000
0	 1.133319925002959e+000	 3.333299999983334e+000	 9.309705653217330e+000
0	 1.133319925002959e+000	 3.399969999982149e+000	 9.326364567156215e+000
0	 1.133319925002959e+000	 3.466639999981866e+000	 9.332746673141005e+000
0	 1.133319925002959e+000	 3.533309999982382e+000	 9.331436490941217e+000
0	 1.133319925002959e+000	 3.599979999983600e+000	 9.325018540326465e+000
0	 1.133319925002959e+000	 3.666649999985416e+000	 9.316077341066309e+000
0	 1.133319925002959e+000	 3.733319999987733e+000	 9.307197412930405e+000
0	 1.133319925002959e+000	 3.799989999990450e+000	 9.300963275688389e+000
0	 1.133319925002959e+000	 3.866659999993466e+000	 9.299959449109961e+000
0	 1.133319925002959e+000	 3.933329999996684e+000	 9.306770452964814e+000
0	 1.133319925002959e+000	 4.000000000000000e+000	 9.323980807022695e+000
0	 1.199979977769445e+000	 3.333299999983334e+000	 9.356217828560720e+000
0	 1.199979977769446e+000	 3.399969999982150e+000	 9.376591955884180e+000
0	 1.199979977769445e+000	 3.466639999981866e+000	 9.386154882158381e+000
0	 1.199979977769445e+000	 3.533309999982383e+000	 9.387421219245814e+000
0	 1.199979977769445e+000	 3.599979999983599e+000	 9.382905579009004e+000
0	 1.199979977769445e+000	 3.666649999985416e+000	 9.375122573310499e+000
0	 1.199979977769445e+000	 3.733319999987733e+000	 9.366586814012843e+000
0	 1.199979977769445e+000	 3.799989999990450e+000	 9.359812912978617e+000
0	 1.199979977769445e+000	 3.866659999993466e+000	 9.357315482070430e+000
0	 1.199979977769445e+000	 3.933329999996684e+000	 9.361609133150898e+000
0	 1.199979977769445e+000	 4.000000000000000e+000	 9.375208478082669e+000
0	 1.266639997208098e+000	 3.333299999983334e+000	 9.405900364944939e+000
0	 1.266639997208098e+000	 3.399969999982151e+000	 9.426232568076085e+000
0	 1.266639997208098e+000	 3.466639999981867e+000	 9.436298015099141e+000
0	 1.266639997208098e+000	 3.533309999982383e+000	 9.438421887517178e+000
0	 1.266639997208098e+000	 3.599979999983599e+000	 9.434929366833270e+000
0	 1.266639997208098e+000	 3.666649999985415e+000	 9.428145634550511e+000
0	 1.266639997208098e+000	 3.733319999987732e+000	 9.420395872172021e+000
0	 1.266639997208098e+000	 3.799989999990451e+000	 9.414005261200920e+000
0	 1.266639997208098e+000	 3.866659999993466e+000	 9.411298983140355e+000
0	 1.266639997208098e+000	 3.933329999996684e+000	 9.414602219493508e+000
0	 1.266639997208098e+000	 4.000000000000001e+000	 9.426240151763544e+000
0	 1.333299999983334e+000	 3.333299999983334e+000	 9.455820156199261e+000
0	 1.333299999983334e+000	 3.399969999982149e+000	 9.473506647353865e+000
0	 1.333299999983334e+000	 3.466639999981867e+000	 9.482373054716149e+000
0	 1.333299999983334e+000	 3.533309999982383e+000	 9.484435606984961e+000
0	 1.333299999983334e+000	 3.599979999983599e+000	 9.481710532859180e+000
0	 1.333299999983334e+000	 3.666649999985416e+000	 9.476214061037702e+000
0	 1.333299999983334e+000	 3.733319999987733e+000	 9.469962420219424e+000
0	 1.333299999983334e+000	 3.799989999990450e+000	 9.464971839103280e+000
0	 1.333299999983334e+000	 3.866659999993467e+000	 9.463258546388206e+000
0	 1.333299999983334e+000	 3.933329999996683e+000	 9.466838770773174e+000
0	 1.333299999983334e+000	 4.000000000000000e+000	 9.477728740957158e+000
0	 6.666972226472175e-001	 4.000000000000001e+000	 8.905053499915217e+000
0	 6.666972226472178e-001	 4.066670000003317e+000	 9.039642031362606e+000
0	 6.666972226472177e-001	 4.133340000006535e+000	 9.156698145415499e+000
0	 6.666972226472177e-001	 4.200010000009550e+000	 9.256308460963032e+000
0	 6.666972226472177e-001	 4.266680000012267e+000	 9.338559596894186e+000
0	 6.666972226472175e-001	 4.333350000014583e+000	 9.403538172097781e+000
0	 6.666972226472175e-001	 4.400020000016400e+000	 9.451330805462499e+000
0	 6.666972226472175e-001	 4.466690000017618e+000	 9.482024115876838e+000
0	 6.666972226472177e-001	 4.533360000018134e+000	 9.495704722229199e+000
0	 6.666972226472177e-001	 4.600030000017851e+000	 9.492459243407778e+000
0	 6.666972226472178e-001	 4.666700000016666e+000	 9.472374298300618e+000
0	 7.333579753122048e-001	 4.000000000000002e+000	 8.975935113661572e+000
0	 7.333579753122047e-001	 4.066670000003317e+000	 9.083066141228358e+000
0	 7.333579753122047e-001	 4.133340000006533e+000	 9.178564380491856e+000
0	 7.333579753122049e-001	 4.200010000009551e+000	 9.262048517567553e+000
0	 7.333579753122048e-001	 4.266680000012269e+000	 9.333137238570778e+000
0	 7.333579753122047e-001	 4.333350000014584e+000	 9.391449229616791e+000
0	 7.333579753122049e-001	 4.400020000016401e+000	 9.436603176820668e+000
0	 7.333579753122048e-001	 4.466690000017619e+000	 9.468217766297414e+000
0	 7.333579753122048e-001	 4.533360000018134e+000	 9.485911684161883e+000
0	 7.333579753122048e-001	 4.600030000017851e+000	 9.489303616528822e+000
0	 7.333579753122047e-001	 4.666700000016665e+000	 9.478012249512839e+000
0	 8.000185779984418e-001	 4.000000000000001e+000	 9.042050206433530e+000
0	 8.000185779984417e-001	 4.066670000003316e+000	 9.126507340871550e+000
0	 8.000185779984416e-001	 4.133340000006532e+000	 9.204164659134829e+000
0	 8.000185779984419e-001	 4.200010000009551e+000	 9.274248755217355e+000
0	 8.000185779984417e-001	 4.266680000012266e+000	 9.335986223113078e+000
0	 8.000185779984419e-001	 4.333350000014585e+000	 9.388603656815795e+000
0	 8.000185779984417e-001	 4.400020000016400e+000	 9.431327650319226e+000
0	 8.000185779984417e-001	 4.466690000017619e+000	 9.463384797617005e+000
0	 8.000185779984417e-001	 4.533360000018134e+000	 9.484001692702648e+000
0	 8.000185779984419e-001	 4.600030000017849e+000	 9.492404929569590e+000
0	 8.000185779984419e-001	 4.666700000016666e+000	 9.487821102211163e+000
0	 8.666790473703455e-001	 4.000000000000001e+000	 9.104051724460296e+000
0	 8.666790473703453e-001	 4.066670000003318e+000	 9.170133350332812e+000
0	 8.666790473703454e-001	 4.133340000006533e+000	 9.233259913855360e+000
0	 8.666790473703454e-001	 4.200010000009550e+000	 9.292341758330194e+000
0	 8.666790473703454e-001	 4.266680000012267e+000	 9.346289227059524e+000
0	 8.666790473703457e-001	 4.333350000014586e+000	 9.394012663345459e+000
0	 8.666790473703452e-001	 4.400020000016400e+000	 9.434422410490035e+000
0	 8.666790473703454e-001	 4.466690000017617e+000	 9.466428811795206e+000
0	 8.666790473703456e-001	 4.533360000018134e+000	 9.488942210562851e+000
0	 8.666790473703452e-001	 4.600030000017849e+000	 9.500872950094774e+000
0	 8.666790473703454e-001	 4.666700000016665e+000	 9.501131373692688e+000
0	 9.333394000923324e-001	 4.000000000000000e+000	 9.162592609209007e+000
0	 9.333394000923323e-001	 4.066670000003316e+000	 9.214111884381195e+000
0	 9.333394000923321e-001	 4.133340000006535e+000	 9.265611071982189e+000
0	 9.333394000923322e-001	 4.200010000009551e+000	 9.315760106715986e+000
0	 9.333394000923320e-001	 4.266680000012266e+000	 9.363228923286540e+000
0	 9.333394000923321e-001	 4.333350000014583e+000	 9.406687456397723e+000
0	 9.333394000923320e-001	 4.400020000016400e+000	 9.444805640753357e+000
0	 9.333394000923323e-001	 4.466690000017618e+000	 9.476253411057169e+000
0	 9.333394000923325e-001	 4.533360000018133e+000	 9.499700702012879e+000
0	 9.333394000923320e-001	 4.600030000017850e+000	 9.513817448324106e+000
0	 9.333394000923324e-001	 4.666700000016667e+000	 9.517273584694397e+000
0	 9.999996528288191e-001	 4.000000000000000e+000	 9.218325797384447e+000
0	 9.999996528288191e-001	 4.066670000003318e+000	 9.258610652514001e+000
0	 9.999996528288190e-001	 4.133340000006534e+000	 9.300979055661701e+000
0	 9.999996528288192e-001	 4.200010000009551e+000	 9.343936375576769e+000
0	 9.999996528288191e-001	 4.266680000012268e+000	 9.385987981008391e+000
0	 9.999996528288192e-001	 4.333350000014583e+000	 9.425639240705701e+000
0	 9.999996528288192e-001	 4.400020000016402e+000	 9.461395523417762e+000
0	 9.999996528288190e-001	 4.466690000017617e+000	 9.491762197893589e+000
0	 9.999996528288191e-001	 4.533360000018134e+000	 9.515244632882181e+000
0	 9.999996528288189e-001	 4.600030000017849e+000	 9.530348197132430e+000
0	 9.999996528288191e-001	 4.666700000016665e+000	 9.535578259393219e+000
0	 1.066659822244223e+000	 4.000000000000000e+000	 9.271904220929050e+000
0	 1.066659822244223e+000	 4.066670000003318e+000	 9.303797358956688e+000
0	 1.066659822244223e+000	 4.133340000006535e+000	 9.339124781857786e+000
0	 1.066659822244222e+000	 4.200010000009551e+000	 9.376303135506543e+000
0	 1.066659822244222e+000	 4.266680000012267e+000	 9.413749065777115e+000
0	 1.066659822244223e+000	 4.333350000014584e+000	 9.449879218543625e+000
0	 1.066659822244222e+000	 4.400020000016401e+000	 9.483110239680137e+000
0	 1.066659822244223e+000	 4.466690000017619e+000	 9.511858775060674e+000
0	 1.066659822244223e+000	 4.533360000018134e+000	 9.534541470559228e+000
0	 1.066659822244223e+000	 4.600030000017851e+000	 9.549574972049742e+000
0	 1.066659822244223e+000	 4.666700000016665e+000	 9.555375925406098e+000
0	 1.133319925002959e+000	 4.000000000000000e+000	 9.323980807022695e+000
0	 1.133319925002959e+000	 4.066670000003318e+000	 9.349839702662692e+000
0	 1.133319925002959e+000	 4.133340000006535e+000	 9.379809162351707e+000
0	 1.133319925002959e+000	 4.200010000009551e+000	 9.412292952491143e+000
0	 1.133319925002959e+000	 4.266680000012268e+000	 9.445694839482371e+000
0	 1.133319925002959e+000	 4.333350000014584e+000	 9.478418589726756e+000
0	 1.133319925002959e+000	 4.400020000016400e+000	 9.508867969625577e+000
0	 1.133319925002959e+000	 4.466690000017617e+000	 9.535446745580103e+000
0	 1.133319925002959e+000	 4.533360000018133e+000	 9.556558683991570e+000
0	 1.133319925002959e+000	 4.600030000017849e+000	 9.570607551261162e+000
0	 1.133319925002959e+000	 4.666700000016667e+000	 9.575997113790004e+000
0	 1.199979977769445e+000	 4.000000000000000e+000	 9.375208478082669e+000
0	 1.199979977769445e+000	 4.066670000003318e+000	 9.396905377313383e+000
0	 1.199979977769445e+000	 4.133340000006533e+000	 9.422793103742020e+000
0	 1.199979977769445e+000	 4.200010000009551e+000	 9.451338387908177e+000
0	 1.199979977769445e+000	 4.266680000012268e+000	 9.481007960351443e+000
0	 1.199979977769445e+000	 4.333350000014583e+000	 9.510268551611334e+000
0	 1.199979977769445e+000	 4.400020000016402e+000	 9.537586892227395e+000
0	 1.199979977769446e+000	 4.466690000017618e+000	 9.561429712739074e+000
0	 1.199979977769445e+000	 4.533360000018133e+000	 9.580263743685800e+000
0	 1.199979977769445e+000	 4.600030000017851e+000	 9.592555715606981e+000
0	 1.199979977769445e+000	 4.666700000016665e+000	 9.596772359041990e+000
0	 1.266639997208098e+000	 4.000000000000001e+000	 9.426240151763544e+000
0	 1.266639997208098e+000	 4.066670000003318e+000	 9.445162071317924e+000
0	 1.266639997208098e+000	 4.133340000006534e+000	 9.467837507444479e+000
0	 1.266639997208098e+000	 4.200010000009551e+000	 9.492871998526960e+000
0	 1.266639997208098e+000	 4.266680000012267e+000	 9.518871082949092e+000
0	 1.266639997208098e+000	 4.333350000014585e+000	 9.544440299094577e+000
0	 1.266639997208098e+000	 4.400020000016401e+000	 9.568185185347060e+000
0	 1.266639997208098e+000	 4.466690000017618e+000	 9.588711280090180e+000
0	 1.266639997208098e+000	 4.533360000018133e+000	 9.604624121707531e+000
0	 1.266639997208098e+000	 4.600030000017850e+000	 9.614529248582677e+000
0	 1.266639997208098e+000	 4.666700000016666e+000	 9.617032199099144e+000
0	 1.333299999983334e+000	 4.000000000000000e+000	 9.477728740957160e+000
0	 1.333299999983334e+000	 4.066670000003317e+000	 9.494777467813261e+000
0	 1.333299999983334e+000	 4.133340000006535e+000	 9.514703269691989e+000
0	 1.333299999983334e+000	 4.200010000009550e+000	 9.536326336508422e+000
0	 1.333299999983334e+000	 4.266680000012268e+000	 9.558466858177587e+000
0	 1.333299999983334e+000	 4.333350000014584e+000	 9.579945024614505e+000
0	 1.333299999983334e+000	 4.400020000016402e+000	 9.599581025734150e+000
0	 1.333299999983334e+000	 4.466690000017619e+000	 9.616195051451474e+000
0	 1.333299999983334e+000	 4.533360000018134e+000	 9.628607291681414e+000
0	 1.333299999983334e+000	 4.600030000017851e+000	 9.635637936338847e+000
0	 1.333299999983334e+000	 4.666700000016667e+000	 9.636107175338649e+000
0	 6.666972226472178e-001	 4.666700000016666e+000	 9.472374298300620e+000
0	 6.666972226472177e-001	 4.733360000014533e+000	 9.447195919450506e+000
0	 6.666972226472177e-001	 4.800020000011600e+000	 9.428586554967405e+000
0	 6.666972226472178e-001	 4.866680000008067e+000	 9.416520260561670e+000
0	 6.666972226472175e-001	 4.933340000004133e+000	 9.410971091943573e+000
0	 6.666972226472174e-001	 4.999999999999999e+000	 9.411913104823238e+000
0	 6.666972226472178e-001	 5.066659999995868e+000	 9.419320354910701e+000
0	 6.666972226472177e-001	 5.133319999991935e+000	 9.433166897915880e+000
0	 6.666972226472178e-001	 5.199979999988400e+000	 9.453426789548590e+000
0	 6.666972226472177e-001	 5.266639999985468e+000	 9.480074085518497e+000
0	 6.666972226472175e-001	 5.333299999983334e+000	 9.513082841535203e+000
0	 7.333579753122047e-001	 4.666700000016665e+000	 9.478012249512840e+000
0	 7.333579753122049e-001	 4.733360000014534e+000	 9.461245337569284e+000
0	 7.333579753122046e-001	 4.800020000011598e+000	 9.448619137863952e+000
0	 7.333579753122049e-001	 4.866680000008067e+000	 9.440373532209458e+000
0	 7.333579753122049e-001	 4.933340000004135e+000	 9.436748402418333e+000
0	 7.333579753122050e-001	 5.000000000000000e+000	 9.437983630302981e+000
0	 7.333579753122047e-001	 5.066659999995867e+000	 9.444319097675745e+000
0	 7.333579753122048e-001	 5.133319999991935e+000	 9.455994686348864e+000
0	 7.333579753122048e-001	 5.199979999988400e+000	 9.473250278134460e+000
0	 7.333579753122052e-001	 5.266639999985467e+000	 9.496325754844591e+000
0	 7.333579753122048e-001	 5.333299999983334e+000	 9.525460998291196e+000
0	 8.000185779984419e-001	 4.666700000016666e+000	 9.487821102211164e+000
0	 8.000185779984421e-001	 4.733360000014534e+000	 9.477430107789729e+000
0	 8.000185779984419e-001	 4.800020000011602e+000	 9.469232056417454e+000
0	 8.000185779984418e-001	 4.866680000008066e+000	 9.463688962079850e+000
0	 8.000185779984419e-001	 4.933340000004133e+000	 9.461262838762336e+000
0	 8.000185779984418e-001	 5.000000000000000e+000	 9.462415700450274e+000
0	 8.000185779984419e-001	 5.066659999995867e+000	 9.467609561128914e+000
0	 8.000185779984420e-001	 5.133319999991934e+000	 9.477306434783445e+000
0	 8.000185779984418e-001	 5.199979999988401e+000	 9.491968335398946e+000
0	 8.000185779984418e-001	 5.266639999985467e+000	 9.512057276960453e+000
0	 8.000185779984419e-001	 5.333299999983336e+000	 9.538035273452884e+000
0	 8.666790473703454e-001	 4.666700000016665e+000	 9.501131373692692e+000
0	 8.666790473703455e-001	 4.733360000014535e+000	 9.495322721120825e+000
0	 8.666790473703452e-001	 4.800020000011600e+000	 9.490203855601385e+000
0	 8.666790473703454e-001	 4.866680000008067e+000	 9.486415228918308e+000
0	 8.666790473703455e-001	 4.933340000004133e+000	 9.484597292855431e+000
0	 8.666790473703455e-001	 5.000000000000000e+000	 9.485390499196528e+000
0	 8.666790473703454e-001	 5.066659999995865e+000	 9.489435299725306e+000
0	 8.666790473703455e-001	 5.133319999991934e+000	 9.497372146225384e+000
0	 8.666790473703455e-001	 5.199979999988401e+000	 9.509841490480309e+000
0	 8.666790473703455e-001	 5.266639999985467e+000	 9.527483784273558e+000
0	 8.666790473703454e-001	 5.333299999983334e+000	 9.550939479388534e+000
0	 9.333394000923324e-001	 4.666700000016667e+000	 9.517273584694401e+000
0	 9.333394000923324e-001	 4.733360000014534e+000	 9.514495672401164e+000
0	 9.333394000923323e-001	 4.800020000011600e+000	 9.511313084249315e+000
0	 9.333394000923324e-001	 4.866680000008067e+000	 9.508501015067118e+000
0	 9.333394000923324e-001	 4.933340000004133e+000	 9.506834659682719e+000
0	 9.333394000923323e-001	 5.000000000000000e+000	 9.507089212924267e+000
0	 9.333394000923324e-001	 5.066659999995867e+000	 9.510039869619781e+000
0	 9.333394000923325e-001	 5.133319999991934e+000	 9.516461824597265e+000
0	 9.333394000923323e-001	 5.199979999988401e+000	 9.527130272684611e+000
0	 9.333394000923325e-001	 5.266639999985470e+000	 9.542820408709641e+000
0	 9.333394000923324e-001	 5.333299999983335e+000	 9.564307427500172e+000
0	 9.999996528288191e-001	 4.666700000016665e+000	 9.535578259393223e+000
0	 9.999996528288191e-001	 4.733360000014534e+000	 9.534521460299077e+000
0	 9.999996528288190e-001	 4.800020000011599e+000	 9.532338295054993e+000
0	 9.999996528288191e-001	 4.866680000008067e+000	 9.529895006465408e+000
0	 9.999996528288193e-001	 4.933340000004134e+000	 9.528057837334687e+000
0	 9.999996528288190e-001	 4.999999999999999e+000	 9.527693030467139e+000
0	 9.999996528288192e-001	 5.066659999995866e+000	 9.529666828667025e+000
0	 9.999996528288191e-001	 5.133319999991935e+000	 9.534845474738509e+000
0	 9.999996528288192e-001	 5.199979999988400e+000	 9.544095211485722e+000
0	 9.999996528288192e-001	 5.266639999985466e+000	 9.558282281712716e+000
0	 9.999996528288190e-001	 5.333299999983333e+000	 9.578272928223448e+000
0	 1.066659822244223e+000	 4.666700000016665e+000	 9.555375925406098e+000
0	 1.066659822244223e+000	 4.733360000014534e+000	 9.554972587312644e+000
0	 1.066659822244223e+000	 4.800020000011601e+000	 9.553058044572381e+000
0	 1.066659822244222e+000	 4.866680000008065e+000	 9.550545892649247e+000
0	 1.066659822244223e+000	 4.933340000004134e+000	 9.548349727007166e+000
0	 1.066659822244223e+000	 5.000000000000001e+000	 9.547383143109990e+000
0	 1.066659822244223e+000	 5.066659999995867e+000	 9.548559736421494e+000
0	 1.066659822244223e+000	 5.133319999991935e+000	 9.552793102405397e+000
0	 1.066659822244222e+000	 5.199979999988401e+000	 9.560996836525339e+000
0	 1.066659822244223e+000	 5.266639999985467e+000	 9.574084534244941e+000
0	 1.066659822244222e+000	 5.333299999983333e+000	 9.592969791027716e+000
0	 1.133319925002959e+000	 4.666700000016667e+000	 9.575997113790004e+000
0	 1.133319925002959e+000	 4.733360000014533e+000	 9.575421559769767e+000
0	 1.133319925002959e+000	 4.800020000011601e+000	 9.573250893215697e+000
0	 1.133319925002959e+000	 4.866680000008065e+000	 9.570402366751667e+000
0	 1.133319925002959e+000	 4.933340000004135e+000	 9.567793233001472e+000
0	 1.133319925002959e+000	 5.000000000000000e+000	 9.566340744588867e+000
0	 1.133319925002959e+000	 5.066659999995867e+000	 9.566962154137507e+000
0	 1.133319925002959e+000	 5.133319999991935e+000	 9.570574714271006e+000
0	 1.133319925002959e+000	 5.199979999988400e+000	 9.578095677612925e+000
0	 1.133319925002959e+000	 5.266639999985467e+000	 9.590442296786751e+000
0	 1.133319925002959e+000	 5.333299999983335e+000	 9.608531824415902e+000
0	 1.199979977769445e+000	 4.666700000016665e+000	 9.596772359041992e+000
0	 1.199979977769445e+000	 4.733360000014533e+000	 9.595440887828145e+000
0	 1.199979977769445e+000	 4.800020000011599e+000	 9.592695405259477e+000
0	 1.199979977769446e+000	 4.866680000008067e+000	 9.589413125502665e+000
0	 1.199979977769445e+000	 4.933340000004133e+000	 9.586471262724322e+000
0	 1.199979977769445e+000	 4.999999999999999e+000	 9.584747031091007e+000
0	 1.199979977769445e+000	 5.066659999995866e+000	 9.585117644769182e+000
0	 1.199979977769445e+000	 5.133319999991933e+000	 9.588460317925296e+000
0	 1.199979977769445e+000	 5.199979999988399e+000	 9.595652264725704e+000
0	 1.199979977769445e+000	 5.266639999985467e+000	 9.607570699336716e+000
0	 1.199979977769445e+000	 5.333299999983335e+000	 9.625092835924543e+000
0	 1.266639997208098e+000	 4.666700000016666e+000	 9.617032199099146e+000
0	 1.266639997208098e+000	 4.733360000014533e+000	 9.614603085475361e+000
0	 1.266639997208098e+000	 4.800020000011601e+000	 9.611170148838552e+000
0	 1.266639997208098e+000	 4.866680000008067e+000	 9.607526869229258e+000
0	 1.266639997208098e+000	 4.933340000004135e+000	 9.604466726687910e+000
0	 1.266639997208098e+000	 4.999999999999999e+000	 9.602783201254882e+000
0	 1.266639997208098e+000	 5.066659999995866e+000	 9.603269772970512e+000
0	 1.266639997208098e+000	 5.133319999991934e+000	 9.606719921875035e+000
0	 1.266639997208098e+000	 5.199979999988400e+000	 9.613927128008681e+000
0	 1.266639997208098e+000	 5.266639999985467e+000	 9.625684871411567e+000
0	 1.266639997208098e+000	 5.333299999983331e+000	 9.642786632123759e+000
0	 1.333299999983334e+000	 4.666700000016667e+000	 9.636107175338651e+000
0	 1.333299999983334e+000	 4.733360000014533e+000	 9.632480670528814e+000
0	 1.333299999983334e+000	 4.800020000011600e+000	 9.628453695948085e+000
0	 1.333299999983334e+000	 4.866680000008067e+000	 9.624692301855461e+000
0	 1.333299999983334e+000	 4.933340000004134e+000	 9.621862538509859e+000
0	 1.333299999983334e+000	 5.000000000000000e+000	 9.620630456170192e+000
0	 1.333299999983334e+000	 5.066659999995867e+000	 9.621662105095261e+000
0	 1.333299999983334e+000	 5.133319999991934e+000	 9.625623535543824e+000
0	 1.333299999983334e+000	 5.199979999988400e+000	 9.633180797774587e+000
0	 1.333299999983334e+000	 5.266639999985467e+000	 9.644999942046178e+000
0	 1.333299999983334e+000	 5.333299999983335e+000	 9.661747018617183e+000
0	 6.666972226472175e-001	 5.333299999983334e+000	 9.513082841535201e+000
0	 6.666972226472177e-001	 5.399969999982150e+000	 9.547523296608160e+000
0	 6.666972226472175e-001	 5.466639999981865e+000	 9.578475942354725e+000
0	 6.666972226472177e-001	 5.533309999982382e+000	 9.605946496401556e+000
0	 6.666972226472177e-001	 5.599979999983599e+000	 9.629940676375291e+000
0	 6.666972226472174e-001	 5.666649999985414e+000	 9.650464199902551e+000
0	 6.666972226472177e-001	 5.733319999987732e+000	 9.667522784609902e+000
0	 6.666972226472177e-001	 5.799989999990449e+000	 9.681122148123892e+000
0	 6.666972226472178e-001	 5.866659999993467e+000	 9.691268008071027e+000
0	 6.666972226472177e-001	 5.933329999996684e+000	 9.697966082077789e+000
0	 6.666972226472177e-001	 6.000000000000000e+000	 9.701222087770628e+000
0	 7.333579753122048e-001	 5.333299999983334e+000	 9.525460998291196e+000
0	 7.333579753122048e-001	 5.399969999982151e+000	 9.556510126278583e+000
0	 7.333579753122047e-001	 5.466639999981865e+000	 9.585070104856385e+000
0	 7.333579753122048e-001	 5.533309999982381e+000	 9.611009599944939e+000
0	 7.333579753122049e-001	 5.599979999983600e+000	 9.634197277464555e+000
0	 7.333579753122046e-001	 5.666649999985414e+000	 9.654501803335501e+000
0	 7.333579753122048e-001	 5.733319999987733e+000	 9.671791843478045e+000
0	 7.333579753122049e-001	 5.799989999990450e+000	 9.685936063812410e+000
0	 7.333579753122047e-001	 5.866659999993466e+000	 9.696803130258786e+000
0	 7.333579753122047e-001	 5.933329999996683e+000	 9.704261708737318e+000
0	 7.333579753122048e-001	 6.000000000000002e+000	 9.708180465168168e+000
0	 8.000185779984419e-001	 5.333299999983336e+000	 9.538035273452881e+000
0	 8.000185779984421e-001	 5.399969999982150e+000	 9.566353814989817e+000
0	 8.000185779984415e-001	 5.466639999981865e+000	 9.592984162533050e+000
0	 8.000185779984418e-001	 5.533309999982385e+000	 9.617681072086242e+000
0	 8.000185779984419e-001	 5.599979999983599e+000	 9.640199299652974e+000
0	 8.000185779984419e-001	 5.666649999985417e+000	 9.660293601236827e+000
0	 8.000185779984418e-001	 5.733319999987733e+000	 9.677718732841344e+000
0	 8.000185779984419e-001	 5.799989999990450e+000	 9.692229450470061e+000
0	 8.000185779984416e-001	 5.866659999993466e+000	 9.703580510126443e+000
0	 8.000185779984419e-001	 5.933329999996683e+000	 9.711526667813955e+000
0	 8.000185779984420e-001	 6.000000000000001e+000	 9.715822679536057e+000
0	 8.666790473703454e-001	 5.333299999983334e+000	 9.550939479388534e+000
0	 8.666790473703452e-001	 5.399969999982148e+000	 9.577096060644269e+000
0	 8.666790473703453e-001	 5.466639999981866e+000	 9.602182063515983e+000
0	 8.666790473703455e-001	 5.533309999982383e+000	 9.625861476113157e+000
0	 8.666790473703454e-001	 5.599979999983598e+000	 9.647798286545255e+000
0	 8.666790473703456e-001	 5.666649999985415e+000	 9.667656482921720e+000
0	 8.666790473703454e-001	 5.733319999987732e+000	 9.685100053351984e+000
0	 8.666790473703453e-001	 5.799989999990449e+000	 9.699792985945399e+000
0	 8.666790473703452e-001	 5.866659999993465e+000	 9.711399268811331e+000
0	 8.666790473703455e-001	 5.933329999996685e+000	 9.719582890059115e+000
0	 8.666790473703456e-001	 6.000000000000002e+000	 9.724007837798059e+000
0	 9.333394000923324e-001	 5.333299999983335e+000	 9.564307427500170e+000
0	 9.333394000923320e-001	 5.399969999982149e+000	 9.588778559907365e+000
0	 9.333394000923324e-001	 5.466639999981867e+000	 9.612627754624521e+000
0	 9.333394000923321e-001	 5.533309999982382e+000	 9.635451374087785e+000
0	 9.333394000923323e-001	 5.599979999983601e+000	 9.656845780733303e+000
0	 9.333394000923322e-001	 5.666649999985417e+000	 9.676407336997192e+000
0	 9.333394000923321e-001	 5.733319999987733e+000	 9.693732405315531e+000
0	 9.333394000923323e-001	 5.799989999990450e+000	 9.708417348124362e+000
0	 9.333394000923324e-001	 5.866659999993468e+000	 9.720058527859770e+000
0	 9.333394000923324e-001	 5.933329999996683e+000	 9.728252306957701e+000
0	 9.333394000923322e-001	 5.999999999999998e+000	 9.732595047854169e+000
0	 9.999996528288190e-001	 5.333299999983333e+000	 9.578272928223450e+000
0	 9.999996528288190e-001	 5.399969999982149e+000	 9.601443008207413e+000
0	 9.999996528288192e-001	 5.466639999981866e+000	 9.624285181366096e+000
0	 9.999996528288191e-001	 5.533309999982384e+000	 9.646351326846647e+000
0	 9.999996528288190e-001	 5.599979999983600e+000	 9.667193323796234e+000
0	 9.999996528288191e-001	 5.666649999985416e+000	 9.686363051361965e+000
0	 9.999996528288192e-001	 5.733319999987734e+000	 9.703412388690961e+000
0	 9.999996528288192e-001	 5.799989999990449e+000	 9.717893214930287e+000
0	 9.999996528288192e-001	 5.866659999993467e+000	 9.729357409226987e+000
0	 9.999996528288192e-001	 5.933329999996683e+000	 9.737356850728085e+000
0	 9.999996528288192e-001	 6.000000000000000e+000	 9.741443418580577e+000
0	 1.066659822244222e+000	 5.333299999983333e+000	 9.592969791027716e+000
0	 1.066659822244222e+000	 5.399969999982149e+000	 9.615131099735645e+000
0	 1.066659822244222e+000	 5.466639999981865e+000	 9.637118287936170e+000
0	 1.066659822244223e+000	 5.533309999982383e+000	 9.658461894000618e+000
0	 1.066659822244223e+000	 5.599979999983600e+000	 9.678692456300320e+000
0	 1.066659822244222e+000	 5.666649999985417e+000	 9.697340513206573e+000
0	 1.066659822244223e+000	 5.733319999987733e+000	 9.713936603090653e+000
0	 1.066659822244223e+000	 5.799989999990450e+000	 9.728011264323797e+000
0	 1.066659822244222e+000	 5.866659999993467e+000	 9.739095035277238e+000
0	 1.066659822244223e+000	 5.933329999996684e+000	 9.746718454322163e+000
0	 1.066659822244223e+000	 6.000000000000000e+000	 9.750412059829738e+000
0	 1.133319925002959e+000	 5.333299999983335e+000	 9.608531824415904e+000
0	 1.133319925002959e+000	 5.399969999982148e+000	 9.629884527446112e+000
0	 1.133319925002959e+000	 5.466639999981866e+000	 9.651091017218180e+000
0	 1.133319925002959e+000	 5.533309999982384e+000	 9.671683633934885e+000
0	 1.133319925002959e+000	 5.599979999983599e+000	 9.691194717798988e+000
0	 1.133319925002959e+000	 5.666649999985415e+000	 9.709156609013228e+000
0	 1.133319925002959e+000	 5.733319999987733e+000	 9.725101647780312e+000
0	 1.133319925002959e+000	 5.799989999990451e+000	 9.738562174302921e+000
0	 1.133319925002959e+000	 5.866659999993467e+000	 9.749070528783699e+000
0	 1.133319925002959e+000	 5.933329999996683e+000	 9.756159051425302e+000
0	 1.133319925002959e+000	 6.000000000000000e+000	 9.759360082430314e+000
0	 1.199979977769445e+000	 5.333299999983335e+000	 9.625092835924541e+000
0	 1.199979977769445e+000	 5.399969999982148e+000	 9.645744983055696e+000
0	 1.199979977769445e+000	 5.466639999981866e+000	 9.666167310783532e+000
0	 1.199979977769445e+000	 5.533309999982383e+000	 9.685917103808942e+000
0	 1.199979977769445e+000	 5.599979999983600e+000	 9.704551646832762e+000
0	 1.199979977769445e+000	 5.666649999985417e+000	 9.721628224555840e+000
0	 1.199979977769445e+000	 5.733319999987733e+000	 9.736704121678981e+000
0	 1.199979977769445e+000	 5.799989999990449e+000	 9.749336622902931e+000
0	 1.199979977769445e+000	 5.866659999993467e+000	 9.759083012928493e+000
0	 1.199979977769445e+000	 5.933329999996683e+000	 9.765500576456352e+000
0	 1.199979977769445e+000	 6.000000000000000e+000	 9.768146598187242e+000
0	 1.266639997208098e+000	 5.333299999983331e+000	 9.642786632123757e+000
0	 1.266639997208098e+000	 5.399969999982151e+000	 9.662754157044091e+000
0	 1.266639997208098e+000	 5.466639999981866e+000	 9.682311108891586e+000
0	 1.266639997208098e+000	 5.533309999982383e+000	 9.701062859556556e+000
0	 1.266639997208098e+000	 5.599979999983598e+000	 9.718614780929281e+000
0	 1.266639997208098e+000	 5.666649999985416e+000	 9.734572244900027e+000
0	 1.266639997208098e+000	 5.733319999987733e+000	 9.748540623359050e+000
0	 1.266639997208098e+000	 5.799989999990449e+000	 9.760125288196548e+000
0	 1.266639997208098e+000	 5.866659999993467e+000	 9.768931611302699e+000
0	 1.266639997208098e+000	 5.933329999996684e+000	 9.774564964567718e+000
0	 1.266639997208098e+000	 5.999999999999999e+000	 9.776630719881698e+000
0	 1.333299999983334e+000	 5.333299999983335e+000	 9.661747018617181e+000
0	 1.333299999983334e+000	 5.399969999982149e+000	 9.680953738653772e+000
0	 1.333299999983334e+000	 5.466639999981867e+000	 9.699486350489607e+000
0	 1.333299999983334e+000	 5.533309999982383e+000	 9.717021455885764e+000
0	 1.333299999983334e+000	 5.599979999983599e+000	 9.733235656603238e+000
0	 1.333299999983334e+000	 5.666649999985414e+000	 9.747805554403065e+000
0	 1.333299999983334e+000	 5.733319999987733e+000	 9.760407751046230e+000
0	 1.333299999983334e+000	 5.799989999990448e+000	 9.770718848293679e+000
0	 1.333299999983334e+000	 5.866659999993467e+000	 9.778415447906369e+000
0	 1.333299999983334e+000	 5.933329999996684e+000	 9.783174151645213e+000
0	 1.333299999983334e+000	 6.000000000000000e+000	 9.784671561271084e+000
0	 6.666972226472177e-001	 6.000000000000000e+000	 9.701222087770628e+000
0	 6.666972226472178e-001	 6.066670000003318e+000	 9.703339526503617e+000
0	 6.666972226472178e-001	 6.133340000006534e+000	 9.706613090170203e+000
0	 6.666972226472177e-001	 6.200010000009551e+000	 9.711035282205806e+000
0	 6.666972226472178e-001	 6.266680000012268e+000	 9.716598606045883e+000
0	 6.666972226472175e-001	 6.333350000014583e+000	 9.723295565125898e+000
0	 6.666972226472175e-001	 6.400020000016400e+000	 9.731118662881308e+000
0	 6.666972226472177e-001	 6.466690000017618e+000	 9.740060402747593e+000
0	 6.666972226472174e-001	 6.533360000018134e+000	 9.750113288160231e+000
0	 6.666972226472178e-001	 6.600030000017851e+000	 9.761269822554707e+000
0	 6.666972226472178e-001	 6.666700000016667e+000	 9.773522509366558e+000
0	 7.333579753122048e-001	 6.000000000000002e+000	 9.708180465168168e+000
0	 7.333579753122047e-001	 6.066670000003317e+000	 9.710666567922774e+000
0	 7.333579753122047e-001	 6.133340000006530e+000	 9.713955170499292e+000
0	 7.333579753122049e-001	 6.200010000009551e+000	 9.718106916507901e+000
0	 7.333579753122048e-001	 6.266680000012270e+000	 9.723182449558724e+000
0	 7.333579753122047e-001	 6.333350000014585e+000	 9.729242413261959e+000
0	 7.333579753122048e-001	 6.400020000016402e+000	 9.736347451227772e+000
0	 7.333579753122049e-001	 6.466690000017619e+000	 9.744558207066344e+000
0	 7.333579753122047e-001	 6.533360000018132e+000	 9.753935324387896e+000
0	 7.333579753122048e-001	 6.600030000017850e+000	 9.764539446802599e+000
0	 7.333579753122049e-001	 6.666700000016668e+000	 9.776431217920710e+000
0	 8.000185779984420e-001	 6.000000000000001e+000	 9.715822679536057e+000
0	 8.000185779984419e-001	 6.066670000003318e+000	 9.718436566936983e+000
0	 8.000185779984416e-001	 6.133340000006532e+000	 9.721578017421127e+000
0	 8.000185779984418e-001	 6.200010000009551e+000	 9.725364285632105e+000
0	 8.000185779984418e-001	 6.266680000012267e+000	 9.729912626213503e+000
0	 8.000185779984419e-001	 6.333350000014585e+000	 9.735340293808976e+000
0	 8.000185779984418e-001	 6.400020000016401e+000	 9.741764543062127e+000
0	 8.000185779984418e-001	 6.466690000017617e+000	 9.749302628616601e+000
0	 8.000185779984418e-001	 6.533360000018135e+000	 9.758071805116035e+000
0	 8.000185779984420e-001	 6.600030000017851e+000	 9.768189327204123e+000
0	 8.000185779984418e-001	 6.666700000016666e+000	 9.779772449524513e+000
0	 8.666790473703456e-001	 6.000000000000002e+000	 9.724007837798059e+000
0	 8.666790473703456e-001	 6.066670000003319e+000	 9.726550085696115e+000
0	 8.666790473703452e-001	 6.133340000006531e+000	 9.729417839628251e+000
0	 8.666790473703453e-001	 6.200010000009550e+000	 9.732773436014352e+000
0	 8.666790473703455e-001	 6.266680000012268e+000	 9.736779211274232e+000
0	 8.666790473703453e-001	 6.333350000014582e+000	 9.741597501827757e+000
0	 8.666790473703453e-001	 6.400020000016399e+000	 9.747390644094804e+000
0	 8.666790473703456e-001	 6.466690000017619e+000	 9.754320974495240e+000
0	 8.666790473703454e-001	 6.533360000018134e+000	 9.762550829448992e+000
0	 8.666790473703452e-001	 6.600030000017849e+000	 9.772242545375923e+000
0	 8.666790473703456e-001	 6.666700000016668e+000	 9.783558458695964e+000
0	 9.333394000923322e-001	 5.999999999999998e+000	 9.732595047854169e+000
0	 9.333394000923323e-001	 6.066670000003318e+000	 9.734907687461131e+000
0	 9.333394000923321e-001	 6.133340000006531e+000	 9.737410846960062e+000
0	 9.333394000923323e-001	 6.200010000009551e+000	 9.740300415191145e+000
0	 9.333394000923323e-001	 6.266680000012268e+000	 9.743772280994625e+000
0	 9.333394000923324e-001	 6.333350000014584e+000	 9.748022333210724e+000
0	 9.333394000923324e-001	 6.400020000016402e+000	 9.753246460679687e+000
0	 9.333394000923322e-001	 6.466690000017617e+000	 9.759640552241734e+000
0	 9.333394000923323e-001	 6.533360000018134e+000	 9.767400496737167e+000
0	 9.333394000923321e-001	 6.600030000017849e+000	 9.776722183006235e+000
0	 9.333394000923324e-001	 6.666700000016668e+000	 9.787801499889229e+000
0	 9.999996528288192e-001	 6.000000000000000e+000	 9.741443418580577e+000
0	 9.999996528288192e-001	 6.066670000003318e+000	 9.743409936604150e+000
0	 9.999996528288191e-001	 6.133340000006532e+000	 9.745493250402733e+000
0	 9.999996528288191e-001	 6.200010000009550e+000	 9.747911271799660e+000
0	 9.999996528288193e-001	 6.266680000012268e+000	 9.750881912618281e+000
0	 9.999996528288189e-001	 6.333350000014584e+000	 9.754623084681953e+000
0	 9.999996528288189e-001	 6.400020000016401e+000	 9.759352699814057e+000
0	 9.999996528288191e-001	 6.466690000017617e+000	 9.765288669837977e+000
0	 9.999996528288192e-001	 6.533360000018134e+000	 9.772648906577093e+000
0	 9.999996528288191e-001	 6.600030000017850e+000	 9.781651321854849e+000
0	 9.999996528288190e-001	 6.666700000016665e+000	 9.792513827494632e+000
0	 1.066659822244223e+000	 6.000000000000000e+000	 9.750412059829738e+000
0	 1.066659822244223e+000	 6.066670000003317e+000	 9.751957398608409e+000
0	 1.066659822244223e+000	 6.133340000006535e+000	 9.753601262089319e+000
0	 1.066659822244223e+000	 6.200010000009552e+000	 9.755572055577616e+000
0	 1.066659822244222e+000	 6.266680000012267e+000	 9.758098184378492e+000
0	 1.066659822244222e+000	 6.333350000014584e+000	 9.761408053797094e+000
0	 1.066659822244222e+000	 6.400020000016401e+000	 9.765730069138650e+000
0	 1.066659822244223e+000	 6.466690000017617e+000	 9.771292635708347e+000
0	 1.066659822244223e+000	 6.533360000018135e+000	 9.778324158811417e+000
0	 1.066659822244223e+000	 6.600030000017850e+000	 9.787053043753096e+000
0	 1.066659822244222e+000	 6.666700000016665e+000	 9.797707695838607e+000
0	 1.133319925002959e+000	 6.000000000000000e+000	 9.759360082430314e+000
0	 1.133319925002959e+000	 6.066670000003318e+000	 9.760450640068319e+000
0	 1.133319925002959e+000	 6.133340000006534e+000	 9.761671095299738e+000
0	 1.133319925002959e+000	 6.200010000009550e+000	 9.763248817363474e+000
0	 1.133319925002959e+000	 6.266680000012268e+000	 9.765411175498429e+000
0	 1.133319925002959e+000	 6.333350000014582e+000	 9.768385538943500e+000
0	 1.133319925002959e+000	 6.400020000016401e+000	 9.772399276937641e+000
0	 1.133319925002959e+000	 6.466690000017617e+000	 9.777679758719778e+000
0	 1.133319925002959e+000	 6.533360000018135e+000	 9.784454353528863e+000
0	 1.133319925002959e+000	 6.600030000017851e+000	 9.792950430603874e+000
0	 1.133319925002959e+000	 6.666700000016667e+000	 9.803395359183782e+000
0	 1.199979977769445e+000	 6.000000000000000e+000	 9.768146598187242e+000
0	 1.199979977769445e+000	 6.066670000003318e+000	 9.768790228689420e+000
0	 1.199979977769445e+000	 6.133340000006534e+000	 9.769638964460748e+000
0	 1.199979977769445e+000	 6.200010000009551e+000	 9.770907609096264e+000
0	 1.199979977769445e+000	 6.266680000012268e+000	 9.772810966191047e+000
0	 1.199979977769445e+000	 6.333350000014584e+000	 9.775563839340135e+000
0	 1.199979977769445e+000	 6.400020000016401e+000	 9.779381032138643e+000
0	 1.199979977769445e+000	 6.466690000017616e+000	 9.784477348181650e+000
0	 1.199979977769445e+000	 6.533360000018132e+000	 9.791067591064268e+000
0	 1.199979977769445e+000	 6.600030000017849e+000	 9.799366564381632e+000
0	 1.199979977769445e+000	 6.666700000016666e+000	 9.809589071728858e+000
0	 1.266639997208098e+000	 5.999999999999999e+000	 9.776630719881698e+000
0	 1.266639997208098e+000	 6.066670000003318e+000	 9.776876733288459e+000
0	 1.266639997208098e+000	 6.133340000006534e+000	 9.777441085145991e+000
0	 1.266639997208098e+000	 6.200010000009550e+000	 9.778514483815730e+000
0	 1.266639997208098e+000	 6.266680000012267e+000	 9.780287637659134e+000
0	 1.266639997208098e+000	 6.333350000014583e+000	 9.782951255037640e+000
0	 1.266639997208098e+000	 6.400020000016400e+000	 9.786696044312718e+000
0	 1.266639997208098e+000	 6.466690000017618e+000	 9.791712713845870e+000
0	 1.266639997208098e+000	 6.533360000018132e+000	 9.798191971998582e+000
0	 1.266639997208098e+000	 6.600030000017851e+000	 9.806324527132357e+000
0	 1.266639997208098e+000	 6.666700000016667e+000	 9.816301087608721e+000
0	 1.333299999983334e+000	 6.000000000000000e+000	 9.784671561271084e+000
0	 1.333299999983334e+000	 6.066670000003319e+000	 9.784610723793300e+000
0	 1.333299999983334e+000	 6.133340000006530e+000	 9.785013674075957e+000
0	 1.333299999983334e+000	 6.200010000009551e+000	 9.786035495662221e+000
0	 1.333299999983334e+000	 6.266680000012268e+000	 9.787831272095257e+000
0	 1.333299999983334e+000	 6.333350000014583e+000	 9.790556086918237e+000
0	 1.333299999983334e+000	 6.400020000016402e+000	 9.794365023674351e+000
0	 1.333299999983334e+000	 6.466690000017617e+000	 9.799413165906794e+000
0	 1.333299999983334e+000	 6.533360000018134e+000	 9.805855597158798e+000
0	 1.333299999983334e+000	 6.600030000017851e+000	 9.813847400973572e+000
0	 1.333299999983334e+000	 6.666700000016665e+000	 9.823543660894341e+000
0	 6.666972226472178e-001	 6.666700000016667e+000	 9.773522509366558e+000
0	 6.666972226472175e-001	 6.733360000014532e+000	 9.785897482137775e+000
0	 6.666972226472177e-001	 6.800020000011597e+000	 9.797433915660918e+000
0	 6.666972226472177e-001	 6.866680000008066e+000	 9.808138116316430e+000
0	 6.666972226472177e-001	 6.933340000004131e+000	 9.818016390484766e+000
0	 6.666972226472175e-001	 6.999999999999999e+000	 9.827075044546399e+000
0	 6.666972226472178e-001	 7.066659999995868e+000	 9.835320384881793e+000
0	 6.666972226472177e-001	 7.133319999991935e+000	 9.842758717871435e+000
0	 6.666972226472177e-001	 7.199979999988400e+000	 9.849396349895878e+000
0	 6.666972226472175e-001	 7.266639999985466e+000	 9.855239587335628e+000
0	 6.666972226472177e-001	 7.333299999983333e+000	 9.860294736571243e+000
0	 7.333579753122049e-001	 6.666700000016668e+000	 9.776431217920711e+000
0	 7.333579753122050e-001	 6.733360000014534e+000	 9.788637515599652e+000
0	 7.333579753122046e-001	 6.800020000011598e+000	 9.800131648909456e+000
0	 7.333579753122050e-001	 6.866680000008069e+000	 9.810888258447212e+000
0	 7.333579753122049e-001	 6.933340000004136e+000	 9.820881984810006e+000
0	 7.333579753122050e-001	 7.000000000000000e+000	 9.830087468594945e+000
0	 7.333579753122049e-001	 7.066659999995869e+000	 9.838479350399149e+000
0	 7.333579753122048e-001	 7.133319999991936e+000	 9.846032270819789e+000
0	 7.333579753122047e-001	 7.199979999988400e+000	 9.852720870453998e+000
0	 7.333579753122048e-001	 7.266639999985467e+000	 9.858519789898983e+000
0	 7.333579753122048e-001	 7.333299999983334e+000	 9.863403669751927e+000
0	 8.000185779984418e-001	 6.666700000016666e+000	 9.779772449524513e+000
0	 8.000185779984419e-001	 6.733360000014533e+000	 9.791836397962527e+000
0	 8.000185779984419e-001	 6.800020000011601e+000	 9.803287557943975e+000
0	 8.000185779984418e-001	 6.866680000008067e+000	 9.814074363947920e+000
0	 8.000185779984419e-001	 6.933340000004136e+000	 9.824145250453487e+000
0	 8.000185779984420e-001	 7.000000000000001e+000	 9.833448651939749e+000
0	 8.000185779984417e-001	 7.066659999995866e+000	 9.841933002885870e+000
0	 8.000185779984419e-001	 7.133319999991935e+000	 9.849546737770998e+000
0	 8.000185779984420e-001	 7.199979999988401e+000	 9.856238291074293e+000
0	 8.000185779984420e-001	 7.266639999985467e+000	 9.861956097274941e+000
0	 8.000185779984419e-001	 7.333299999983335e+000	 9.866648590852151e+000
0	 8.666790473703456e-001	 6.666700000016668e+000	 9.783558458695964e+000
0	 8.666790473703455e-001	 6.733360000014534e+000	 9.795493625185161e+000
0	 8.666790473703452e-001	 6.800020000011600e+000	 9.806890322848037e+000
0	 8.666790473703453e-001	 6.866680000008065e+000	 9.817676239765483e+000
0	 8.666790473703455e-001	 6.933340000004133e+000	 9.827779064018451e+000
0	 8.666790473703453e-001	 6.999999999999998e+000	 9.837126483687825e+000
0	 8.666790473703452e-001	 7.066659999995864e+000	 9.845646186854607e+000
0	 8.666790473703455e-001	 7.133319999991935e+000	 9.853265861599750e+000
0	 8.666790473703452e-001	 7.199979999988401e+000	 9.859913196004227e+000
0	 8.666790473703453e-001	 7.266639999985466e+000	 9.865515878149074e+000
0	 8.666790473703453e-001	 7.333299999983334e+000	 9.870001596115310e+000
0	 9.333394000923324e-001	 6.666700000016668e+000	 9.787801499889229e+000
0	 9.333394000923325e-001	 6.733360000014534e+000	 9.799608693079236e+000
0	 9.333394000923323e-001	 6.800020000011601e+000	 9.810928623523150e+000
0	 9.333394000923325e-001	 6.866680000008069e+000	 9.821673692669817e+000
0	 9.333394000923325e-001	 6.933340000004134e+000	 9.831756301968024e+000
0	 9.333394000923325e-001	 7.000000000000001e+000	 9.841088852866601e+000
0	 9.333394000923325e-001	 7.066659999995868e+000	 9.849583746814433e+000
0	 9.333394000923326e-001	 7.133319999991935e+000	 9.857153385260395e+000
0	 9.333394000923323e-001	 7.199979999988400e+000	 9.863710169653375e+000
0	 9.333394000923324e-001	 7.266639999985466e+000	 9.869166501442292e+000
0	 9.333394000923324e-001	 7.333299999983335e+000	 9.873434782076089e+000
0	 9.999996528288190e-001	 6.666700000016665e+000	 9.792513827494632e+000
0	 9.999996528288192e-001	 6.733360000014532e+000	 9.804181097309398e+000
0	 9.999996528288191e-001	 6.800020000011600e+000	 9.815391139688822e+000
0	 9.999996528288192e-001	 6.866680000008067e+000	 9.826046529253784e+000
0	 9.999996528288193e-001	 6.933340000004134e+000	 9.836049840625174e+000
0	 9.999996528288190e-001	 7.000000000000000e+000	 9.845303648423867e+000
0	 9.999996528288193e-001	 7.066659999995867e+000	 9.853710527270819e+000
0	 9.999996528288190e-001	 7.133319999991936e+000	 9.861173051786995e+000
0	 9.999996528288192e-001	 7.199979999988400e+000	 9.867593796593326e+000
0	 9.999996528288193e-001	 7.266639999985468e+000	 9.872875336310820e+000
0	 9.999996528288190e-001	 7.333299999983335e+000	 9.876920245560489e+000
0	 1.066659822244222e+000	 6.666700000016665e+000	 9.797707695838607e+000
0	 1.066659822244222e+000	 6.733360000014532e+000	 9.809210333393208e+000
0	 1.066659822244223e+000	 6.800020000011600e+000	 9.820266550882428e+000
0	 1.066659822244222e+000	 6.866680000008065e+000	 9.830774555933253e+000
0	 1.066659822244223e+000	 6.933340000004135e+000	 9.840632556172707e+000
0	 1.066659822244223e+000	 7.000000000000000e+000	 9.849738759227824e+000
0	 1.066659822244222e+000	 7.066659999995867e+000	 9.857991372725651e+000
0	 1.066659822244222e+000	 7.133319999991934e+000	 9.865288604293266e+000
0	 1.066659822244222e+000	 7.199979999988400e+000	 9.871528661557740e+000
0	 1.066659822244222e+000	 7.266639999985466e+000	 9.876609752146228e+000
0	 1.066659822244223e+000	 7.333299999983334e+000	 9.880430083685820e+000
0	 1.133319925002959e+000	 6.666700000016667e+000	 9.803395359183782e+000
0	 1.133319925002959e+000	 6.733360000014532e+000	 9.814695896701146e+000
0	 1.133319925002959e+000	 6.800020000011600e+000	 9.825543536459289e+000
0	 1.133319925002959e+000	 6.866680000008067e+000	 9.835837578947048e+000
0	 1.133319925002959e+000	 6.933340000004134e+000	 9.845477324653343e+000
0	 1.133319925002959e+000	 6.999999999999999e+000	 9.854362074067071e+000
0	 1.133319925002959e+000	 7.066659999995867e+000	 9.862391127677183e+000
0	 1.133319925002959e+000	 7.133319999991935e+000	 9.869463785972608e+000
0	 1.133319925002959e+000	 7.199979999988401e+000	 9.875479349442333e+000
0	 1.133319925002959e+000	 7.266639999985467e+000	 9.880337118575362e+000
0	 1.133319925002959e+000	 7.333299999983335e+000	 9.883936393860687e+000
0	 1.199979977769445e+000	 6.666700000016666e+000	 9.809589071728860e+000
0	 1.199979977769445e+000	 6.733360000014533e+000	 9.820637282456616e+000
0	 1.199979977769445e+000	 6.800020000011598e+000	 9.831210775592629e+000
0	 1.199979977769445e+000	 6.866680000008068e+000	 9.841215404356925e+000
0	 1.199979977769445e+000	 6.933340000004135e+000	 9.850557021969561e+000
0	 1.199979977769445e+000	 7.000000000000000e+000	 9.859141481650569e+000
0	 1.199979977769445e+000	 7.066659999995867e+000	 9.866874636620045e+000
0	 1.199979977769445e+000	 7.133319999991934e+000	 9.873662340098100e+000
0	 1.199979977769445e+000	 7.199979999988400e+000	 9.879410445304842e+000
0	 1.199979977769445e+000	 7.266639999985467e+000	 9.884024805460427e+000
0	 1.199979977769445e+000	 7.333299999983334e+000	 9.887411273785000e+000
0	 1.266639997208098e+000	 6.666700000016667e+000	 9.816301087608721e+000
0	 1.266639997208098e+000	 6.733360000014533e+000	 9.827033985735898e+000
0	 1.266639997208098e+000	 6.800020000011600e+000	 9.837256947273612e+000
0	 1.266639997208098e+000	 6.866680000008067e+000	 9.846887838047605e+000
0	 1.266639997208098e+000	 6.933340000004133e+000	 9.855844523883691e+000
0	 1.266639997208098e+000	 7.000000000000000e+000	 9.864044870607648e+000
0	 1.266639997208098e+000	 7.066659999995868e+000	 9.871406744045297e+000
0	 1.266639997208098e+000	 7.133319999991935e+000	 9.877848010022493e+000
0	 1.266639997208098e+000	 7.199979999988400e+000	 9.883286534365075e+000
0	 1.266639997208098e+000	 7.266639999985467e+000	 9.887640182898933e+000
0	 1.266639997208098e+000	 7.333299999983334e+000	 9.890826821449975e+000
0	 1.333299999983334e+000	 6.666700000016665e+000	 9.823543660894345e+000
0	 1.333299999983334e+000	 6.733360000014534e+000	 9.833885501468206e+000
0	 1.333299999983334e+000	 6.800020000011599e+000	 9.843670730311263e+000
0	 1.333299999983334e+000	 6.866680000008066e+000	 9.852834685726752e+000
0	 1.333299999983334e+000	 6.933340000004134e+000	 9.861312706017912e+000
0	 1.333299999983334e+000	 6.999999999999999e+000	 9.869040129488012e+000
0	 1.333299999983334e+000	 7.066659999995867e+000	 9.875952294440333e+000
0	 1.333299999983334e+000	 7.133319999991935e+000	 9.881984539178180e+000
0	 1.333299999983334e+000	 7.199979999988400e+000	 9.887072202004877e+000
0	 1.333299999983334e+000	 7.266639999985467e+000	 9.891150621223735e+000
0	 1.333299999983334e+000	 7.333299999983336e+000	 9.894155135138131e+000
0	 6.666972226472177e-001	 7.333299999983333e+000	 9.860294736571243e+000
0	 6.666972226472178e-001	 7.399969999982152e+000	 9.865034721756768e+000
0	 6.666972226472177e-001	 7.466639999981865e+000	 9.869924272069056e+000
0	 6.666972226472175e-001	 7.533309999982382e+000	 9.874959500075953e+000
0	 6.666972226472175e-001	 7.599979999983599e+000	 9.880136518345319e+000
0	 6.666972226472177e-001	 7.666649999985417e+000	 9.885451439444994e+000
0	 6.666972226472175e-001	 7.733319999987731e+000	 9.890900375942838e+000
0	 6.666972226472177e-001	 7.799989999990449e+000	 9.896479440406701e+000
0	 6.666972226472177e-001	 7.866659999993466e+000	 9.902184745404432e+000
0	 6.666972226472177e-001	 7.933329999996682e+000	 9.908012403503895e+000
0	 6.666972226472177e-001	 8.000000000000000e+000	 9.913958527272941e+000
0	 7.333579753122048e-001	 7.333299999983334e+000	 9.863403669751927e+000
0	 7.333579753122048e-001	 7.399969999982150e+000	 9.867878745301045e+000
0	 7.333579753122046e-001	 7.466639999981865e+000	 9.872473876079013e+000
0	 7.333579753122047e-001	 7.533309999982383e+000	 9.877199627306688e+000
0	 7.333579753122050e-001	 7.599979999983603e+000	 9.882066564204902e+000
0	 7.333579753122045e-001	 7.666649999985414e+000	 9.887085251994533e+000
0	 7.333579753122047e-001	 7.733319999987733e+000	 9.892266255896423e+000
0	 7.333579753122050e-001	 7.799989999990451e+000	 9.897620141131403e+000
0	 7.333579753122048e-001	 7.866659999993465e+000	 9.903157472920363e+000
0	 7.333579753122046e-001	 7.933329999996684e+000	 9.908888816484135e+000
0	 7.333579753122048e-001	 8.000000000000000e+000	 9.914824737043567e+000
0	 8.000185779984419e-001	 7.333299999983335e+000	 9.866648590852151e+000
0	 8.000185779984419e-001	 7.399969999982151e+000	 9.870854009498286e+000
0	 8.000185779984416e-001	 7.466639999981866e+000	 9.875158748673076e+000
0	 8.000185779984418e-001	 7.533309999982384e+000	 9.879585352886224e+000
0	 8.000185779984419e-001	 7.599979999983601e+000	 9.884156366647330e+000
0	 8.000185779984420e-001	 7.666649999985416e+000	 9.888894334466086e+000
0	 8.000185779984418e-001	 7.733319999987733e+000	 9.893821800852123e+000
0	 8.000185779984419e-001	 7.799989999990449e+000	 9.898961310315100e+000
0	 8.000185779984416e-001	 7.866659999993466e+000	 9.904335407364675e+000
0	 8.000185779984417e-001	 7.933329999996681e+000	 9.909966636510498e+000
0	 8.000185779984418e-001	 8.000000000000000e+000	 9.915877542262237e+000
0	 8.666790473703453e-001	 7.333299999983334e+000	 9.870001596115310e+000
0	 8.666790473703453e-001	 7.399969999982150e+000	 9.873937986046993e+000
0	 8.666790473703454e-001	 7.466639999981866e+000	 9.877961087917115e+000
0	 8.666790473703456e-001	 7.533309999982384e+000	 9.882102952135188e+000
0	 8.666790473703453e-001	 7.599979999983600e+000	 9.886395629110716e+000
0	 8.666790473703455e-001	 7.666649999985417e+000	 9.890871169253190e+000
0	 8.666790473703455e-001	 7.733319999987733e+000	 9.895561622972123e+000
0	 8.666790473703453e-001	 7.799989999990448e+000	 9.900499040677000e+000
0	 8.666790473703453e-001	 7.866659999993467e+000	 9.905715472777350e+000
0	 8.666790473703456e-001	 7.933329999996683e+000	 9.911242969682666e+000
0	 8.666790473703455e-001	 8.000000000000002e+000	 9.917113581802475e+000
0	 9.333394000923324e-001	 7.333299999983335e+000	 9.873434782076089e+000
0	 9.333394000923321e-001	 7.399969999982149e+000	 9.877108146969496e+000
0	 9.333394000923323e-001	 7.466639999981867e+000	 9.880863092211476e+000
0	 9.333394000923322e-001	 7.533309999982382e+000	 9.884738700701382e+000
0	 9.333394000923323e-001	 7.599979999983601e+000	 9.888774055338585e+000
0	 9.333394000923323e-001	 7.666649999985417e+000	 9.893008239022452e+000
0	 9.333394000923321e-001	 7.733319999987733e+000	 9.897480334652325e+000
0	 9.333394000923321e-001	 7.799989999990448e+000	 9.902229425127572e+000
0	 9.333394000923323e-001	 7.866659999993468e+000	 9.907294593347565e+000
0	 9.333394000923323e-001	 7.933329999996683e+000	 9.912714922211668e+000
0	 9.333394000923323e-001	 7.999999999999999e+000	 9.918529494619246e+000
0	 9.999996528288190e-001	 7.333299999983335e+000	 9.876920245560486e+000
0	 9.999996528288190e-001	 7.399969999982150e+000	 9.880341964611889e+000
0	 9.999996528288192e-001	 7.466639999981867e+000	 9.883846960291015e+000
0	 9.999996528288191e-001	 7.533309999982383e+000	 9.887478874559726e+000
0	 9.999996528288192e-001	 7.599979999983600e+000	 9.891281349379938e+000
0	 9.999996528288190e-001	 7.666649999985415e+000	 9.895298026713546e+000
0	 9.999996528288190e-001	 7.733319999987733e+000	 9.899572548522444e+000
0	 9.999996528288191e-001	 7.799989999990450e+000	 9.904148556768528e+000
0	 9.999996528288192e-001	 7.866659999993467e+000	 9.909069693413697e+000
0	 9.999996528288191e-001	 7.933329999996683e+000	 9.914379600419862e+000
0	 9.999996528288192e-001	 8.000000000000000e+000	 9.920121919748945e+000
0	 1.066659822244223e+000	 7.333299999983334e+000	 9.880430083685820e+000
0	 1.066659822244222e+000	 7.399969999982150e+000	 9.883616911644102e+000
0	 1.066659822244222e+000	 7.466639999981867e+000	 9.886894891225099e+000
0	 1.066659822244223e+000	 7.533309999982382e+000	 9.890309750012287e+000
0	 1.066659822244222e+000	 7.599979999983601e+000	 9.893907215589175e+000
0	 1.066659822244222e+000	 7.666649999985417e+000	 9.897733015539233e+000
0	 1.066659822244222e+000	 7.733319999987732e+000	 9.901832877445953e+000
0	 1.066659822244223e+000	 7.799989999990450e+000	 9.906252528892829e+000
0	 1.066659822244222e+000	 7.866659999993468e+000	 9.911037697463357e+000
0	 1.066659822244223e+000	 7.933329999996684e+000	 9.916234110741032e+000
0	 1.066659822244222e+000	 7.999999999999999e+000	 9.921887496309354e+000
0	 1.133319925002959e+000	 7.333299999983335e+000	 9.883936393860683e+000
0	 1.133319925002959e+000	 7.399969999982150e+000	 9.886910461059790e+000
0	 1.133319925002959e+000	 7.466639999981867e+000	 9.889989084417591e+000
0	 1.133319925002959e+000	 7.533309999982384e+000	 9.893217603688305e+000
0	 1.133319925002959e+000	 7.599979999983599e+000	 9.896641358626146e+000
0	 1.133319925002959e+000	 7.666649999985417e+000	 9.900305688985347e+000
0	 1.133319925002959e+000	 7.733319999987733e+000	 9.904255934520132e+000
0	 1.133319925002959e+000	 7.799989999990447e+000	 9.908537434984739e+000
0	 1.133319925002959e+000	 7.866659999993467e+000	 9.913195530133374e+000
0	 1.133319925002959e+000	 7.933329999996683e+000	 9.918275559720293e+000
0	 1.133319925002959e+000	 8.000000000000000e+000	 9.923822863499719e+000
0	 1.199979977769445e+000	 7.333299999983334e+000	 9.887411273784997e+000
0	 1.199979977769445e+000	 7.399969999982150e+000	 9.890200086176458e+000
0	 1.199979977769445e+000	 7.466639999981867e+000	 9.893111739606871e+000
0	 1.199979977769445e+000	 7.533309999982383e+000	 9.896188712544129e+000
0	 1.199979977769445e+000	 7.599979999983599e+000	 9.899473483456147e+000
0	 1.199979977769445e+000	 7.666649999985416e+000	 9.903008530810810e+000
0	 1.199979977769445e+000	 7.733319999987733e+000	 9.906836333076033e+000
0	 1.199979977769446e+000	 7.799989999990450e+000	 9.910999368719711e+000
0	 1.199979977769445e+000	 7.866659999993466e+000	 9.915540116209769e+000
0	 1.199979977769445e+000	 7.933329999996684e+000	 9.920501054014109e+000
0	 1.199979977769445e+000	 8.000000000000000e+000	 9.925924660600634e+000
0	 1.266639997208098e+000	 7.333299999983334e+000	 9.890826821449975e+000
0	 1.266639997208098e+000	 7.399969999982150e+000	 9.893463260635384e+000
0	 1.266639997208098e+000	 7.466639999981867e+000	 9.896245056865812e+000
0	 1.266639997208098e+000	 7.533309999982384e+000	 9.899209353863306e+000
0	 1.266639997208098e+000	 7.599979999983599e+000	 9.902393295349897e+000
0	 1.266639997208098e+000	 7.666649999985416e+000	 9.905834025047607e+000
0	 1.266639997208098e+000	 7.733319999987733e+000	 9.909568686678474e+000
0	 1.266639997208098e+000	 7.799989999990449e+000	 9.913634423964517e+000
0	 1.266639997208098e+000	 7.866659999993467e+000	 9.918068380627778e+000
0	 1.266639997208098e+000	 7.933329999996682e+000	 9.922907700390317e+000
0	 1.266639997208098e+000	 8.000000000000000e+000	 9.928189526974164e+000
0	 1.333299999983334e+000	 7.333299999983336e+000	 9.894155135138130e+000
0	 1.333299999983334e+000	 7.399969999982149e+000	 9.896677458401616e+000
0	 1.333299999983334e+000	 7.466639999981866e+000	 9.899371236601803e+000
0	 1.333299999983334e+000	 7.533309999982384e+000	 9.902265805256507e+000
0	 1.333299999983334e+000	 7.599979999983600e+000	 9.905390499883557e+000
0	 1.333299999983334e+000	 7.666649999985415e+000	 9.908774656000801e+000
0	 1.333299999983334e+000	 7.733319999987733e+000	 9.912447609126026e+000
0	 1.333299999983334e+000	 7.799989999990449e+000	 9.916438694777112e+000
0	 1.333299999983334e+000	 7.866659999993466e+000	 9.920777248471866e+000
0	 1.333299999983334e+000	 7.933329999996683e+000	 9.925492605728143e+000
0	 1.333299999983334e+000	 8.000000000000000e+000	 9.930614102063750e+000
0	 6.666972226472177e-001	 8.000000000000000e+000	 9.913958527272941e+000
0	 6.666972226472178e-001	 8.066670000003317e+000	 9.919811676767361e+000
0	 6.666972226472177e-001	 8.133340000006532e+000	 9.925368106321237e+000
0	 6.666972226472175e-001	 8.200010000009550e+000	 9.930635469919821e+000
0	 6.666972226472178e-001	 8.266680000012267e+000	 9.935621421548348e+000
0	 6.666972226472177e-001	 8.333350000014583e+000	 9.940333615192074e+000
0	 6.666972226472177e-001	 8.400020000016401e+000	 9.944779704836241e+000
0	 6.666972226472177e-001	 8.466690000017616e+000	 9.948967344466093e+000
0	 6.666972226472173e-001	 8.533360000018133e+000	 9.952904188066839e+000
0	 6.666972226472178e-001	 8.600030000017851e+000	 9.956597889623748e+000
0	 6.666972226472177e-001	 8.666700000016666e+000	 9.960056103122017e+000
0	 7.333579753122048e-001	 8.000000000000000e+000	 9.914824737043567e+000
0	 7.333579753122047e-001	 8.066670000003317e+000	 9.920721368347472e+000
0	 7.333579753122047e-001	 8.133340000006532e+000	 9.926328632435796e+000
0	 7.333579753122048e-001	 8.200010000009550e+000	 9.931647776966214e+000
0	 7.333579753122048e-001	 8.266680000012268e+000	 9.936680049596340e+000
0	 7.333579753122047e-001	 8.333350000014583e+000	 9.941426697983818e+000
0	 7.333579753122049e-001	 8.400020000016403e+000	 9.945888969786289e+000
0	 7.333579753122047e-001	 8.466690000017616e+000	 9.950068112661363e+000
0	 7.333579753122047e-001	 8.533360000018133e+000	 9.953965374266682e+000
0	 7.333579753122049e-001	 8.600030000017853e+000	 9.957582002259855e+000
0	 7.333579753122048e-001	 8.666700000016665e+000	 9.960919244298509e+000
0	 8.000185779984418e-001	 8.000000000000000e+000	 9.915877542262237e+000
0	 8.000185779984418e-001	 8.066670000003319e+000	 9.921795378818151e+000
0	 8.000185779984417e-001	 8.133340000006530e+000	 9.927429663315243e+000
0	 8.000185779984418e-001	 8.200010000009552e+000	 9.932776334671249e+000
0	 8.000185779984417e-001	 8.266680000012265e+000	 9.937831331803865e+000
0	 8.000185779984419e-001	 8.333350000014585e+000	 9.942590593630859e+000
0	 8.000185779984417e-001	 8.400020000016399e+000	 9.947050059069902e+000
0	 8.000185779984417e-001	 8.466690000017618e+000	 9.951205667038741e+000
0	 8.000185779984416e-001	 8.533360000018133e+000	 9.955053356455053e+000
0	 8.000185779984417e-001	 8.600030000017847e+000	 9.958589066236574e+000
0	 8.000185779984420e-001	 8.666700000016666e+000	 9.961808735300989e+000
0	 8.666790473703455e-001	 8.000000000000002e+000	 9.917113581802475e+000
0	 8.666790473703453e-001	 8.066670000003317e+000	 9.923029612457498e+000
0	 8.666790473703453e-001	 8.133340000006532e+000	 9.928666483213155e+000
0	 8.666790473703454e-001	 8.200010000009547e+000	 9.934015921845919e+000
0	 8.666790473703455e-001	 8.266680000012265e+000	 9.939069656132290e+000
0	 8.666790473703455e-001	 8.333350000014585e+000	 9.943819413848729e+000
0	 8.666790473703453e-001	 8.400020000016401e+000	 9.948256922771726e+000
0	 8.666790473703455e-001	 8.466690000017618e+000	 9.952373910677746e+000
0	 8.666790473703455e-001	 8.533360000018133e+000	 9.956162105343253e+000
0	 8.666790473703452e-001	 8.600030000017847e+000	 9.959613234544717e+000
0	 8.666790473703455e-001	 8.666700000016665e+000	 9.962719026058617e+000
0	 9.333394000923323e-001	 7.999999999999999e+000	 9.918529494619246e+000
0	 9.333394000923323e-001	 8.066670000003317e+000	 9.924419973605804e+000
0	 9.333394000923321e-001	 8.133340000006534e+000	 9.930034376436039e+000
0	 9.333394000923323e-001	 8.200010000009550e+000	 9.935361317353245e+000
0	 9.333394000923323e-001	 8.266680000012267e+000	 9.940389410600645e+000
0	 9.333394000923323e-001	 8.333350000014587e+000	 9.945107270421485e+000
0	 9.333394000923321e-001	 8.400020000016399e+000	 9.949503511059005e+000
0	 9.333394000923322e-001	 8.466690000017616e+000	 9.953566746756462e+000
0	 9.333394000923323e-001	 8.533360000018131e+000	 9.957285591757055e+000
0	 9.333394000923321e-001	 8.600030000017849e+000	 9.960648660304027e+000
0	 9.333394000923324e-001	 8.666700000016668e+000	 9.963644566640598e+000
0	 9.999996528288192e-001	 8.000000000000000e+000	 9.920121919748945e+000
0	 9.999996528288194e-001	 8.066670000003319e+000	 9.925962366665509e+000
0	 9.999996528288192e-001	 8.133340000006532e+000	 9.931528627343361e+000
0	 9.999996528288192e-001	 8.200010000009552e+000	 9.936807300108205e+000
0	 9.999996528288192e-001	 8.266680000012267e+000	 9.941784983285727e+000
0	 9.999996528288191e-001	 8.333350000014582e+000	 9.946448275201639e+000
0	 9.999996528288192e-001	 8.400020000016401e+000	 9.950783774181636e+000
0	 9.999996528288189e-001	 8.466690000017616e+000	 9.954778078551424e+000
0	 9.999996528288192e-001	 8.533360000018133e+000	 9.958417786636639e+000
0	 9.999996528288189e-001	 8.600030000017846e+000	 9.961689496763025e+000
0	 9.999996528288188e-001	 8.666700000016665e+000	 9.964579807256227e+000
0	 1.066659822244222e+000	 7.999999999999999e+000	 9.921887496309354e+000
0	 1.066659822244222e+000	 8.066670000003319e+000	 9.927652696101319e+000
0	 1.066659822244223e+000	 8.133340000006534e+000	 9.933144520347497e+000
0	 1.066659822244222e+000	 8.200010000009552e+000	 9.938348649077765e+000
0	 1.066659822244222e+000	 8.266680000012267e+000	 9.943250762322045e+000
0	 1.066659822244222e+000	 8.333350000014585e+000	 9.947836540110194e+000
0	 1.066659822244222e+000	 8.400020000016401e+000	 9.952091662472105e+000
0	 1.066659822244222e+000	 8.466690000017618e+000	 9.956001809437653e+000
0	 1.066659822244223e+000	 8.533360000018133e+000	 9.959552661036717e+000
0	 1.066659822244223e+000	 8.600030000017851e+000	 9.962729897299129e+000
0	 1.066659822244223e+000	 8.666700000016663e+000	 9.965519198254803e+000
0	 1.133319925002959e+000	 8.000000000000000e+000	 9.923822863499719e+000
0	 1.133319925002959e+000	 8.066670000003319e+000	 9.929486866440071e+000
0	 1.133319925002959e+000	 8.133340000006532e+000	 9.934877339913731e+000
0	 1.133319925002959e+000	 8.200010000009552e+000	 9.939980143280915e+000
0	 1.133319925002959e+000	 8.266680000012268e+000	 9.944781135901806e+000
0	 1.133319925002959e+000	 8.333350000014585e+000	 9.949266177136625e+000
0	 1.133319925002959e+000	 8.400020000016403e+000	 9.953421126345532e+000
0	 1.133319925002959e+000	 8.466690000017618e+000	 9.957231842888701e+000
0	 1.133319925002959e+000	 8.533360000018137e+000	 9.960684186126352e+000
0	 1.133319925002959e+000	 8.600030000017849e+000	 9.963764015418638e+000
0	 1.133319925002959e+000	 8.666700000016668e+000	 9.966457190125720e+000
0	 1.199979977769445e+000	 8.000000000000000e+000	 9.925924660600634e+000
0	 1.199979977769445e+000	 8.066670000003317e+000	 9.931460782270795e+000
0	 1.199979977769445e+000	 8.133340000006532e+000	 9.936722370560313e+000
0	 1.199979977769445e+000	 8.200010000009550e+000	 9.941696561788586e+000
0	 1.199979977769445e+000	 8.266680000012267e+000	 9.946370492274982e+000
0	 1.199979977769445e+000	 8.333350000014585e+000	 9.950731298338873e+000
0	 1.199979977769445e+000	 8.400020000016399e+000	 9.954766116299632e+000
0	 1.199979977769446e+000	 8.466690000017618e+000	 9.958462082476604e+000
0	 1.199979977769445e+000	 8.533360000018133e+000	 9.961806333189152e+000
0	 1.199979977769445e+000	 8.600030000017851e+000	 9.964786004756659e+000
0	 1.199979977769445e+000	 8.666700000016666e+000	 9.967388233498440e+000
0	 1.266639997208098e+000	 8.000000000000000e+000	 9.928189526974164e+000
0	 1.266639997208098e+000	 8.066670000003319e+000	 9.933570348244725e+000
0	 1.266639997208098e+000	 8.133340000006534e+000	 9.938674896858387e+000
0	 1.266639997208098e+000	 8.200010000009550e+000	 9.943492683723720e+000
0	 1.266639997208098e+000	 8.266680000012268e+000	 9.948013219749203e+000
0	 1.266639997208098e+000	 8.333350000014583e+000	 9.952226015843383e+000
0	 1.266639997208098e+000	 8.400020000016399e+000	 9.956120582914750e+000
0	 1.266639997208098e+000	 8.466690000017618e+000	 9.959686431871825e+000
0	 1.266639997208098e+000	 8.533360000018135e+000	 9.962913073623147e+000
0	 1.266639997208098e+000	 8.600030000017853e+000	 9.965790019077181e+000
0	 1.266639997208098e+000	 8.666700000016668e+000	 9.968306779142429e+000
0	 1.333299999983334e+000	 8.000000000000000e+000	 9.930614102063750e+000
0	 1.333299999983334e+000	 8.066670000003317e+000	 9.935811469075276e+000
0	 1.333299999983334e+000	 8.133340000006532e+000	 9.940730203432057e+000
0	 1.333299999983334e+000	 8.200010000009550e+000	 9.945363288261214e+000
0	 1.333299999983334e+000	 8.266680000012268e+000	 9.949703706689837e+000
0	 1.333299999983334e+000	 8.333350000014587e+000	 9.953744441845014e+000
0	 1.333299999983334e+000	 8.400020000016399e+000	 9.957478476853853e+000
0	 1.333299999983334e+000	 8.466690000017618e+000	 9.960898794843411e+000
0	 1.333299999983334e+000	 8.533360000018135e+000	 9.963998378940779e+000
0	 1.333299999983334e+000	 8.600030000017851e+000	 9.966770212273039e+000
0	 1.333299999983334e+000	 8.666700000016666e+000	 9.969207277967250e+000
0	 6.666972226472177e-001	 8.666700000016666e+000	 9.960056103122019e+000
0	 6.666972226472175e-001	 8.733360002791901e+000	 9.963346458121405e+000
0	 6.666972226472177e-001	 8.800020022230555e+000	 9.966534304082549e+000
0	 6.666972226472177e-001	 8.866680074997042e+000	 9.969622370869299e+000
0	 6.666972226472178e-001	 8.933340177755779e+000	 9.972613388760770e+000
0	 6.666972226472177e-001	 9.000000347171181e+000	 9.975510088451355e+000
0	 6.666972226472178e-001	 9.066660599907667e+000	 9.978315201050735e+000
0	 6.666972226472175e-001	 9.133320952629656e+000	 9.981031458083772e+000
0	 6.666972226472179e-001	 9.199981422001560e+000	 9.983661591490664e+000
0	 6.666972226472177e-001	 9.266642024687796e+000	 9.986208333626800e+000
0	 6.666972226472177e-001	 9.333302777352785e+000	 9.988674417262788e+000
0	 7.333579753122048e-001	 8.666700000016665e+000	 9.960919244298509e+000
0	 7.333579753122047e-001	 8.733360002791901e+000	 9.964066613796996e+000
0	 7.333579753122047e-001	 8.800020022230552e+000	 9.967117579080602e+000
0	 7.333579753122052e-001	 8.866680074997042e+000	 9.970077881443933e+000
0	 7.333579753122048e-001	 8.933340177755776e+000	 9.972953262558885e+000
0	 7.333579753122049e-001	 9.000000347171183e+000	 9.975749464474662e+000
0	 7.333579753122047e-001	 9.066660599907669e+000	 9.978472229617736e+000
0	 7.333579753122048e-001	 9.133320952629655e+000	 9.981127300791847e+000
0	 7.333579753122049e-001	 9.199981422001557e+000	 9.983720421178012e+000
0	 7.333579753122048e-001	 9.266642024687794e+000	 9.986257334334482e+000
0	 7.333579753122046e-001	 9.333302777352783e+000	 9.988743784196773e+000
0	 8.000185779984420e-001	 8.666700000016666e+000	 9.961808735300989e+000
0	 8.000185779984418e-001	 8.733360002791903e+000	 9.964820660688192e+000
0	 8.000185779984419e-001	 8.800020022230555e+000	 9.967742244073589e+000
0	 8.000185779984417e-001	 8.866680074997040e+000	 9.970581704521804e+000
0	 8.000185779984420e-001	 8.933340177755779e+000	 9.973347261440894e+000
0	 8.000185779984418e-001	 9.000000347171183e+000	 9.976047134582240e+000
0	 8.000185779984417e-001	 9.066660599907667e+000	 9.978689544040766e+000
0	 8.000185779984416e-001	 9.133320952629653e+000	 9.981282710254707e+000
0	 8.000185779984418e-001	 9.199981422001558e+000	 9.983834854005691e+000
0	 8.000185779984418e-001	 9.266642024687796e+000	 9.986354196418803e+000
0	 8.000185779984417e-001	 9.333302777352781e+000	 9.988848958962418e+000
0	 8.666790473703455e-001	 8.666700000016665e+000	 9.962719026058617e+000
0	 8.666790473703456e-001	 8.733360002791905e+000	 9.965603401760939e+000
0	 8.666790473703456e-001	 8.800020022230555e+000	 9.968403452697769e+000
0	 8.666790473703454e-001	 8.866680074997042e+000	 9.971129342037447e+000
0	 8.666790473703454e-001	 8.933340177755779e+000	 9.973791233261943e+000
0	 8.666790473703455e-001	 9.000000347171183e+000	 9.976399290166912e+000
0	 8.666790473703454e-001	 9.066660599907667e+000	 9.978963676861659e+000
0	 8.666790473703455e-001	 9.133320952629655e+000	 9.981494557769141e+000
0	 8.666790473703455e-001	 9.199981422001557e+000	 9.984002097625909e+000
0	 8.666790473703454e-001	 9.266642024687794e+000	 9.986496461482227e+000
0	 8.666790473703451e-001	 9.333302777352781e+000	 9.988987814701924e+000
0	 9.333394000923324e-001	 8.666700000016668e+000	 9.963644566640598e+000
0	 9.333394000923324e-001	 8.733360002791905e+000	 9.966409640128022e+000
0	 9.333394000923323e-001	 8.800020022230557e+000	 9.969096358738915e+000
0	 9.333394000923323e-001	 8.866680074997044e+000	 9.971716296074314e+000
0	 9.333394000923321e-001	 8.933340177755776e+000	 9.974281026023252e+000
0	 9.333394000923322e-001	 9.000000347171181e+000	 9.976802122762845e+000
0	 9.333394000923322e-001	 9.066660599907667e+000	 9.979291160758132e+000
0	 9.333394000923325e-001	 9.133320952629655e+000	 9.981759714762269e+000
0	 9.333394000923322e-001	 9.199981422001558e+000	 9.984219359816368e+000
0	 9.333394000923324e-001	 9.266642024687796e+000	 9.986681671249530e+000
0	 9.333394000923323e-001	 9.333302777352783e+000	 9.989158224678873e+000
0	 9.999996528288188e-001	 8.666700000016665e+000	 9.964579807256229e+000
0	 9.999996528288193e-001	 8.733360002791901e+000	 9.967234179049022e+000
0	 9.999996528288191e-001	 8.800020022230557e+000	 9.969816116132293e+000
0	 9.999996528288191e-001	 8.866680074997042e+000	 9.972338068864836e+000
0	 9.999996528288191e-001	 8.933340177755776e+000	 9.974812487871972e+000
0	 9.999996528288189e-001	 9.000000347171181e+000	 9.977251824045503e+000
0	 9.999996528288190e-001	 9.066660599907667e+000	 9.979668528543773e+000
0	 9.999996528288191e-001	 9.133320952629656e+000	 9.982075052791593e+000
0	 9.999996528288193e-001	 9.199981422001560e+000	 9.984483848480354e+000
0	 9.999996528288192e-001	 9.266642024687796e+000	 9.986907367567811e+000
0	 9.999996528288191e-001	 9.333302777352783e+000	 9.989358062278340e+000
0	 1.066659822244223e+000	 8.666700000016663e+000	 9.965519198254800e+000
0	 1.066659822244223e+000	 8.733360002791901e+000	 9.968071821930337e+000
0	 1.066659822244223e+000	 8.800020022230557e+000	 9.970557878962728e+000
0	 1.066659822244222e+000	 8.866680074997042e+000	 9.972990162790472e+000
0	 1.066659822244223e+000	 8.933340177755781e+000	 9.975381467101226e+000
0	 1.066659822244223e+000	 9.000000347171181e+000	 9.977744585831772e+000
0	 1.066659822244222e+000	 9.066660599907667e+000	 9.980092313168001e+000
0	 1.066659822244223e+000	 9.133320952629658e+000	 9.982437443544917e+000
0	 1.066659822244222e+000	 9.199981422001558e+000	 9.984792771646692e+000
0	 1.066659822244222e+000	 9.266642024687794e+000	 9.987171092406554e+000
0	 1.066659822244222e+000	 9.333302777352781e+000	 9.989585201006852e+000
0	 1.133319925002959e+000	 8.666700000016668e+000	 9.966457190125720e+000
0	 1.133319925002959e+000	 8.733360002791903e+000	 9.968917372325194e+000
0	 1.133319925002959e+000	 8.800020022230557e+000	 9.971316801464544e+000
0	 1.133319925002959e+000	 8.866680074997040e+000	 9.973668080381618e+000
0	 1.133319925002959e+000	 8.933340177755778e+000	 9.975983812150172e+000
0	 1.133319925002959e+000	 9.000000347171183e+000	 9.978276600079841e+000
0	 1.133319925002959e+000	 9.066660599907669e+000	 9.980559047716129e+000
0	 1.133319925002959e+000	 9.133320952629656e+000	 9.982843758840369e+000
0	 1.133319925002959e+000	 9.199981422001557e+000	 9.985143337469813e+000
0	 1.133319925002959e+000	 9.266642024687798e+000	 9.987470387857508e+000
0	 1.133319925002959e+000	 9.333302777352781e+000	 9.989837514492443e+000
0	 1.199979977769445e+000	 8.666700000016666e+000	 9.967388233498442e+000
0	 1.199979977769445e+000	 8.733360002791903e+000	 9.969765633933610e+000
0	 1.199979977769445e+000	 8.800020022230557e+000	 9.972088038021560e+000
0	 1.199979977769445e+000	 8.866680074997040e+000	 9.974367324317639e+000
0	 1.199979977769445e+000	 8.933340177755781e+000	 9.976615371603931e+000
0	 1.199979977769446e+000	 9.000000347171183e+000	 9.978844058889294e+000
0	 1.199979977769445e+000	 9.066660599907666e+000	 9.981065265409336e+000
0	 1.199979977769445e+000	 9.133320952629653e+000	 9.983290870626407e+000
0	 1.199979977769445e+000	 9.199981422001560e+000	 9.985532754229620e+000
0	 1.199979977769446e+000	 9.266642024687794e+000	 9.987802796134814e+000
0	 1.199979977769445e+000	 9.333302777352785e+000	 9.990112876484545e+000
0	 1.266639997208098e+000	 8.666700000016668e+000	 9.968306779142431e+000
0	 1.266639997208098e+000	 8.733360002791903e+000	 9.970611410602414e+000
0	 1.266639997208098e+000	 8.800020022230557e+000	 9.972866743167176e+000
0	 1.266639997208098e+000	 8.866680074997042e+000	 9.975083397426900e+000
0	 1.266639997208098e+000	 8.933340177755776e+000	 9.977271994193607e+000
0	 1.266639997208098e+000	 9.000000347171183e+000	 9.979443154501007e+000
0	 1.266639997208098e+000	 9.066660599907666e+000	 9.981607499604646e+000
0	 1.266639997208098e+000	 9.133320952629656e+000	 9.983775650981828e+000
0	 1.266639997208098e+000	 9.199981422001558e+000	 9.985958230331629e+000
0	 1.266639997208098e+000	 9.266642024687796e+000	 9.988165859574863e+000
0	 1.266639997208098e+000	 9.333302777352781e+000	 9.990409160854103e+000
0	 1.333299999983334e+000	 8.666700000016666e+000	 9.969207277967250e+000
0	 1.333299999983334e+000	 8.733360002791903e+000	 9.971449506325250e+000
0	 1.333299999983334e+000	 8.800020022230553e+000	 9.973648071584247e+000
0	 1.333299999983334e+000	 8.866680074997040e+000	 9.975811802686744e+000
0	 1.333299999983334e+000	 8.933340177755781e+000	 9.977949528796271e+000
0	 1.333299999983334e+000	 9.000000347171181e+000	 9.980070079297219e+000
0	 1.333299999983334e+000	 9.066660599907669e+000	 9.982182283794954e+000
0	 1.333299999983334e+000	 9.133320952629656e+000	 9.984294972115782e+000
0	 1.333299999983334e+000	 9.199981422001560e+000	 9.986416974306907e+000
0	 1.333299999983334e+000	 9.266642024687796e+000	 9.988557120636449e+000
0	 1.333299999983334e+000	 9.333302777352785e+000	 9.990724241593485e+000
0	 6.666972226472177e-001	 9.333302777352785e+000	 9.988674417262786e+000
0	 6.666972226472175e-001	 9.399973674588177e+000	 9.990948894409909e+000
0	 6.666972226472177e-001	 9.466644621844619e+000	 9.992928056055888e+000
0	 6.666972226472178e-001	 9.533315502450000e+000	 9.994626581847832e+000
0	 6.666972226472177e-001	 9.599986199732195e+000	 9.996059146088218e+000
0	 6.666972226472175e-001	 9.666656597019095e+000	 9.997240417734629e+000
0	 6.666972226472178e-001	 9.733326577638577e+000	 9.998185060399015e+000
0	 6.666972226472177e-001	 9.799996024918521e+000	 9.998907732347014e+000
0	 6.666972226472177e-001	 9.866664822186822e+000	 9.999423086497025e+000
0	 6.666972226472177e-001	 9.933332852771352e+000	 9.999745770419246e+000
0	 6.666972226472175e-001	 1.000000000000000e+001	 9.999890426334574e+000
0	 7.333579753122046e-001	 9.333302777352783e+000	 9.988743784196771e+000
0	 7.333579753122048e-001	 9.399973674588171e+000	 9.991052493317492e+000
0	 7.333579753122045e-001	 9.466644621844619e+000	 9.993059571075090e+000
0	 7.333579753122048e-001	 9.533315502450000e+000	 9.994776946348882e+000
0	 7.333579753122049e-001	 9.599986199732198e+000	 9.996216542553515e+000
0	 7.333579753122047e-001	 9.666656597019093e+000	 9.997390277638338e+000
0	 7.333579753122049e-001	 9.733326577638579e+000	 9.998310064086923e+000
0	 7.333579753122048e-001	 9.799996024918523e+000	 9.998987808916219e+000
0	 7.333579753122047e-001	 9.866664822186820e+000	 9.999435413675858e+000
0	 7.333579753122048e-001	 9.933332852771354e+000	 9.999664774446780e+000
0	 7.333579753122049e-001	 1.000000000000000e+001	 9.999687781840573e+000
0	 8.000185779984417e-001	 9.333302777352781e+000	 9.988848958962418e+000
0	 8.000185779984417e-001	 9.399973674588173e+000	 9.991178415710978e+000
0	 8.000185779984416e-001	 9.466644621844619e+000	 9.993202012874574e+000
0	 8.000185779984419e-001	 9.533315502450002e+000	 9.994929344681669e+000
0	 8.000185779984417e-001	 9.599986199732195e+000	 9.996369999815446e+000
0	 8.000185779984416e-001	 9.666656597019090e+000	 9.997533561413150e+000
0	 8.000185779984417e-001	 9.733326577638577e+000	 9.998429607065706e+000
0	 8.000185779984419e-001	 9.799996024918524e+000	 9.999067708816837e+000
0	 8.000185779984416e-001	 9.866664822186820e+000	 9.999457433162291e+000
0	 8.000185779984415e-001	 9.933332852771351e+000	 9.999608341048688e+000
0	 8.000185779984418e-001	 1.000000000000000e+001	 9.999529987872517e+000
0	 8.666790473703451e-001	 9.333302777352781e+000	 9.988987814701922e+000
0	 8.666790473703452e-001	 9.399973674588178e+000	 9.991324806831353e+000
0	 8.666790473703455e-001	 9.466644621844619e+000	 9.993353682231728e+000
0	 8.666790473703456e-001	 9.533315502450003e+000	 9.995082116602658e+000
0	 8.666790473703454e-001	 9.599986199732195e+000	 9.996517780056156e+000
0	 8.666790473703454e-001	 9.666656597019093e+000	 9.997668337116309e+000
0	 8.666790473703452e-001	 9.733326577638573e+000	 9.998541446718585e+000
0	 8.666790473703456e-001	 9.799996024918523e+000	 9.999144762209175e+000
0	 8.666790473703454e-001	 9.866664822186824e+000	 9.999485931344035e+000
0	 8.666790473703453e-001	 9.933332852771354e+000	 9.999572596287941e+000
0	 8.666790473703455e-001	 1.000000000000000e+001	 9.999412393613222e+000
0	 9.333394000923323e-001	 9.333302777352783e+000	 9.989158224678873e+000
0	 9.333394000923324e-001	 9.399973674588177e+000	 9.991489812043138e+000
0	 9.333394000923323e-001	 9.466644621844619e+000	 9.993512880052041e+000
0	 9.333394000923323e-001	 9.533315502450003e+000	 9.995233602002822e+000
0	 9.333394000923320e-001	 9.599986199732195e+000	 9.996658145600160e+000
0	 9.333394000923324e-001	 9.666656597019095e+000	 9.997792672955795e+000
0	 9.333394000923323e-001	 9.733326577638575e+000	 9.998643340587963e+000
0	 9.333394000923322e-001	 9.799996024918523e+000	 9.999216299420571e+000
0	 9.333394000923321e-001	 9.866664822186822e+000	 9.999517694782478e+000
0	 9.333394000923324e-001	 9.933332852771354e+000	 9.999553666406127e+000
0	 9.333394000923323e-001	 1.000000000000000e+001	 9.999330348426817e+000
0	 9.999996528288191e-001	 9.333302777352783e+000	 9.989358062278336e+000
0	 9.999996528288192e-001	 9.399973674588178e+000	 9.991671576834355e+000
0	 9.999996528288191e-001	 9.466644621844619e+000	 9.993677907369081e+000
0	 9.999996528288193e-001	 9.533315502450002e+000	 9.995382140907777e+000
0	 9.999996528288191e-001	 9.599986199732198e+000	 9.996789358914267e+000
0	 9.999996528288189e-001	 9.666656597019090e+000	 9.997904637290414e+000
0	 9.999996528288190e-001	 9.733326577638575e+000	 9.998733046375525e+000
0	 9.999996528288193e-001	 9.799996024918523e+000	 9.999279650945681e+000
0	 9.999996528288191e-001	 9.866664822186824e+000	 9.999549510212738e+000
0	 9.999996528288192e-001	 9.933332852771354e+000	 9.999547677823477e+000
0	 9.999996528288190e-001	 1.000000000000000e+001	 9.999279201858270e+000
0	 1.066659822244222e+000	 9.333302777352781e+000	 9.989585201006848e+000
0	 1.066659822244222e+000	 9.399973674588175e+000	 9.991868246816567e+000
0	 1.066659822244222e+000	 9.466644621844619e+000	 9.993847065344456e+000
0	 1.066659822244222e+000	 9.533315502450000e+000	 9.995526073477695e+000
0	 1.066659822244222e+000	 9.599986199732197e+000	 9.996909682607710e+000
0	 1.066659822244222e+000	 9.666656597019092e+000	 9.998002298629741e+000
0	 1.066659822244223e+000	 9.733326577638575e+000	 9.998808321942210e+000
0	 1.066659822244223e+000	 9.799996024918524e+000	 9.999332147446083e+000
0	 1.066659822244222e+000	 9.866664822186822e+000	 9.999578164543943e+000
0	 1.066659822244223e+000	 9.933332852771352e+000	 9.999550757138925e+000
0	 1.066659822244222e+000	 9.999999999999998e+000	 9.999254303633670e+000
0	 1.133319925002959e+000	 9.333302777352781e+000	 9.989837514492439e+000
0	 1.133319925002959e+000	 9.399973674588175e+000	 9.992077967724853e+000
0	 1.133319925002958e+000	 9.466644621844619e+000	 9.994018655267968e+000
0	 1.133319925002959e+000	 9.533315502450000e+000	 9.995663740007380e+000
0	 1.133319925002959e+000	 9.599986199732197e+000	 9.997017379432046e+000
0	 1.133319925002959e+000	 9.666656597019095e+000	 9.998083725634105e+000
0	 1.133319925002959e+000	 9.733326577638579e+000	 9.998866925308173e+000
0	 1.133319925002959e+000	 9.799996024918523e+000	 9.999371119750601e+000
0	 1.133319925002959e+000	 9.866664822186822e+000	 9.999600444858766e+000
0	 1.133319925002959e+000	 9.933332852771356e+000	 9.999559031129884e+000
0	 1.133319925002959e+000	 1.000000000000000e+001	 9.999251003659886e+000
0	 1.199979977769445e+000	 9.333302777352785e+000	 9.990112876484545e+000
0	 1.199979977769445e+000	 9.399973674588178e+000	 9.992298885417727e+000
0	 1.199979977769445e+000	 9.466644621844619e+000	 9.994190978557450e+000
0	 1.199979977769445e+000	 9.533315502450002e+000	 9.995793480926123e+000
0	 1.199979977769446e+000	 9.599986199732195e+000	 9.997110712281174e+000
0	 1.199979977769445e+000	 9.666656597019093e+000	 9.998146987114680e+000
0	 1.199979977769445e+000	 9.733326577638575e+000	 9.998906614652855e+000
0	 1.199979977769445e+000	 9.799996024918523e+000	 9.999393898855191e+000
0	 1.199979977769446e+000	 9.866664822186822e+000	 9.999613138413894e+000
0	 1.199979977769445e+000	 9.933332852771354e+000	 9.999568626752405e+000
0	 1.199979977769445e+000	 1.000000000000000e+001	 9.999264652024865e+000
0	 1.266639997208098e+000	 9.333302777352781e+000	 9.990409160854105e+000
0	 1.266639997208098e+000	 9.399973674588178e+000	 9.992529145877276e+000
0	 1.266639997208098e+000	 9.466644621844617e+000	 9.994362336758831e+000
0	 1.266639997208098e+000	 9.533315502449998e+000	 9.995913636797907e+000
0	 1.266639997208098e+000	 9.599986199732198e+000	 9.997187944191355e+000
0	 1.266639997208098e+000	 9.666656597019095e+000	 9.998190152033400e+000
0	 1.266639997208098e+000	 9.733326577638577e+000	 9.998925148314914e+000
0	 1.266639997208098e+000	 9.799996024918524e+000	 9.999397815922901e+000
0	 1.266639997208098e+000	 9.866664822186822e+000	 9.999613032639553e+000
0	 1.266639997208098e+000	 9.933332852771354e+000	 9.999575671141356e+000
0	 1.266639997208098e+000	 1.000000000000000e+001	 9.999290598997725e+000
0	 1.333299999983334e+000	 9.333302777352785e+000	 9.990724241593487e+000
0	 1.333299999983334e+000	 9.399973674588177e+000	 9.992766895209115e+000
0	 1.333299999983334e+000	 9.466644621844619e+000	 9.994531031546126e+000
0	 1.333299999983334e+000	 9.533315502450002e+000	 9.996022548321161e+000
0	 1.333299999983334e+000	 9.599986199732198e+000	 9.997247338341214e+000
0	 1.333299999983334e+000	 9.666656597019093e+000	 9.998211289502914e+000
0	 1.333299999983334e+000	 9.733326577638575e+000	 9.998920284792302e+000
0	 1.333299999983334e+000	 9.799996024918523e+000	 9.999380202283906e+000
0	 1.333299999983334e+000	 9.866664822186824e+000	 9.999596915140051e+000
0	 1.333299999983334e+000	 9.933332852771356e+000	 9.999576291609829e+000
0	 1.333299999983334e+000	 1.000000000000000e+001	 9.999324195028121e+000
0	 1.333299999983334e+000	 0.000000000000000e+000	-8.308779696471090e+000
0	 1.333299999983334e+000	 6.666714722864758e-002	-4.568452308627552e+000
0	 1.333299999983334e+000	 1.333351778131789e-001	-1.098001854640513e+000
0	 1.333299999983334e+000	 2.000039750814772e-001	 2.095814989343452e+000
0	 1.333299999983334e+000	 2.666734223614255e-001	 5.006238102232298e+000
0	 1.333299999983334e+000	 3.333434029809069e-001	 7.626503918649222e+000
0	 1.333299999983334e+000	 4.000138002678044e-001	 9.949845429502910e+000
0	 1.333299999983334e+000	 4.666844975500012e-001	 1.196949218246732e+001
0	 1.333299999983334e+000	 5.333553781553803e-001	 1.367867028237117e+001
0	 1.333299999983334e+000	 6.000263254118247e-001	 1.507060239149690e+001
0	 1.333299999983334e+000	 6.666972226472174e-001	 1.613850772978941e+001
0	 1.399969999982150e+000	 0.000000000000000e+000	-8.716145402853913e+000
0	 1.399969999982150e+000	 6.666714722864754e-002	-4.769065153855085e+000
0	 1.399969999982150e+000	 1.333351778131789e-001	-1.102140461445871e+000
0	 1.399969999982150e+000	 2.000039750814772e-001	 2.266476902611785e+000
0	 1.399969999982150e+000	 2.666734223614255e-001	 5.318630887618519e+000
0	 1.399969999982150e+000	 3.333434029809069e-001	 8.036161164699550e+000
0	 1.399969999982150e+000	 4.000138002678045e-001	 1.040090312745432e+001
0	 1.399969999982150e+000	 4.666844975500012e-001	 1.239468789249381e+001
0	 1.399969999982150e+000	 5.333553781553803e-001	 1.399934229986561e+001
0	 1.399969999982150e+000	 6.000263254118247e-001	 1.519668891336671e+001
0	 1.399969999982150e+000	 6.666972226472177e-001	 1.596854602074394e+001
0	 1.466639999981866e+000	 0.000000000000000e+000	-8.386266000154340e+000
0	 1.466639999981866e+000	 6.666714722864756e-002	-4.467112303207268e+000
0	 1.466639999981866e+000	 1.333351778131789e-001	-8.118511512103012e-001
0	 1.466639999981866e+000	 2.000039750814773e-001	 2.552095925476671e+000
0	 1.466639999981866e+000	 2.666734223614254e-001	 5.597302701912623e+000
0	 1.466639999981867e+000	 3.333434029809070e-001	 8.296338259378228e+000
0	 1.466639999981866e+000	 4.000138002678044e-001	 1.062176698605556e+001
0	 1.466639999981867e+000	 4.666844975500011e-001	 1.254614857758456e+001
0	 1.466639999981867e+000	 5.333553781553803e-001	 1.404203803749621e+001
0	 1.466639999981866e+000	 6.000263254118248e-001	 1.508198567752266e+001
0	 1.466639999981867e+000	 6.666972226472175e-001	 1.563853711778409e+001
0	 1.533309999982383e+000	 0.000000000000000e+000	-7.428397331887839e+000
0	 1.533309999982383e+000	 6.666714722864754e-002	-3.729692902480117e+000
0	 1.533309999982383e+000	 1.333351778131789e-001	-2.582003417076298e-001
0	 1.533309999982383e+000	 2.000039750814772e-001	 2.951514815012151e+000
0	 1.533309999982383e+000	 2.666734223614256e-001	 5.864882276068520e+000
0	 1.533309999982383e+000	 3.333434029809069e-001	 8.447326994450515e+000
0	 1.533309999982383e+000	 4.000138002678044e-001	 1.066426916841521e+001
0	 1.533309999982383e+000	 4.666844975500011e-001	 1.248112424203096e+001
0	 1.533309999982383e+000	 5.333553781553803e-001	 1.386330290559590e+001
0	 1.533309999982383e+000	 6.000263254118248e-001	 1.477621109593183e+001
0	 1.533309999982383e+000	 6.666972226472177e-001	 1.518524999655297e+001
0	 1.599979999983600e+000	 0.000000000000000e+000	-5.951795241568170e+000
0	 1.599979999983599e+000	 6.666714722864754e-002	-2.623906097467744e+000
0	 1.599979999983600e+000	 1.333351778131790e-001	 5.277455492902755e-001
0	 1.599979999983600e+000	 2.000039750814772e-001	 3.463576328294110e+000
0	 1.599979999983600e+000	 2.666734223614256e-001	 6.143998341041815e+000
0	 1.599979999983600e+000	 3.333434029809069e-001	 8.529419161683238e+000
0	 1.599979999983600e+000	 4.000138002678044e-001	 1.058024183764314e+001
0	 1.599979999983599e+000	 4.666844975500011e-001	 1.225686489012538e+001
0	 1.599979999983600e+000	 5.333553781553801e-001	 1.351968231449840e+001
0	 1.599979999983600e+000	 6.000263254118248e-001	 1.432908358056175e+001
0	 1.599979999983600e+000	 6.666972226472177e-001	 1.464545363269391e+001
0	 1.666649999985417e+000	 0.000000000000000e+000	-4.065715572707379e+000
0	 1.666649999985416e+000	 6.666714722864757e-002	-1.216851033962412e+000
0	 1.666649999985417e+000	 1.333351778131790e-001	 1.514920104013457e+000
0	 1.666649999985416e+000	 2.000039750814773e-001	 4.087123222400328e+000
0	 1.666649999985416e+000	 2.666734223614256e-001	 6.457279627789909e+000
0	 1.666649999985416e+000	 3.333434029809069e-001	 8.582906552844733e+000
0	 1.666649999985416e+000	 4.000138002678043e-001	 1.042151715685048e+001
0	 1.666649999985417e+000	 4.666844975500012e-001	 1.193062052616129e+001
0	 1.666649999985416e+000	 5.333553781553800e-001	 1.306772167453815e+001
0	 1.666649999985416e+000	 6.000263254118247e-001	 1.379032154338047e+001
0	 1.666649999985416e+000	 6.666972226472175e-001	 1.405591700185057e+001
0	 1.733319999987733e+000	 0.000000000000000e+000	-1.879414168815805e+000
0	 1.733319999987733e+000	 6.666714722864756e-002	 4.243731422455143e-001
0	 1.733319999987733e+000	 1.333351778131789e-001	 2.672256904693861e+000
0	 1.733319999987733e+000	 2.000039750814772e-001	 4.820998254410438e+000
0	 1.733319999987734e+000	 2.666734223614256e-001	 6.827354867271898e+000
0	 1.733319999987733e+000	 3.333434029809068e-001	 8.648080959704899e+000
0	 1.733319999987733e+000	 4.000138002678043e-001	 1.023992728914972e+001
0	 1.733319999987733e+000	 4.666844975500011e-001	 1.155964115443312e+001
0	 1.733319999987733e+000	 5.333553781553801e-001	 1.256396639605039e+001
0	 1.733319999987733e+000	 6.000263254118248e-001	 1.320964339635654e+001
0	 1.733319999987733e+000	 6.666972226472177e-001	 1.345340907966687e+001
0	 1.799989999990450e+000	 0.000000000000000e+000	 4.978531265979354e-001
0	 1.799989999990450e+000	 6.666714722864754e-002	 2.232667285367542e+000
0	 1.799989999990450e+000	 1.333351778131789e-001	 3.968689533565398e+000
0	 1.799989999990450e+000	 2.000039750814773e-001	 5.664044181405936e+000
0	 1.799989999990450e+000	 2.666734223614256e-001	 7.276852790448616e+000
0	 1.799989999990450e+000	 3.333434029809069e-001	 8.765234174035143e+000
0	 1.799989999990450e+000	 4.000138002678043e-001	 1.008730439765460e+001
0	 1.799989999990450e+000	 4.666844975500012e-001	 1.120117677923641e+001
0	 1.799989999990450e+000	 5.333553781553804e-001	 1.206496188937109e+001
0	 1.799989999990450e+000	 6.000263254118247e-001	 1.263676755145904e+001
0	 1.799989999990450e+000	 6.666972226472177e-001	 1.287469884178705e+001
0	 1.866659999993467e+000	 0.000000000000000e+000	 2.956830470026943e+000
0	 1.866659999993467e+000	 6.666714722864756e-002	 4.140932249617069e+000
0	 1.866659999993467e+000	 1.333351778131790e-001	 5.373151572863869e+000
0	 1.866659999993467e+000	 2.000039750814772e-001	 6.615103760470212e+000
0	 1.866659999993467e+000	 2.666734223614254e-001	 7.828402128282633e+000
0	 1.866659999993467e+000	 3.333434029809069e-001	 8.974657987608421e+000
0	 1.866659999993466e+000	 4.000138002678043e-001	 1.001548064548017e+001
0	 1.866659999993467e+000	 4.666844975500012e-001	 1.091247740486764e+001
0	 1.866659999993466e+000	 5.333553781553801e-001	 1.162725356483699e+001
0	 1.866659999993467e+000	 6.000263254118247e-001	 1.212141242065751e+001
0	 1.866659999993467e+000	 6.666972226472177e-001	 1.235655526385558e+001
0	 1.933329999996684e+000	 0.000000000000000e+000	 5.388262017966015e+000
0	 1.933329999996684e+000	 6.666714722864757e-002	 6.082068889209358e+000
0	 1.933329999996684e+000	 1.333351778131789e-001	 6.854576604827014e+000
0	 1.933329999996684e+000	 2.000039750814773e-001	 7.673019748688510e+000
0	 1.933329999996684e+000	 2.666734223614255e-001	 8.504631611738253e+000
0	 1.933329999996683e+000	 3.333434029809069e-001	 9.316644192199224e+000
0	 1.933329999996684e+000	 4.000138002678044e-001	 1.007628819574277e+001
0	 1.933329999996684e+000	 4.666844975500011e-001	 1.075079303562438e+001
0	 1.933329999996684e+000	 5.333553781553804e-001	 1.130738683278562e+001
0	 1.933329999996683e+000	 6.000263254118246e-001	 1.171329641592203e+001
0	 1.933329999996683e+000	 6.666972226472177e-001	 1.193574732151726e+001
0	 2.000000000000000e+000	 0.000000000000000e+000	 7.682891926911658e+000
0	 2.000000000000000e+000	 6.666714722864757e-002	 7.988978058361536e+000
0	 2.000000000000000e+000	 1.333351778131789e-001	 8.381898211694494e+000
0	 2.000000000000000e+000	 2.000039750814773e-001	 8.836634903147946e+000
0	 2.000000000000000e+000	 2.666734223614256e-001	 9.328169971781517e+000
0	 2.000000000000000e+000	 3.333434029809069e-001	 9.831484579583583e+000
0	 2.000000000000000e+000	 4.000138002678043e-001	 1.032155921156003e+001
0	 2.000000000000000e+000	 4.666844975500010e-001	 1.077337367580522e+001
0	 2.000000000000000e+000	 5.333553781553803e-001	 1.116190710355521e+001
0	 2.000000000000000e+000	 6.000263254118246e-001	 1.146213794922318e+001
0	 2.000000000000000e+000	 6.666972226472177e-001	 1.164904399041713e+001
0	 1.333299999983334e+000	 6.666972226472174e-001	 1.613850772978941e+001
0	 1.333299999983334e+000	 7.333579753122047e-001	 1.693800956808550e+001
0	 1.333299999983334e+000	 8.000185779984418e-001	 1.752955769758323e+001
0	 1.333299999983334e+000	 8.666790473703454e-001	 1.791320215418806e+001
0	 1.333299999983334e+000	 9.333394000923321e-001	 1.808899328132531e+001
0	 1.333299999983334e+000	 9.999996528288189e-001	 1.805698172994638e+001
0	 1.333299999983334e+000	 1.066659822244222e+000	 1.781721845853388e+001
0	 1.333299999983334e+000	 1.133319925002959e+000	 1.736975473310542e+001
0	 1.333299999983334e+000	 1.199979977769445e+000	 1.671464212721649e+001
0	 1.333299999983334e+000	 1.266639997208098e+000	 1.585193252196191e+001
0	 1.333299999983334e+000	 1.333299999983334e+000	 1.478167810597641e+001
0	 1.399969999982150e+000	 6.666972226472177e-001	 1.596854602074394e+001
0	 1.399969999982150e+000	 7.333579753122047e-001	 1.643910280420922e+001
0	 1.399969999982150e+000	 8.000185779984417e-001	 1.674742516510440e+001
0	 1.399969999982150e+000	 8.666790473703450e-001	 1.689739454841082e+001
0	 1.399969999982150e+000	 9.333394000923321e-001	 1.689289259363494e+001
0	 1.399969999982150e+000	 9.999996528288191e-001	 1.673780113481213e+001
0	 1.399969999982150e+000	 1.066659822244222e+000	 1.643600220050934e+001
0	 1.399969999982150e+000	 1.133319925002959e+000	 1.599137801382732e+001
0	 1.399969999982150e+000	 1.199979977769445e+000	 1.540781099240201e+001
0	 1.399969999982150e+000	 1.266639997208098e+000	 1.468918374840523e+001
0	 1.399969999982150e+000	 1.333299999983334e+000	 1.383937908854451e+001
0	 1.466639999981867e+000	 6.666972226472175e-001	 1.563853711778410e+001
0	 1.466639999981867e+000	 7.333579753122048e-001	 1.587761134342401e+001
0	 1.466639999981866e+000	 8.000185779984416e-001	 1.598823271714704e+001
0	 1.466639999981866e+000	 8.666790473703453e-001	 1.597746392874957e+001
0	 1.466639999981866e+000	 9.333394000923321e-001	 1.585236777527403e+001
0	 1.466639999981866e+000	 9.999996528288190e-001	 1.562000716101056e+001
0	 1.466639999981867e+000	 1.066659822244222e+000	 1.528744509749809e+001
0	 1.466639999981867e+000	 1.133319925002959e+000	 1.486174470352525e+001
0	 1.466639999981866e+000	 1.199979977769445e+000	 1.434996920513069e+001
0	 1.466639999981866e+000	 1.266639997208097e+000	 1.375918193560312e+001
0	 1.466639999981866e+000	 1.333299999983334e+000	 1.309644633548083e+001
0	 1.533309999982383e+000	 6.666972226472177e-001	 1.518524999655297e+001
0	 1.533309999982383e+000	 7.333579753122047e-001	 1.527529474949165e+001
0	 1.533309999982383e+000	 8.000185779984417e-001	 1.526072826047348e+001
0	 1.533309999982383e+000	 8.666790473703455e-001	 1.515114432234262e+001
0	 1.533309999982383e+000	 9.333394000923321e-001	 1.495613677062923e+001
0	 1.533309999982383e+000	 9.999996528288192e-001	 1.468529948354976e+001
0	 1.533309999982383e+000	 1.066659822244222e+000	 1.434822638200688e+001
0	 1.533309999982383e+000	 1.133319925002958e+000	 1.395451142958937e+001
0	 1.533309999982383e+000	 1.199979977769445e+000	 1.351374863257179e+001
0	 1.533309999982383e+000	 1.266639997208098e+000	 1.303553203991405e+001
0	 1.533309999982383e+000	 1.333299999983334e+000	 1.252945574326073e+001
0	 1.599979999983600e+000	 6.666972226472177e-001	 1.464545363269391e+001
0	 1.599979999983600e+000	 7.333579753122049e-001	 1.465391258617403e+001
0	 1.599979999983600e+000	 8.000185779984417e-001	 1.457365970184611e+001
0	 1.599979999983599e+000	 8.666790473703451e-001	 1.441616975632818e+001
0	 1.599979999983600e+000	 9.333394000923322e-001	 1.419291752408705e+001
0	 1.599979999983600e+000	 9.999996528288191e-001	 1.391537777743766e+001
0	 1.599979999983600e+000	 1.066659822244222e+000	 1.359502528654227e+001
0	 1.599979999983599e+000	 1.133319925002958e+000	 1.324333481940965e+001
0	 1.599979999983600e+000	 1.199979977769445e+000	 1.287178114189446e+001
0	 1.599979999983600e+000	 1.266639997208098e+000	 1.249183901769641e+001
0	 1.599979999983600e+000	 1.333299999983334e+000	 1.211498320835954e+001
0	 1.666649999985416e+000	 6.666972226472175e-001	 1.405591700185057e+001
0	 1.666649999985416e+000	 7.333579753122048e-001	 1.403522441723312e+001
0	 1.666649999985417e+000	 8.000185779984420e-001	 1.393577494802725e+001
0	 1.666649999985416e+000	 8.666790473703451e-001	 1.377027425784432e+001
0	 1.666649999985416e+000	 9.333394000923321e-001	 1.355142798003385e+001
0	 1.666649999985417e+000	 9.999996528288191e-001	 1.329194171768202e+001
0	 1.666649999985416e+000	 1.066659822244222e+000	 1.300452104361064e+001
0	 1.666649999985417e+000	 1.133319925002959e+000	 1.270187150037595e+001
0	 1.666649999985416e+000	 1.199979977769445e+000	 1.239669860026775e+001
0	 1.666649999985416e+000	 1.266639997208098e+000	 1.210170782530849e+001
0	 1.666649999985417e+000	 1.333299999983334e+000	 1.182960462725253e+001
0	 1.733319999987733e+000	 6.666972226472177e-001	 1.345340907966687e+001
0	 1.733319999987733e+000	 7.333579753122046e-001	 1.344098980643108e+001
0	 1.733319999987733e+000	 8.000185779984415e-001	 1.335582190577921e+001
0	 1.733319999987733e+000	 8.666790473703454e-001	 1.321119185402909e+001
0	 1.733319999987733e+000	 9.333394000923320e-001	 1.302038608285584e+001
0	 1.733319999987733e+000	 9.999996528288189e-001	 1.279669097929040e+001
0	 1.733319999987733e+000	 1.066659822244222e+000	 1.255339288571821e+001
0	 1.733319999987733e+000	 1.133319925002959e+000	 1.230377809987795e+001
0	 1.733319999987733e+000	 1.199979977769445e+000	 1.206113287486060e+001
0	 1.733319999987733e+000	 1.266639997208098e+000	 1.183874341910854e+001
0	 1.733319999987733e+000	 1.333299999983334e+000	 1.164989589641494e+001
0	 1.799989999990450e+000	 6.666972226472177e-001	 1.287469884178705e+001
0	 1.799989999990450e+000	 7.333579753122047e-001	 1.289296831753010e+001
0	 1.799989999990450e+000	 8.000185779984418e-001	 1.284254848186431e+001
0	 1.799989999990450e+000	 8.666790473703450e-001	 1.273665657202034e+001
0	 1.799989999990450e+000	 9.333394000923322e-001	 1.258850977693907e+001
0	 1.799989999990450e+000	 9.999996528288190e-001	 1.241132523727024e+001
0	 1.799989999990450e+000	 1.066659822244222e+000	 1.221832004537107e+001
0	 1.799989999990450e+000	 1.133319925002959e+000	 1.202271124530521e+001
0	 1.799989999990450e+000	 1.199979977769445e+000	 1.183771583284179e+001
0	 1.799989999990450e+000	 1.266639997208098e+000	 1.167655075545470e+001
0	 1.799989999990450e+000	 1.333299999983334e+000	 1.155243291232197e+001
0	 1.866659999993467e+000	 6.666972226472177e-001	 1.235655526385558e+001
0	 1.866659999993467e+000	 7.333579753122049e-001	 1.241291951429251e+001
0	 1.866659999993467e+000	 8.000185779984415e-001	 1.240470258304484e+001
0	 1.866659999993467e+000	 8.666790473703453e-001	 1.234440243895587e+001
0	 1.866659999993467e+000	 9.333394000923321e-001	 1.224451700666945e+001
0	 1.866659999993467e+000	 9.999996528288186e-001	 1.211754416662873e+001
0	 1.866659999993467e+000	 1.066659822244222e+000	 1.197598175507507e+001
0	 1.866659999993467e+000	 1.133319925002958e+000	 1.183232756404710e+001
0	 1.866659999993467e+000	 1.199979977769445e+000	 1.169907934138004e+001
0	 1.866659999993467e+000	 1.266639997208098e+000	 1.158873479070503e+001
0	 1.866659999993467e+000	 1.333299999983334e+000	 1.151379157144877e+001
0	 1.933329999996683e+000	 6.666972226472177e-001	 1.193574732151725e+001
0	 1.933329999996684e+000	 7.333579753122047e-001	 1.202260296048077e+001
0	 1.933329999996683e+000	 8.000185779984416e-001	 1.205103211608306e+001
0	 1.933329999996683e+000	 8.666790473703453e-001	 1.203216348197339e+001
0	 1.933329999996684e+000	 9.333394000923321e-001	 1.197712571643274e+001
0	 1.933329999996683e+000	 9.999996528288188e-001	 1.189704744237297e+001
0	 1.933329999996683e+000	 1.066659822244222e+000	 1.180305724733594e+001
0	 1.933329999996684e+000	 1.133319925002958e+000	 1.170628368349289e+001
0	 1.933329999996684e+000	 1.199979977769445e+000	 1.161785526764391e+001
0	 1.933329999996684e+000	 1.266639997208098e+000	 1.154890048121753e+001
0	 1.933329999996684e+000	 1.333299999983334e+000	 1.151054777027047e+001
0	 2.000000000000000e+000	 6.666972226472177e-001	 1.164904399041713e+001
0	 2.000000000000000e+000	 7.333579753122048e-001	 1.174377821985740e+001
0	 2.000000000000000e+000	 8.000185779984418e-001	 1.179028498774123e+001
0	 2.000000000000000e+000	 8.666790473703454e-001	 1.179767372821047e+001
0	 2.000000000000000e+000	 9.333394000923323e-001	 1.177505385061455e+001
0	 2.000000000000000e+000	 9.999996528288190e-001	 1.173153473950983e+001
0	 2.000000000000000e+000	 1.066659822244222e+000	 1.167622575465922e+001
0	 2.000000000000000e+000	 1.133319925002958e+000	 1.161823623103165e+001
0	 2.000000000000000e+000	 1.199979977769445e+000	 1.156667547880185e+001
0	 2.000000000000000e+000	 1.266639997208097e+000	 1.153065278335011e+001
0	 2.000000000000000e+000	 1.333299999983334e+000	 1.151927740526212e+001
0	 1.333299999983334e+000	 1.333299999983334e+000	 1.478167810597641e+001
0	 1.333299999983334e+000	 1.399969999982150e+000	 1.367635208129109e+001
0	 1.333299999983334e+000	 1.466639999981867e+000	 1.270785249907082e+001
0	 1.333299999983334e+000	 1.533309999982383e+000	 1.187484069526402e+001
0	 1.333299999983334e+000	 1.599979999983599e+000	 1.117597800582039e+001
0	 1.333299999983334e+000	 1.666649999985416e+000	 1.060992576669088e+001
0	 1.333299999983334e+000	 1.733319999987733e+000	 1.017534531382773e+001
0	 1.333299999983334e+000	 1.799989999990449e+000	 9.870897983184431e+000
0	 1.333299999983334e+000	 1.866659999993466e+000	 9.695245110715728e+000
0	 1.333299999983334e+000	 1.933329999996683e+000	 9.647048032377647e+000
0	 1.333299999983334e+000	 2.000000000000000e+000	 9.724968084127484e+000
0	 1.399969999982150e+000	 1.333299999983334e+000	 1.383937908854451e+001
0	 1.399969999982150e+000	 1.399969999982150e+000	 1.298011635150612e+001
0	 1.399969999982150e+000	 1.466639999981866e+000	 1.222975576467070e+001
0	 1.399969999982150e+000	 1.533309999982383e+000	 1.158673022797841e+001
0	 1.399969999982150e+000	 1.599979999983599e+000	 1.104947264137036e+001
0	 1.399969999982150e+000	 1.666649999985416e+000	 1.061641590478871e+001
0	 1.399969999982150e+000	 1.733319999987733e+000	 1.028599291817651e+001
0	 1.399969999982150e+000	 1.799989999990450e+000	 1.005663658147781e+001
0	 1.399969999982150e+000	 1.866659999993466e+000	 9.926779794637671e+000
0	 1.399969999982150e+000	 1.933329999996683e+000	 9.894855457602059e+000
0	 1.399969999982150e+000	 2.000000000000000e+000	 9.959296470317966e+000
0	 1.466639999981866e+000	 1.333299999983334e+000	 1.309644633548083e+001
0	 1.466639999981866e+000	 1.399969999982150e+000	 1.244294338623476e+001
0	 1.466639999981867e+000	 1.466639999981866e+000	 1.187418352431011e+001
0	 1.466639999981867e+000	 1.533309999982383e+000	 1.138841106193852e+001
0	 1.466639999981866e+000	 1.599979999983599e+000	 1.098387031135238e+001
0	 1.466639999981867e+000	 1.666649999985416e+000	 1.065880558478477e+001
0	 1.466639999981867e+000	 1.733319999987733e+000	 1.041146119446953e+001
0	 1.466639999981867e+000	 1.799989999990450e+000	 1.024008145264119e+001
0	 1.466639999981866e+000	 1.866659999993466e+000	 1.014291067153499e+001
0	 1.466639999981867e+000	 1.933329999996683e+000	 1.011819316338691e+001
0	 1.466639999981866e+000	 2.000000000000000e+000	 1.016417324043365e+001
0	 1.533309999982383e+000	 1.333299999983334e+000	 1.252945574326074e+001
0	 1.533309999982383e+000	 1.399969999982150e+000	 1.204524059392846e+001
0	 1.533309999982383e+000	 1.466639999981866e+000	 1.162509680061507e+001
0	 1.533309999982383e+000	 1.533309999982383e+000	 1.126711993614351e+001
0	 1.533309999982383e+000	 1.599979999983600e+000	 1.096940557333723e+001
0	 1.533309999982383e+000	 1.666649999985416e+000	 1.073004928502016e+001
0	 1.533309999982383e+000	 1.733319999987733e+000	 1.054714664401674e+001
0	 1.533309999982383e+000	 1.799989999990450e+000	 1.041879322315191e+001
0	 1.533309999982383e+000	 1.866659999993466e+000	 1.034308459525114e+001
0	 1.533309999982383e+000	 1.933329999996683e+000	 1.031811633314036e+001
0	 1.533309999982383e+000	 2.000000000000000e+000	 1.034198400964603e+001
0	 1.599979999983600e+000	 1.333299999983334e+000	 1.211498320835954e+001
0	 1.599979999983600e+000	 1.399969999982150e+000	 1.176741538303863e+001
0	 1.599979999983600e+000	 1.466639999981866e+000	 1.146645661621163e+001
0	 1.599979999983600e+000	 1.533309999982383e+000	 1.121009358959258e+001
0	 1.599979999983600e+000	 1.599979999983599e+000	 1.099631298489582e+001
0	 1.599979999983599e+000	 1.666649999985416e+000	 1.082310148383600e+001
0	 1.599979999983600e+000	 1.733319999987733e+000	 1.068844576812812e+001
0	 1.599979999983600e+000	 1.799989999990450e+000	 1.059033251948747e+001
0	 1.599979999983600e+000	 1.866659999993467e+000	 1.052674841962967e+001
0	 1.599979999983600e+000	 1.933329999996683e+000	 1.049568015027067e+001
0	 1.599979999983600e+000	 2.000000000000000e+000	 1.049511439312671e+001
0	 1.666649999985417e+000	 1.333299999983334e+000	 1.182960462725253e+001
0	 1.666649999985416e+000	 1.399969999982150e+000	 1.158987516201669e+001
0	 1.666649999985416e+000	 1.466639999981866e+000	 1.138222399372585e+001
0	 1.666649999985417e+000	 1.533309999982383e+000	 1.120456876128494e+001
0	 1.666649999985416e+000	 1.599979999983599e+000	 1.105482710359908e+001
0	 1.666649999985416e+000	 1.666649999985416e+000	 1.093091665957354e+001
0	 1.666649999985417e+000	 1.733319999987733e+000	 1.083075506811379e+001
0	 1.666649999985416e+000	 1.799989999990449e+000	 1.075225996812542e+001
0	 1.666649999985416e+000	 1.866659999993466e+000	 1.069334899851423e+001
0	 1.666649999985417e+000	 1.933329999996683e+000	 1.065193979818617e+001
0	 1.666649999985416e+000	 2.000000000000000e+000	 1.062595000604736e+001
0	 1.733319999987733e+000	 1.333299999983334e+000	 1.164989589641494e+001
0	 1.733319999987733e+000	 1.399969999982150e+000	 1.149302733931407e+001
0	 1.733319999987733e+000	 1.466639999981866e+000	 1.135635995578380e+001
0	 1.733319999987733e+000	 1.533309999982383e+000	 1.123778219021986e+001
0	 1.733319999987733e+000	 1.599979999983599e+000	 1.113518248701801e+001
0	 1.733319999987733e+000	 1.666649999985416e+000	 1.104644929057407e+001
0	 1.733319999987733e+000	 1.733319999987733e+000	 1.096947104528390e+001
0	 1.733319999987733e+000	 1.799989999990449e+000	 1.090213619554340e+001
0	 1.733319999987733e+000	 1.866659999993466e+000	 1.084233318574854e+001
0	 1.733319999987733e+000	 1.933329999996683e+000	 1.078795046029531e+001
0	 1.733319999987733e+000	 2.000000000000000e+000	 1.073687646357977e+001
0	 1.799989999990450e+000	 1.333299999983334e+000	 1.155243291232197e+001
0	 1.799989999990450e+000	 1.399969999982150e+000	 1.145727932338216e+001
0	 1.799989999990450e+000	 1.466639999981867e+000	 1.137282552501159e+001
0	 1.799989999990450e+000	 1.533309999982383e+000	 1.129697061539666e+001
0	 1.799989999990450e+000	 1.599979999983599e+000	 1.122761369272369e+001
0	 1.799989999990450e+000	 1.666649999985417e+000	 1.116265385517897e+001
0	 1.799989999990450e+000	 1.733319999987733e+000	 1.109999020094874e+001
0	 1.799989999990450e+000	 1.799989999990450e+000	 1.103752182821918e+001
0	 1.799989999990450e+000	 1.866659999993466e+000	 1.097314783517645e+001
0	 1.799989999990450e+000	 1.933329999996683e+000	 1.090476732000664e+001
0	 1.799989999990450e+000	 2.000000000000000e+000	 1.083027938089579e+001
0	 1.866659999993467e+000	 1.333299999983334e+000	 1.151379157144877e+001
0	 1.866659999993467e+000	 1.399969999982150e+000	 1.146303852267235e+001
0	 1.866659999993467e+000	 1.466639999981866e+000	 1.141558172403535e+001
0	 1.866659999993467e+000	 1.533309999982383e+000	 1.136937077581469e+001
0	 1.866659999993466e+000	 1.599979999983599e+000	 1.132235527828724e+001
0	 1.866659999993467e+000	 1.666649999985416e+000	 1.127248483172968e+001
0	 1.866659999993467e+000	 1.733319999987733e+000	 1.121770903641863e+001
0	 1.866659999993467e+000	 1.799989999990449e+000	 1.115597749263057e+001
0	 1.866659999993467e+000	 1.866659999993467e+000	 1.108523980064187e+001
0	 1.866659999993467e+000	 1.933329999996683e+000	 1.100344556072876e+001
0	 1.866659999993466e+000	 2.000000000000000e+000	 1.090854437316738e+001
0	 1.933329999996684e+000	 1.333299999983334e+000	 1.151054777027047e+001
0	 1.933329999996684e+000	 1.399969999982150e+000	 1.149071234563606e+001
0	 1.933329999996684e+000	 1.466639999981866e+000	 1.146858957548120e+001
0	 1.933329999996684e+000	 1.533309999982383e+000	 1.144221941047336e+001
0	 1.933329999996683e+000	 1.599979999983599e+000	 1.140964180127983e+001
0	 1.933329999996683e+000	 1.666649999985416e+000	 1.136889669856773e+001
0	 1.933329999996684e+000	 1.733319999987733e+000	 1.131802405300402e+001
0	 1.933329999996683e+000	 1.799989999990449e+000	 1.125506381525551e+001
0	 1.933329999996684e+000	 1.866659999993466e+000	 1.117805593598883e+001
0	 1.933329999996684e+000	 1.933329999996684e+000	 1.108504036587041e+001
0	 1.933329999996684e+000	 2.000000000000000e+000	 1.097405705556658e+001
0	 2.000000000000000e+000	 1.333299999983334e+000	 1.151927740526212e+001
0	 2.000000000000000e+000	 1.399969999982150e+000	 1.152070820072463e+001
0	 2.000000000000000e+000	 1.466639999981866e+000	 1.151581010197532e+001
0	 2.000000000000000e+000	 1.533309999982383e+000	 1.150275325837209e+001
0	 2.000000000000000e+000	 1.599979999983599e+000	 1.147970781927271e+001
0	 2.000000000000000e+000	 1.666649999985416e+000	 1.144484393403471e+001
0	 2.000000000000000e+000	 1.733319999987733e+000	 1.139633175201542e+001
0	 2.000000000000000e+000	 1.799989999990450e+000	 1.133234142257201e+001
0	 2.000000000000000e+000	 1.866659999993467e+000	 1.125104309506141e+001
0	 2.000000000000000e+000	 1.933329999996683e+000	 1.115060691884040e+001
0	 2.000000000000000e+000	 2.000000000000000e+000	 1.102920304326553e+001
0	 1.333299999983334e+000	 2.000000000000000e+000	 9.724968084127484e+000
0	 1.333299999983334e+000	 2.066670000003317e+000	 9.846473487142378e+000
0	 1.333299999983334e+000	 2.133340000006534e+000	 9.931838634911307e+000
0	 1.333299999983334e+000	 2.200010000009550e+000	 9.983934121860179e+000
0	 1.333299999983334e+000	 2.266680000012267e+000	 1.000563054241466e+001
0	 1.333299999983334e+000	 2.333350000014584e+000	 9.999798491000234e+000
0	 1.333299999983334e+000	 2.400020000016401e+000	 9.969308562042153e+000
0	 1.333299999983334e+000	 2.466690000017617e+000	 9.917031349965477e+000
0	 1.333299999983334e+000	 2.533360000018134e+000	 9.845837449195052e+000
0	 1.333299999983334e+000	 2.600030000017851e+000	 9.758597454155503e+000
0	 1.333299999983334e+000	 2.666700000016666e+000	 9.658181959271273e+000
0	 1.399969999982150e+000	 2.000000000000000e+000	 9.959296470317966e+000
0	 1.399969999982150e+000	 2.066670000003317e+000	 1.005485648044527e+001
0	 1.399969999982150e+000	 2.133340000006534e+000	 1.011891691663386e+001
0	 1.399969999982150e+000	 2.200010000009551e+000	 1.015385235031629e+001
0	 1.399969999982150e+000	 2.266680000012268e+000	 1.016203735292492e+001
0	 1.399969999982150e+000	 2.333350000014584e+000	 1.014584649589195e+001
0	 1.399969999982150e+000	 2.400020000016400e+000	 1.010765435064936e+001
0	 1.399969999982150e+000	 2.466690000017617e+000	 1.004983548862899e+001
0	 1.399969999982150e+000	 2.533360000018133e+000	 9.974764481262463e+000
0	 1.399969999982150e+000	 2.600030000017851e+000	 9.884815899981206e+000
0	 1.399969999982150e+000	 2.666700000016667e+000	 9.782364316216494e+000
0	 1.466639999981866e+000	 2.000000000000000e+000	 1.016417324043365e+001
0	 1.466639999981866e+000	 2.066670000003317e+000	 1.023116769833500e+001
0	 1.466639999981866e+000	 2.133340000006534e+000	 1.027194917671852e+001
0	 1.466639999981866e+000	 2.200010000009550e+000	 1.028844575377286e+001
0	 1.466639999981867e+000	 2.266680000012266e+000	 1.028258550768660e+001
0	 1.466639999981866e+000	 2.333350000014585e+000	 1.025629651664809e+001
0	 1.466639999981866e+000	 2.400020000016400e+000	 1.021150685884558e+001
0	 1.466639999981866e+000	 2.466690000017618e+000	 1.015014461246713e+001
0	 1.466639999981867e+000	 2.533360000018134e+000	 1.007413785570065e+001
0	 1.466639999981866e+000	 2.600030000017850e+000	 9.985414666733922e+000
0	 1.466639999981867e+000	 2.666700000016667e+000	 9.885903123754540e+000
0	 1.533309999982383e+000	 2.000000000000000e+000	 1.034198400964603e+001
0	 1.533309999982383e+000	 2.066670000003316e+000	 1.037886910240679e+001
0	 1.533309999982383e+000	 2.133340000006534e+000	 1.039524345030632e+001
0	 1.533309999982383e+000	 2.200010000009551e+000	 1.039263816803891e+001
0	 1.533309999982383e+000	 2.266680000012267e+000	 1.037258437029873e+001
0	 1.533309999982383e+000	 2.333350000014584e+000	 1.033661317177984e+001
0	 1.533309999982383e+000	 2.400020000016400e+000	 1.028625568717619e+001
0	 1.533309999982383e+000	 2.466690000017617e+000	 1.022304303118158e+001
0	 1.533309999982383e+000	 2.533360000018134e+000	 1.014850631848972e+001
0	 1.533309999982383e+000	 2.600030000017850e+000	 1.006417666379417e+001
0	 1.533309999982383e+000	 2.666700000016667e+000	 9.971585181788427e+000
0	 1.599979999983600e+000	 2.000000000000000e+000	 1.049511439312671e+001
0	 1.599979999983599e+000	 2.066670000003317e+000	 1.050142265425593e+001
0	 1.599979999983600e+000	 2.133340000006534e+000	 1.049310777253839e+001
0	 1.599979999983600e+000	 2.200010000009550e+000	 1.047135342892345e+001
0	 1.599979999983600e+000	 2.266680000012267e+000	 1.043734330436039e+001
0	 1.599979999983600e+000	 2.333350000014584e+000	 1.039226107979841e+001
0	 1.599979999983600e+000	 2.400020000016400e+000	 1.033729043618663e+001
0	 1.599979999983600e+000	 2.466690000017617e+000	 1.027361505447410e+001
0	 1.599979999983600e+000	 2.533360000018133e+000	 1.020241861560977e+001
0	 1.599979999983600e+000	 2.600030000017851e+000	 1.012488480054253e+001
0	 1.599979999983599e+000	 2.666700000016666e+000	 1.004219729022118e+001
0	 1.666649999985416e+000	 2.000000000000000e+000	 1.062595000604736e+001
0	 1.666649999985417e+000	 2.066670000003317e+000	 1.060229031547781e+001
0	 1.666649999985416e+000	 2.133340000006534e+000	 1.056985017855593e+001
0	 1.666649999985416e+000	 2.200010000009550e+000	 1.052951537223562e+001
0	 1.666649999985417e+000	 2.266680000012267e+000	 1.048217167347072e+001
0	 1.666649999985416e+000	 2.333350000014584e+000	 1.042870485921505e+001
0	 1.666649999985417e+000	 2.400020000016401e+000	 1.037000070642238e+001
0	 1.666649999985417e+000	 2.466690000017617e+000	 1.030694499204645e+001
0	 1.666649999985416e+000	 2.533360000018133e+000	 1.024042349304096e+001
0	 1.666649999985416e+000	 2.600030000017850e+000	 1.017132198635956e+001
0	 1.666649999985417e+000	 2.666700000016666e+000	 1.010052624895586e+001
0	 1.733319999987733e+000	 2.000000000000000e+000	 1.073687646357977e+001
0	 1.733319999987734e+000	 2.066670000003317e+000	 1.068493404766790e+001
0	 1.733319999987733e+000	 2.133340000006533e+000	 1.062977870350021e+001
0	 1.733319999987733e+000	 2.200010000009550e+000	 1.057204783378460e+001
0	 1.733319999987733e+000	 2.266680000012267e+000	 1.051237884122892e+001
0	 1.733319999987733e+000	 2.333350000014583e+000	 1.045140912854109e+001
0	 1.733319999987733e+000	 2.400020000016401e+000	 1.038977609842898e+001
0	 1.733319999987733e+000	 2.466690000017618e+000	 1.032811715360048e+001
0	 1.733319999987733e+000	 2.533360000018134e+000	 1.026706969676348e+001
0	 1.733319999987733e+000	 2.600030000017851e+000	 1.020727113062587e+001
0	 1.733319999987733e+000	 2.666700000016666e+000	 1.014935885789555e+001
0	 1.799989999990450e+000	 2.000000000000000e+000	 1.083027938089579e+001
0	 1.799989999990450e+000	 2.066670000003318e+000	 1.075281581242177e+001
0	 1.799989999990450e+000	 2.133340000006533e+000	 1.067720138251261e+001
0	 1.799989999990450e+000	 2.200010000009550e+000	 1.060387464937966e+001
0	 1.799989999990450e+000	 2.266680000012268e+000	 1.053327417123428e+001
0	 1.799989999990450e+000	 2.333350000014584e+000	 1.046583850628791e+001
0	 1.799989999990450e+000	 2.400020000016400e+000	 1.040200621275199e+001
0	 1.799989999990450e+000	 2.466690000017617e+000	 1.034221584883802e+001
0	 1.799989999990450e+000	 2.533360000018134e+000	 1.028690597275753e+001
0	 1.799989999990450e+000	 2.600030000017851e+000	 1.023651514272208e+001
0	 1.799989999990450e+000	 2.666700000016667e+000	 1.019148191694331e+001
0	 1.866659999993466e+000	 2.000000000000000e+000	 1.090854437316738e+001
0	 1.866659999993467e+000	 2.066670000003317e+000	 1.080939757133505e+001
0	 1.866659999993467e+000	 2.133340000006534e+000	 1.071642625073455e+001
0	 1.866659999993467e+000	 2.200010000009550e+000	 1.062991965483012e+001
0	 1.866659999993466e+000	 2.266680000012266e+000	 1.055016702708612e+001
0	 1.866659999993467e+000	 2.333350000014583e+000	 1.047745761096693e+001
0	 1.866659999993467e+000	 2.400020000016401e+000	 1.041208064993703e+001
0	 1.866659999993467e+000	 2.466690000017618e+000	 1.035432538746096e+001
0	 1.866659999993467e+000	 2.533360000018134e+000	 1.030448106700334e+001
0	 1.866659999993467e+000	 2.600030000017850e+000	 1.026283693202885e+001
0	 1.866659999993467e+000	 2.666700000016666e+000	 1.022968222600226e+001
0	 1.933329999996684e+000	 2.000000000000000e+000	 1.097405705556658e+001
0	 1.933329999996684e+000	 2.066670000003317e+000	 1.085814128600348e+001
0	 1.933329999996684e+000	 2.133340000006534e+000	 1.075176134330755e+001
0	 1.933329999996684e+000	 2.200010000009550e+000	 1.065510668594542e+001
0	 1.933329999996684e+000	 2.266680000012268e+000	 1.056836677238384e+001
0	 1.933329999996684e+000	 2.333350000014584e+000	 1.049173106108964e+001
0	 1.933329999996684e+000	 2.400020000016401e+000	 1.042538901052975e+001
0	 1.933329999996684e+000	 2.466690000017617e+000	 1.036953007917124e+001
0	 1.933329999996684e+000	 2.533360000018134e+000	 1.032434372548118e+001
0	 1.933329999996683e+000	 2.600030000017850e+000	 1.029001940792684e+001
0	 1.933329999996684e+000	 2.666700000016667e+000	 1.026674658497553e+001
0	 2.000000000000000e+000	 2.000000000000000e+000	 1.102920304326553e+001
0	 2.000000000000000e+000	 2.066670000003317e+000	 1.090250891802289e+001
0	 2.000000000000000e+000	 2.133340000006534e+000	 1.078751469537322e+001
0	 2.000000000000000e+000	 2.200010000009551e+000	 1.068435957853502e+001
0	 2.000000000000000e+000	 2.266680000012268e+000	 1.059318277072690e+001
0	 2.000000000000000e+000	 2.333350000014584e+000	 1.051412347516757e+001
0	 2.000000000000000e+000	 2.400020000016401e+000	 1.044732089507589e+001
0	 2.000000000000000e+000	 2.466690000017618e+000	 1.039291423367079e+001
0	 2.000000000000000e+000	 2.533360000018133e+000	 1.035104269417135e+001
0	 2.000000000000000e+000	 2.600030000017851e+000	 1.032184547979673e+001
0	 2.000000000000000e+000	 2.666700000016667e+000	 1.030546179376624e+001
0	 1.333299999983334e+000	 2.666700000016666e+000	 9.658181959271273e+000
0	 1.333299999983334e+000	 2.733360000014532e+000	 9.564582277502003e+000
0	 1.333299999983334e+000	 2.800020000011599e+000	 9.494132463106041e+000
0	 1.333299999983334e+000	 2.866680000008067e+000	 9.444264940940650e+000
0	 1.333299999983334e+000	 2.933340000004133e+000	 9.412412135862843e+000
0	 1.333299999983334e+000	 3.000000000000000e+000	 9.396006472729408e+000
0	 1.333299999983334e+000	 3.066659999995867e+000	 9.392480376396906e+000
0	 1.333299999983334e+000	 3.133319999991934e+000	 9.399266271721663e+000
0	 1.333299999983334e+000	 3.199979999988401e+000	 9.413796583559774e+000
0	 1.333299999983334e+000	 3.266639999985467e+000	 9.433503736767090e+000
0	 1.333299999983334e+000	 3.333299999983334e+000	 9.455820156199259e+000
0	 1.399969999982150e+000	 2.666700000016667e+000	 9.782364316216498e+000
0	 1.399969999982150e+000	 2.733360000014533e+000	 9.685710332723023e+000
0	 1.399969999982150e+000	 2.800020000011600e+000	 9.610119841203265e+000
0	 1.399969999982150e+000	 2.866680000008067e+000	 9.553463904284470e+000
0	 1.399969999982150e+000	 2.933340000004134e+000	 9.513613584593649e+000
0	 1.399969999982150e+000	 3.000000000000000e+000	 9.488439944757598e+000
0	 1.399969999982150e+000	 3.066659999995866e+000	 9.475814047402880e+000
0	 1.399969999982150e+000	 3.133319999991934e+000	 9.473606955155821e+000
0	 1.399969999982150e+000	 3.199979999988400e+000	 9.479689730642514e+000
0	 1.399969999982150e+000	 3.266639999985468e+000	 9.491933436488854e+000
0	 1.399969999982150e+000	 3.333299999983334e+000	 9.508209135320465e+000
0	 1.466639999981867e+000	 2.666700000016667e+000	 9.885903123754538e+000
0	 1.466639999981866e+000	 2.733360000014534e+000	 9.791486173350089e+000
0	 1.466639999981866e+000	 2.800020000011599e+000	 9.715574021365770e+000
0	 1.466639999981866e+000	 2.866680000008066e+000	 9.656432550891813e+000
0	 1.466639999981866e+000	 2.933340000004133e+000	 9.612327645018228e+000
0	 1.466639999981866e+000	 2.999999999999999e+000	 9.581525186834826e+000
0	 1.466639999981866e+000	 3.066659999995866e+000	 9.562291059431177e+000
0	 1.466639999981866e+000	 3.133319999991933e+000	 9.552891145896675e+000
0	 1.466639999981866e+000	 3.199979999988400e+000	 9.551591329320463e+000
0	 1.466639999981866e+000	 3.266639999985467e+000	 9.556657492791494e+000
0	 1.466639999981867e+000	 3.333299999983334e+000	 9.566355519398490e+000
0	 1.533309999982383e+000	 2.666700000016667e+000	 9.971585181788427e+000
0	 1.533309999982383e+000	 2.733360000014533e+000	 9.883655494038937e+000
0	 1.533309999982383e+000	 2.800020000011600e+000	 9.811339540983402e+000
0	 1.533309999982383e+000	 2.866680000008067e+000	 9.753254208868013e+000
0	 1.533309999982383e+000	 2.933340000004134e+000	 9.708016383938828e+000
0	 1.533309999982383e+000	 3.000000000000000e+000	 9.674242952441638e+000
0	 1.533309999982383e+000	 3.066659999995867e+000	 9.650550800622126e+000
0	 1.533309999982383e+000	 3.133319999991934e+000	 9.635556814725723e+000
0	 1.533309999982383e+000	 3.199979999988400e+000	 9.627877880997708e+000
0	 1.533309999982383e+000	 3.266639999985467e+000	 9.626130885683157e+000
0	 1.533309999982383e+000	 3.333299999983335e+000	 9.628932715026938e+000
0	 1.599979999983599e+000	 2.666700000016666e+000	 1.004219729022119e+001
0	 1.599979999983600e+000	 2.733360000014533e+000	 9.963963989445336e+000
0	 1.599979999983600e+000	 2.800020000011600e+000	 9.898260937446031e+000
0	 1.599979999983599e+000	 2.866680000008066e+000	 9.844012206318462e+000
0	 1.599979999983600e+000	 2.933340000004134e+000	 9.800141868157704e+000
0	 1.599979999983600e+000	 3.000000000000000e+000	 9.765573995058650e+000
0	 1.599979999983600e+000	 3.066659999995867e+000	 9.739232659116048e+000
0	 1.599979999983599e+000	 3.133319999991933e+000	 9.720041932424484e+000
0	 1.599979999983600e+000	 3.199979999988400e+000	 9.706925887078370e+000
0	 1.599979999983600e+000	 3.266639999985468e+000	 9.698808595171997e+000
0	 1.599979999983600e+000	 3.333299999983334e+000	 9.694614128799461e+000
0	 1.666649999985417e+000	 2.666700000016666e+000	 1.010052624895586e+001
0	 1.666649999985416e+000	 2.733360000014533e+000	 1.003415735422507e+001
0	 1.666649999985417e+000	 2.800020000011601e+000	 9.977182748143537e+000
0	 1.666649999985416e+000	 2.866680000008067e+000	 9.928789871348524e+000
0	 1.666649999985416e+000	 2.933340000004133e+000	 9.888166164477161e+000
0	 1.666649999985416e+000	 3.000000000000000e+000	 9.854499068166463e+000
0	 1.666649999985417e+000	 3.066659999995867e+000	 9.826976023053318e+000
0	 1.666649999985416e+000	 3.133319999991934e+000	 9.804784469774479e+000
0	 1.666649999985417e+000	 3.199979999988400e+000	 9.787111848966616e+000
0	 1.666649999985416e+000	 3.266639999985466e+000	 9.773145601266229e+000
0	 1.666649999985417e+000	 3.333299999983334e+000	 9.762073167309731e+000
0	 1.733319999987733e+000	 2.666700000016666e+000	 1.014935885789555e+001
0	 1.733319999987733e+000	 2.733360000014533e+000	 1.009598128303392e+001
0	 1.733319999987733e+000	 2.800020000011600e+000	 1.004894951046582e+001
0	 1.733319999987733e+000	 2.866680000008067e+000	 1.000767053206361e+001
0	 1.733319999987733e+000	 2.933340000004133e+000	 9.971551339699511e+000
0	 1.733319999987733e+000	 3.000000000000000e+000	 9.939998925245723e+000
0	 1.733319999987733e+000	 3.066659999995867e+000	 9.912420280574319e+000
0	 1.733319999987733e+000	 3.133319999991933e+000	 9.888222397557305e+000
0	 1.733319999987733e+000	 3.199979999988401e+000	 9.866812268066610e+000
0	 1.733319999987733e+000	 3.266639999985467e+000	 9.847596883974065e+000
0	 1.733319999987733e+000	 3.333299999983334e+000	 9.829983237151431e+000
0	 1.799989999990450e+000	 2.666700000016667e+000	 1.019148191694331e+001
0	 1.799989999990450e+000	 2.733360000014534e+000	 1.015118147052770e+001
0	 1.799989999990450e+000	 2.800020000011600e+000	 1.011440576180281e+001
0	 1.799989999990449e+000	 2.866680000008066e+000	 1.008073751656911e+001
0	 1.799989999990450e+000	 2.933340000004133e+000	 1.004975946062707e+001
0	 1.799989999990450e+000	 3.000000000000000e+000	 1.002105431977707e+001
0	 1.799989999990450e+000	 3.066659999995868e+000	 9.994204819819453e+000
0	 1.799989999990450e+000	 3.133319999991933e+000	 9.968793686554539e+000
0	 1.799989999990450e+000	 3.199979999988400e+000	 9.944403645782574e+000
0	 1.799989999990450e+000	 3.266639999985468e+000	 9.920617423303774e+000
0	 1.799989999990450e+000	 3.333299999983335e+000	 9.897017744918312e+000
0	 1.866659999993467e+000	 2.666700000016666e+000	 1.022968222600226e+001
0	 1.866659999993467e+000	 2.733360000014533e+000	 1.020150361136223e+001
0	 1.866659999993467e+000	 2.800020000011600e+000	 1.017439603954439e+001
0	 1.866659999993467e+000	 2.866680000008067e+000	 1.014807415297048e+001
0	 1.866659999993467e+000	 2.933340000004134e+000	 1.012225259406219e+001
0	 1.866659999993467e+000	 2.999999999999999e+000	 1.009664600524119e+001
0	 1.866659999993467e+000	 3.066659999995866e+000	 1.007096902892917e+001
0	 1.866659999993467e+000	 3.133319999991933e+000	 1.004493630754780e+001
0	 1.866659999993466e+000	 3.199979999988400e+000	 1.001826248351874e+001
0	 1.866659999993467e+000	 3.266639999985467e+000	 9.990662199263632e+000
0	 1.866659999993467e+000	 3.333299999983334e+000	 9.961850097204131e+000
0	 1.933329999996684e+000	 2.666700000016667e+000	 1.026674658497553e+001
0	 1.933329999996684e+000	 2.733360000014532e+000	 1.024869340019335e+001
0	 1.933329999996684e+000	 2.800020000011600e+000	 1.022976488108056e+001
0	 1.933329999996683e+000	 2.866680000008066e+000	 1.020976376937316e+001
0	 1.933329999996684e+000	 2.933340000004133e+000	 1.018849280680722e+001
0	 1.933329999996684e+000	 3.000000000000000e+000	 1.016575473511877e+001
0	 1.933329999996684e+000	 3.066659999995866e+000	 1.014135229604391e+001
0	 1.933329999996684e+000	 3.133319999991934e+000	 1.011508823131874e+001
0	 1.933329999996684e+000	 3.199979999988401e+000	 1.008676528267938e+001
0	 1.933329999996684e+000	 3.266639999985467e+000	 1.005618619186198e+001
0	 1.933329999996684e+000	 3.333299999983334e+000	 1.002315370060268e+001
0	 2.000000000000000e+000	 2.666700000016667e+000	 1.030546179376624e+001
0	 2.000000000000000e+000	 2.733360000014533e+000	 1.029449653167693e+001
0	 2.000000000000000e+000	 2.800020000011600e+000	 1.028135682380124e+001
0	 2.000000000000000e+000	 2.866680000008067e+000	 1.026588969388261e+001
0	 2.000000000000000e+000	 2.933340000004133e+000	 1.024794216566454e+001
0	 2.000000000000000e+000	 3.000000000000000e+000	 1.022736126289054e+001
0	 2.000000000000000e+000	 3.066659999995867e+000	 1.020399400930417e+001
0	 2.000000000000000e+000	 3.133319999991934e+000	 1.017768742864904e+001
0	 2.000000000000000e+000	 3.199979999988400e+000	 1.014828854466881e+001
0	 2.000000000000000e+000	 3.266639999985468e+000	 1.011564438110715e+001
0	 2.000000000000000e+000	 3.333299999983334e+000	 1.007960196170781e+001
0	 1.333299999983334e+000	 3.333299999983334e+000	 9.455820156199261e+000
0	 1.333299999983334e+000	 3.399969999982149e+000	 9.473506647353865e+000
0	 1.333299999983334e+000	 3.466639999981867e+000	 9.482373054716149e+000
0	 1.333299999983334e+000	 3.533309999982383e+000	 9.484435606984961e+000
0	 1.333299999983334e+000	 3.599979999983599e+000	 9.481710532859180e+000
0	 1.333299999983334e+000	 3.666649999985416e+000	 9.476214061037702e+000
0	 1.333299999983334e+000	 3.733319999987733e+000	 9.469962420219424e+000
0	 1.333299999983334e+000	 3.799989999990450e+000	 9.464971839103280e+000
0	 1.333299999983334e+000	 3.866659999993467e+000	 9.463258546388204e+000
0	 1.333299999983334e+000	 3.933329999996683e+000	 9.466838770773174e+000
0	 1.333299999983334e+000	 4.000000000000000e+000	 9.477728740957158e+000
0	 1.399969999982150e+000	 3.333299999983334e+000	 9.508209135320465e+000
0	 1.399969999982150e+000	 3.399969999982151e+000	 9.521739262630398e+000
0	 1.399969999982150e+000	 3.466639999981866e+000	 9.528270121839002e+000
0	 1.399969999982150e+000	 3.533309999982383e+000	 9.529466490176288e+000
0	 1.399969999982150e+000	 3.599979999983601e+000	 9.526993144872279e+000
0	 1.399969999982150e+000	 3.666649999985416e+000	 9.522514863157012e+000
0	 1.399969999982150e+000	 3.733319999987733e+000	 9.517696422260553e+000
0	 1.399969999982150e+000	 3.799989999990450e+000	 9.514202599412986e+000
0	 1.399969999982150e+000	 3.866659999993467e+000	 9.513698171844407e+000
0	 1.399969999982150e+000	 3.933329999996683e+000	 9.517847916784952e+000
0	 1.399969999982150e+000	 4.000000000000000e+000	 9.528316611464746e+000
0	 1.466639999981867e+000	 3.333299999983334e+000	 9.566355519398492e+000
0	 1.466639999981866e+000	 3.399969999982150e+000	 9.574726887446063e+000
0	 1.466639999981867e+000	 3.466639999981867e+000	 9.577864362999000e+000
0	 1.466639999981866e+000	 3.533309999982383e+000	 9.577115907464465e+000
0	 1.466639999981866e+000	 3.599979999983600e+000	 9.573829482249650e+000
0	 1.466639999981866e+000	 3.666649999985417e+000	 9.569353048761753e+000
0	 1.466639999981867e+000	 3.733319999987733e+000	 9.565034568408017e+000
0	 1.466639999981866e+000	 3.799989999990451e+000	 9.562222002595686e+000
0	 1.466639999981866e+000	 3.866659999993467e+000	 9.562263312732037e+000
0	 1.466639999981866e+000	 3.933329999996683e+000	 9.566506460224350e+000
0	 1.466639999981867e+000	 4.000000000000002e+000	 9.576299406479976e+000
0	 1.533309999982383e+000	 3.333299999983335e+000	 9.628932715026938e+000
0	 1.533309999982383e+000	 3.399969999982150e+000	 9.631417355768596e+000
0	 1.533309999982383e+000	 3.466639999981866e+000	 9.630350006605074e+000
0	 1.533309999982383e+000	 3.533309999982383e+000	 9.626796448766722e+000
0	 1.533309999982383e+000	 3.599979999983599e+000	 9.621822463483889e+000
0	 1.533309999982383e+000	 3.666649999985415e+000	 9.616493831986956e+000
0	 1.533309999982383e+000	 3.733319999987733e+000	 9.611876335506342e+000
0	 1.533309999982383e+000	 3.799989999990450e+000	 9.609035755272453e+000
0	 1.533309999982383e+000	 3.866659999993466e+000	 9.609037872515774e+000
0	 1.533309999982383e+000	 3.933329999996684e+000	 9.612948468466785e+000
0	 1.533309999982383e+000	 4.000000000000002e+000	 9.621833324355972e+000
0	 1.599979999983600e+000	 3.333299999983334e+000	 9.694614128799465e+000
0	 1.599979999983600e+000	 3.399969999982150e+000	 9.690758501565775e+000
0	 1.599979999983600e+000	 3.466639999981867e+000	 9.684921281066227e+000
0	 1.599979999983599e+000	 3.533309999982383e+000	 9.677920704000330e+000
0	 1.599979999983600e+000	 3.599979999983600e+000	 9.670575007067615e+000
0	 1.599979999983599e+000	 3.666649999985416e+000	 9.663702426967648e+000
0	 1.599979999983600e+000	 3.733319999987733e+000	 9.658121200400030e+000
0	 1.599979999983600e+000	 3.799989999990449e+000	 9.654649564064382e+000
0	 1.599979999983600e+000	 3.866659999993467e+000	 9.654105754660353e+000
0	 1.599979999983600e+000	 3.933329999996683e+000	 9.657308008887620e+000
0	 1.599979999983599e+000	 4.000000000000000e+000	 9.665074563445890e+000
0	 1.666649999985417e+000	 3.333299999983334e+000	 9.762073167309731e+000
0	 1.666649999985416e+000	 3.399969999982150e+000	 9.751698158805407e+000
0	 1.666649999985417e+000	 3.466639999981867e+000	 9.740772414791453e+000
0	 1.666649999985416e+000	 3.533309999982383e+000	 9.729901263082557e+000
0	 1.666649999985417e+000	 3.599979999983600e+000	 9.719690031493446e+000
0	 1.666649999985416e+000	 3.666649999985417e+000	 9.710744047838878e+000
0	 1.666649999985417e+000	 3.733319999987733e+000	 9.703668639933632e+000
0	 1.666649999985416e+000	 3.799989999990450e+000	 9.699069135592547e+000
0	 1.666649999985416e+000	 3.866659999993467e+000	 9.697550862630463e+000
0	 1.666649999985417e+000	 3.933329999996684e+000	 9.699719148862256e+000
0	 1.666649999985417e+000	 4.000000000000000e+000	 9.706179322102861e+000
0	 1.733319999987733e+000	 3.333299999983334e+000	 9.829983237151430e+000
0	 1.733319999987733e+000	 3.399969999982150e+000	 9.813184161455332e+000
0	 1.733319999987733e+000	 3.466639999981866e+000	 9.797097636189809e+000
0	 1.733319999987733e+000	 3.533309999982383e+000	 9.782150715930738e+000
0	 1.733319999987733e+000	 3.599979999983599e+000	 9.768770455254060e+000
0	 1.733319999987733e+000	 3.666649999985417e+000	 9.757383908735708e+000
0	 1.733319999987733e+000	 3.733319999987733e+000	 9.748418130951693e+000
0	 1.733319999987733e+000	 3.799989999990450e+000	 9.742300176478029e+000
0	 1.733319999987733e+000	 3.866659999993466e+000	 9.739457099890796e+000
0	 1.733319999987733e+000	 3.933329999996684e+000	 9.740315955766084e+000
0	 1.733319999987733e+000	 4.000000000000000e+000	 9.745303798680009e+000
0	 1.799989999990450e+000	 3.333299999983335e+000	 9.897017744918314e+000
0	 1.799989999990450e+000	 3.399969999982150e+000	 9.874164343483415e+000
0	 1.799989999990450e+000	 3.466639999981866e+000	 9.853091173670356e+000
0	 1.799989999990450e+000	 3.533309999982383e+000	 9.834081652462208e+000
0	 1.799989999990450e+000	 3.599979999983600e+000	 9.817419196842110e+000
0	 1.799989999990450e+000	 3.666649999985416e+000	 9.803387223793225e+000
0	 1.799989999990450e+000	 3.733319999987733e+000	 9.792269150298758e+000
0	 1.799989999990450e+000	 3.799989999990450e+000	 9.784348393341949e+000
0	 1.799989999990450e+000	 3.866659999993466e+000	 9.779908369906078e+000
0	 1.799989999990450e+000	 3.933329999996684e+000	 9.779232496974462e+000
0	 1.799989999990450e+000	 4.000000000000000e+000	 9.782604191530457e+000
0	 1.866659999993467e+000	 3.333299999983334e+000	 9.961850097204129e+000
0	 1.866659999993466e+000	 3.399969999982150e+000	 9.933586538857549e+000
0	 1.866659999993467e+000	 3.466639999981866e+000	 9.907947255642174e+000
0	 1.866659999993467e+000	 3.533309999982383e+000	 9.885106662594311e+000
0	 1.866659999993466e+000	 3.599979999983599e+000	 9.865239174750290e+000
0	 1.866659999993467e+000	 3.666649999985416e+000	 9.848519207146508e+000
0	 1.866659999993467e+000	 3.733319999987733e+000	 9.835121174819388e+000
0	 1.866659999993466e+000	 3.799989999990449e+000	 9.825219492805379e+000
0	 1.866659999993467e+000	 3.866659999993466e+000	 9.818988576141001e+000
0	 1.866659999993467e+000	 3.933329999996685e+000	 9.816602839862785e+000
0	 1.866659999993467e+000	 4.000000000000000e+000	 9.818236699007322e+000
0	 1.933329999996684e+000	 3.333299999983334e+000	 1.002315370060268e+001
0	 1.933329999996684e+000	 3.399969999982150e+000	 9.990398581545662e+000
0	 1.933329999996684e+000	 3.466639999981867e+000	 9.960860110514407e+000
0	 1.933329999996684e+000	 3.533309999982382e+000	 9.934638336244438e+000
0	 1.933329999996684e+000	 3.599979999983600e+000	 9.911833307471330e+000
0	 1.933329999996684e+000	 3.666649999985416e+000	 9.892545072930677e+000
0	 1.933329999996684e+000	 3.733319999987733e+000	 9.876873681358147e+000
0	 1.933329999996684e+000	 3.799989999990449e+000	 9.864919181489434e+000
0	 1.933329999996684e+000	 3.866659999993467e+000	 9.856781622060263e+000
0	 1.933329999996684e+000	 3.933329999996684e+000	 9.852561051806417e+000
0	 1.933329999996684e+000	 4.000000000000000e+000	 9.852357519463721e+000
0	 2.000000000000000e+000	 3.333299999983334e+000	 1.007960196170781e+001
0	 2.000000000000000e+000	 3.399969999982150e+000	 1.004354830551571e+001
0	 2.000000000000000e+000	 3.466639999981867e+000	 1.001102396669619e+001
0	 2.000000000000000e+000	 3.533309999982383e+000	 9.982089263329993e+000
0	 2.000000000000000e+000	 3.599979999983600e+000	 9.956804513497929e+000
0	 2.000000000000000e+000	 3.666649999985416e+000	 9.935230035280847e+000
0	 2.000000000000000e+000	 3.733319999987733e+000	 9.917426146759627e+000
0	 2.000000000000000e+000	 3.799989999990449e+000	 9.903453166015213e+000
0	 2.000000000000000e+000	 3.866659999993466e+000	 9.893371411128580e+000
0	 2.000000000000000e+000	 3.933329999996683e+000	 9.887241200180727e+000
0	 2.000000000000000e+000	 4.000000000000001e+000	 9.885122851252731e+000
0	 1.333299999983334e+000	 4.000000000000000e+000	 9.477728740957160e+000
0	 1.333299999983334e+000	 4.066670000003317e+000	 9.494777467813261e+000
0	 1.333299999983334e+000	 4.133340000006535e+000	 9.514703269691989e+000
0	 1.333299999983334e+000	 4.200010000009550e+000	 9.536326336508422e+000
0	 1.333299999983334e+000	 4.266680000012268e+000	 9.558466858177587e+000
0	 1.333299999983334e+000	 4.333350000014584e+000	 9.579945024614505e+000
0	 1.333299999983334e+000	 4.400020000016402e+000	 9.599581025734150e+000
0	 1.333299999983334e+000	 4.466690000017619e+000	 9.616195051451474e+000
0	 1.333299999983334e+000	 4.533360000018134e+000	 9.628607291681414e+000
0	 1.333299999983334e+000	 4.600030000017851e+000	 9.635637936338847e+000
0	 1.333299999983334e+000	 4.666700000016667e+000	 9.636107175338649e+000
0	 1.399969999982150e+000	 4.000000000000000e+000	 9.528316611464749e+000
0	 1.399969999982150e+000	 4.066670000003317e+000	 9.543758932443273e+000
0	 1.399969999982150e+000	 4.133340000006534e+000	 9.561092913074543e+000
0	 1.399969999982150e+000	 4.200010000009550e+000	 9.579378365780510e+000
0	 1.399969999982150e+000	 4.266680000012268e+000	 9.597675102983114e+000
0	 1.399969999982150e+000	 4.333350000014584e+000	 9.615042937104272e+000
0	 1.399969999982150e+000	 4.400020000016401e+000	 9.630541680565841e+000
0	 1.399969999982150e+000	 4.466690000017615e+000	 9.643231145789688e+000
0	 1.399969999982150e+000	 4.533360000018132e+000	 9.652171145197631e+000
0	 1.399969999982150e+000	 4.600030000017851e+000	 9.656421491211477e+000
0	 1.399969999982150e+000	 4.666700000016665e+000	 9.655041996252992e+000
0	 1.466639999981867e+000	 4.000000000000002e+000	 9.576299406479976e+000
0	 1.466639999981866e+000	 4.066670000003318e+000	 9.590093824918274e+000
0	 1.466639999981866e+000	 4.133340000006533e+000	 9.604958386342215e+000
0	 1.466639999981866e+000	 4.200010000009550e+000	 9.620166548234440e+000
0	 1.466639999981867e+000	 4.266680000012267e+000	 9.634991768077590e+000
0	 1.466639999981866e+000	 4.333350000014583e+000	 9.648707503354267e+000
0	 1.466639999981866e+000	 4.400020000016402e+000	 9.660587211547078e+000
0	 1.466639999981866e+000	 4.466690000017617e+000	 9.669904350138541e+000
0	 1.466639999981867e+000	 4.533360000018134e+000	 9.675932376611240e+000
0	 1.466639999981866e+000	 4.600030000017851e+000	 9.677944748447647e+000
0	 1.466639999981867e+000	 4.666700000016667e+000	 9.675214923130275e+000
0	 1.533309999982383e+000	 4.000000000000002e+000	 9.621833324355972e+000
0	 1.533309999982383e+000	 4.066670000003317e+000	 9.633942475575017e+000
0	 1.533309999982383e+000	 4.133340000006534e+000	 9.646456186760020e+000
0	 1.533309999982383e+000	 4.200010000009553e+000	 9.658835583008136e+000
0	 1.533309999982383e+000	 4.266680000012266e+000	 9.670541789416500e+000
0	 1.533309999982383e+000	 4.333350000014584e+000	 9.681035931082253e+000
0	 1.533309999982383e+000	 4.400020000016401e+000	 9.689779133102485e+000
0	 1.533309999982383e+000	 4.466690000017617e+000	 9.696232520574268e+000
0	 1.533309999982383e+000	 4.533360000018135e+000	 9.699857218594657e+000
0	 1.533309999982383e+000	 4.600030000017851e+000	 9.700114352260703e+000
0	 1.533309999982383e+000	 4.666700000016666e+000	 9.696465046669404e+000
0	 1.599979999983599e+000	 4.000000000000000e+000	 9.665074563445893e+000
0	 1.599979999983600e+000	 4.066670000003317e+000	 9.675465214750252e+000
0	 1.599979999983600e+000	 4.133340000006533e+000	 9.685742811592975e+000
0	 1.599979999983600e+000	 4.200010000009550e+000	 9.695530169239527e+000
0	 1.599979999983600e+000	 4.266680000012268e+000	 9.704450102955377e+000
0	 1.599979999983599e+000	 4.333350000014583e+000	 9.712125428005974e+000
0	 1.599979999983600e+000	 4.400020000016401e+000	 9.718178959656729e+000
0	 1.599979999983600e+000	 4.466690000017618e+000	 9.722233513173055e+000
0	 1.599979999983600e+000	 4.533360000018133e+000	 9.723911903820346e+000
0	 1.599979999983600e+000	 4.600030000017851e+000	 9.722836946863973e+000
0	 1.599979999983599e+000	 4.666700000016665e+000	 9.718631457569289e+000
0	 1.666649999985417e+000	 4.000000000000000e+000	 9.706179322102861e+000
0	 1.666649999985417e+000	 4.066670000003319e+000	 9.714822372780729e+000
0	 1.666649999985416e+000	 4.133340000006533e+000	 9.722974758106082e+000
0	 1.666649999985416e+000	 4.200010000009550e+000	 9.730395006066555e+000
0	 1.666649999985417e+000	 4.266680000012268e+000	 9.736841644649720e+000
0	 1.666649999985416e+000	 4.333350000014583e+000	 9.742073201843175e+000
0	 1.666649999985417e+000	 4.400020000016402e+000	 9.745848205634474e+000
0	 1.666649999985416e+000	 4.466690000017618e+000	 9.747925184011152e+000
0	 1.666649999985416e+000	 4.533360000018133e+000	 9.748062664960768e+000
0	 1.666649999985416e+000	 4.600030000017851e+000	 9.746019176470826e+000
0	 1.666649999985416e+000	 4.666700000016667e+000	 9.741553246528842e+000
0	 1.733319999987733e+000	 4.000000000000000e+000	 9.745303798680009e+000
0	 1.733319999987733e+000	 4.066670000003318e+000	 9.752174280003155e+000
0	 1.733319999987733e+000	 4.133340000006534e+000	 9.758308523564340e+000
0	 1.733319999987733e+000	 4.200010000009550e+000	 9.763574792627125e+000
0	 1.733319999987733e+000	 4.266680000012268e+000	 9.767841350455031e+000
0	 1.733319999987733e+000	 4.333350000014584e+000	 9.770976460311607e+000
0	 1.733319999987733e+000	 4.400020000016402e+000	 9.772848385460350e+000
0	 1.733319999987733e+000	 4.466690000017617e+000	 9.773325389164773e+000
0	 1.733319999987733e+000	 4.533360000018133e+000	 9.772275734688369e+000
0	 1.733319999987733e+000	 4.600030000017850e+000	 9.769567685294613e+000
0	 1.733319999987733e+000	 4.666700000016665e+000	 9.765069504246982e+000
0	 1.799989999990450e+000	 4.000000000000000e+000	 9.782604191530460e+000
0	 1.799989999990450e+000	 4.066670000003317e+000	 9.787681266754271e+000
0	 1.799989999990450e+000	 4.133340000006535e+000	 9.791900605232735e+000
0	 1.799989999990450e+000	 4.200010000009550e+000	 9.795214228059152e+000
0	 1.799989999990450e+000	 4.266680000012267e+000	 9.797574156326810e+000
0	 1.799989999990450e+000	 4.333350000014583e+000	 9.798932411129011e+000
0	 1.799989999990450e+000	 4.400020000016400e+000	 9.799241013559035e+000
0	 1.799989999990450e+000	 4.466690000017618e+000	 9.798451984710146e+000
0	 1.799989999990450e+000	 4.533360000018134e+000	 9.796517345675621e+000
0	 1.799989999990450e+000	 4.600030000017851e+000	 9.793389117548704e+000
0	 1.799989999990449e+000	 4.666700000016665e+000	 9.789019321422646e+000
0	 1.866659999993467e+000	 4.000000000000000e+000	 9.818236699007322e+000
0	 1.866659999993467e+000	 4.066670000003316e+000	 9.821503663370804e+000
0	 1.866659999993467e+000	 4.133340000006534e+000	 9.823907500376247e+000
0	 1.866659999993467e+000	 4.200010000009551e+000	 9.825458011500537e+000
0	 1.866659999993467e+000	 4.266680000012268e+000	 9.826164998220545e+000
0	 1.866659999993467e+000	 4.333350000014583e+000	 9.826038262013132e+000
0	 1.866659999993467e+000	 4.400020000016400e+000	 9.825087604355167e+000
0	 1.866659999993467e+000	 4.466690000017617e+000	 9.823322826723500e+000
0	 1.866659999993467e+000	 4.533360000018134e+000	 9.820753730594985e+000
0	 1.866659999993466e+000	 4.600030000017848e+000	 9.817390117446474e+000
0	 1.866659999993467e+000	 4.666700000016665e+000	 9.813241788754786e+000
0	 1.933329999996684e+000	 4.000000000000000e+000	 9.852357519463720e+000
0	 1.933329999996684e+000	 4.066670000003317e+000	 9.853801800189444e+000
0	 1.933329999996684e+000	 4.133340000006534e+000	 9.854485706259851e+000
0	 1.933329999996683e+000	 4.200010000009551e+000	 9.854450842089188e+000
0	 1.933329999996684e+000	 4.266680000012267e+000	 9.853738812091724e+000
0	 1.933329999996684e+000	 4.333350000014584e+000	 9.852391220681716e+000
0	 1.933329999996684e+000	 4.400020000016401e+000	 9.850449672273406e+000
0	 1.933329999996684e+000	 4.466690000017616e+000	 9.847955771281072e+000
0	 1.933329999996684e+000	 4.533360000018133e+000	 9.844951122118950e+000
0	 1.933329999996684e+000	 4.600030000017850e+000	 9.841477329201290e+000
0	 1.933329999996684e+000	 4.666700000016666e+000	 9.837575996942345e+000
0	 2.000000000000000e+000	 4.000000000000001e+000	 9.885122851252731e+000
0	 2.000000000000000e+000	 4.066670000003318e+000	 9.884736007546907e+000
0	 2.000000000000000e+000	 4.133340000006533e+000	 9.883791720148510e+000
0	 2.000000000000000e+000	 4.200010000009550e+000	 9.882337418962996e+000
0	 2.000000000000000e+000	 4.266680000012268e+000	 9.880420533895832e+000
0	 2.000000000000000e+000	 4.333350000014584e+000	 9.878088494852481e+000
0	 2.000000000000000e+000	 4.400020000016401e+000	 9.875388731738413e+000
0	 2.000000000000000e+000	 4.466690000017617e+000	 9.872368674459095e+000
0	 2.000000000000000e+000	 4.533360000018134e+000	 9.869075752919986e+000
0	 2.000000000000000e+000	 4.600030000017851e+000	 9.865557397026558e+000
0	 2.000000000000000e+000	 4.666700000016665e+000	 9.861861036684278e+000
0	 1.333299999983334e+000	 4.666700000016667e+000	 9.636107175338651e+000
0	 1.333299999983334e+000	 4.733360000014533e+000	 9.632480670528816e+000
0	 1.333299999983334e+000	 4.800020000011600e+000	 9.628453695948085e+000
0	 1.333299999983334e+000	 4.866680000008067e+000	 9.624692301855461e+000
0	 1.333299999983334e+000	 4.933340000004134e+000	 9.621862538509859e+000
0	 1.333299999983334e+000	 5.000000000000000e+000	 9.620630456170192e+000
0	 1.333299999983334e+000	 5.066659999995867e+000	 9.621662105095261e+000
0	 1.333299999983334e+000	 5.133319999991934e+000	 9.625623535543824e+000
0	 1.333299999983334e+000	 5.199979999988400e+000	 9.633180797774587e+000
0	 1.333299999983334e+000	 5.266639999985467e+000	 9.644999942046178e+000
0	 1.333299999983334e+000	 5.333299999983335e+000	 9.661747018617183e+000
0	 1.399969999982150e+000	 4.666700000016665e+000	 9.655041996252992e+000
0	 1.399969999982150e+000	 4.733360000014534e+000	 9.650463298954369e+000
0	 1.399969999982150e+000	 4.800020000011601e+000	 9.646091406268139e+000
0	 1.399969999982150e+000	 4.866680000008066e+000	 9.642451211510183e+000
0	 1.399969999982150e+000	 4.933340000004133e+000	 9.640067607996295e+000
0	 1.399969999982150e+000	 5.000000000000000e+000	 9.639465489042216e+000
0	 1.399969999982150e+000	 5.066659999995867e+000	 9.641169747963646e+000
0	 1.399969999982150e+000	 5.133319999991936e+000	 9.645705278076218e+000
0	 1.399969999982150e+000	 5.199979999988400e+000	 9.653596972695485e+000
0	 1.399969999982150e+000	 5.266639999985468e+000	 9.665369725136989e+000
0	 1.399969999982150e+000	 5.333299999983333e+000	 9.681548428716168e+000
0	 1.466639999981867e+000	 4.666700000016667e+000	 9.675214923130277e+000
0	 1.466639999981866e+000	 4.733360000014533e+000	 9.670070482467896e+000
0	 1.466639999981866e+000	 4.800020000011600e+000	 9.665588448730210e+000
0	 1.466639999981866e+000	 4.866680000008065e+000	 9.662168844367896e+000
0	 1.466639999981866e+000	 4.933340000004134e+000	 9.660211691831604e+000
0	 1.466639999981866e+000	 4.999999999999997e+000	 9.660117013571918e+000
0	 1.466639999981866e+000	 5.066659999995866e+000	 9.662284832039349e+000
0	 1.466639999981866e+000	 5.133319999991933e+000	 9.667115169684392e+000
0	 1.466639999981866e+000	 5.199979999988401e+000	 9.675008048957460e+000
0	 1.466639999981866e+000	 5.266639999985467e+000	 9.686363492308914e+000
0	 1.466639999981867e+000	 5.333299999983335e+000	 9.701581522189054e+000
0	 1.533309999982383e+000	 4.666700000016666e+000	 9.696465046669404e+000
0	 1.533309999982383e+000	 4.733360000014534e+000	 9.691077217907075e+000
0	 1.533309999982383e+000	 4.800020000011601e+000	 9.686670589212680e+000
0	 1.533309999982383e+000	 4.866680000008068e+000	 9.683536598249718e+000
0	 1.533309999982383e+000	 4.933340000004134e+000	 9.681966682681622e+000
0	 1.533309999982383e+000	 5.000000000000002e+000	 9.682252280171781e+000
0	 1.533309999982383e+000	 5.066659999995866e+000	 9.684684828383517e+000
0	 1.533309999982383e+000	 5.133319999991934e+000	 9.689555764980149e+000
0	 1.533309999982383e+000	 5.199979999988400e+000	 9.697156527624884e+000
0	 1.533309999982383e+000	 5.266639999985467e+000	 9.707778553980907e+000
0	 1.533309999982383e+000	 5.333299999983333e+000	 9.721713281711368e+000
0	 1.599979999983599e+000	 4.666700000016665e+000	 9.718631457569289e+000
0	 1.599979999983600e+000	 4.733360000014534e+000	 9.713258502109536e+000
0	 1.599979999983600e+000	 4.800020000011599e+000	 9.709063593593950e+000
0	 1.599979999983599e+000	 4.866680000008065e+000	 9.706245870976753e+000
0	 1.599979999983599e+000	 4.933340000004134e+000	 9.705004473212156e+000
0	 1.599979999983600e+000	 5.000000000000000e+000	 9.705538539254308e+000
0	 1.599979999983600e+000	 5.066659999995866e+000	 9.708047208057314e+000
0	 1.599979999983599e+000	 5.133319999991934e+000	 9.712729618575265e+000
0	 1.599979999983599e+000	 5.199979999988400e+000	 9.719784909762154e+000
0	 1.599979999983600e+000	 5.266639999985468e+000	 9.729412220571971e+000
0	 1.599979999983600e+000	 5.333299999983335e+000	 9.741810689958637e+000
0	 1.666649999985416e+000	 4.666700000016667e+000	 9.741553246528842e+000
0	 1.666649999985416e+000	 4.733360000014534e+000	 9.736389331912990e+000
0	 1.666649999985416e+000	 4.800020000011599e+000	 9.732493227752432e+000
0	 1.666649999985416e+000	 4.866680000008066e+000	 9.729988060370138e+000
0	 1.666649999985416e+000	 4.933340000004134e+000	 9.728996956089025e+000
0	 1.666649999985417e+000	 4.999999999999999e+000	 9.729643041231990e+000
0	 1.666649999985417e+000	 5.066659999995866e+000	 9.732049442121893e+000
0	 1.666649999985416e+000	 5.133319999991935e+000	 9.736339285081527e+000
0	 1.666649999985417e+000	 5.199979999988400e+000	 9.742635696433675e+000
0	 1.666649999985416e+000	 5.266639999985467e+000	 9.751061802501067e+000
0	 1.666649999985416e+000	 5.333299999983334e+000	 9.761740729606398e+000
0	 1.733319999987733e+000	 4.666700000016665e+000	 9.765069504246984e+000
0	 1.733319999987733e+000	 4.733360000014532e+000	 9.760244704155095e+000
0	 1.733319999987733e+000	 4.800020000011601e+000	 9.756685257566558e+000
0	 1.733319999987733e+000	 4.866680000008066e+000	 9.754454564251001e+000
0	 1.733319999987733e+000	 4.933340000004133e+000	 9.753616023978070e+000
0	 1.733319999987733e+000	 4.999999999999999e+000	 9.754233036517348e+000
0	 1.733319999987733e+000	 5.066659999995868e+000	 9.756369001638394e+000
0	 1.733319999987733e+000	 5.133319999991935e+000	 9.760087319110721e+000
0	 1.733319999987733e+000	 5.199979999988402e+000	 9.765451388703834e+000
0	 1.733319999987733e+000	 5.266639999985469e+000	 9.772524610187171e+000
0	 1.733319999987733e+000	 5.333299999983333e+000	 9.781370383330167e+000
0	 1.799989999990449e+000	 4.666700000016665e+000	 9.789019321422648e+000
0	 1.799989999990450e+000	 4.733360000014533e+000	 9.784599615673550e+000
0	 1.799989999990450e+000	 4.800020000011599e+000	 9.781365448914730e+000
0	 1.799989999990450e+000	 4.866680000008066e+000	 9.779336780440492e+000
0	 1.799989999990450e+000	 4.933340000004132e+000	 9.778533569545129e+000
0	 1.799989999990450e+000	 4.999999999999999e+000	 9.778975775522882e+000
0	 1.799989999990450e+000	 5.066659999995867e+000	 9.780683357667991e+000
0	 1.799989999990450e+000	 5.133319999991935e+000	 9.783676275274637e+000
0	 1.799989999990449e+000	 5.199979999988399e+000	 9.787974487637014e+000
0	 1.799989999990450e+000	 5.266639999985467e+000	 9.793597954049254e+000
0	 1.799989999990450e+000	 5.333299999983334e+000	 9.800566633805479e+000
0	 1.866659999993467e+000	 4.666700000016665e+000	 9.813241788754789e+000
0	 1.866659999993467e+000	 4.733360000014532e+000	 9.809229063306065e+000
0	 1.866659999993467e+000	 4.800020000011599e+000	 9.806259567675403e+000
0	 1.866659999993467e+000	 4.866680000008066e+000	 9.804326106759763e+000
0	 1.866659999993467e+000	 4.933340000004133e+000	 9.803421485456042e+000
0	 1.866659999993467e+000	 5.000000000000000e+000	 9.803538508661106e+000
0	 1.866659999993467e+000	 5.066659999995867e+000	 9.804669981271834e+000
0	 1.866659999993467e+000	 5.133319999991935e+000	 9.806808708185073e+000
0	 1.866659999993467e+000	 5.199979999988400e+000	 9.809947494297617e+000
0	 1.866659999993467e+000	 5.266639999985467e+000	 9.814079144506284e+000
0	 1.866659999993467e+000	 5.333299999983333e+000	 9.819196463707833e+000
0	 1.933329999996684e+000	 4.666700000016666e+000	 9.837575996942345e+000
0	 1.933329999996684e+000	 4.733360000014534e+000	 9.833908043890331e+000
0	 1.933329999996684e+000	 4.800020000011601e+000	 9.831093379727030e+000
0	 1.933329999996683e+000	 4.866680000008066e+000	 9.829113941029968e+000
0	 1.933329999996684e+000	 4.933340000004135e+000	 9.827951664376652e+000
0	 1.933329999996683e+000	 5.000000000000000e+000	 9.827588486344542e+000
0	 1.933329999996683e+000	 5.066659999995865e+000	 9.828006343511103e+000
0	 1.933329999996684e+000	 5.133319999991934e+000	 9.829187172453793e+000
0	 1.933329999996684e+000	 5.199979999988401e+000	 9.831112909750031e+000
0	 1.933329999996684e+000	 5.266639999985469e+000	 9.833765491977221e+000
0	 1.933329999996684e+000	 5.333299999983335e+000	 9.837126855712761e+000
0	 2.000000000000000e+000	 4.666700000016665e+000	 9.861861036684278e+000
0	 2.000000000000000e+000	 4.733360000014533e+000	 9.858411554264073e+000
0	 2.000000000000000e+000	 4.800020000011601e+000	 9.855592650948053e+000
0	 2.000000000000000e+000	 4.866680000008067e+000	 9.853391681072294e+000
0	 2.000000000000000e+000	 4.933340000004134e+000	 9.851795998972831e+000
0	 2.000000000000000e+000	 5.000000000000001e+000	 9.850792958985720e+000
0	 2.000000000000000e+000	 5.066659999995866e+000	 9.850369915446965e+000
0	 2.000000000000000e+000	 5.133319999991934e+000	 9.850514222692610e+000
0	 2.000000000000000e+000	 5.199979999988400e+000	 9.851213235058641e+000
0	 2.000000000000000e+000	 5.266639999985468e+000	 9.852454306881031e+000
0	 2.000000000000000e+000	 5.333299999983333e+000	 9.854224792495755e+000
0	 1.333299999983334e+000	 5.333299999983335e+000	 9.661747018617181e+000
0	 1.333299999983334e+000	 5.399969999982149e+000	 9.680953738653770e+000
0	 1.333299999983334e+000	 5.466639999981867e+000	 9.699486350489607e+000
0	 1.333299999983334e+000	 5.533309999982383e+000	 9.717021455885764e+000
0	 1.333299999983334e+000	 5.599979999983599e+000	 9.733235656603238e+000
0	 1.333299999983334e+000	 5.666649999985414e+000	 9.747805554403065e+000
0	 1.333299999983334e+000	 5.733319999987733e+000	 9.760407751046230e+000
0	 1.333299999983334e+000	 5.799989999990448e+000	 9.770718848293679e+000
0	 1.333299999983334e+000	 5.866659999993467e+000	 9.778415447906369e+000
0	 1.333299999983334e+000	 5.933329999996684e+000	 9.783174151645213e+000
0	 1.333299999983334e+000	 6.000000000000000e+000	 9.784671561271084e+000
0	 1.399969999982150e+000	 5.333299999983333e+000	 9.681548428716168e+000
0	 1.399969999982150e+000	 5.399969999982149e+000	 9.699730212201880e+000
0	 1.399969999982150e+000	 5.466639999981864e+000	 9.716993118176923e+000
0	 1.399969999982150e+000	 5.533309999982382e+000	 9.733091762002434e+000
0	 1.399969999982150e+000	 5.599979999983600e+000	 9.747780759039486e+000
0	 1.399969999982150e+000	 5.666649999985418e+000	 9.760814724649164e+000
0	 1.399969999982150e+000	 5.733319999987733e+000	 9.771948274192488e+000
0	 1.399969999982150e+000	 5.799989999990447e+000	 9.780936023030503e+000
0	 1.399969999982150e+000	 5.866659999993465e+000	 9.787532586524215e+000
0	 1.399969999982150e+000	 5.933329999996682e+000	 9.791492580034586e+000
0	 1.399969999982150e+000	 5.999999999999999e+000	 9.792570618922595e+000
0	 1.466639999981867e+000	 5.333299999983335e+000	 9.701581522189056e+000
0	 1.466639999981867e+000	 5.399969999982150e+000	 9.718395176306272e+000
0	 1.466639999981867e+000	 5.466639999981866e+000	 9.734147644697483e+000
0	 1.466639999981866e+000	 5.533309999982383e+000	 9.748661956282380e+000
0	 1.466639999981866e+000	 5.599979999983599e+000	 9.761761139980640e+000
0	 1.466639999981867e+000	 5.666649999985417e+000	 9.773268224711893e+000
0	 1.466639999981867e+000	 5.733319999987733e+000	 9.783006239395776e+000
0	 1.466639999981866e+000	 5.799989999990450e+000	 9.790798212951900e+000
0	 1.466639999981866e+000	 5.866659999993467e+000	 9.796467174299851e+000
0	 1.466639999981867e+000	 5.933329999996683e+000	 9.799836152359193e+000
0	 1.466639999981867e+000	 6.000000000000001e+000	 9.800728176049496e+000
0	 1.533309999982383e+000	 5.333299999983333e+000	 9.721713281711368e+000
0	 1.533309999982383e+000	 5.399969999982150e+000	 9.736886455485720e+000
0	 1.533309999982383e+000	 5.466639999981866e+000	 9.750946049551253e+000
0	 1.533309999982383e+000	 5.533309999982384e+000	 9.763773906344742e+000
0	 1.533309999982383e+000	 5.599979999983599e+000	 9.775251868302940e+000
0	 1.533309999982383e+000	 5.666649999985416e+000	 9.785261777862599e+000
0	 1.533309999982383e+000	 5.733319999987732e+000	 9.793685477460469e+000
0	 1.533309999982383e+000	 5.799989999990449e+000	 9.800404809533255e+000
0	 1.533309999982383e+000	 5.866659999993467e+000	 9.805301616517662e+000
0	 1.533309999982383e+000	 5.933329999996683e+000	 9.808257740850372e+000
0	 1.533309999982383e+000	 6.000000000000000e+000	 9.809155024968039e+000
0	 1.599979999983600e+000	 5.333299999983335e+000	 9.741810689958637e+000
0	 1.599979999983600e+000	 5.399969999982149e+000	 9.755141874259000e+000
0	 1.599979999983600e+000	 5.466639999981866e+000	 9.767384452238185e+000
0	 1.599979999983600e+000	 5.533309999982384e+000	 9.778469479808591e+000
0	 1.599979999983600e+000	 5.599979999983600e+000	 9.788328012882600e+000
0	 1.599979999983599e+000	 5.666649999985416e+000	 9.796891107372613e+000
0	 1.599979999983600e+000	 5.733319999987732e+000	 9.804089819190955e+000
0	 1.599979999983600e+000	 5.799989999990450e+000	 9.809855204249981e+000
0	 1.599979999983600e+000	 5.866659999993466e+000	 9.814118318462034e+000
0	 1.599979999983600e+000	 5.933329999996685e+000	 9.816810217739430e+000
0	 1.599979999983599e+000	 6.000000000000000e+000	 9.817861957994468e+000
0	 1.666649999985416e+000	 5.333299999983334e+000	 9.761740729606395e+000
0	 1.666649999985416e+000	 5.399969999982150e+000	 9.773099257144867e+000
0	 1.666649999985416e+000	 5.466639999981865e+000	 9.783458972258245e+000
0	 1.666649999985416e+000	 5.533309999982384e+000	 9.792790544293073e+000
0	 1.666649999985416e+000	 5.599979999983598e+000	 9.801064642595900e+000
0	 1.666649999985416e+000	 5.666649999985416e+000	 9.808251936513230e+000
0	 1.666649999985416e+000	 5.733319999987733e+000	 9.814323095391581e+000
0	 1.666649999985416e+000	 5.799989999990448e+000	 9.819248788577459e+000
0	 1.666649999985417e+000	 5.866659999993467e+000	 9.822999685417345e+000
0	 1.666649999985416e+000	 5.933329999996683e+000	 9.825546455257722e+000
0	 1.666649999985416e+000	 6.000000000000000e+000	 9.826859767445066e+000
0	 1.733319999987733e+000	 5.333299999983333e+000	 9.781370383330165e+000
0	 1.733319999987733e+000	 5.399969999982151e+000	 9.790696428662072e+000
0	 1.733319999987733e+000	 5.466639999981866e+000	 9.799165729111371e+000
0	 1.733319999987733e+000	 5.533309999982383e+000	 9.806778967417294e+000
0	 1.733319999987733e+000	 5.599979999983599e+000	 9.813536826319037e+000
0	 1.733319999987733e+000	 5.666649999985415e+000	 9.819439988555791e+000
0	 1.733319999987733e+000	 5.733319999987733e+000	 9.824489136866742e+000
0	 1.733319999987733e+000	 5.799989999990450e+000	 9.828684953991075e+000
0	 1.733319999987733e+000	 5.866659999993468e+000	 9.832028122667969e+000
0	 1.733319999987733e+000	 5.933329999996683e+000	 9.834519325636585e+000
0	 1.733319999987733e+000	 6.000000000000001e+000	 9.836159245636065e+000
0	 1.799989999990450e+000	 5.333299999983334e+000	 9.800566633805477e+000
0	 1.799989999990450e+000	 5.399969999982148e+000	 9.807871213329372e+000
0	 1.799989999990450e+000	 5.466639999981866e+000	 9.814500842297536e+000
0	 1.799989999990450e+000	 5.533309999982383e+000	 9.820476616800351e+000
0	 1.799989999990450e+000	 5.599979999983600e+000	 9.825819632928246e+000
0	 1.799989999990450e+000	 5.666649999985416e+000	 9.830550986771600e+000
0	 1.799989999990450e+000	 5.733319999987733e+000	 9.834691774420804e+000
0	 1.799989999990450e+000	 5.799989999990449e+000	 9.838263091966242e+000
0	 1.799989999990450e+000	 5.866659999993467e+000	 9.841286035498303e+000
0	 1.799989999990450e+000	 5.933329999996685e+000	 9.843781701107329e+000
0	 1.799989999990450e+000	 6.000000000000000e+000	 9.845771184883747e+000
0	 1.866659999993467e+000	 5.333299999983333e+000	 9.819196463707833e+000
0	 1.866659999993466e+000	 5.399969999982148e+000	 9.824561435665512e+000
0	 1.866659999993467e+000	 5.466639999981867e+000	 9.829460431316642e+000
0	 1.866659999993467e+000	 5.533309999982382e+000	 9.833925360061347e+000
0	 1.866659999993466e+000	 5.599979999983599e+000	 9.837988131299765e+000
0	 1.866659999993467e+000	 5.666649999985415e+000	 9.841680654431965e+000
0	 1.866659999993467e+000	 5.733319999987733e+000	 9.845034838858126e+000
0	 1.866659999993466e+000	 5.799989999990448e+000	 9.848082593978319e+000
0	 1.866659999993467e+000	 5.866659999993466e+000	 9.850855829192689e+000
0	 1.866659999993467e+000	 5.933329999996682e+000	 9.853386453901322e+000
0	 1.866659999993466e+000	 5.999999999999998e+000	 9.855706377504342e+000
0	 1.933329999996684e+000	 5.333299999983335e+000	 9.837126855712757e+000
0	 1.933329999996684e+000	 5.399969999982150e+000	 9.840704920189250e+000
0	 1.933329999996684e+000	 5.466639999981866e+000	 9.844040615668677e+000
0	 1.933329999996684e+000	 5.533309999982384e+000	 9.847167064819391e+000
0	 1.933329999996684e+000	 5.599979999983600e+000	 9.850117390309787e+000
0	 1.933329999996684e+000	 5.666649999985418e+000	 9.852924714808218e+000
0	 1.933329999996684e+000	 5.733319999987733e+000	 9.855622160983085e+000
0	 1.933329999996684e+000	 5.799989999990450e+000	 9.858242851502716e+000
0	 1.933329999996684e+000	 5.866659999993466e+000	 9.860819909035536e+000
0	 1.933329999996684e+000	 5.933329999996683e+000	 9.863386456249872e+000
0	 1.933329999996684e+000	 6.000000000000000e+000	 9.865975615814140e+000
0	 2.000000000000000e+000	 5.333299999983333e+000	 9.854224792495755e+000
0	 2.000000000000000e+000	 5.399969999982149e+000	 9.856239491419318e+000
0	 2.000000000000000e+000	 5.466639999981868e+000	 9.858237514853535e+000
0	 2.000000000000000e+000	 5.533309999982383e+000	 9.860243598693561e+000
0	 2.000000000000000e+000	 5.599979999983600e+000	 9.862282478834549e+000
0	 2.000000000000000e+000	 5.666649999985416e+000	 9.864378891171661e+000
0	 2.000000000000000e+000	 5.733319999987732e+000	 9.866557571600032e+000
0	 2.000000000000000e+000	 5.799989999990449e+000	 9.868843256014822e+000
0	 1.999999999999999e+000	 5.866659999993466e+000	 9.871260680311211e+000
0	 2.000000000000000e+000	 5.933329999996682e+000	 9.873834580384349e+000
0	 2.000000000000000e+000	 6.000000000000000e+000	 9.876589692129393e+000
0	 1.333299999983334e+000	 6.000000000000000e+000	 9.784671561271084e+000
0	 1.333299999983334e+000	 6.066670000003319e+000	 9.784610723793300e+000
0	 1.333299999983334e+000	 6.133340000006530e+000	 9.785013674075957e+000
0	 1.333299999983334e+000	 6.200010000009551e+000	 9.786035495662221e+000
0	 1.333299999983334e+000	 6.266680000012268e+000	 9.787831272095257e+000
0	 1.333299999983334e+000	 6.333350000014583e+000	 9.790556086918235e+000
0	 1.333299999983334e+000	 6.400020000016402e+000	 9.794365023674351e+000
0	 1.333299999983334e+000	 6.466690000017617e+000	 9.799413165906794e+000
0	 1.333299999983334e+000	 6.533360000018134e+000	 9.805855597158798e+000
0	 1.333299999983334e+000	 6.600030000017851e+000	 9.813847400973572e+000
0	 1.333299999983334e+000	 6.666700000016665e+000	 9.823543660894343e+000
0	 1.399969999982150e+000	 5.999999999999999e+000	 9.792570618922595e+000
0	 1.399969999982150e+000	 6.066670000003315e+000	 9.792382465012581e+000
0	 1.399969999982150e+000	 6.133340000006533e+000	 9.792784975040339e+000
0	 1.399969999982150e+000	 6.200010000009551e+000	 9.793894406734047e+000
0	 1.399969999982150e+000	 6.266680000012269e+000	 9.795827017821889e+000
0	 1.399969999982150e+000	 6.333350000014585e+000	 9.798699066032045e+000
0	 1.399969999982150e+000	 6.400020000016401e+000	 9.802626809092720e+000
0	 1.399969999982150e+000	 6.466690000017618e+000	 9.807726504732122e+000
0	 1.399969999982150e+000	 6.533360000018132e+000	 9.814114410678505e+000
0	 1.399969999982150e+000	 6.600030000017851e+000	 9.821906784660058e+000
0	 1.399969999982150e+000	 6.666700000016667e+000	 9.831219884405067e+000
0	 1.466639999981867e+000	 6.000000000000001e+000	 9.800728176049496e+000
0	 1.466639999981866e+000	 6.066670000003318e+000	 9.800623887632828e+000
0	 1.466639999981866e+000	 6.133340000006535e+000	 9.801176958031906e+000
0	 1.466639999981866e+000	 6.200010000009550e+000	 9.802469959157257e+000
0	 1.466639999981867e+000	 6.266680000012265e+000	 9.804585462919411e+000
0	 1.466639999981866e+000	 6.333350000014585e+000	 9.807606041228905e+000
0	 1.466639999981866e+000	 6.400020000016399e+000	 9.811614265996283e+000
0	 1.466639999981866e+000	 6.466690000017616e+000	 9.816692709132108e+000
0	 1.466639999981867e+000	 6.533360000018135e+000	 9.822923942546963e+000
0	 1.466639999981867e+000	 6.600030000017850e+000	 9.830390538151418e+000
0	 1.466639999981867e+000	 6.666700000016667e+000	 9.839175067856059e+000
0	 1.533309999982383e+000	 6.000000000000000e+000	 9.809155024968039e+000
0	 1.533309999982383e+000	 6.066670000003318e+000	 9.809301447636404e+000
0	 1.533309999982383e+000	 6.133340000006530e+000	 9.810119776723569e+000
0	 1.533309999982383e+000	 6.200010000009550e+000	 9.811664038319716e+000
0	 1.533309999982383e+000	 6.266680000012267e+000	 9.813988258515074e+000
0	 1.533309999982383e+000	 6.333350000014584e+000	 9.817146463399888e+000
0	 1.533309999982383e+000	 6.400020000016400e+000	 9.821192679064330e+000
0	 1.533309999982383e+000	 6.466690000017615e+000	 9.826180931598707e+000
0	 1.533309999982383e+000	 6.533360000018136e+000	 9.832165247093238e+000
0	 1.533309999982383e+000	 6.600030000017851e+000	 9.839199651638189e+000
0	 1.533309999982383e+000	 6.666700000016665e+000	 9.847338171323832e+000
0	 1.599979999983599e+000	 6.000000000000000e+000	 9.817861957994468e+000
0	 1.599979999983600e+000	 6.066670000003319e+000	 9.818381601005694e+000
0	 1.599979999983600e+000	 6.133340000006534e+000	 9.819543584788219e+000
0	 1.599979999983600e+000	 6.200010000009550e+000	 9.821378529609305e+000
0	 1.599979999983599e+000	 6.266680000012266e+000	 9.823917055736166e+000
0	 1.599979999983600e+000	 6.333350000014583e+000	 9.827189783436047e+000
0	 1.599979999983600e+000	 6.400020000016402e+000	 9.831227332976205e+000
0	 1.599979999983600e+000	 6.466690000017618e+000	 9.836060324623889e+000
0	 1.599979999983599e+000	 6.533360000018133e+000	 9.841719378646367e+000
0	 1.599979999983600e+000	 6.600030000017849e+000	 9.848235115310917e+000
0	 1.599979999983599e+000	 6.666700000016665e+000	 9.855638154884813e+000
0	 1.666649999985416e+000	 6.000000000000000e+000	 9.826859767445066e+000
0	 1.666649999985417e+000	 6.066670000003318e+000	 9.827830803723067e+000
0	 1.666649999985417e+000	 6.133340000006535e+000	 9.829378535898817e+000
0	 1.666649999985416e+000	 6.200010000009550e+000	 9.831515318413914e+000
0	 1.666649999985417e+000	 6.266680000012268e+000	 9.834253505709944e+000
0	 1.666649999985416e+000	 6.333350000014584e+000	 9.837605452228495e+000
0	 1.666649999985416e+000	 6.400020000016402e+000	 9.841583512411186e+000
0	 1.666649999985416e+000	 6.466690000017618e+000	 9.846200040699607e+000
0	 1.666649999985416e+000	 6.533360000018134e+000	 9.851467391535387e+000
0	 1.666649999985417e+000	 6.600030000017852e+000	 9.857397919360139e+000
0	 1.666649999985416e+000	 6.666700000016665e+000	 9.864003978615472e+000
0	 1.733319999987733e+000	 6.000000000000001e+000	 9.836159245636065e+000
0	 1.733319999987733e+000	 6.066670000003316e+000	 9.837615511770892e+000
0	 1.733319999987733e+000	 6.133340000006531e+000	 9.839554783728243e+000
0	 1.733319999987733e+000	 6.200010000009552e+000	 9.841976290121416e+000
0	 1.733319999987733e+000	 6.266680000012268e+000	 9.844879259563678e+000
0	 1.733319999987733e+000	 6.333350000014583e+000	 9.848262920668317e+000
0	 1.733319999987733e+000	 6.400020000016398e+000	 9.852126502048627e+000
0	 1.733319999987733e+000	 6.466690000017615e+000	 9.856469232317853e+000
0	 1.733319999987733e+000	 6.533360000018136e+000	 9.861290340089358e+000
0	 1.733319999987733e+000	 6.600030000017851e+000	 9.866589053976398e+000
0	 1.733319999987733e+000	 6.666700000016665e+000	 9.872364602592286e+000
0	 1.799989999990450e+000	 6.000000000000000e+000	 9.845771184883747e+000
0	 1.799989999990450e+000	 6.066670000003319e+000	 9.847702181131552e+000
0	 1.799989999990450e+000	 6.133340000006533e+000	 9.850002481949446e+000
0	 1.799989999990450e+000	 6.200010000009552e+000	 9.852663330119718e+000
0	 1.799989999990450e+000	 6.266680000012267e+000	 9.855675968424643e+000
0	 1.799989999990450e+000	 6.333350000014584e+000	 9.859031639646576e+000
0	 1.799989999990450e+000	 6.400020000016401e+000	 9.862721586567780e+000
0	 1.799989999990450e+000	 6.466690000017616e+000	 9.866737051970578e+000
0	 1.799989999990450e+000	 6.533360000018134e+000	 9.871069278637295e+000
0	 1.799989999990450e+000	 6.600030000017851e+000	 9.875709509350219e+000
0	 1.799989999990450e+000	 6.666700000016666e+000	 9.880648986891703e+000
0	 1.866659999993466e+000	 5.999999999999998e+000	 9.855706377504342e+000
0	 1.866659999993467e+000	 6.066670000003315e+000	 9.858057267787430e+000
0	 1.866659999993467e+000	 6.133340000006532e+000	 9.860651784235321e+000
0	 1.866659999993467e+000	 6.200010000009551e+000	 9.863478323796683e+000
0	 1.866659999993467e+000	 6.266680000012268e+000	 9.866525283420135e+000
0	 1.866659999993467e+000	 6.333350000014583e+000	 9.869781060054358e+000
0	 1.866659999993467e+000	 6.400020000016403e+000	 9.873234050648014e+000
0	 1.866659999993467e+000	 6.466690000017616e+000	 9.876872652149752e+000
0	 1.866659999993467e+000	 6.533360000018133e+000	 9.880685261508251e+000
0	 1.866659999993466e+000	 6.600030000017850e+000	 9.884660275672166e+000
0	 1.866659999993467e+000	 6.666700000016665e+000	 9.888786091590177e+000
0	 1.933329999996684e+000	 6.000000000000000e+000	 9.865975615814140e+000
0	 1.933329999996684e+000	 6.066670000003315e+000	 9.868647227720924e+000
0	 1.933329999996683e+000	 6.133340000006533e+000	 9.871432844258825e+000
0	 1.933329999996684e+000	 6.200010000009551e+000	 9.874323156540203e+000
0	 1.933329999996683e+000	 6.266680000012266e+000	 9.877308855677391e+000
0	 1.933329999996684e+000	 6.333350000014586e+000	 9.880380632782741e+000
0	 1.933329999996684e+000	 6.400020000016400e+000	 9.883529178968614e+000
0	 1.933329999996684e+000	 6.466690000017617e+000	 9.886745185347333e+000
0	 1.933329999996684e+000	 6.533360000018135e+000	 9.890019343031266e+000
0	 1.933329999996684e+000	 6.600030000017852e+000	 9.893342343132760e+000
0	 1.933329999996684e+000	 6.666700000016668e+000	 9.896704876764169e+000
0	 2.000000000000000e+000	 6.000000000000000e+000	 9.876589692129393e+000
0	 2.000000000000000e+000	 6.066670000003317e+000	 9.879438516914389e+000
0	 2.000000000000000e+000	 6.133340000006534e+000	 9.882275815692861e+000
0	 2.000000000000000e+000	 6.200010000009550e+000	 9.885099713738178e+000
0	 1.999999999999999e+000	 6.266680000012266e+000	 9.887908336323712e+000
0	 2.000000000000000e+000	 6.333350000014585e+000	 9.890699808722832e+000
0	 2.000000000000000e+000	 6.400020000016401e+000	 9.893472256208908e+000
0	 2.000000000000000e+000	 6.466690000017618e+000	 9.896223804055298e+000
0	 2.000000000000000e+000	 6.533360000018136e+000	 9.898952577535386e+000
0	 2.000000000000000e+000	 6.600030000017848e+000	 9.901656701922555e+000
0	 2.000000000000000e+000	 6.666700000016668e+000	 9.904334302490153e+000
0	 1.333299999983334e+000	 6.666700000016665e+000	 9.823543660894345e+000
0	 1.333299999983334e+000	 6.733360000014534e+000	 9.833885501468206e+000
0	 1.333299999983334e+000	 6.800020000011599e+000	 9.843670730311263e+000
0	 1.333299999983334e+000	 6.866680000008066e+000	 9.852834685726752e+000
0	 1.333299999983334e+000	 6.933340000004134e+000	 9.861312706017912e+000
0	 1.333299999983334e+000	 6.999999999999999e+000	 9.869040129488012e+000
0	 1.333299999983334e+000	 7.066659999995867e+000	 9.875952294440332e+000
0	 1.333299999983334e+000	 7.133319999991935e+000	 9.881984539178180e+000
0	 1.333299999983334e+000	 7.199979999988400e+000	 9.887072202004875e+000
0	 1.333299999983334e+000	 7.266639999985467e+000	 9.891150621223735e+000
0	 1.333299999983334e+000	 7.333299999983336e+000	 9.894155135138131e+000
0	 1.399969999982150e+000	 6.666700000016667e+000	 9.831219884405067e+000
0	 1.399969999982150e+000	 6.733360000014532e+000	 9.841050701829921e+000
0	 1.399969999982150e+000	 6.800020000011600e+000	 9.850291234842892e+000
0	 1.399969999982150e+000	 6.866680000008066e+000	 9.858895699890722e+000
0	 1.399969999982150e+000	 6.933340000004133e+000	 9.866818313420152e+000
0	 1.399969999982150e+000	 7.000000000000000e+000	 9.874013291877949e+000
0	 1.399969999982150e+000	 7.066659999995866e+000	 9.880434851710879e+000
0	 1.399969999982150e+000	 7.133319999991933e+000	 9.886037209365748e+000
0	 1.399969999982150e+000	 7.199979999988401e+000	 9.890774581289366e+000
0	 1.399969999982150e+000	 7.266639999985465e+000	 9.894601183928566e+000
0	 1.399969999982150e+000	 7.333299999983334e+000	 9.897471233730188e+000
0	 1.466639999981867e+000	 6.666700000016667e+000	 9.839175067856059e+000
0	 1.466639999981866e+000	 6.733360000014534e+000	 9.848359035992592e+000
0	 1.466639999981867e+000	 6.800020000011599e+000	 9.856952033446619e+000
0	 1.466639999981866e+000	 6.866680000008066e+000	 9.864924500213400e+000
0	 1.466639999981866e+000	 6.933340000004134e+000	 9.872246876288202e+000
0	 1.466639999981866e+000	 6.999999999999999e+000	 9.878889601666318e+000
0	 1.466639999981866e+000	 7.066659999995866e+000	 9.884823116343060e+000
0	 1.466639999981866e+000	 7.133319999991934e+000	 9.890017860313732e+000
0	 1.466639999981866e+000	 7.199979999988401e+000	 9.894444273573656e+000
0	 1.466639999981867e+000	 7.266639999985466e+000	 9.898072796118200e+000
0	 1.466639999981867e+000	 7.333299999983336e+000	 9.900873867942710e+000
0	 1.533309999982383e+000	 6.666700000016665e+000	 9.847338171323832e+000
0	 1.533309999982383e+000	 6.733360000014534e+000	 9.855769050025554e+000
0	 1.533309999982383e+000	 6.800020000011601e+000	 9.863636465969597e+000
0	 1.533309999982383e+000	 6.866680000008064e+000	 9.870924428104813e+000
0	 1.533309999982383e+000	 6.933340000004133e+000	 9.877616945379979e+000
0	 1.533309999982383e+000	 7.000000000000001e+000	 9.883698026743955e+000
0	 1.533309999982383e+000	 7.066659999995868e+000	 9.889151681145584e+000
0	 1.533309999982383e+000	 7.133319999991935e+000	 9.893961917533749e+000
0	 1.533309999982383e+000	 7.199979999988402e+000	 9.898112744857283e+000
0	 1.533309999982383e+000	 7.266639999985466e+000	 9.901588172065098e+000
0	 1.533309999982383e+000	 7.333299999983335e+000	 9.904372208106105e+000
0	 1.599979999983599e+000	 6.666700000016665e+000	 9.855638154884815e+000
0	 1.599979999983600e+000	 6.733360000014532e+000	 9.863239289998090e+000
0	 1.599979999983600e+000	 6.800020000011601e+000	 9.870327872259011e+000
0	 1.599979999983599e+000	 6.866680000008064e+000	 9.876898824974976e+000
0	 1.599979999983600e+000	 6.933340000004133e+000	 9.882947071453389e+000
0	 1.599979999983600e+000	 7.000000000000000e+000	 9.888467535001643e+000
0	 1.599979999983599e+000	 7.066659999995867e+000	 9.893455138927161e+000
0	 1.599979999983599e+000	 7.133319999991931e+000	 9.897904806537392e+000
0	 1.599979999983600e+000	 7.199979999988400e+000	 9.901811461139781e+000
0	 1.599979999983600e+000	 7.266639999985469e+000	 9.905170026041763e+000
0	 1.599979999983600e+000	 7.333299999983336e+000	 9.907975424550818e+000
0	 1.666649999985416e+000	 6.666700000016665e+000	 9.864003978615473e+000
0	 1.666649999985416e+000	 6.733360000014533e+000	 9.870728301979517e+000
0	 1.666649999985416e+000	 6.800020000011599e+000	 9.877009592162008e+000
0	 1.666649999985416e+000	 6.866680000008067e+000	 9.882851032233941e+000
0	 1.666649999985416e+000	 6.933340000004131e+000	 9.888255805266326e+000
0	 1.666649999985417e+000	 6.999999999999999e+000	 9.893227094330156e+000
0	 1.666649999985416e+000	 7.066659999995867e+000	 9.897768082496473e+000
0	 1.666649999985416e+000	 7.133319999991934e+000	 9.901881952836300e+000
0	 1.666649999985417e+000	 7.199979999988401e+000	 9.905571888420663e+000
0	 1.666649999985416e+000	 7.266639999985467e+000	 9.908841072320616e+000
0	 1.666649999985416e+000	 7.333299999983333e+000	 9.911692687607232e+000
0	 1.733319999987733e+000	 6.666700000016665e+000	 9.872364602592286e+000
0	 1.733319999987733e+000	 6.733360000014534e+000	 9.878194632039149e+000
0	 1.733319999987733e+000	 6.800020000011600e+000	 9.883664965525743e+000
0	 1.733319999987733e+000	 6.866680000008067e+000	 9.888784391291727e+000
0	 1.733319999987733e+000	 6.933340000004132e+000	 9.893561697576702e+000
0	 1.733319999987733e+000	 6.999999999999998e+000	 9.898005672620309e+000
0	 1.733319999987733e+000	 7.066659999995868e+000	 9.902125104662209e+000
0	 1.733319999987733e+000	 7.133319999991935e+000	 9.905928781942059e+000
0	 1.733319999987733e+000	 7.199979999988400e+000	 9.909425492699487e+000
0	 1.733319999987733e+000	 7.266639999985467e+000	 9.912624025174170e+000
0	 1.733319999987733e+000	 7.333299999983335e+000	 9.915533167605791e+000
0	 1.799989999990450e+000	 6.666700000016666e+000	 9.880648986891703e+000
0	 1.799989999990450e+000	 6.733360000014534e+000	 9.885596826246273e+000
0	 1.799989999990450e+000	 6.800020000011600e+000	 9.890277332197394e+000
0	 1.799989999990450e+000	 6.866680000008068e+000	 9.894702243558335e+000
0	 1.799989999990450e+000	 6.933340000004134e+000	 9.898883299142419e+000
0	 1.799989999990450e+000	 7.000000000000001e+000	 9.902832237762897e+000
0	 1.799989999990450e+000	 7.066659999995868e+000	 9.906560798233086e+000
0	 1.799989999990450e+000	 7.133319999991935e+000	 9.910080719366283e+000
0	 1.799989999990450e+000	 7.199979999988400e+000	 9.913403739975763e+000
0	 1.799989999990450e+000	 7.266639999985467e+000	 9.916541598874879e+000
0	 1.799989999990450e+000	 7.333299999983335e+000	 9.919506034876902e+000
0	 1.866659999993467e+000	 6.666700000016665e+000	 9.888786091590175e+000
0	 1.866659999993467e+000	 6.733360000014532e+000	 9.892893430670188e+000
0	 1.866659999993467e+000	 6.800020000011601e+000	 9.896830032024083e+000
0	 1.866659999993467e+000	 6.866680000008066e+000	 9.900607930443828e+000
0	 1.866659999993467e+000	 6.933340000004133e+000	 9.904239160721380e+000
0	 1.866659999993467e+000	 6.999999999999998e+000	 9.907735757648712e+000
0	 1.866659999993467e+000	 7.066659999995866e+000	 9.911109756017787e+000
0	 1.866659999993467e+000	 7.133319999991935e+000	 9.914373190620577e+000
0	 1.866659999993467e+000	 7.199979999988400e+000	 9.917538096249043e+000
0	 1.866659999993467e+000	 7.266639999985466e+000	 9.920616507695184e+000
0	 1.866659999993467e+000	 7.333299999983333e+000	 9.923620459750969e+000
0	 1.933329999996684e+000	 6.666700000016668e+000	 9.896704876764170e+000
0	 1.933329999996683e+000	 6.733360000014531e+000	 9.900042991380207e+000
0	 1.933329999996684e+000	 6.800020000011601e+000	 9.903306404852987e+000
0	 1.933329999996684e+000	 6.866680000008067e+000	 9.906504793358192e+000
0	 1.933329999996684e+000	 6.933340000004133e+000	 9.909647833071489e+000
0	 1.933329999996684e+000	 7.000000000000000e+000	 9.912745200168528e+000
0	 1.933329999996683e+000	 7.066659999995864e+000	 9.915806570824993e+000
0	 1.933329999996684e+000	 7.133319999991936e+000	 9.918841621216547e+000
0	 1.933329999996684e+000	 7.199979999988401e+000	 9.921860027518861e+000
0	 1.933329999996684e+000	 7.266639999985467e+000	 9.924871465907602e+000
0	 1.933329999996684e+000	 7.333299999983332e+000	 9.927885612558436e+000
0	 2.000000000000000e+000	 6.666700000016668e+000	 9.904334302490153e+000
0	 2.000000000000000e+000	 6.733360000014532e+000	 9.907004054445620e+000
0	 2.000000000000000e+000	 6.800020000011601e+000	 9.909689790531260e+000
0	 2.000000000000000e+000	 6.866680000008068e+000	 9.912396173711473e+000
0	 2.000000000000000e+000	 6.933340000004133e+000	 9.915127866950634e+000
0	 2.000000000000000e+000	 6.999999999999999e+000	 9.917889533213154e+000
0	 2.000000000000000e+000	 7.066659999995867e+000	 9.920685835463408e+000
0	 2.000000000000000e+000	 7.133319999991933e+000	 9.923521436665803e+000
0	 2.000000000000000e+000	 7.199979999988401e+000	 9.926400999784731e+000
0	 2.000000000000000e+000	 7.266639999985467e+000	 9.929329187784560e+000
0	 2.000000000000000e+000	 7.333299999983335e+000	 9.932310663629702e+000
0	 1.333299999983334e+000	 7.333299999983336e+000	 9.894155135138130e+000
0	 1.333299999983334e+000	 7.399969999982149e+000	 9.896677458401616e+000
0	 1.333299999983334e+000	 7.466639999981866e+000	 9.899371236601803e+000
0	 1.333299999983334e+000	 7.533309999982384e+000	 9.902265805256507e+000
0	 1.333299999983334e+000	 7.599979999983600e+000	 9.905390499883557e+000
0	 1.333299999983334e+000	 7.666649999985415e+000	 9.908774656000801e+000
0	 1.333299999983334e+000	 7.733319999987733e+000	 9.912447609126026e+000
0	 1.333299999983334e+000	 7.799989999990449e+000	 9.916438694777112e+000
0	 1.333299999983334e+000	 7.866659999993466e+000	 9.920777248471866e+000
0	 1.333299999983334e+000	 7.933329999996683e+000	 9.925492605728143e+000
0	 1.333299999983334e+000	 8.000000000000000e+000	 9.930614102063750e+000
0	 1.399969999982150e+000	 7.333299999983334e+000	 9.897471233730187e+000
0	 1.399969999982150e+000	 7.399969999982150e+000	 9.899936135518098e+000
0	 1.399969999982150e+000	 7.466639999981867e+000	 9.902591061504840e+000
0	 1.399969999982150e+000	 7.533309999982385e+000	 9.905456948757760e+000
0	 1.399969999982150e+000	 7.599979999983598e+000	 9.908554734344177e+000
0	 1.399969999982150e+000	 7.666649999985416e+000	 9.911905355331451e+000
0	 1.399969999982150e+000	 7.733319999987733e+000	 9.915529748786899e+000
0	 1.399969999982150e+000	 7.799989999990451e+000	 9.919448851777895e+000
0	 1.399969999982150e+000	 7.866659999993467e+000	 9.923683601371767e+000
0	 1.399969999982150e+000	 7.933329999996682e+000	 9.928254934635858e+000
0	 1.399969999982150e+000	 7.999999999999999e+000	 9.933183788637525e+000
0	 1.466639999981867e+000	 7.333299999983336e+000	 9.900873867942712e+000
0	 1.466639999981866e+000	 7.399969999982151e+000	 9.903343135758940e+000
0	 1.466639999981867e+000	 7.466639999981866e+000	 9.906004462491531e+000
0	 1.466639999981866e+000	 7.533309999982383e+000	 9.908871682434203e+000
0	 1.466639999981866e+000	 7.599979999983600e+000	 9.911958629880635e+000
0	 1.466639999981866e+000	 7.666649999985419e+000	 9.915279139124497e+000
0	 1.466639999981866e+000	 7.733319999987731e+000	 9.918847044459495e+000
0	 1.466639999981867e+000	 7.799989999990449e+000	 9.922676180179314e+000
0	 1.466639999981866e+000	 7.866659999993466e+000	 9.926780380577664e+000
0	 1.466639999981867e+000	 7.933329999996684e+000	 9.931173479948233e+000
0	 1.466639999981866e+000	 8.000000000000000e+000	 9.935869312584693e+000
0	 1.533309999982383e+000	 7.333299999983335e+000	 9.904372208106103e+000
0	 1.533309999982383e+000	 7.399969999982148e+000	 9.906892947062396e+000
0	 1.533309999982383e+000	 7.466639999981864e+000	 9.909593765205329e+000
0	 1.533309999982383e+000	 7.533309999982384e+000	 9.912482689731785e+000
0	 1.533309999982383e+000	 7.599979999983599e+000	 9.915567747838640e+000
0	 1.533309999982383e+000	 7.666649999985414e+000	 9.918856966722759e+000
0	 1.533309999982383e+000	 7.733319999987733e+000	 9.922358373581043e+000
0	 1.533309999982383e+000	 7.799989999990449e+000	 9.926079995610342e+000
0	 1.533309999982383e+000	 7.866659999993468e+000	 9.930029860007569e+000
0	 1.533309999982383e+000	 7.933329999996682e+000	 9.934215993969572e+000
0	 1.533309999982383e+000	 8.000000000000000e+000	 9.938646424693257e+000
0	 1.599979999983600e+000	 7.333299999983336e+000	 9.907975424550816e+000
0	 1.599979999983600e+000	 7.399969999982152e+000	 9.910580057366772e+000
0	 1.599979999983600e+000	 7.466639999981867e+000	 9.913341295289689e+000
0	 1.599979999983600e+000	 7.533309999982383e+000	 9.916262654096435e+000
0	 1.599979999983600e+000	 7.599979999983600e+000	 9.919347649563955e+000
0	 1.599979999983599e+000	 7.666649999985414e+000	 9.922599797469083e+000
0	 1.599979999983600e+000	 7.733319999987733e+000	 9.926022613588785e+000
0	 1.599979999983600e+000	 7.799989999990450e+000	 9.929619613699945e+000
0	 1.599979999983600e+000	 7.866659999993468e+000	 9.933394313579450e+000
0	 1.599979999983600e+000	 7.933329999996683e+000	 9.937350229004206e+000
0	 1.599979999983600e+000	 8.000000000000000e+000	 9.941490875751146e+000
0	 1.666649999985416e+000	 7.333299999983333e+000	 9.911692687607232e+000
0	 1.666649999985416e+000	 7.399969999982151e+000	 9.914398954610345e+000
0	 1.666649999985416e+000	 7.466639999981865e+000	 9.917229378388052e+000
0	 1.666649999985416e+000	 7.533309999982385e+000	 9.920184258974116e+000
0	 1.666649999985417e+000	 7.599979999983598e+000	 9.923263896402270e+000
0	 1.666649999985416e+000	 7.666649999985418e+000	 9.926468590706298e+000
0	 1.666649999985417e+000	 7.733319999987733e+000	 9.929798641919980e+000
0	 1.666649999985416e+000	 7.799989999990450e+000	 9.933254350077059e+000
0	 1.666649999985416e+000	 7.866659999993466e+000	 9.936836015211302e+000
0	 1.666649999985417e+000	 7.933329999996684e+000	 9.940543937356489e+000
0	 1.666649999985416e+000	 8.000000000000000e+000	 9.944378416546382e+000
0	 1.733319999987733e+000	 7.333299999983335e+000	 9.915533167605789e+000
0	 1.733319999987733e+000	 7.399969999982150e+000	 9.918344126731407e+000
0	 1.733319999987733e+000	 7.466639999981866e+000	 9.921240340143898e+000
0	 1.733319999987733e+000	 7.533309999982383e+000	 9.924220187810722e+000
0	 1.733319999987733e+000	 7.599979999983598e+000	 9.927282049699349e+000
0	 1.733319999987733e+000	 7.666649999985417e+000	 9.930424305777244e+000
0	 1.733319999987733e+000	 7.733319999987733e+000	 9.933645336011857e+000
0	 1.733319999987733e+000	 7.799989999990450e+000	 9.936943520370676e+000
0	 1.733319999987733e+000	 7.866659999993465e+000	 9.940317238821137e+000
0	 1.733319999987733e+000	 7.933329999996684e+000	 9.943764871330737e+000
0	 1.733319999987733e+000	 7.999999999999999e+000	 9.947284797866937e+000
0	 1.799989999990450e+000	 7.333299999983335e+000	 9.919506034876902e+000
0	 1.799989999990450e+000	 7.399969999982150e+000	 9.922410061668225e+000
0	 1.799989999990450e+000	 7.466639999981866e+000	 9.925356506200661e+000
0	 1.799989999990450e+000	 7.533309999982384e+000	 9.928343124052224e+000
0	 1.799989999990450e+000	 7.599979999983599e+000	 9.931367670800908e+000
0	 1.799989999990450e+000	 7.666649999985416e+000	 9.934427902024728e+000
0	 1.799989999990450e+000	 7.733319999987732e+000	 9.937521573301662e+000
0	 1.799989999990450e+000	 7.799989999990450e+000	 9.940646440209742e+000
0	 1.799989999990450e+000	 7.866659999993468e+000	 9.943800258326938e+000
0	 1.799989999990450e+000	 7.933329999996683e+000	 9.946980783231279e+000
0	 1.799989999990450e+000	 8.000000000000002e+000	 9.950185770500779e+000
0	 1.866659999993467e+000	 7.333299999983333e+000	 9.923620459750969e+000
0	 1.866659999993467e+000	 7.399969999982151e+000	 9.926591247359072e+000
0	 1.866659999993467e+000	 7.466639999981866e+000	 9.929560202201815e+000
0	 1.866659999993467e+000	 7.533309999982383e+000	 9.932525751144558e+000
0	 1.866659999993466e+000	 7.599979999983599e+000	 9.935486321052679e+000
0	 1.866659999993467e+000	 7.666649999985416e+000	 9.938440338791589e+000
0	 1.866659999993467e+000	 7.733319999987733e+000	 9.941386231226639e+000
0	 1.866659999993466e+000	 7.799989999990448e+000	 9.944322425223231e+000
0	 1.866659999993467e+000	 7.866659999993466e+000	 9.947247347646696e+000
0	 1.866659999993467e+000	 7.933329999996684e+000	 9.950159425362465e+000
0	 1.866659999993467e+000	 7.999999999999998e+000	 9.953057085235896e+000
0	 1.933329999996684e+000	 7.333299999983332e+000	 9.927885612558432e+000
0	 1.933329999996684e+000	 7.399969999982151e+000	 9.930882171742244e+000
0	 1.933329999996684e+000	 7.466639999981867e+000	 9.933833753790788e+000
0	 1.933329999996684e+000	 7.533309999982384e+000	 9.936740752533643e+000
0	 1.933329999996684e+000	 7.599979999983602e+000	 9.939603561800405e+000
0	 1.933329999996684e+000	 7.666649999985416e+000	 9.942422575420677e+000
0	 1.933329999996684e+000	 7.733319999987734e+000	 9.945198187224039e+000
0	 1.933329999996684e+000	 7.799989999990451e+000	 9.947930791040086e+000
0	 1.933329999996684e+000	 7.866659999993467e+000	 9.950620780698412e+000
0	 1.933329999996684e+000	 7.933329999996685e+000	 9.953268550028616e+000
0	 1.933329999996683e+000	 8.000000000000000e+000	 9.955874492860257e+000
0	 2.000000000000000e+000	 7.333299999983335e+000	 9.932310663629702e+000
0	 2.000000000000000e+000	 7.399969999982151e+000	 9.935277322756022e+000
0	 2.000000000000000e+000	 7.466639999981867e+000	 9.938159486611047e+000
0	 2.000000000000000e+000	 7.533309999982384e+000	 9.940960811665422e+000
0	 2.000000000000000e+000	 7.599979999983599e+000	 9.943684954389788e+000
0	 2.000000000000000e+000	 7.666649999985416e+000	 9.946335571254810e+000
0	 2.000000000000000e+000	 7.733319999987733e+000	 9.948916318731094e+000
0	 2.000000000000000e+000	 7.799989999990449e+000	 9.951430853289295e+000
0	 2.000000000000000e+000	 7.866659999993466e+000	 9.953882831400055e+000
0	 2.000000000000000e+000	 7.933329999996684e+000	 9.956275909534028e+000
0	 2.000000000000000e+000	 7.999999999999999e+000	 9.958613744161836e+000
0	 1.333299999983334e+000	 8.000000000000000e+000	 9.930614102063750e+000
0	 1.333299999983334e+000	 8.066670000003317e+000	 9.935811469075276e+000
0	 1.333299999983334e+000	 8.133340000006532e+000	 9.940730203432057e+000
0	 1.333299999983334e+000	 8.200010000009550e+000	 9.945363288261214e+000
0	 1.333299999983334e+000	 8.266680000012268e+000	 9.949703706689837e+000
0	 1.333299999983334e+000	 8.333350000014587e+000	 9.953744441845014e+000
0	 1.333299999983334e+000	 8.400020000016399e+000	 9.957478476853853e+000
0	 1.333299999983334e+000	 8.466690000017618e+000	 9.960898794843411e+000
0	 1.333299999983334e+000	 8.533360000018135e+000	 9.963998378940779e+000
0	 1.333299999983334e+000	 8.600030000017851e+000	 9.966770212273039e+000
0	 1.333299999983334e+000	 8.666700000016666e+000	 9.969207277967250e+000
0	 1.399969999982150e+000	 7.999999999999999e+000	 9.933183788637525e+000
0	 1.399969999982150e+000	 8.066670000003315e+000	 9.938161167428016e+000
0	 1.399969999982150e+000	 8.133340000006530e+000	 9.942861907980099e+000
0	 1.399969999982150e+000	 8.200010000009547e+000	 9.947282696743443e+000
0	 1.399969999982150e+000	 8.266680000012268e+000	 9.951420220167734e+000
0	 1.399969999982150e+000	 8.333350000014583e+000	 9.955271164702612e+000
0	 1.399969999982150e+000	 8.400020000016399e+000	 9.958832216797724e+000
0	 1.399969999982150e+000	 8.466690000017616e+000	 9.962100062902749e+000
0	 1.399969999982150e+000	 8.533360000018131e+000	 9.965071389467340e+000
0	 1.399969999982150e+000	 8.600030000017849e+000	 9.967742882941124e+000
0	 1.399969999982150e+000	 8.666700000016668e+000	 9.970111229773744e+000
0	 1.466639999981866e+000	 8.000000000000000e+000	 9.935869312584693e+000
0	 1.466639999981866e+000	 8.066670000003317e+000	 9.940588064620199e+000
0	 1.466639999981866e+000	 8.133340000006534e+000	 9.945040534755718e+000
0	 1.466639999981867e+000	 8.200010000009552e+000	 9.949226476136834e+000
0	 1.466639999981867e+000	 8.266680000012267e+000	 9.953145641909117e+000
0	 1.466639999981866e+000	 8.333350000014585e+000	 9.956797785218114e+000
0	 1.466639999981866e+000	 8.400020000016401e+000	 9.960182659209373e+000
0	 1.466639999981866e+000	 8.466690000017618e+000	 9.963300017028461e+000
0	 1.466639999981867e+000	 8.533360000018135e+000	 9.966149611820923e+000
0	 1.466639999981866e+000	 8.600030000017849e+000	 9.968731196732295e+000
0	 1.466639999981866e+000	 8.666700000016666e+000	 9.971044524908109e+000
0	 1.533309999982383e+000	 8.000000000000000e+000	 9.938646424693257e+000
0	 1.533309999982383e+000	 8.066670000003315e+000	 9.943076500983018e+000
0	 1.533309999982383e+000	 8.133340000006529e+000	 9.947257675655214e+000
0	 1.533309999982383e+000	 8.200010000009552e+000	 9.951192131924653e+000
0	 1.533309999982383e+000	 8.266680000012267e+000	 9.954882053006100e+000
0	 1.533309999982383e+000	 8.333350000014583e+000	 9.958329622114334e+000
0	 1.533309999982383e+000	 8.400020000016401e+000	 9.961537022464144e+000
0	 1.533309999982383e+000	 8.466690000017614e+000	 9.964506437270304e+000
0	 1.533309999982383e+000	 8.533360000018135e+000	 9.967240049747582e+000
0	 1.533309999982383e+000	 8.600030000017849e+000	 9.969740043110734e+000
0	 1.533309999982383e+000	 8.666700000016666e+000	 9.972008600574549e+000
0	 1.599979999983600e+000	 8.000000000000000e+000	 9.941490875751146e+000
0	 1.599979999983600e+000	 8.066670000003319e+000	 9.945610816847699e+000
0	 1.599979999983600e+000	 8.133340000006534e+000	 9.949504922574919e+000
0	 1.599979999983599e+000	 8.200010000009550e+000	 9.953177169590186e+000
0	 1.599979999983600e+000	 8.266680000012267e+000	 9.956631534550787e+000
0	 1.599979999983600e+000	 8.333350000014585e+000	 9.959871994114069e+000
0	 1.599979999983600e+000	 8.400020000016401e+000	 9.962902524937382e+000
0	 1.599979999983600e+000	 8.466690000017616e+000	 9.965727103678027e+000
0	 1.599979999983599e+000	 8.533360000018133e+000	 9.968349706993353e+000
0	 1.599979999983600e+000	 8.600030000017853e+000	 9.970774311540666e+000
0	 1.599979999983600e+000	 8.666700000016668e+000	 9.973004893977279e+000
0	 1.666649999985416e+000	 8.000000000000000e+000	 9.944378416546382e+000
0	 1.666649999985417e+000	 8.066670000003317e+000	 9.948175352545462e+000
0	 1.666649999985417e+000	 8.133340000006534e+000	 9.951773867411156e+000
0	 1.666649999985416e+000	 8.200010000009549e+000	 9.955179094616685e+000
0	 1.666649999985417e+000	 8.266680000012268e+000	 9.958396167635264e+000
0	 1.666649999985416e+000	 8.333350000014587e+000	 9.961430219940120e+000
0	 1.666649999985416e+000	 8.400020000016403e+000	 9.964286385004446e+000
0	 1.666649999985416e+000	 8.466690000017614e+000	 9.966969796301420e+000
0	 1.666649999985416e+000	 8.533360000018133e+000	 9.969485587304305e+000
0	 1.666649999985416e+000	 8.600030000017849e+000	 9.971838891486259e+000
0	 1.666649999985417e+000	 8.666700000016666e+000	 9.974034842320485e+000
0	 1.733319999987733e+000	 7.999999999999999e+000	 9.947284797866937e+000
0	 1.733319999987733e+000	 8.066670000003317e+000	 9.950754448407503e+000
0	 1.733319999987733e+000	 8.133340000006534e+000	 9.954056102060203e+000
0	 1.733319999987733e+000	 8.200010000009554e+000	 9.957195412487456e+000
0	 1.733319999987733e+000	 8.266680000012268e+000	 9.960178033351667e+000
0	 1.733319999987733e+000	 8.333350000014583e+000	 9.963009618315255e+000
0	 1.733319999987733e+000	 8.400020000016401e+000	 9.965695821040647e+000
0	 1.733319999987733e+000	 8.466690000017618e+000	 9.968242295190262e+000
0	 1.733319999987733e+000	 8.533360000018135e+000	 9.970654694426472e+000
0	 1.733319999987733e+000	 8.600030000017851e+000	 9.972938672411722e+000
0	 1.733319999987733e+000	 8.666700000016668e+000	 9.975099882808410e+000
0	 1.799989999990450e+000	 8.000000000000002e+000	 9.950185770500779e+000
0	 1.799989999990450e+000	 8.066670000003319e+000	 9.953332444765058e+000
0	 1.799989999990450e+000	 8.133340000006534e+000	 9.956343218418395e+000
0	 1.799989999990450e+000	 8.200010000009554e+000	 9.959223628685731e+000
0	 1.799989999990450e+000	 8.266680000012265e+000	 9.961979212792050e+000
0	 1.799989999990450e+000	 8.333350000014585e+000	 9.964615507962293e+000
0	 1.799989999990450e+000	 8.400020000016399e+000	 9.967138051421372e+000
0	 1.799989999990450e+000	 8.466690000017616e+000	 9.969552380394260e+000
0	 1.799989999990450e+000	 8.533360000018133e+000	 9.971864032105911e+000
0	 1.799989999990450e+000	 8.600030000017851e+000	 9.974078543781257e+000
0	 1.799989999990450e+000	 8.666700000016666e+000	 9.976201452645229e+000
0	 1.866659999993467e+000	 7.999999999999998e+000	 9.953057085235896e+000
0	 1.866659999993467e+000	 8.066670000003315e+000	 9.955893681949309e+000
0	 1.866659999993467e+000	 8.133340000006532e+000	 9.958626808382020e+000
0	 1.866659999993467e+000	 8.200010000009552e+000	 9.961261248694823e+000
0	 1.866659999993467e+000	 8.266680000012267e+000	 9.963801787048549e+000
0	 1.866659999993467e+000	 8.333350000014582e+000	 9.966253207603993e+000
0	 1.866659999993467e+000	 8.400020000016401e+000	 9.968620294521946e+000
0	 1.866659999993467e+000	 8.466690000017618e+000	 9.970907831963240e+000
0	 1.866659999993467e+000	 8.533360000018137e+000	 9.973120604088678e+000
0	 1.866659999993467e+000	 8.600030000017849e+000	 9.975263395059049e+000
0	 1.866659999993466e+000	 8.666700000016663e+000	 9.977340989035179e+000
0	 1.933329999996683e+000	 8.000000000000000e+000	 9.955874492860257e+000
0	 1.933329999996684e+000	 8.066670000003313e+000	 9.958422500291499e+000
0	 1.933329999996683e+000	 8.133340000006534e+000	 9.960898463847411e+000
0	 1.933329999996684e+000	 8.200010000009552e+000	 9.963305777997999e+000
0	 1.933329999996683e+000	 8.266680000012267e+000	 9.965647837213243e+000
0	 1.933329999996684e+000	 8.333350000014585e+000	 9.967928035963151e+000
0	 1.933329999996684e+000	 8.400020000016401e+000	 9.970149768717727e+000
0	 1.933329999996684e+000	 8.466690000017614e+000	 9.972316429946948e+000
0	 1.933329999996684e+000	 8.533360000018135e+000	 9.974431414120806e+000
0	 1.933329999996683e+000	 8.600030000017849e+000	 9.976498115709303e+000
0	 1.933329999996684e+000	 8.666700000016666e+000	 9.978519929182442e+000
0	 2.000000000000000e+000	 7.999999999999999e+000	 9.958613744161836e+000
0	 2.000000000000000e+000	 8.066670000003319e+000	 9.960903240122809e+000
0	 2.000000000000000e+000	 8.133340000006534e+000	 9.963149776710857e+000
0	 2.000000000000000e+000	 8.200010000009549e+000	 9.965354722078496e+000
0	 2.000000000000000e+000	 8.266680000012267e+000	 9.967519444378237e+000
0	 2.000000000000000e+000	 8.333350000014585e+000	 9.969645311762575e+000
0	 1.999999999999999e+000	 8.400020000016397e+000	 9.971733692384031e+000
0	 2.000000000000000e+000	 8.466690000017618e+000	 9.973785954395115e+000
0	 2.000000000000000e+000	 8.533360000018131e+000	 9.975803465948342e+000
0	 2.000000000000000e+000	 8.600030000017851e+000	 9.977787595196215e+000
0	 2.000000000000000e+000	 8.666700000016666e+000	 9.979739710291238e+000
0	 1.333299999983334e+000	 8.666700000016666e+000	 9.969207277967250e+000
0	 1.333299999983334e+000	 8.733360002791903e+000	 9.971449506325250e+000
0	 1.333299999983334e+000	 8.800020022230553e+000	 9.973648071584247e+000
0	 1.333299999983334e+000	 8.866680074997040e+000	 9.975811802686744e+000
0	 1.333299999983334e+000	 8.933340177755781e+000	 9.977949528796271e+000
0	 1.333299999983334e+000	 9.000000347171181e+000	 9.980070079297219e+000
0	 1.333299999983334e+000	 9.066660599907669e+000	 9.982182283794954e+000
0	 1.333299999983334e+000	 9.133320952629656e+000	 9.984294972115782e+000
0	 1.333299999983334e+000	 9.199981422001560e+000	 9.986416974306906e+000
0	 1.333299999983334e+000	 9.266642024687796e+000	 9.988557120636449e+000
0	 1.333299999983334e+000	 9.333302777352785e+000	 9.990724241593485e+000
0	 1.399969999982150e+000	 8.666700000016668e+000	 9.970111229773744e+000
0	 1.399969999982150e+000	 8.733360002791905e+000	 9.972304131413479e+000
0	 1.399969999982150e+000	 8.800020022230555e+000	 9.974456787161460e+000
0	 1.399969999982150e+000	 8.866680074997044e+000	 9.976576133413575e+000
0	 1.399969999982150e+000	 8.933340177755778e+000	 9.978669106789763e+000
0	 1.399969999982150e+000	 9.000000347171181e+000	 9.980742644134043e+000
0	 1.399969999982150e+000	 9.066660599907667e+000	 9.982803682514550e+000
0	 1.399969999982150e+000	 9.133320952629653e+000	 9.984859159223435e+000
0	 1.399969999982150e+000	 9.199981422001560e+000	 9.986916011776955e+000
0	 1.399969999982150e+000	 9.266642024687794e+000	 9.988981177915388e+000
0	 1.399969999982150e+000	 9.333302777352783e+000	 9.991061595603073e+000
0	 1.466639999981866e+000	 8.666700000016666e+000	 9.971044524908109e+000
0	 1.466639999981867e+000	 8.733360002791901e+000	 9.973201147006703e+000
0	 1.466639999981866e+000	 8.800020022230552e+000	 9.975317016077973e+000
0	 1.466639999981867e+000	 8.866680074997040e+000	 9.977397508473819e+000
0	 1.466639999981867e+000	 8.933340177755781e+000	 9.979448000776509e+000
0	 1.466639999981866e+000	 9.000000347171183e+000	 9.981473869798592e+000
0	 1.466639999981866e+000	 9.066660599907669e+000	 9.983480492583048e+000
0	 1.466639999981866e+000	 9.133320952629655e+000	 9.985473246403117e+000
0	 1.466639999981867e+000	 9.199981422001558e+000	 9.987457508762411e+000
0	 1.466639999981867e+000	 9.266642024687799e+000	 9.989438657394887e+000
0	 1.466639999981866e+000	 9.333302777352783e+000	 9.991422070264738e+000
0	 1.533309999982383e+000	 8.666700000016666e+000	 9.972008600574551e+000
0	 1.533309999982383e+000	 8.733360002791901e+000	 9.974138208123991e+000
0	 1.533309999982383e+000	 8.800020022230557e+000	 9.976223308060815e+000
0	 1.533309999982383e+000	 8.866680074997040e+000	 9.978268049197189e+000
0	 1.533309999982383e+000	 8.933340177755779e+000	 9.980276580584009e+000
0	 1.533309999982383e+000	 9.000000347171184e+000	 9.982253051510956e+000
0	 1.533309999982383e+000	 9.066660599907669e+000	 9.984201611506371e+000
0	 1.533309999982383e+000	 9.133320952629656e+000	 9.986126410337381e+000
0	 1.533309999982383e+000	 9.199981422001560e+000	 9.988031598009801e+000
0	 1.533309999982383e+000	 9.266642024687798e+000	 9.989921324768131e+000
0	 1.533309999982383e+000	 9.333302777352783e+000	 9.991799741095598e+000
0	 1.599979999983600e+000	 8.666700000016668e+000	 9.973004893977279e+000
0	 1.599979999983600e+000	 8.733360002791901e+000	 9.975112969784457e+000
0	 1.599979999983600e+000	 8.800020022230555e+000	 9.977170212837040e+000
0	 1.599979999983600e+000	 8.866680074997042e+000	 9.979179876913319e+000
0	 1.599979999983600e+000	 8.933340177755779e+000	 9.981145216039808e+000
0	 1.599979999983600e+000	 9.000000347171183e+000	 9.983069484491230e+000
0	 1.599979999983600e+000	 9.066660599907669e+000	 9.984955936790522e+000
0	 1.599979999983599e+000	 9.133320952629655e+000	 9.986807827708871e+000
0	 1.599979999983600e+000	 9.199981422001557e+000	 9.988628412265612e+000
0	 1.599979999983600e+000	 9.266642024687799e+000	 9.990420945728284e+000
0	 1.599979999983600e+000	 9.333302777352785e+000	 9.992188683612621e+000
0	 1.666649999985417e+000	 8.666700000016666e+000	 9.974034842320485e+000
0	 1.666649999985416e+000	 8.733360002791903e+000	 9.976123087007146e+000
0	 1.666649999985417e+000	 8.800020022230555e+000	 9.978152280133694e+000
0	 1.666649999985417e+000	 8.866680074997042e+000	 9.980125112951907e+000
0	 1.666649999985416e+000	 8.933340177755779e+000	 9.982044276971379e+000
0	 1.666649999985416e+000	 9.000000347171183e+000	 9.983912463959531e+000
0	 1.666649999985417e+000	 9.066660599907669e+000	 9.985732365941461e+000
0	 1.666649999985417e+000	 9.133320952629658e+000	 9.987506675200175e+000
0	 1.666649999985416e+000	 9.199981422001558e+000	 9.989238084276362e+000
0	 1.666649999985416e+000	 9.266642024687796e+000	 9.990929285968516e+000
0	 1.666649999985417e+000	 9.333302777352783e+000	 9.992582973332844e+000
0	 1.733319999987733e+000	 8.666700000016668e+000	 9.975099882808410e+000
0	 1.733319999987733e+000	 8.733360002791901e+000	 9.977166214811156e+000
0	 1.733319999987733e+000	 8.800020022230557e+000	 9.979164059677805e+000
0	 1.733319999987733e+000	 8.866680074997044e+000	 9.981095878642606e+000
0	 1.733319999987733e+000	 8.933340177755776e+000	 9.982964133206270e+000
0	 1.733319999987733e+000	 9.000000347171181e+000	 9.984771285135926e+000
0	 1.733319999987733e+000	 9.066660599907671e+000	 9.986519796465137e+000
0	 1.733319999987733e+000	 9.133320952629653e+000	 9.988212129493885e+000
0	 1.733319999987733e+000	 9.199981422001558e+000	 9.989850746788569e+000
0	 1.733319999987733e+000	 9.266642024687798e+000	 9.991438111181978e+000
0	 1.733319999987734e+000	 9.333302777352785e+000	 9.992976685773286e+000
0	 1.799989999990450e+000	 8.666700000016666e+000	 9.976201452645226e+000
0	 1.799989999990450e+000	 8.733360002791903e+000	 9.978240008215570e+000
0	 1.799989999990450e+000	 8.800020022230557e+000	 9.980200101196445e+000
0	 1.799989999990450e+000	 8.866680074997042e+000	 9.982084295315103e+000
0	 1.799989999990450e+000	 8.933340177755776e+000	 9.983895154571970e+000
0	 1.799989999990450e+000	 9.000000347171181e+000	 9.985635243240552e+000
0	 1.799989999990450e+000	 9.066660599907669e+000	 9.987307125867536e+000
0	 1.799989999990450e+000	 9.133320952629656e+000	 9.988913367272637e+000
0	 1.799989999990450e+000	 9.199981422001560e+000	 9.990456532548743e+000
0	 1.799989999990450e+000	 9.266642024687798e+000	 9.991939187061849e+000
0	 1.799989999990450e+000	 9.333302777352781e+000	 9.993363896450978e+000
0	 1.866659999993466e+000	 8.666700000016663e+000	 9.977340989035175e+000
0	 1.866659999993467e+000	 8.733360002791903e+000	 9.979342122239455e+000
0	 1.866659999993466e+000	 8.800020022230553e+000	 9.981254954416627e+000
0	 1.866659999993467e+000	 8.866680074997042e+000	 9.983082484299059e+000
0	 1.866659999993467e+000	 8.933340177755779e+000	 9.984827710895983e+000
0	 1.866659999993467e+000	 9.000000347171183e+000	 9.986493633493508e+000
0	 1.866659999993467e+000	 9.066660599907667e+000	 9.988083251654576e+000
0	 1.866659999993467e+000	 9.133320952629656e+000	 9.989599565218988e+000
0	 1.866659999993467e+000	 9.199981422001557e+000	 9.991045574303403e+000
0	 1.866659999993467e+000	 9.266642024687796e+000	 9.992424279301279e+000
0	 1.866659999993467e+000	 9.333302777352783e+000	 9.993738680882919e+000
0	 1.933329999996684e+000	 8.666700000016666e+000	 9.978519929182442e+000
0	 1.933329999996683e+000	 8.733360002791899e+000	 9.980470211901890e+000
0	 1.933329999996683e+000	 8.800020022230555e+000	 9.982323169065420e+000
0	 1.933329999996684e+000	 8.866680074997040e+000	 9.984082566924153e+000
0	 1.933329999996684e+000	 8.933340177755781e+000	 9.985752172005837e+000
0	 1.933329999996684e+000	 9.000000347171183e+000	 9.987335751114875e+000
0	 1.933329999996684e+000	 9.066660599907669e+000	 9.988837071332265e+000
0	 1.933329999996683e+000	 9.133320952629656e+000	 9.990259900015579e+000
0	 1.933329999996684e+000	 9.199981422001557e+000	 9.991608004799033e+000
0	 1.933329999996684e+000	 9.266642024687798e+000	 9.992885153593454e+000
0	 1.933329999996684e+000	 9.333302777352785e+000	 9.994095114586180e+000
0	 2.000000000000000e+000	 8.666700000016666e+000	 9.979739710291238e+000
0	 2.000000000000000e+000	 8.733360002791905e+000	 9.981621932221973e+000
0	 2.000000000000000e+000	 8.800020022230555e+000	 9.983399294869852e+000
0	 2.000000000000000e+000	 8.866680074997039e+000	 9.985076664520049e+000
0	 2.000000000000000e+000	 8.933340177755779e+000	 9.986658907729044e+000
0	 2.000000000000000e+000	 9.000000347171183e+000	 9.988150891324771e+000
0	 2.000000000000000e+000	 9.066660599907667e+000	 9.989557482406523e+000
0	 2.000000000000000e+000	 9.133320952629653e+000	 9.990883548344991e+000
0	 2.000000000000000e+000	 9.199981422001558e+000	 9.992133956782183e+000
0	 2.000000000000000e+000	 9.266642024687796e+000	 9.993313575631523e+000
0	 2.000000000000000e+000	 9.333302777352783e+000	 9.994427273077751e+000
0	 1.333299999983334e+000	 9.333302777352785e+000	 9.990724241593487e+000
0	 1.333299999983334e+000	 9.399973674588177e+000	 9.992766895209115e+000
0	 1.333299999983334e+000	 9.466644621844619e+000	 9.994531031546126e+000
0	 1.333299999983334e+000	 9.533315502450002e+000	 9.996022548321161e+000
0	 1.333299999983334e+000	 9.599986199732198e+000	 9.997247338341214e+000
0	 1.333299999983334e+000	 9.666656597019093e+000	 9.998211289502914e+000
0	 1.333299999983334e+000	 9.733326577638575e+000	 9.998920284792302e+000
0	 1.333299999983334e+000	 9.799996024918523e+000	 9.999380202283906e+000
0	 1.333299999983334e+000	 9.866664822186824e+000	 9.999596915140051e+000
0	 1.333299999983334e+000	 9.933332852771356e+000	 9.999576291609829e+000
0	 1.333299999983334e+000	 1.000000000000000e+001	 9.999324195028121e+000
0	 1.399969999982150e+000	 9.333302777352783e+000	 9.991061595603069e+000
0	 1.399969999982150e+000	 9.399973674588177e+000	 9.993015943558127e+000
0	 1.399969999982150e+000	 9.466644621844623e+000	 9.994702279801812e+000
0	 1.399969999982150e+000	 9.533315502449998e+000	 9.996127548658603e+000
0	 1.399969999982150e+000	 9.599986199732197e+000	 9.997298689763550e+000
0	 1.399969999982150e+000	 9.666656597019095e+000	 9.998222638061952e+000
0	 1.399969999982150e+000	 9.733326577638573e+000	 9.998906323808583e+000
0	 1.399969999982150e+000	 9.799996024918523e+000	 9.999356672567323e+000
0	 1.399969999982150e+000	 9.866664822186824e+000	 9.999580605210083e+000
0	 1.399969999982150e+000	 9.933332852771354e+000	 9.999585037916054e+000
0	 1.399969999982150e+000	 1.000000000000000e+001	 9.999376882170720e+000
0	 1.466639999981866e+000	 9.333302777352783e+000	 9.991422070264738e+000
0	 1.466639999981867e+000	 9.399973674588177e+000	 9.993278886535297e+000
0	 1.466639999981867e+000	 9.466644621844619e+000	 9.994881185418826e+000
0	 1.466639999981867e+000	 9.533315502450003e+000	 9.996236645732454e+000
0	 1.466639999981867e+000	 9.599986199732198e+000	 9.997352941846838e+000
0	 1.466639999981867e+000	 9.666656597019093e+000	 9.998237743685618e+000
0	 1.466639999981867e+000	 9.733326577638577e+000	 9.998898716724920e+000
0	 1.466639999981867e+000	 9.799996024918523e+000	 9.999343521992758e+000
0	 1.466639999981867e+000	 9.866664822186822e+000	 9.999579816068195e+000
0	 1.466639999981867e+000	 9.933332852771354e+000	 9.999615251080519e+000
0	 1.466639999981866e+000	 1.000000000000000e+001	 9.999457474708168e+000
0	 1.533309999982383e+000	 9.333302777352783e+000	 9.991799741095598e+000
0	 1.533309999982383e+000	 9.399973674588175e+000	 9.993552156942906e+000
0	 1.533309999982383e+000	 9.466644621844619e+000	 9.995065955749000e+000
0	 1.533309999982383e+000	 9.533315502450002e+000	 9.996349238717631e+000
0	 1.533309999982383e+000	 9.599986199732197e+000	 9.997410102865338e+000
0	 1.533309999982383e+000	 9.666656597019092e+000	 9.998256641020918e+000
0	 1.533309999982383e+000	 9.733326577638577e+000	 9.998896941824974e+000
0	 1.533309999982383e+000	 9.799996024918526e+000	 9.999339089729261e+000
0	 1.533309999982383e+000	 9.866664822186824e+000	 9.999591164995902e+000
0	 1.533309999982383e+000	 9.933332852771354e+000	 9.999661243696639e+000
0	 1.533309999982383e+000	 1.000000000000000e+001	 9.999557397711776e+000
0	 1.599979999983600e+000	 9.333302777352785e+000	 9.992188683612620e+000
0	 1.599979999983600e+000	 9.399973674588175e+000	 9.993832187583227e+000
0	 1.599979999983600e+000	 9.466644621844617e+000	 9.995254798144185e+000
0	 1.599979999983600e+000	 9.533315502450000e+000	 9.996464726788961e+000
0	 1.599979999983600e+000	 9.599986199732197e+000	 9.997470181093302e+000
0	 1.599979999983600e+000	 9.666656597019097e+000	 9.998279364714820e+000
0	 1.599979999983600e+000	 9.733326577638575e+000	 9.998900477392432e+000
0	 1.599979999983600e+000	 9.799996024918524e+000	 9.999341714945849e+000
0	 1.599979999983600e+000	 9.866664822186824e+000	 9.999611269274762e+000
0	 1.599979999983600e+000	 9.933332852771352e+000	 9.999717328358052e+000
0	 1.599979999983600e+000	 1.000000000000000e+001	 9.999668076252917e+000
0	 1.666649999985417e+000	 9.333302777352783e+000	 9.992582973332841e+000
0	 1.666649999985416e+000	 9.399973674588177e+000	 9.994115411258507e+000
0	 1.666649999985416e+000	 9.466644621844619e+000	 9.995445919956246e+000
0	 1.666649999985417e+000	 9.533315502450002e+000	 9.996582509121309e+000
0	 1.666649999985416e+000	 9.599986199732197e+000	 9.997533184805056e+000
0	 1.666649999985416e+000	 9.666656597019090e+000	 9.998305949414291e+000
0	 1.666649999985417e+000	 9.733326577638577e+000	 9.998908801710979e+000
0	 1.666649999985416e+000	 9.799996024918523e+000	 9.999349736811528e+000
0	 1.666649999985416e+000	 9.866664822186824e+000	 9.999636746186297e+000
0	 1.666649999985416e+000	 9.933332852771352e+000	 9.999777817658266e+000
0	 1.666649999985417e+000	 1.000000000000000e+001	 9.999780935403001e+000
0	 1.733319999987734e+000	 9.333302777352785e+000	 9.992976685773284e+000
0	 1.733319999987733e+000	 9.399973674588175e+000	 9.994398260771028e+000
0	 1.733319999987733e+000	 9.466644621844623e+000	 9.995637528536989e+000
0	 1.733319999987733e+000	 9.533315502450002e+000	 9.996701984889555e+000
0	 1.733319999987733e+000	 9.599986199732198e+000	 9.997599122274826e+000
0	 1.733319999987733e+000	 9.666656597019095e+000	 9.998336429766281e+000
0	 1.733319999987733e+000	 9.733326577638579e+000	 9.998921393064300e+000
0	 1.733319999987734e+000	 9.799996024918524e+000	 9.999361494495398e+000
0	 1.733319999987733e+000	 9.866664822186820e+000	 9.999664213011897e+000
0	 1.733319999987733e+000	 9.933332852771352e+000	 9.999837024190809e+000
0	 1.733319999987733e+000	 1.000000000000000e+001	 9.999887400233279e+000
0	 1.799989999990450e+000	 9.333302777352781e+000	 9.993363896450976e+000
0	 1.799989999990450e+000	 9.399973674588177e+000	 9.994677168923069e+000
0	 1.799989999990450e+000	 9.466644621844617e+000	 9.995827831238307e+000
0	 1.799989999990450e+000	 9.533315502450003e+000	 9.996822553268508e+000
0	 1.799989999990450e+000	 9.599986199732193e+000	 9.997668001776896e+000
0	 1.799989999990450e+000	 9.666656597019097e+000	 9.998370840417806e+000
0	 1.799989999990450e+000	 9.733326577638577e+000	 9.998937729736038e+000
0	 1.799989999990450e+000	 9.799996024918524e+000	 9.999375327166435e+000
0	 1.799989999990450e+000	 9.866664822186824e+000	 9.999690287033198e+000
0	 1.799989999990450e+000	 9.933332852771352e+000	 9.999889260549223e+000
0	 1.799989999990450e+000	 1.000000000000000e+001	 9.999978895815065e+000
0	 1.866659999993467e+000	 9.333302777352783e+000	 9.993738680882919e+000
0	 1.866659999993467e+000	 9.399973674588173e+000	 9.994948568516879e+000
0	 1.866659999993467e+000	 9.466644621844623e+000	 9.996015035412006e+000
0	 1.866659999993467e+000	 9.533315502450003e+000	 9.996943613433038e+000
0	 1.866659999993467e+000	 9.599986199732197e+000	 9.997739831585568e+000
0	 1.866659999993467e+000	 9.666656597019093e+000	 9.998409216015796e+000
0	 1.866659999993466e+000	 9.733326577638575e+000	 9.998957290009908e+000
0	 1.866659999993467e+000	 9.799996024918523e+000	 9.999389573993655e+000
0	 1.866659999993467e+000	 9.866664822186822e+000	 9.999711585531710e+000
0	 1.866659999993467e+000	 9.933332852771352e+000	 9.999928839327014e+000
0	 1.866659999993467e+000	 1.000000000000000e+001	 1.000004684721977e+001
0	 1.933329999996684e+000	 9.333302777352785e+000	 9.994095114586184e+000
0	 1.933329999996684e+000	 9.399973674588178e+000	 9.995208892354713e+000
0	 1.933329999996684e+000	 9.466644621844621e+000	 9.996197348409952e+000
0	 1.933329999996684e+000	 9.533315502450000e+000	 9.997064564558000e+000
0	 1.933329999996684e+000	 9.599986199732197e+000	 9.997814619975124e+000
0	 1.933329999996684e+000	 9.666656597019093e+000	 9.998451591207227e+000
0	 1.933329999996684e+000	 9.733326577638575e+000	 9.998979552169576e+000
0	 1.933329999996684e+000	 9.799996024918524e+000	 9.999402574146112e+000
0	 1.933329999996684e+000	 9.866664822186822e+000	 9.999724725788958e+000
0	 1.933329999996684e+000	 9.933332852771352e+000	 9.999950073117724e+000
0	 1.933329999996684e+000	 1.000000000000000e+001	 1.000008267951873e+001
0	 2.000000000000000e+000	 9.333302777352783e+000	 9.994427273077751e+000
0	 2.000000000000000e+000	 9.399973674588177e+000	 9.995454573238883e+000
0	 2.000000000000000e+000	 9.466644621844621e+000	 9.996372977583988e+000
0	 2.000000000000000e+000	 9.533315502449998e+000	 9.997184805818279e+000
0	 2.000000000000000e+000	 9.599986199732198e+000	 9.997892375219800e+000
0	 2.000000000000000e+000	 9.666656597019093e+000	 9.998498000639083e+000
0	 2.000000000000000e+000	 9.733326577638575e+000	 9.999003994498715e+000
0	 2.000000000000000e+000	 9.799996024918524e+000	 9.999412666792802e+000
0	 2.000000000000000e+000	 9.866664822186822e+000	 9.999726325086414e+000
0	 2.000000000000000e+000	 9.933332852771352e+000	 9.999947274514936e+000
0	 2.000000000000000e+000	 1.000000000000000e+001	 1.000007781778329e+001
0	 2.000000000000000e+000	 0.000000000000000e+000	 7.682891926911658e+000
0	 2.000000000000000e+000	 6.666714722864757e-002	 7.988978058361536e+000
0	 2.000000000000000e+000	 1.333351778131789e-001	 8.381898211694494e+000
0	 2.000000000000000e+000	 2.000039750814773e-001	 8.836634903147946e+000
0	 2.000000000000000e+000	 2.666734223614256e-001	 9.328169971781517e+000
0	 2.000000000000000e+000	 3.333434029809069e-001	 9.831484579583583e+000
0	 2.000000000000000e+000	 4.000138002678043e-001	 1.032155921156003e+001
0	 2.000000000000000e+000	 4.666844975500010e-001	 1.077337367580522e+001
0	 2.000000000000000e+000	 5.333553781553803e-001	 1.116190710355521e+001
0	 2.000000000000000e+000	 6.000263254118246e-001	 1.146213794922318e+001
0	 2.000000000000000e+000	 6.666972226472177e-001	 1.164904399041713e+001
0	 2.066670000003316e+000	 0.000000000000000e+000	 9.599974148636543e+000
0	 2.066670000003316e+000	 6.666714722864756e-002	 9.638281077644216e+000
0	 2.066670000003317e+000	 1.333351778131789e-001	 9.754714881892800e+000
0	 2.066670000003318e+000	 2.000039750814773e-001	 9.932501845234011e+000
0	 2.066670000003317e+000	 2.666734223614255e-001	 1.015486804355276e+001
0	 2.066670000003317e+000	 3.333434029809069e-001	 1.040503934480028e+001
0	 2.066670000003317e+000	 4.000138002678045e-001	 1.066624140902177e+001
0	 2.066670000003317e+000	 4.666844975500010e-001	 1.092169968837850e+001
0	 2.066670000003316e+000	 5.333553781553803e-001	 1.115463942716460e+001
0	 2.066670000003317e+000	 6.000263254118247e-001	 1.134828566181827e+001
0	 2.066670000003317e+000	 6.666972226472175e-001	 1.148586322092757e+001
0	 2.133340000006534e+000	 0.000000000000000e+000	 1.101031403869436e+001
0	 2.133340000006534e+000	 6.666714722864753e-002	 1.087949690601204e+001
0	 2.133340000006534e+000	 1.333351778131789e-001	 1.081218737451762e+001
0	 2.133340000006534e+000	 2.000039750814772e-001	 1.079871812451332e+001
0	 2.133340000006534e+000	 2.666734223614256e-001	 1.082942195651329e+001
0	 2.133340000006534e+000	 3.333434029809069e-001	 1.089463179122598e+001
0	 2.133340000006534e+000	 4.000138002678044e-001	 1.098468066953954e+001
0	 2.133340000006534e+000	 4.666844975500012e-001	 1.108990175251051e+001
0	 2.133340000006534e+000	 5.333553781553801e-001	 1.120062832135552e+001
0	 2.133340000006535e+000	 6.000263254118247e-001	 1.130719377744630e+001
0	 2.133340000006534e+000	 6.666972226472177e-001	 1.139993164230772e+001
0	 2.200010000009550e+000	 0.000000000000000e+000	 1.197198285925368e+001
0	 2.200010000009550e+000	 6.666714722864756e-002	 1.175487285525880e+001
0	 2.200010000009551e+000	 1.333351778131789e-001	 1.158259267781290e+001
0	 2.200010000009550e+000	 2.000039750814772e-001	 1.145144389034508e+001
0	 2.200010000009551e+000	 2.666734223614255e-001	 1.135772838311097e+001
0	 2.200010000009551e+000	 3.333434029809069e-001	 1.129774837314376e+001
0	 2.200010000009550e+000	 4.000138002678043e-001	 1.126780640421381e+001
0	 2.200010000009550e+000	 4.666844975500011e-001	 1.126420534679681e+001
0	 2.200010000009551e+000	 5.333553781553804e-001	 1.128324839805058e+001
0	 2.200010000009551e+000	 6.000263254118248e-001	 1.132123908180031e+001
0	 2.200010000009551e+000	 6.666972226472177e-001	 1.137448124853261e+001
0	 2.266680000012268e+000	 0.000000000000000e+000	 1.254305187248193e+001
0	 2.266680000012267e+000	 6.666714722864756e-002	 1.230665623717701e+001
0	 2.266680000012268e+000	 1.333351778131789e-001	 1.209420778002130e+001
0	 2.266680000012268e+000	 2.000039750814772e-001	 1.190683929208727e+001
0	 2.266680000012267e+000	 2.666734223614255e-001	 1.174568399579246e+001
0	 2.266680000012268e+000	 3.333434029809069e-001	 1.161187554483564e+001
0	 2.266680000012267e+000	 4.000138002678044e-001	 1.150654802414407e+001
0	 2.266680000012268e+000	 4.666844975500011e-001	 1.143083594983220e+001
0	 2.266680000012268e+000	 5.333553781553801e-001	 1.138587426917172e+001
0	 2.266680000012268e+000	 6.000263254118248e-001	 1.137279836057284e+001
0	 2.266680000012268e+000	 6.666972226472177e-001	 1.139274403357693e+001
0	 2.333350000014584e+000	 0.000000000000000e+000	 1.278159234054535e+001
0	 2.333350000014584e+000	 6.666714722864756e-002	 1.257709436355792e+001
0	 2.333350000014585e+000	 1.333351778131789e-001	 1.237530966938418e+001
0	 2.333350000014585e+000	 2.000039750814772e-001	 1.218106447909653e+001
0	 2.333350000014584e+000	 2.666734223614256e-001	 1.199918546700320e+001
0	 2.333350000014584e+000	 3.333434029809068e-001	 1.183449976058249e+001
0	 2.333350000014584e+000	 4.000138002678044e-001	 1.169183494042879e+001
0	 2.333350000014585e+000	 4.666844975500012e-001	 1.157601904021056e+001
0	 2.333350000014584e+000	 5.333553781553804e-001	 1.149188054664020e+001
0	 2.333350000014584e+000	 6.000263254118247e-001	 1.144424839945583e+001
0	 2.333350000014584e+000	 6.666972226472177e-001	 1.143795199141490e+001
0	 2.400020000016401e+000	 0.000000000000000e+000	 1.274567552560906e+001
0	 2.400020000016401e+000	 6.666714722864756e-002	 1.260843454619153e+001
0	 2.400020000016401e+000	 1.333351778131790e-001	 1.245417533414159e+001
0	 2.400020000016400e+000	 2.000039750814772e-001	 1.229027960072824e+001
0	 2.400020000016401e+000	 2.666734223614256e-001	 1.212412946918741e+001
0	 2.400020000016401e+000	 3.333434029809069e-001	 1.196310747466408e+001
0	 2.400020000016401e+000	 4.000138002678044e-001	 1.181459656416551e+001
0	 2.400020000016401e+000	 4.666844975500011e-001	 1.168598009652498e+001
0	 2.400020000016400e+000	 5.333553781553801e-001	 1.158464184237658e+001
0	 2.400020000016402e+000	 6.000263254118247e-001	 1.151796598414072e+001
0	 2.400020000016400e+000	 6.666972226472178e-001	 1.149333711602037e+001
0	 2.466690000017618e+000	 0.000000000000000e+000	 1.249337268983699e+001
0	 2.466690000017618e+000	 6.666714722864757e-002	 1.244292409686656e+001
0	 2.466690000017617e+000	 1.333351778131789e-001	 1.235908176253227e+001
0	 2.466690000017618e+000	 2.000039750814773e-001	 1.225064480633652e+001
0	 2.466690000017618e+000	 2.666734223614256e-001	 1.212641267478807e+001
0	 2.466690000017618e+000	 3.333434029809068e-001	 1.199518514135906e+001
0	 2.466690000017617e+000	 4.000138002678044e-001	 1.186576230645073e+001
0	 2.466690000017617e+000	 4.666844975500011e-001	 1.174694459736769e+001
0	 2.466690000017618e+000	 5.333553781553803e-001	 1.164753276830074e+001
0	 2.466690000017618e+000	 6.000263254118246e-001	 1.157632790031840e+001
0	 2.466690000017618e+000	 6.666972226472177e-001	 1.154213140136677e+001
0	 2.533360000018134e+000	 0.000000000000000e+000	 1.208275509539195e+001
0	 2.533360000018134e+000	 6.666714722864753e-002	 1.212281032737048e+001
0	 2.533360000018134e+000	 1.333351778131789e-001	 1.211830594279366e+001
0	 2.533360000018133e+000	 2.000039750814772e-001	 1.207832024527416e+001
0	 2.533360000018134e+000	 2.666734223614255e-001	 1.201193175624698e+001
0	 2.533360000018134e+000	 3.333434029809068e-001	 1.192821921494495e+001
0	 2.533360000018134e+000	 4.000138002678043e-001	 1.183626157837999e+001
0	 2.533360000018134e+000	 4.666844975500011e-001	 1.174513802133006e+001
0	 2.533360000018134e+000	 5.333553781553804e-001	 1.166392793633187e+001
0	 2.533360000018134e+000	 6.000263254118248e-001	 1.160171093367920e+001
0	 2.533360000018134e+000	 6.666972226472177e-001	 1.156756684142711e+001
0	 2.600030000017850e+000	 0.000000000000000e+000	 1.157189400443557e+001
0	 2.600030000017850e+000	 6.666714722864756e-002	 1.169034054948949e+001
0	 2.600030000017851e+000	 1.333351778131790e-001	 1.176012486316193e+001
0	 2.600030000017851e+000	 2.000039750814772e-001	 1.178946606689271e+001
0	 2.600030000017850e+000	 2.666734223614255e-001	 1.178658338600471e+001
0	 2.600030000017851e+000	 3.333434029809069e-001	 1.175969614969818e+001
0	 2.600030000017850e+000	 4.000138002678045e-001	 1.171702379104785e+001
0	 2.600030000017851e+000	 4.666844975500011e-001	 1.166678584700268e+001
0	 2.600030000017851e+000	 5.333553781553803e-001	 1.161720195838843e+001
0	 2.600030000017850e+000	 6.000263254118247e-001	 1.157649186991293e+001
0	 2.600030000017851e+000	 6.666972226472178e-001	 1.155287543017402e+001
0	 2.666700000016666e+000	 0.000000000000000e+000	 1.101886067912833e+001
0	 2.666700000016666e+000	 6.666714722864756e-002	 1.118776207500854e+001
0	 2.666700000016666e+000	 1.333351778131789e-001	 1.131281551187191e+001
0	 2.666700000016666e+000	 2.000039750814772e-001	 1.140024242054241e+001
0	 2.666700000016666e+000	 2.666734223614255e-001	 1.145626423650060e+001
0	 2.666700000016666e+000	 3.333434029809069e-001	 1.148710239989406e+001
0	 2.666700000016666e+000	 4.000138002678045e-001	 1.149897835554786e+001
0	 2.666700000016666e+000	 4.666844975500011e-001	 1.149811355297522e+001
0	 2.666700000016666e+000	 5.333553781553803e-001	 1.149072944638826e+001
0	 2.666700000016666e+000	 6.000263254118247e-001	 1.148304749470886e+001
0	 2.666700000016666e+000	 6.666972226472175e-001	 1.148128916157970e+001
0	 2.000000000000000e+000	 6.666972226472177e-001	 1.164904399041713e+001
0	 2.000000000000000e+000	 7.333579753122048e-001	 1.174377821985740e+001
0	 2.000000000000000e+000	 8.000185779984418e-001	 1.179028498774123e+001
0	 2.000000000000000e+000	 8.666790473703454e-001	 1.179767372821047e+001
0	 2.000000000000000e+000	 9.333394000923323e-001	 1.177505385061455e+001
0	 2.000000000000000e+000	 9.999996528288190e-001	 1.173153473950983e+001
0	 2.000000000000000e+000	 1.066659822244222e+000	 1.167622575465922e+001
0	 2.000000000000000e+000	 1.133319925002958e+000	 1.161823623103165e+001
0	 2.000000000000000e+000	 1.199979977769445e+000	 1.156667547880185e+001
0	 2.000000000000000e+000	 1.266639997208097e+000	 1.153065278335011e+001
0	 2.000000000000000e+000	 1.333299999983334e+000	 1.151927740526212e+001
0	 2.066670000003317e+000	 6.666972226472175e-001	 1.148586322092757e+001
0	 2.066670000003317e+000	 7.333579753122047e-001	 1.156942191347459e+001
0	 2.066670000003316e+000	 8.000185779984413e-001	 1.161682760862429e+001
0	 2.066670000003316e+000	 8.666790473703450e-001	 1.163498228231677e+001
0	 2.066670000003317e+000	 9.333394000923323e-001	 1.163078789552683e+001
0	 2.066670000003317e+000	 9.999996528288190e-001	 1.161114639426370e+001
0	 2.066670000003317e+000	 1.066659822244222e+000	 1.158295970957075e+001
0	 2.066670000003317e+000	 1.133319925002959e+000	 1.155312975752539e+001
0	 2.066670000003316e+000	 1.199979977769445e+000	 1.152855843923892e+001
0	 2.066670000003318e+000	 1.266639997208098e+000	 1.151614764085643e+001
0	 2.066670000003317e+000	 1.333299999983333e+000	 1.152279923355685e+001
0	 2.133340000006534e+000	 6.666972226472177e-001	 1.139993164230772e+001
0	 2.133340000006534e+000	 7.333579753122046e-001	 1.146800828667516e+001
0	 2.133340000006534e+000	 8.000185779984417e-001	 1.151037118186695e+001
0	 2.133340000006534e+000	 8.666790473703452e-001	 1.153198841660752e+001
0	 2.133340000006534e+000	 9.333394000923321e-001	 1.153782807325375e+001
0	 2.133340000006534e+000	 9.999996528288190e-001	 1.153285822779484e+001
0	 2.133340000006534e+000	 1.066659822244222e+000	 1.152204694985237e+001
0	 2.133340000006534e+000	 1.133319925002959e+000	 1.151036230268029e+001
0	 2.133340000006534e+000	 1.199979977769445e+000	 1.150277234316493e+001
0	 2.133340000006534e+000	 1.266639997208098e+000	 1.150424512182508e+001
0	 2.133340000006534e+000	 1.333299999983334e+000	 1.151974868281205e+001
0	 2.200010000009551e+000	 6.666972226472177e-001	 1.137448124853261e+001
0	 2.200010000009551e+000	 7.333579753122049e-001	 1.142454333965750e+001
0	 2.200010000009551e+000	 8.000185779984419e-001	 1.145768080302596e+001
0	 2.200010000009550e+000	 8.666790473703452e-001	 1.147720140971857e+001
0	 2.200010000009550e+000	 9.333394000923322e-001	 1.148641293183892e+001
0	 2.200010000009550e+000	 9.999996528288191e-001	 1.148862314251384e+001
0	 2.200010000009551e+000	 1.066659822244222e+000	 1.148713981589350e+001
0	 2.200010000009551e+000	 1.133319925002959e+000	 1.148527072715157e+001
0	 2.200010000009551e+000	 1.199979977769445e+000	 1.148632365248544e+001
0	 2.200010000009551e+000	 1.266639997208098e+000	 1.149360636911629e+001
0	 2.200010000009552e+000	 1.333299999983334e+000	 1.151042665528923e+001
0	 2.266680000012268e+000	 6.666972226472177e-001	 1.139274403357693e+001
0	 2.266680000012267e+000	 7.333579753122047e-001	 1.142403307261970e+001
0	 2.266680000012267e+000	 8.000185779984413e-001	 1.144552156765788e+001
0	 2.266680000012267e+000	 8.666790473703453e-001	 1.145913054028558e+001
0	 2.266680000012268e+000	 9.333394000923323e-001	 1.146678101932591e+001
0	 2.266680000012268e+000	 9.999996528288190e-001	 1.147039404083123e+001
0	 2.266680000012268e+000	 1.066659822244222e+000	 1.147189064808349e+001
0	 2.266680000012268e+000	 1.133319925002958e+000	 1.147319189159445e+001
0	 2.266680000012267e+000	 1.199979977769445e+000	 1.147621882910600e+001
0	 2.266680000012268e+000	 1.266639997208098e+000	 1.148289252559028e+001
0	 2.266680000012267e+000	 1.333299999983334e+000	 1.149513405324990e+001
0	 2.333350000014584e+000	 6.666972226472177e-001	 1.143795199141490e+001
0	 2.333350000014585e+000	 7.333579753122047e-001	 1.145148348575956e+001
0	 2.333350000014585e+000	 8.000185779984416e-001	 1.146065857131902e+001
0	 2.333350000014584e+000	 8.666790473703452e-001	 1.146628508694411e+001
0	 2.333350000014585e+000	 9.333394000923322e-001	 1.146917088375816e+001
0	 2.333350000014584e+000	 9.999996528288191e-001	 1.147012382515747e+001
0	 2.333350000014585e+000	 1.066659822244222e+000	 1.146995178681169e+001
0	 2.333350000014584e+000	 1.133319925002959e+000	 1.146946265666413e+001
0	 2.333350000014585e+000	 1.199979977769445e+000	 1.146946433493213e+001
0	 2.333350000014585e+000	 1.266639997208098e+000	 1.147076473410727e+001
0	 2.333350000014584e+000	 1.333299999983334e+000	 1.147417177895557e+001
0	 2.400020000016400e+000	 6.666972226472178e-001	 1.149333711602037e+001
0	 2.400020000016402e+000	 7.333579753122050e-001	 1.149190057927457e+001
0	 2.400020000016400e+000	 8.000185779984415e-001	 1.148985690956551e+001
0	 2.400020000016401e+000	 8.666790473703453e-001	 1.148717432832955e+001
0	 2.400020000016401e+000	 9.333394000923321e-001	 1.148382107317905e+001
0	 2.400020000016401e+000	 9.999996528288186e-001	 1.147976539790300e+001
0	 2.400020000016402e+000	 1.066659822244223e+000	 1.147497557246742e+001
0	 2.400020000016400e+000	 1.133319925002958e+000	 1.146941988301580e+001
0	 2.400020000016401e+000	 1.199979977769445e+000	 1.146306663186938e+001
0	 2.400020000016401e+000	 1.266639997208098e+000	 1.145588413752749e+001
0	 2.400020000016401e+000	 1.333299999983334e+000	 1.144784073466771e+001
0	 2.466690000017618e+000	 6.666972226472177e-001	 1.154213140136677e+001
0	 2.466690000017618e+000	 7.333579753122049e-001	 1.153029035336193e+001
0	 2.466690000017617e+000	 8.000185779984419e-001	 1.151988167795328e+001
0	 2.466690000017618e+000	 8.666790473703456e-001	 1.151030754307717e+001
0	 2.466690000017618e+000	 9.333394000923322e-001	 1.150097013563185e+001
0	 2.466690000017618e+000	 9.999996528288190e-001	 1.149127166147816e+001
0	 2.466690000017617e+000	 1.066659822244222e+000	 1.148061434543998e+001
0	 2.466690000017617e+000	 1.133319925002959e+000	 1.146840043130463e+001
0	 2.466690000017618e+000	 1.199979977769445e+000	 1.145403218182327e+001
0	 2.466690000017617e+000	 1.266639997208098e+000	 1.143691187871115e+001
0	 2.466690000017618e+000	 1.333299999983334e+000	 1.141644182264786e+001
0	 2.533360000018134e+000	 6.666972226472177e-001	 1.156756684142711e+001
0	 2.533360000018134e+000	 7.333579753122047e-001	 1.155165880821853e+001
0	 2.533360000018134e+000	 8.000185779984416e-001	 1.153749797203803e+001
0	 2.533360000018134e+000	 8.666790473703454e-001	 1.152419400982209e+001
0	 2.533360000018134e+000	 9.333394000923322e-001	 1.151085661915976e+001
0	 2.533360000018134e+000	 9.999996528288191e-001	 1.149659551829330e+001
0	 2.533360000018134e+000	 1.066659822244222e+000	 1.148052044611863e+001
0	 2.533360000018134e+000	 1.133319925002959e+000	 1.146174116218580e+001
0	 2.533360000018134e+000	 1.199979977769445e+000	 1.143936744669933e+001
0	 2.533360000018134e+000	 1.266639997208098e+000	 1.141250910051849e+001
0	 2.533360000018134e+000	 1.333299999983334e+000	 1.138027594515752e+001
0	 2.600030000017851e+000	 6.666972226472178e-001	 1.155287543017403e+001
0	 2.600030000017851e+000	 7.333579753122048e-001	 1.154101194404100e+001
0	 2.600030000017851e+000	 8.000185779984418e-001	 1.152947088737525e+001
0	 2.600030000017851e+000	 8.666790473703451e-001	 1.151734300719929e+001
0	 2.600030000017851e+000	 9.333394000923320e-001	 1.150371907180588e+001
0	 2.600030000017851e+000	 9.999996528288191e-001	 1.148768987075867e+001
0	 2.600030000017851e+000	 1.066659822244223e+000	 1.146834621489261e+001
0	 2.600030000017850e+000	 1.133319925002959e+000	 1.144477893631446e+001
0	 2.600030000017851e+000	 1.199979977769445e+000	 1.141607888840308e+001
0	 2.600030000017851e+000	 1.266639997208098e+000	 1.138133694580972e+001
0	 2.600030000017851e+000	 1.333299999983334e+000	 1.133964400445817e+001
0	 2.666700000016666e+000	 6.666972226472175e-001	 1.148128916157970e+001
0	 2.666700000016666e+000	 7.333579753122047e-001	 1.148335576102562e+001
0	 2.666700000016666e+000	 8.000185779984416e-001	 1.148256551952023e+001
0	 2.666700000016666e+000	 8.666790473703453e-001	 1.147826381384362e+001
0	 2.666700000016666e+000	 9.333394000923323e-001	 1.146979604161323e+001
0	 2.666700000016665e+000	 9.999996528288190e-001	 1.145650762128448e+001
0	 2.666700000016666e+000	 1.066659822244222e+000	 1.143774399215114e+001
0	 2.666700000016667e+000	 1.133319925002959e+000	 1.141285061434576e+001
0	 2.666700000016667e+000	 1.199979977769445e+000	 1.138117296884005e+001
0	 2.666700000016666e+000	 1.266639997208098e+000	 1.134205655744506e+001
0	 2.666700000016667e+000	 1.333299999983334e+000	 1.129484690281135e+001
0	 2.000000000000000e+000	 1.333299999983334e+000	 1.151927740526212e+001
0	 2.000000000000000e+000	 1.399969999982150e+000	 1.152070820072463e+001
0	 2.000000000000000e+000	 1.466639999981866e+000	 1.151581010197532e+001
0	 2.000000000000000e+000	 1.533309999982383e+000	 1.150275325837209e+001
0	 2.000000000000000e+000	 1.599979999983599e+000	 1.147970781927271e+001
0	 2.000000000000000e+000	 1.666649999985416e+000	 1.144484393403471e+001
0	 2.000000000000000e+000	 1.733319999987733e+000	 1.139633175201542e+001
0	 2.000000000000000e+000	 1.799989999990450e+000	 1.133234142257201e+001
0	 2.000000000000000e+000	 1.866659999993467e+000	 1.125104309506141e+001
0	 2.000000000000000e+000	 1.933329999996683e+000	 1.115060691884040e+001
0	 2.000000000000000e+000	 2.000000000000000e+000	 1.102920304326553e+001
0	 2.066670000003317e+000	 1.333299999983333e+000	 1.152279923355685e+001
0	 2.066670000003317e+000	 1.399969999982150e+000	 1.153744340839476e+001
0	 2.066670000003317e+000	 1.466639999981867e+000	 1.154328339780822e+001
0	 2.066670000003317e+000	 1.533309999982383e+000	 1.153863894219217e+001
0	 2.066670000003317e+000	 1.599979999983599e+000	 1.152182978194134e+001
0	 2.066670000003317e+000	 1.666649999985416e+000	 1.149117565745028e+001
0	 2.066670000003317e+000	 1.733319999987733e+000	 1.144499630911327e+001
0	 2.066670000003317e+000	 1.799989999990450e+000	 1.138161147732444e+001
0	 2.066670000003317e+000	 1.866659999993466e+000	 1.129934090247768e+001
0	 2.066670000003317e+000	 1.933329999996683e+000	 1.119650432496668e+001
0	 2.066670000003317e+000	 2.000000000000000e+000	 1.107142148518494e+001
0	 2.133340000006534e+000	 1.333299999983334e+000	 1.151974868281205e+001
0	 2.133340000006534e+000	 1.399969999982150e+000	 1.153958885688495e+001
0	 2.133340000006534e+000	 1.466639999981866e+000	 1.154973104055425e+001
0	 2.133340000006534e+000	 1.533309999982383e+000	 1.154864350164502e+001
0	 2.133340000006534e+000	 1.599979999983600e+000	 1.153479450798211e+001
0	 2.133340000006534e+000	 1.666649999985416e+000	 1.150665232739014e+001
0	 2.133340000006534e+000	 1.733319999987733e+000	 1.146268522769356e+001
0	 2.133340000006534e+000	 1.799989999990450e+000	 1.140136147671659e+001
0	 2.133340000006534e+000	 1.866659999993466e+000	 1.132114934228328e+001
0	 2.133340000006534e+000	 1.933329999996683e+000	 1.122051709221741e+001
0	 2.133340000006534e+000	 2.000000000000000e+000	 1.109793299434261e+001
0	 2.200010000009552e+000	 1.333299999983334e+000	 1.151042665528923e+001
0	 2.200010000009551e+000	 1.399969999982150e+000	 1.152893230631939e+001
0	 2.200010000009551e+000	 1.466639999981867e+000	 1.153813627776535e+001
0	 2.200010000009551e+000	 1.533309999982383e+000	 1.153665430127541e+001
0	 2.200010000009550e+000	 1.599979999983599e+000	 1.152310210849766e+001
0	 2.200010000009551e+000	 1.666649999985416e+000	 1.149609543108001e+001
0	 2.200010000009550e+000	 1.733319999987732e+000	 1.145425000067018e+001
0	 2.200010000009551e+000	 1.799989999990449e+000	 1.139618154891568e+001
0	 2.200010000009550e+000	 1.866659999993466e+000	 1.132050580746385e+001
0	 2.200010000009550e+000	 1.933329999996683e+000	 1.122583850796181e+001
0	 2.200010000009551e+000	 2.000000000000000e+000	 1.111079538205650e+001
0	 2.266680000012267e+000	 1.333299999983334e+000	 1.149513405324990e+001
0	 2.266680000012268e+000	 1.399969999982150e+000	 1.150726151682225e+001
0	 2.266680000012267e+000	 1.466639999981867e+000	 1.151148235699341e+001
0	 2.266680000012268e+000	 1.533309999982383e+000	 1.150655870562806e+001
0	 2.266680000012267e+000	 1.599979999983599e+000	 1.149125269459069e+001
0	 2.266680000012268e+000	 1.666649999985416e+000	 1.146432645574563e+001
0	 2.266680000012268e+000	 1.733319999987733e+000	 1.142454212095704e+001
0	 2.266680000012268e+000	 1.799989999990449e+000	 1.137066182208890e+001
0	 2.266680000012267e+000	 1.866659999993466e+000	 1.130144769100504e+001
0	 2.266680000012267e+000	 1.933329999996683e+000	 1.121566185956909e+001
0	 2.266680000012268e+000	 2.000000000000000e+000	 1.111206645964453e+001
0	 2.333350000014584e+000	 1.333299999983334e+000	 1.147417177895556e+001
0	 2.333350000014585e+000	 1.399969999982150e+000	 1.147636424851771e+001
0	 2.333350000014585e+000	 1.466639999981867e+000	 1.147275252579036e+001
0	 2.333350000014584e+000	 1.533309999982383e+000	 1.146224407924774e+001
0	 2.333350000014584e+000	 1.599979999983599e+000	 1.144374637736388e+001
0	 2.333350000014584e+000	 1.666649999985416e+000	 1.141616688861272e+001
0	 2.333350000014584e+000	 1.733319999987732e+000	 1.137841308146803e+001
0	 2.333350000014584e+000	 1.799989999990449e+000	 1.132939242440346e+001
0	 2.333350000014585e+000	 1.866659999993466e+000	 1.126801238589247e+001
0	 2.333350000014584e+000	 1.933329999996683e+000	 1.119318043440846e+001
0	 2.333350000014584e+000	 2.000000000000000e+000	 1.110380403842460e+001
0	 2.400020000016401e+000	 1.333299999983334e+000	 1.144784073466771e+001
0	 2.400020000016402e+000	 1.399969999982151e+000	 1.143802826152994e+001
0	 2.400020000016401e+000	 1.466639999981867e+000	 1.142493003170812e+001
0	 2.400020000016401e+000	 1.533309999982382e+000	 1.140759778667918e+001
0	 2.400020000016401e+000	 1.599979999983599e+000	 1.138508326791990e+001
0	 2.400020000016401e+000	 1.666649999985416e+000	 1.135643821690701e+001
0	 2.400020000016401e+000	 1.733319999987733e+000	 1.132071437511706e+001
0	 2.400020000016401e+000	 1.799989999990450e+000	 1.127696348402655e+001
0	 2.400020000016400e+000	 1.866659999993466e+000	 1.122423728511182e+001
0	 2.400020000016401e+000	 1.933329999996683e+000	 1.116158751984915e+001
0	 2.400020000016401e+000	 2.000000000000000e+000	 1.108806592971466e+001
0	 2.466690000017618e+000	 1.333299999983334e+000	 1.141644182264786e+001
0	 2.466690000017618e+000	 1.399969999982150e+000	 1.139404131598312e+001
0	 2.466690000017618e+000	 1.466639999981867e+000	 1.137099812229860e+001
0	 2.466690000017618e+000	 1.533309999982383e+000	 1.134650719246714e+001
0	 2.466690000017617e+000	 1.599979999983599e+000	 1.131976347736146e+001
0	 2.466690000017618e+000	 1.666649999985416e+000	 1.128996192785422e+001
0	 2.466690000017617e+000	 1.733319999987733e+000	 1.125629749481804e+001
0	 2.466690000017617e+000	 1.799989999990449e+000	 1.121796512912539e+001
0	 2.466690000017617e+000	 1.866659999993466e+000	 1.117415978164872e+001
0	 2.466690000017618e+000	 1.933329999996684e+000	 1.112407640326038e+001
0	 2.466690000017618e+000	 2.000000000000000e+000	 1.106690994483264e+001
0	 2.533360000018134e+000	 1.333299999983334e+000	 1.138027594515752e+001
0	 2.533360000018133e+000	 1.399969999982150e+000	 1.134619117200141e+001
0	 2.533360000018134e+000	 1.466639999981867e+000	 1.131394004511371e+001
0	 2.533360000018134e+000	 1.533309999982383e+000	 1.128285966115635e+001
0	 2.533360000018134e+000	 1.599979999983599e+000	 1.125228711679120e+001
0	 2.533360000018134e+000	 1.666649999985416e+000	 1.122155950868011e+001
0	 2.533360000018134e+000	 1.733319999987733e+000	 1.119001393348485e+001
0	 2.533360000018134e+000	 1.799989999990450e+000	 1.115698748786719e+001
0	 2.533360000018134e+000	 1.866659999993466e+000	 1.112181726848880e+001
0	 2.533360000018134e+000	 1.933329999996683e+000	 1.108384037201136e+001
0	 2.533360000018134e+000	 2.000000000000000e+000	 1.104239389509648e+001
0	 2.600030000017851e+000	 1.333299999983334e+000	 1.133964400445817e+001
0	 2.600030000017851e+000	 1.399969999982150e+000	 1.129626558970901e+001
0	 2.600030000017850e+000	 1.466639999981866e+000	 1.125673904770539e+001
0	 2.600030000017850e+000	 1.533309999982383e+000	 1.122054255729158e+001
0	 2.600030000017850e+000	 1.599979999983599e+000	 1.118715429731184e+001
0	 2.600030000017851e+000	 1.666649999985416e+000	 1.115605244661038e+001
0	 2.600030000017851e+000	 1.733319999987733e+000	 1.112671518403142e+001
0	 2.600030000017850e+000	 1.799989999990449e+000	 1.109862068841915e+001
0	 2.600030000017851e+000	 1.866659999993466e+000	 1.107124713861774e+001
0	 2.600030000017850e+000	 1.933329999996683e+000	 1.104407271347135e+001
0	 2.600030000017851e+000	 2.000000000000000e+000	 1.101657559182411e+001
0	 2.666700000016667e+000	 1.333299999983334e+000	 1.129484690281135e+001
0	 2.666700000016667e+000	 1.399969999982150e+000	 1.124605232923007e+001
0	 2.666700000016666e+000	 1.466639999981867e+000	 1.120237837762553e+001
0	 2.666700000016667e+000	 1.533309999982383e+000	 1.116344324541757e+001
0	 2.666700000016667e+000	 1.599979999983600e+000	 1.112886513002605e+001
0	 2.666700000016665e+000	 1.666649999985416e+000	 1.109826222887079e+001
0	 2.666700000016667e+000	 1.733319999987733e+000	 1.107125273937166e+001
0	 2.666700000016667e+000	 1.799989999990450e+000	 1.104745485894850e+001
0	 2.666700000016666e+000	 1.866659999993466e+000	 1.102648678502118e+001
0	 2.666700000016667e+000	 1.933329999996683e+000	 1.100796671500955e+001
0	 2.666700000016667e+000	 2.000000000000000e+000	 1.099151284633348e+001
0	 2.000000000000000e+000	 2.000000000000000e+000	 1.102920304326553e+001
0	 2.000000000000000e+000	 2.066670000003317e+000	 1.090250891802289e+001
0	 2.000000000000000e+000	 2.133340000006534e+000	 1.078751469537322e+001
0	 2.000000000000000e+000	 2.200010000009551e+000	 1.068435957853502e+001
0	 2.000000000000000e+000	 2.266680000012268e+000	 1.059318277072690e+001
0	 2.000000000000000e+000	 2.333350000014584e+000	 1.051412347516757e+001
0	 2.000000000000000e+000	 2.400020000016401e+000	 1.044732089507589e+001
0	 2.000000000000000e+000	 2.466690000017618e+000	 1.039291423367079e+001
0	 2.000000000000000e+000	 2.533360000018133e+000	 1.035104269417135e+001
0	 2.000000000000000e+000	 2.600030000017851e+000	 1.032184547979673e+001
0	 2.000000000000000e+000	 2.666700000016667e+000	 1.030546179376624e+001
0	 2.066670000003317e+000	 2.000000000000000e+000	 1.107142148518494e+001
0	 2.066670000003317e+000	 2.066670000003317e+000	 1.094091937920852e+001
0	 2.066670000003317e+000	 2.133340000006534e+000	 1.082302159689127e+001
0	 2.066670000003317e+000	 2.200010000009551e+000	 1.071784276929317e+001
0	 2.066670000003317e+000	 2.266680000012268e+000	 1.062549752747432e+001
0	 2.066670000003316e+000	 2.333350000014584e+000	 1.054610050249494e+001
0	 2.066670000003318e+000	 2.400020000016401e+000	 1.047976632541541e+001
0	 2.066670000003317e+000	 2.466690000017617e+000	 1.042660962729620e+001
0	 2.066670000003317e+000	 2.533360000018134e+000	 1.038674503919789e+001
0	 2.066670000003317e+000	 2.600030000017850e+000	 1.036028719218117e+001
0	 2.066670000003317e+000	 2.666700000016667e+000	 1.034735071730691e+001
0	 2.133340000006534e+000	 2.000000000000000e+000	 1.109793299434261e+001
0	 2.133340000006534e+000	 2.066670000003317e+000	 1.097006558528778e+001
0	 2.133340000006534e+000	 2.133340000006534e+000	 1.085466582002031e+001
0	 2.133340000006534e+000	 2.200010000009551e+000	 1.075182559387152e+001
0	 2.133340000006534e+000	 2.266680000012268e+000	 1.066163680217282e+001
0	 2.133340000006534e+000	 2.333350000014584e+000	 1.058419134025575e+001
0	 2.133340000006534e+000	 2.400020000016400e+000	 1.051958110345197e+001
0	 2.133340000006534e+000	 2.466690000017617e+000	 1.046789798709326e+001
0	 2.133340000006534e+000	 2.533360000018133e+000	 1.042923388651151e+001
0	 2.133340000006534e+000	 2.600030000017851e+000	 1.040368069703870e+001
0	 2.133340000006534e+000	 2.666700000016666e+000	 1.039133031400697e+001
0	 2.200010000009551e+000	 2.000000000000000e+000	 1.111079538205650e+001
0	 2.200010000009551e+000	 2.066670000003317e+000	 1.099082050372474e+001
0	 2.200010000009551e+000	 2.133340000006534e+000	 1.088232812320034e+001
0	 2.200010000009551e+000	 2.200010000009551e+000	 1.078538923651575e+001
0	 2.200010000009551e+000	 2.266680000012268e+000	 1.070007483970351e+001
0	 2.200010000009550e+000	 2.333350000014583e+000	 1.062645592879626e+001
0	 2.200010000009550e+000	 2.400020000016400e+000	 1.056460349982678e+001
0	 2.200010000009551e+000	 2.466690000017618e+000	 1.051458854882789e+001
0	 2.200010000009550e+000	 2.533360000018133e+000	 1.047648207183258e+001
0	 2.200010000009551e+000	 2.600030000017851e+000	 1.045035506487392e+001
0	 2.200010000009551e+000	 2.666700000016666e+000	 1.043627852398506e+001
0	 2.266680000012268e+000	 2.000000000000000e+000	 1.111206645964453e+001
0	 2.266680000012267e+000	 2.066670000003317e+000	 1.100405710198347e+001
0	 2.266680000012267e+000	 2.133340000006534e+000	 1.090588926487134e+001
0	 2.266680000012267e+000	 2.200010000009550e+000	 1.081761488147152e+001
0	 2.266680000012267e+000	 2.266680000012267e+000	 1.073928588494748e+001
0	 2.266680000012268e+000	 2.333350000014584e+000	 1.067095420846277e+001
0	 2.266680000012267e+000	 2.400020000016400e+000	 1.061267178518102e+001
0	 2.266680000012267e+000	 2.466690000017617e+000	 1.056449054826599e+001
0	 2.266680000012268e+000	 2.533360000018134e+000	 1.052646243088148e+001
0	 2.266680000012268e+000	 2.600030000017851e+000	 1.049863936619141e+001
0	 2.266680000012268e+000	 2.666700000016667e+000	 1.048107328735977e+001
0	 2.333350000014584e+000	 2.000000000000000e+000	 1.110380403842460e+001
0	 2.333350000014584e+000	 2.066670000003316e+000	 1.101064834752806e+001
0	 2.333350000014585e+000	 2.133340000006534e+000	 1.092523000347332e+001
0	 2.333350000014585e+000	 2.200010000009551e+000	 1.084758371298451e+001
0	 2.333350000014584e+000	 2.266680000012267e+000	 1.077774418278583e+001
0	 2.333350000014584e+000	 2.333350000014584e+000	 1.071574611960152e+001
0	 2.333350000014584e+000	 2.400020000016401e+000	 1.066162423015593e+001
0	 2.333350000014584e+000	 2.466690000017617e+000	 1.061541322117346e+001
0	 2.333350000014585e+000	 2.533360000018134e+000	 1.057714779937857e+001
0	 2.333350000014585e+000	 2.600030000017851e+000	 1.054686267149579e+001
0	 2.333350000014584e+000	 2.666700000016666e+000	 1.052459254424974e+001
0	 2.400020000016401e+000	 2.000000000000000e+000	 1.108806592971466e+001
0	 2.400020000016401e+000	 2.066670000003317e+000	 1.101146720782261e+001
0	 2.400020000016400e+000	 2.133340000006534e+000	 1.094023109744629e+001
0	 2.400020000016401e+000	 2.200010000009550e+000	 1.087437691530040e+001
0	 2.400020000016401e+000	 2.266680000012267e+000	 1.081392397809965e+001
0	 2.400020000016401e+000	 2.333350000014584e+000	 1.075889160255882e+001
0	 2.400020000016401e+000	 2.400020000016400e+000	 1.070929910539273e+001
0	 2.400020000016401e+000	 2.466690000017617e+000	 1.066516580331622e+001
0	 2.400020000016401e+000	 2.533360000018134e+000	 1.062651101304424e+001
0	 2.400020000016402e+000	 2.600030000017852e+000	 1.059335405129168e+001
0	 2.400020000016401e+000	 2.666700000016666e+000	 1.056571423477359e+001
0	 2.466690000017618e+000	 2.000000000000000e+000	 1.106690994483264e+001
0	 2.466690000017618e+000	 2.066670000003317e+000	 1.100738665033120e+001
0	 2.466690000017617e+000	 2.133340000006534e+000	 1.095077330523026e+001
0	 2.466690000017618e+000	 2.200010000009551e+000	 1.089707567266485e+001
0	 2.466690000017618e+000	 2.266680000012268e+000	 1.084629951577006e+001
0	 2.466690000017617e+000	 2.333350000014584e+000	 1.079845059768095e+001
0	 2.466690000017617e+000	 2.400020000016400e+000	 1.075353468153263e+001
0	 2.466690000017618e+000	 2.466690000017618e+000	 1.071155753046021e+001
0	 2.466690000017617e+000	 2.533360000018134e+000	 1.067252490759885e+001
0	 2.466690000017618e+000	 2.600030000017851e+000	 1.063644257608371e+001
0	 2.466690000017618e+000	 2.666700000016666e+000	 1.060331629904996e+001
0	 2.533360000018134e+000	 2.000000000000000e+000	 1.104239389509648e+001
0	 2.533360000018134e+000	 2.066670000003317e+000	 1.099927964251793e+001
0	 2.533360000018134e+000	 2.133340000006534e+000	 1.095673738526523e+001
0	 2.533360000018134e+000	 2.200010000009550e+000	 1.091476116932357e+001
0	 2.533360000018134e+000	 2.266680000012268e+000	 1.087334504067816e+001
0	 2.533360000018135e+000	 2.333350000014585e+000	 1.083248304531420e+001
0	 2.533360000018134e+000	 2.400020000016401e+000	 1.079216922921686e+001
0	 2.533360000018134e+000	 2.466690000017617e+000	 1.075239763837134e+001
0	 2.533360000018134e+000	 2.533360000018134e+000	 1.071316231876281e+001
0	 2.533360000018134e+000	 2.600030000017850e+000	 1.067445731637647e+001
0	 2.533360000018134e+000	 2.666700000016666e+000	 1.063627667719749e+001
0	 2.600030000017851e+000	 2.000000000000000e+000	 1.101657559182411e+001
0	 2.600030000017850e+000	 2.066670000003317e+000	 1.098801915184688e+001
0	 2.600030000017851e+000	 2.133340000006534e+000	 1.095800409599121e+001
0	 2.600030000017851e+000	 2.200010000009550e+000	 1.092651458952223e+001
0	 2.600030000017850e+000	 2.266680000012267e+000	 1.089353479770508e+001
0	 2.600030000017850e+000	 2.333350000014584e+000	 1.085904888580487e+001
0	 2.600030000017851e+000	 2.400020000016400e+000	 1.082304101908667e+001
0	 2.600030000017850e+000	 2.466690000017618e+000	 1.078549536281555e+001
0	 2.600030000017850e+000	 2.533360000018134e+000	 1.074639608225653e+001
0	 2.600030000017851e+000	 2.600030000017851e+000	 1.070572734267462e+001
0	 2.600030000017850e+000	 2.666700000016666e+000	 1.066347330933484e+001
0	 2.666700000016667e+000	 2.000000000000000e+000	 1.099151284633348e+001
0	 2.666700000016667e+000	 2.066670000003317e+000	 1.097447814578218e+001
0	 2.666700000016666e+000	 2.133340000006534e+000	 1.095445419584823e+001
0	 2.666700000016666e+000	 2.200010000009550e+000	 1.093141711750653e+001
0	 2.666700000016667e+000	 2.266680000012268e+000	 1.090534303173194e+001
0	 2.666700000016666e+000	 2.333350000014584e+000	 1.087620805949926e+001
0	 2.666700000016667e+000	 2.400020000016401e+000	 1.084398832178329e+001
0	 2.666700000016666e+000	 2.466690000017618e+000	 1.080865993955876e+001
0	 2.666700000016666e+000	 2.533360000018134e+000	 1.077019903380037e+001
0	 2.666700000016666e+000	 2.600030000017850e+000	 1.072858172548280e+001
0	 2.666700000016667e+000	 2.666700000016667e+000	 1.068378413558065e+001
0	 2.000000000000000e+000	 2.666700000016667e+000	 1.030546179376624e+001
0	 2.000000000000000e+000	 2.733360000014533e+000	 1.029449653167693e+001
0	 2.000000000000000e+000	 2.800020000011600e+000	 1.028135682380124e+001
0	 2.000000000000000e+000	 2.866680000008067e+000	 1.026588969388261e+001
0	 2.000000000000000e+000	 2.933340000004133e+000	 1.024794216566454e+001
0	 2.000000000000000e+000	 3.000000000000000e+000	 1.022736126289054e+001
0	 2.000000000000000e+000	 3.066659999995867e+000	 1.020399400930417e+001
0	 2.000000000000000e+000	 3.133319999991934e+000	 1.017768742864904e+001
0	 2.000000000000000e+000	 3.199979999988400e+000	 1.014828854466881e+001
0	 2.000000000000000e+000	 3.266639999985468e+000	 1.011564438110715e+001
0	 2.000000000000000e+000	 3.333299999983334e+000	 1.007960196170781e+001
0	 2.066670000003317e+000	 2.666700000016667e+000	 1.034735071730691e+001
0	 2.066670000003318e+000	 2.733360000014533e+000	 1.033984681574171e+001
0	 2.066670000003317e+000	 2.800020000011600e+000	 1.032951982889327e+001
0	 2.066670000003316e+000	 2.866680000008066e+000	 1.031623685995633e+001
0	 2.066670000003317e+000	 2.933340000004133e+000	 1.029986501212570e+001
0	 2.066670000003318e+000	 3.000000000000000e+000	 1.028027138859624e+001
0	 2.066670000003317e+000	 3.066659999995867e+000	 1.025732309256286e+001
0	 2.066670000003317e+000	 3.133319999991933e+000	 1.023088722722053e+001
0	 2.066670000003317e+000	 3.199979999988401e+000	 1.020083089576427e+001
0	 2.066670000003317e+000	 3.266639999985467e+000	 1.016702120138916e+001
0	 2.066670000003317e+000	 3.333299999983333e+000	 1.012932524729033e+001
0	 2.133340000006534e+000	 2.666700000016666e+000	 1.039133031400697e+001
0	 2.133340000006534e+000	 2.733360000014533e+000	 1.038416658445127e+001
0	 2.133340000006534e+000	 2.800020000011600e+000	 1.037403210632687e+001
0	 2.133340000006534e+000	 2.866680000008067e+000	 1.036080947447451e+001
0	 2.133340000006534e+000	 2.933340000004133e+000	 1.034438128373500e+001
0	 2.133340000006535e+000	 3.000000000000001e+000	 1.032463012894917e+001
0	 2.133340000006534e+000	 3.066659999995868e+000	 1.030143860495796e+001
0	 2.133340000006534e+000	 3.133319999991934e+000	 1.027468930660232e+001
0	 2.133340000006534e+000	 3.199979999988401e+000	 1.024426482872327e+001
0	 2.133340000006534e+000	 3.266639999985467e+000	 1.021004776616191e+001
0	 2.133340000006534e+000	 3.333299999983334e+000	 1.017192071375939e+001
0	 2.200010000009551e+000	 2.666700000016666e+000	 1.043627852398505e+001
0	 2.200010000009551e+000	 2.733360000014533e+000	 1.042693431566366e+001
0	 2.200010000009551e+000	 2.800020000011601e+000	 1.041488356666708e+001
0	 2.200010000009550e+000	 2.866680000008066e+000	 1.040001977567671e+001
0	 2.200010000009550e+000	 2.933340000004133e+000	 1.038223644137399e+001
0	 2.200010000009551e+000	 3.000000000000000e+000	 1.036142706244044e+001
0	 2.200010000009550e+000	 3.066659999995866e+000	 1.033748513755760e+001
0	 2.200010000009550e+000	 3.133319999991934e+000	 1.031030416540707e+001
0	 2.200010000009551e+000	 3.199979999988400e+000	 1.027977764467054e+001
0	 2.200010000009551e+000	 3.266639999985467e+000	 1.024579907402969e+001
0	 2.200010000009551e+000	 3.333299999983335e+000	 1.020826195216631e+001
0	 2.266680000012268e+000	 2.666700000016667e+000	 1.048107328735977e+001
0	 2.266680000012267e+000	 2.733360000014533e+000	 1.046762848723697e+001
0	 2.266680000012267e+000	 2.800020000011599e+000	 1.045206412047897e+001
0	 2.266680000012267e+000	 2.866680000008067e+000	 1.043428000180249e+001
0	 2.266680000012268e+000	 2.933340000004134e+000	 1.041417594592429e+001
0	 2.266680000012268e+000	 3.000000000000000e+000	 1.039165176756114e+001
0	 2.266680000012268e+000	 3.066659999995868e+000	 1.036660728142990e+001
0	 2.266680000012268e+000	 3.133319999991934e+000	 1.033894230224747e+001
0	 2.266680000012267e+000	 3.199979999988400e+000	 1.030855664473074e+001
0	 2.266680000012268e+000	 3.266639999985468e+000	 1.027535012359672e+001
0	 2.266680000012267e+000	 3.333299999983333e+000	 1.023922255356242e+001
0	 2.333350000014584e+000	 2.666700000016666e+000	 1.052459254424974e+001
0	 2.333350000014584e+000	 2.733360000014533e+000	 1.050572757702927e+001
0	 2.333350000014585e+000	 2.800020000011600e+000	 1.048556367832761e+001
0	 2.333350000014584e+000	 2.866680000008067e+000	 1.046400239109143e+001
0	 2.333350000014585e+000	 2.933340000004134e+000	 1.044094525826745e+001
0	 2.333350000014585e+000	 3.000000000000000e+000	 1.041629382280240e+001
0	 2.333350000014585e+000	 3.066659999995868e+000	 1.038994962764304e+001
0	 2.333350000014584e+000	 3.133319999991934e+000	 1.036181421573618e+001
0	 2.333350000014585e+000	 3.199979999988401e+000	 1.033178913002864e+001
0	 2.333350000014585e+000	 3.266639999985466e+000	 1.029977591346729e+001
0	 2.333350000014584e+000	 3.333299999983333e+000	 1.026567610899903e+001
0	 2.400020000016401e+000	 2.666700000016666e+000	 1.056571423477359e+001
0	 2.400020000016402e+000	 2.733360000014533e+000	 1.054071006289865e+001
0	 2.400020000016401e+000	 2.800020000011600e+000	 1.051537215077807e+001
0	 2.400020000016401e+000	 2.866680000008067e+000	 1.048959918178312e+001
0	 2.400020000016402e+000	 2.933340000004134e+000	 1.046328983928510e+001
0	 2.400020000016401e+000	 2.999999999999999e+000	 1.043634280665533e+001
0	 2.400020000016402e+000	 3.066659999995868e+000	 1.040865676726515e+001
0	 2.400020000016401e+000	 3.133319999991934e+000	 1.038013040448591e+001
0	 2.400020000016401e+000	 3.199979999988401e+000	 1.035066240168897e+001
0	 2.400020000016401e+000	 3.266639999985467e+000	 1.032015144224571e+001
0	 2.400020000016401e+000	 3.333299999983334e+000	 1.028849620952752e+001
0	 2.466690000017618e+000	 2.666700000016666e+000	 1.060331629904996e+001
0	 2.466690000017617e+000	 2.733360000014533e+000	 1.057205442270323e+001
0	 2.466690000017618e+000	 2.800020000011601e+000	 1.054147944839545e+001
0	 2.466690000017618e+000	 2.866680000008067e+000	 1.051148261211714e+001
0	 2.466690000017618e+000	 2.933340000004134e+000	 1.048195514985884e+001
0	 2.466690000017618e+000	 3.000000000000000e+000	 1.045278829761109e+001
0	 2.466690000017617e+000	 3.066659999995866e+000	 1.042387329136443e+001
0	 2.466690000017617e+000	 3.133319999991934e+000	 1.039510136710938e+001
0	 2.466690000017618e+000	 3.199979999988401e+000	 1.036636376083648e+001
0	 2.466690000017618e+000	 3.266639999985467e+000	 1.033755170853626e+001
0	 2.466690000017617e+000	 3.333299999983334e+000	 1.030855644619925e+001
0	 2.533360000018134e+000	 2.666700000016666e+000	 1.063627667719749e+001
0	 2.533360000018134e+000	 2.733360000014533e+000	 1.059923913430110e+001
0	 2.533360000018134e+000	 2.800020000011600e+000	 1.056387548174483e+001
0	 2.533360000018134e+000	 2.866680000008067e+000	 1.053006492033310e+001
0	 2.533360000018134e+000	 2.933340000004133e+000	 1.049768665087031e+001
0	 2.533360000018134e+000	 3.000000000000000e+000	 1.046661987416083e+001
0	 2.533360000018134e+000	 3.066659999995867e+000	 1.043674379100905e+001
0	 2.533360000018134e+000	 3.133319999991934e+000	 1.040793760221932e+001
0	 2.533360000018134e+000	 3.199979999988400e+000	 1.038008050859596e+001
0	 2.533360000018134e+000	 3.266639999985467e+000	 1.035305171094328e+001
0	 2.533360000018134e+000	 3.333299999983334e+000	 1.032673041006559e+001
0	 2.600030000017850e+000	 2.666700000016666e+000	 1.066347330933484e+001
0	 2.600030000017850e+000	 2.733360000014533e+000	 1.062174267555038e+001
0	 2.600030000017850e+000	 2.800020000011599e+000	 1.058255016139133e+001
0	 2.600030000017850e+000	 2.866680000008066e+000	 1.054575834467061e+001
0	 2.600030000017850e+000	 2.933340000004134e+000	 1.051122980320112e+001
0	 2.600030000017851e+000	 3.000000000000000e+000	 1.047882711479571e+001
0	 2.600030000017850e+000	 3.066659999995866e+000	 1.044841285726723e+001
0	 2.600030000017851e+000	 3.133319999991933e+000	 1.041984960842846e+001
0	 2.600030000017850e+000	 3.199979999988400e+000	 1.039299994609217e+001
0	 2.600030000017851e+000	 3.266639999985467e+000	 1.036772644807110e+001
0	 2.600030000017851e+000	 3.333299999983334e+000	 1.034389169217796e+001
0	 2.666700000016667e+000	 2.666700000016667e+000	 1.068378413558065e+001
0	 2.666700000016666e+000	 2.733360000014533e+000	 1.063904352430918e+001
0	 2.666700000016666e+000	 2.800020000011599e+000	 1.059749339790004e+001
0	 2.666700000016667e+000	 2.866680000008067e+000	 1.055897512336930e+001
0	 2.666700000016666e+000	 2.933340000004133e+000	 1.052333006773293e+001
0	 2.666700000016666e+000	 3.000000000000000e+000	 1.049039959800692e+001
0	 2.666700000016666e+000	 3.066659999995867e+000	 1.046002508120716e+001
0	 2.666700000016666e+000	 3.133319999991934e+000	 1.043204788434955e+001
0	 2.666700000016667e+000	 3.199979999988401e+000	 1.040630937444992e+001
0	 2.666700000016666e+000	 3.266639999985468e+000	 1.038265091852407e+001
0	 2.666700000016667e+000	 3.333299999983334e+000	 1.036091388358776e+001
0	 2.000000000000000e+000	 3.333299999983334e+000	 1.007960196170781e+001
0	 2.000000000000000e+000	 3.399969999982150e+000	 1.004354830551571e+001
0	 2.000000000000000e+000	 3.466639999981867e+000	 1.001102396669619e+001
0	 2.000000000000000e+000	 3.533309999982383e+000	 9.982089263329993e+000
0	 2.000000000000000e+000	 3.599979999983600e+000	 9.956804513497929e+000
0	 2.000000000000000e+000	 3.666649999985416e+000	 9.935230035280847e+000
0	 2.000000000000000e+000	 3.733319999987733e+000	 9.917426146759627e+000
0	 2.000000000000000e+000	 3.799989999990449e+000	 9.903453166015213e+000
0	 2.000000000000000e+000	 3.866659999993466e+000	 9.893371411128580e+000
0	 2.000000000000000e+000	 3.933329999996683e+000	 9.887241200180727e+000
0	 2.000000000000000e+000	 4.000000000000001e+000	 9.885122851252731e+000
0	 2.066670000003317e+000	 3.333299999983333e+000	 1.012932524729032e+001
0	 2.066670000003317e+000	 3.399969999982150e+000	 1.009142560057786e+001
0	 2.066670000003317e+000	 3.466639999981866e+000	 1.005713197659595e+001
0	 2.066670000003316e+000	 3.533309999982382e+000	 1.002648434158272e+001
0	 2.066670000003317e+000	 3.599979999983600e+000	 9.999522661776306e+000
0	 2.066670000003317e+000	 3.666649999985415e+000	 9.976286903414902e+000
0	 2.066670000003317e+000	 3.733319999987733e+000	 9.956817032736744e+000
0	 2.066670000003317e+000	 3.799989999990450e+000	 9.941153015980117e+000
0	 2.066670000003317e+000	 3.866659999993466e+000	 9.929334819383326e+000
0	 2.066670000003318e+000	 3.933329999996684e+000	 9.921402409184733e+000
0	 2.066670000003317e+000	 4.000000000000001e+000	 9.917395751622735e+000
0	 2.133340000006534e+000	 3.333299999983334e+000	 1.017192071375939e+001
0	 2.133340000006534e+000	 3.399969999982150e+000	 1.013354893109285e+001
0	 2.133340000006534e+000	 3.466639999981867e+000	 1.009870380965289e+001
0	 2.133340000006534e+000	 3.533309999982382e+000	 1.006740908581317e+001
0	 2.133340000006534e+000	 3.599979999983601e+000	 1.003968849594739e+001
0	 2.133340000006534e+000	 3.666649999985416e+000	 1.001556577642930e+001
0	 2.133340000006534e+000	 3.733319999987733e+000	 9.995064663632672e+000
0	 2.133340000006534e+000	 3.799989999990450e+000	 9.978208893931317e+000
0	 2.133340000006534e+000	 3.866659999993468e+000	 9.965022203699103e+000
0	 2.133340000006534e+000	 3.933329999996684e+000	 9.955528329309926e+000
0	 2.133340000006533e+000	 4.000000000000000e+000	 9.949751007137715e+000
0	 2.200010000009551e+000	 3.333299999983335e+000	 1.020826195216631e+001
0	 2.200010000009551e+000	 3.399969999982150e+000	 1.017055899285455e+001
0	 2.200010000009550e+000	 3.466639999981866e+000	 1.013617346982230e+001
0	 2.200010000009551e+000	 3.533309999982383e+000	 1.010511701155698e+001
0	 2.200010000009550e+000	 3.599979999983600e+000	 1.007740124654605e+001
0	 2.200010000009551e+000	 3.666649999985416e+000	 1.005303780327699e+001
0	 2.200010000009551e+000	 3.733319999987733e+000	 1.003203831023732e+001
0	 2.200010000009551e+000	 3.799989999990451e+000	 1.001441439591459e+001
0	 2.200010000009551e+000	 3.866659999993467e+000	 1.000017768879642e+001
0	 2.200010000009551e+000	 3.933329999996683e+000	 9.989339817370428e+000
0	 2.200010000009551e+000	 4.000000000000000e+000	 9.981912410124263e+000
0	 2.266680000012267e+000	 3.333299999983333e+000	 1.023922255356242e+001
0	 2.266680000012268e+000	 3.399969999982151e+000	 1.020309648165685e+001
0	 2.266680000012267e+000	 3.466639999981866e+000	 1.016997496105953e+001
0	 2.266680000012268e+000	 3.533309999982383e+000	 1.013986163434982e+001
0	 2.266680000012267e+000	 3.599979999983600e+000	 1.011276014410715e+001
0	 2.266680000012268e+000	 3.666649999985417e+000	 1.008867413291093e+001
0	 2.266680000012267e+000	 3.733319999987733e+000	 1.006760724334062e+001
0	 2.266680000012268e+000	 3.799989999990450e+000	 1.004956311797573e+001
0	 2.266680000012268e+000	 3.866659999993466e+000	 1.003454539939578e+001
0	 2.266680000012268e+000	 3.933329999996684e+000	 1.002255773018034e+001
0	 2.266680000012268e+000	 4.000000000000001e+000	 1.001360375290900e+001
0	 2.333350000014584e+000	 3.333299999983333e+000	 1.026567610899903e+001
0	 2.333350000014584e+000	 3.399969999982150e+000	 1.023180209329364e+001
0	 2.333350000014585e+000	 3.466639999981867e+000	 1.020054228731992e+001
0	 2.333350000014585e+000	 3.533309999982384e+000	 1.017189646972738e+001
0	 2.333350000014584e+000	 3.599979999983600e+000	 1.014586441916559e+001
0	 2.333350000014584e+000	 3.666649999985416e+000	 1.012244591428411e+001
0	 2.333350000014585e+000	 3.733319999987733e+000	 1.010164073373254e+001
0	 2.333350000014584e+000	 3.799989999990450e+000	 1.008344865616053e+001
0	 2.333350000014585e+000	 3.866659999993466e+000	 1.006786946021772e+001
0	 2.333350000014585e+000	 3.933329999996684e+000	 1.005490292455380e+001
0	 2.333350000014584e+000	 3.999999999999999e+000	 1.004454882781850e+001
0	 2.400020000016401e+000	 3.333299999983334e+000	 1.028849620952752e+001
0	 2.400020000016401e+000	 3.399969999982150e+000	 1.025731652355884e+001
0	 2.400020000016401e+000	 3.466639999981866e+000	 1.022830945255882e+001
0	 2.400020000016401e+000	 3.533309999982383e+000	 1.020147503322533e+001
0	 2.400020000016401e+000	 3.599979999983600e+000	 1.017681330225626e+001
0	 2.400020000016401e+000	 3.666649999985416e+000	 1.015432429634951e+001
0	 2.400020000016401e+000	 3.733319999987733e+000	 1.013400805220303e+001
0	 2.400020000016401e+000	 3.799989999990449e+000	 1.011586460651479e+001
0	 2.400020000016401e+000	 3.866659999993466e+000	 1.009989399598276e+001
0	 2.400020000016401e+000	 3.933329999996684e+000	 1.008609625730495e+001
0	 2.400020000016401e+000	 4.000000000000000e+000	 1.007447142717940e+001
0	 2.466690000017617e+000	 3.333299999983334e+000	 1.030855644619924e+001
0	 2.466690000017618e+000	 3.399969999982150e+000	 1.028028046824639e+001
0	 2.466690000017618e+000	 3.466639999981867e+000	 1.025371046073163e+001
0	 2.466690000017617e+000	 3.533309999982382e+000	 1.022885084037939e+001
0	 2.466690000017618e+000	 3.599979999983600e+000	 1.020570602391408e+001
0	 2.466690000017617e+000	 3.666649999985417e+000	 1.018428042806015e+001
0	 2.466690000017617e+000	 3.733319999987733e+000	 1.016457846954208e+001
0	 2.466690000017617e+000	 3.799989999990450e+000	 1.014660456508434e+001
0	 2.466690000017618e+000	 3.866659999993467e+000	 1.013036313141145e+001
0	 2.466690000017618e+000	 3.933329999996684e+000	 1.011585858524792e+001
0	 2.466690000017617e+000	 4.000000000000000e+000	 1.010309534331831e+001
0	 2.533360000018134e+000	 3.333299999983334e+000	 1.032673041006559e+001
0	 2.533360000018134e+000	 3.399969999982150e+000	 1.030133462315022e+001
0	 2.533360000018134e+000	 3.466639999981866e+000	 1.027717931579374e+001
0	 2.533360000018134e+000	 3.533309999982383e+000	 1.025427740672526e+001
0	 2.533360000018134e+000	 3.599979999983600e+000	 1.023264181467398e+001
0	 2.533360000018134e+000	 3.666649999985416e+000	 1.021228545836904e+001
0	 2.533360000018134e+000	 3.733319999987733e+000	 1.019322125653966e+001
0	 2.533360000018134e+000	 3.799989999990449e+000	 1.017546212791501e+001
0	 2.533360000018134e+000	 3.866659999993467e+000	 1.015902099122435e+001
0	 2.533360000018134e+000	 3.933329999996683e+000	 1.014391076519688e+001
0	 2.533360000018134e+000	 4.000000000000000e+000	 1.013014436856186e+001
0	 2.600030000017851e+000	 3.333299999983334e+000	 1.034389169217796e+001
0	 2.600030000017851e+000	 3.399969999982150e+000	 1.032111968406430e+001
0	 2.600030000017849e+000	 3.466639999981866e+000	 1.029915002170053e+001
0	 2.600030000017850e+000	 3.533309999982382e+000	 1.027800824779869e+001
0	 2.600030000017851e+000	 3.599979999983600e+000	 1.025771990507089e+001
0	 2.600030000017851e+000	 3.666649999985416e+000	 1.023831053622921e+001
0	 2.600030000017850e+000	 3.733319999987733e+000	 1.021980568398576e+001
0	 2.600030000017851e+000	 3.799989999990450e+000	 1.020223089105264e+001
0	 2.600030000017850e+000	 3.866659999993465e+000	 1.018561170014201e+001
0	 2.600030000017850e+000	 3.933329999996684e+000	 1.016997365396598e+001
0	 2.600030000017850e+000	 4.000000000000000e+000	 1.015534229523670e+001
0	 2.666700000016667e+000	 3.333299999983334e+000	 1.036091388358776e+001
0	 2.666700000016666e+000	 3.399969999982150e+000	 1.034027634678260e+001
0	 2.666700000016666e+000	 3.466639999981867e+000	 1.032005658240743e+001
0	 2.666700000016666e+000	 3.533309999982383e+000	 1.030029687913542e+001
0	 2.666700000016666e+000	 3.599979999983599e+000	 1.028103952563977e+001
0	 2.666700000016666e+000	 3.666649999985416e+000	 1.026232681059369e+001
0	 2.666700000016667e+000	 3.733319999987733e+000	 1.024420102267039e+001
0	 2.666700000016667e+000	 3.799989999990450e+000	 1.022670445054309e+001
0	 2.666700000016666e+000	 3.866659999993467e+000	 1.020987938288500e+001
0	 2.666700000016666e+000	 3.933329999996684e+000	 1.019376810836938e+001
0	 2.666700000016666e+000	 4.000000000000001e+000	 1.017841291566945e+001
0	 2.000000000000000e+000	 4.000000000000001e+000	 9.885122851252731e+000
0	 2.000000000000000e+000	 4.066670000003318e+000	 9.884736007546907e+000
0	 2.000000000000000e+000	 4.133340000006533e+000	 9.883791720148510e+000
0	 2.000000000000000e+000	 4.200010000009550e+000	 9.882337418962996e+000
0	 2.000000000000000e+000	 4.266680000012268e+000	 9.880420533895832e+000
0	 2.000000000000000e+000	 4.333350000014584e+000	 9.878088494852481e+000
0	 2.000000000000000e+000	 4.400020000016401e+000	 9.875388731738413e+000
0	 2.000000000000000e+000	 4.466690000017617e+000	 9.872368674459095e+000
0	 2.000000000000000e+000	 4.533360000018134e+000	 9.869075752919986e+000
0	 2.000000000000000e+000	 4.600030000017851e+000	 9.865557397026558e+000
0	 2.000000000000000e+000	 4.666700000016665e+000	 9.861861036684278e+000
0	 2.066670000003317e+000	 4.000000000000001e+000	 9.917395751622737e+000
0	 2.066670000003318e+000	 4.066670000003317e+000	 9.915190779123238e+000
0	 2.066670000003316e+000	 4.133340000006534e+000	 9.912663526943234e+000
0	 2.066670000003317e+000	 4.200010000009550e+000	 9.909854115567706e+000
0	 2.066670000003317e+000	 4.266680000012267e+000	 9.906802665481672e+000
0	 2.066670000003317e+000	 4.333350000014584e+000	 9.903549297170144e+000
0	 2.066670000003318e+000	 4.400020000016401e+000	 9.900134131118128e+000
0	 2.066670000003317e+000	 4.466690000017618e+000	 9.896597287810641e+000
0	 2.066670000003317e+000	 4.533360000018134e+000	 9.892978887732708e+000
0	 2.066670000003318e+000	 4.600030000017852e+000	 9.889319051369338e+000
0	 2.066670000003317e+000	 4.666700000016667e+000	 9.885657899205546e+000
0	 2.133340000006533e+000	 4.000000000000000e+000	 9.949751007137715e+000
0	 2.133340000006534e+000	 4.066670000003317e+000	 9.945771131151835e+000
0	 2.133340000006534e+000	 4.133340000006534e+000	 9.941675450197298e+000
0	 2.133340000006534e+000	 4.200010000009550e+000	 9.937496482961493e+000
0	 2.133340000006534e+000	 4.266680000012269e+000	 9.933266748131842e+000
0	 2.133340000006534e+000	 4.333350000014584e+000	 9.929018764395769e+000
0	 2.133340000006534e+000	 4.400020000016402e+000	 9.924785050440676e+000
0	 2.133340000006534e+000	 4.466690000017618e+000	 9.920598124953989e+000
0	 2.133340000006534e+000	 4.533360000018134e+000	 9.916490506623145e+000
0	 2.133340000006534e+000	 4.600030000017850e+000	 9.912494714135557e+000
0	 2.133340000006534e+000	 4.666700000016666e+000	 9.908643266178665e+000
0	 2.200010000009551e+000	 4.000000000000000e+000	 9.981912410124265e+000
0	 2.200010000009551e+000	 4.066670000003318e+000	 9.976218177799444e+000
0	 2.200010000009550e+000	 4.133340000006534e+000	 9.970588495154107e+000
0	 2.200010000009551e+000	 4.200010000009551e+000	 9.965047986700919e+000
0	 2.200010000009551e+000	 4.266680000012268e+000	 9.959621276952541e+000
0	 2.200010000009551e+000	 4.333350000014583e+000	 9.954332990421671e+000
0	 2.200010000009550e+000	 4.400020000016401e+000	 9.949207751620985e+000
0	 2.200010000009551e+000	 4.466690000017618e+000	 9.944270185063170e+000
0	 2.200010000009550e+000	 4.533360000018135e+000	 9.939544915260923e+000
0	 2.200010000009550e+000	 4.600030000017850e+000	 9.935056566726944e+000
0	 2.200010000009551e+000	 4.666700000016667e+000	 9.930829763973936e+000
0	 2.266680000012268e+000	 4.000000000000001e+000	 1.001360375290900e+001
0	 2.266680000012268e+000	 4.066670000003317e+000	 1.000627303323284e+001
0	 2.266680000012268e+000	 4.133340000006534e+000	 9.999163667057090e+000
0	 2.266680000012267e+000	 4.200010000009550e+000	 9.992292092342524e+000
0	 2.266680000012267e+000	 4.266680000012268e+000	 9.985674747049945e+000
0	 2.266680000012267e+000	 4.333350000014583e+000	 9.979328069140168e+000
0	 2.266680000012267e+000	 4.400020000016401e+000	 9.973268496573979e+000
0	 2.266680000012267e+000	 4.466690000017616e+000	 9.967512467312211e+000
0	 2.266680000012267e+000	 4.533360000018134e+000	 9.962076419315677e+000
0	 2.266680000012268e+000	 4.600030000017852e+000	 9.956976790545214e+000
0	 2.266680000012268e+000	 4.666700000016667e+000	 9.952230018961656e+000
0	 2.333350000014584e+000	 3.999999999999999e+000	 1.004454882781850e+001
0	 2.333350000014584e+000	 4.066670000003318e+000	 1.003567681161878e+001
0	 2.333350000014585e+000	 4.133340000006535e+000	 1.002716197114965e+001
0	 2.333350000014585e+000	 4.200010000009550e+000	 1.001901226544290e+001
0	 2.333350000014584e+000	 4.266680000012268e+000	 1.001123565353027e+001
0	 2.333350000014584e+000	 4.333350000014584e+000	 1.000384009444358e+001
0	 2.333350000014584e+000	 4.400020000016402e+000	 9.996833547214608e+000
0	 2.333350000014585e+000	 4.466690000017618e+000	 9.990223970875167e+000
0	 2.333350000014585e+000	 4.533360000018135e+000	 9.984019324457064e+000
0	 2.333350000014585e+000	 4.600030000017850e+000	 9.978227566992109e+000
0	 2.333350000014584e+000	 4.666700000016666e+000	 9.972856657512132e+000
0	 2.400020000016401e+000	 4.000000000000000e+000	 1.007447142717940e+001
0	 2.400020000016401e+000	 4.066670000003317e+000	 1.006417062712405e+001
0	 2.400020000016401e+000	 4.133340000006534e+000	 1.005434441267525e+001
0	 2.400020000016401e+000	 4.200010000009550e+000	 1.004499197155858e+001
0	 2.400020000016401e+000	 4.266680000012268e+000	 1.003611249149970e+001
0	 2.400020000016402e+000	 4.333350000014583e+000	 1.002770516022424e+001
0	 2.400020000016401e+000	 4.400020000016401e+000	 1.001976916545781e+001
0	 2.400020000016401e+000	 4.466690000017616e+000	 1.001230369492609e+001
0	 2.400020000016400e+000	 4.533360000018133e+000	 1.000530793635471e+001
0	 2.400020000016401e+000	 4.600030000017851e+000	 9.998781077469344e+000
0	 2.400020000016401e+000	 4.666700000016665e+000	 9.992722305995669e+000
0	 2.466690000017617e+000	 4.000000000000000e+000	 1.010309534331831e+001
0	 2.466690000017618e+000	 4.066670000003317e+000	 1.009149559391543e+001
0	 2.466690000017618e+000	 4.133340000006535e+000	 1.008047199687728e+001
0	 2.466690000017618e+000	 4.200010000009550e+000	 1.007001467624618e+001
0	 2.466690000017618e+000	 4.266680000012268e+000	 1.006011375606447e+001
0	 2.466690000017618e+000	 4.333350000014583e+000	 1.005075936037446e+001
0	 2.466690000017617e+000	 4.400020000016402e+000	 1.004194161321853e+001
0	 2.466690000017617e+000	 4.466690000017618e+000	 1.003365063863901e+001
0	 2.466690000017617e+000	 4.533360000018133e+000	 1.002587656067826e+001
0	 2.466690000017617e+000	 4.600030000017849e+000	 1.001860950337866e+001
0	 2.466690000017617e+000	 4.666700000016666e+000	 1.001183959078259e+001
0	 2.533360000018134e+000	 4.000000000000000e+000	 1.013014436856186e+001
0	 2.533360000018134e+000	 4.066670000003318e+000	 1.011739282615970e+001
0	 2.533360000018134e+000	 4.133340000006535e+000	 1.010530572899921e+001
0	 2.533360000018134e+000	 4.200010000009550e+000	 1.009386384506226e+001
0	 2.533360000018135e+000	 4.266680000012268e+000	 1.008304794233076e+001
0	 2.533360000018134e+000	 4.333350000014584e+000	 1.007283878878660e+001
0	 2.533360000018134e+000	 4.400020000016402e+000	 1.006321715241171e+001
0	 2.533360000018134e+000	 4.466690000017617e+000	 1.005416380118798e+001
0	 2.533360000018134e+000	 4.533360000018135e+000	 1.004565950309737e+001
0	 2.533360000018134e+000	 4.600030000017849e+000	 1.003768502612179e+001
0	 2.533360000018134e+000	 4.666700000016666e+000	 1.003022113824320e+001
0	 2.600030000017850e+000	 4.000000000000000e+000	 1.015534229523670e+001
0	 2.600030000017850e+000	 4.066670000003316e+000	 1.014160343802366e+001
0	 2.600030000017851e+000	 4.133340000006535e+000	 1.012860661428446e+001
0	 2.600030000017851e+000	 4.200010000009550e+000	 1.011632294356340e+001
0	 2.600030000017851e+000	 4.266680000012268e+000	 1.010472354540480e+001
0	 2.600030000017851e+000	 4.333350000014584e+000	 1.009377953935299e+001
0	 2.600030000017850e+000	 4.400020000016400e+000	 1.008346204495231e+001
0	 2.600030000017850e+000	 4.466690000017617e+000	 1.007374218174708e+001
0	 2.600030000017850e+000	 4.533360000018132e+000	 1.006459106928169e+001
0	 2.600030000017851e+000	 4.600030000017849e+000	 1.005597982710048e+001
0	 2.600030000017851e+000	 4.666700000016666e+000	 1.004787957474783e+001
0	 2.666700000016666e+000	 4.000000000000001e+000	 1.017841291566945e+001
0	 2.666700000016667e+000	 4.066670000003317e+000	 1.016386854367412e+001
0	 2.666700000016666e+000	 4.133340000006535e+000	 1.015013565797649e+001
0	 2.666700000016666e+000	 4.200010000009551e+000	 1.013717543730619e+001
0	 2.666700000016667e+000	 4.266680000012267e+000	 1.012494906039282e+001
0	 2.666700000016667e+000	 4.333350000014584e+000	 1.011341770596597e+001
0	 2.666700000016666e+000	 4.400020000016401e+000	 1.010254255275527e+001
0	 2.666700000016667e+000	 4.466690000017619e+000	 1.009228477949036e+001
0	 2.666700000016666e+000	 4.533360000018133e+000	 1.008260556490088e+001
0	 2.666700000016666e+000	 4.600030000017851e+000	 1.007346608771647e+001
0	 2.666700000016666e+000	 4.666700000016666e+000	 1.006482752666679e+001
0	 2.000000000000000e+000	 4.666700000016665e+000	 9.861861036684278e+000
0	 2.000000000000000e+000	 4.733360000014533e+000	 9.858411554264073e+000
0	 2.000000000000000e+000	 4.800020000011601e+000	 9.855592650948053e+000
0	 2.000000000000000e+000	 4.866680000008067e+000	 9.853391681072294e+000
0	 2.000000000000000e+000	 4.933340000004134e+000	 9.851795998972831e+000
0	 2.000000000000000e+000	 5.000000000000001e+000	 9.850792958985720e+000
0	 2.000000000000000e+000	 5.066659999995866e+000	 9.850369915446965e+000
0	 2.000000000000000e+000	 5.133319999991934e+000	 9.850514222692610e+000
0	 2.000000000000000e+000	 5.199979999988400e+000	 9.851213235058641e+000
0	 2.000000000000000e+000	 5.266639999985468e+000	 9.852454306881031e+000
0	 2.000000000000000e+000	 5.333299999983333e+000	 9.854224792495755e+000
0	 2.066670000003317e+000	 4.666700000016667e+000	 9.885657899205546e+000
0	 2.066670000003317e+000	 4.733360000014534e+000	 9.882225416255174e+000
0	 2.066670000003316e+000	 4.800020000011599e+000	 9.879223834463858e+000
0	 2.066670000003317e+000	 4.866680000008067e+000	 9.876653286428727e+000
0	 2.066670000003317e+000	 4.933340000004134e+000	 9.874513904746918e+000
0	 2.066670000003318e+000	 5.000000000000000e+000	 9.872805822015499e+000
0	 2.066670000003317e+000	 5.066659999995868e+000	 9.871529170831582e+000
0	 2.066670000003317e+000	 5.133319999991933e+000	 9.870684083792234e+000
0	 2.066670000003316e+000	 5.199979999988400e+000	 9.870270693494536e+000
0	 2.066670000003317e+000	 5.266639999985467e+000	 9.870289132535550e+000
0	 2.066670000003317e+000	 5.333299999983333e+000	 9.870739533512310e+000
0	 2.133340000006534e+000	 4.666700000016666e+000	 9.908643266178668e+000
0	 2.133340000006534e+000	 4.733360000014533e+000	 9.905018706392626e+000
0	 2.133340000006533e+000	 4.800020000011598e+000	 9.901688332675130e+000
0	 2.133340000006534e+000	 4.866680000008067e+000	 9.898663490811408e+000
0	 2.133340000006534e+000	 4.933340000004134e+000	 9.895955526586670e+000
0	 2.133340000006534e+000	 5.000000000000002e+000	 9.893575785786119e+000
0	 2.133340000006534e+000	 5.066659999995867e+000	 9.891535614194956e+000
0	 2.133340000006534e+000	 5.133319999991935e+000	 9.889846357598366e+000
0	 2.133340000006534e+000	 5.199979999988400e+000	 9.888519361781530e+000
0	 2.133340000006534e+000	 5.266639999985467e+000	 9.887565972529611e+000
0	 2.133340000006533e+000	 5.333299999983334e+000	 9.886997535627778e+000
0	 2.200010000009551e+000	 4.666700000016667e+000	 9.930829763973936e+000
0	 2.200010000009551e+000	 4.733360000014534e+000	 9.926841303565864e+000
0	 2.200010000009551e+000	 4.800020000011601e+000	 9.923064335373299e+000
0	 2.200010000009550e+000	 4.866680000008064e+000	 9.919519853296587e+000
0	 2.200010000009550e+000	 4.933340000004133e+000	 9.916228851236088e+000
0	 2.200010000009551e+000	 5.000000000000002e+000	 9.913212323092155e+000
0	 2.200010000009550e+000	 5.066659999995866e+000	 9.910491262765117e+000
0	 2.200010000009551e+000	 5.133319999991936e+000	 9.908086664155320e+000
0	 2.200010000009551e+000	 5.199979999988402e+000	 9.906019521163072e+000
0	 2.200010000009550e+000	 5.266639999985466e+000	 9.904310827688706e+000
0	 2.200010000009551e+000	 5.333299999983335e+000	 9.902981577632513e+000
0	 2.266680000012268e+000	 4.666700000016667e+000	 9.952230018961656e+000
0	 2.266680000012268e+000	 4.733360000014534e+000	 9.947743086664335e+000
0	 2.266680000012267e+000	 4.800020000011600e+000	 9.943430032349784e+000
0	 2.266680000012268e+000	 4.866680000008068e+000	 9.939319932960538e+000
0	 2.266680000012268e+000	 4.933340000004133e+000	 9.935441865439165e+000
0	 2.266680000012267e+000	 4.999999999999999e+000	 9.931824906728155e+000
0	 2.266680000012268e+000	 5.066659999995868e+000	 9.928498133770065e+000
0	 2.266680000012267e+000	 5.133319999991935e+000	 9.925490623507383e+000
0	 2.266680000012268e+000	 5.199979999988401e+000	 9.922831452882628e+000
0	 2.266680000012268e+000	 5.266639999985469e+000	 9.920549698838286e+000
0	 2.266680000012268e+000	 5.333299999983335e+000	 9.918674438316854e+000
0	 2.333350000014584e+000	 4.666700000016666e+000	 9.972856657512132e+000
0	 2.333350000014584e+000	 4.733360000014534e+000	 9.967773934577455e+000
0	 2.333350000014585e+000	 4.800020000011601e+000	 9.962863613396015e+000
0	 2.333350000014584e+000	 4.866680000008066e+000	 9.958161288879577e+000
0	 2.333350000014585e+000	 4.933340000004134e+000	 9.953702555939900e+000
0	 2.333350000014584e+000	 4.999999999999999e+000	 9.949523009488717e+000
0	 2.333350000014584e+000	 5.066659999995866e+000	 9.945658244437794e+000
0	 2.333350000014585e+000	 5.133319999991935e+000	 9.942143855698866e+000
0	 2.333350000014584e+000	 5.199979999988400e+000	 9.939015438183647e+000
0	 2.333350000014585e+000	 5.266639999985466e+000	 9.936308586803852e+000
0	 2.333350000014583e+000	 5.333299999983333e+000	 9.934058896471180e+000
0	 2.400020000016401e+000	 4.666700000016665e+000	 9.992722305995672e+000
0	 2.400020000016401e+000	 4.733360000014533e+000	 9.986983726194675e+000
0	 2.400020000016401e+000	 4.800020000011599e+000	 9.981443268303433e+000
0	 2.400020000016401e+000	 4.866680000008067e+000	 9.976141480129959e+000
0	 2.400020000016401e+000	 4.933340000004132e+000	 9.971118909482273e+000
0	 2.400020000016401e+000	 5.000000000000000e+000	 9.966416104168401e+000
0	 2.400020000016402e+000	 5.066659999995868e+000	 9.962073611996337e+000
0	 2.400020000016401e+000	 5.133319999991934e+000	 9.958131980774082e+000
0	 2.400020000016401e+000	 5.199979999988400e+000	 9.954631758309590e+000
0	 2.400020000016402e+000	 5.266639999985467e+000	 9.951613492410864e+000
0	 2.400020000016401e+000	 5.333299999983335e+000	 9.949117730885847e+000
0	 2.466690000017617e+000	 4.666700000016666e+000	 1.001183959078259e+001
0	 2.466690000017617e+000	 4.733360000014532e+000	 1.000542234040544e+001
0	 2.466690000017617e+000	 4.800020000011599e+000	 9.999247186863464e+000
0	 2.466690000017618e+000	 4.866680000008068e+000	 9.993358065787984e+000
0	 2.466690000017617e+000	 4.933340000004134e+000	 9.987798912810330e+000
0	 2.466690000017618e+000	 5.000000000000000e+000	 9.982613663561789e+000
0	 2.466690000017618e+000	 5.066659999995866e+000	 9.977846253673699e+000
0	 2.466690000017618e+000	 5.133319999991934e+000	 9.973540618777312e+000
0	 2.466690000017618e+000	 5.199979999988400e+000	 9.969740694503935e+000
0	 2.466690000017618e+000	 5.266639999985469e+000	 9.966490416484817e+000
0	 2.466690000017618e+000	 5.333299999983335e+000	 9.963833720351213e+000
0	 2.533360000018134e+000	 4.666700000016666e+000	 1.003022113824320e+001
0	 2.533360000018134e+000	 4.733360000014534e+000	 1.002313965609920e+001
0	 2.533360000018134e+000	 4.800020000011600e+000	 1.001635355886755e+001
0	 2.533360000018134e+000	 4.866680000008065e+000	 1.000990860492994e+001
0	 2.533360000018133e+000	 4.933340000004133e+000	 1.000385055266803e+001
0	 2.533360000018134e+000	 5.000000000000000e+000	 9.998225160463463e+000
0	 2.533360000018134e+000	 5.066659999995868e+000	 9.993078186697883e+000
0	 2.533360000018134e+000	 5.133319999991934e+000	 9.988455389752902e+000
0	 2.533360000018134e+000	 5.199979999988400e+000	 9.984402528010142e+000
0	 2.533360000018134e+000	 5.266639999985468e+000	 9.980965359851192e+000
0	 2.533360000018134e+000	 5.333299999983333e+000	 9.978189643657634e+000
0	 2.600030000017851e+000	 4.666700000016666e+000	 1.004787957474783e+001
0	 2.600030000017851e+000	 4.733360000014534e+000	 1.004018555216538e+001
0	 2.600030000017850e+000	 4.800020000011600e+000	 1.003284057410714e+001
0	 2.600030000017851e+000	 4.866680000008067e+000	 1.002589065663213e+001
0	 2.600030000017851e+000	 4.933340000004134e+000	 1.001938181579942e+001
0	 2.600030000017851e+000	 5.000000000000000e+000	 1.001336006766801e+001
0	 2.600030000017850e+000	 5.066659999995866e+000	 1.000787142829692e+001
0	 2.600030000017850e+000	 5.133319999991935e+000	 1.000296191374514e+001
0	 2.600030000017850e+000	 5.199979999988400e+000	 9.998677540071679e+000
0	 2.600030000017851e+000	 5.266639999985468e+000	 9.995064323335477e+000
0	 2.600030000017851e+000	 5.333299999983334e+000	 9.992168279595498e+000
0	 2.666700000016666e+000	 4.666700000016666e+000	 1.006482752666679e+001
0	 2.666700000016666e+000	 4.733360000014533e+000	 1.005660990749346e+001
0	 2.666700000016666e+000	 4.800020000011600e+000	 1.004878642237366e+001
0	 2.666700000016667e+000	 4.866680000008069e+000	 1.004140177997086e+001
0	 2.666700000016666e+000	 4.933340000004133e+000	 1.003450068894848e+001
0	 2.666700000016666e+000	 5.000000000000001e+000	 1.002812785797000e+001
0	 2.666700000016667e+000	 5.066659999995868e+000	 1.002232799569883e+001
0	 2.666700000016666e+000	 5.133319999991934e+000	 1.001714581079837e+001
0	 2.666700000016667e+000	 5.199979999988402e+000	 1.001262601193203e+001
0	 2.666700000016667e+000	 5.266639999985468e+000	 1.000881330776318e+001
0	 2.666700000016666e+000	 5.333299999983335e+000	 1.000575240695518e+001
0	 2.000000000000000e+000	 5.333299999983333e+000	 9.854224792495755e+000
0	 2.000000000000000e+000	 5.399969999982149e+000	 9.856239491419318e+000
0	 2.000000000000000e+000	 5.466639999981868e+000	 9.858237514853535e+000
0	 2.000000000000000e+000	 5.533309999982383e+000	 9.860243598693561e+000
0	 2.000000000000000e+000	 5.599979999983600e+000	 9.862282478834549e+000
0	 2.000000000000000e+000	 5.666649999985416e+000	 9.864378891171661e+000
0	 2.000000000000000e+000	 5.733319999987732e+000	 9.866557571600032e+000
0	 2.000000000000000e+000	 5.799989999990449e+000	 9.868843256014822e+000
0	 1.999999999999999e+000	 5.866659999993466e+000	 9.871260680311211e+000
0	 2.000000000000000e+000	 5.933329999996682e+000	 9.873834580384349e+000
0	 2.000000000000000e+000	 6.000000000000000e+000	 9.876589692129393e+000
0	 2.066670000003317e+000	 5.333299999983333e+000	 9.870739533512307e+000
0	 2.066670000003317e+000	 5.399969999982150e+000	 9.871488076569687e+000
0	 2.066670000003317e+000	 5.466639999981866e+000	 9.872408941623208e+000
0	 2.066670000003317e+000	 5.533309999982385e+000	 9.873514560847575e+000
0	 2.066670000003317e+000	 5.599979999983599e+000	 9.874817366417544e+000
0	 2.066670000003317e+000	 5.666649999985414e+000	 9.876329790507851e+000
0	 2.066670000003317e+000	 5.733319999987733e+000	 9.878064265293272e+000
0	 2.066670000003317e+000	 5.799989999990450e+000	 9.880033222948526e+000
0	 2.066670000003317e+000	 5.866659999993467e+000	 9.882249095648392e+000
0	 2.066670000003317e+000	 5.933329999996684e+000	 9.884724315567611e+000
0	 2.066670000003317e+000	 5.999999999999999e+000	 9.887471314880958e+000
0	 2.133340000006533e+000	 5.333299999983334e+000	 9.886997535627778e+000
0	 2.133340000006534e+000	 5.399969999982150e+000	 9.886774624369075e+000
0	 2.133340000006534e+000	 5.466639999981865e+000	 9.886851622922229e+000
0	 2.133340000006534e+000	 5.533309999982383e+000	 9.887230425888673e+000
0	 2.133340000006534e+000	 5.599979999983600e+000	 9.887912927869808e+000
0	 2.133340000006534e+000	 5.666649999985418e+000	 9.888901023467080e+000
0	 2.133340000006534e+000	 5.733319999987733e+000	 9.890196607281929e+000
0	 2.133340000006534e+000	 5.799989999990448e+000	 9.891801573915782e+000
0	 2.133340000006534e+000	 5.866659999993466e+000	 9.893717817970087e+000
0	 2.133340000006534e+000	 5.933329999996684e+000	 9.895947234046286e+000
0	 2.133340000006533e+000	 5.999999999999998e+000	 9.898491716745832e+000
0	 2.200010000009551e+000	 5.333299999983335e+000	 9.902981577632509e+000
0	 2.200010000009551e+000	 5.399969999982152e+000	 9.902038491608261e+000
0	 2.200010000009551e+000	 5.466639999981866e+000	 9.901470049539453e+000
0	 2.200010000009551e+000	 5.533309999982383e+000	 9.901269374601263e+000
0	 2.200010000009550e+000	 5.599979999983599e+000	 9.901429589968940e+000
0	 2.200010000009551e+000	 5.666649999985415e+000	 9.901943818817633e+000
0	 2.200010000009550e+000	 5.733319999987733e+000	 9.902805184322604e+000
0	 2.200010000009551e+000	 5.799989999990449e+000	 9.904006809659043e+000
0	 2.200010000009550e+000	 5.866659999993466e+000	 9.905541818002186e+000
0	 2.200010000009551e+000	 5.933329999996686e+000	 9.907403332527247e+000
0	 2.200010000009551e+000	 6.000000000000000e+000	 9.909584476409473e+000
0	 2.266680000012268e+000	 5.333299999983335e+000	 9.918674438316854e+000
0	 2.266680000012268e+000	 5.399969999982151e+000	 9.917219035078063e+000
0	 2.266680000012268e+000	 5.466639999981866e+000	 9.916168712263698e+000
0	 2.266680000012268e+000	 5.533309999982383e+000	 9.915509587769821e+000
0	 2.266680000012267e+000	 5.599979999983599e+000	 9.915227779492511e+000
0	 2.266680000012268e+000	 5.666649999985416e+000	 9.915309405327845e+000
0	 2.266680000012267e+000	 5.733319999987733e+000	 9.915740583171910e+000
0	 2.266680000012268e+000	 5.799989999990450e+000	 9.916507430920802e+000
0	 2.266680000012267e+000	 5.866659999993466e+000	 9.917596066470614e+000
0	 2.266680000012268e+000	 5.933329999996684e+000	 9.918992607717421e+000
0	 2.266680000012268e+000	 6.000000000000000e+000	 9.920683172557343e+000
0	 2.333350000014583e+000	 5.333299999983333e+000	 9.934058896471182e+000
0	 2.333350000014585e+000	 5.399969999982150e+000	 9.932255611569293e+000
0	 2.333350000014584e+000	 5.466639999981866e+000	 9.930852101883792e+000
0	 2.333350000014584e+000	 5.533309999982384e+000	 9.929829246178731e+000
0	 2.333350000014584e+000	 5.599979999983599e+000	 9.929167923218113e+000
0	 2.333350000014584e+000	 5.666649999985417e+000	 9.928849011766010e+000
0	 2.333350000014584e+000	 5.733319999987733e+000	 9.928853390586454e+000
0	 2.333350000014584e+000	 5.799989999990448e+000	 9.929161938443517e+000
0	 2.333350000014585e+000	 5.866659999993468e+000	 9.929755534101238e+000
0	 2.333350000014585e+000	 5.933329999996683e+000	 9.930615056323676e+000
0	 2.333350000014584e+000	 6.000000000000000e+000	 9.931721383874905e+000
0	 2.400020000016401e+000	 5.333299999983335e+000	 9.949117730885847e+000
0	 2.400020000016401e+000	 5.399969999982150e+000	 9.947087577872759e+000
0	 2.400020000016401e+000	 5.466639999981866e+000	 9.945424709188586e+000
0	 2.400020000016401e+000	 5.533309999982383e+000	 9.944106530612409e+000
0	 2.400020000016401e+000	 5.599979999983598e+000	 9.943110447923329e+000
0	 2.400020000016401e+000	 5.666649999985414e+000	 9.942413866900436e+000
0	 2.400020000016401e+000	 5.733319999987733e+000	 9.941994193322843e+000
0	 2.400020000016401e+000	 5.799989999990450e+000	 9.941828832969655e+000
0	 2.400020000016401e+000	 5.866659999993468e+000	 9.941895191619983e+000
0	 2.400020000016401e+000	 5.933329999996683e+000	 9.942170675052939e+000
0	 2.400020000016401e+000	 6.000000000000000e+000	 9.942632689047651e+000
0	 2.466690000017618e+000	 5.333299999983335e+000	 9.963833720351211e+000
0	 2.466690000017617e+000	 5.399969999982149e+000	 9.961654290779293e+000
0	 2.466690000017618e+000	 5.466639999981865e+000	 9.959791024966910e+000
0	 2.466690000017617e+000	 5.533309999982382e+000	 9.958219621855317e+000
0	 2.466690000017617e+000	 5.599979999983598e+000	 9.956915780385753e+000
0	 2.466690000017617e+000	 5.666649999985414e+000	 9.955855199499458e+000
0	 2.466690000017618e+000	 5.733319999987732e+000	 9.955013578137685e+000
0	 2.466690000017618e+000	 5.799989999990450e+000	 9.954366615241705e+000
0	 2.466690000017617e+000	 5.866659999993468e+000	 9.953890009752755e+000
0	 2.466690000017618e+000	 5.933329999996683e+000	 9.953559460612103e+000
0	 2.466690000017618e+000	 6.000000000000000e+000	 9.953350666761004e+000
0	 2.533360000018134e+000	 5.333299999983333e+000	 9.978189643657634e+000
0	 2.533360000018134e+000	 5.399969999982148e+000	 9.975895107079685e+000
0	 2.533360000018134e+000	 5.466639999981866e+000	 9.973855540007614e+000
0	 2.533360000018134e+000	 5.533309999982383e+000	 9.972046700691870e+000
0	 2.533360000018133e+000	 5.599979999983598e+000	 9.970444347382966e+000
0	 2.533360000018134e+000	 5.666649999985417e+000	 9.969024238331379e+000
0	 2.533360000018134e+000	 5.733319999987734e+000	 9.967762131787605e+000
0	 2.533360000018134e+000	 5.799989999990449e+000	 9.966633786002126e+000
0	 2.533360000018134e+000	 5.866659999993467e+000	 9.965614959225446e+000
0	 2.533360000018134e+000	 5.933329999996683e+000	 9.964681409708064e+000
0	 2.533360000018134e+000	 6.000000000000000e+000	 9.963808895700462e+000
0	 2.600030000017851e+000	 5.333299999983334e+000	 9.992168279595498e+000
0	 2.600030000017851e+000	 5.399969999982149e+000	 9.989749383564787e+000
0	 2.600030000017849e+000	 5.466639999981865e+000	 9.987522745099513e+000
0	 2.600030000017850e+000	 5.533309999982384e+000	 9.985465947906503e+000
0	 2.600030000017850e+000	 5.599979999983599e+000	 9.983556575692582e+000
0	 2.600030000017850e+000	 5.666649999985417e+000	 9.981772212164534e+000
0	 2.600030000017851e+000	 5.733319999987734e+000	 9.980090441029201e+000
0	 2.600030000017850e+000	 5.799989999990451e+000	 9.978488845993404e+000
0	 2.600030000017851e+000	 5.866659999993467e+000	 9.976945010763966e+000
0	 2.600030000017851e+000	 5.933329999996685e+000	 9.975436519047708e+000
0	 2.600030000017851e+000	 6.000000000000000e+000	 9.973940954551468e+000
0	 2.666700000016666e+000	 5.333299999983335e+000	 1.000575240695518e+001
0	 2.666700000016666e+000	 5.399969999982150e+000	 1.000315647702541e+001
0	 2.666700000016666e+000	 5.466639999981865e+000	 1.000069713103150e+001
0	 2.666700000016666e+000	 5.533309999982384e+000	 9.998355544283664e+000
0	 2.666700000016666e+000	 5.599979999983598e+000	 9.996112892092169e+000
0	 2.666700000016665e+000	 5.666649999985414e+000	 9.993950349767221e+000
0	 2.666700000016667e+000	 5.733319999987733e+000	 9.991849092619095e+000
0	 2.666700000016667e+000	 5.799989999990448e+000	 9.989790295958015e+000
0	 2.666700000016665e+000	 5.866659999993467e+000	 9.987755135094218e+000
0	 2.666700000016666e+000	 5.933329999996683e+000	 9.985724785337974e+000
0	 2.666700000016666e+000	 6.000000000000001e+000	 9.983680421999507e+000
0	 2.000000000000000e+000	 6.000000000000000e+000	 9.876589692129393e+000
0	 2.000000000000000e+000	 6.066670000003317e+000	 9.879438516914389e+000
0	 2.000000000000000e+000	 6.133340000006534e+000	 9.882275815692861e+000
0	 2.000000000000000e+000	 6.200010000009550e+000	 9.885099713738178e+000
0	 1.999999999999999e+000	 6.266680000012266e+000	 9.887908336323712e+000
0	 2.000000000000000e+000	 6.333350000014585e+000	 9.890699808722832e+000
0	 2.000000000000000e+000	 6.400020000016401e+000	 9.893472256208908e+000
0	 2.000000000000000e+000	 6.466690000017618e+000	 9.896223804055298e+000
0	 2.000000000000000e+000	 6.533360000018136e+000	 9.898952577535386e+000
0	 2.000000000000000e+000	 6.600030000017848e+000	 9.901656701922555e+000
0	 2.000000000000000e+000	 6.666700000016668e+000	 9.904334302490153e+000
0	 2.066670000003317e+000	 5.999999999999999e+000	 9.887471314880958e+000
0	 2.066670000003317e+000	 6.066670000003316e+000	 9.890301281804268e+000
0	 2.066670000003317e+000	 6.133340000006533e+000	 9.893022026509387e+000
0	 2.066670000003317e+000	 6.200010000009550e+000	 9.895640914104989e+000
0	 2.066670000003317e+000	 6.266680000012268e+000	 9.898165309699813e+000
0	 2.066670000003316e+000	 6.333350000014582e+000	 9.900602578402562e+000
0	 2.066670000003318e+000	 6.400020000016401e+000	 9.902960085321940e+000
0	 2.066670000003318e+000	 6.466690000017618e+000	 9.905245195566662e+000
0	 2.066670000003316e+000	 6.533360000018132e+000	 9.907465274245425e+000
0	 2.066670000003317e+000	 6.600030000017851e+000	 9.909627686466978e+000
0	 2.066670000003317e+000	 6.666700000016665e+000	 9.911739797339966e+000
0	 2.133340000006533e+000	 5.999999999999998e+000	 9.898491716745832e+000
0	 2.133340000006534e+000	 6.066670000003318e+000	 9.901106965585587e+000
0	 2.133340000006534e+000	 6.133340000006535e+000	 9.903557467878359e+000
0	 2.133340000006534e+000	 6.200010000009550e+000	 9.905858299919489e+000
0	 2.133340000006533e+000	 6.266680000012268e+000	 9.908024538004346e+000
0	 2.133340000006534e+000	 6.333350000014584e+000	 9.910071258428248e+000
0	 2.133340000006534e+000	 6.400020000016400e+000	 9.912013537486585e+000
0	 2.133340000006534e+000	 6.466690000017617e+000	 9.913866451474688e+000
0	 2.133340000006534e+000	 6.533360000018135e+000	 9.915645076687902e+000
0	 2.133340000006535e+000	 6.600030000017850e+000	 9.917364489421576e+000
0	 2.133340000006534e+000	 6.666700000016665e+000	 9.919039765971046e+000
0	 2.200010000009551e+000	 6.000000000000000e+000	 9.909584476409473e+000
0	 2.200010000009551e+000	 6.066670000003318e+000	 9.911823969378602e+000
0	 2.200010000009551e+000	 6.133340000006534e+000	 9.913879288269783e+000
0	 2.200010000009551e+000	 6.200010000009551e+000	 9.915771691916318e+000
0	 2.200010000009551e+000	 6.266680000012268e+000	 9.917522439151480e+000
0	 2.200010000009550e+000	 6.333350000014584e+000	 9.919152788808580e+000
0	 2.200010000009550e+000	 6.400020000016403e+000	 9.920683999720884e+000
0	 2.200010000009551e+000	 6.466690000017617e+000	 9.922137330721704e+000
0	 2.200010000009550e+000	 6.533360000018132e+000	 9.923534040644313e+000
0	 2.200010000009551e+000	 6.600030000017851e+000	 9.924895388322010e+000
0	 2.200010000009551e+000	 6.666700000016667e+000	 9.926242632588082e+000
0	 2.266680000012268e+000	 6.000000000000000e+000	 9.920683172557343e+000
0	 2.266680000012267e+000	 6.066670000003316e+000	 9.922420694303590e+000
0	 2.266680000012267e+000	 6.133340000006531e+000	 9.923984636153669e+000
0	 2.266680000012268e+000	 6.200010000009551e+000	 9.925400910830094e+000
0	 2.266680000012267e+000	 6.266680000012268e+000	 9.926695431055423e+000
0	 2.266680000012268e+000	 6.333350000014584e+000	 9.927894109552154e+000
0	 2.266680000012268e+000	 6.400020000016402e+000	 9.929022859042856e+000
0	 2.266680000012267e+000	 6.466690000017616e+000	 9.930107592250041e+000
0	 2.266680000012267e+000	 6.533360000018132e+000	 9.931174221896237e+000
0	 2.266680000012267e+000	 6.600030000017849e+000	 9.932248660703987e+000
0	 2.266680000012268e+000	 6.666700000016666e+000	 9.933356821395812e+000
0	 2.333350000014584e+000	 6.000000000000000e+000	 9.931721383874905e+000
0	 2.333350000014584e+000	 6.066670000003316e+000	 9.932865541480828e+000
0	 2.333350000014585e+000	 6.133340000006532e+000	 9.933870659999984e+000
0	 2.333350000014584e+000	 6.200010000009550e+000	 9.934765777395473e+000
0	 2.333350000014584e+000	 6.266680000012268e+000	 9.935579931630343e+000
0	 2.333350000014584e+000	 6.333350000014583e+000	 9.936342160667667e+000
0	 2.333350000014584e+000	 6.400020000016401e+000	 9.937081502470541e+000
0	 2.333350000014585e+000	 6.466690000017619e+000	 9.937826995002039e+000
0	 2.333350000014584e+000	 6.533360000018132e+000	 9.938607676225216e+000
0	 2.333350000014585e+000	 6.600030000017851e+000	 9.939452584103153e+000
0	 2.333350000014584e+000	 6.666700000016665e+000	 9.940390756598944e+000
0	 2.400020000016401e+000	 6.000000000000000e+000	 9.942632689047651e+000
0	 2.400020000016401e+000	 6.066670000003318e+000	 9.943126912030580e+000
0	 2.400020000016401e+000	 6.133340000006532e+000	 9.943534508278736e+000
0	 2.400020000016401e+000	 6.200010000009550e+000	 9.943886112347048e+000
0	 2.400020000016401e+000	 6.266680000012267e+000	 9.944212358790409e+000
0	 2.400020000016401e+000	 6.333350000014582e+000	 9.944543882163760e+000
0	 2.400020000016400e+000	 6.400020000016400e+000	 9.944911317021989e+000
0	 2.400020000016401e+000	 6.466690000017618e+000	 9.945345297920033e+000
0	 2.400020000016401e+000	 6.533360000018134e+000	 9.945876459412808e+000
0	 2.400020000016401e+000	 6.600030000017850e+000	 9.946535436055214e+000
0	 2.400020000016401e+000	 6.666700000016667e+000	 9.947352862402196e+000
0	 2.466690000017618e+000	 6.000000000000000e+000	 9.953350666761004e+000
0	 2.466690000017618e+000	 6.066670000003317e+000	 9.953173207073116e+000
0	 2.466690000017617e+000	 6.133340000006533e+000	 9.952973329459914e+000
0	 2.466690000017618e+000	 6.200010000009551e+000	 9.952781736419480e+000
0	 2.466690000017617e+000	 6.266680000012268e+000	 9.952629130449832e+000
0	 2.466690000017617e+000	 6.333350000014583e+000	 9.952546214049059e+000
0	 2.466690000017618e+000	 6.400020000016401e+000	 9.952563689715225e+000
0	 2.466690000017617e+000	 6.466690000017616e+000	 9.952712259946365e+000
0	 2.466690000017617e+000	 6.533360000018134e+000	 9.953022627240539e+000
0	 2.466690000017618e+000	 6.600030000017852e+000	 9.953525494095837e+000
0	 2.466690000017617e+000	 6.666700000016665e+000	 9.954251563010290e+000
0	 2.533360000018134e+000	 6.000000000000000e+000	 9.963808895700462e+000
0	 2.533360000018133e+000	 6.066670000003315e+000	 9.962972827728708e+000
0	 2.533360000018134e+000	 6.133340000006535e+000	 9.962184272013515e+000
0	 2.533360000018134e+000	 6.200010000009550e+000	 9.961472470347369e+000
0	 2.533360000018134e+000	 6.266680000012267e+000	 9.960866664522794e+000
0	 2.533360000018135e+000	 6.333350000014584e+000	 9.960396096332255e+000
0	 2.533360000018134e+000	 6.400020000016399e+000	 9.960090007568276e+000
0	 2.533360000018134e+000	 6.466690000017617e+000	 9.959977640023347e+000
0	 2.533360000018134e+000	 6.533360000018134e+000	 9.960088235489984e+000
0	 2.533360000018134e+000	 6.600030000017850e+000	 9.960451035760686e+000
0	 2.533360000018134e+000	 6.666700000016665e+000	 9.961095282627964e+000
0	 2.600030000017851e+000	 6.000000000000000e+000	 9.973940954551468e+000
0	 2.600030000017851e+000	 6.066670000003318e+000	 9.972494175117632e+000
0	 2.600030000017850e+000	 6.133340000006532e+000	 9.971164484409531e+000
0	 2.600030000017850e+000	 6.200010000009550e+000	 9.969978134865391e+000
0	 2.600030000017851e+000	 6.266680000012268e+000	 9.968961378923471e+000
0	 2.600030000017851e+000	 6.333350000014585e+000	 9.968140469021989e+000
0	 2.600030000017850e+000	 6.400020000016400e+000	 9.967541657599199e+000
0	 2.600030000017850e+000	 6.466690000017617e+000	 9.967191197093346e+000
0	 2.600030000017850e+000	 6.533360000018133e+000	 9.967115339942682e+000
0	 2.600030000017851e+000	 6.600030000017850e+000	 9.967340338585453e+000
0	 2.600030000017850e+000	 6.666700000016665e+000	 9.967892445459913e+000
0	 2.666700000016666e+000	 6.000000000000001e+000	 9.983680421999507e+000
0	 2.666700000016666e+000	 6.066670000003318e+000	 9.981705650360158e+000
0	 2.666700000016666e+000	 6.133340000006533e+000	 9.979911115117952e+000
0	 2.666700000016667e+000	 6.200010000009550e+000	 9.978318550708151e+000
0	 2.666700000016667e+000	 6.266680000012268e+000	 9.976949691566043e+000
0	 2.666700000016666e+000	 6.333350000014584e+000	 9.975826272126904e+000
0	 2.666700000016667e+000	 6.400020000016400e+000	 9.974970026826023e+000
0	 2.666700000016666e+000	 6.466690000017617e+000	 9.974402690098687e+000
0	 2.666700000016666e+000	 6.533360000018133e+000	 9.974145996380193e+000
0	 2.666700000016667e+000	 6.600030000017850e+000	 9.974221680105826e+000
0	 2.666700000016667e+000	 6.666700000016667e+000	 9.974651475710882e+000
0	 2.000000000000000e+000	 6.666700000016668e+000	 9.904334302490153e+000
0	 2.000000000000000e+000	 6.733360000014532e+000	 9.907004054445620e+000
0	 2.000000000000000e+000	 6.800020000011601e+000	 9.909689790531260e+000
0	 2.000000000000000e+000	 6.866680000008068e+000	 9.912396173711473e+000
0	 2.000000000000000e+000	 6.933340000004133e+000	 9.915127866950634e+000
0	 2.000000000000000e+000	 6.999999999999999e+000	 9.917889533213154e+000
0	 2.000000000000000e+000	 7.066659999995867e+000	 9.920685835463408e+000
0	 2.000000000000000e+000	 7.133319999991933e+000	 9.923521436665803e+000
0	 2.000000000000000e+000	 7.199979999988401e+000	 9.926400999784731e+000
0	 2.000000000000000e+000	 7.266639999985467e+000	 9.929329187784560e+000
0	 2.000000000000000e+000	 7.333299999983335e+000	 9.932310663629702e+000
0	 2.066670000003317e+000	 6.666700000016665e+000	 9.911739797339966e+000
0	 2.066670000003317e+000	 6.733360000014534e+000	 9.913873210400976e+000
0	 2.066670000003317e+000	 6.800020000011601e+000	 9.916094475562575e+000
0	 2.066670000003316e+000	 6.866680000008066e+000	 9.918402437307750e+000
0	 2.066670000003317e+000	 6.933340000004136e+000	 9.920795940119490e+000
0	 2.066670000003317e+000	 7.000000000000001e+000	 9.923273828480763e+000
0	 2.066670000003317e+000	 7.066659999995869e+000	 9.925834946874527e+000
0	 2.066670000003318e+000	 7.133319999991935e+000	 9.928478139783767e+000
0	 2.066670000003316e+000	 7.199979999988399e+000	 9.931202251691465e+000
0	 2.066670000003318e+000	 7.266639999985467e+000	 9.934006127080584e+000
0	 2.066670000003316e+000	 7.333299999983331e+000	 9.936888610434078e+000
0	 2.133340000006534e+000	 6.666700000016665e+000	 9.919039765971050e+000
0	 2.133340000006534e+000	 6.733360000014533e+000	 9.920766288564911e+000
0	 2.133340000006534e+000	 6.800020000011600e+000	 9.922625932717619e+000
0	 2.133340000006534e+000	 6.866680000008066e+000	 9.924612768485417e+000
0	 2.133340000006534e+000	 6.933340000004134e+000	 9.926720865924558e+000
0	 2.133340000006534e+000	 7.000000000000000e+000	 9.928944295091295e+000
0	 2.133340000006534e+000	 7.066659999995868e+000	 9.931277126041865e+000
0	 2.133340000006534e+000	 7.133319999991935e+000	 9.933713428832514e+000
0	 2.133340000006534e+000	 7.199979999988400e+000	 9.936247273519477e+000
0	 2.133340000006534e+000	 7.266639999985467e+000	 9.938872730159000e+000
0	 2.133340000006534e+000	 7.333299999983335e+000	 9.941583868807310e+000
0	 2.200010000009551e+000	 6.666700000016667e+000	 9.926242632588084e+000
0	 2.200010000009551e+000	 6.733360000014533e+000	 9.927670693182858e+000
0	 2.200010000009551e+000	 6.800020000011601e+000	 9.929254281244067e+000
0	 2.200010000009550e+000	 6.866680000008067e+000	 9.930983736455888e+000
0	 2.200010000009550e+000	 6.933340000004134e+000	 9.932849398502530e+000
0	 2.200010000009551e+000	 7.000000000000000e+000	 9.934841607068236e+000
0	 2.200010000009550e+000	 7.066659999995867e+000	 9.936950701837183e+000
0	 2.200010000009550e+000	 7.133319999991934e+000	 9.939167022493582e+000
0	 2.200010000009551e+000	 7.199979999988401e+000	 9.941480908721641e+000
0	 2.200010000009552e+000	 7.266639999985468e+000	 9.943882700205567e+000
0	 2.200010000009551e+000	 7.333299999983335e+000	 9.946362736629531e+000
0	 2.266680000012268e+000	 6.666700000016666e+000	 9.933356821395815e+000
0	 2.266680000012267e+000	 6.733360000014531e+000	 9.934573828500279e+000
0	 2.266680000012267e+000	 6.800020000011599e+000	 9.935949640389573e+000
0	 2.266680000012267e+000	 6.866680000008067e+000	 9.937471910430556e+000
0	 2.266680000012268e+000	 6.933340000004134e+000	 9.939128291990093e+000
0	 2.266680000012268e+000	 7.000000000000001e+000	 9.940906438435039e+000
0	 2.266680000012267e+000	 7.066659999995865e+000	 9.942794003132251e+000
0	 2.266680000012267e+000	 7.133319999991934e+000	 9.944778639448582e+000
0	 2.266680000012267e+000	 7.199979999988401e+000	 9.946848000750901e+000
0	 2.266680000012268e+000	 7.266639999985467e+000	 9.948989740406029e+000
0	 2.266680000012267e+000	 7.333299999983333e+000	 9.951191511780843e+000
0	 2.333350000014584e+000	 6.666700000016665e+000	 9.940390756598944e+000
0	 2.333350000014585e+000	 6.733360000014533e+000	 9.941463098762577e+000
0	 2.333350000014585e+000	 6.800020000011600e+000	 9.942682129401817e+000
0	 2.333350000014584e+000	 6.866680000008066e+000	 9.944033859620863e+000
0	 2.333350000014584e+000	 6.933340000004132e+000	 9.945504300523915e+000
0	 2.333350000014585e+000	 6.999999999999999e+000	 9.947079463215172e+000
0	 2.333350000014585e+000	 7.066659999995865e+000	 9.948745358798821e+000
0	 2.333350000014584e+000	 7.133319999991935e+000	 9.950487998379082e+000
0	 2.333350000014584e+000	 7.199979999988400e+000	 9.952293393060133e+000
0	 2.333350000014585e+000	 7.266639999985468e+000	 9.954147553946143e+000
0	 2.333350000014584e+000	 7.333299999983333e+000	 9.956036492141354e+000
0	 2.400020000016401e+000	 6.666700000016667e+000	 9.947352862402198e+000
0	 2.400020000016401e+000	 6.733360000014533e+000	 9.948325908215203e+000
0	 2.400020000016401e+000	 6.800020000011598e+000	 9.949421867528479e+000
0	 2.400020000016401e+000	 6.866680000008064e+000	 9.950626153238229e+000
0	 2.400020000016402e+000	 6.933340000004134e+000	 9.951924178240684e+000
0	 2.400020000016402e+000	 7.000000000000000e+000	 9.953301355432101e+000
0	 2.400020000016401e+000	 7.066659999995866e+000	 9.954743097708674e+000
0	 2.400020000016401e+000	 7.133319999991936e+000	 9.956234817966646e+000
0	 2.400020000016400e+000	 7.199979999988400e+000	 9.957761929102233e+000
0	 2.400020000016402e+000	 7.266639999985467e+000	 9.959309844011678e+000
0	 2.400020000016401e+000	 7.333299999983335e+000	 9.960863975591192e+000
0	 2.466690000017617e+000	 6.666700000016665e+000	 9.954251563010292e+000
0	 2.466690000017618e+000	 6.733360000014534e+000	 9.955149661103592e+000
0	 2.466690000017618e+000	 6.800020000011600e+000	 9.956138974017208e+000
0	 2.466690000017617e+000	 6.866680000008068e+000	 9.957205360494051e+000
0	 2.466690000017617e+000	 6.933340000004133e+000	 9.958334679277094e+000
0	 2.466690000017618e+000	 6.999999999999999e+000	 9.959512789109276e+000
0	 2.466690000017617e+000	 7.066659999995868e+000	 9.960725548733548e+000
0	 2.466690000017617e+000	 7.133319999991935e+000	 9.961958816892853e+000
0	 2.466690000017618e+000	 7.199979999988401e+000	 9.963198452330138e+000
0	 2.466690000017618e+000	 7.266639999985467e+000	 9.964430313788370e+000
0	 2.466690000017617e+000	 7.333299999983336e+000	 9.965640260010449e+000
0	 2.533360000018134e+000	 6.666700000016665e+000	 9.961095282627962e+000
0	 2.533360000018134e+000	 6.733360000014532e+000	 9.961921761673203e+000
0	 2.533360000018134e+000	 6.800020000011599e+000	 9.962803568115698e+000
0	 2.533360000018134e+000	 6.866680000008065e+000	 9.963728050599782e+000
0	 2.533360000018134e+000	 6.933340000004132e+000	 9.964682557769827e+000
0	 2.533360000018133e+000	 6.999999999999999e+000	 9.965654438270184e+000
0	 2.533360000018134e+000	 7.066659999995868e+000	 9.966631040745225e+000
0	 2.533360000018134e+000	 7.133319999991935e+000	 9.967599713839292e+000
0	 2.533360000018134e+000	 7.199979999988400e+000	 9.968547806196749e+000
0	 2.533360000018134e+000	 7.266639999985466e+000	 9.969462666461956e+000
0	 2.533360000018134e+000	 7.333299999983334e+000	 9.970331643279257e+000
0	 2.600030000017850e+000	 6.666700000016665e+000	 9.967892445459913e+000
0	 2.600030000017851e+000	 6.733360000014532e+000	 9.968629614169453e+000
0	 2.600030000017850e+000	 6.800020000011601e+000	 9.969385769071602e+000
0	 2.600030000017851e+000	 6.866680000008067e+000	 9.970150792766823e+000
0	 2.600030000017851e+000	 6.933340000004134e+000	 9.970914567855559e+000
0	 2.600030000017851e+000	 7.000000000000000e+000	 9.971666976938286e+000
0	 2.600030000017851e+000	 7.066659999995867e+000	 9.972397902615464e+000
0	 2.600030000017850e+000	 7.133319999991934e+000	 9.973097227487523e+000
0	 2.600030000017851e+000	 7.199979999988402e+000	 9.973754834154951e+000
0	 2.600030000017851e+000	 7.266639999985467e+000	 9.974360605218203e+000
0	 2.600030000017851e+000	 7.333299999983335e+000	 9.974904423277728e+000
0	 2.666700000016667e+000	 6.666700000016667e+000	 9.974651475710886e+000
0	 2.666700000016666e+000	 6.733360000014533e+000	 9.975260622837794e+000
0	 2.666700000016666e+000	 6.800020000011599e+000	 9.975855696132609e+000
0	 2.666700000016666e+000	 6.866680000008068e+000	 9.976430156206600e+000
0	 2.666700000016667e+000	 6.933340000004134e+000	 9.976977463670984e+000
0	 2.666700000016667e+000	 7.000000000000000e+000	 9.977491079137042e+000
0	 2.666700000016667e+000	 7.066659999995867e+000	 9.977964463216013e+000
0	 2.666700000016666e+000	 7.133319999991936e+000	 9.978391076519134e+000
0	 2.666700000016666e+000	 7.199979999988401e+000	 9.978764379657671e+000
0	 2.666700000016666e+000	 7.266639999985467e+000	 9.979077833242865e+000
0	 2.666700000016667e+000	 7.333299999983335e+000	 9.979324897885965e+000
0	 2.000000000000000e+000	 7.333299999983335e+000	 9.932310663629702e+000
0	 2.000000000000000e+000	 7.399969999982151e+000	 9.935277322756022e+000
0	 2.000000000000000e+000	 7.466639999981867e+000	 9.938159486611047e+000
0	 2.000000000000000e+000	 7.533309999982384e+000	 9.940960811665422e+000
0	 2.000000000000000e+000	 7.599979999983599e+000	 9.943684954389788e+000
0	 2.000000000000000e+000	 7.666649999985416e+000	 9.946335571254810e+000
0	 2.000000000000000e+000	 7.733319999987733e+000	 9.948916318731094e+000
0	 2.000000000000000e+000	 7.799989999990449e+000	 9.951430853289295e+000
0	 2.000000000000000e+000	 7.866659999993466e+000	 9.953882831400055e+000
0	 2.000000000000000e+000	 7.933329999996684e+000	 9.956275909534028e+000
0	 2.000000000000000e+000	 7.999999999999999e+000	 9.958613744161836e+000
0	 2.066670000003316e+000	 7.333299999983331e+000	 9.936888610434078e+000
0	 2.066670000003317e+000	 7.399969999982150e+000	 9.939751498913388e+000
0	 2.066670000003317e+000	 7.466639999981865e+000	 9.942501298321188e+000
0	 2.066670000003317e+000	 7.533309999982384e+000	 9.945145230864668e+000
0	 2.066670000003318e+000	 7.599979999983600e+000	 9.947690518751072e+000
0	 2.066670000003317e+000	 7.666649999985414e+000	 9.950144384187642e+000
0	 2.066670000003317e+000	 7.733319999987731e+000	 9.952514049381588e+000
0	 2.066670000003317e+000	 7.799989999990450e+000	 9.954806736540149e+000
0	 2.066670000003317e+000	 7.866659999993468e+000	 9.957029667870541e+000
0	 2.066670000003318e+000	 7.933329999996684e+000	 9.959190065580012e+000
0	 2.066670000003317e+000	 7.999999999999999e+000	 9.961295151875754e+000
0	 2.133340000006534e+000	 7.333299999983335e+000	 9.941583868807310e+000
0	 2.133340000006534e+000	 7.399969999982150e+000	 9.944269627628112e+000
0	 2.133340000006534e+000	 7.466639999981867e+000	 9.946828804702799e+000
0	 2.133340000006533e+000	 7.533309999982382e+000	 9.949271498489418e+000
0	 2.133340000006534e+000	 7.599979999983600e+000	 9.951607807446040e+000
0	 2.133340000006534e+000	 7.666649999985416e+000	 9.953847830030689e+000
0	 2.133340000006534e+000	 7.733319999987731e+000	 9.956001664701430e+000
0	 2.133340000006534e+000	 7.799989999990448e+000	 9.958079409916287e+000
0	 2.133340000006534e+000	 7.866659999993466e+000	 9.960091164133317e+000
0	 2.133340000006534e+000	 7.933329999996685e+000	 9.962047025810566e+000
0	 2.133340000006534e+000	 8.000000000000000e+000	 9.963957093406080e+000
0	 2.200010000009551e+000	 7.333299999983335e+000	 9.946362736629531e+000
0	 2.200010000009551e+000	 7.399969999982150e+000	 9.948811390189592e+000
0	 2.200010000009551e+000	 7.466639999981867e+000	 9.951132908583926e+000
0	 2.200010000009551e+000	 7.533309999982385e+000	 9.953339577035630e+000
0	 2.200010000009550e+000	 7.599979999983601e+000	 9.955443680767809e+000
0	 2.200010000009550e+000	 7.666649999985416e+000	 9.957457505003552e+000
0	 2.200010000009551e+000	 7.733319999987732e+000	 9.959393334965981e+000
0	 2.200010000009551e+000	 7.799989999990449e+000	 9.961263455878164e+000
0	 2.200010000009551e+000	 7.866659999993468e+000	 9.963080152963203e+000
0	 2.200010000009551e+000	 7.933329999996684e+000	 9.964855711444210e+000
0	 2.200010000009551e+000	 8.000000000000000e+000	 9.966602416544275e+000
0	 2.266680000012267e+000	 7.333299999983333e+000	 9.951191511780845e+000
0	 2.266680000012267e+000	 7.399969999982149e+000	 9.953356467887270e+000
0	 2.266680000012267e+000	 7.466639999981863e+000	 9.955404512792590e+000
0	 2.266680000012267e+000	 7.533309999982382e+000	 9.957349428999210e+000
0	 2.266680000012267e+000	 7.599979999983599e+000	 9.959204999009506e+000
0	 2.266680000012268e+000	 7.666649999985416e+000	 9.960985005325846e+000
0	 2.266680000012267e+000	 7.733319999987733e+000	 9.962703230450625e+000
0	 2.266680000012268e+000	 7.799989999990449e+000	 9.964373456886227e+000
0	 2.266680000012267e+000	 7.866659999993468e+000	 9.966009467135036e+000
0	 2.266680000012267e+000	 7.933329999996682e+000	 9.967625043699417e+000
0	 2.266680000012267e+000	 7.999999999999998e+000	 9.969233969081770e+000
0	 2.333350000014584e+000	 7.333299999983333e+000	 9.956036492141353e+000
0	 2.333350000014584e+000	 7.399969999982148e+000	 9.957884542010550e+000
0	 2.333350000014584e+000	 7.466639999981866e+000	 9.959634520156836e+000
0	 2.333350000014584e+000	 7.533309999982383e+000	 9.961301016876098e+000
0	 2.333350000014584e+000	 7.599979999983599e+000	 9.962898622464236e+000
0	 2.333350000014585e+000	 7.666649999985417e+000	 9.964441927217161e+000
0	 2.333350000014584e+000	 7.733319999987733e+000	 9.965945521430761e+000
0	 2.333350000014584e+000	 7.799989999990449e+000	 9.967423995400953e+000
0	 2.333350000014585e+000	 7.866659999993465e+000	 9.968891939423633e+000
0	 2.333350000014584e+000	 7.933329999996682e+000	 9.970363943794691e+000
0	 2.333350000014583e+000	 8.000000000000000e+000	 9.971854598810014e+000
0	 2.400020000016401e+000	 7.333299999983335e+000	 9.960863975591190e+000
0	 2.400020000016401e+000	 7.399969999982149e+000	 9.962375293848883e+000
0	 2.400020000016401e+000	 7.466639999981866e+000	 9.963813833504670e+000
0	 2.400020000016401e+000	 7.533309999982383e+000	 9.965194303162198e+000
0	 2.400020000016401e+000	 7.599979999983599e+000	 9.966531411425127e+000
0	 2.400020000016401e+000	 7.666649999985415e+000	 9.967839866897100e+000
0	 2.400020000016401e+000	 7.733319999987733e+000	 9.969134378181778e+000
0	 2.400020000016400e+000	 7.799989999990447e+000	 9.970429653882798e+000
0	 2.400020000016401e+000	 7.866659999993467e+000	 9.971740402603817e+000
0	 2.400020000016401e+000	 7.933329999996683e+000	 9.973081332948494e+000
0	 2.400020000016401e+000	 8.000000000000000e+000	 9.974467153520482e+000
0	 2.466690000017617e+000	 7.333299999983336e+000	 9.965640260010449e+000
0	 2.466690000017618e+000	 7.399969999982151e+000	 9.966808404691664e+000
0	 2.466690000017618e+000	 7.466639999981866e+000	 9.967933355664121e+000
0	 2.466690000017617e+000	 7.533309999982383e+000	 9.969029250353449e+000
0	 2.466690000017618e+000	 7.599979999983601e+000	 9.970110226185289e+000
0	 2.466690000017618e+000	 7.666649999985418e+000	 9.971190420585264e+000
0	 2.466690000017617e+000	 7.733319999987734e+000	 9.972283970979026e+000
0	 2.466690000017618e+000	 7.799989999990449e+000	 9.973405014792201e+000
0	 2.466690000017617e+000	 7.866659999993468e+000	 9.974567689450424e+000
0	 2.466690000017618e+000	 7.933329999996683e+000	 9.975786132379346e+000
0	 2.466690000017618e+000	 8.000000000000000e+000	 9.977074481004593e+000
0	 2.533360000018134e+000	 7.333299999983334e+000	 9.970331643279257e+000
0	 2.533360000018134e+000	 7.399969999982149e+000	 9.971163555828344e+000
0	 2.533360000018134e+000	 7.466639999981867e+000	 9.971983989463231e+000
0	 2.533360000018134e+000	 7.533309999982385e+000	 9.972805820945785e+000
0	 2.533360000018134e+000	 7.599979999983598e+000	 9.973641927037848e+000
0	 2.533360000018134e+000	 7.666649999985415e+000	 9.974505184501263e+000
0	 2.533360000018134e+000	 7.733319999987733e+000	 9.975408470097904e+000
0	 2.533360000018134e+000	 7.799989999990449e+000	 9.976364660589635e+000
0	 2.533360000018134e+000	 7.866659999993467e+000	 9.977386632738277e+000
0	 2.533360000018134e+000	 7.933329999996683e+000	 9.978487263305722e+000
0	 2.533360000018133e+000	 8.000000000000000e+000	 9.979679429053800e+000
0	 2.600030000017851e+000	 7.333299999983335e+000	 9.974904423277726e+000
0	 2.600030000017851e+000	 7.399969999982149e+000	 9.975420428548318e+000
0	 2.600030000017850e+000	 7.466639999981865e+000	 9.975956637730018e+000
0	 2.600030000017851e+000	 7.533309999982384e+000	 9.976523977435109e+000
0	 2.600030000017851e+000	 7.599979999983599e+000	 9.977133374275905e+000
0	 2.600030000017851e+000	 7.666649999985416e+000	 9.977795754864705e+000
0	 2.600030000017850e+000	 7.733319999987733e+000	 9.978522045813818e+000
0	 2.600030000017850e+000	 7.799989999990449e+000	 9.979323173735546e+000
0	 2.600030000017851e+000	 7.866659999993467e+000	 9.980210065242204e+000
0	 2.600030000017850e+000	 7.933329999996685e+000	 9.981193646946108e+000
0	 2.600030000017851e+000	 8.000000000000000e+000	 9.982284845459555e+000
0	 2.666700000016667e+000	 7.333299999983335e+000	 9.979324897885965e+000
0	 2.666700000016667e+000	 7.399969999982151e+000	 9.979558704141041e+000
0	 2.666700000016666e+000	 7.466639999981866e+000	 9.979842203292503e+000
0	 2.666700000016666e+000	 7.533309999982383e+000	 9.980183682317366e+000
0	 2.666700000016666e+000	 7.599979999983598e+000	 9.980591428192579e+000
0	 2.666700000016666e+000	 7.666649999985416e+000	 9.981073727895183e+000
0	 2.666700000016667e+000	 7.733319999987733e+000	 9.981638868402122e+000
0	 2.666700000016667e+000	 7.799989999990449e+000	 9.982295136690414e+000
0	 2.666700000016665e+000	 7.866659999993464e+000	 9.983050819737048e+000
0	 2.666700000016666e+000	 7.933329999996683e+000	 9.983914204519017e+000
0	 2.666700000016667e+000	 8.000000000000000e+000	 9.984893578013310e+000
0	 2.000000000000000e+000	 7.999999999999999e+000	 9.958613744161836e+000
0	 2.000000000000000e+000	 8.066670000003319e+000	 9.960903240122809e+000
0	 2.000000000000000e+000	 8.133340000006534e+000	 9.963149776710857e+000
0	 2.000000000000000e+000	 8.200010000009549e+000	 9.965354722078496e+000
0	 2.000000000000000e+000	 8.266680000012267e+000	 9.967519444378237e+000
0	 2.000000000000000e+000	 8.333350000014585e+000	 9.969645311762575e+000
0	 1.999999999999999e+000	 8.400020000016397e+000	 9.971733692384031e+000
0	 2.000000000000000e+000	 8.466690000017618e+000	 9.973785954395115e+000
0	 2.000000000000000e+000	 8.533360000018131e+000	 9.975803465948342e+000
0	 2.000000000000000e+000	 8.600030000017851e+000	 9.977787595196215e+000
0	 2.000000000000000e+000	 8.666700000016666e+000	 9.979739710291238e+000
0	 2.066670000003317e+000	 7.999999999999999e+000	 9.961295151875754e+000
0	 2.066670000003317e+000	 8.066670000003317e+000	 9.963365251805477e+000
0	 2.066670000003316e+000	 8.133340000006532e+000	 9.965415364513509e+000
0	 2.066670000003317e+000	 8.200010000009549e+000	 9.967444723352008e+000
0	 2.066670000003317e+000	 8.266680000012268e+000	 9.969452561673156e+000
0	 2.066670000003317e+000	 8.333350000014583e+000	 9.971438112829143e+000
0	 2.066670000003318e+000	 8.400020000016401e+000	 9.973400610172133e+000
0	 2.066670000003316e+000	 8.466690000017616e+000	 9.975339287054302e+000
0	 2.066670000003317e+000	 8.533360000018135e+000	 9.977253376827809e+000
0	 2.066670000003317e+000	 8.600030000017851e+000	 9.979142112844830e+000
0	 2.066670000003317e+000	 8.666700000016666e+000	 9.981004728457553e+000
0	 2.133340000006534e+000	 8.000000000000000e+000	 9.963957093406080e+000
0	 2.133340000006534e+000	 8.066670000003317e+000	 9.965845837011381e+000
0	 2.133340000006534e+000	 8.133340000006536e+000	 9.967729339887859e+000
0	 2.133340000006534e+000	 8.200010000009550e+000	 9.969605120248330e+000
0	 2.133340000006534e+000	 8.266680000012268e+000	 9.971470696305604e+000
0	 2.133340000006534e+000	 8.333350000014583e+000	 9.973323586272457e+000
0	 2.133340000006534e+000	 8.400020000016401e+000	 9.975161308361738e+000
0	 2.133340000006534e+000	 8.466690000017616e+000	 9.976981380786221e+000
0	 2.133340000006534e+000	 8.533360000018135e+000	 9.978781321758721e+000
0	 2.133340000006535e+000	 8.600030000017851e+000	 9.980558649492064e+000
0	 2.133340000006534e+000	 8.666700000016668e+000	 9.982310882199025e+000
0	 2.200010000009551e+000	 8.000000000000000e+000	 9.966602416544275e+000
0	 2.200010000009551e+000	 8.066670000003319e+000	 9.968341263036287e+000
0	 2.200010000009551e+000	 8.133340000006532e+000	 9.970082537367388e+000
0	 2.200010000009551e+000	 8.200010000009550e+000	 9.971822462271970e+000
0	 2.200010000009551e+000	 8.266680000012268e+000	 9.973557260484476e+000
0	 2.200010000009550e+000	 8.333350000014583e+000	 9.975283154739271e+000
0	 2.200010000009550e+000	 8.400020000016399e+000	 9.976996367770809e+000
0	 2.200010000009551e+000	 8.466690000017618e+000	 9.978693122313484e+000
0	 2.200010000009550e+000	 8.533360000018135e+000	 9.980369641101708e+000
0	 2.200010000009550e+000	 8.600030000017851e+000	 9.982022146869879e+000
0	 2.200010000009551e+000	 8.666700000016666e+000	 9.983646862352414e+000
0	 2.266680000012267e+000	 7.999999999999998e+000	 9.969233969081770e+000
0	 2.266680000012268e+000	 8.066670000003319e+000	 9.970847797175930e+000
0	 2.266680000012267e+000	 8.133340000006530e+000	 9.972465791485480e+000
0	 2.266680000012268e+000	 8.200010000009554e+000	 9.974083298927415e+000
0	 2.266680000012266e+000	 8.266680000012265e+000	 9.975695666418730e+000
0	 2.266680000012268e+000	 8.333350000014583e+000	 9.977298240876388e+000
0	 2.266680000012268e+000	 8.400020000016403e+000	 9.978886369217385e+000
0	 2.266680000012267e+000	 8.466690000017618e+000	 9.980455398358712e+000
0	 2.266680000012268e+000	 8.533360000018135e+000	 9.982000675217348e+000
0	 2.266680000012268e+000	 8.600030000017849e+000	 9.983517546710274e+000
0	 2.266680000012268e+000	 8.666700000016670e+000	 9.985001359754460e+000
0	 2.333350000014583e+000	 8.000000000000000e+000	 9.971854598810014e+000
0	 2.333350000014584e+000	 8.066670000003315e+000	 9.973361706726042e+000
0	 2.333350000014585e+000	 8.133340000006532e+000	 9.974869936775573e+000
0	 2.333350000014584e+000	 8.200010000009552e+000	 9.976374179719166e+000
0	 2.333350000014583e+000	 8.266680000012267e+000	 9.977869326317318e+000
0	 2.333350000014584e+000	 8.333350000014583e+000	 9.979350267330579e+000
0	 2.333350000014584e+000	 8.400020000016401e+000	 9.980811893519469e+000
0	 2.333350000014584e+000	 8.466690000017618e+000	 9.982249095644511e+000
0	 2.333350000014585e+000	 8.533360000018135e+000	 9.983656764466243e+000
0	 2.333350000014585e+000	 8.600030000017851e+000	 9.985029790745202e+000
0	 2.333350000014584e+000	 8.666700000016668e+000	 9.986363065241880e+000
0	 2.400020000016401e+000	 8.000000000000000e+000	 9.974467153520482e+000
0	 2.400020000016401e+000	 8.066670000003317e+000	 9.975879258982390e+000
0	 2.400020000016401e+000	 8.133340000006534e+000	 9.977285807771112e+000
0	 2.400020000016401e+000	 8.200010000009550e+000	 9.978681654151703e+000
0	 2.400020000016402e+000	 8.266680000012268e+000	 9.980061652389193e+000
0	 2.400020000016402e+000	 8.333350000014583e+000	 9.981420656748625e+000
0	 2.400020000016401e+000	 8.400020000016397e+000	 9.982753521495038e+000
0	 2.400020000016401e+000	 8.466690000017618e+000	 9.984055100893489e+000
0	 2.400020000016401e+000	 8.533360000018135e+000	 9.985320249209025e+000
0	 2.400020000016401e+000	 8.600030000017851e+000	 9.986543820706642e+000
0	 2.400020000016401e+000	 8.666700000016665e+000	 9.987720669651434e+000
0	 2.466690000017618e+000	 8.000000000000000e+000	 9.977074481004593e+000
0	 2.466690000017617e+000	 8.066670000003317e+000	 9.978396721240708e+000
0	 2.466690000017617e+000	 8.133340000006534e+000	 9.979704239005518e+000
0	 2.466690000017619e+000	 8.200010000009552e+000	 9.980992271729527e+000
0	 2.466690000017618e+000	 8.266680000012268e+000	 9.982256056843280e+000
0	 2.466690000017617e+000	 8.333350000014585e+000	 9.983490831777312e+000
0	 2.466690000017617e+000	 8.400020000016401e+000	 9.984691833962115e+000
0	 2.466690000017617e+000	 8.466690000017616e+000	 9.985854300828260e+000
0	 2.466690000017618e+000	 8.533360000018135e+000	 9.986973469806236e+000
0	 2.466690000017618e+000	 8.600030000017849e+000	 9.988044578326594e+000
0	 2.466690000017618e+000	 8.666700000016668e+000	 9.989062863819854e+000
0	 2.533360000018133e+000	 8.000000000000000e+000	 9.979679429053800e+000
0	 2.533360000018134e+000	 8.066670000003315e+000	 9.980910360796740e+000
0	 2.533360000018134e+000	 8.133340000006534e+000	 9.982116065012189e+000
0	 2.533360000018133e+000	 8.200010000009549e+000	 9.983292581957134e+000
0	 2.533360000018134e+000	 8.266680000012268e+000	 9.984435951888530e+000
0	 2.533360000018135e+000	 8.333350000014585e+000	 9.985542215063418e+000
0	 2.533360000018134e+000	 8.400020000016403e+000	 9.986607411738707e+000
0	 2.533360000018134e+000	 8.466690000017616e+000	 9.987627582171415e+000
0	 2.533360000018134e+000	 8.533360000018133e+000	 9.988598766618527e+000
0	 2.533360000018134e+000	 8.600030000017851e+000	 9.989517005337019e+000
0	 2.533360000018134e+000	 8.666700000016666e+000	 9.990378338583849e+000
0	 2.600030000017851e+000	 8.000000000000000e+000	 9.982284845459555e+000
0	 2.600030000017851e+000	 8.066670000003317e+000	 9.983416444946229e+000
0	 2.600030000017850e+000	 8.133340000006532e+000	 9.984512120324583e+000
0	 2.600030000017851e+000	 8.200010000009552e+000	 9.985569134339018e+000
0	 2.600030000017851e+000	 8.266680000012268e+000	 9.986584749733920e+000
0	 2.600030000017851e+000	 8.333350000014585e+000	 9.987556229253706e+000
0	 2.600030000017850e+000	 8.400020000016401e+000	 9.988480835642786e+000
0	 2.600030000017850e+000	 8.466690000017618e+000	 9.989355831645577e+000
0	 2.600030000017850e+000	 8.533360000018133e+000	 9.990178480006478e+000
0	 2.600030000017850e+000	 8.600030000017849e+000	 9.990946043469887e+000
0	 2.600030000017851e+000	 8.666700000016668e+000	 9.991655784780194e+000
0	 2.666700000016667e+000	 8.000000000000000e+000	 9.984893578013310e+000
0	 2.666700000016666e+000	 8.066670000003317e+000	 9.985911240984938e+000
0	 2.666700000016666e+000	 8.133340000006532e+000	 9.986883239476116e+000
0	 2.666700000016666e+000	 8.200010000009550e+000	 9.987808478379666e+000
0	 2.666700000016666e+000	 8.266680000012267e+000	 9.988685862588344e+000
0	 2.666700000016666e+000	 8.333350000014583e+000	 9.989514296994987e+000
0	 2.666700000016665e+000	 8.400020000016399e+000	 9.990292686492396e+000
0	 2.666700000016666e+000	 8.466690000017618e+000	 9.991019935973361e+000
0	 2.666700000016666e+000	 8.533360000018133e+000	 9.991694950330698e+000
0	 2.666700000016666e+000	 8.600030000017851e+000	 9.992316634457172e+000
0	 2.666700000016666e+000	 8.666700000016668e+000	 9.992883893245615e+000
0	 2.000000000000000e+000	 8.666700000016666e+000	 9.979739710291238e+000
0	 2.000000000000000e+000	 8.733360002791905e+000	 9.981621932221973e+000
0	 2.000000000000000e+000	 8.800020022230555e+000	 9.983399294869852e+000
0	 2.000000000000000e+000	 8.866680074997039e+000	 9.985076664520049e+000
0	 2.000000000000000e+000	 8.933340177755779e+000	 9.986658907729044e+000
0	 2.000000000000000e+000	 9.000000347171183e+000	 9.988150891324771e+000
0	 2.000000000000000e+000	 9.066660599907667e+000	 9.989557482406523e+000
0	 2.000000000000000e+000	 9.133320952629653e+000	 9.990883548344991e+000
0	 2.000000000000000e+000	 9.199981422001558e+000	 9.992133956782183e+000
0	 2.000000000000000e+000	 9.266642024687796e+000	 9.993313575631523e+000
0	 2.000000000000000e+000	 9.333302777352783e+000	 9.994427273077751e+000
0	 2.066670000003317e+000	 8.666700000016666e+000	 9.981004728457553e+000
0	 2.066670000003317e+000	 8.733360002791905e+000	 9.982797327498206e+000
0	 2.066670000003317e+000	 8.800020022230557e+000	 9.984481072656390e+000
0	 2.066670000003318e+000	 8.866680074997042e+000	 9.986061953622338e+000
0	 2.066670000003317e+000	 8.933340177755779e+000	 9.987545960346759e+000
0	 2.066670000003317e+000	 9.000000347171184e+000	 9.988939083040858e+000
0	 2.066670000003317e+000	 9.066660599907671e+000	 9.990247312176336e+000
0	 2.066670000003316e+000	 9.133320952629656e+000	 9.991476638485368e+000
0	 2.066670000003317e+000	 9.199981422001560e+000	 9.992633052960541e+000
0	 2.066670000003317e+000	 9.266642024687798e+000	 9.993722546854984e+000
0	 2.066670000003317e+000	 9.333302777352783e+000	 9.994751111682223e+000
0	 2.133340000006534e+000	 8.666700000016668e+000	 9.982310882199025e+000
0	 2.133340000006534e+000	 8.733360002791903e+000	 9.983993122308318e+000
0	 2.133340000006534e+000	 8.800020022230553e+000	 9.985567199829134e+000
0	 2.133340000006534e+000	 8.866680074997042e+000	 9.987039942081568e+000
0	 2.133340000006534e+000	 8.933340177755776e+000	 9.988418176630333e+000
0	 2.133340000006534e+000	 9.000000347171181e+000	 9.989708731284651e+000
0	 2.133340000006534e+000	 9.066660599907666e+000	 9.990918434098449e+000
0	 2.133340000006534e+000	 9.133320952629655e+000	 9.992054113370150e+000
0	 2.133340000006534e+000	 9.199981422001558e+000	 9.993122597642753e+000
0	 2.133340000006534e+000	 9.266642024687796e+000	 9.994130715703863e+000
0	 2.133340000006534e+000	 9.333302777352783e+000	 9.995085296585648e+000
0	 2.200010000009551e+000	 8.666700000016666e+000	 9.983646862352414e+000
0	 2.200010000009551e+000	 8.733360002791905e+000	 9.985201992090206e+000
0	 2.200010000009551e+000	 8.800020022230557e+000	 9.986653660981686e+000
0	 2.200010000009550e+000	 8.866680074997039e+000	 9.988009248199875e+000
0	 2.200010000009551e+000	 8.933340177755778e+000	 9.989276133142500e+000
0	 2.200010000009550e+000	 9.000000347171183e+000	 9.990461695431971e+000
0	 2.200010000009550e+000	 9.066660599907667e+000	 9.991573314915483e+000
0	 2.200010000009551e+000	 9.133320952629656e+000	 9.992618371664840e+000
0	 2.200010000009551e+000	 9.199981422001558e+000	 9.993604245976623e+000
0	 2.200010000009551e+000	 9.266642024687799e+000	 9.994538318372106e+000
0	 2.200010000009551e+000	 9.333302777352783e+000	 9.995427969597156e+000
0	 2.266680000012268e+000	 8.666700000016670e+000	 9.985001359754460e+000
0	 2.266680000012267e+000	 8.733360002791901e+000	 9.986416612281728e+000
0	 2.266680000012267e+000	 8.800020022230553e+000	 9.987736440707614e+000
0	 2.266680000012267e+000	 8.866680074997042e+000	 9.988968490279357e+000
0	 2.266680000012268e+000	 8.933340177755781e+000	 9.990120406446051e+000
0	 2.266680000012268e+000	 9.000000347171181e+000	 9.991199834858680e+000
0	 2.266680000012267e+000	 9.066660599907669e+000	 9.992214421370095e+000
0	 2.266680000012268e+000	 9.133320952629653e+000	 9.993171812035035e+000
0	 2.266680000012267e+000	 9.199981422001558e+000	 9.994079653110068e+000
0	 2.266680000012267e+000	 9.266642024687796e+000	 9.994945591053620e+000
0	 2.266680000012268e+000	 9.333302777352783e+000	 9.995777272525986e+000
0	 2.333350000014584e+000	 8.666700000016668e+000	 9.986363065241880e+000
0	 2.333350000014585e+000	 8.733360002791905e+000	 9.987629658320778e+000
0	 2.333350000014585e+000	 8.800020022230557e+000	 9.988811523600507e+000
0	 2.333350000014584e+000	 8.866680074997040e+000	 9.989916286622099e+000
0	 2.333350000014585e+000	 8.933340177755779e+000	 9.990951573103711e+000
0	 2.333350000014585e+000	 9.000000347171183e+000	 9.991925008940552e+000
0	 2.333350000014585e+000	 9.066660599907669e+000	 9.992844220204951e+000
0	 2.333350000014584e+000	 9.133320952629658e+000	 9.993716833146262e+000
0	 2.333350000014585e+000	 9.199981422001560e+000	 9.994550474190902e+000
0	 2.333350000014584e+000	 9.266642024687796e+000	 9.995352769942402e+000
0	 2.333350000014584e+000	 9.333302777352781e+000	 9.996131347181251e+000
0	 2.400020000016401e+000	 8.666700000016665e+000	 9.987720669651433e+000
0	 2.400020000016400e+000	 8.733360002791899e+000	 9.988833805645260e+000
0	 2.400020000016401e+000	 8.800020022230555e+000	 9.989874894253926e+000
0	 2.400020000016401e+000	 8.866680074997040e+000	 9.990851255530226e+000
0	 2.400020000016402e+000	 8.933340177755779e+000	 9.991770209678254e+000
0	 2.400020000016401e+000	 9.000000347171181e+000	 9.992639077053468e+000
0	 2.400020000016401e+000	 9.066660599907667e+000	 9.993465178162696e+000
0	 2.400020000016401e+000	 9.133320952629655e+000	 9.994255833664049e+000
0	 2.400020000016401e+000	 9.199981422001558e+000	 9.995018364367001e+000
0	 2.400020000016402e+000	 9.266642024687796e+000	 9.995760091232352e+000
0	 2.400020000016400e+000	 9.333302777352781e+000	 9.996488335372167e+000
0	 2.466690000017618e+000	 8.666700000016668e+000	 9.989062863819854e+000
0	 2.466690000017617e+000	 8.733360002791901e+000	 9.990021729693023e+000
0	 2.466690000017618e+000	 8.800020022230559e+000	 9.990922537261476e+000
0	 2.466690000017618e+000	 8.866680074997042e+000	 9.991772015305839e+000
0	 2.466690000017617e+000	 8.933340177755776e+000	 9.992576892732425e+000
0	 2.466690000017618e+000	 9.000000347171183e+000	 9.993343898573247e+000
0	 2.466690000017617e+000	 9.066660599907667e+000	 9.994079761985963e+000
0	 2.466690000017618e+000	 9.133320952629656e+000	 9.994791212253960e+000
0	 2.466690000017618e+000	 9.199981422001557e+000	 9.995484978786211e+000
0	 2.466690000017618e+000	 9.266642024687798e+000	 9.996167791117419e+000
0	 2.466690000017618e+000	 9.333302777352783e+000	 9.996846378907872e+000
0	 2.533360000018134e+000	 8.666700000016666e+000	 9.990378338583845e+000
0	 2.533360000018134e+000	 8.733360002791899e+000	 9.991186105901965e+000
0	 2.533360000018134e+000	 8.800020022230557e+000	 9.991950437216705e+000
0	 2.533360000018134e+000	 8.866680074997042e+000	 9.992677184251027e+000
0	 2.533360000018135e+000	 8.933340177755779e+000	 9.993372198828967e+000
0	 2.533360000018135e+000	 9.000000347171181e+000	 9.994041332875693e+000
0	 2.533360000018134e+000	 9.066660599907667e+000	 9.994690438417445e+000
0	 2.533360000018135e+000	 9.133320952629656e+000	 9.995325367581513e+000
0	 2.533360000018134e+000	 9.199981422001557e+000	 9.995951972596396e+000
0	 2.533360000018134e+000	 9.266642024687798e+000	 9.996576105791545e+000
0	 2.533360000018134e+000	 9.333302777352783e+000	 9.997203619597553e+000
0	 2.600030000017851e+000	 8.666700000016668e+000	 9.991655784780194e+000
0	 2.600030000017851e+000	 8.733360002791903e+000	 9.992319609709959e+000
0	 2.600030000017850e+000	 8.800020022230555e+000	 9.992954578713215e+000
0	 2.600030000017850e+000	 8.866680074997042e+000	 9.993565380667915e+000
0	 2.600030000017851e+000	 8.933340177755778e+000	 9.994156704530660e+000
0	 2.600030000017851e+000	 9.000000347171183e+000	 9.994733239336664e+000
0	 2.600030000017851e+000	 9.066660599907669e+000	 9.995299674199725e+000
0	 2.600030000017851e+000	 9.133320952629655e+000	 9.995860698312276e+000
0	 2.600030000017851e+000	 9.199981422001558e+000	 9.996421000945402e+000
0	 2.600030000017851e+000	 9.266642024687798e+000	 9.996985271448681e+000
0	 2.600030000017850e+000	 9.333302777352781e+000	 9.997558199250396e+000
0	 2.666700000016666e+000	 8.666700000016668e+000	 9.992883893245612e+000
0	 2.666700000016667e+000	 8.733360002791903e+000	 9.993414916554883e+000
0	 2.666700000016667e+000	 8.800020022230555e+000	 9.993930946344552e+000
0	 2.666700000016666e+000	 8.866680074997040e+000	 9.994435222858606e+000
0	 2.666700000016667e+000	 8.933340177755779e+000	 9.994930986400249e+000
0	 2.666700000016666e+000	 9.000000347171183e+000	 9.995421477331981e+000
0	 2.666700000016666e+000	 9.066660599907667e+000	 9.995909936075490e+000
0	 2.666700000016666e+000	 9.133320952629655e+000	 9.996399603111795e+000
0	 2.666700000016667e+000	 9.199981422001557e+000	 9.996893718981072e+000
0	 2.666700000016667e+000	 9.266642024687794e+000	 9.997395524282759e+000
0	 2.666700000016666e+000	 9.333302777352785e+000	 9.997908259675528e+000
0	 2.000000000000000e+000	 9.333302777352783e+000	 9.994427273077751e+000
0	 2.000000000000000e+000	 9.399973674588177e+000	 9.995454573238883e+000
0	 2.000000000000000e+000	 9.466644621844621e+000	 9.996372977583988e+000
0	 2.000000000000000e+000	 9.533315502449998e+000	 9.997184805818279e+000
0	 2.000000000000000e+000	 9.599986199732198e+000	 9.997892375219800e+000
0	 2.000000000000000e+000	 9.666656597019093e+000	 9.998498000639083e+000
0	 2.000000000000000e+000	 9.733326577638575e+000	 9.999003994498715e+000
0	 2.000000000000000e+000	 9.799996024918524e+000	 9.999412666792802e+000
0	 2.000000000000000e+000	 9.866664822186822e+000	 9.999726325086414e+000
0	 2.000000000000000e+000	 9.933332852771352e+000	 9.999947274514936e+000
0	 2.000000000000000e+000	 1.000000000000000e+001	 1.000007781778329e+001
0	 2.066670000003317e+000	 9.333302777352783e+000	 9.994751111682222e+000
0	 2.066670000003317e+000	 9.399973674588177e+000	 9.995703466878815e+000
0	 2.066670000003317e+000	 9.466644621844623e+000	 9.996560413103815e+000
0	 2.066670000003317e+000	 9.533315502450000e+000	 9.997322512297558e+000
0	 2.066670000003317e+000	 9.599986199732197e+000	 9.997990324145494e+000
0	 2.066670000003318e+000	 9.666656597019095e+000	 9.998564406077682e+000
0	 2.066670000003317e+000	 9.733326577638573e+000	 9.999045313268399e+000
0	 2.066670000003318e+000	 9.799996024918524e+000	 9.999433598635644e+000
0	 2.066670000003318e+000	 9.866664822186822e+000	 9.999729812840592e+000
0	 2.066670000003317e+000	 9.933332852771352e+000	 9.999934504286953e+000
0	 2.066670000003316e+000	 9.999999999999998e+000	 1.000004821912030e+001
0	 2.133340000006534e+000	 9.333302777352783e+000	 9.995085296585646e+000
0	 2.133340000006534e+000	 9.399973674588177e+000	 9.995973124995098e+000
0	 2.133340000006534e+000	 9.466644621844621e+000	 9.996775571414872e+000
0	 2.133340000006534e+000	 9.533315502450003e+000	 9.997491760723500e+000
0	 2.133340000006534e+000	 9.599986199732195e+000	 9.998120815689784e+000
0	 2.133340000006534e+000	 9.666656597019093e+000	 9.998661856972460e+000
0	 2.133340000006534e+000	 9.733326577638577e+000	 9.999114003119638e+000
0	 2.133340000006534e+000	 9.799996024918523e+000	 9.999476370568514e+000
0	 2.133340000006534e+000	 9.866664822186820e+000	 9.999748073644710e+000
0	 2.133340000006534e+000	 9.933332852771351e+000	 9.999928224561513e+000
0	 2.133340000006534e+000	 1.000000000000000e+001	 1.000001593341965e+001
0	 2.200010000009551e+000	 9.333302777352783e+000	 9.995427969597154e+000
0	 2.200010000009551e+000	 9.399973674588173e+000	 9.996259524406550e+000
0	 2.200010000009550e+000	 9.466644621844621e+000	 9.997012799282631e+000
0	 2.200010000009551e+000	 9.533315502450000e+000	 9.997685802736774e+000
0	 2.200010000009550e+000	 9.599986199732197e+000	 9.998276541294461e+000
0	 2.200010000009551e+000	 9.666656597019095e+000	 9.998783019495026e+000
0	 2.200010000009551e+000	 9.733326577638573e+000	 9.999203239891198e+000
0	 2.200010000009551e+000	 9.799996024918523e+000	 9.999535203048620e+000
0	 2.200010000009550e+000	 9.866664822186822e+000	 9.999776907545284e+000
0	 2.200010000009551e+000	 9.933332852771354e+000	 9.999926349971107e+000
0	 2.200010000009550e+000	 1.000000000000000e+001	 9.999981524927073e+000
0	 2.266680000012268e+000	 9.333302777352783e+000	 9.995777272525990e+000
0	 2.266680000012267e+000	 9.399973674588175e+000	 9.996558641932021e+000
0	 2.266680000012268e+000	 9.466644621844619e+000	 9.997266443472604e+000
0	 2.266680000012268e+000	 9.533315502450002e+000	 9.997897889978125e+000
0	 2.266680000012268e+000	 9.599986199732197e+000	 9.998450192401334e+000
0	 2.266680000012267e+000	 9.666656597019093e+000	 9.998920559817062e+000
0	 2.266680000012268e+000	 9.733326577638575e+000	 9.999306199421731e+000
0	 2.266680000012268e+000	 9.799996024918526e+000	 9.999604316532963e+000
0	 2.266680000012268e+000	 9.866664822186824e+000	 9.999812114589018e+000
0	 2.266680000012268e+000	 9.933332852771354e+000	 9.999926795148211e+000
0	 2.266680000012268e+000	 1.000000000000000e+001	 9.999945557888410e+000
0	 2.333350000014584e+000	 9.333302777352781e+000	 9.996131347181255e+000
0	 2.333350000014584e+000	 9.399973674588173e+000	 9.996866454390327e+000
0	 2.333350000014584e+000	 9.466644621844621e+000	 9.997530850750195e+000
0	 2.333350000014584e+000	 9.533315502450002e+000	 9.998121274088188e+000
0	 2.333350000014584e+000	 9.599986199732197e+000	 9.998634460452182e+000
0	 2.333350000014585e+000	 9.666656597019093e+000	 9.999067144110153e+000
0	 2.333350000014584e+000	 9.733326577638575e+000	 9.999416057549949e+000
0	 2.333350000014584e+000	 9.799996024918523e+000	 9.999677931478722e+000
0	 2.333350000014584e+000	 9.866664822186822e+000	 9.999849494822403e+000
0	 2.333350000014584e+000	 9.933332852771352e+000	 9.999927474725284e+000
0	 2.333350000014584e+000	 1.000000000000000e+001	 9.999908596549277e+000
0	 2.400020000016400e+000	 9.333302777352781e+000	 9.996488335372169e+000
0	 2.400020000016401e+000	 9.399973674588178e+000	 9.997178938600314e+000
0	 2.400020000016401e+000	 9.466644621844623e+000	 9.997800367880918e+000
0	 2.400020000016401e+000	 9.533315502450002e+000	 9.998349206707747e+000
0	 2.400020000016401e+000	 9.599986199732197e+000	 9.998822036888795e+000
0	 2.400020000016402e+000	 9.666656597019093e+000	 9.999215438545971e+000
0	 2.400020000016401e+000	 9.733326577638579e+000	 9.999525990114581e+000
0	 2.400020000016401e+000	 9.799996024918523e+000	 9.999750268342977e+000
0	 2.400020000016401e+000	 9.866664822186822e+000	 9.999884848292098e+000
0	 2.400020000016401e+000	 9.933332852771351e+000	 9.999926303334799e+000
0	 2.400020000016401e+000	 1.000000000000000e+001	 9.999871205155520e+000
0	 2.466690000017618e+000	 9.333302777352783e+000	 9.996846378907874e+000
0	 2.466690000017618e+000	 9.399973674588177e+000	 9.997492071380835e+000
0	 2.466690000017618e+000	 9.466644621844623e+000	 9.998069341630211e+000
0	 2.466690000017617e+000	 9.533315502450000e+000	 9.998574939477406e+000
0	 2.466690000017617e+000	 9.599986199732198e+000	 9.999005613153004e+000
0	 2.466690000017618e+000	 9.666656597019095e+000	 9.999358109296120e+000
0	 2.466690000017618e+000	 9.733326577638577e+000	 9.999629172954268e+000
0	 2.466690000017617e+000	 9.799996024918523e+000	 9.999815547582864e+000
0	 2.466690000017617e+000	 9.866664822186822e+000	 9.999913975044617e+000
0	 2.466690000017618e+000	 9.933332852771354e+000	 9.999921195609243e+000
0	 2.466690000017618e+000	 1.000000000000000e+001	 9.999833947952872e+000
0	 2.533360000018134e+000	 9.333302777352783e+000	 9.997203619597549e+000
0	 2.533360000018134e+000	 9.399973674588177e+000	 9.997801829550710e+000
0	 2.533360000018134e+000	 9.466644621844621e+000	 9.998332118763546e+000
0	 2.533360000018134e+000	 9.533315502450002e+000	 9.998791724037961e+000
0	 2.533360000018134e+000	 9.599986199732197e+000	 9.999177880686569e+000
0	 2.533360000018134e+000	 9.666656597019095e+000	 9.999487822532222e+000
0	 2.533360000018135e+000	 9.733326577638575e+000	 9.999718781907736e+000
0	 2.533360000018134e+000	 9.799996024918524e+000	 9.999867989655423e+000
0	 2.533360000018134e+000	 9.866664822186824e+000	 9.999932675126605e+000
0	 2.533360000018134e+000	 9.933332852771354e+000	 9.999910066181162e+000
0	 2.533360000018134e+000	 1.000000000000000e+001	 9.999797389186997e+000
0	 2.600030000017850e+000	 9.333302777352781e+000	 9.997558199250394e+000
0	 2.600030000017851e+000	 9.399973674588177e+000	 9.998104189928798e+000
0	 2.600030000017850e+000	 9.466644621844619e+000	 9.998583046046377e+000
0	 2.600030000017850e+000	 9.533315502450002e+000	 9.998992812030025e+000
0	 2.600030000017850e+000	 9.599986199732197e+000	 9.999331530931276e+000
0	 2.600030000017850e+000	 9.666656597019093e+000	 9.999597244425919e+000
0	 2.600030000017850e+000	 9.733326577638575e+000	 9.999787992813726e+000
0	 2.600030000017850e+000	 9.799996024918523e+000	 9.999901815017843e+000
0	 2.600030000017851e+000	 9.866664822186824e+000	 9.999936748584631e+000
0	 2.600030000017850e+000	 9.933332852771351e+000	 9.999890829682988e+000
0	 2.600030000017850e+000	 1.000000000000000e+001	 9.999762093103815e+000
0	 2.666700000016666e+000	 9.333302777352785e+000	 9.997908259675528e+000
0	 2.666700000016666e+000	 9.399973674588178e+000	 9.998395129333922e+000
0	 2.666700000016666e+000	 9.466644621844617e+000	 9.998816470244195e+000
0	 2.666700000016666e+000	 9.533315502450000e+000	 9.999171455094341e+000
0	 2.666700000016666e+000	 9.599986199732197e+000	 9.999459255328945e+000
0	 2.666700000016667e+000	 9.666656597019095e+000	 9.999679041148861e+000
0	 2.666700000016666e+000	 9.733326577638575e+000	 9.999829981510832e+000
0	 2.666700000016667e+000	 9.799996024918521e+000	 9.999911244127180e+000
0	 2.666700000016666e+000	 9.866664822186822e+000	 9.999921995465272e+000
0	 2.666700000016666e+000	 9.933332852771351e+000	 9.999861400747113e+000
0	 2.666700000016666e+000	 1.000000000000000e+001	 9.999728623948915e+000
0	 2.666700000016666e+000	 0.000000000000000e+000	 1.101886067912833e+001
0	 2.666700000016666e+000	 6.666714722864756e-002	 1.118776207500854e+001
0	 2.666700000016666e+000	 1.333351778131789e-001	 1.131281551187191e+001
0	 2.666700000016666e+000	 2.000039750814772e-001	 1.140024242054241e+001
0	 2.666700000016666e+000	 2.666734223614255e-001	 1.145626423650060e+001
0	 2.666700000016666e+000	 3.333434029809069e-001	 1.148710239989406e+001
0	 2.666700000016666e+000	 4.000138002678045e-001	 1.149897835554786e+001
0	 2.666700000016666e+000	 4.666844975500011e-001	 1.149811355297522e+001
0	 2.666700000016666e+000	 5.333553781553803e-001	 1.149072944638826e+001
0	 2.666700000016666e+000	 6.000263254118247e-001	 1.148304749470886e+001
0	 2.666700000016666e+000	 6.666972226472175e-001	 1.148128916157970e+001
0	 2.733360000014533e+000	 0.000000000000000e+000	 1.054953763472243e+001
0	 2.733360000014533e+000	 6.666714722864756e-002	 1.073709471460770e+001
0	 2.733360000014533e+000	 1.333351778131789e-001	 1.089099665223306e+001
0	 2.733360000014533e+000	 2.000039750814772e-001	 1.101507396803030e+001
0	 2.733360000014532e+000	 2.666734223614255e-001	 1.111315711803323e+001
0	 2.733360000014533e+000	 3.333434029809069e-001	 1.118907649389873e+001
0	 2.733360000014533e+000	 4.000138002678044e-001	 1.124666242292625e+001
0	 2.733360000014533e+000	 4.666844975500011e-001	 1.128974516807557e+001
0	 2.733360000014533e+000	 5.333553781553801e-001	 1.132215492798280e+001
0	 2.733360000014533e+000	 6.000263254118246e-001	 1.134772183697483e+001
0	 2.733360000014533e+000	 6.666972226472175e-001	 1.137027596508195e+001
0	 2.800020000011600e+000	 0.000000000000000e+000	 1.023679394908998e+001
0	 2.800020000011600e+000	 6.666714722864754e-002	 1.042093831057929e+001
0	 2.800020000011600e+000	 1.333351778131790e-001	 1.058193368378890e+001
0	 2.800020000011600e+000	 2.000039750814773e-001	 1.072157109766960e+001
0	 2.800020000011600e+000	 2.666734223614255e-001	 1.084164147725717e+001
0	 2.800020000011600e+000	 3.333434029809069e-001	 1.094393564369912e+001
0	 2.800020000011600e+000	 4.000138002678044e-001	 1.103024431427870e+001
0	 2.800020000011600e+000	 4.666844975500012e-001	 1.110235810243617e+001
0	 2.800020000011600e+000	 5.333553781553803e-001	 1.116206751778741e+001
0	 2.800020000011599e+000	 6.000263254118249e-001	 1.121116296613972e+001
0	 2.800020000011599e+000	 6.666972226472175e-001	 1.125143474950493e+001
0	 2.866680000008067e+000	 0.000000000000000e+000	 1.005943035889825e+001
0	 2.866680000008066e+000	 6.666714722864754e-002	 1.022264580801929e+001
0	 2.866680000008067e+000	 1.333351778131790e-001	 1.037309063979027e+001
0	 2.866680000008066e+000	 2.000039750814772e-001	 1.051086784855195e+001
0	 2.866680000008067e+000	 2.666734223614255e-001	 1.063608031011760e+001
0	 2.866680000008067e+000	 3.333434029809069e-001	 1.074883078180104e+001
0	 2.866680000008067e+000	 4.000138002678044e-001	 1.084922190244156e+001
0	 2.866680000008067e+000	 4.666844975500011e-001	 1.093735619242580e+001
0	 2.866680000008066e+000	 5.333553781553803e-001	 1.101333605370640e+001
0	 2.866680000008067e+000	 6.000263254118248e-001	 1.107726376981771e+001
0	 2.866680000008067e+000	 6.666972226472177e-001	 1.112924150588816e+001
0	 2.933340000004133e+000	 0.000000000000000e+000	 9.996247600813943e+000
0	 2.933340000004133e+000	 6.666714722864756e-002	 1.012557015202301e+001
0	 2.933340000004133e+000	 1.333351778131789e-001	 1.025193155348726e+001
0	 2.933340000004133e+000	 2.000039750814772e-001	 1.037409825976826e+001
0	 2.933340000004134e+000	 2.666734223614256e-001	 1.049083661255894e+001
0	 2.933340000004133e+000	 3.333434029809070e-001	 1.060091284070956e+001
0	 2.933340000004133e+000	 4.000138002678044e-001	 1.070309306025058e+001
0	 2.933340000004133e+000	 4.666844975500011e-001	 1.079614327441266e+001
0	 2.933340000004134e+000	 5.333553781553803e-001	 1.087882937364363e+001
0	 2.933340000004133e+000	 6.000263254118248e-001	 1.094991713562257e+001
0	 2.933340000004133e+000	 6.666972226472175e-001	 1.100817222527086e+001
0	 3.000000000000000e+000	 0.000000000000000e+000	 1.002604641150313e+001
0	 3.000000000000000e+000	 6.666714722864756e-002	 1.011306428768502e+001
0	 3.000000000000000e+000	 1.333351778131790e-001	 1.020592045812923e+001
0	 3.000000000000000e+000	 2.000039750814773e-001	 1.030239637040868e+001
0	 3.000000000000000e+000	 2.666734223614255e-001	 1.040027338052490e+001
0	 3.000000000000001e+000	 3.333434029809069e-001	 1.049733275292911e+001
0	 3.000000000000000e+000	 4.000138002678044e-001	 1.059135566054088e+001
0	 3.000000000000000e+000	 4.666844975500011e-001	 1.068012318476443e+001
0	 3.000000000000000e+000	 5.333553781553801e-001	 1.076141631550248e+001
0	 3.000000000000000e+000	 6.000263254118247e-001	 1.083301595116773e+001
0	 3.000000000000001e+000	 6.666972226472178e-001	 1.089270289869192e+001
0	 3.066659999995866e+000	 0.000000000000000e+000	 1.012762752763128e+001
0	 3.066659999995867e+000	 6.666714722864757e-002	 1.016848116009922e+001
0	 3.066659999995868e+000	 1.333351778131789e-001	 1.022252138696476e+001
0	 3.066659999995867e+000	 2.000039750814772e-001	 1.028689621956260e+001
0	 3.066659999995867e+000	 2.666734223614256e-001	 1.035875360995843e+001
0	 3.066659999995867e+000	 3.333434029809069e-001	 1.043524145096339e+001
0	 3.066659999995868e+000	 4.000138002678044e-001	 1.051350757614695e+001
0	 3.066659999995868e+000	 4.666844975500012e-001	 1.059069975984824e+001
0	 3.066659999995868e+000	 5.333553781553801e-001	 1.066396571718590e+001
0	 3.066659999995868e+000	 6.000263254118249e-001	 1.073045310406625e+001
0	 3.066659999995867e+000	 6.666972226472177e-001	 1.078730951719003e+001
0	 3.133319999991934e+000	 0.000000000000000e+000	 1.027979168586326e+001
0	 3.133319999991935e+000	 6.666714722864757e-002	 1.027517371435883e+001
0	 3.133319999991934e+000	 1.333351778131790e-001	 1.028919837324172e+001
0	 3.133319999991934e+000	 2.000039750814772e-001	 1.031873184631865e+001
0	 3.133319999991934e+000	 2.666734223614255e-001	 1.036064029680175e+001
0	 3.133319999991933e+000	 3.333434029809069e-001	 1.041178986731543e+001
0	 3.133319999991933e+000	 4.000138002678043e-001	 1.046904667990264e+001
0	 3.133319999991934e+000	 4.666844975500011e-001	 1.052927683603067e+001
0	 3.133319999991934e+000	 5.333553781553804e-001	 1.058934641659636e+001
0	 3.133319999991935e+000	 6.000263254118247e-001	 1.064612148193081e+001
0	 3.133319999991934e+000	 6.666972226472177e-001	 1.069646807180351e+001
0	 3.199979999988401e+000	 0.000000000000000e+000	 1.046133962286336e+001
0	 3.199979999988400e+000	 6.666714722864756e-002	 1.041649489555632e+001
0	 3.199979999988400e+000	 1.333351778131789e-001	 1.039341545020719e+001
0	 3.199979999988401e+000	 2.000039750814773e-001	 1.038903728976469e+001
0	 3.199979999988400e+000	 2.666734223614255e-001	 1.040029643699635e+001
0	 3.199979999988401e+000	 3.333434029809070e-001	 1.042412893448756e+001
0	 3.199979999988401e+000	 4.000138002678044e-001	 1.045747084464121e+001
0	 3.199979999988401e+000	 4.666844975500011e-001	 1.049725824967775e+001
0	 3.199979999988401e+000	 5.333553781553801e-001	 1.054042725163589e+001
0	 3.199979999988401e+000	 6.000263254118249e-001	 1.058391397237372e+001
0	 3.199979999988400e+000	 6.666972226472175e-001	 1.062465455357043e+001
0	 3.266639999985468e+000	 0.000000000000000e+000	 1.065107207529522e+001
0	 3.266639999985468e+000	 6.666714722864756e-002	 1.057579764878351e+001
0	 3.266639999985467e+000	 1.333351778131789e-001	 1.052263665110753e+001
0	 3.266639999985468e+000	 2.000039750814772e-001	 1.048894658898784e+001
0	 3.266639999985468e+000	 2.666734223614255e-001	 1.047208502648296e+001
0	 3.266639999985467e+000	 3.333434029809068e-001	 1.046940958498143e+001
0	 3.266639999985467e+000	 4.000138002678043e-001	 1.047827794319528e+001
0	 3.266639999985468e+000	 4.666844975500012e-001	 1.049604783715498e+001
0	 3.266639999985467e+000	 5.333553781553803e-001	 1.052007706020604e+001
0	 3.266639999985467e+000	 6.000263254118246e-001	 1.054772346300691e+001
0	 3.266639999985468e+000	 6.666972226472178e-001	 1.057634495352860e+001
0	 3.333299999983334e+000	 0.000000000000000e+000	 1.082778977982192e+001
0	 3.333299999983333e+000	 6.666714722864756e-002	 1.073643491913149e+001
0	 3.333299999983333e+000	 1.333351778131789e-001	 1.066432600918836e+001
0	 3.333299999983334e+000	 2.000039750814772e-001	 1.060959378307444e+001
0	 3.333299999983334e+000	 2.666734223614256e-001	 1.057036906120159e+001
0	 3.333299999983334e+000	 3.333434029809069e-001	 1.054478275129799e+001
0	 3.333299999983334e+000	 4.000138002678044e-001	 1.053096584839684e+001
0	 3.333299999983333e+000	 4.666844975500011e-001	 1.052704943482732e+001
0	 3.333299999983335e+000	 5.333553781553803e-001	 1.053116468020794e+001
0	 3.333299999983334e+000	 6.000263254118248e-001	 1.054144284144198e+001
0	 3.333299999983334e+000	 6.666972226472175e-001	 1.055601526271548e+001
0	 2.666700000016666e+000	 6.666972226472175e-001	 1.148128916157970e+001
0	 2.666700000016666e+000	 7.333579753122047e-001	 1.148335576102562e+001
0	 2.666700000016666e+000	 8.000185779984416e-001	 1.148256551952023e+001
0	 2.666700000016666e+000	 8.666790473703453e-001	 1.147826381384362e+001
0	 2.666700000016666e+000	 9.333394000923323e-001	 1.146979604161323e+001
0	 2.666700000016665e+000	 9.999996528288190e-001	 1.145650762128448e+001
0	 2.666700000016666e+000	 1.066659822244222e+000	 1.143774399215114e+001
0	 2.666700000016667e+000	 1.133319925002959e+000	 1.141285061434576e+001
0	 2.666700000016667e+000	 1.199979977769445e+000	 1.138117296884005e+001
0	 2.666700000016666e+000	 1.266639997208098e+000	 1.134205655744506e+001
0	 2.666700000016667e+000	 1.333299999983334e+000	 1.129484690281135e+001
0	 2.733360000014533e+000	 6.666972226472175e-001	 1.137027596508195e+001
0	 2.733360000014533e+000	 7.333579753122049e-001	 1.138954820006171e+001
0	 2.733360000014532e+000	 8.000185779984417e-001	 1.140252989032402e+001
0	 2.733360000014533e+000	 8.666790473703454e-001	 1.140893171773345e+001
0	 2.733360000014533e+000	 9.333394000923319e-001	 1.140846438356082e+001
0	 2.733360000014533e+000	 9.999996528288192e-001	 1.140083860848367e+001
0	 2.733360000014532e+000	 1.066659822244222e+000	 1.138576513258674e+001
0	 2.733360000014533e+000	 1.133319925002959e+000	 1.136295471536227e+001
0	 2.733360000014533e+000	 1.199979977769445e+000	 1.133211813571037e+001
0	 2.733360000014533e+000	 1.266639997208098e+000	 1.129296619193917e+001
0	 2.733360000014532e+000	 1.333299999983334e+000	 1.124520970176499e+001
0	 2.800020000011599e+000	 6.666972226472175e-001	 1.125143474950493e+001
0	 2.800020000011599e+000	 7.333579753122049e-001	 1.128359850933595e+001
0	 2.800020000011599e+000	 8.000185779984415e-001	 1.130720326261964e+001
0	 2.800020000011600e+000	 8.666790473703455e-001	 1.132227290499793e+001
0	 2.800020000011600e+000	 9.333394000923321e-001	 1.132883134926041e+001
0	 2.800020000011600e+000	 9.999996528288189e-001	 1.132690252534481e+001
0	 2.800020000011600e+000	 1.066659822244222e+000	 1.131651038033736e+001
0	 2.800020000011600e+000	 1.133319925002959e+000	 1.129767887847311e+001
0	 2.800020000011600e+000	 1.199979977769445e+000	 1.127043200113623e+001
0	 2.800020000011600e+000	 1.266639997208098e+000	 1.123479374686015e+001
0	 2.800020000011600e+000	 1.333299999983334e+000	 1.119078813132768e+001
0	 2.866680000008067e+000	 6.666972226472177e-001	 1.112924150588816e+001
0	 2.866680000008067e+000	 7.333579753122049e-001	 1.117027841953093e+001
0	 2.866680000008066e+000	 8.000185779984417e-001	 1.120151943210806e+001
0	 2.866680000008067e+000	 8.666790473703453e-001	 1.122324956075798e+001
0	 2.866680000008067e+000	 9.333394000923322e-001	 1.123575383688134e+001
0	 2.866680000008067e+000	 9.999996528288191e-001	 1.123931730614135e+001
0	 2.866680000008066e+000	 1.066659822244222e+000	 1.123422502846412e+001
0	 2.866680000008066e+000	 1.133319925002958e+000	 1.122076207803898e+001
0	 2.866680000008067e+000	 1.199979977769445e+000	 1.119921354331862e+001
0	 2.866680000008067e+000	 1.266639997208098e+000	 1.116986452701931e+001
0	 2.866680000008067e+000	 1.333299999983334e+000	 1.113300014612102e+001
0	 2.933340000004133e+000	 6.666972226472175e-001	 1.100817222527086e+001
0	 2.933340000004133e+000	 7.333579753122048e-001	 1.105435966132902e+001
0	 2.933340000004134e+000	 8.000185779984418e-001	 1.109041219449008e+001
0	 2.933340000004133e+000	 8.666790473703455e-001	 1.111682387013445e+001
0	 2.933340000004133e+000	 9.333394000923322e-001	 1.113408874459288e+001
0	 2.933340000004134e+000	 9.999996528288188e-001	 1.114270088514671e+001
0	 2.933340000004133e+000	 1.066659822244222e+000	 1.114315437002817e+001
0	 2.933340000004133e+000	 1.133319925002958e+000	 1.113594328842058e+001
0	 2.933340000004133e+000	 1.199979977769445e+000	 1.112156174045854e+001
0	 2.933340000004133e+000	 1.266639997208098e+000	 1.110050383722804e+001
0	 2.933340000004133e+000	 1.333299999983334e+000	 1.107326370076663e+001
0	 3.000000000000001e+000	 6.666972226472178e-001	 1.089270289869192e+001
0	 3.000000000000000e+000	 7.333579753122049e-001	 1.094061396541239e+001
0	 3.000000000000001e+000	 8.000185779984418e-001	 1.097881534546635e+001
0	 3.000000000000001e+000	 8.666790473703453e-001	 1.100795801824805e+001
0	 3.000000000000000e+000	 9.333394000923321e-001	 1.102869297056421e+001
0	 3.000000000000000e+000	 9.999996528288189e-001	 1.104167119663429e+001
0	 3.000000000000000e+000	 1.066659822244222e+000	 1.104754369809062e+001
0	 3.000000000000000e+000	 1.133319925002959e+000	 1.104696148397865e+001
0	 3.000000000000001e+000	 1.199979977769445e+000	 1.104057557075702e+001
0	 3.000000000000000e+000	 1.266639997208098e+000	 1.102903698229774e+001
0	 3.000000000000000e+000	 1.333299999983334e+000	 1.101299674988620e+001
0	 3.066659999995867e+000	 6.666972226472177e-001	 1.078730951719003e+001
0	 3.066659999995867e+000	 7.333579753122047e-001	 1.083381306246297e+001
0	 3.066659999995868e+000	 8.000185779984420e-001	 1.087166268073737e+001
0	 3.066659999995867e+000	 8.666790473703452e-001	 1.090161419021940e+001
0	 3.066659999995867e+000	 9.333394000923320e-001	 1.092442341296449e+001
0	 3.066659999995868e+000	 9.999996528288190e-001	 1.094084617487745e+001
0	 3.066659999995867e+000	 1.066659822244222e+000	 1.095163830571261e+001
0	 3.066659999995868e+000	 1.133319925002959e+000	 1.095755563907392e+001
0	 3.066659999995867e+000	 1.199979977769445e+000	 1.095935401241515e+001
0	 3.066659999995868e+000	 1.266639997208098e+000	 1.095778926703983e+001
0	 3.066659999995867e+000	 1.333299999983334e+000	 1.095361724810144e+001
0	 3.133319999991934e+000	 6.666972226472177e-001	 1.069646807180351e+001
0	 3.133319999991934e+000	 7.333579753122048e-001	 1.073872868316249e+001
0	 3.133319999991934e+000	 8.000185779984418e-001	 1.077388799600347e+001
0	 3.133319999991934e+000	 8.666790473703455e-001	 1.080275457116903e+001
0	 3.133319999991934e+000	 9.333394000923323e-001	 1.082613696996278e+001
0	 3.133319999991934e+000	 9.999996528288190e-001	 1.084484375414951e+001
0	 3.133319999991934e+000	 1.066659822244222e+000	 1.085968348595521e+001
0	 3.133319999991934e+000	 1.133319925002959e+000	 1.087146472806716e+001
0	 3.133319999991933e+000	 1.199979977769445e+000	 1.088099604363399e+001
0	 3.133319999991934e+000	 1.266639997208098e+000	 1.088908599626580e+001
0	 3.133319999991933e+000	 1.333299999983334e+000	 1.089654315003411e+001
0	 3.199979999988400e+000	 6.666972226472175e-001	 1.062465455357043e+001
0	 3.199979999988401e+000	 7.333579753122048e-001	 1.066013255819246e+001
0	 3.199979999988401e+000	 8.000185779984419e-001	 1.069042508696486e+001
0	 3.199979999988400e+000	 8.666790473703452e-001	 1.071634134621733e+001
0	 3.199979999988402e+000	 9.333394000923322e-001	 1.073869053972810e+001
0	 3.199979999988401e+000	 9.999996528288190e-001	 1.075828186872378e+001
0	 3.199979999988401e+000	 1.066659822244222e+000	 1.077592453187957e+001
0	 3.199979999988401e+000	 1.133319925002959e+000	 1.079242772531912e+001
0	 3.199979999988401e+000	 1.199979977769445e+000	 1.080860064261468e+001
0	 3.199979999988401e+000	 1.266639997208098e+000	 1.082525247478713e+001
0	 3.199979999988401e+000	 1.333299999983334e+000	 1.084319241030601e+001
0	 3.266639999985468e+000	 6.666972226472178e-001	 1.057634495352860e+001
0	 3.266639999985468e+000	 7.333579753122048e-001	 1.060279641823418e+001
0	 3.266639999985468e+000	 8.000185779984418e-001	 1.062620774932153e+001
0	 3.266639999985467e+000	 8.666790473703451e-001	 1.064733670048463e+001
0	 3.266639999985467e+000	 9.333394000923321e-001	 1.066694102042937e+001
0	 3.266639999985467e+000	 9.999996528288189e-001	 1.068577845287354e+001
0	 3.266639999985468e+000	 1.066659822244222e+000	 1.070460673654677e+001
0	 3.266639999985468e+000	 1.133319925002959e+000	 1.072418360519058e+001
0	 3.266639999985467e+000	 1.199979977769445e+000	 1.074526678755836e+001
0	 3.266639999985468e+000	 1.266639997208098e+000	 1.076861400741541e+001
0	 3.266639999985468e+000	 1.333299999983334e+000	 1.079498298353899e+001
0	 3.333299999983334e+000	 6.666972226472175e-001	 1.055601526271548e+001
0	 3.333299999983334e+000	 7.333579753122049e-001	 1.057149199396872e+001
0	 3.333299999983334e+000	 8.000185779984418e-001	 1.058616977877338e+001
0	 3.333299999983334e+000	 8.666790473703455e-001	 1.060070281909111e+001
0	 3.333299999983334e+000	 9.333394000923322e-001	 1.061574531023550e+001
0	 3.333299999983334e+000	 9.999996528288189e-001	 1.063195144087200e+001
0	 3.333299999983335e+000	 1.066659822244222e+000	 1.064997539301792e+001
0	 3.333299999983334e+000	 1.133319925002958e+000	 1.067047134204235e+001
0	 3.333299999983334e+000	 1.199979977769445e+000	 1.069409345666620e+001
0	 3.333299999983334e+000	 1.266639997208098e+000	 1.072149589896219e+001
0	 3.333299999983334e+000	 1.333299999983334e+000	 1.075333282435494e+001
0	 2.666700000016667e+000	 1.333299999983334e+000	 1.129484690281135e+001
0	 2.666700000016667e+000	 1.399969999982150e+000	 1.124605232923007e+001
0	 2.666700000016666e+000	 1.466639999981867e+000	 1.120237837762553e+001
0	 2.666700000016667e+000	 1.533309999982383e+000	 1.116344324541757e+001
0	 2.666700000016667e+000	 1.599979999983600e+000	 1.112886513002605e+001
0	 2.666700000016665e+000	 1.666649999985416e+000	 1.109826222887079e+001
0	 2.666700000016667e+000	 1.733319999987733e+000	 1.107125273937166e+001
0	 2.666700000016667e+000	 1.799989999990450e+000	 1.104745485894850e+001
0	 2.666700000016666e+000	 1.866659999993466e+000	 1.102648678502118e+001
0	 2.666700000016667e+000	 1.933329999996683e+000	 1.100796671500955e+001
0	 2.666700000016667e+000	 2.000000000000000e+000	 1.099151284633348e+001
0	 2.733360000014532e+000	 1.333299999983334e+000	 1.124520970176499e+001
0	 2.733360000014533e+000	 1.399969999982150e+000	 1.119587265252973e+001
0	 2.733360000014533e+000	 1.466639999981867e+000	 1.115201995382929e+001
0	 2.733360000014533e+000	 1.533309999982383e+000	 1.111340034915128e+001
0	 2.733360000014532e+000	 1.599979999983600e+000	 1.107976258198336e+001
0	 2.733360000014533e+000	 1.666649999985416e+000	 1.105085539581321e+001
0	 2.733360000014534e+000	 1.733319999987733e+000	 1.102642753412851e+001
0	 2.733360000014532e+000	 1.799989999990449e+000	 1.100622774041694e+001
0	 2.733360000014533e+000	 1.866659999993466e+000	 1.099000475816624e+001
0	 2.733360000014533e+000	 1.933329999996683e+000	 1.097750733086413e+001
0	 2.733360000014533e+000	 2.000000000000000e+000	 1.096848420199835e+001
0	 2.800020000011600e+000	 1.333299999983334e+000	 1.119078813132768e+001
0	 2.800020000011600e+000	 1.399969999982150e+000	 1.114519029221557e+001
0	 2.800020000011600e+000	 1.466639999981866e+000	 1.110468143732915e+001
0	 2.800020000011600e+000	 1.533309999982383e+000	 1.106912301665895e+001
0	 2.800020000011600e+000	 1.599979999983599e+000	 1.103837648019555e+001
0	 2.800020000011599e+000	 1.666649999985416e+000	 1.101230327792954e+001
0	 2.800020000011600e+000	 1.733319999987733e+000	 1.099076485985151e+001
0	 2.800020000011600e+000	 1.799989999990450e+000	 1.097362267595209e+001
0	 2.800020000011600e+000	 1.866659999993466e+000	 1.096073817622193e+001
0	 2.800020000011600e+000	 1.933329999996683e+000	 1.095197281065169e+001
0	 2.800020000011600e+000	 2.000000000000000e+000	 1.094718802923205e+001
0	 2.866680000008067e+000	 1.333299999983334e+000	 1.113300014612102e+001
0	 2.866680000008067e+000	 1.399969999982150e+000	 1.109452910578666e+001
0	 2.866680000008067e+000	 1.466639999981866e+000	 1.106015306333514e+001
0	 2.866680000008067e+000	 1.533309999982383e+000	 1.102982833569498e+001
0	 2.866680000008067e+000	 1.599979999983600e+000	 1.100351123979480e+001
0	 2.866680000008067e+000	 1.666649999985416e+000	 1.098115809256317e+001
0	 2.866680000008067e+000	 1.733319999987733e+000	 1.096272521092871e+001
0	 2.866680000008067e+000	 1.799989999990450e+000	 1.094816891182001e+001
0	 2.866680000008067e+000	 1.866659999993467e+000	 1.093744551216576e+001
0	 2.866680000008067e+000	 1.933329999996683e+000	 1.093051132889459e+001
0	 2.866680000008067e+000	 2.000000000000000e+000	 1.092732267893518e+001
0	 2.933340000004133e+000	 1.333299999983334e+000	 1.107326370076663e+001
0	 2.933340000004133e+000	 1.399969999982150e+000	 1.104441295074213e+001
0	 2.933340000004133e+000	 1.466639999981866e+000	 1.101822506705730e+001
0	 2.933340000004133e+000	 1.533309999982383e+000	 1.099473339401382e+001
0	 2.933340000004134e+000	 1.599979999983599e+000	 1.097397127591335e+001
0	 2.933340000004133e+000	 1.666649999985416e+000	 1.095597205705756e+001
0	 2.933340000004133e+000	 1.733319999987732e+000	 1.094076908174816e+001
0	 2.933340000004133e+000	 1.799989999990450e+000	 1.092839569428683e+001
0	 2.933340000004133e+000	 1.866659999993466e+000	 1.091888523897529e+001
0	 2.933340000004133e+000	 1.933329999996683e+000	 1.091227106011523e+001
0	 2.933340000004134e+000	 2.000000000000000e+000	 1.090858650200840e+001
0	 3.000000000000000e+000	 1.333299999983334e+000	 1.101299674988620e+001
0	 3.000000000000000e+000	 1.399969999982150e+000	 1.099536568458115e+001
0	 3.000000000000000e+000	 1.466639999981867e+000	 1.097868768370578e+001
0	 3.000000000000001e+000	 1.533309999982383e+000	 1.096305527936995e+001
0	 3.000000000000000e+000	 1.599979999983599e+000	 1.094856100368348e+001
0	 3.000000000000000e+000	 1.666649999985416e+000	 1.093529738875622e+001
0	 3.000000000000000e+000	 1.733319999987733e+000	 1.092335696669801e+001
0	 3.000000000000000e+000	 1.799989999990450e+000	 1.091283226961868e+001
0	 3.000000000000000e+000	 1.866659999993466e+000	 1.090381582962807e+001
0	 3.000000000000000e+000	 1.933329999996683e+000	 1.089640017883601e+001
0	 3.000000000000001e+000	 2.000000000000000e+000	 1.089067784935232e+001
0	 3.066659999995867e+000	 1.333299999983334e+000	 1.095361724810144e+001
0	 3.066659999995867e+000	 1.399969999982150e+000	 1.094791116480294e+001
0	 3.066659999995867e+000	 1.466639999981866e+000	 1.094133114849072e+001
0	 3.066659999995868e+000	 1.533309999982383e+000	 1.093401107951788e+001
0	 3.066659999995868e+000	 1.599979999983600e+000	 1.092608483823751e+001
0	 3.066659999995868e+000	 1.666649999985416e+000	 1.091768630500267e+001
0	 3.066659999995868e+000	 1.733319999987733e+000	 1.090894936016639e+001
0	 3.066659999995867e+000	 1.799989999990450e+000	 1.090000788408173e+001
0	 3.066659999995867e+000	 1.866659999993466e+000	 1.089099575710172e+001
0	 3.066659999995866e+000	 1.933329999996683e+000	 1.088204685957934e+001
0	 3.066659999995868e+000	 2.000000000000000e+000	 1.087329507186758e+001
0	 3.133319999991933e+000	 1.333299999983334e+000	 1.089654315003411e+001
0	 3.133319999991935e+000	 1.399969999982150e+000	 1.090257324890676e+001
0	 3.133319999991935e+000	 1.466639999981866e+000	 1.090594569662233e+001
0	 3.133319999991933e+000	 1.533309999982382e+000	 1.090681788221221e+001
0	 3.133319999991934e+000	 1.599979999983600e+000	 1.090534719470780e+001
0	 3.133319999991934e+000	 1.666649999985416e+000	 1.090169102314046e+001
0	 3.133319999991935e+000	 1.733319999987733e+000	 1.089600675654149e+001
0	 3.133319999991934e+000	 1.799989999990449e+000	 1.088845178394220e+001
0	 3.133319999991933e+000	 1.866659999993466e+000	 1.087918349437384e+001
0	 3.133319999991934e+000	 1.933329999996683e+000	 1.086835927686766e+001
0	 3.133319999991934e+000	 2.000000000000000e+000	 1.085613652045485e+001
0	 3.199979999988401e+000	 1.333299999983334e+000	 1.084319241030601e+001
0	 3.199979999988401e+000	 1.399969999982150e+000	 1.085987579439192e+001
0	 3.199979999988401e+000	 1.466639999981866e+000	 1.087232156331084e+001
0	 3.199979999988401e+000	 1.533309999982383e+000	 1.088069277520754e+001
0	 3.199979999988400e+000	 1.599979999983599e+000	 1.088515248822677e+001
0	 3.199979999988401e+000	 1.666649999985416e+000	 1.088586376051320e+001
0	 3.199979999988400e+000	 1.733319999987733e+000	 1.088298965021150e+001
0	 3.199979999988400e+000	 1.799989999990450e+000	 1.087669321546626e+001
0	 3.199979999988401e+000	 1.866659999993466e+000	 1.086713751442206e+001
0	 3.199979999988401e+000	 1.933329999996683e+000	 1.085448560522340e+001
0	 3.199979999988401e+000	 2.000000000000000e+000	 1.083890054601477e+001
0	 3.266639999985468e+000	 1.333299999983334e+000	 1.079498298353899e+001
0	 3.266639999985467e+000	 1.399969999982150e+000	 1.082034265875778e+001
0	 3.266639999985468e+000	 1.466639999981866e+000	 1.084024898376656e+001
0	 3.266639999985468e+000	 1.533309999982383e+000	 1.085485284625854e+001
0	 3.266639999985469e+000	 1.599979999983600e+000	 1.086430513392685e+001
0	 3.266639999985467e+000	 1.666649999985416e+000	 1.086875673446455e+001
0	 3.266639999985467e+000	 1.733319999987733e+000	 1.086835853556468e+001
0	 3.266639999985467e+000	 1.799989999990449e+000	 1.086326142492021e+001
0	 3.266639999985468e+000	 1.866659999993466e+000	 1.085361629022404e+001
0	 3.266639999985468e+000	 1.933329999996684e+000	 1.083957401916904e+001
0	 3.266639999985468e+000	 2.000000000000000e+000	 1.082128549944802e+001
0	 3.333299999983334e+000	 1.333299999983334e+000	 1.075333282435494e+001
0	 3.333299999983334e+000	 1.399969999982150e+000	 1.078449769950372e+001
0	 3.333299999983334e+000	 1.466639999981867e+000	 1.080951819319984e+001
0	 3.333299999983334e+000	 1.533309999982383e+000	 1.082851518311992e+001
0	 3.333299999983333e+000	 1.599979999983599e+000	 1.084160954694053e+001
0	 3.333299999983334e+000	 1.666649999985416e+000	 1.084892216233818e+001
0	 3.333299999983334e+000	 1.733319999987733e+000	 1.085057390698930e+001
0	 3.333299999983334e+000	 1.799989999990450e+000	 1.084668565857028e+001
0	 3.333299999983334e+000	 1.866659999993466e+000	 1.083737829475745e+001
0	 3.333299999983334e+000	 1.933329999996683e+000	 1.082277269322704e+001
0	 3.333299999983334e+000	 2.000000000000000e+000	 1.080298973165526e+001
0	 2.666700000016667e+000	 2.000000000000000e+000	 1.099151284633348e+001
0	 2.666700000016667e+000	 2.066670000003317e+000	 1.097447814578218e+001
0	 2.666700000016666e+000	 2.133340000006534e+000	 1.095445419584823e+001
0	 2.666700000016666e+000	 2.200010000009550e+000	 1.093141711750653e+001
0	 2.666700000016667e+000	 2.266680000012268e+000	 1.090534303173194e+001
0	 2.666700000016666e+000	 2.333350000014584e+000	 1.087620805949926e+001
0	 2.666700000016667e+000	 2.400020000016401e+000	 1.084398832178329e+001
0	 2.666700000016666e+000	 2.466690000017618e+000	 1.080865993955876e+001
0	 2.666700000016666e+000	 2.533360000018134e+000	 1.077019903380037e+001
0	 2.666700000016666e+000	 2.600030000017850e+000	 1.072858172548280e+001
0	 2.666700000016667e+000	 2.666700000016667e+000	 1.068378413558065e+001
0	 2.733360000014533e+000	 2.000000000000000e+000	 1.096848420199835e+001
0	 2.733360000014533e+000	 2.066670000003317e+000	 1.095917894676344e+001
0	 2.733360000014533e+000	 2.133340000006534e+000	 1.094598201179997e+001
0	 2.733360000014533e+000	 2.200010000009550e+000	 1.092886244776470e+001
0	 2.733360000014533e+000	 2.266680000012268e+000	 1.090778930531432e+001
0	 2.733360000014533e+000	 2.333350000014585e+000	 1.088273163510550e+001
0	 2.733360000014533e+000	 2.400020000016402e+000	 1.085365848779486e+001
0	 2.733360000014534e+000	 2.466690000017618e+000	 1.082053891403894e+001
0	 2.733360000014533e+000	 2.533360000018134e+000	 1.078334196449427e+001
0	 2.733360000014533e+000	 2.600030000017851e+000	 1.074203668981731e+001
0	 2.733360000014533e+000	 2.666700000016666e+000	 1.069659214066446e+001
0	 2.800020000011600e+000	 2.000000000000000e+000	 1.094718802923205e+001
0	 2.800020000011599e+000	 2.066670000003316e+000	 1.094224374146278e+001
0	 2.800020000011600e+000	 2.133340000006534e+000	 1.093306694999344e+001
0	 2.800020000011600e+000	 2.200010000009551e+000	 1.091961974453937e+001
0	 2.800020000011600e+000	 2.266680000012266e+000	 1.090186421481588e+001
0	 2.800020000011600e+000	 2.333350000014585e+000	 1.087976245053816e+001
0	 2.800020000011600e+000	 2.400020000016400e+000	 1.085327654142142e+001
0	 2.800020000011601e+000	 2.466690000017618e+000	 1.082236857718078e+001
0	 2.800020000011600e+000	 2.533360000018134e+000	 1.078700064753130e+001
0	 2.800020000011599e+000	 2.600030000017851e+000	 1.074713484218802e+001
0	 2.800020000011600e+000	 2.666700000016667e+000	 1.070273325086590e+001
0	 2.866680000008067e+000	 2.000000000000000e+000	 1.092732267893518e+001
0	 2.866680000008066e+000	 2.066670000003316e+000	 1.092395176899283e+001
0	 2.866680000008066e+000	 2.133340000006534e+000	 1.091647008658748e+001
0	 2.866680000008067e+000	 2.200010000009550e+000	 1.090483286986978e+001
0	 2.866680000008067e+000	 2.266680000012267e+000	 1.088899535699033e+001
0	 2.866680000008066e+000	 2.333350000014584e+000	 1.086891278609967e+001
0	 2.866680000008066e+000	 2.400020000016400e+000	 1.084454039534828e+001
0	 2.866680000008067e+000	 2.466690000017618e+000	 1.081583342288660e+001
0	 2.866680000008066e+000	 2.533360000018134e+000	 1.078274710686501e+001
0	 2.866680000008067e+000	 2.600030000017850e+000	 1.074523668543384e+001
0	 2.866680000008067e+000	 2.666700000016667e+000	 1.070325739674336e+001
0	 2.933340000004134e+000	 2.000000000000000e+000	 1.090858650200840e+001
0	 2.933340000004133e+000	 2.066670000003317e+000	 1.090458226846626e+001
0	 2.933340000004133e+000	 2.133340000006534e+000	 1.089695249774094e+001
0	 2.933340000004133e+000	 2.200010000009550e+000	 1.088564568579511e+001
0	 2.933340000004134e+000	 2.266680000012267e+000	 1.087061032859143e+001
0	 2.933340000004134e+000	 2.333350000014585e+000	 1.085179492209245e+001
0	 2.933340000004133e+000	 2.400020000016400e+000	 1.082914796226073e+001
0	 2.933340000004133e+000	 2.466690000017617e+000	 1.080261794505874e+001
0	 2.933340000004134e+000	 2.533360000018134e+000	 1.077215336644893e+001
0	 2.933340000004133e+000	 2.600030000017851e+000	 1.073770272239365e+001
0	 2.933340000004133e+000	 2.666700000016666e+000	 1.069921450885527e+001
0	 3.000000000000001e+000	 2.000000000000000e+000	 1.089067784935232e+001
0	 3.000000000000000e+000	 2.066670000003317e+000	 1.088441447899570e+001
0	 3.000000000000001e+000	 2.133340000006534e+000	 1.087527525961263e+001
0	 3.000000000000000e+000	 2.200010000009550e+000	 1.086320205435455e+001
0	 3.000000000000000e+000	 2.266680000012267e+000	 1.084813672637286e+001
0	 3.000000000000000e+000	 2.333350000014584e+000	 1.083002113881893e+001
0	 3.000000000000001e+000	 2.400020000016401e+000	 1.080879715484405e+001
0	 3.000000000000000e+000	 2.466690000017617e+000	 1.078440663759951e+001
0	 3.000000000000000e+000	 2.533360000018134e+000	 1.075679145023654e+001
0	 3.000000000000000e+000	 2.600030000017850e+000	 1.072589345590632e+001
0	 3.000000000000000e+000	 2.666700000016666e+000	 1.069165451775999e+001
0	 3.066659999995868e+000	 2.000000000000000e+000	 1.087329507186758e+001
0	 3.066659999995866e+000	 2.066670000003317e+000	 1.086372763969382e+001
0	 3.066659999995868e+000	 2.133340000006534e+000	 1.085219944836141e+001
0	 3.066659999995867e+000	 2.200010000009550e+000	 1.083864583758729e+001
0	 3.066659999995868e+000	 2.266680000012267e+000	 1.082300214708835e+001
0	 3.066659999995868e+000	 2.333350000014584e+000	 1.080520371658147e+001
0	 3.066659999995867e+000	 2.400020000016401e+000	 1.078518588578349e+001
0	 3.066659999995867e+000	 2.466690000017617e+000	 1.076288399441120e+001
0	 3.066659999995868e+000	 2.533360000018134e+000	 1.073823338218135e+001
0	 3.066659999995868e+000	 2.600030000017851e+000	 1.071116938881069e+001
0	 3.066659999995868e+000	 2.666700000016666e+000	 1.068162735401590e+001
0	 3.133319999991934e+000	 2.000000000000000e+000	 1.085613652045485e+001
0	 3.133319999991935e+000	 2.066670000003317e+000	 1.084280098967327e+001
0	 3.133319999991934e+000	 2.133340000006534e+000	 1.082848614014609e+001
0	 3.133319999991934e+000	 2.200010000009550e+000	 1.081312089753248e+001
0	 3.133319999991933e+000	 2.266680000012267e+000	 1.079663418749157e+001
0	 3.133319999991935e+000	 2.333350000014585e+000	 1.077895493568248e+001
0	 3.133319999991934e+000	 2.400020000016401e+000	 1.076001206776430e+001
0	 3.133319999991934e+000	 2.466690000017617e+000	 1.073973450939607e+001
0	 3.133319999991934e+000	 2.533360000018134e+000	 1.071805118623683e+001
0	 3.133319999991934e+000	 2.600030000017850e+000	 1.069489102394559e+001
0	 3.133319999991934e+000	 2.666700000016666e+000	 1.067018294818132e+001
0	 3.199979999988401e+000	 2.000000000000000e+000	 1.083890054601477e+001
0	 3.199979999988401e+000	 2.066670000003316e+000	 1.082191376804669e+001
0	 3.199979999988401e+000	 2.133340000006534e+000	 1.080489641112550e+001
0	 3.199979999988401e+000	 2.200010000009550e+000	 1.078777109622932e+001
0	 3.199979999988401e+000	 2.266680000012267e+000	 1.077046044433623e+001
0	 3.199979999988401e+000	 2.333350000014584e+000	 1.075288707642434e+001
0	 3.199979999988401e+000	 2.400020000016401e+000	 1.073497361347171e+001
0	 3.199979999988401e+000	 2.466690000017617e+000	 1.071664267645640e+001
0	 3.199979999988401e+000	 2.533360000018134e+000	 1.069781688635643e+001
0	 3.199979999988401e+000	 2.600030000017851e+000	 1.067841886414982e+001
0	 3.199979999988401e+000	 2.666700000016666e+000	 1.065837123081458e+001
0	 3.266639999985468e+000	 2.000000000000000e+000	 1.082128549944802e+001
0	 3.266639999985467e+000	 2.066670000003317e+000	 1.080134521392678e+001
0	 3.266639999985467e+000	 2.133340000006534e+000	 1.078219133745847e+001
0	 3.266639999985468e+000	 2.200010000009550e+000	 1.076374029571694e+001
0	 3.266639999985468e+000	 2.266680000012267e+000	 1.074590851437598e+001
0	 3.266639999985467e+000	 2.333350000014584e+000	 1.072861241910938e+001
0	 3.266639999985468e+000	 2.400020000016401e+000	 1.071176843559094e+001
0	 3.266639999985467e+000	 2.466690000017616e+000	 1.069529298949441e+001
0	 3.266639999985467e+000	 2.533360000018133e+000	 1.067910250649357e+001
0	 3.266639999985468e+000	 2.600030000017851e+000	 1.066311341226218e+001
0	 3.266639999985468e+000	 2.666700000016666e+000	 1.064724213247398e+001
0	 3.333299999983334e+000	 2.000000000000000e+000	 1.080298973165526e+001
0	 3.333299999983333e+000	 2.066670000003317e+000	 1.078137456642616e+001
0	 3.333299999983334e+000	 2.133340000006534e+000	 1.076113199530383e+001
0	 3.333299999983335e+000	 2.200010000009550e+000	 1.074217235803454e+001
0	 3.333299999983334e+000	 2.266680000012267e+000	 1.072440599436451e+001
0	 3.333299999983334e+000	 2.333350000014584e+000	 1.070774324403997e+001
0	 3.333299999983334e+000	 2.400020000016401e+000	 1.069209444680717e+001
0	 3.333299999983334e+000	 2.466690000017617e+000	 1.067736994241233e+001
0	 3.333299999983334e+000	 2.533360000018134e+000	 1.066348007060168e+001
0	 3.333299999983334e+000	 2.600030000017851e+000	 1.065033517112143e+001
0	 3.333299999983334e+000	 2.666700000016667e+000	 1.063784558371780e+001
0	 2.666700000016667e+000	 2.666700000016667e+000	 1.068378413558065e+001
0	 2.666700000016666e+000	 2.733360000014533e+000	 1.063904352430918e+001
0	 2.666700000016666e+000	 2.800020000011599e+000	 1.059749339790004e+001
0	 2.666700000016667e+000	 2.866680000008067e+000	 1.055897512336930e+001
0	 2.666700000016666e+000	 2.933340000004133e+000	 1.052333006773293e+001
0	 2.666700000016666e+000	 3.000000000000000e+000	 1.049039959800692e+001
0	 2.666700000016666e+000	 3.066659999995867e+000	 1.046002508120716e+001
0	 2.666700000016666e+000	 3.133319999991934e+000	 1.043204788434955e+001
0	 2.666700000016667e+000	 3.199979999988401e+000	 1.040630937444992e+001
0	 2.666700000016666e+000	 3.266639999985468e+000	 1.038265091852407e+001
0	 2.666700000016667e+000	 3.333299999983334e+000	 1.036091388358776e+001
0	 2.733360000014533e+000	 2.666700000016666e+000	 1.069659214066446e+001
0	 2.733360000014534e+000	 2.733360000014534e+000	 1.065090765711926e+001
0	 2.733360000014533e+000	 2.800020000011599e+000	 1.060876958224221e+001
0	 2.733360000014533e+000	 2.866680000008067e+000	 1.056999885611221e+001
0	 2.733360000014533e+000	 2.933340000004133e+000	 1.053441641880808e+001
0	 2.733360000014534e+000	 3.000000000000000e+000	 1.050184321040861e+001
0	 2.733360000014533e+000	 3.066659999995867e+000	 1.047210017099256e+001
0	 2.733360000014532e+000	 3.133319999991934e+000	 1.044500824063861e+001
0	 2.733360000014533e+000	 3.199979999988400e+000	 1.042038835942544e+001
0	 2.733360000014534e+000	 3.266639999985468e+000	 1.039806146743164e+001
0	 2.733360000014533e+000	 3.333299999983334e+000	 1.037784850473578e+001
0	 2.800020000011600e+000	 2.666700000016667e+000	 1.070273325086590e+001
0	 2.800020000011600e+000	 2.733360000014533e+000	 1.065792896892125e+001
0	 2.800020000011599e+000	 2.800020000011600e+000	 1.061673746904134e+001
0	 2.800020000011600e+000	 2.866680000008066e+000	 1.057896541284166e+001
0	 2.800020000011600e+000	 2.933340000004134e+000	 1.054441946193768e+001
0	 2.800020000011600e+000	 3.000000000000000e+000	 1.051290627794479e+001
0	 2.800020000011601e+000	 3.066659999995868e+000	 1.048423252247835e+001
0	 2.800020000011600e+000	 3.133319999991933e+000	 1.045820485715368e+001
0	 2.800020000011600e+000	 3.199979999988401e+000	 1.043462994358606e+001
0	 2.800020000011599e+000	 3.266639999985466e+000	 1.041331444339071e+001
0	 2.800020000011600e+000	 3.333299999983334e+000	 1.039406501818283e+001
0	 2.866680000008067e+000	 2.666700000016667e+000	 1.070325739674337e+001
0	 2.866680000008066e+000	 2.733360000014533e+000	 1.066082127895057e+001
0	 2.866680000008067e+000	 2.800020000011600e+000	 1.062182263126678e+001
0	 2.866680000008067e+000	 2.866680000008067e+000	 1.058605998531788e+001
0	 2.866680000008067e+000	 2.933340000004133e+000	 1.055333187272971e+001
0	 2.866680000008066e+000	 2.999999999999999e+000	 1.052343682512810e+001
0	 2.866680000008067e+000	 3.066659999995866e+000	 1.049617337413881e+001
0	 2.866680000008067e+000	 3.133319999991934e+000	 1.047134005138758e+001
0	 2.866680000008066e+000	 3.199979999988400e+000	 1.044873538850010e+001
0	 2.866680000008066e+000	 3.266639999985467e+000	 1.042815791710201e+001
0	 2.866680000008066e+000	 3.333299999983333e+000	 1.040940616881893e+001
0	 2.933340000004133e+000	 2.666700000016666e+000	 1.069921450885527e+001
0	 2.933340000004133e+000	 2.733360000014533e+000	 1.066029840644268e+001
0	 2.933340000004134e+000	 2.800020000011599e+000	 1.062445064188792e+001
0	 2.933340000004133e+000	 2.866680000008067e+000	 1.059146776530108e+001
0	 2.933340000004133e+000	 2.933340000004133e+000	 1.056114632679218e+001
0	 2.933340000004133e+000	 2.999999999999999e+000	 1.053328287647126e+001
0	 2.933340000004133e+000	 3.066659999995867e+000	 1.050767396444827e+001
0	 2.933340000004133e+000	 3.133319999991933e+000	 1.048411614083317e+001
0	 2.933340000004133e+000	 3.199979999988400e+000	 1.046240595573586e+001
0	 2.933340000004133e+000	 3.266639999985467e+000	 1.044233995926622e+001
0	 2.933340000004133e+000	 3.333299999983334e+000	 1.042371470153410e+001
0	 3.000000000000000e+000	 2.666700000016666e+000	 1.069165451775999e+001
0	 3.000000000000000e+000	 2.733360000014533e+000	 1.065707417063295e+001
0	 3.000000000000000e+000	 2.800020000011599e+000	 1.062504707387408e+001
0	 3.000000000000001e+000	 2.866680000008067e+000	 1.059537394455145e+001
0	 3.000000000000000e+000	 2.933340000004132e+000	 1.056785549973305e+001
0	 3.000000000000000e+000	 3.000000000000000e+000	 1.054229245648692e+001
0	 2.999999999999999e+000	 3.066659999995866e+000	 1.051848553188101e+001
0	 3.000000000000000e+000	 3.133319999991935e+000	 1.049623544298328e+001
0	 3.000000000000000e+000	 3.199979999988400e+000	 1.047534290686167e+001
0	 3.000000000000000e+000	 3.266639999985467e+000	 1.045560864058407e+001
0	 3.000000000000000e+000	 3.333299999983334e+000	 1.043683336121837e+001
0	 3.066659999995868e+000	 2.666700000016666e+000	 1.068162735401590e+001
0	 3.066659999995868e+000	 2.733360000014534e+000	 1.065186239075678e+001
0	 3.066659999995867e+000	 2.800020000011600e+000	 1.062403750019460e+001
0	 3.066659999995867e+000	 2.866680000008066e+000	 1.059796371482917e+001
0	 3.066659999995867e+000	 2.933340000004134e+000	 1.057345206716028e+001
0	 3.066659999995867e+000	 2.999999999999999e+000	 1.055031358968773e+001
0	 3.066659999995867e+000	 3.066659999995865e+000	 1.052835931491129e+001
0	 3.066659999995868e+000	 3.133319999991934e+000	 1.050740027533074e+001
0	 3.066659999995867e+000	 3.199979999988400e+000	 1.048724750344580e+001
0	 3.066659999995868e+000	 3.266639999985467e+000	 1.046771203175623e+001
0	 3.066659999995867e+000	 3.333299999983333e+000	 1.044860489276175e+001
0	 3.133319999991934e+000	 2.666700000016666e+000	 1.067018294818132e+001
0	 3.133319999991934e+000	 2.733360000014533e+000	 1.064537688604954e+001
0	 3.133319999991934e+000	 2.800020000011599e+000	 1.062184749381877e+001
0	 3.133319999991935e+000	 2.866680000008067e+000	 1.059942226789440e+001
0	 3.133319999991934e+000	 2.933340000004134e+000	 1.057792870468179e+001
0	 3.133319999991934e+000	 3.000000000000000e+000	 1.055719430058633e+001
0	 3.133319999991934e+000	 3.066659999995868e+000	 1.053704655201339e+001
0	 3.133319999991935e+000	 3.133319999991934e+000	 1.051731295536833e+001
0	 3.133319999991934e+000	 3.199979999988400e+000	 1.049782100705655e+001
0	 3.133319999991933e+000	 3.266639999985467e+000	 1.047839820348339e+001
0	 3.133319999991934e+000	 3.333299999983333e+000	 1.045887204105422e+001
0	 3.199979999988401e+000	 2.666700000016666e+000	 1.065837123081457e+001
0	 3.199979999988401e+000	 2.733360000014534e+000	 1.063833147574657e+001
0	 3.199979999988400e+000	 2.800020000011599e+000	 1.061890262771589e+001
0	 3.199979999988401e+000	 2.866680000008067e+000	 1.059993479550728e+001
0	 3.199979999988401e+000	 2.933340000004134e+000	 1.058127808790553e+001
0	 3.199979999988401e+000	 3.000000000000000e+000	 1.056278261369535e+001
0	 3.199979999988401e+000	 3.066659999995867e+000	 1.054429848166155e+001
0	 3.199979999988401e+000	 3.133319999991933e+000	 1.052567580058891e+001
0	 3.199979999988401e+000	 3.199979999988400e+000	 1.050676467926220e+001
0	 3.199979999988401e+000	 3.266639999985466e+000	 1.048741522646622e+001
0	 3.199979999988401e+000	 3.333299999983334e+000	 1.046747755098580e+001
0	 3.266639999985468e+000	 2.666700000016666e+000	 1.064724213247398e+001
0	 3.266639999985468e+000	 2.733360000014533e+000	 1.063143997908320e+001
0	 3.266639999985468e+000	 2.800020000011600e+000	 1.061562847485522e+001
0	 3.266639999985468e+000	 2.866680000008066e+000	 1.059968648942797e+001
0	 3.266639999985467e+000	 2.933340000004133e+000	 1.058349289243938e+001
0	 3.266639999985468e+000	 3.000000000000000e+000	 1.056692655352741e+001
0	 3.266639999985468e+000	 3.066659999995867e+000	 1.054986634233002e+001
0	 3.266639999985467e+000	 3.133319999991933e+000	 1.053219112848522e+001
0	 3.266639999985468e+000	 3.199979999988400e+000	 1.051377978163100e+001
0	 3.266639999985468e+000	 3.266639999985468e+000	 1.049451117140540e+001
0	 3.266639999985468e+000	 3.333299999983334e+000	 1.047426416744646e+001
0	 3.333299999983334e+000	 2.666700000016667e+000	 1.063784558371780e+001
0	 3.333299999983333e+000	 2.733360000014532e+000	 1.062541621529473e+001
0	 3.333299999983334e+000	 2.800020000011600e+000	 1.061245060820601e+001
0	 3.333299999983334e+000	 2.866680000008067e+000	 1.059886254141654e+001
0	 3.333299999983334e+000	 2.933340000004133e+000	 1.058456579389125e+001
0	 3.333299999983334e+000	 3.000000000000000e+000	 1.056947414459509e+001
0	 3.333299999983334e+000	 3.066659999995868e+000	 1.055350137249302e+001
0	 3.333299999983333e+000	 3.133319999991934e+000	 1.053656125655006e+001
0	 3.333299999983333e+000	 3.199979999988400e+000	 1.051856757573124e+001
0	 3.333299999983334e+000	 3.266639999985468e+000	 1.049943410900159e+001
0	 3.333299999983334e+000	 3.333299999983334e+000	 1.047907463532620e+001
0	 2.666700000016667e+000	 3.333299999983334e+000	 1.036091388358776e+001
0	 2.666700000016666e+000	 3.399969999982150e+000	 1.034027634678260e+001
0	 2.666700000016666e+000	 3.466639999981867e+000	 1.032005658240743e+001
0	 2.666700000016666e+000	 3.533309999982383e+000	 1.030029687913542e+001
0	 2.666700000016666e+000	 3.599979999983599e+000	 1.028103952563977e+001
0	 2.666700000016666e+000	 3.666649999985416e+000	 1.026232681059369e+001
0	 2.666700000016667e+000	 3.733319999987733e+000	 1.024420102267039e+001
0	 2.666700000016667e+000	 3.799989999990450e+000	 1.022670445054309e+001
0	 2.666700000016666e+000	 3.866659999993467e+000	 1.020987938288500e+001
0	 2.666700000016666e+000	 3.933329999996684e+000	 1.019376810836938e+001
0	 2.666700000016666e+000	 4.000000000000001e+000	 1.017841291566945e+001
0	 2.733360000014533e+000	 3.333299999983334e+000	 1.037784850473578e+001
0	 2.733360000014533e+000	 3.399969999982150e+000	 1.035867616441535e+001
0	 2.733360000014533e+000	 3.466639999981868e+000	 1.033963542211482e+001
0	 2.733360000014534e+000	 3.533309999982383e+000	 1.032078499384026e+001
0	 2.733360000014533e+000	 3.599979999983600e+000	 1.030218359559778e+001
0	 2.733360000014533e+000	 3.666649999985416e+000	 1.028388994339347e+001
0	 2.733360000014532e+000	 3.733319999987732e+000	 1.026596275323344e+001
0	 2.733360000014533e+000	 3.799989999990450e+000	 1.024846074112380e+001
0	 2.733360000014534e+000	 3.866659999993467e+000	 1.023144262307066e+001
0	 2.733360000014533e+000	 3.933329999996684e+000	 1.021496711508016e+001
0	 2.733360000014533e+000	 4.000000000000001e+000	 1.019909293315841e+001
0	 2.800020000011600e+000	 3.333299999983334e+000	 1.039406501818283e+001
0	 2.800020000011599e+000	 3.399969999982150e+000	 1.037573822486975e+001
0	 2.800020000011600e+000	 3.466639999981866e+000	 1.035737192391150e+001
0	 2.800020000011600e+000	 3.533309999982382e+000	 1.033903650505425e+001
0	 2.800020000011600e+000	 3.599979999983599e+000	 1.032080235804417e+001
0	 2.800020000011599e+000	 3.666649999985417e+000	 1.030273987262745e+001
0	 2.800020000011600e+000	 3.733319999987733e+000	 1.028491943855028e+001
0	 2.800020000011600e+000	 3.799989999990450e+000	 1.026741144555886e+001
0	 2.800020000011601e+000	 3.866659999993467e+000	 1.025028628339936e+001
0	 2.800020000011600e+000	 3.933329999996684e+000	 1.023361434181802e+001
0	 2.800020000011600e+000	 4.000000000000001e+000	 1.021746601056101e+001
0	 2.866680000008066e+000	 3.333299999983333e+000	 1.040940616881893e+001
0	 2.866680000008066e+000	 3.399969999982149e+000	 1.039141595135099e+001
0	 2.866680000008066e+000	 3.466639999981866e+000	 1.037331429692699e+001
0	 2.866680000008066e+000	 3.533309999982382e+000	 1.035517851544038e+001
0	 2.866680000008067e+000	 3.599979999983599e+000	 1.033708591678460e+001
0	 2.866680000008066e+000	 3.666649999985417e+000	 1.031911381085314e+001
0	 2.866680000008067e+000	 3.733319999987734e+000	 1.030133950753943e+001
0	 2.866680000008067e+000	 3.799989999990450e+000	 1.028384031673694e+001
0	 2.866680000008067e+000	 3.866659999993467e+000	 1.026669354833916e+001
0	 2.866680000008066e+000	 3.933329999996684e+000	 1.024997651223953e+001
0	 2.866680000008066e+000	 4.000000000000000e+000	 1.023376651833153e+001
0	 2.933340000004133e+000	 3.333299999983334e+000	 1.042371470153410e+001
0	 2.933340000004133e+000	 3.399969999982150e+000	 1.040566276706422e+001
0	 2.933340000004133e+000	 3.466639999981867e+000	 1.038751075029076e+001
0	 2.933340000004133e+000	 3.533309999982383e+000	 1.036933812766162e+001
0	 2.933340000004134e+000	 3.599979999983600e+000	 1.035122437562474e+001
0	 2.933340000004133e+000	 3.666649999985415e+000	 1.033324897062802e+001
0	 2.933340000004133e+000	 3.733319999987733e+000	 1.031549138911938e+001
0	 2.933340000004133e+000	 3.799989999990450e+000	 1.029803110754676e+001
0	 2.933340000004133e+000	 3.866659999993467e+000	 1.028094760235807e+001
0	 2.933340000004133e+000	 3.933329999996683e+000	 1.026432035000126e+001
0	 2.933340000004133e+000	 4.000000000000001e+000	 1.024822882692426e+001
0	 3.000000000000000e+000	 3.333299999983334e+000	 1.043683336121837e+001
0	 3.000000000000000e+000	 3.399969999982150e+000	 1.041843209521462e+001
0	 3.000000000000000e+000	 3.466639999981868e+000	 1.040000949313230e+001
0	 3.000000000000000e+000	 3.533309999982383e+000	 1.038164244438097e+001
0	 3.000000000000001e+000	 3.599979999983601e+000	 1.036340783837020e+001
0	 3.000000000000001e+000	 3.666649999985417e+000	 1.034538256450956e+001
0	 3.000000000000000e+000	 3.733319999987733e+000	 1.032764351220861e+001
0	 3.000000000000000e+000	 3.799989999990450e+000	 1.031026757087694e+001
0	 3.000000000000001e+000	 3.866659999993467e+000	 1.029333162992413e+001
0	 3.000000000000001e+000	 3.933329999996685e+000	 1.027691257875977e+001
0	 3.000000000000000e+000	 4.000000000000001e+000	 1.026108730679343e+001
0	 3.066659999995867e+000	 3.333299999983333e+000	 1.044860489276175e+001
0	 3.066659999995868e+000	 3.399969999982150e+000	 1.042967735900735e+001
0	 3.066659999995866e+000	 3.466639999981866e+000	 1.041085873458109e+001
0	 3.066659999995868e+000	 3.533309999982383e+000	 1.039221856826137e+001
0	 3.066659999995868e+000	 3.599979999983600e+000	 1.037382640882662e+001
0	 3.066659999995867e+000	 3.666649999985415e+000	 1.035575180505521e+001
0	 3.066659999995868e+000	 3.733319999987733e+000	 1.033806430572559e+001
0	 3.066659999995867e+000	 3.799989999990450e+000	 1.032083345961617e+001
0	 3.066659999995867e+000	 3.866659999993466e+000	 1.030412881550536e+001
0	 3.066659999995868e+000	 3.933329999996685e+000	 1.028801992217160e+001
0	 3.066659999995868e+000	 4.000000000000000e+000	 1.027257632839332e+001
0	 3.133319999991934e+000	 3.333299999983333e+000	 1.045887204105422e+001
0	 3.133319999991933e+000	 3.399969999982149e+000	 1.043935198164755e+001
0	 3.133319999991934e+000	 3.466639999981867e+000	 1.042010668376660e+001
0	 3.133319999991934e+000	 3.533309999982382e+000	 1.040119360196581e+001
0	 3.133319999991933e+000	 3.599979999983600e+000	 1.038267019079962e+001
0	 3.133319999991934e+000	 3.666649999985416e+000	 1.036459390482247e+001
0	 3.133319999991934e+000	 3.733319999987733e+000	 1.034702219858881e+001
0	 3.133319999991934e+000	 3.799989999990450e+000	 1.033001252665308e+001
0	 3.133319999991934e+000	 3.866659999993466e+000	 1.031362234356975e+001
0	 3.133319999991934e+000	 3.933329999996683e+000	 1.029790910389329e+001
0	 3.133319999991935e+000	 4.000000000000000e+000	 1.028293026217815e+001
0	 3.199979999988401e+000	 3.333299999983334e+000	 1.046747755098580e+001
0	 3.199979999988401e+000	 3.399969999982150e+000	 1.044740938634037e+001
0	 3.199979999988400e+000	 3.466639999981866e+000	 1.042780154981829e+001
0	 3.199979999988400e+000	 3.533309999982383e+000	 1.040869464815723e+001
0	 3.199979999988400e+000	 3.599979999983599e+000	 1.039012928809483e+001
0	 3.199979999988401e+000	 3.666649999985417e+000	 1.037214607636875e+001
0	 3.199979999988401e+000	 3.733319999987733e+000	 1.035478561971669e+001
0	 3.199979999988401e+000	 3.799989999990450e+000	 1.033808852487631e+001
0	 3.199979999988400e+000	 3.866659999993466e+000	 1.032209539858530e+001
0	 3.199979999988401e+000	 3.933329999996683e+000	 1.030684684758134e+001
0	 3.199979999988401e+000	 4.000000000000000e+000	 1.029238347860216e+001
0	 3.266639999985468e+000	 3.333299999983334e+000	 1.047426416744646e+001
0	 3.266639999985468e+000	 3.399969999982151e+000	 1.045380299629096e+001
0	 3.266639999985468e+000	 3.466639999981867e+000	 1.043399154186564e+001
0	 3.266639999985467e+000	 3.533309999982383e+000	 1.041484880949857e+001
0	 3.266639999985468e+000	 3.599979999983599e+000	 1.039639380451783e+001
0	 3.266639999985467e+000	 3.666649999985417e+000	 1.037864553225151e+001
0	 3.266639999985467e+000	 3.733319999987732e+000	 1.036162299802769e+001
0	 3.266639999985468e+000	 3.799989999990451e+000	 1.034534520717448e+001
0	 3.266639999985468e+000	 3.866659999993467e+000	 1.032983116501998e+001
0	 3.266639999985468e+000	 3.933329999996684e+000	 1.031509987689229e+001
0	 3.266639999985467e+000	 4.000000000000001e+000	 1.030117034811953e+001
0	 3.333299999983334e+000	 3.333299999983334e+000	 1.047907463532620e+001
0	 3.333299999983333e+000	 3.399969999982149e+000	 1.045848623470444e+001
0	 3.333299999983333e+000	 3.466639999981866e+000	 1.043872486903808e+001
0	 3.333299999983334e+000	 3.533309999982383e+000	 1.041978318865278e+001
0	 3.333299999983334e+000	 3.599979999983599e+000	 1.040165384387425e+001
0	 3.333299999983334e+000	 3.666649999985416e+000	 1.038432948502817e+001
0	 3.333299999983334e+000	 3.733319999987733e+000	 1.036780276244026e+001
0	 3.333299999983334e+000	 3.799989999990450e+000	 1.035206632643622e+001
0	 3.333299999983334e+000	 3.866659999993467e+000	 1.033711282734175e+001
0	 3.333299999983333e+000	 3.933329999996682e+000	 1.032293491548260e+001
0	 3.333299999983333e+000	 4.000000000000000e+000	 1.030952524118447e+001
0	 2.666700000016666e+000	 4.000000000000001e+000	 1.017841291566945e+001
0	 2.666700000016667e+000	 4.066670000003317e+000	 1.016386854367412e+001
0	 2.666700000016666e+000	 4.133340000006535e+000	 1.015013565797649e+001
0	 2.666700000016666e+000	 4.200010000009551e+000	 1.013717543730619e+001
0	 2.666700000016667e+000	 4.266680000012267e+000	 1.012494906039282e+001
0	 2.666700000016667e+000	 4.333350000014584e+000	 1.011341770596597e+001
0	 2.666700000016666e+000	 4.400020000016401e+000	 1.010254255275526e+001
0	 2.666700000016667e+000	 4.466690000017619e+000	 1.009228477949036e+001
0	 2.666700000016666e+000	 4.533360000018133e+000	 1.008260556490088e+001
0	 2.666700000016666e+000	 4.600030000017851e+000	 1.007346608771647e+001
0	 2.666700000016666e+000	 4.666700000016666e+000	 1.006482752666679e+001
0	 2.733360000014533e+000	 4.000000000000001e+000	 1.019909293315841e+001
0	 2.733360000014533e+000	 4.066670000003317e+000	 1.018398611056237e+001
0	 2.733360000014534e+000	 4.133340000006533e+000	 1.016974174659774e+001
0	 2.733360000014533e+000	 4.200010000009550e+000	 1.015631215634380e+001
0	 2.733360000014534e+000	 4.266680000012269e+000	 1.014364965487981e+001
0	 2.733360000014533e+000	 4.333350000014582e+000	 1.013170655728508e+001
0	 2.733360000014533e+000	 4.400020000016402e+000	 1.012043517863888e+001
0	 2.733360000014534e+000	 4.466690000017618e+000	 1.010978783402054e+001
0	 2.733360000014533e+000	 4.533360000018131e+000	 1.009971683850936e+001
0	 2.733360000014533e+000	 4.600030000017852e+000	 1.009017450718466e+001
0	 2.733360000014533e+000	 4.666700000016666e+000	 1.008111315512576e+001
0	 2.800020000011600e+000	 4.000000000000001e+000	 1.021746601056101e+001
0	 2.800020000011599e+000	 4.066670000003317e+000	 1.020206339676350e+001
0	 2.800020000011599e+000	 4.133340000006532e+000	 1.018754561113575e+001
0	 2.800020000011600e+000	 4.200010000009550e+000	 1.017385854878666e+001
0	 2.800020000011599e+000	 4.266680000012266e+000	 1.016094810482517e+001
0	 2.800020000011600e+000	 4.333350000014584e+000	 1.014876017436020e+001
0	 2.800020000011601e+000	 4.400020000016401e+000	 1.013724065250068e+001
0	 2.800020000011600e+000	 4.466690000017619e+000	 1.012633543435555e+001
0	 2.800020000011600e+000	 4.533360000018134e+000	 1.011599041503376e+001
0	 2.800020000011600e+000	 4.600030000017849e+000	 1.010615148964427e+001
0	 2.800020000011599e+000	 4.666700000016665e+000	 1.009676455329605e+001
0	 2.866680000008066e+000	 4.000000000000000e+000	 1.023376651833153e+001
0	 2.866680000008066e+000	 4.066670000003319e+000	 1.021829591013128e+001
0	 2.866680000008067e+000	 4.133340000006533e+000	 1.020370677043824e+001
0	 2.866680000008067e+000	 4.200010000009550e+000	 1.018994101807091e+001
0	 2.866680000008067e+000	 4.266680000012268e+000	 1.017694057184782e+001
0	 2.866680000008066e+000	 4.333350000014585e+000	 1.016464735058749e+001
0	 2.866680000008067e+000	 4.400020000016401e+000	 1.015300327310848e+001
0	 2.866680000008066e+000	 4.466690000017617e+000	 1.014195025822931e+001
0	 2.866680000008066e+000	 4.533360000018135e+000	 1.013143022476854e+001
0	 2.866680000008067e+000	 4.600030000017851e+000	 1.012138509154473e+001
0	 2.866680000008067e+000	 4.666700000016666e+000	 1.011175677737644e+001
0	 2.933340000004133e+000	 4.000000000000001e+000	 1.024822882692426e+001
0	 2.933340000004133e+000	 4.066670000003317e+000	 1.023287915851952e+001
0	 2.933340000004133e+000	 4.133340000006534e+000	 1.021838474335296e+001
0	 2.933340000004133e+000	 4.200010000009550e+000	 1.020468596763263e+001
0	 2.933340000004134e+000	 4.266680000012267e+000	 1.019172321756665e+001
0	 2.933340000004133e+000	 4.333350000014583e+000	 1.017943687936310e+001
0	 2.933340000004133e+000	 4.400020000016400e+000	 1.016776733923009e+001
0	 2.933340000004133e+000	 4.466690000017617e+000	 1.015665498337573e+001
0	 2.933340000004133e+000	 4.533360000018133e+000	 1.014604019800814e+001
0	 2.933340000004133e+000	 4.600030000017850e+000	 1.013586336933544e+001
0	 2.933340000004133e+000	 4.666700000016667e+000	 1.012606488356577e+001
0	 3.000000000000000e+000	 4.000000000000001e+000	 1.026108730679343e+001
0	 3.000000000000000e+000	 4.066670000003318e+000	 1.024600864978198e+001
0	 3.000000000000001e+000	 4.133340000006534e+000	 1.023173904872760e+001
0	 3.000000000000000e+000	 4.200010000009552e+000	 1.021821980090792e+001
0	 3.000000000000000e+000	 4.266680000012268e+000	 1.020539220360056e+001
0	 3.000000000000000e+000	 4.333350000014583e+000	 1.019319755408314e+001
0	 3.000000000000000e+000	 4.400020000016401e+000	 1.018157714963333e+001
0	 3.000000000000000e+000	 4.466690000017617e+000	 1.017047228752872e+001
0	 3.000000000000001e+000	 4.533360000018135e+000	 1.015982426504701e+001
0	 3.000000000000001e+000	 4.600030000017850e+000	 1.014957437946582e+001
0	 3.000000000000000e+000	 4.666700000016665e+000	 1.013966392806282e+001
0	 3.066659999995868e+000	 4.000000000000000e+000	 1.027257632839332e+001
0	 3.066659999995867e+000	 4.066670000003318e+000	 1.025787989177242e+001
0	 3.066659999995868e+000	 4.133340000006535e+000	 1.024392920540989e+001
0	 3.066659999995866e+000	 4.200010000009550e+000	 1.023066892133285e+001
0	 3.066659999995867e+000	 4.266680000012268e+000	 1.021804369156843e+001
0	 3.066659999995867e+000	 4.333350000014583e+000	 1.020599816814375e+001
0	 3.066659999995868e+000	 4.400020000016402e+000	 1.019447700308595e+001
0	 3.066659999995867e+000	 4.466690000017617e+000	 1.018342484842217e+001
0	 3.066659999995868e+000	 4.533360000018135e+000	 1.017278635617955e+001
0	 3.066659999995867e+000	 4.600030000017850e+000	 1.016250617838525e+001
0	 3.066659999995867e+000	 4.666700000016665e+000	 1.015252896706640e+001
0	 3.133319999991935e+000	 4.000000000000000e+000	 1.028293026217815e+001
0	 3.133319999991935e+000	 4.066670000003318e+000	 1.026868839234457e+001
0	 3.133319999991935e+000	 4.133340000006535e+000	 1.025511473224748e+001
0	 3.133319999991934e+000	 4.200010000009551e+000	 1.024215973234346e+001
0	 3.133319999991934e+000	 4.266680000012268e+000	 1.022977384308910e+001
0	 3.133319999991935e+000	 4.333350000014585e+000	 1.021790751494101e+001
0	 3.133319999991933e+000	 4.400020000016399e+000	 1.020651119835576e+001
0	 3.133319999991935e+000	 4.466690000017617e+000	 1.019553534378995e+001
0	 3.133319999991935e+000	 4.533360000018134e+000	 1.018493040170021e+001
0	 3.133319999991934e+000	 4.600030000017850e+000	 1.017464682254311e+001
0	 3.133319999991934e+000	 4.666700000016667e+000	 1.016463505677531e+001
0	 3.199979999988401e+000	 4.000000000000000e+000	 1.029238347860216e+001
0	 3.199979999988401e+000	 4.066670000003318e+000	 1.027862965935217e+001
0	 3.199979999988400e+000	 4.133340000006534e+000	 1.026545514808806e+001
0	 3.199979999988401e+000	 4.200010000009550e+000	 1.025281863737582e+001
0	 3.199979999988401e+000	 4.266680000012268e+000	 1.024067881978147e+001
0	 3.199979999988400e+000	 4.333350000014583e+000	 1.022899438787102e+001
0	 3.199979999988401e+000	 4.400020000016401e+000	 1.021772403421051e+001
0	 3.199979999988401e+000	 4.466690000017617e+000	 1.020682645136596e+001
0	 3.199979999988400e+000	 4.533360000018132e+000	 1.019626033190337e+001
0	 3.199979999988401e+000	 4.600030000017852e+000	 1.018598436838880e+001
0	 3.199979999988400e+000	 4.666700000016665e+000	 1.017595725338829e+001
0	 3.266639999985467e+000	 4.000000000000001e+000	 1.030117034811953e+001
0	 3.266639999985468e+000	 4.066670000003318e+000	 1.028789920064894e+001
0	 3.266639999985467e+000	 4.133340000006533e+000	 1.027510997177928e+001
0	 3.266639999985467e+000	 4.200010000009550e+000	 1.026277203986595e+001
0	 3.266639999985468e+000	 4.266680000012268e+000	 1.025085478326435e+001
0	 3.266639999985468e+000	 4.333350000014584e+000	 1.023932758032987e+001
0	 3.266639999985468e+000	 4.400020000016402e+000	 1.022815980941796e+001
0	 3.266639999985468e+000	 4.466690000017616e+000	 1.021732084888401e+001
0	 3.266639999985468e+000	 4.533360000018134e+000	 1.020678007708345e+001
0	 3.266639999985468e+000	 4.600030000017851e+000	 1.019650687237168e+001
0	 3.266639999985468e+000	 4.666700000016667e+000	 1.018647061310415e+001
0	 3.333299999983333e+000	 4.000000000000000e+000	 1.030952524118447e+001
0	 3.333299999983334e+000	 4.066670000003317e+000	 1.029669252408859e+001
0	 3.333299999983334e+000	 4.133340000006534e+000	 1.028423872216879e+001
0	 3.333299999983335e+000	 4.200010000009551e+000	 1.027214634324987e+001
0	 3.333299999983334e+000	 4.266680000012268e+000	 1.026039789515656e+001
0	 3.333299999983334e+000	 4.333350000014583e+000	 1.024897588571363e+001
0	 3.333299999983334e+000	 4.400020000016401e+000	 1.023786282274586e+001
0	 3.333299999983333e+000	 4.466690000017617e+000	 1.022704121407800e+001
0	 3.333299999983334e+000	 4.533360000018134e+000	 1.021649356753482e+001
0	 3.333299999983334e+000	 4.600030000017851e+000	 1.020620239094110e+001
0	 3.333299999983333e+000	 4.666700000016666e+000	 1.019615019212163e+001
0	 2.666700000016666e+000	 4.666700000016666e+000	 1.006482752666679e+001
0	 2.666700000016666e+000	 4.733360000014533e+000	 1.005660990749346e+001
0	 2.666700000016666e+000	 4.800020000011600e+000	 1.004878642237366e+001
0	 2.666700000016667e+000	 4.866680000008069e+000	 1.004140177997086e+001
0	 2.666700000016666e+000	 4.933340000004133e+000	 1.003450068894848e+001
0	 2.666700000016666e+000	 5.000000000000001e+000	 1.002812785797000e+001
0	 2.666700000016667e+000	 5.066659999995868e+000	 1.002232799569883e+001
0	 2.666700000016666e+000	 5.133319999991934e+000	 1.001714581079837e+001
0	 2.666700000016667e+000	 5.199979999988402e+000	 1.001262601193203e+001
0	 2.666700000016667e+000	 5.266639999985468e+000	 1.000881330776318e+001
0	 2.666700000016666e+000	 5.333299999983335e+000	 1.000575240695518e+001
0	 2.733360000014533e+000	 4.666700000016666e+000	 1.008111315512577e+001
0	 2.733360000014533e+000	 4.733360000014534e+000	 1.007247538368510e+001
0	 2.733360000014533e+000	 4.800020000011600e+000	 1.006426119533759e+001
0	 2.733360000014533e+000	 4.866680000008067e+000	 1.005651298318846e+001
0	 2.733360000014533e+000	 4.933340000004135e+000	 1.004927314034287e+001
0	 2.733360000014534e+000	 5.000000000000000e+000	 1.004258405990595e+001
0	 2.733360000014533e+000	 5.066659999995868e+000	 1.003648813498286e+001
0	 2.733360000014533e+000	 5.133319999991935e+000	 1.003102775867870e+001
0	 2.733360000014534e+000	 5.199979999988400e+000	 1.002624532409858e+001
0	 2.733360000014533e+000	 5.266639999985467e+000	 1.002218322434759e+001
0	 2.733360000014532e+000	 5.333299999983334e+000	 1.001888385253082e+001
0	 2.800020000011599e+000	 4.666700000016665e+000	 1.009676455329605e+001
0	 2.800020000011599e+000	 4.733360000014533e+000	 1.008779283458415e+001
0	 2.800020000011600e+000	 4.800020000011601e+000	 1.007925929558729e+001
0	 2.800020000011600e+000	 4.866680000008067e+000	 1.007120356197300e+001
0	 2.800020000011600e+000	 4.933340000004134e+000	 1.006366525940873e+001
0	 2.800020000011600e+000	 5.000000000000000e+000	 1.005668401356199e+001
0	 2.800020000011600e+000	 5.066659999995867e+000	 1.005029945010023e+001
0	 2.800020000011601e+000	 5.133319999991935e+000	 1.004455119469087e+001
0	 2.800020000011600e+000	 5.199979999988400e+000	 1.003947887300137e+001
0	 2.800020000011599e+000	 5.266639999985466e+000	 1.003512211069912e+001
0	 2.800020000011600e+000	 5.333299999983335e+000	 1.003152053345151e+001
0	 2.866680000008067e+000	 4.666700000016666e+000	 1.011175677737644e+001
0	 2.866680000008066e+000	 4.733360000014534e+000	 1.010252716921123e+001
0	 2.866680000008067e+000	 4.800020000011600e+000	 1.009373831404665e+001
0	 2.866680000008067e+000	 4.866680000008066e+000	 1.008542661823312e+001
0	 2.866680000008066e+000	 4.933340000004132e+000	 1.007762848812106e+001
0	 2.866680000008067e+000	 5.000000000000001e+000	 1.007038033006089e+001
0	 2.866680000008067e+000	 5.066659999995866e+000	 1.006371855040299e+001
0	 2.866680000008067e+000	 5.133319999991933e+000	 1.005767955549774e+001
0	 2.866680000008067e+000	 5.199979999988401e+000	 1.005229975169549e+001
0	 2.866680000008067e+000	 5.266639999985468e+000	 1.004761554534660e+001
0	 2.866680000008066e+000	 5.333299999983334e+000	 1.004366334280138e+001
0	 2.933340000004133e+000	 4.666700000016667e+000	 1.012606488356577e+001
0	 2.933340000004133e+000	 4.733360000014534e+000	 1.011664329658697e+001
0	 2.933340000004134e+000	 4.800020000011599e+000	 1.010765584163957e+001
0	 2.933340000004133e+000	 4.866680000008067e+000	 1.009913525387752e+001
0	 2.933340000004133e+000	 4.933340000004132e+000	 1.009111426845482e+001
0	 2.933340000004133e+000	 5.000000000000000e+000	 1.008362562052539e+001
0	 2.933340000004133e+000	 5.066659999995868e+000	 1.007670204524317e+001
0	 2.933340000004134e+000	 5.133319999991934e+000	 1.007037627776209e+001
0	 2.933340000004133e+000	 5.199979999988400e+000	 1.006468105323603e+001
0	 2.933340000004134e+000	 5.266639999985470e+000	 1.005964910681890e+001
0	 2.933340000004133e+000	 5.333299999983334e+000	 1.005531317366457e+001
0	 3.000000000000000e+000	 4.666700000016665e+000	 1.013966392806282e+001
0	 3.000000000000001e+000	 4.733360000014534e+000	 1.013010612573195e+001
0	 3.000000000000000e+000	 4.800020000011601e+000	 1.012096946928993e+001
0	 3.000000000000001e+000	 4.866680000008068e+000	 1.011228257081490e+001
0	 3.000000000000000e+000	 4.933340000004135e+000	 1.010407404238497e+001
0	 3.000000000000000e+000	 4.999999999999999e+000	 1.009637249607824e+001
0	 3.000000000000000e+000	 5.066659999995866e+000	 1.008920654397280e+001
0	 3.000000000000000e+000	 5.133319999991934e+000	 1.008260479814672e+001
0	 3.000000000000001e+000	 5.199979999988401e+000	 1.007659587067806e+001
0	 3.000000000000000e+000	 5.266639999985467e+000	 1.007120837364487e+001
0	 3.000000000000000e+000	 5.333299999983333e+000	 1.006647091912517e+001
0	 3.066659999995867e+000	 4.666700000016665e+000	 1.015252896706641e+001
0	 3.066659999995868e+000	 4.733360000014534e+000	 1.014288056566676e+001
0	 3.066659999995868e+000	 4.800020000011600e+000	 1.013363678792163e+001
0	 3.066659999995868e+000	 4.866680000008067e+000	 1.012482167095391e+001
0	 3.066659999995867e+000	 4.933340000004133e+000	 1.011645925188647e+001
0	 3.066659999995867e+000	 5.000000000000001e+000	 1.010857356784219e+001
0	 3.066659999995867e+000	 5.066659999995867e+000	 1.010118865594390e+001
0	 3.066659999995868e+000	 5.133319999991936e+000	 1.009432855331445e+001
0	 3.066659999995867e+000	 5.199979999988400e+000	 1.008801729707667e+001
0	 3.066659999995867e+000	 5.266639999985467e+000	 1.008227892435335e+001
0	 3.066659999995867e+000	 5.333299999983333e+000	 1.007713747226732e+001
0	 3.133319999991934e+000	 4.666700000016667e+000	 1.016463505677531e+001
0	 3.133319999991934e+000	 4.733360000014534e+000	 1.015493152541199e+001
0	 3.133319999991934e+000	 4.800020000011601e+000	 1.014561538845854e+001
0	 3.133319999991934e+000	 4.866680000008065e+000	 1.013670565620323e+001
0	 3.133319999991934e+000	 4.933340000004134e+000	 1.012822133893428e+001
0	 3.133319999991934e+000	 4.999999999999999e+000	 1.012018144693997e+001
0	 3.133319999991934e+000	 5.066659999995868e+000	 1.011260499050849e+001
0	 3.133319999991935e+000	 5.133319999991935e+000	 1.010551097992807e+001
0	 3.133319999991933e+000	 5.199979999988398e+000	 1.009891842548692e+001
0	 3.133319999991934e+000	 5.266639999985468e+000	 1.009284633747320e+001
0	 3.133319999991933e+000	 5.333299999983333e+000	 1.008731372617512e+001
0	 3.199979999988400e+000	 4.666700000016665e+000	 1.017595725338829e+001
0	 3.199979999988401e+000	 4.733360000014532e+000	 1.016622391398822e+001
0	 3.199979999988401e+000	 4.800020000011601e+000	 1.015686286182454e+001
0	 3.199979999988401e+000	 4.866680000008067e+000	 1.014788762847151e+001
0	 3.199979999988402e+000	 4.933340000004134e+000	 1.013931174550335e+001
0	 3.199979999988401e+000	 4.999999999999999e+000	 1.013114874449431e+001
0	 3.199979999988401e+000	 5.066659999995867e+000	 1.012341215701859e+001
0	 3.199979999988400e+000	 5.133319999991934e+000	 1.011611551465037e+001
0	 3.199979999988400e+000	 5.199979999988400e+000	 1.010927234896386e+001
0	 3.199979999988400e+000	 5.266639999985467e+000	 1.010289619153325e+001
0	 3.199979999988401e+000	 5.333299999983335e+000	 1.009700057393267e+001
0	 3.266639999985468e+000	 4.666700000016667e+000	 1.018647061310415e+001
0	 3.266639999985468e+000	 4.733360000014534e+000	 1.017672264041600e+001
0	 3.266639999985468e+000	 4.800020000011601e+000	 1.016733679894348e+001
0	 3.266639999985468e+000	 4.866680000008065e+000	 1.015832068966741e+001
0	 3.266639999985468e+000	 4.933340000004135e+000	 1.014968191356863e+001
0	 3.266639999985468e+000	 4.999999999999999e+000	 1.014142807162794e+001
0	 3.266639999985468e+000	 5.066659999995868e+000	 1.013356676482618e+001
0	 3.266639999985467e+000	 5.133319999991936e+000	 1.012610559414413e+001
0	 3.266639999985468e+000	 5.199979999988400e+000	 1.011905216056258e+001
0	 3.266639999985468e+000	 5.266639999985468e+000	 1.011241406506231e+001
0	 3.266639999985467e+000	 5.333299999983334e+000	 1.010619890862409e+001
0	 3.333299999983333e+000	 4.666700000016666e+000	 1.019615019212163e+001
0	 3.333299999983334e+000	 4.733360000014533e+000	 1.018639261371591e+001
0	 3.333299999983334e+000	 4.800020000011601e+000	 1.017699479073922e+001
0	 3.333299999983333e+000	 4.866680000008066e+000	 1.016795794169958e+001
0	 3.333299999983335e+000	 4.933340000004134e+000	 1.015928328510503e+001
0	 3.333299999983334e+000	 5.000000000000001e+000	 1.015097203946361e+001
0	 3.333299999983334e+000	 5.066659999995867e+000	 1.014302542328331e+001
0	 3.333299999983334e+000	 5.133319999991934e+000	 1.013544465507214e+001
0	 3.333299999983334e+000	 5.199979999988400e+000	 1.012823095333813e+001
0	 3.333299999983333e+000	 5.266639999985467e+000	 1.012138553658923e+001
0	 3.333299999983334e+000	 5.333299999983335e+000	 1.011490962333344e+001
0	 2.666700000016666e+000	 5.333299999983335e+000	 1.000575240695518e+001
0	 2.666700000016666e+000	 5.399969999982150e+000	 1.000315647702541e+001
0	 2.666700000016666e+000	 5.466639999981865e+000	 1.000069713103150e+001
0	 2.666700000016666e+000	 5.533309999982384e+000	 9.998355544283664e+000
0	 2.666700000016666e+000	 5.599979999983598e+000	 9.996112892092167e+000
0	 2.666700000016665e+000	 5.666649999985414e+000	 9.993950349767221e+000
0	 2.666700000016667e+000	 5.733319999987733e+000	 9.991849092619095e+000
0	 2.666700000016667e+000	 5.799989999990448e+000	 9.989790295958015e+000
0	 2.666700000016665e+000	 5.866659999993467e+000	 9.987755135094220e+000
0	 2.666700000016666e+000	 5.933329999996683e+000	 9.985724785337974e+000
0	 2.666700000016666e+000	 6.000000000000001e+000	 9.983680421999507e+000
0	 2.733360000014532e+000	 5.333299999983334e+000	 1.001888385253081e+001
0	 2.733360000014533e+000	 5.399969999982151e+000	 1.001603357233967e+001
0	 2.733360000014533e+000	 5.466639999981866e+000	 1.001328165307891e+001
0	 2.733360000014532e+000	 5.533309999982381e+000	 1.001061353939831e+001
0	 2.733360000014533e+000	 5.599979999983599e+000	 1.000801467594767e+001
0	 2.733360000014533e+000	 5.666649999985415e+000	 1.000547050737679e+001
0	 2.733360000014533e+000	 5.733319999987733e+000	 1.000296647833543e+001
0	 2.733360000014533e+000	 5.799989999990450e+000	 1.000048803347339e+001
0	 2.733360000014534e+000	 5.866659999993466e+000	 9.998020617440487e+000
0	 2.733360000014533e+000	 5.933329999996684e+000	 9.995549674886496e+000
0	 2.733360000014533e+000	 6.000000000000001e+000	 9.993060650461212e+000
0	 2.800020000011600e+000	 5.333299999983335e+000	 1.003152053345150e+001
0	 2.800020000011599e+000	 5.399969999982149e+000	 1.002835286882512e+001
0	 2.800020000011600e+000	 5.466639999981864e+000	 1.002526526037538e+001
0	 2.800020000011600e+000	 5.533309999982385e+000	 1.002224701275910e+001
0	 2.800020000011600e+000	 5.599979999983599e+000	 1.001928743063312e+001
0	 2.800020000011600e+000	 5.666649999985417e+000	 1.001637581865428e+001
0	 2.800020000011600e+000	 5.733319999987732e+000	 1.001350148147941e+001
0	 2.800020000011600e+000	 5.799989999990451e+000	 1.001065372376539e+001
0	 2.800020000011600e+000	 5.866659999993467e+000	 1.000782185016901e+001
0	 2.800020000011600e+000	 5.933329999996683e+000	 1.000499516534715e+001
0	 2.800020000011600e+000	 6.000000000000000e+000	 1.000216297395666e+001
0	 2.866680000008066e+000	 5.333299999983334e+000	 1.004366334280138e+001
0	 2.866680000008066e+000	 5.399969999982149e+000	 1.004013032174855e+001
0	 2.866680000008066e+000	 5.466639999981866e+000	 1.003667563152432e+001
0	 2.866680000008066e+000	 5.533309999982384e+000	 1.003329202746007e+001
0	 2.866680000008066e+000	 5.599979999983598e+000	 1.002997226488718e+001
0	 2.866680000008066e+000	 5.666649999985414e+000	 1.002670909913705e+001
0	 2.866680000008067e+000	 5.733319999987731e+000	 1.002349528554108e+001
0	 2.866680000008066e+000	 5.799989999990449e+000	 1.002032357943064e+001
0	 2.866680000008066e+000	 5.866659999993466e+000	 1.001718673613714e+001
0	 2.866680000008067e+000	 5.933329999996684e+000	 1.001407751099196e+001
0	 2.866680000008067e+000	 6.000000000000002e+000	 1.001098865932652e+001
0	 2.933340000004133e+000	 5.333299999983334e+000	 1.005531317366457e+001
0	 2.933340000004133e+000	 5.399969999982149e+000	 1.005138188637670e+001
0	 2.933340000004133e+000	 5.466639999981866e+000	 1.004754044512913e+001
0	 2.933340000004133e+000	 5.533309999982382e+000	 1.004378464659525e+001
0	 2.933340000004134e+000	 5.599979999983600e+000	 1.004011028744857e+001
0	 2.933340000004134e+000	 5.666649999985417e+000	 1.003651316436247e+001
0	 2.933340000004134e+000	 5.733319999987733e+000	 1.003298907401040e+001
0	 2.933340000004133e+000	 5.799989999990449e+000	 1.002953381306583e+001
0	 2.933340000004134e+000	 5.866659999993467e+000	 1.002614317820220e+001
0	 2.933340000004133e+000	 5.933329999996683e+000	 1.002281296609295e+001
0	 2.933340000004133e+000	 5.999999999999998e+000	 1.001953897341152e+001
0	 3.000000000000000e+000	 5.333299999983333e+000	 1.006647091912517e+001
0	 3.000000000000000e+000	 5.399969999982150e+000	 1.006212351797632e+001
0	 3.000000000000000e+000	 5.466639999981866e+000	 1.005788737979318e+001
0	 3.000000000000000e+000	 5.533309999982383e+000	 1.005376093325872e+001
0	 3.000000000000001e+000	 5.599979999983600e+000	 1.004974260705594e+001
0	 3.000000000000001e+000	 5.666649999985417e+000	 1.004583082986785e+001
0	 3.000000000000001e+000	 5.733319999987733e+000	 1.004202403037742e+001
0	 3.000000000000000e+000	 5.799989999990451e+000	 1.003832063726765e+001
0	 3.000000000000000e+000	 5.866659999993466e+000	 1.003471907922155e+001
0	 3.000000000000000e+000	 5.933329999996684e+000	 1.003121778492212e+001
0	 3.000000000000000e+000	 6.000000000000000e+000	 1.002781518305235e+001
0	 3.066659999995867e+000	 5.333299999983333e+000	 1.007713747226732e+001
0	 3.066659999995867e+000	 5.399969999982149e+000	 1.007237117181417e+001
0	 3.066659999995867e+000	 5.466639999981865e+000	 1.006774411411987e+001
0	 3.066659999995868e+000	 5.533309999982384e+000	 1.006325695054447e+001
0	 3.066659999995868e+000	 5.599979999983599e+000	 1.005891033244801e+001
0	 3.066659999995866e+000	 5.666649999985416e+000	 1.005470491119053e+001
0	 3.066659999995867e+000	 5.733319999987734e+000	 1.005064133813209e+001
0	 3.066659999995867e+000	 5.799989999990450e+000	 1.004672026463275e+001
0	 3.066659999995867e+000	 5.866659999993468e+000	 1.004294234205252e+001
0	 3.066659999995867e+000	 5.933329999996683e+000	 1.003930822175148e+001
0	 3.066659999995868e+000	 6.000000000000001e+000	 1.003581855508971e+001
0	 3.133319999991933e+000	 5.333299999983333e+000	 1.008731372617512e+001
0	 3.133319999991933e+000	 5.399969999982149e+000	 1.008214080315698e+001
0	 3.133319999991934e+000	 5.466639999981865e+000	 1.007713832671258e+001
0	 3.133319999991933e+000	 5.533309999982383e+000	 1.007230876154654e+001
0	 3.133319999991933e+000	 5.599979999983598e+000	 1.006765457236343e+001
0	 3.133319999991934e+000	 5.666649999985416e+000	 1.006317822386786e+001
0	 3.133319999991933e+000	 5.733319999987733e+000	 1.005888218076445e+001
0	 3.133319999991934e+000	 5.799989999990449e+000	 1.005476890775776e+001
0	 3.133319999991934e+000	 5.866659999993467e+000	 1.005084086955244e+001
0	 3.133319999991933e+000	 5.933329999996682e+000	 1.004710053085307e+001
0	 3.133319999991934e+000	 6.000000000000000e+000	 1.004355035636428e+001
0	 3.199979999988401e+000	 5.333299999983335e+000	 1.009700057393267e+001
0	 3.199979999988401e+000	 5.399969999982150e+000	 1.009144836727149e+001
0	 3.199979999988401e+000	 5.466639999981867e+000	 1.008609769617470e+001
0	 3.199979999988401e+000	 5.533309999982383e+000	 1.008095242935895e+001
0	 3.199979999988401e+000	 5.599979999983601e+000	 1.007601643554088e+001
0	 3.199979999988400e+000	 5.666649999985415e+000	 1.007129358343716e+001
0	 3.199979999988401e+000	 5.733319999987733e+000	 1.006678774176444e+001
0	 3.199979999988401e+000	 5.799989999990450e+000	 1.006250277923937e+001
0	 3.199979999988400e+000	 5.866659999993467e+000	 1.005844256457862e+001
0	 3.199979999988401e+000	 5.933329999996685e+000	 1.005461096649886e+001
0	 3.199979999988401e+000	 6.000000000000001e+000	 1.005101185371675e+001
0	 3.266639999985467e+000	 5.333299999983334e+000	 1.010619890862409e+001
0	 3.266639999985468e+000	 5.399969999982149e+000	 1.010030981942445e+001
0	 3.266639999985467e+000	 5.466639999981867e+000	 1.009464990110959e+001
0	 3.266639999985468e+000	 5.533309999982385e+000	 1.008922401707572e+001
0	 3.266639999985467e+000	 5.599979999983599e+000	 1.008403703071903e+001
0	 3.266639999985468e+000	 5.666649999985419e+000	 1.007909380543575e+001
0	 3.266639999985467e+000	 5.733319999987733e+000	 1.007439920462206e+001
0	 3.266639999985467e+000	 5.799989999990450e+000	 1.006995809167422e+001
0	 3.266639999985468e+000	 5.866659999993468e+000	 1.006577532998840e+001
0	 3.266639999985468e+000	 5.933329999996684e+000	 1.006185578296086e+001
0	 3.266639999985468e+000	 6.000000000000001e+000	 1.005820431398779e+001
0	 3.333299999983334e+000	 5.333299999983335e+000	 1.011490962333344e+001
0	 3.333299999983334e+000	 5.399969999982148e+000	 1.010874111488256e+001
0	 3.333299999983335e+000	 5.466639999981867e+000	 1.010282262012063e+001
0	 3.333299999983334e+000	 5.533309999982384e+000	 1.009715958779086e+001
0	 3.333299999983334e+000	 5.599979999983601e+000	 1.009175746663654e+001
0	 3.333299999983334e+000	 5.666649999985414e+000	 1.008662170540094e+001
0	 3.333299999983334e+000	 5.733319999987733e+000	 1.008175775282732e+001
0	 3.333299999983333e+000	 5.799989999990449e+000	 1.007717105765894e+001
0	 3.333299999983333e+000	 5.866659999993468e+000	 1.007286706863909e+001
0	 3.333299999983334e+000	 5.933329999996684e+000	 1.006885123451106e+001
0	 3.333299999983333e+000	 5.999999999999998e+000	 1.006512900401810e+001
0	 2.666700000016666e+000	 6.000000000000001e+000	 9.983680421999507e+000
0	 2.666700000016666e+000	 6.066670000003318e+000	 9.981705650360158e+000
0	 2.666700000016666e+000	 6.133340000006533e+000	 9.979911115117952e+000
0	 2.666700000016667e+000	 6.200010000009550e+000	 9.978318550708151e+000
0	 2.666700000016667e+000	 6.266680000012268e+000	 9.976949691566043e+000
0	 2.666700000016666e+000	 6.333350000014584e+000	 9.975826272126904e+000
0	 2.666700000016667e+000	 6.400020000016400e+000	 9.974970026826023e+000
0	 2.666700000016666e+000	 6.466690000017617e+000	 9.974402690098687e+000
0	 2.666700000016666e+000	 6.533360000018133e+000	 9.974145996380193e+000
0	 2.666700000016667e+000	 6.600030000017850e+000	 9.974221680105826e+000
0	 2.666700000016667e+000	 6.666700000016667e+000	 9.974651475710882e+000
0	 2.733360000014533e+000	 6.000000000000001e+000	 9.993060650461212e+000
0	 2.733360000014533e+000	 6.066670000003318e+000	 9.990665888038237e+000
0	 2.733360000014533e+000	 6.133340000006531e+000	 9.988498610376189e+000
0	 2.733360000014533e+000	 6.200010000009551e+000	 9.986575580452527e+000
0	 2.733360000014532e+000	 6.266680000012268e+000	 9.984913561244674e+000
0	 2.733360000014533e+000	 6.333350000014583e+000	 9.983529315730058e+000
0	 2.733360000014533e+000	 6.400020000016401e+000	 9.982439606886137e+000
0	 2.733360000014533e+000	 6.466690000017619e+000	 9.981661197690320e+000
0	 2.733360000014533e+000	 6.533360000018132e+000	 9.981210851120059e+000
0	 2.733360000014533e+000	 6.600030000017851e+000	 9.981105330152813e+000
0	 2.733360000014533e+000	 6.666700000016669e+000	 9.981361397766026e+000
0	 2.800020000011600e+000	 6.000000000000000e+000	 1.000216297395666e+001
0	 2.800020000011599e+000	 6.066670000003313e+000	 9.999447998790593e+000
0	 2.800020000011600e+000	 6.133340000006533e+000	 9.996988367320103e+000
0	 2.800020000011600e+000	 6.200010000009553e+000	 9.994796491219050e+000
0	 2.800020000011599e+000	 6.266680000012265e+000	 9.992884782161312e+000
0	 2.800020000011600e+000	 6.333350000014586e+000	 9.991265651820768e+000
0	 2.800020000011600e+000	 6.400020000016401e+000	 9.989951511871320e+000
0	 2.800020000011600e+000	 6.466690000017617e+000	 9.988954773986832e+000
0	 2.800020000011600e+000	 6.533360000018133e+000	 9.988287849841219e+000
0	 2.800020000011600e+000	 6.600030000017850e+000	 9.987963151108357e+000
0	 2.800020000011599e+000	 6.666700000016665e+000	 9.987993089462169e+000
0	 2.866680000008067e+000	 6.000000000000002e+000	 1.001098865932652e+001
0	 2.866680000008066e+000	 6.066670000003317e+000	 1.000803802732357e+001
0	 2.866680000008066e+000	 6.133340000006531e+000	 1.000535407796135e+001
0	 2.866680000008067e+000	 6.200010000009550e+000	 1.000294549176450e+001
0	 2.866680000008067e+000	 6.266680000012267e+000	 1.000082094925764e+001
0	 2.866680000008067e+000	 6.333350000014584e+000	 9.998989130965402e+000
0	 2.866680000008066e+000	 6.400020000016399e+000	 9.997458717412407e+000
0	 2.866680000008066e+000	 6.466690000017618e+000	 9.996238389123322e+000
0	 2.866680000008066e+000	 6.533360000018135e+000	 9.995336826622767e+000
0	 2.866680000008067e+000	 6.600030000017850e+000	 9.994762710435399e+000
0	 2.866680000008067e+000	 6.666700000016666e+000	 9.994524721085861e+000
0	 2.933340000004133e+000	 5.999999999999998e+000	 1.001953897341152e+001
0	 2.933340000004133e+000	 6.066670000003318e+000	 1.001642201834340e+001
0	 2.933340000004133e+000	 6.133340000006530e+000	 1.001356943431154e+001
0	 2.933340000004133e+000	 6.200010000009551e+000	 1.001098679084563e+001
0	 2.933340000004134e+000	 6.266680000012268e+000	 1.000867965747531e+001
0	 2.933340000004133e+000	 6.333350000014583e+000	 1.000665360373030e+001
0	 2.933340000004135e+000	 6.400020000016403e+000	 1.000491419914026e+001
0	 2.933340000004133e+000	 6.466690000017616e+000	 1.000346701323489e+001
0	 2.933340000004134e+000	 6.533360000018133e+000	 1.000231761554386e+001
0	 2.933340000004134e+000	 6.600030000017850e+000	 1.000147157559688e+001
0	 2.933340000004133e+000	 6.666700000016665e+000	 1.000093446292364e+001
0	 3.000000000000000e+000	 6.000000000000000e+000	 1.002781518305235e+001
0	 3.000000000000000e+000	 6.066670000003318e+000	 1.002458601655637e+001
0	 3.000000000000000e+000	 6.133340000006531e+000	 1.002160812838231e+001
0	 3.000000000000000e+000	 6.200010000009552e+000	 1.001888459721919e+001
0	 3.000000000000000e+000	 6.266680000012268e+000	 1.001641850175604e+001
0	 3.000000000000000e+000	 6.333350000014584e+000	 1.001421292068186e+001
0	 3.000000000000000e+000	 6.400020000016401e+000	 1.001227093268572e+001
0	 3.000000000000000e+000	 6.466690000017617e+000	 1.001059561645662e+001
0	 3.000000000000000e+000	 6.533360000018136e+000	 1.000919005068361e+001
0	 3.000000000000000e+000	 6.600030000017848e+000	 1.000805731405574e+001
0	 3.000000000000000e+000	 6.666700000016666e+000	 1.000720048526204e+001
0	 3.066659999995868e+000	 6.000000000000001e+000	 1.003581855508971e+001
0	 3.066659999995867e+000	 6.066670000003317e+000	 1.003251606666875e+001
0	 3.066659999995867e+000	 6.133340000006533e+000	 1.002944385218528e+001
0	 3.066659999995867e+000	 6.200010000009553e+000	 1.002660311964196e+001
0	 3.066659999995868e+000	 6.266680000012269e+000	 1.002399507704145e+001
0	 3.066659999995868e+000	 6.333350000014584e+000	 1.002162093238644e+001
0	 3.066659999995868e+000	 6.400020000016403e+000	 1.001948189367961e+001
0	 3.066659999995868e+000	 6.466690000017617e+000	 1.001757916892361e+001
0	 3.066659999995868e+000	 6.533360000018135e+000	 1.001591396612116e+001
0	 3.066659999995868e+000	 6.600030000017851e+000	 1.001448749327492e+001
0	 3.066659999995867e+000	 6.666700000016665e+000	 1.001330095838760e+001
0	 3.133319999991934e+000	 6.000000000000000e+000	 1.004355035636428e+001
0	 3.133319999991935e+000	 6.066670000003319e+000	 1.004019821338680e+001
0	 3.133319999991934e+000	 6.133340000006534e+000	 1.003705029773207e+001
0	 3.133319999991934e+000	 6.200010000009550e+000	 1.003410656687067e+001
0	 3.133319999991934e+000	 6.266680000012267e+000	 1.003136697827325e+001
0	 3.133319999991934e+000	 6.333350000014583e+000	 1.002883148941042e+001
0	 3.133319999991934e+000	 6.400020000016399e+000	 1.002650005775277e+001
0	 3.133319999991933e+000	 6.466690000017615e+000	 1.002437264077098e+001
0	 3.133319999991935e+000	 6.533360000018135e+000	 1.002244919593563e+001
0	 3.133319999991933e+000	 6.600030000017849e+000	 1.002072968071738e+001
0	 3.133319999991934e+000	 6.666700000016667e+000	 1.001921405258685e+001
0	 3.199979999988401e+000	 6.000000000000001e+000	 1.005101185371675e+001
0	 3.199979999988401e+000	 6.066670000003318e+000	 1.004761850141679e+001
0	 3.199979999988401e+000	 6.133340000006532e+000	 1.004440115703428e+001
0	 3.199979999988401e+000	 6.200010000009551e+000	 1.004135914766209e+001
0	 3.199979999988400e+000	 6.266680000012266e+000	 1.003849180039308e+001
0	 3.199979999988400e+000	 6.333350000014582e+000	 1.003579844232012e+001
0	 3.199979999988401e+000	 6.400020000016401e+000	 1.003327840053606e+001
0	 3.199979999988400e+000	 6.466690000017614e+000	 1.003093100213377e+001
0	 3.199979999988401e+000	 6.533360000018133e+000	 1.002875557420613e+001
0	 3.199979999988400e+000	 6.600030000017850e+000	 1.002675144384603e+001
0	 3.199979999988401e+000	 6.666700000016667e+000	 1.002491793814632e+001
0	 3.266639999985468e+000	 6.000000000000001e+000	 1.005820431398779e+001
0	 3.266639999985468e+000	 6.066670000003318e+000	 1.005476297546496e+001
0	 3.266639999985467e+000	 6.133340000006531e+000	 1.005147012210356e+001
0	 3.266639999985468e+000	 6.200010000009553e+000	 1.004832507077298e+001
0	 3.266639999985467e+000	 6.266680000012268e+000	 1.004532713834263e+001
0	 3.266639999985468e+000	 6.333350000014584e+000	 1.004247564168193e+001
0	 3.266639999985468e+000	 6.400020000016400e+000	 1.003976989766028e+001
0	 3.266639999985468e+000	 6.466690000017618e+000	 1.003720922314711e+001
0	 3.266639999985467e+000	 6.533360000018132e+000	 1.003479293501182e+001
0	 3.266639999985468e+000	 6.600030000017852e+000	 1.003252035012382e+001
0	 3.266639999985468e+000	 6.666700000016667e+000	 1.003039078535256e+001
0	 3.333299999983333e+000	 5.999999999999998e+000	 1.006512900401810e+001
0	 3.333299999983333e+000	 6.066670000003317e+000	 1.006161768023759e+001
0	 3.333299999983333e+000	 6.133340000006531e+000	 1.005823088495149e+001
0	 3.333299999983334e+000	 6.200010000009550e+000	 1.005496854496005e+001
0	 3.333299999983334e+000	 6.266680000012269e+000	 1.005183058706355e+001
0	 3.333299999983334e+000	 6.333350000014584e+000	 1.004881693806221e+001
0	 3.333299999983334e+000	 6.400020000016401e+000	 1.004592752475628e+001
0	 3.333299999983334e+000	 6.466690000017618e+000	 1.004316227394607e+001
0	 3.333299999983334e+000	 6.533360000018134e+000	 1.004052111243178e+001
0	 3.333299999983334e+000	 6.600030000017851e+000	 1.003800396701369e+001
0	 3.333299999983333e+000	 6.666700000016665e+000	 1.003561076449207e+001
0	 2.666700000016667e+000	 6.666700000016667e+000	 9.974651475710886e+000
0	 2.666700000016666e+000	 6.733360000014533e+000	 9.975260622837794e+000
0	 2.666700000016666e+000	 6.800020000011599e+000	 9.975855696132609e+000
0	 2.666700000016666e+000	 6.866680000008068e+000	 9.976430156206599e+000
0	 2.666700000016667e+000	 6.933340000004134e+000	 9.976977463670984e+000
0	 2.666700000016667e+000	 7.000000000000000e+000	 9.977491079137042e+000
0	 2.666700000016667e+000	 7.066659999995867e+000	 9.977964463216013e+000
0	 2.666700000016666e+000	 7.133319999991936e+000	 9.978391076519134e+000
0	 2.666700000016666e+000	 7.199979999988401e+000	 9.978764379657671e+000
0	 2.666700000016666e+000	 7.266639999985467e+000	 9.979077833242865e+000
0	 2.666700000016667e+000	 7.333299999983335e+000	 9.979324897885963e+000
0	 2.733360000014533e+000	 6.666700000016669e+000	 9.981361397766026e+000
0	 2.733360000014533e+000	 6.733360000014533e+000	 9.981786147385829e+000
0	 2.733360000014533e+000	 6.800020000011597e+000	 9.982173807683445e+000
0	 2.733360000014533e+000	 6.866680000008068e+000	 9.982521645411657e+000
0	 2.733360000014533e+000	 6.933340000004135e+000	 9.982826927323229e+000
0	 2.733360000014534e+000	 7.000000000000002e+000	 9.983086920170917e+000
0	 2.733360000014533e+000	 7.066659999995870e+000	 9.983298890707484e+000
0	 2.733360000014533e+000	 7.133319999991937e+000	 9.983460105685708e+000
0	 2.733360000014533e+000	 7.199979999988400e+000	 9.983567831858350e+000
0	 2.733360000014533e+000	 7.266639999985468e+000	 9.983619335978178e+000
0	 2.733360000014533e+000	 7.333299999983334e+000	 9.983611884797961e+000
0	 2.800020000011599e+000	 6.666700000016665e+000	 9.987993089462169e+000
0	 2.800020000011599e+000	 6.733360000014535e+000	 9.988180743431681e+000
0	 2.800020000011599e+000	 6.800020000011600e+000	 9.988321304732374e+000
0	 2.800020000011600e+000	 6.866680000008067e+000	 9.988415259695245e+000
0	 2.800020000011600e+000	 6.933340000004134e+000	 9.988463094651287e+000
0	 2.800020000011600e+000	 7.000000000000001e+000	 9.988465295931485e+000
0	 2.800020000011600e+000	 7.066659999995867e+000	 9.988422349866843e+000
0	 2.800020000011600e+000	 7.133319999991935e+000	 9.988334742788354e+000
0	 2.800020000011600e+000	 7.199979999988400e+000	 9.988202961026993e+000
0	 2.800020000011599e+000	 7.266639999985466e+000	 9.988027490913767e+000
0	 2.800020000011599e+000	 7.333299999983334e+000	 9.987808818779671e+000
0	 2.866680000008067e+000	 6.666700000016666e+000	 9.994524721085863e+000
0	 2.866680000008067e+000	 6.733360000014534e+000	 9.994433644460150e+000
0	 2.866680000008067e+000	 6.800020000011600e+000	 9.994296538883019e+000
0	 2.866680000008066e+000	 6.866680000008065e+000	 9.994116523700420e+000
0	 2.866680000008067e+000	 6.933340000004133e+000	 9.993896718258281e+000
0	 2.866680000008067e+000	 6.999999999999997e+000	 9.993640241902535e+000
0	 2.866680000008066e+000	 7.066659999995865e+000	 9.993350213979108e+000
0	 2.866680000008067e+000	 7.133319999991935e+000	 9.993029753833916e+000
0	 2.866680000008067e+000	 7.199979999988402e+000	 9.992681980812906e+000
0	 2.866680000008067e+000	 7.266639999985468e+000	 9.992310014261989e+000
0	 2.866680000008067e+000	 7.333299999983333e+000	 9.991916973527113e+000
0	 2.933340000004133e+000	 6.666700000016665e+000	 1.000093446292364e+001
0	 2.933340000004133e+000	 6.733360000014533e+000	 1.000053408395600e+001
0	 2.933340000004134e+000	 6.800020000011601e+000	 1.000009786173902e+001
0	 2.933340000004133e+000	 6.866680000008067e+000	 9.999630962070283e+000
0	 2.933340000004133e+000	 6.933340000004134e+000	 9.999138550747361e+000
0	 2.933340000004133e+000	 7.000000000000000e+000	 9.998625793567840e+000
0	 2.933340000004133e+000	 7.066659999995869e+000	 9.998097856329281e+000
0	 2.933340000004133e+000	 7.133319999991932e+000	 9.997559904829272e+000
0	 2.933340000004133e+000	 7.199979999988399e+000	 9.997017104865389e+000
0	 2.933340000004133e+000	 7.266639999985467e+000	 9.996474622235215e+000
0	 2.933340000004133e+000	 7.333299999983336e+000	 9.995937622736301e+000
0	 3.000000000000000e+000	 6.666700000016666e+000	 1.000720048526204e+001
0	 3.000000000000000e+000	 6.733360000014533e+000	 1.000647129540403e+001
0	 3.000000000000001e+000	 6.800020000011600e+000	 1.000572362490399e+001
0	 3.000000000000000e+000	 6.866680000008066e+000	 1.000496409944789e+001
0	 3.000000000000001e+000	 6.933340000004134e+000	 1.000419934472161e+001
0	 3.000000000000000e+000	 7.000000000000000e+000	 1.000343598641113e+001
0	 3.000000000000000e+000	 7.066659999995870e+000	 1.000268065020237e+001
0	 3.000000000000000e+000	 7.133319999991934e+000	 1.000193996178128e+001
0	 3.000000000000000e+000	 7.199979999988401e+000	 1.000122054683377e+001
0	 3.000000000000000e+000	 7.266639999985467e+000	 1.000052903104579e+001
0	 3.000000000000001e+000	 7.333299999983335e+000	 9.999872040103247e+000
0	 3.066659999995867e+000	 6.666700000016665e+000	 1.001330095838760e+001
0	 3.066659999995868e+000	 6.733360000014532e+000	 1.001223451228901e+001
0	 3.066659999995868e+000	 6.800020000011598e+000	 1.001117217998157e+001
0	 3.066659999995867e+000	 6.866680000008066e+000	 1.001012146047628e+001
0	 3.066659999995867e+000	 6.933340000004133e+000	 1.000908985278418e+001
0	 3.066659999995867e+000	 7.000000000000000e+000	 1.000808485591621e+001
0	 3.066659999995867e+000	 7.066659999995864e+000	 1.000711396888342e+001
0	 3.066659999995868e+000	 7.133319999991935e+000	 1.000618469069680e+001
0	 3.066659999995867e+000	 7.199979999988399e+000	 1.000530452036736e+001
0	 3.066659999995866e+000	 7.266639999985464e+000	 1.000448095690607e+001
0	 3.066659999995867e+000	 7.333299999983333e+000	 1.000372149932395e+001
0	 3.133319999991934e+000	 6.666700000016667e+000	 1.001921405258685e+001
0	 3.133319999991934e+000	 6.733360000014533e+000	 1.001781296809572e+001
0	 3.133319999991934e+000	 6.800020000011601e+000	 1.001644187857536e+001
0	 3.133319999991934e+000	 6.866680000008067e+000	 1.001510856979859e+001
0	 3.133319999991934e+000	 6.933340000004134e+000	 1.001382082753813e+001
0	 3.133319999991933e+000	 6.999999999999998e+000	 1.001258643756682e+001
0	 3.133319999991934e+000	 7.066659999995867e+000	 1.001141318565741e+001
0	 3.133319999991934e+000	 7.133319999991935e+000	 1.001030885758271e+001
0	 3.133319999991934e+000	 7.199979999988399e+000	 1.000928123911545e+001
0	 3.133319999991934e+000	 7.266639999985467e+000	 1.000833811602843e+001
0	 3.133319999991933e+000	 7.333299999983334e+000	 1.000748727409444e+001
0	 3.199979999988401e+000	 6.666700000016667e+000	 1.002491793814632e+001
0	 3.199979999988401e+000	 6.733360000014533e+000	 1.002319589630893e+001
0	 3.199979999988401e+000	 6.800020000011601e+000	 1.002153107228902e+001
0	 3.199979999988401e+000	 6.866680000008066e+000	 1.001993095205782e+001
0	 3.199979999988402e+000	 6.933340000004133e+000	 1.001840302158664e+001
0	 3.199979999988401e+000	 7.000000000000000e+000	 1.001695476684673e+001
0	 3.199979999988401e+000	 7.066659999995867e+000	 1.001559367380936e+001
0	 3.199979999988401e+000	 7.133319999991935e+000	 1.001432722844582e+001
0	 3.199979999988401e+000	 7.199979999988402e+000	 1.001316291672736e+001
0	 3.199979999988400e+000	 7.266639999985467e+000	 1.001210822462523e+001
0	 3.199979999988401e+000	 7.333299999983334e+000	 1.001117063811070e+001
0	 3.266639999985468e+000	 6.666700000016667e+000	 1.003039078535256e+001
0	 3.266639999985468e+000	 6.733360000014533e+000	 1.002837253041344e+001
0	 3.266639999985468e+000	 6.800020000011600e+000	 1.002643811272614e+001
0	 3.266639999985468e+000	 6.866680000008067e+000	 1.002459413189709e+001
0	 3.266639999985468e+000	 6.933340000004133e+000	 1.002284718753278e+001
0	 3.266639999985468e+000	 6.999999999999999e+000	 1.002120387923970e+001
0	 3.266639999985468e+000	 7.066659999995867e+000	 1.001967080662429e+001
0	 3.266639999985468e+000	 7.133319999991934e+000	 1.001825456929304e+001
0	 3.266639999985468e+000	 7.199979999988400e+000	 1.001696176685239e+001
0	 3.266639999985468e+000	 7.266639999985468e+000	 1.001579899890880e+001
0	 3.266639999985467e+000	 7.333299999983333e+000	 1.001477286506873e+001
0	 3.333299999983333e+000	 6.666700000016665e+000	 1.003561076449208e+001
0	 3.333299999983334e+000	 6.733360000014534e+000	 1.003333210389401e+001
0	 3.333299999983334e+000	 6.800020000011601e+000	 1.003116135149034e+001
0	 3.333299999983333e+000	 6.866680000008064e+000	 1.002910363395944e+001
0	 3.333299999983334e+000	 6.933340000004133e+000	 1.002716407797970e+001
0	 3.333299999983333e+000	 6.999999999999999e+000	 1.002534781022950e+001
0	 3.333299999983335e+000	 7.066659999995867e+000	 1.002365995738721e+001
0	 3.333299999983334e+000	 7.133319999991936e+000	 1.002210564613120e+001
0	 3.333299999983334e+000	 7.199979999988401e+000	 1.002069000313985e+001
0	 3.333299999983334e+000	 7.266639999985467e+000	 1.001941815509152e+001
0	 3.333299999983335e+000	 7.333299999983336e+000	 1.001829522866458e+001
0	 2.666700000016667e+000	 7.333299999983335e+000	 9.979324897885963e+000
0	 2.666700000016667e+000	 7.399969999982151e+000	 9.979558704141041e+000
0	 2.666700000016666e+000	 7.466639999981866e+000	 9.979842203292503e+000
0	 2.666700000016666e+000	 7.533309999982383e+000	 9.980183682317366e+000
0	 2.666700000016666e+000	 7.599979999983598e+000	 9.980591428192579e+000
0	 2.666700000016666e+000	 7.666649999985416e+000	 9.981073727895183e+000
0	 2.666700000016667e+000	 7.733319999987733e+000	 9.981638868402122e+000
0	 2.666700000016667e+000	 7.799989999990449e+000	 9.982295136690414e+000
0	 2.666700000016665e+000	 7.866659999993464e+000	 9.983050819737048e+000
0	 2.666700000016666e+000	 7.933329999996683e+000	 9.983914204519017e+000
0	 2.666700000016667e+000	 8.000000000000000e+000	 9.984893578013310e+000
0	 2.733360000014533e+000	 7.333299999983334e+000	 9.983611884797961e+000
0	 2.733360000014533e+000	 7.399969999982149e+000	 9.983608490117074e+000
0	 2.733360000014533e+000	 7.466639999981865e+000	 9.983677676101467e+000
0	 2.733360000014533e+000	 7.533309999982382e+000	 9.983824961023986e+000
0	 2.733360000014533e+000	 7.599979999983601e+000	 9.984055863157510e+000
0	 2.733360000014533e+000	 7.666649999985416e+000	 9.984375900774914e+000
0	 2.733360000014533e+000	 7.733319999987733e+000	 9.984790592149075e+000
0	 2.733360000014533e+000	 7.799989999990449e+000	 9.985305455552854e+000
0	 2.733360000014533e+000	 7.866659999993466e+000	 9.985926009259160e+000
0	 2.733360000014533e+000	 7.933329999996682e+000	 9.986657771540839e+000
0	 2.733360000014533e+000	 7.999999999999999e+000	 9.987506260670777e+000
0	 2.800020000011599e+000	 7.333299999983334e+000	 9.987808818779671e+000
0	 2.800020000011599e+000	 7.399969999982149e+000	 9.987610973616716e+000
0	 2.800020000011599e+000	 7.466639999981865e+000	 9.987499852251224e+000
0	 2.800020000011600e+000	 7.533309999982383e+000	 9.987478634704852e+000
0	 2.800020000011601e+000	 7.599979999983602e+000	 9.987550500999237e+000
0	 2.800020000011600e+000	 7.666649999985417e+000	 9.987718631156044e+000
0	 2.800020000011600e+000	 7.733319999987733e+000	 9.987986205196913e+000
0	 2.800020000011600e+000	 7.799989999990451e+000	 9.988356403143515e+000
0	 2.800020000011600e+000	 7.866659999993467e+000	 9.988832405017499e+000
0	 2.800020000011600e+000	 7.933329999996681e+000	 9.989417390840529e+000
0	 2.800020000011600e+000	 8.000000000000000e+000	 9.990114540634238e+000
0	 2.866680000008067e+000	 7.333299999983333e+000	 9.991916973527113e+000
0	 2.866680000008067e+000	 7.399969999982149e+000	 9.991560622973594e+000
0	 2.866680000008066e+000	 7.466639999981866e+000	 9.991297616325168e+000
0	 2.866680000008066e+000	 7.533309999982383e+000	 9.991129225805180e+000
0	 2.866680000008066e+000	 7.599979999983598e+000	 9.991056723636945e+000
0	 2.866680000008067e+000	 7.666649999985417e+000	 9.991081382043788e+000
0	 2.866680000008067e+000	 7.733319999987733e+000	 9.991204473249040e+000
0	 2.866680000008066e+000	 7.799989999990447e+000	 9.991427269476047e+000
0	 2.866680000008066e+000	 7.866659999993466e+000	 9.991751042948099e+000
0	 2.866680000008066e+000	 7.933329999996682e+000	 9.992177065888567e+000
0	 2.866680000008067e+000	 7.999999999999999e+000	 9.992706610520774e+000
0	 2.933340000004133e+000	 7.333299999983336e+000	 9.995937622736301e+000
0	 2.933340000004133e+000	 7.399969999982149e+000	 9.995451906521343e+000
0	 2.933340000004133e+000	 7.466639999981866e+000	 9.995059852906676e+000
0	 2.933340000004133e+000	 7.533309999982383e+000	 9.994761256770209e+000
0	 2.933340000004134e+000	 7.599979999983602e+000	 9.994555912989805e+000
0	 2.933340000004133e+000	 7.666649999985414e+000	 9.994443616443387e+000
0	 2.933340000004134e+000	 7.733319999987733e+000	 9.994424162008839e+000
0	 2.933340000004133e+000	 7.799989999990448e+000	 9.994497344564067e+000
0	 2.933340000004134e+000	 7.866659999993468e+000	 9.994662958986968e+000
0	 2.933340000004134e+000	 7.933329999996684e+000	 9.994920800155459e+000
0	 2.933340000004133e+000	 7.999999999999999e+000	 9.995270662947409e+000
0	 3.000000000000001e+000	 7.333299999983335e+000	 9.999872040103247e+000
0	 3.000000000000000e+000	 7.399969999982151e+000	 9.999279292593627e+000
0	 2.999999999999999e+000	 7.466639999981865e+000	 9.998775446579142e+000
0	 3.000000000000000e+000	 7.533309999982383e+000	 9.998359250045148e+000
0	 3.000000000000001e+000	 7.599979999983599e+000	 9.998029450977004e+000
0	 3.000000000000000e+000	 7.666649999985415e+000	 9.997784797360062e+000
0	 3.000000000000000e+000	 7.733319999987733e+000	 9.997624037179683e+000
0	 3.000000000000000e+000	 7.799989999990451e+000	 9.997545918421265e+000
0	 3.000000000000001e+000	 7.866659999993468e+000	 9.997549189070139e+000
0	 3.000000000000000e+000	 7.933329999996683e+000	 9.997632597111682e+000
0	 3.000000000000000e+000	 8.000000000000000e+000	 9.997794890531260e+000
0	 3.066659999995867e+000	 7.333299999983333e+000	 1.000372149932395e+001
0	 3.066659999995868e+000	 7.399969999982150e+000	 1.000303724952409e+001
0	 3.066659999995867e+000	 7.466639999981867e+000	 1.000243328192594e+001
0	 3.066659999995867e+000	 7.533309999982381e+000	 1.000190772807523e+001
0	 3.066659999995868e+000	 7.599979999983601e+000	 1.000145871951768e+001
0	 3.066659999995868e+000	 7.666649999985417e+000	 1.000108438779903e+001
0	 3.066659999995868e+000	 7.733319999987733e+000	 1.000078286446498e+001
0	 3.066659999995867e+000	 7.799989999990450e+000	 1.000055228106126e+001
0	 3.066659999995867e+000	 7.866659999993466e+000	 1.000039076913360e+001
0	 3.066659999995867e+000	 7.933329999996682e+000	 1.000029646022774e+001
0	 3.066659999995868e+000	 8.000000000000000e+000	 1.000026748588937e+001
0	 3.133319999991933e+000	 7.333299999983334e+000	 1.000748727409443e+001
0	 3.133319999991933e+000	 7.399969999982148e+000	 1.000672024564635e+001
0	 3.133319999991935e+000	 7.466639999981867e+000	 1.000602224353044e+001
0	 3.133319999991934e+000	 7.533309999982384e+000	 1.000539121330567e+001
0	 3.133319999991933e+000	 7.599979999983598e+000	 1.000482510053106e+001
0	 3.133319999991934e+000	 7.666649999985417e+000	 1.000432185076553e+001
0	 3.133319999991934e+000	 7.733319999987733e+000	 1.000387940956809e+001
0	 3.133319999991934e+000	 7.799989999990449e+000	 1.000349572249773e+001
0	 3.133319999991934e+000	 7.866659999993466e+000	 1.000316873511340e+001
0	 3.133319999991935e+000	 7.933329999996683e+000	 1.000289639297410e+001
0	 3.133319999991934e+000	 8.000000000000000e+000	 1.000267664163882e+001
0	 3.199979999988401e+000	 7.333299999983334e+000	 1.001117063811070e+001
0	 3.199979999988402e+000	 7.399969999982152e+000	 1.001032274929406e+001
0	 3.199979999988402e+000	 7.466639999981867e+000	 1.000953121597602e+001
0	 3.199979999988400e+000	 7.533309999982381e+000	 1.000879422818172e+001
0	 3.199979999988401e+000	 7.599979999983600e+000	 1.000810997593626e+001
0	 3.199979999988401e+000	 7.666649999985417e+000	 1.000747664926479e+001
0	 3.199979999988401e+000	 7.733319999987733e+000	 1.000689243819243e+001
0	 3.199979999988401e+000	 7.799989999990449e+000	 1.000635553274429e+001
0	 3.199979999988400e+000	 7.866659999993467e+000	 1.000586412294554e+001
0	 3.199979999988401e+000	 7.933329999996684e+000	 1.000541639882128e+001
0	 3.199979999988401e+000	 7.999999999999999e+000	 1.000501055039666e+001
0	 3.266639999985467e+000	 7.333299999983333e+000	 1.001477286506874e+001
0	 3.266639999985467e+000	 7.399969999982151e+000	 1.001383922880087e+001
0	 3.266639999985468e+000	 7.466639999981867e+000	 1.001294908384608e+001
0	 3.266639999985468e+000	 7.533309999982384e+000	 1.001210129514857e+001
0	 3.266639999985468e+000	 7.599979999983599e+000	 1.001129472765249e+001
0	 3.266639999985467e+000	 7.666649999985417e+000	 1.001052824630202e+001
0	 3.266639999985467e+000	 7.733319999987733e+000	 1.000980071604134e+001
0	 3.266639999985467e+000	 7.799989999990450e+000	 1.000911100181462e+001
0	 3.266639999985467e+000	 7.866659999993466e+000	 1.000845796856602e+001
0	 3.266639999985468e+000	 7.933329999996683e+000	 1.000784048123976e+001
0	 3.266639999985468e+000	 8.000000000000000e+000	 1.000725740477998e+001
0	 3.333299999983335e+000	 7.333299999983336e+000	 1.001829522866457e+001
0	 3.333299999983333e+000	 7.399969999982149e+000	 1.001726415250040e+001
0	 3.333299999983334e+000	 7.466639999981866e+000	 1.001626473172399e+001
0	 3.333299999983334e+000	 7.533309999982383e+000	 1.001529693665145e+001
0	 3.333299999983334e+000	 7.599979999983601e+000	 1.001436073759891e+001
0	 3.333299999983334e+000	 7.666649999985416e+000	 1.001345610488247e+001
0	 3.333299999983334e+000	 7.733319999987733e+000	 1.001258300881823e+001
0	 3.333299999983334e+000	 7.799989999990448e+000	 1.001174141972235e+001
0	 3.333299999983333e+000	 7.866659999993466e+000	 1.001093130791091e+001
0	 3.333299999983334e+000	 7.933329999996683e+000	 1.001015264370003e+001
0	 3.333299999983334e+000	 8.000000000000000e+000	 1.000940539740582e+001
0	 2.666700000016667e+000	 8.000000000000000e+000	 9.984893578013310e+000
0	 2.666700000016666e+000	 8.066670000003317e+000	 9.985911240984938e+000
0	 2.666700000016666e+000	 8.133340000006532e+000	 9.986883239476116e+000
0	 2.666700000016666e+000	 8.200010000009550e+000	 9.987808478379666e+000
0	 2.666700000016666e+000	 8.266680000012267e+000	 9.988685862588344e+000
0	 2.666700000016666e+000	 8.333350000014583e+000	 9.989514296994987e+000
0	 2.666700000016665e+000	 8.400020000016399e+000	 9.990292686492396e+000
0	 2.666700000016666e+000	 8.466690000017618e+000	 9.991019935973359e+000
0	 2.666700000016666e+000	 8.533360000018133e+000	 9.991694950330698e+000
0	 2.666700000016666e+000	 8.600030000017851e+000	 9.992316634457172e+000
0	 2.666700000016666e+000	 8.666700000016668e+000	 9.992883893245613e+000
0	 2.733360000014533e+000	 7.999999999999999e+000	 9.987506260670777e+000
0	 2.733360000014534e+000	 8.066670000003319e+000	 9.988388879389204e+000
0	 2.733360000014534e+000	 8.133340000006532e+000	 9.989219753237242e+000
0	 2.733360000014533e+000	 8.200010000009552e+000	 9.989999484689228e+000
0	 2.733360000014533e+000	 8.266680000012268e+000	 9.990728676219472e+000
0	 2.733360000014533e+000	 8.333350000014583e+000	 9.991407930302264e+000
0	 2.733360000014532e+000	 8.400020000016403e+000	 9.992037849411920e+000
0	 2.733360000014534e+000	 8.466690000017618e+000	 9.992619036022742e+000
0	 2.733360000014532e+000	 8.533360000018133e+000	 9.993152092609028e+000
0	 2.733360000014533e+000	 8.600030000017854e+000	 9.993637621645078e+000
0	 2.733360000014533e+000	 8.666700000016666e+000	 9.994076225605214e+000
0	 2.800020000011600e+000	 8.000000000000000e+000	 9.990114540634238e+000
0	 2.800020000011599e+000	 8.066670000003315e+000	 9.990841808477304e+000
0	 2.800020000011600e+000	 8.133340000006530e+000	 9.991516356311648e+000
0	 2.800020000011599e+000	 8.200010000009550e+000	 9.992140175953919e+000
0	 2.800020000011600e+000	 8.266680000012265e+000	 9.992715259220722e+000
0	 2.800020000011600e+000	 8.333350000014585e+000	 9.993243597928695e+000
0	 2.800020000011600e+000	 8.400020000016397e+000	 9.993727183894466e+000
0	 2.800020000011600e+000	 8.466690000017618e+000	 9.994168008934654e+000
0	 2.800020000011601e+000	 8.533360000018135e+000	 9.994568064865891e+000
0	 2.800020000011601e+000	 8.600030000017853e+000	 9.994929343504778e+000
0	 2.800020000011600e+000	 8.666700000016666e+000	 9.995253836667976e+000
0	 2.866680000008067e+000	 7.999999999999999e+000	 9.992706610520774e+000
0	 2.866680000008066e+000	 8.066670000003319e+000	 9.993262652805392e+000
0	 2.866680000008067e+000	 8.133340000006532e+000	 9.993769369167429e+000
0	 2.866680000008067e+000	 8.200010000009549e+000	 9.994229832526655e+000
0	 2.866680000008067e+000	 8.266680000012267e+000	 9.994647115802815e+000
0	 2.866680000008066e+000	 8.333350000014585e+000	 9.995024291915664e+000
0	 2.866680000008066e+000	 8.400020000016399e+000	 9.995364433784959e+000
0	 2.866680000008066e+000	 8.466690000017618e+000	 9.995670614330477e+000
0	 2.866680000008066e+000	 8.533360000018133e+000	 9.995945906471965e+000
0	 2.866680000008067e+000	 8.600030000017849e+000	 9.996193383129173e+000
0	 2.866680000008067e+000	 8.666700000016665e+000	 9.996416117221875e+000
0	 2.933340000004133e+000	 7.999999999999999e+000	 9.995270662947409e+000
0	 2.933340000004133e+000	 8.066670000003319e+000	 9.995644036929624e+000
0	 2.933340000004133e+000	 8.133340000006534e+000	 9.995975112272733e+000
0	 2.933340000004133e+000	 8.200010000009550e+000	 9.996267734760448e+000
0	 2.933340000004133e+000	 8.266680000012267e+000	 9.996525750176483e+000
0	 2.933340000004133e+000	 8.333350000014585e+000	 9.996753004304544e+000
0	 2.933340000004133e+000	 8.400020000016399e+000	 9.996953342928336e+000
0	 2.933340000004133e+000	 8.466690000017618e+000	 9.997130611831564e+000
0	 2.933340000004133e+000	 8.533360000018131e+000	 9.997288656797938e+000
0	 2.933340000004133e+000	 8.600030000017851e+000	 9.997431323611181e+000
0	 2.933340000004133e+000	 8.666700000016666e+000	 9.997562458054953e+000
0	 3.000000000000000e+000	 8.000000000000000e+000	 9.997794890531260e+000
0	 3.000000000000000e+000	 8.066670000003319e+000	 9.997978585406143e+000
0	 3.000000000000000e+000	 8.133340000006530e+000	 9.998129906095659e+000
0	 2.999999999999999e+000	 8.200010000009549e+000	 9.998253163008270e+000
0	 3.000000000000000e+000	 8.266680000012267e+000	 9.998352666552471e+000
0	 3.000000000000000e+000	 8.333350000014582e+000	 9.998432727136729e+000
0	 3.000000000000000e+000	 8.400020000016401e+000	 9.998497655169501e+000
0	 3.000000000000001e+000	 8.466690000017618e+000	 9.998551761059259e+000
0	 3.000000000000000e+000	 8.533360000018133e+000	 9.998599355214491e+000
0	 3.000000000000000e+000	 8.600030000017847e+000	 9.998644748043647e+000
0	 3.000000000000001e+000	 8.666700000016666e+000	 9.998692249955218e+000
0	 3.066659999995868e+000	 8.000000000000000e+000	 1.000026748588937e+001
0	 3.066659999995867e+000	 8.066670000003319e+000	 1.000025892279107e+001
0	 3.066659999995867e+000	 8.133340000006534e+000	 1.000023007110430e+001
0	 3.066659999995867e+000	 8.200010000009552e+000	 1.000018539762310e+001
0	 3.066659999995868e+000	 8.266680000012270e+000	 1.000012936914152e+001
0	 3.066659999995867e+000	 8.333350000014583e+000	 1.000006645245360e+001
0	 3.066659999995868e+000	 8.400020000016399e+000	 1.000000111435337e+001
0	 3.066659999995867e+000	 8.466690000017616e+000	 9.999937821634941e+000
0	 3.066659999995867e+000	 8.533360000018133e+000	 9.999881041092301e+000
0	 3.066659999995868e+000	 8.600030000017851e+000	 9.999835239519531e+000
0	 3.066659999995868e+000	 8.666700000016665e+000	 9.999804883710683e+000
0	 3.133319999991934e+000	 8.000000000000000e+000	 1.000267664163882e+001
0	 3.133319999991934e+000	 8.066670000003317e+000	 1.000247767364059e+001
0	 3.133319999991935e+000	 8.133340000006536e+000	 1.000227192776681e+001
0	 3.133319999991933e+000	 8.200010000009550e+000	 1.000206371895792e+001
0	 3.133319999991935e+000	 8.266680000012268e+000	 1.000185736215433e+001
0	 3.133319999991934e+000	 8.333350000014583e+000	 1.000165717229652e+001
0	 3.133319999991934e+000	 8.400020000016403e+000	 1.000146746432490e+001
0	 3.133319999991934e+000	 8.466690000017618e+000	 1.000129255317994e+001
0	 3.133319999991935e+000	 8.533360000018137e+000	 1.000113675380206e+001
0	 3.133319999991935e+000	 8.600030000017851e+000	 1.000100438113173e+001
0	 3.133319999991935e+000	 8.666700000016668e+000	 1.000089975010934e+001
0	 3.199979999988401e+000	 7.999999999999999e+000	 1.000501055039666e+001
0	 3.199979999988401e+000	 8.066670000003317e+000	 1.000462746251082e+001
0	 3.199979999988400e+000	 8.133340000006530e+000	 1.000425179655128e+001
0	 3.199979999988401e+000	 8.200010000009550e+000	 1.000388740736567e+001
0	 3.199979999988400e+000	 8.266680000012265e+000	 1.000353814980167e+001
0	 3.199979999988401e+000	 8.333350000014583e+000	 1.000320787870689e+001
0	 3.199979999988401e+000	 8.400020000016401e+000	 1.000290044892898e+001
0	 3.199979999988401e+000	 8.466690000017618e+000	 1.000261971531563e+001
0	 3.199979999988400e+000	 8.533360000018133e+000	 1.000236953271444e+001
0	 3.199979999988400e+000	 8.600030000017849e+000	 1.000215375597309e+001
0	 3.199979999988401e+000	 8.666700000016668e+000	 1.000197623993923e+001
0	 3.266639999985468e+000	 8.000000000000000e+000	 1.000725740477998e+001
0	 3.266639999985468e+000	 8.066670000003317e+000	 1.000670091395793e+001
0	 3.266639999985467e+000	 8.133340000006534e+000	 1.000616599792584e+001
0	 3.266639999985468e+000	 8.200010000009552e+000	 1.000565574319938e+001
0	 3.266639999985468e+000	 8.266680000012267e+000	 1.000517323629425e+001
0	 3.266639999985468e+000	 8.333350000014583e+000	 1.000472156372607e+001
0	 3.266639999985468e+000	 8.400020000016401e+000	 1.000430381201055e+001
0	 3.266639999985467e+000	 8.466690000017616e+000	 1.000392306766335e+001
0	 3.266639999985467e+000	 8.533360000018133e+000	 1.000358241720012e+001
0	 3.266639999985467e+000	 8.600030000017849e+000	 1.000328494713657e+001
0	 3.266639999985467e+000	 8.666700000016666e+000	 1.000303374398835e+001
0	 3.333299999983334e+000	 8.000000000000000e+000	 1.000940539740582e+001
0	 3.333299999983334e+000	 8.066670000003317e+000	 1.000869065253801e+001
0	 3.333299999983334e+000	 8.133340000006532e+000	 1.000801085235858e+001
0	 3.333299999983334e+000	 8.200010000009550e+000	 1.000736800681200e+001
0	 3.333299999983334e+000	 8.266680000012267e+000	 1.000676412584281e+001
0	 3.333299999983334e+000	 8.333350000014585e+000	 1.000620121939547e+001
0	 3.333299999983334e+000	 8.400020000016399e+000	 1.000568129741452e+001
0	 3.333299999983334e+000	 8.466690000017618e+000	 1.000520636984447e+001
0	 3.333299999983333e+000	 8.533360000018133e+000	 1.000477844662981e+001
0	 3.333299999983335e+000	 8.600030000017851e+000	 1.000439953771505e+001
0	 3.333299999983334e+000	 8.666700000016668e+000	 1.000407165304472e+001
0	 2.666700000016666e+000	 8.666700000016668e+000	 9.992883893245612e+000
0	 2.666700000016667e+000	 8.733360002791903e+000	 9.993414916554883e+000
0	 2.666700000016667e+000	 8.800020022230555e+000	 9.993930946344550e+000
0	 2.666700000016666e+000	 8.866680074997040e+000	 9.994435222858606e+000
0	 2.666700000016667e+000	 8.933340177755779e+000	 9.994930986400249e+000
0	 2.666700000016666e+000	 9.000000347171183e+000	 9.995421477331981e+000
0	 2.666700000016666e+000	 9.066660599907667e+000	 9.995909936075490e+000
0	 2.666700000016666e+000	 9.133320952629655e+000	 9.996399603111795e+000
0	 2.666700000016667e+000	 9.199981422001557e+000	 9.996893718981070e+000
0	 2.666700000016667e+000	 9.266642024687794e+000	 9.997395524282759e+000
0	 2.666700000016666e+000	 9.333302777352785e+000	 9.997908259675528e+000
0	 2.733360000014533e+000	 8.666700000016666e+000	 9.994076225605214e+000
0	 2.733360000014533e+000	 8.733360002791901e+000	 9.994489173636941e+000
0	 2.733360000014534e+000	 8.800020022230553e+000	 9.994898633682004e+000
0	 2.733360000014533e+000	 8.866680074997044e+000	 9.995306369544259e+000
0	 2.733360000014533e+000	 8.933340177755776e+000	 9.995714145071242e+000
0	 2.733360000014533e+000	 9.000000347171183e+000	 9.996123724154268e+000
0	 2.733360000014533e+000	 9.066660599907669e+000	 9.996536870728361e+000
0	 2.733360000014533e+000	 9.133320952629655e+000	 9.996955348772289e+000
0	 2.733360000014532e+000	 9.199981422001558e+000	 9.997380922308476e+000
0	 2.733360000014533e+000	 9.266642024687798e+000	 9.997815355403137e+000
0	 2.733360000014533e+000	 9.333302777352785e+000	 9.998260412166159e+000
0	 2.800020000011600e+000	 8.666700000016666e+000	 9.995253836667976e+000
0	 2.800020000011600e+000	 8.733360002791905e+000	 9.995562767199106e+000
0	 2.800020000011600e+000	 8.800020022230557e+000	 9.995876466782786e+000
0	 2.800020000011599e+000	 8.866680074997040e+000	 9.996195452483754e+000
0	 2.800020000011600e+000	 8.933340177755781e+000	 9.996520241398423e+000
0	 2.800020000011600e+000	 9.000000347171183e+000	 9.996851350654909e+000
0	 2.800020000011600e+000	 9.066660599907667e+000	 9.997189297412971e+000
0	 2.800020000011600e+000	 9.133320952629653e+000	 9.997534598864045e+000
0	 2.800020000011600e+000	 9.199981422001557e+000	 9.997887772231239e+000
0	 2.800020000011599e+000	 9.266642024687796e+000	 9.998249334769261e+000
0	 2.800020000011600e+000	 9.333302777352783e+000	 9.998619803764557e+000
0	 2.866680000008067e+000	 8.666700000016665e+000	 9.996416117221873e+000
0	 2.866680000008066e+000	 8.733360002791903e+000	 9.996632748072472e+000
0	 2.866680000008067e+000	 8.800020022230553e+000	 9.996859596476991e+000
0	 2.866680000008066e+000	 8.866680074997040e+000	 9.997096162463102e+000
0	 2.866680000008067e+000	 8.933340177755778e+000	 9.997341946080843e+000
0	 2.866680000008067e+000	 9.000000347171184e+000	 9.997596447402728e+000
0	 2.866680000008066e+000	 9.066660599907666e+000	 9.997859166523632e+000
0	 2.866680000008067e+000	 9.133320952629656e+000	 9.998129603560878e+000
0	 2.866680000008067e+000	 9.199981422001558e+000	 9.998407258654178e+000
0	 2.866680000008067e+000	 9.266642024687798e+000	 9.998691631965677e+000
0	 2.866680000008067e+000	 9.333302777352783e+000	 9.998982223679878e+000
0	 2.933340000004133e+000	 8.666700000016666e+000	 9.997562458054953e+000
0	 2.933340000004133e+000	 8.733360002791905e+000	 9.997696167088112e+000
0	 2.933340000004133e+000	 8.800020022230555e+000	 9.997843173594751e+000
0	 2.933340000004133e+000	 8.866680074997042e+000	 9.998002190268306e+000
0	 2.933340000004133e+000	 8.933340177755776e+000	 9.998171929817548e+000
0	 2.933340000004133e+000	 9.000000347171181e+000	 9.998351104966524e+000
0	 2.933340000004133e+000	 9.066660599907667e+000	 9.998538428454619e+000
0	 2.933340000004133e+000	 9.133320952629653e+000	 9.998732613036502e+000
0	 2.933340000004133e+000	 9.199981422001558e+000	 9.998932371482166e+000
0	 2.933340000004133e+000	 9.266642024687798e+000	 9.999136416576889e+000
0	 2.933340000004133e+000	 9.333302777352783e+000	 9.999343461121191e+000
0	 3.000000000000001e+000	 8.666700000016666e+000	 9.998692249955216e+000
0	 3.000000000000000e+000	 8.733360002791903e+000	 9.998750075077140e+000
0	 3.000000000000000e+000	 8.800020022230555e+000	 9.998822348966170e+000
0	 3.000000000000000e+000	 8.866680074997039e+000	 9.998907226685381e+000
0	 3.000000000000000e+000	 8.933340177755776e+000	 9.999002863307542e+000
0	 3.000000000000000e+000	 9.000000347171181e+000	 9.999107413915107e+000
0	 3.000000000000000e+000	 9.066660599907666e+000	 9.999219033600220e+000
0	 3.000000000000000e+000	 9.133320952629658e+000	 9.999335877464707e+000
0	 2.999999999999999e+000	 9.199981422001557e+000	 9.999456100620069e+000
0	 3.000000000000001e+000	 9.266642024687796e+000	 9.999577858187431e+000
0	 3.000000000000000e+000	 9.333302777352781e+000	 9.999699305297632e+000
0	 3.066659999995868e+000	 8.666700000016665e+000	 9.999804883710683e+000
0	 3.066659999995868e+000	 8.733360002791901e+000	 9.999791522870652e+000
0	 3.066659999995868e+000	 8.800020022230557e+000	 9.999792273421377e+000
0	 3.066659999995867e+000	 8.866680074997042e+000	 9.999804962500317e+000
0	 3.066659999995867e+000	 8.933340177755779e+000	 9.999827417249854e+000
0	 3.066659999995868e+000	 9.000000347171181e+000	 9.999857464817278e+000
0	 3.066659999995868e+000	 9.066660599907667e+000	 9.999892932354728e+000
0	 3.066659999995867e+000	 9.133320952629655e+000	 9.999931647019215e+000
0	 3.066659999995868e+000	 9.199981422001562e+000	 9.999971435972661e+000
0	 3.066659999995867e+000	 9.266642024687794e+000	 1.000001012638181e+001
0	 3.066659999995867e+000	 9.333302777352781e+000	 1.000004554541827e+001
0	 3.133319999991935e+000	 8.666700000016668e+000	 1.000089975010934e+001
0	 3.133319999991934e+000	 8.733360002791903e+000	 1.000081756129974e+001
0	 3.133319999991934e+000	 8.800020022230555e+000	 1.000074809779046e+001
0	 3.133319999991934e+000	 8.866680074997040e+000	 1.000068908849912e+001
0	 3.133319999991933e+000	 8.933340177755776e+000	 1.000063826234355e+001
0	 3.133319999991934e+000	 9.000000347171183e+000	 1.000059334824188e+001
0	 3.133319999991934e+000	 9.066660599907669e+000	 1.000055207511244e+001
0	 3.133319999991933e+000	 9.133320952629653e+000	 1.000051217187383e+001
0	 3.133319999991934e+000	 9.199981422001557e+000	 1.000047136744486e+001
0	 3.133319999991934e+000	 9.266642024687799e+000	 1.000042739074457e+001
0	 3.133319999991934e+000	 9.333302777352783e+000	 1.000037797069227e+001
0	 3.199979999988401e+000	 8.666700000016668e+000	 1.000197623993923e+001
0	 3.199979999988400e+000	 8.733360002791901e+000	 1.000182524119549e+001
0	 3.199979999988401e+000	 8.800020022230557e+000	 1.000168497290356e+001
0	 3.199979999988401e+000	 8.866680074997042e+000	 1.000155329546779e+001
0	 3.199979999988400e+000	 8.933340177755778e+000	 1.000142806928763e+001
0	 3.199979999988401e+000	 9.000000347171181e+000	 1.000130715475768e+001
0	 3.199979999988401e+000	 9.066660599907667e+000	 1.000118841226762e+001
0	 3.199979999988400e+000	 9.133320952629653e+000	 1.000106970220226e+001
0	 3.199979999988402e+000	 9.199981422001560e+000	 1.000094888494147e+001
0	 3.199979999988400e+000	 9.266642024687794e+000	 1.000082382086025e+001
0	 3.199979999988401e+000	 9.333302777352785e+000	 1.000069237032868e+001
0	 3.266639999985467e+000	 8.666700000016666e+000	 1.000303374398835e+001
0	 3.266639999985467e+000	 8.733360002791901e+000	 1.000281161338899e+001
0	 3.266639999985468e+000	 8.800020022230555e+000	 1.000259804959077e+001
0	 3.266639999985467e+000	 8.866680074997042e+000	 1.000239127419233e+001
0	 3.266639999985468e+000	 8.933340177755778e+000	 1.000218950878115e+001
0	 3.266639999985468e+000	 9.000000347171181e+000	 1.000199097493353e+001
0	 3.266639999985468e+000	 9.066660599907667e+000	 1.000179389421458e+001
0	 3.266639999985468e+000	 9.133320952629656e+000	 1.000159648817827e+001
0	 3.266639999985468e+000	 9.199981422001562e+000	 1.000139697836735e+001
0	 3.266639999985468e+000	 9.266642024687798e+000	 1.000119358631332e+001
0	 3.266639999985468e+000	 9.333302777352785e+000	 1.000098453353664e+001
0	 3.333299999983334e+000	 8.666700000016668e+000	 1.000407165304471e+001
0	 3.333299999983334e+000	 8.733360002791903e+000	 1.000377372871135e+001
0	 3.333299999983334e+000	 8.800020022230553e+000	 1.000348247868223e+001
0	 3.333299999983334e+000	 8.866680074997039e+000	 1.000319671545877e+001
0	 3.333299999983334e+000	 8.933340177755779e+000	 1.000291525152313e+001
0	 3.333299999983333e+000	 9.000000347171181e+000	 1.000263689933822e+001
0	 3.333299999983334e+000	 9.066660599907667e+000	 1.000236047134762e+001
0	 3.333299999983335e+000	 9.133320952629656e+000	 1.000208477997564e+001
0	 3.333299999983333e+000	 9.199981422001558e+000	 1.000180863762734e+001
0	 3.333299999983334e+000	 9.266642024687796e+000	 1.000153085668839e+001
0	 3.333299999983334e+000	 9.333302777352785e+000	 1.000125024952527e+001
0	 2.666700000016666e+000	 9.333302777352785e+000	 9.997908259675528e+000
0	 2.666700000016666e+000	 9.399973674588178e+000	 9.998395129333922e+000
0	 2.666700000016666e+000	 9.466644621844617e+000	 9.998816470244195e+000
0	 2.666700000016666e+000	 9.533315502450000e+000	 9.999171455094341e+000
0	 2.666700000016666e+000	 9.599986199732197e+000	 9.999459255328945e+000
0	 2.666700000016667e+000	 9.666656597019095e+000	 9.999679041148861e+000
0	 2.666700000016666e+000	 9.733326577638575e+000	 9.999829981510832e+000
0	 2.666700000016667e+000	 9.799996024918521e+000	 9.999911244127180e+000
0	 2.666700000016666e+000	 9.866664822186822e+000	 9.999921995465270e+000
0	 2.666700000016666e+000	 9.933332852771351e+000	 9.999861400747111e+000
0	 2.666700000016666e+000	 1.000000000000000e+001	 9.999728623948915e+000
0	 2.733360000014533e+000	 9.333302777352785e+000	 9.998260412166159e+000
0	 2.733360000014533e+000	 9.399973674588175e+000	 9.998680399200707e+000
0	 2.733360000014533e+000	 9.466644621844619e+000	 9.999038528312047e+000
0	 2.733360000014533e+000	 9.533315502450000e+000	 9.999335123579577e+000
0	 2.733360000014532e+000	 9.599986199732195e+000	 9.999570507993198e+000
0	 2.733360000014533e+000	 9.666656597019092e+000	 9.999745003452976e+000
0	 2.733360000014533e+000	 9.733326577638577e+000	 9.999858930768706e+000
0	 2.733360000014533e+000	 9.799996024918524e+000	 9.999912609659605e+000
0	 2.733360000014532e+000	 9.866664822186822e+000	 9.999906358754032e+000
0	 2.733360000014533e+000	 9.933332852771352e+000	 9.999840495588723e+000
0	 2.733360000014533e+000	 1.000000000000000e+001	 9.999715336608677e+000
0	 2.800020000011600e+000	 9.333302777352783e+000	 9.998619803764559e+000
0	 2.800020000011599e+000	 9.399973674588173e+000	 9.998966788812295e+000
0	 2.800020000011600e+000	 9.466644621844619e+000	 9.999258243547342e+000
0	 2.800020000011600e+000	 9.533315502450002e+000	 9.999495369461320e+000
0	 2.800020000011601e+000	 9.599986199732197e+000	 9.999679367129197e+000
0	 2.800020000011600e+000	 9.666656597019092e+000	 9.999811436208788e+000
0	 2.800020000011600e+000	 9.733326577638575e+000	 9.999892775440541e+000
0	 2.800020000011599e+000	 9.799996024918523e+000	 9.999924582647148e+000
0	 2.800020000011600e+000	 9.866664822186820e+000	 9.999908054733080e+000
0	 2.800020000011600e+000	 9.933332852771352e+000	 9.999844387684375e+000
0	 2.800020000011600e+000	 1.000000000000000e+001	 9.999734776567854e+000
0	 2.866680000008067e+000	 9.333302777352783e+000	 9.998982223679878e+000
0	 2.866680000008067e+000	 9.399973674588178e+000	 9.999251704017038e+000
0	 2.866680000008066e+000	 9.466644621844619e+000	 9.999474191979315e+000
0	 2.866680000008066e+000	 9.533315502450000e+000	 9.999651492497378e+000
0	 2.866680000008067e+000	 9.599986199732197e+000	 9.999785409772116e+000
0	 2.866680000008066e+000	 9.666656597019095e+000	 9.999877747274441e+000
0	 2.866680000008066e+000	 9.733326577638572e+000	 9.999930307744858e+000
0	 2.866680000008067e+000	 9.799996024918524e+000	 9.999944893193133e+000
0	 2.866680000008067e+000	 9.866664822186822e+000	 9.999923304898031e+000
0	 2.866680000008066e+000	 9.933332852771354e+000	 9.999867343406727e+000
0	 2.866680000008067e+000	 1.000000000000000e+001	 9.999778808534719e+000
0	 2.933340000004133e+000	 9.333302777352783e+000	 9.999343461121189e+000
0	 2.933340000004133e+000	 9.399973674588175e+000	 9.999532550663288e+000
0	 2.933340000004133e+000	 9.466644621844619e+000	 9.999684949637272e+000
0	 2.933340000004134e+000	 9.533315502450002e+000	 9.999802792445516e+000
0	 2.933340000004133e+000	 9.599986199732197e+000	 9.999888212957199e+000
0	 2.933340000004133e+000	 9.666656597019093e+000	 9.999943344508086e+000
0	 2.933340000004134e+000	 9.733326577638575e+000	 9.999970319900111e+000
0	 2.933340000004133e+000	 9.799996024918521e+000	 9.999971271401089e+000
0	 2.933340000004133e+000	 9.866664822186820e+000	 9.999948330744502e+000
0	 2.933340000004133e+000	 9.933332852771354e+000	 9.999903629128850e+000
0	 2.933340000004133e+000	 1.000000000000000e+001	 9.999839297217584e+000
0	 3.000000000000000e+000	 9.333302777352781e+000	 9.999699305297634e+000
0	 3.000000000000001e+000	 9.399973674588180e+000	 9.999806734599423e+000
0	 3.000000000000000e+000	 9.466644621844623e+000	 9.999889092550468e+000
0	 3.000000000000000e+000	 9.533315502450000e+000	 9.999948569063546e+000
0	 3.000000000000001e+000	 9.599986199732197e+000	 9.999987353719654e+000
0	 3.000000000000000e+000	 9.666656597019092e+000	 1.000000763576786e+001
0	 3.000000000000000e+000	 9.733326577638575e+000	 1.000001160412478e+001
0	 3.000000000000000e+000	 9.799996024918523e+000	 1.000000144737455e+001
0	 3.000000000000000e+000	 9.866664822186822e+000	 9.999979353768193e+000
0	 3.000000000000001e+000	 9.933332852771352e+000	 9.999947511223450e+000
0	 3.000000000000000e+000	 1.000000000000000e+001	 9.999908107324558e+000
0	 3.066659999995867e+000	 9.333302777352781e+000	 1.000004554541827e+001
0	 3.066659999995867e+000	 9.399973674588175e+000	 1.000007166167382e+001
0	 3.066659999995868e+000	 9.466644621844619e+000	 1.000008519674819e+001
0	 3.066659999995868e+000	 9.533315502450002e+000	 1.000008812210922e+001
0	 3.066659999995867e+000	 9.599986199732197e+000	 1.000008240909470e+001
0	 3.066659999995867e+000	 9.666656597019090e+000	 1.000007002891189e+001
0	 3.066659999995868e+000	 9.733326577638577e+000	 1.000005295263744e+001
0	 3.066659999995868e+000	 9.799996024918524e+000	 1.000003315121693e+001
0	 3.066659999995867e+000	 9.866664822186822e+000	 1.000001259546473e+001
0	 3.066659999995868e+000	 9.933332852771354e+000	 9.999993256063435e+000
0	 3.066659999995866e+000	 9.999999999999998e+000	 9.999977103564039e+000
0	 3.133319999991934e+000	 9.333302777352783e+000	 1.000037797069227e+001
0	 3.133319999991933e+000	 9.399973674588175e+000	 1.000032473773486e+001
0	 3.133319999991933e+000	 9.466644621844619e+000	 1.000027183825968e+001
0	 3.133319999991935e+000	 9.533315502450002e+000	 1.000022075134037e+001
0	 3.133319999991934e+000	 9.599986199732195e+000	 1.000017295611753e+001
0	 3.133319999991934e+000	 9.666656597019097e+000	 1.000012993179832e+001
0	 3.133319999991934e+000	 9.733326577638579e+000	 1.000009315765648e+001
0	 3.133319999991935e+000	 9.799996024918523e+000	 1.000006411303178e+001
0	 3.133319999991934e+000	 9.866664822186820e+000	 1.000004427732977e+001
0	 3.133319999991934e+000	 9.933332852771354e+000	 1.000003513002176e+001
0	 3.133319999991934e+000	 1.000000000000000e+001	 1.000003815064410e+001
0	 3.199979999988401e+000	 9.333302777352785e+000	 1.000069237032868e+001
0	 3.199979999988400e+000	 9.399973674588173e+000	 1.000056336863086e+001
0	 3.199979999988400e+000	 9.466644621844617e+000	 1.000044759311423e+001
0	 3.199979999988400e+000	 9.533315502449998e+000	 1.000034575651477e+001
0	 3.199979999988401e+000	 9.599986199732197e+000	 1.000025857182335e+001
0	 3.199979999988401e+000	 9.666656597019095e+000	 1.000018675228534e+001
0	 3.199979999988401e+000	 9.733326577638577e+000	 1.000013101140046e+001
0	 3.199979999988401e+000	 9.799996024918523e+000	 1.000009206292248e+001
0	 3.199979999988401e+000	 9.866664822186822e+000	 1.000007062085902e+001
0	 3.199979999988401e+000	 9.933332852771354e+000	 1.000006739947112e+001
0	 3.199979999988401e+000	 1.000000000000000e+001	 1.000008311327314e+001
0	 3.266639999985468e+000	 9.333302777352785e+000	 1.000098453353664e+001
0	 3.266639999985467e+000	 9.399973674588177e+000	 1.000078496021022e+001
0	 3.266639999985468e+000	 9.466644621844621e+000	 1.000061103734111e+001
0	 3.266639999985468e+000	 9.533315502450002e+000	 1.000046243739022e+001
0	 3.266639999985468e+000	 9.599986199732198e+000	 1.000033883324739e+001
0	 3.266639999985468e+000	 9.666656597019095e+000	 1.000023989823100e+001
0	 3.266639999985468e+000	 9.733326577638573e+000	 1.000016530608781e+001
0	 3.266639999985468e+000	 9.799996024918523e+000	 1.000011473099262e+001
0	 3.266639999985468e+000	 9.866664822186822e+000	 1.000008784754806e+001
0	 3.266639999985468e+000	 9.933332852771354e+000	 1.000008433078447e+001
0	 3.266639999985468e+000	 1.000000000000000e+001	 1.000010385615943e+001
0	 3.333299999983334e+000	 9.333302777352785e+000	 1.000125024952527e+001
0	 3.333299999983334e+000	 9.399973674588177e+000	 1.000098691832135e+001
0	 3.333299999983334e+000	 9.466644621844619e+000	 1.000076074696959e+001
0	 3.333299999983334e+000	 9.533315502450002e+000	 1.000057009372448e+001
0	 3.333299999983333e+000	 9.599986199732197e+000	 1.000041331742486e+001
0	 3.333299999983334e+000	 9.666656597019093e+000	 1.000028877749353e+001
0	 3.333299999983334e+000	 9.733326577638577e+000	 1.000019483393709e+001
0	 3.333299999983334e+000	 9.799996024918524e+000	 1.000012984734565e+001
0	 3.333299999983334e+000	 9.866664822186822e+000	 1.000009217889264e+001
0	 3.333299999983333e+000	 9.933332852771354e+000	 1.000008019033460e+001
0	 3.333299999983334e+000	 1.000000000000000e+001	 1.000009224401105e+001
0	 3.333299999983334e+000	 0.000000000000000e+000	 1.082778977982192e+001
0	 3.333299999983333e+000	 6.666714722864756e-002	 1.073643491913149e+001
0	 3.333299999983333e+000	 1.333351778131789e-001	 1.066432600918836e+001
0	 3.333299999983334e+000	 2.000039750814772e-001	 1.060959378307444e+001
0	 3.333299999983334e+000	 2.666734223614256e-001	 1.057036906120159e+001
0	 3.333299999983334e+000	 3.333434029809069e-001	 1.054478275129799e+001
0	 3.333299999983334e+000	 4.000138002678044e-001	 1.053096584839684e+001
0	 3.333299999983333e+000	 4.666844975500011e-001	 1.052704943482732e+001
0	 3.333299999983335e+000	 5.333553781553803e-001	 1.053116468020794e+001
0	 3.333299999983334e+000	 6.000263254118248e-001	 1.054144284144198e+001
0	 3.333299999983334e+000	 6.666972226472175e-001	 1.055601526271548e+001
0	 3.399969999982150e+000	 0.000000000000000e+000	 1.095424045005447e+001
0	 3.399969999982149e+000	 6.666714722864757e-002	 1.086055890248406e+001
0	 3.399969999982150e+000	 1.333351778131789e-001	 1.078145713254108e+001
0	 3.399969999982150e+000	 2.000039750814772e-001	 1.071594819772252e+001
0	 3.399969999982149e+000	 2.666734223614254e-001	 1.066304526174236e+001
0	 3.399969999982150e+000	 3.333434029809069e-001	 1.062176159451446e+001
0	 3.399969999982150e+000	 4.000138002678045e-001	 1.059111057213837e+001
0	 3.399969999982150e+000	 4.666844975500012e-001	 1.057010567688778e+001
0	 3.399969999982150e+000	 5.333553781553803e-001	 1.055776049720187e+001
0	 3.399969999982150e+000	 6.000263254118246e-001	 1.055308872767942e+001
0	 3.399969999982150e+000	 6.666972226472177e-001	 1.055510416907563e+001
0	 3.466639999981865e+000	 0.000000000000000e+000	 1.101409020347785e+001
0	 3.466639999981866e+000	 6.666714722864756e-002	 1.092689349350297e+001
0	 3.466639999981865e+000	 1.333351778131789e-001	 1.084963127167958e+001
0	 3.466639999981866e+000	 2.000039750814772e-001	 1.078206507305691e+001
0	 3.466639999981866e+000	 2.666734223614255e-001	 1.072395654731286e+001
0	 3.466639999981866e+000	 3.333434029809069e-001	 1.067506745873544e+001
0	 3.466639999981866e+000	 4.000138002678044e-001	 1.063515968620730e+001
0	 3.466639999981866e+000	 4.666844975500011e-001	 1.060399522319319e+001
0	 3.466639999981866e+000	 5.333553781553801e-001	 1.058133617773059e+001
0	 3.466639999981866e+000	 6.000263254118248e-001	 1.056694477242307e+001
0	 3.466639999981866e+000	 6.666972226472177e-001	 1.056058334443702e+001
0	 3.533309999982383e+000	 0.000000000000000e+000	 1.101759080466696e+001
0	 3.533309999982382e+000	 6.666714722864756e-002	 1.094371928243511e+001
0	 3.533309999982382e+000	 1.333351778131790e-001	 1.087531861510309e+001
0	 3.533309999982383e+000	 2.000039750814773e-001	 1.081276495293631e+001
0	 3.533309999982383e+000	 2.666734223614256e-001	 1.075643456045374e+001
0	 3.533309999982382e+000	 3.333434029809068e-001	 1.070670381640965e+001
0	 3.533309999982383e+000	 4.000138002678045e-001	 1.066394921377831e+001
0	 3.533309999982382e+000	 4.666844975500012e-001	 1.062854735974167e+001
0	 3.533309999982382e+000	 5.333553781553801e-001	 1.060087497568014e+001
0	 3.533309999982382e+000	 6.000263254118247e-001	 1.058130889716622e+001
0	 3.533309999982382e+000	 6.666972226472177e-001	 1.057022607396124e+001
0	 3.599979999983598e+000	 0.000000000000000e+000	 1.097499401819665e+001
0	 3.599979999983598e+000	 6.666714722864756e-002	 1.091931685952730e+001
0	 3.599979999983598e+000	 1.333351778131789e-001	 1.086498935131082e+001
0	 3.599979999983600e+000	 2.000039750814772e-001	 1.081286838121935e+001
0	 3.599979999983600e+000	 2.666734223614256e-001	 1.076381094370552e+001
0	 3.599979999983598e+000	 3.333434029809068e-001	 1.071867413998566e+001
0	 3.599979999983598e+000	 4.000138002678043e-001	 1.067831517802594e+001
0	 3.599979999983598e+000	 4.666844975500011e-001	 1.064359137253115e+001
0	 3.599979999983599e+000	 5.333553781553801e-001	 1.061536014493651e+001
0	 3.599979999983598e+000	 6.000263254118247e-001	 1.059447902340201e+001
0	 3.599979999983599e+000	 6.666972226472178e-001	 1.058180564280981e+001
0	 3.666649999985415e+000	 0.000000000000000e+000	 1.089655160864164e+001
0	 3.666649999985415e+000	 6.666714722864756e-002	 1.086196681502620e+001
0	 3.666649999985415e+000	 1.333351778131789e-001	 1.082511366880176e+001
0	 3.666649999985416e+000	 2.000039750814773e-001	 1.078719590176449e+001
0	 3.666649999985415e+000	 2.666734223614255e-001	 1.074941733960857e+001
0	 3.666649999985414e+000	 3.333434029809068e-001	 1.071298190191194e+001
0	 3.666649999985415e+000	 4.000138002678044e-001	 1.067909360212462e+001
0	 3.666649999985415e+000	 4.666844975500012e-001	 1.064895654755950e+001
0	 3.666649999985415e+000	 5.333553781553803e-001	 1.062377493938556e+001
0	 3.666649999985415e+000	 6.000263254118246e-001	 1.060475307262354e+001
0	 3.666649999985416e+000	 6.666972226472177e-001	 1.059309533614416e+001
0	 3.733319999987732e+000	 0.000000000000000e+000	 1.079251534057661e+001
0	 3.733319999987730e+000	 6.666714722864754e-002	 1.077994973917841e+001
0	 3.733319999987731e+000	 1.333351778131789e-001	 1.076216175607481e+001
0	 3.733319999987732e+000	 2.000039750814773e-001	 1.074056805843006e+001
0	 3.733319999987731e+000	 2.666734223614256e-001	 1.071658539070314e+001
0	 3.733319999987732e+000	 3.333434029809069e-001	 1.069163057463679e+001
0	 3.733319999987732e+000	 4.000138002678044e-001	 1.066712050924866e+001
0	 3.733319999987732e+000	 4.666844975500011e-001	 1.064447217082444e+001
0	 3.733319999987732e+000	 5.333553781553803e-001	 1.062510261291306e+001
0	 3.733319999987731e+000	 6.000263254118247e-001	 1.061042896632382e+001
0	 3.733319999987732e+000	 6.666972226472177e-001	 1.060186843912568e+001
0	 3.799989999990448e+000	 0.000000000000000e+000	 1.067313697857614e+001
0	 3.799989999990448e+000	 6.666714722864756e-002	 1.068154622223038e+001
0	 3.799989999990448e+000	 1.333351778131790e-001	 1.068260380162876e+001
0	 3.799989999990448e+000	 2.000039750814773e-001	 1.067780539507429e+001
0	 3.799989999990448e+000	 2.666734223614256e-001	 1.066864673952934e+001
0	 3.799989999990449e+000	 3.333434029809070e-001	 1.065662363060840e+001
0	 3.799989999990448e+000	 4.000138002678043e-001	 1.064323192257223e+001
0	 3.799989999990448e+000	 4.666844975500011e-001	 1.062996752832361e+001
0	 3.799989999990449e+000	 5.333553781553804e-001	 1.061832641940469e+001
0	 3.799989999990448e+000	 6.000263254118246e-001	 1.060980462599576e+001
0	 3.799989999990448e+000	 6.666972226472178e-001	 1.060589823691564e+001
0	 3.866659999993465e+000	 0.000000000000000e+000	 1.054866828721474e+001
0	 3.866659999993464e+000	 6.666714722864754e-002	 1.057503685442850e+001
0	 3.866659999993465e+000	 1.333351778131789e-001	 1.059290999396228e+001
0	 3.866659999993465e+000	 2.000039750814773e-001	 1.060372845555522e+001
0	 3.866659999993464e+000	 2.666734223614255e-001	 1.060893302862714e+001
0	 3.866659999993465e+000	 3.333434029809068e-001	 1.060996454227484e+001
0	 3.866659999993466e+000	 4.000138002678045e-001	 1.060826386526939e+001
0	 3.866659999993465e+000	 4.666844975500012e-001	 1.060527190605452e+001
0	 3.866659999993464e+000	 5.333553781553800e-001	 1.060242961274602e+001
0	 3.866659999993466e+000	 6.000263254118247e-001	 1.060117797313218e+001
0	 3.866659999993465e+000	 6.666972226472177e-001	 1.060295801467530e+001
0	 3.933329999996682e+000	 0.000000000000000e+000	 1.042936103106682e+001
0	 3.933329999996682e+000	 6.666714722864757e-002	 1.046870222601901e+001
0	 3.933329999996682e+000	 1.333351778131790e-001	 1.049955052157388e+001
0	 3.933329999996681e+000	 2.000039750814773e-001	 1.052315778373080e+001
0	 3.933329999996681e+000	 2.666734223614255e-001	 1.054077590053638e+001
0	 3.933329999996682e+000	 3.333434029809070e-001	 1.055365678208402e+001
0	 3.933329999996681e+000	 4.000138002678044e-001	 1.056305236051408e+001
0	 3.933329999996682e+000	 4.666844975500011e-001	 1.057021459001457e+001
0	 3.933329999996682e+000	 5.333553781553801e-001	 1.057639544682253e+001
0	 3.933329999996682e+000	 6.000263254118247e-001	 1.058284692922586e+001
0	 3.933329999996682e+000	 6.666972226472177e-001	 1.059082105756579e+001
0	 4.000000000000000e+000	 0.000000000000000e+000	 1.032546697470673e+001
0	 4.000000000000001e+000	 6.666714722864757e-002	 1.037082292724806e+001
0	 4.000000000000001e+000	 1.333351778131790e-001	 1.040899557296197e+001
0	 4.000000000000000e+000	 2.000039750814772e-001	 1.044091392345884e+001
0	 4.000000000000001e+000	 2.666734223614255e-001	 1.046750699779678e+001
0	 3.999999999999999e+000	 3.333434029809068e-001	 1.048970382248376e+001
0	 4.000000000000000e+000	 4.000138002678045e-001	 1.050843343148010e+001
0	 4.000000000000000e+000	 4.666844975500011e-001	 1.052462486620106e+001
0	 4.000000000000000e+000	 5.333553781553803e-001	 1.053920717551960e+001
0	 4.000000000000001e+000	 6.000263254118247e-001	 1.055310941576943e+001
0	 4.000000000000000e+000	 6.666972226472175e-001	 1.056726065074821e+001
0	 3.333299999983334e+000	 6.666972226472175e-001	 1.055601526271548e+001
0	 3.333299999983334e+000	 7.333579753122049e-001	 1.057149199396872e+001
0	 3.333299999983334e+000	 8.000185779984418e-001	 1.058616977877338e+001
0	 3.333299999983334e+000	 8.666790473703455e-001	 1.060070281909111e+001
0	 3.333299999983334e+000	 9.333394000923322e-001	 1.061574531023550e+001
0	 3.333299999983334e+000	 9.999996528288189e-001	 1.063195144087200e+001
0	 3.333299999983335e+000	 1.066659822244222e+000	 1.064997539301792e+001
0	 3.333299999983334e+000	 1.133319925002958e+000	 1.067047134204235e+001
0	 3.333299999983334e+000	 1.199979977769445e+000	 1.069409345666620e+001
0	 3.333299999983334e+000	 1.266639997208098e+000	 1.072149589896219e+001
0	 3.333299999983334e+000	 1.333299999983334e+000	 1.075333282435494e+001
0	 3.399969999982150e+000	 6.666972226472177e-001	 1.055510416907563e+001
0	 3.399969999982150e+000	 7.333579753122047e-001	 1.056048198810729e+001
0	 3.399969999982150e+000	 8.000185779984420e-001	 1.056691042356903e+001
0	 3.399969999982150e+000	 8.666790473703454e-001	 1.057492069486689e+001
0	 3.399969999982150e+000	 9.333394000923322e-001	 1.058504401401635e+001
0	 3.399969999982150e+000	 9.999996528288190e-001	 1.059781158564226e+001
0	 3.399969999982150e+000	 1.066659822244222e+000	 1.061375460697873e+001
0	 3.399969999982150e+000	 1.133319925002958e+000	 1.063340426786914e+001
0	 3.399969999982150e+000	 1.199979977769445e+000	 1.065729175076615e+001
0	 3.399969999982150e+000	 1.266639997208098e+000	 1.068594823073162e+001
0	 3.399969999982149e+000	 1.333299999983334e+000	 1.071990487543679e+001
0	 3.466639999981866e+000	 6.666972226472177e-001	 1.056058334443702e+001
0	 3.466639999981867e+000	 7.333579753122049e-001	 1.055910720037874e+001
0	 3.466639999981866e+000	 8.000185779984418e-001	 1.055981031708062e+001
0	 3.466639999981866e+000	 8.666790473703452e-001	 1.056311420896481e+001
0	 3.466639999981866e+000	 9.333394000923321e-001	 1.056944038314088e+001
0	 3.466639999981866e+000	 9.999996528288189e-001	 1.057921033940571e+001
0	 3.466639999981866e+000	 1.066659822244222e+000	 1.059284557024344e+001
0	 3.466639999981866e+000	 1.133319925002959e+000	 1.061076756082541e+001
0	 3.466639999981866e+000	 1.199979977769445e+000	 1.063339778901021e+001
0	 3.466639999981867e+000	 1.266639997208098e+000	 1.066115772534362e+001
0	 3.466639999981866e+000	 1.333299999983334e+000	 1.069446883305871e+001
0	 3.533309999982382e+000	 6.666972226472177e-001	 1.057022607396124e+001
0	 3.533309999982382e+000	 7.333579753122047e-001	 1.056474899214369e+001
0	 3.533309999982382e+000	 8.000185779984416e-001	 1.056196349484962e+001
0	 3.533309999982383e+000	 8.666790473703456e-001	 1.056219466997131e+001
0	 3.533309999982382e+000	 9.333394000923320e-001	 1.056576759882997e+001
0	 3.533309999982383e+000	 9.999996528288191e-001	 1.057300735617571e+001
0	 3.533309999982382e+000	 1.066659822244222e+000	 1.058423901018742e+001
0	 3.533309999982382e+000	 1.133319925002958e+000	 1.059978762247284e+001
0	 3.533309999982382e+000	 1.199979977769445e+000	 1.061997824806850e+001
0	 3.533309999982383e+000	 1.266639997208098e+000	 1.064513593543973e+001
0	 3.533309999982381e+000	 1.333299999983334e+000	 1.067558572648076e+001
0	 3.599979999983599e+000	 6.666972226472178e-001	 1.058180564280981e+001
0	 3.599979999983600e+000	 7.333579753122049e-001	 1.057478872476265e+001
0	 3.599979999983598e+000	 8.000185779984416e-001	 1.057046399241744e+001
0	 3.599979999983598e+000	 8.666790473703452e-001	 1.056907338647279e+001
0	 3.599979999983598e+000	 9.333394000923321e-001	 1.057085884230450e+001
0	 3.599979999983599e+000	 9.999996528288191e-001	 1.057606228996555e+001
0	 3.599979999983598e+000	 1.066659822244222e+000	 1.058492565418602e+001
0	 3.599979999983599e+000	 1.133319925002959e+000	 1.059769085437310e+001
0	 3.599979999983598e+000	 1.199979977769445e+000	 1.061459980461111e+001
0	 3.599979999983598e+000	 1.266639997208098e+000	 1.063589441366152e+001
0	 3.599979999983598e+000	 1.333299999983334e+000	 1.066181658496296e+001
0	 3.666649999985416e+000	 6.666972226472177e-001	 1.059309533614416e+001
0	 3.666649999985415e+000	 7.333579753122047e-001	 1.058660775959613e+001
0	 3.666649999985415e+000	 8.000185779984416e-001	 1.058240584532545e+001
0	 3.666649999985415e+000	 8.666790473703450e-001	 1.058066166705559e+001
0	 3.666649999985415e+000	 9.333394000923321e-001	 1.058154729478530e+001
0	 3.666649999985415e+000	 9.999996528288190e-001	 1.058523479478856e+001
0	 3.666649999985415e+000	 1.066659822244222e+000	 1.059189622961460e+001
0	 3.666649999985415e+000	 1.133319925002959e+000	 1.060170365808788e+001
0	 3.666649999985415e+000	 1.199979977769445e+000	 1.061482913530815e+001
0	 3.666649999985415e+000	 1.266639997208098e+000	 1.063144471265050e+001
0	 3.666649999985415e+000	 1.333299999983333e+000	 1.065172243776532e+001
0	 3.733319999987732e+000	 6.666972226472177e-001	 1.060186843912568e+001
0	 3.733319999987732e+000	 7.333579753122047e-001	 1.059758745800454e+001
0	 3.733319999987731e+000	 8.000185779984413e-001	 1.059488308911496e+001
0	 3.733319999987732e+000	 8.666790473703451e-001	 1.059387082030605e+001
0	 3.733319999987732e+000	 9.333394000923323e-001	 1.059466613749318e+001
0	 3.733319999987732e+000	 9.999996528288190e-001	 1.059738452465799e+001
0	 3.733319999987732e+000	 1.066659822244222e+000	 1.060214146384844e+001
0	 3.733319999987731e+000	 1.133319925002959e+000	 1.060905243517879e+001
0	 3.733319999987731e+000	 1.199979977769445e+000	 1.061823291682969e+001
0	 3.733319999987732e+000	 1.266639997208098e+000	 1.062979838504820e+001
0	 3.733319999987732e+000	 1.333299999983334e+000	 1.064386431414786e+001
0	 3.799989999990448e+000	 6.666972226472178e-001	 1.060589823691564e+001
0	 3.799989999990447e+000	 7.333579753122048e-001	 1.060510918134824e+001
0	 3.799989999990448e+000	 8.000185779984416e-001	 1.060498975932723e+001
0	 3.799989999990448e+000	 8.666790473703453e-001	 1.060561215481042e+001
0	 3.799989999990449e+000	 9.333394000923323e-001	 1.060704855164889e+001
0	 3.799989999990448e+000	 9.999996528288186e-001	 1.060937113358708e+001
0	 3.799989999990448e+000	 1.066659822244222e+000	 1.061265208426284e+001
0	 3.799989999990448e+000	 1.133319925002958e+000	 1.061696358720747e+001
0	 3.799989999990448e+000	 1.199979977769445e+000	 1.062237782584579e+001
0	 3.799989999990448e+000	 1.266639997208098e+000	 1.062896698349614e+001
0	 3.799989999990448e+000	 1.333299999983334e+000	 1.063680324337055e+001
0	 3.866659999993465e+000	 6.666972226472177e-001	 1.060295801467530e+001
0	 3.866659999993465e+000	 7.333579753122048e-001	 1.060655429098754e+001
0	 3.866659999993465e+000	 8.000185779984417e-001	 1.060981989150348e+001
0	 3.866659999993465e+000	 8.666790473703453e-001	 1.061279697915493e+001
0	 3.866659999993466e+000	 9.333394000923324e-001	 1.061552771847318e+001
0	 3.866659999993465e+000	 9.999996528288191e-001	 1.061805427558905e+001
0	 3.866659999993465e+000	 1.066659822244222e+000	 1.062041881823310e+001
0	 3.866659999993465e+000	 1.133319925002958e+000	 1.062266351573554e+001
0	 3.866659999993466e+000	 1.199979977769445e+000	 1.062483053902648e+001
0	 3.866659999993464e+000	 1.266639997208098e+000	 1.062696206063581e+001
0	 3.866659999993464e+000	 1.333299999983334e+000	 1.062910025469342e+001
0	 3.933329999996682e+000	 6.666972226472177e-001	 1.059082105756579e+001
0	 3.933329999996681e+000	 7.333579753122047e-001	 1.059930414828266e+001
0	 3.933329999996682e+000	 8.000185779984415e-001	 1.060646752118489e+001
0	 3.933329999996682e+000	 8.666790473703455e-001	 1.061233660192581e+001
0	 3.933329999996682e+000	 9.333394000923321e-001	 1.061693681918675e+001
0	 3.933329999996682e+000	 9.999996528288190e-001	 1.062029360467710e+001
0	 3.933329999996681e+000	 1.066659822244222e+000	 1.062243239313444e+001
0	 3.933329999996681e+000	 1.133319925002959e+000	 1.062337862232460e+001
0	 3.933329999996682e+000	 1.199979977769445e+000	 1.062315773304182e+001
0	 3.933329999996681e+000	 1.266639997208098e+000	 1.062179516910872e+001
0	 3.933329999996682e+000	 1.333299999983334e+000	 1.061931637737643e+001
0	 4.000000000000000e+000	 6.666972226472175e-001	 1.056726065074821e+001
0	 4.000000000000002e+000	 7.333579753122048e-001	 1.058074011459381e+001
0	 4.000000000000001e+000	 8.000185779984418e-001	 1.059202668391256e+001
0	 4.000000000000000e+000	 8.666790473703454e-001	 1.060114233170918e+001
0	 4.000000000000000e+000	 9.333394000923323e-001	 1.060810903501028e+001
0	 3.999999999999999e+000	 9.999996528288188e-001	 1.061294877486437e+001
0	 4.000000000000001e+000	 1.066659822244222e+000	 1.061568353634209e+001
0	 3.999999999999999e+000	 1.133319925002959e+000	 1.061633530853622e+001
0	 4.000000000000001e+000	 1.199979977769445e+000	 1.061492608456183e+001
0	 4.000000000000000e+000	 1.266639997208098e+000	 1.061147786155633e+001
0	 3.999999999999999e+000	 1.333299999983334e+000	 1.060601264067955e+001
0	 3.333299999983334e+000	 1.333299999983334e+000	 1.075333282435494e+001
0	 3.333299999983334e+000	 1.399969999982150e+000	 1.078449769950372e+001
0	 3.333299999983334e+000	 1.466639999981867e+000	 1.080951819319984e+001
0	 3.333299999983334e+000	 1.533309999982383e+000	 1.082851518311992e+001
0	 3.333299999983333e+000	 1.599979999983599e+000	 1.084160954694053e+001
0	 3.333299999983334e+000	 1.666649999985416e+000	 1.084892216233818e+001
0	 3.333299999983334e+000	 1.733319999987733e+000	 1.085057390698930e+001
0	 3.333299999983334e+000	 1.799989999990450e+000	 1.084668565857028e+001
0	 3.333299999983334e+000	 1.866659999993466e+000	 1.083737829475745e+001
0	 3.333299999983334e+000	 1.933329999996683e+000	 1.082277269322704e+001
0	 3.333299999983334e+000	 2.000000000000000e+000	 1.080298973165526e+001
0	 3.399969999982149e+000	 1.333299999983334e+000	 1.071990487543678e+001
0	 3.399969999982150e+000	 1.399969999982150e+000	 1.075352625315161e+001
0	 3.399969999982150e+000	 1.466639999981867e+000	 1.078086825002649e+001
0	 3.399969999982150e+000	 1.533309999982383e+000	 1.080201555936716e+001
0	 3.399969999982150e+000	 1.599979999983600e+000	 1.081705287447929e+001
0	 3.399969999982150e+000	 1.666649999985416e+000	 1.082606488866849e+001
0	 3.399969999982150e+000	 1.733319999987733e+000	 1.082913629524031e+001
0	 3.399969999982150e+000	 1.799989999990450e+000	 1.082635178750021e+001
0	 3.399969999982150e+000	 1.866659999993466e+000	 1.081779605875363e+001
0	 3.399969999982150e+000	 1.933329999996683e+000	 1.080355380230589e+001
0	 3.399969999982150e+000	 2.000000000000000e+000	 1.078370971146229e+001
0	 3.466639999981866e+000	 1.333299999983334e+000	 1.069446883305871e+001
0	 3.466639999981866e+000	 1.399969999982150e+000	 1.072768745898430e+001
0	 3.466639999981866e+000	 1.466639999981866e+000	 1.075491411652362e+001
0	 3.466639999981866e+000	 1.533309999982382e+000	 1.077620281714791e+001
0	 3.466639999981865e+000	 1.599979999983599e+000	 1.079160757232841e+001
0	 3.466639999981866e+000	 1.666649999985416e+000	 1.080118239353624e+001
0	 3.466639999981866e+000	 1.733319999987733e+000	 1.080498129224248e+001
0	 3.466639999981866e+000	 1.799989999990450e+000	 1.080305827991812e+001
0	 3.466639999981866e+000	 1.866659999993466e+000	 1.079546736803412e+001
0	 3.466639999981866e+000	 1.933329999996684e+000	 1.078226256806136e+001
0	 3.466639999981866e+000	 2.000000000000000e+000	 1.076349789147066e+001
0	 3.533309999982381e+000	 1.333299999983334e+000	 1.067558572648076e+001
0	 3.533309999982382e+000	 1.399969999982150e+000	 1.070610065530708e+001
0	 3.533309999982383e+000	 1.466639999981866e+000	 1.073124632391959e+001
0	 3.533309999982382e+000	 1.533309999982383e+000	 1.075105156449152e+001
0	 3.533309999982383e+000	 1.599979999983600e+000	 1.076554520919604e+001
0	 3.533309999982382e+000	 1.666649999985416e+000	 1.077475609020622e+001
0	 3.533309999982382e+000	 1.733319999987733e+000	 1.077871303969510e+001
0	 3.533309999982382e+000	 1.799989999990450e+000	 1.077744488983567e+001
0	 3.533309999982382e+000	 1.866659999993466e+000	 1.077098047280082e+001
0	 3.533309999982383e+000	 1.933329999996683e+000	 1.075934862076344e+001
0	 3.533309999982383e+000	 2.000000000000000e+000	 1.074257816589630e+001
0	 3.599979999983598e+000	 1.333299999983334e+000	 1.066181658496296e+001
0	 3.599979999983598e+000	 1.399969999982150e+000	 1.068788518042522e+001
0	 3.599979999983599e+000	 1.466639999981866e+000	 1.070945540344281e+001
0	 3.599979999983599e+000	 1.533309999982383e+000	 1.072653640942731e+001
0	 3.599979999983598e+000	 1.599979999983599e+000	 1.073913735379028e+001
0	 3.599979999983598e+000	 1.666649999985416e+000	 1.074726739194318e+001
0	 3.599979999983600e+000	 1.733319999987733e+000	 1.075093567929746e+001
0	 3.599979999983597e+000	 1.799989999990449e+000	 1.075015137126450e+001
0	 3.599979999983599e+000	 1.866659999993466e+000	 1.074492362325561e+001
0	 3.599979999983598e+000	 1.933329999996683e+000	 1.073526159068209e+001
0	 3.599979999983599e+000	 2.000000000000001e+000	 1.072117442895514e+001
0	 3.666649999985415e+000	 1.333299999983333e+000	 1.065172243776532e+001
0	 3.666649999985415e+000	 1.399969999982150e+000	 1.067216037264400e+001
0	 3.666649999985415e+000	 1.466639999981867e+000	 1.068913188632163e+001
0	 3.666649999985416e+000	 1.533309999982383e+000	 1.070263195998458e+001
0	 3.666649999985415e+000	 1.599979999983600e+000	 1.071265557481924e+001
0	 3.666649999985415e+000	 1.666649999985416e+000	 1.071919771201190e+001
0	 3.666649999985415e+000	 1.733319999987733e+000	 1.072225335274883e+001
0	 3.666649999985415e+000	 1.799989999990449e+000	 1.072181747821627e+001
0	 3.666649999985415e+000	 1.866659999993466e+000	 1.071788506960037e+001
0	 3.666649999985415e+000	 1.933329999996683e+000	 1.071045110808730e+001
0	 3.666649999985414e+000	 2.000000000000000e+000	 1.069951057486314e+001
0	 3.733319999987732e+000	 1.333299999983334e+000	 1.064386431414786e+001
0	 3.733319999987732e+000	 1.399969999982150e+000	 1.065804557026870e+001
0	 3.733319999987732e+000	 1.466639999981866e+000	 1.066986630378441e+001
0	 3.733319999987732e+000	 1.533309999982383e+000	 1.067931282419265e+001
0	 3.733319999987731e+000	 1.599979999983599e+000	 1.068637144099104e+001
0	 3.733319999987732e+000	 1.666649999985416e+000	 1.069102846367713e+001
0	 3.733319999987732e+000	 1.733319999987733e+000	 1.069327020174848e+001
0	 3.733319999987732e+000	 1.799989999990450e+000	 1.069308296470260e+001
0	 3.733319999987732e+000	 1.866659999993466e+000	 1.069045306203696e+001
0	 3.733319999987732e+000	 1.933329999996683e+000	 1.068536680324903e+001
0	 3.733319999987732e+000	 2.000000000000000e+000	 1.067781049783620e+001
0	 3.799989999990448e+000	 1.333299999983334e+000	 1.063680324337056e+001
0	 3.799989999990449e+000	 1.399969999982150e+000	 1.064466011160455e+001
0	 3.799989999990448e+000	 1.466639999981866e+000	 1.065124918705953e+001
0	 3.799989999990448e+000	 1.533309999982383e+000	 1.065655361008084e+001
0	 3.799989999990448e+000	 1.599979999983599e+000	 1.066055652101378e+001
0	 3.799989999990449e+000	 1.666649999985416e+000	 1.066324106020363e+001
0	 3.799989999990449e+000	 1.733319999987733e+000	 1.066459036799568e+001
0	 3.799989999990448e+000	 1.799989999990450e+000	 1.066458758473515e+001
0	 3.799989999990448e+000	 1.866659999993466e+000	 1.066321585076728e+001
0	 3.799989999990449e+000	 1.933329999996683e+000	 1.066045830643726e+001
0	 3.799989999990448e+000	 2.000000000000000e+000	 1.065629809209025e+001
0	 3.866659999993464e+000	 1.333299999983334e+000	 1.062910025469342e+001
0	 3.866659999993465e+000	 1.399969999982150e+000	 1.063112333495682e+001
0	 3.866659999993464e+000	 1.466639999981866e+000	 1.063287106737533e+001
0	 3.866659999993465e+000	 1.533309999982383e+000	 1.063432892567842e+001
0	 3.866659999993464e+000	 1.599979999983599e+000	 1.063548238359554e+001
0	 3.866659999993463e+000	 1.666649999985416e+000	 1.063631691485616e+001
0	 3.866659999993464e+000	 1.733319999987733e+000	 1.063681799318969e+001
0	 3.866659999993465e+000	 1.799989999990450e+000	 1.063697109232555e+001
0	 3.866659999993465e+000	 1.866659999993467e+000	 1.063676168599317e+001
0	 3.866659999993465e+000	 1.933329999996683e+000	 1.063617524792192e+001
0	 3.866659999993465e+000	 2.000000000000000e+000	 1.063519725184120e+001
0	 3.933329999996682e+000	 1.333299999983334e+000	 1.061931637737643e+001
0	 3.933329999996682e+000	 1.399969999982150e+000	 1.061655457863075e+001
0	 3.933329999996682e+000	 1.466639999981866e+000	 1.061432247596015e+001
0	 3.933329999996682e+000	 1.533309999982383e+000	 1.061261337901471e+001
0	 3.933329999996681e+000	 1.599979999983600e+000	 1.061142059744446e+001
0	 3.933329999996682e+000	 1.666649999985416e+000	 1.061073744089946e+001
0	 3.933329999996681e+000	 1.733319999987733e+000	 1.061055721902977e+001
0	 3.933329999996681e+000	 1.799989999990450e+000	 1.061087324148543e+001
0	 3.933329999996682e+000	 1.866659999993466e+000	 1.061167881791650e+001
0	 3.933329999996682e+000	 1.933329999996683e+000	 1.061296725797299e+001
0	 3.933329999996681e+000	 2.000000000000000e+000	 1.061473187130496e+001
0	 3.999999999999999e+000	 1.333299999983334e+000	 1.060601264067955e+001
0	 4.000000000000000e+000	 1.399969999982150e+000	 1.060007318093158e+001
0	 4.000000000000002e+000	 1.466639999981866e+000	 1.059519394404236e+001
0	 4.000000000000000e+000	 1.533309999982383e+000	 1.059138157811899e+001
0	 4.000000000000001e+000	 1.599979999983599e+000	 1.058864273126859e+001
0	 4.000000000000001e+000	 1.666649999985416e+000	 1.058698405159828e+001
0	 4.000000000000001e+000	 1.733319999987733e+000	 1.058641218721518e+001
0	 4.000000000000001e+000	 1.799989999990450e+000	 1.058693378622641e+001
0	 4.000000000000000e+000	 1.866659999993467e+000	 1.058855549673911e+001
0	 4.000000000000001e+000	 1.933329999996683e+000	 1.059128396686041e+001
0	 4.000000000000001e+000	 2.000000000000000e+000	 1.059512584469743e+001
0	 3.333299999983334e+000	 2.000000000000000e+000	 1.080298973165526e+001
0	 3.333299999983333e+000	 2.066670000003317e+000	 1.078137456642615e+001
0	 3.333299999983334e+000	 2.133340000006534e+000	 1.076113199530383e+001
0	 3.333299999983335e+000	 2.200010000009550e+000	 1.074217235803454e+001
0	 3.333299999983334e+000	 2.266680000012267e+000	 1.072440599436451e+001
0	 3.333299999983334e+000	 2.333350000014584e+000	 1.070774324403997e+001
0	 3.333299999983334e+000	 2.400020000016401e+000	 1.069209444680717e+001
0	 3.333299999983334e+000	 2.466690000017617e+000	 1.067736994241233e+001
0	 3.333299999983334e+000	 2.533360000018134e+000	 1.066348007060168e+001
0	 3.333299999983334e+000	 2.600030000017851e+000	 1.065033517112143e+001
0	 3.333299999983334e+000	 2.666700000016667e+000	 1.063784558371780e+001
0	 3.399969999982150e+000	 2.000000000000000e+000	 1.078370971146229e+001
0	 3.399969999982150e+000	 2.066670000003318e+000	 1.076196000916116e+001
0	 3.399969999982150e+000	 2.133340000006534e+000	 1.074188156800369e+001
0	 3.399969999982150e+000	 2.200010000009551e+000	 1.072338005578943e+001
0	 3.399969999982150e+000	 2.266680000012267e+000	 1.070636114031789e+001
0	 3.399969999982150e+000	 2.333350000014584e+000	 1.069073048938860e+001
0	 3.399969999982150e+000	 2.400020000016401e+000	 1.067639377080110e+001
0	 3.399969999982150e+000	 2.466690000017616e+000	 1.066325665235492e+001
0	 3.399969999982150e+000	 2.533360000018133e+000	 1.065122480184958e+001
0	 3.399969999982150e+000	 2.600030000017851e+000	 1.064020388708461e+001
0	 3.399969999982150e+000	 2.666700000016666e+000	 1.063009957585955e+001
0	 3.466639999981866e+000	 2.000000000000000e+000	 1.076349789147066e+001
0	 3.466639999981866e+000	 2.066670000003318e+000	 1.074286391487688e+001
0	 3.466639999981866e+000	 2.133340000006534e+000	 1.072395101807933e+001
0	 3.466639999981866e+000	 2.200010000009550e+000	 1.070666291732532e+001
0	 3.466639999981866e+000	 2.266680000012266e+000	 1.069090332886224e+001
0	 3.466639999981866e+000	 2.333350000014584e+000	 1.067657596893739e+001
0	 3.466639999981866e+000	 2.400020000016401e+000	 1.066358455379815e+001
0	 3.466639999981866e+000	 2.466690000017617e+000	 1.065183279969187e+001
0	 3.466639999981867e+000	 2.533360000018134e+000	 1.064122442286589e+001
0	 3.466639999981866e+000	 2.600030000017849e+000	 1.063166313956758e+001
0	 3.466639999981867e+000	 2.666700000016666e+000	 1.062305266604430e+001
0	 3.533309999982383e+000	 2.000000000000000e+000	 1.074257816589630e+001
0	 3.533309999982382e+000	 2.066670000003316e+000	 1.072406299512156e+001
0	 3.533309999982382e+000	 2.133340000006534e+000	 1.070711409730602e+001
0	 3.533309999982382e+000	 2.200010000009550e+000	 1.069163595753935e+001
0	 3.533309999982382e+000	 2.266680000012267e+000	 1.067753306091127e+001
0	 3.533309999982382e+000	 2.333350000014584e+000	 1.066470989251146e+001
0	 3.533309999982382e+000	 2.400020000016401e+000	 1.065307093742961e+001
0	 3.533309999982382e+000	 2.466690000017617e+000	 1.064252068075543e+001
0	 3.533309999982383e+000	 2.533360000018134e+000	 1.063296360757860e+001
0	 3.533309999982382e+000	 2.600030000017850e+000	 1.062430420298884e+001
0	 3.533309999982382e+000	 2.666700000016667e+000	 1.061644695207584e+001
0	 3.599979999983599e+000	 2.000000000000001e+000	 1.072117442895514e+001
0	 3.599979999983598e+000	 2.066670000003316e+000	 1.070553396144339e+001
0	 3.599979999983599e+000	 2.133340000006534e+000	 1.069114455745902e+001
0	 3.599979999983599e+000	 2.200010000009550e+000	 1.067791419132862e+001
0	 3.599979999983598e+000	 2.266680000012267e+000	 1.066575083737872e+001
0	 3.599979999983599e+000	 2.333350000014584e+000	 1.065456246993592e+001
0	 3.599979999983598e+000	 2.400020000016401e+000	 1.064425706332677e+001
0	 3.599979999983599e+000	 2.466690000017617e+000	 1.063474259187784e+001
0	 3.599979999983599e+000	 2.533360000018134e+000	 1.062592702991568e+001
0	 3.599979999983599e+000	 2.600030000017851e+000	 1.061771835176688e+001
0	 3.599979999983599e+000	 2.666700000016667e+000	 1.061002453175797e+001
0	 3.666649999985414e+000	 2.000000000000000e+000	 1.069951057486314e+001
0	 3.666649999985414e+000	 2.066670000003316e+000	 1.068725352539059e+001
0	 3.666649999985415e+000	 2.133340000006534e+000	 1.067581615031362e+001
0	 3.666649999985415e+000	 2.200010000009550e+000	 1.066511263359020e+001
0	 3.666649999985415e+000	 2.266680000012267e+000	 1.065505715917831e+001
0	 3.666649999985415e+000	 2.333350000014583e+000	 1.064556391103588e+001
0	 3.666649999985415e+000	 2.400020000016400e+000	 1.063654707312091e+001
0	 3.666649999985415e+000	 2.466690000017617e+000	 1.062792082939132e+001
0	 3.666649999985415e+000	 2.533360000018134e+000	 1.061959936380509e+001
0	 3.666649999985415e+000	 2.600030000017851e+000	 1.061149686032015e+001
0	 3.666649999985415e+000	 2.666700000016666e+000	 1.060352750289446e+001
0	 3.733319999987732e+000	 2.000000000000000e+000	 1.067781049783620e+001
0	 3.733319999987733e+000	 2.066670000003317e+000	 1.066919839851136e+001
0	 3.733319999987732e+000	 2.133340000006534e+000	 1.066090262764506e+001
0	 3.733319999987732e+000	 2.200010000009550e+000	 1.065284629922122e+001
0	 3.733319999987731e+000	 2.266680000012266e+000	 1.064495252722372e+001
0	 3.733319999987732e+000	 2.333350000014584e+000	 1.063714442563644e+001
0	 3.733319999987731e+000	 2.400020000016400e+000	 1.062934510844328e+001
0	 3.733319999987732e+000	 2.466690000017617e+000	 1.062147768962811e+001
0	 3.733319999987732e+000	 2.533360000018134e+000	 1.061346528317479e+001
0	 3.733319999987733e+000	 2.600030000017851e+000	 1.060523100306716e+001
0	 3.733319999987732e+000	 2.666700000016666e+000	 1.059669796328910e+001
0	 3.799989999990448e+000	 2.000000000000000e+000	 1.065629809209025e+001
0	 3.799989999990449e+000	 2.066670000003318e+000	 1.065134529235389e+001
0	 3.799989999990448e+000	 2.133340000006534e+000	 1.064617774122861e+001
0	 3.799989999990448e+000	 2.200010000009550e+000	 1.064073020311874e+001
0	 3.799989999990448e+000	 2.266680000012268e+000	 1.063493744242866e+001
0	 3.799989999990449e+000	 2.333350000014584e+000	 1.062873422356270e+001
0	 3.799989999990448e+000	 2.400020000016401e+000	 1.062205531092517e+001
0	 3.799989999990448e+000	 2.466690000017617e+000	 1.061483546892040e+001
0	 3.799989999990448e+000	 2.533360000018133e+000	 1.060700946195271e+001
0	 3.799989999990448e+000	 2.600030000017850e+000	 1.059851205442636e+001
0	 3.799989999990448e+000	 2.666700000016666e+000	 1.058927801074565e+001
0	 3.866659999993465e+000	 2.000000000000000e+000	 1.063519725184120e+001
0	 3.866659999993464e+000	 2.066670000003317e+000	 1.063367091846638e+001
0	 3.866659999993465e+000	 2.133340000006534e+000	 1.063141524283948e+001
0	 3.866659999993465e+000	 2.200010000009550e+000	 1.062837936017986e+001
0	 3.866659999993464e+000	 2.266680000012267e+000	 1.062451240570684e+001
0	 3.866659999993465e+000	 2.333350000014584e+000	 1.061976351463972e+001
0	 3.866659999993466e+000	 2.400020000016401e+000	 1.061408182219782e+001
0	 3.866659999993465e+000	 2.466690000017617e+000	 1.060741646360043e+001
0	 3.866659999993464e+000	 2.533360000018133e+000	 1.059971657406680e+001
0	 3.866659999993464e+000	 2.600030000017850e+000	 1.059093128881620e+001
0	 3.866659999993464e+000	 2.666700000016666e+000	 1.058100974306787e+001
0	 3.933329999996681e+000	 2.000000000000000e+000	 1.061473187130496e+001
0	 3.933329999996681e+000	 2.066670000003317e+000	 1.061615198839701e+001
0	 3.933329999996681e+000	 2.133340000006534e+000	 1.061638888425295e+001
0	 3.933329999996682e+000	 2.200010000009551e+000	 1.061540878530163e+001
0	 3.933329999996681e+000	 2.266680000012267e+000	 1.061317791797191e+001
0	 3.933329999996682e+000	 2.333350000014584e+000	 1.060966250869260e+001
0	 3.933329999996682e+000	 2.400020000016401e+000	 1.060482878389249e+001
0	 3.933329999996681e+000	 2.466690000017617e+000	 1.059864297000037e+001
0	 3.933329999996682e+000	 2.533360000018134e+000	 1.059107129344501e+001
0	 3.933329999996681e+000	 2.600030000017850e+000	 1.058207998065515e+001
0	 3.933329999996681e+000	 2.666700000016666e+000	 1.057163525805952e+001
0	 4.000000000000001e+000	 2.000000000000000e+000	 1.059512584469743e+001
0	 4.000000000000001e+000	 2.066670000003317e+000	 1.059876521369394e+001
0	 4.000000000000001e+000	 2.133340000006534e+000	 1.060087241724421e+001
0	 4.000000000000000e+000	 2.200010000009551e+000	 1.060143349338113e+001
0	 4.000000000000001e+000	 2.266680000012268e+000	 1.060043448013757e+001
0	 4.000000000000000e+000	 2.333350000014584e+000	 1.059786141554638e+001
0	 4.000000000000000e+000	 2.400020000016400e+000	 1.059370033764039e+001
0	 4.000000000000001e+000	 2.466690000017617e+000	 1.058793728445242e+001
0	 4.000000000000001e+000	 2.533360000018134e+000	 1.058055829401524e+001
0	 4.000000000000000e+000	 2.600030000017850e+000	 1.057154940436163e+001
0	 4.000000000000000e+000	 2.666700000016667e+000	 1.056089665352434e+001
0	 3.333299999983334e+000	 2.666700000016667e+000	 1.063784558371780e+001
0	 3.333299999983333e+000	 2.733360000014532e+000	 1.062541621529473e+001
0	 3.333299999983334e+000	 2.800020000011600e+000	 1.061245060820601e+001
0	 3.333299999983334e+000	 2.866680000008067e+000	 1.059886254141654e+001
0	 3.333299999983334e+000	 2.933340000004133e+000	 1.058456579389125e+001
0	 3.333299999983334e+000	 3.000000000000000e+000	 1.056947414459509e+001
0	 3.333299999983334e+000	 3.066659999995868e+000	 1.055350137249302e+001
0	 3.333299999983333e+000	 3.133319999991934e+000	 1.053656125655006e+001
0	 3.333299999983333e+000	 3.199979999988400e+000	 1.051856757573124e+001
0	 3.333299999983334e+000	 3.266639999985468e+000	 1.049943410900159e+001
0	 3.333299999983334e+000	 3.333299999983334e+000	 1.047907463532620e+001
0	 3.399969999982150e+000	 2.666700000016666e+000	 1.063009957585955e+001
0	 3.399969999982150e+000	 2.733360000014534e+000	 1.061998570008411e+001
0	 3.399969999982150e+000	 2.800020000011598e+000	 1.060896188906237e+001
0	 3.399969999982149e+000	 2.866680000008067e+000	 1.059697686132179e+001
0	 3.399969999982150e+000	 2.933340000004133e+000	 1.058397933538988e+001
0	 3.399969999982150e+000	 3.000000000000000e+000	 1.056991802979415e+001
0	 3.399969999982150e+000	 3.066659999995866e+000	 1.055474166306214e+001
0	 3.399969999982149e+000	 3.133319999991933e+000	 1.053839895372146e+001
0	 3.399969999982150e+000	 3.199979999988400e+000	 1.052083862029969e+001
0	 3.399969999982150e+000	 3.266639999985468e+000	 1.050200938132448e+001
0	 3.399969999982149e+000	 3.333299999983333e+000	 1.048185995532351e+001
0	 3.466639999981867e+000	 2.666700000016666e+000	 1.062305266604430e+001
0	 3.466639999981867e+000	 2.733360000014534e+000	 1.061433486458142e+001
0	 3.466639999981866e+000	 2.800020000011600e+000	 1.060449837573374e+001
0	 3.466639999981866e+000	 2.866680000008065e+000	 1.059352075819243e+001
0	 3.466639999981866e+000	 2.933340000004133e+000	 1.058137957064868e+001
0	 3.466639999981865e+000	 2.999999999999999e+000	 1.056805237179372e+001
0	 3.466639999981866e+000	 3.066659999995866e+000	 1.055351672031880e+001
0	 3.466639999981866e+000	 3.133319999991933e+000	 1.053775017491522e+001
0	 3.466639999981866e+000	 3.199979999988401e+000	 1.052073029427431e+001
0	 3.466639999981867e+000	 3.266639999985468e+000	 1.050243463708741e+001
0	 3.466639999981866e+000	 3.333299999983334e+000	 1.048284076204593e+001
0	 3.533309999982382e+000	 2.666700000016667e+000	 1.061644695207584e+001
0	 3.533309999982383e+000	 2.733360000014533e+000	 1.060836649254095e+001
0	 3.533309999982382e+000	 2.800020000011600e+000	 1.059909909203830e+001
0	 3.533309999982383e+000	 2.866680000008067e+000	 1.058864505002391e+001
0	 3.533309999982383e+000	 2.933340000004133e+000	 1.057700466595381e+001
0	 3.533309999982382e+000	 3.000000000000000e+000	 1.056417823928407e+001
0	 3.533309999982383e+000	 3.066659999995867e+000	 1.055016606947081e+001
0	 3.533309999982383e+000	 3.133319999991934e+000	 1.053496845597013e+001
0	 3.533309999982382e+000	 3.199979999988401e+000	 1.051858569823822e+001
0	 3.533309999982383e+000	 3.266639999985468e+000	 1.050101809573126e+001
0	 3.533309999982382e+000	 3.333299999983334e+000	 1.048226594790549e+001
0	 3.599979999983599e+000	 2.666700000016667e+000	 1.061002453175797e+001
0	 3.599979999983599e+000	 2.733360000014533e+000	 1.060198336771693e+001
0	 3.599979999983599e+000	 2.800020000011600e+000	 1.059280306179418e+001
0	 3.599979999983598e+000	 2.866680000008067e+000	 1.058250055481168e+001
0	 3.599979999983598e+000	 2.933340000004133e+000	 1.057109278759143e+001
0	 3.599979999983599e+000	 3.000000000000000e+000	 1.055859670095551e+001
0	 3.599979999983598e+000	 3.066659999995866e+000	 1.054502923572598e+001
0	 3.599979999983599e+000	 3.133319999991934e+000	 1.053040733272494e+001
0	 3.599979999983599e+000	 3.199979999988401e+000	 1.051474793277453e+001
0	 3.599979999983599e+000	 3.266639999985467e+000	 1.049806797669690e+001
0	 3.599979999983598e+000	 3.333299999983333e+000	 1.048038440531426e+001
0	 3.666649999985415e+000	 2.666700000016666e+000	 1.060352750289446e+001
0	 3.666649999985415e+000	 2.733360000014533e+000	 1.059508827386366e+001
0	 3.666649999985415e+000	 2.800020000011600e+000	 1.058564930881953e+001
0	 3.666649999985415e+000	 2.866680000008065e+000	 1.057523809055118e+001
0	 3.666649999985415e+000	 2.933340000004133e+000	 1.056388210184772e+001
0	 3.666649999985415e+000	 3.000000000000000e+000	 1.055160882549832e+001
0	 3.666649999985415e+000	 3.066659999995867e+000	 1.053844574429214e+001
0	 3.666649999985415e+000	 3.133319999991933e+000	 1.052442034101841e+001
0	 3.666649999985415e+000	 3.199979999988401e+000	 1.050956009846635e+001
0	 3.666649999985415e+000	 3.266639999985468e+000	 1.049389249942522e+001
0	 3.666649999985415e+000	 3.333299999983334e+000	 1.047744502668432e+001
0	 3.733319999987732e+000	 2.666700000016666e+000	 1.059669796328910e+001
0	 3.733319999987731e+000	 2.733360000014532e+000	 1.058758399473537e+001
0	 3.733319999987731e+000	 2.800020000011599e+000	 1.057767685693250e+001
0	 3.733319999987732e+000	 2.866680000008066e+000	 1.056700847523787e+001
0	 3.733319999987732e+000	 2.933340000004133e+000	 1.055561077500882e+001
0	 3.733319999987731e+000	 3.000000000000000e+000	 1.054351568160276e+001
0	 3.733319999987732e+000	 3.066659999995867e+000	 1.053075512037711e+001
0	 3.733319999987732e+000	 3.133319999991933e+000	 1.051736101668931e+001
0	 3.733319999987731e+000	 3.199979999988401e+000	 1.050336529589681e+001
0	 3.733319999987732e+000	 3.266639999985467e+000	 1.048879988335710e+001
0	 3.733319999987732e+000	 3.333299999983334e+000	 1.047369670442770e+001
0	 3.799989999990448e+000	 2.666700000016666e+000	 1.058927801074565e+001
0	 3.799989999990448e+000	 2.733360000014533e+000	 1.057937331408629e+001
0	 3.799989999990448e+000	 2.800020000011600e+000	 1.056892472995122e+001
0	 3.799989999990448e+000	 2.866680000008066e+000	 1.055796252686717e+001
0	 3.799989999990448e+000	 2.933340000004133e+000	 1.054651697336088e+001
0	 3.799989999990448e+000	 3.000000000000000e+000	 1.053461833795913e+001
0	 3.799989999990448e+000	 3.066659999995866e+000	 1.052229688918870e+001
0	 3.799989999990448e+000	 3.133319999991934e+000	 1.050958289557640e+001
0	 3.799989999990448e+000	 3.199979999988400e+000	 1.049650662564902e+001
0	 3.799989999990449e+000	 3.266639999985467e+000	 1.048309834793344e+001
0	 3.799989999990448e+000	 3.333299999983334e+000	 1.046938833095649e+001
0	 3.866659999993464e+000	 2.666700000016666e+000	 1.058100974306787e+001
0	 3.866659999993464e+000	 2.733360000014533e+000	 1.057035901567068e+001
0	 3.866659999993465e+000	 2.800020000011601e+000	 1.055943195169382e+001
0	 3.866659999993464e+000	 2.866680000008067e+000	 1.054825106343454e+001
0	 3.866659999993464e+000	 2.933340000004133e+000	 1.053683886319008e+001
0	 3.866659999993465e+000	 3.000000000000000e+000	 1.052521786325772e+001
0	 3.866659999993464e+000	 3.066659999995866e+000	 1.051341057593475e+001
0	 3.866659999993465e+000	 3.133319999991934e+000	 1.050143951351844e+001
0	 3.866659999993465e+000	 3.199979999988400e+000	 1.048932718830613e+001
0	 3.866659999993465e+000	 3.266639999985467e+000	 1.047709611259513e+001
0	 3.866659999993464e+000	 3.333299999983334e+000	 1.046476879868277e+001
0	 3.933329999996681e+000	 2.666700000016666e+000	 1.057163525805952e+001
0	 3.933329999996682e+000	 2.733360000014532e+000	 1.056044388324277e+001
0	 3.933329999996682e+000	 2.800020000011600e+000	 1.054923754597843e+001
0	 3.933329999996681e+000	 2.866680000008066e+000	 1.053802490293540e+001
0	 3.933329999996681e+000	 2.933340000004133e+000	 1.052681461078256e+001
0	 3.933329999996681e+000	 3.000000000000000e+000	 1.051561532618880e+001
0	 3.933329999996682e+000	 3.066659999995867e+000	 1.050443570582305e+001
0	 3.933329999996681e+000	 3.133319999991933e+000	 1.049328440635422e+001
0	 3.933329999996682e+000	 3.199979999988400e+000	 1.048217008445124e+001
0	 3.933329999996682e+000	 3.266639999985467e+000	 1.047110139678305e+001
0	 3.933329999996681e+000	 3.333299999983334e+000	 1.046008700001861e+001
0	 4.000000000000000e+000	 2.666700000016667e+000	 1.056089665352434e+001
0	 4.000000000000000e+000	 2.733360000014533e+000	 1.054953070055677e+001
0	 4.000000000000000e+000	 2.800020000011599e+000	 1.053838053662317e+001
0	 4.000000000000001e+000	 2.866680000008067e+000	 1.052743486336518e+001
0	 4.000000000000000e+000	 2.933340000004133e+000	 1.051668238242445e+001
0	 4.000000000000000e+000	 3.000000000000000e+000	 1.050611179544266e+001
0	 4.000000000000000e+000	 3.066659999995867e+000	 1.049571180406144e+001
0	 4.000000000000000e+000	 3.133319999991933e+000	 1.048547110992249e+001
0	 4.000000000000001e+000	 3.199979999988401e+000	 1.047537841466749e+001
0	 4.000000000000001e+000	 3.266639999985467e+000	 1.046542241993812e+001
0	 4.000000000000000e+000	 3.333299999983333e+000	 1.045559182737608e+001
0	 3.333299999983334e+000	 3.333299999983334e+000	 1.047907463532620e+001
0	 3.333299999983333e+000	 3.399969999982149e+000	 1.045848623470444e+001
0	 3.333299999983333e+000	 3.466639999981866e+000	 1.043872486903808e+001
0	 3.333299999983334e+000	 3.533309999982383e+000	 1.041978318865278e+001
0	 3.333299999983334e+000	 3.599979999983599e+000	 1.040165384387425e+001
0	 3.333299999983334e+000	 3.666649999985416e+000	 1.038432948502817e+001
0	 3.333299999983334e+000	 3.733319999987733e+000	 1.036780276244026e+001
0	 3.333299999983334e+000	 3.799989999990450e+000	 1.035206632643622e+001
0	 3.333299999983334e+000	 3.866659999993467e+000	 1.033711282734175e+001
0	 3.333299999983333e+000	 3.933329999996682e+000	 1.032293491548260e+001
0	 3.333299999983333e+000	 4.000000000000000e+000	 1.030952524118447e+001
0	 3.399969999982149e+000	 3.333299999983333e+000	 1.048185995532351e+001
0	 3.399969999982150e+000	 3.399969999982150e+000	 1.046151860980620e+001
0	 3.399969999982150e+000	 3.466639999981867e+000	 1.044213166681689e+001
0	 3.399969999982150e+000	 3.533309999982383e+000	 1.042366555377234e+001
0	 3.399969999982150e+000	 3.599979999983600e+000	 1.040608669808934e+001
0	 3.399969999982150e+000	 3.666649999985417e+000	 1.038936152718469e+001
0	 3.399969999982150e+000	 3.733319999987732e+000	 1.037345646847517e+001
0	 3.399969999982150e+000	 3.799989999990450e+000	 1.035833794937759e+001
0	 3.399969999982150e+000	 3.866659999993467e+000	 1.034397239730875e+001
0	 3.399969999982150e+000	 3.933329999996684e+000	 1.033032623968548e+001
0	 3.399969999982150e+000	 4.000000000000000e+000	 1.031736590392457e+001
0	 3.466639999981866e+000	 3.333299999983334e+000	 1.048284076204593e+001
0	 3.466639999981866e+000	 3.399969999982150e+000	 1.046311081548337e+001
0	 3.466639999981867e+000	 3.466639999981867e+000	 1.044439146762460e+001
0	 3.466639999981866e+000	 3.533309999982382e+000	 1.042662794937764e+001
0	 3.466639999981866e+000	 3.599979999983600e+000	 1.040976549165055e+001
0	 3.466639999981866e+000	 3.666649999985417e+000	 1.039374932535138e+001
0	 3.466639999981866e+000	 3.733319999987733e+000	 1.037852468138818e+001
0	 3.466639999981866e+000	 3.799989999990450e+000	 1.036403679066901e+001
0	 3.466639999981866e+000	 3.866659999993466e+000	 1.035023088410196e+001
0	 3.466639999981866e+000	 3.933329999996683e+000	 1.033705219259509e+001
0	 3.466639999981866e+000	 4.000000000000001e+000	 1.032444594705647e+001
0	 3.533309999982382e+000	 3.333299999983334e+000	 1.048226594790549e+001
0	 3.533309999982383e+000	 3.399969999982150e+000	 1.046344476924247e+001
0	 3.533309999982382e+000	 3.466639999981867e+000	 1.044562838566249e+001
0	 3.533309999982381e+000	 3.533309999982382e+000	 1.042874585796505e+001
0	 3.533309999982383e+000	 3.599979999983600e+000	 1.041272624694960e+001
0	 3.533309999982381e+000	 3.666649999985415e+000	 1.039749861341565e+001
0	 3.533309999982382e+000	 3.733319999987732e+000	 1.038299201816267e+001
0	 3.533309999982382e+000	 3.799989999990450e+000	 1.036913552199016e+001
0	 3.533309999982382e+000	 3.866659999993467e+000	 1.035585818569763e+001
0	 3.533309999982383e+000	 3.933329999996684e+000	 1.034308907008457e+001
0	 3.533309999982383e+000	 4.000000000000000e+000	 1.033075723595050e+001
0	 3.599979999983598e+000	 3.333299999983333e+000	 1.048038440531426e+001
0	 3.599979999983598e+000	 3.399969999982150e+000	 1.046270238859002e+001
0	 3.599979999983599e+000	 3.466639999981867e+000	 1.044596653513188e+001
0	 3.599979999983600e+000	 3.533309999982384e+000	 1.043009476203093e+001
0	 3.599979999983598e+000	 3.599979999983600e+000	 1.041500498637825e+001
0	 3.599979999983599e+000	 3.666649999985416e+000	 1.040061512526493e+001
0	 3.599979999983598e+000	 3.733319999987732e+000	 1.038684309578206e+001
0	 3.599979999983598e+000	 3.799989999990448e+000	 1.037360681502072e+001
0	 3.599979999983598e+000	 3.866659999993467e+000	 1.036082420007202e+001
0	 3.599979999983599e+000	 3.933329999996684e+000	 1.034841316802705e+001
0	 3.599979999983598e+000	 4.000000000000000e+000	 1.033629163597693e+001
0	 3.666649999985415e+000	 3.333299999983334e+000	 1.047744502668432e+001
0	 3.666649999985415e+000	 3.399969999982150e+000	 1.046106559103255e+001
0	 3.666649999985415e+000	 3.466639999981866e+000	 1.044553003023405e+001
0	 3.666649999985416e+000	 3.533309999982384e+000	 1.043075014407167e+001
0	 3.666649999985415e+000	 3.599979999983600e+000	 1.041663773232825e+001
0	 3.666649999985415e+000	 3.666649999985416e+000	 1.040310459478666e+001
0	 3.666649999985416e+000	 3.733319999987733e+000	 1.039006253122974e+001
0	 3.666649999985415e+000	 3.799989999990450e+000	 1.037742334144038e+001
0	 3.666649999985415e+000	 3.866659999993467e+000	 1.036509882520140e+001
0	 3.666649999985415e+000	 3.933329999996683e+000	 1.035300078229569e+001
0	 3.666649999985415e+000	 4.000000000000001e+000	 1.034104101250611e+001
0	 3.733319999987732e+000	 3.333299999983334e+000	 1.047369670442770e+001
0	 3.733319999987733e+000	 3.399969999982150e+000	 1.045871629407660e+001
0	 3.733319999987732e+000	 3.466639999981866e+000	 1.044444298517032e+001
0	 3.733319999987732e+000	 3.533309999982383e+000	 1.043078748658364e+001
0	 3.733319999987730e+000	 3.599979999983599e+000	 1.041766050719135e+001
0	 3.733319999987732e+000	 3.666649999985417e+000	 1.040497275586825e+001
0	 3.733319999987732e+000	 3.733319999987733e+000	 1.039263494148914e+001
0	 3.733319999987732e+000	 3.799989999990451e+000	 1.038055777292880e+001
0	 3.733319999987732e+000	 3.866659999993467e+000	 1.036865195906203e+001
0	 3.733319999987732e+000	 3.933329999996684e+000	 1.035682820876362e+001
0	 3.733319999987732e+000	 4.000000000000001e+000	 1.034499723090836e+001
0	 3.799989999990448e+000	 3.333299999983334e+000	 1.046938833095650e+001
0	 3.799989999990449e+000	 3.399969999982149e+000	 1.045583641522871e+001
0	 3.799989999990447e+000	 3.466639999981866e+000	 1.044282951414198e+001
0	 3.799989999990448e+000	 3.533309999982383e+000	 1.043028227206323e+001
0	 3.799989999990449e+000	 3.599979999983600e+000	 1.041810933335932e+001
0	 3.799989999990449e+000	 3.666649999985417e+000	 1.040622534239717e+001
0	 3.799989999990448e+000	 3.733319999987733e+000	 1.039454494354366e+001
0	 3.799989999990448e+000	 3.799989999990450e+000	 1.038298278116570e+001
0	 3.799989999990448e+000	 3.866659999993467e+000	 1.037145349963017e+001
0	 3.799989999990448e+000	 3.933329999996684e+000	 1.035987174330397e+001
0	 3.799989999990448e+000	 4.000000000000001e+000	 1.034815215655399e+001
0	 3.866659999993464e+000	 3.333299999983334e+000	 1.046476879868277e+001
0	 3.866659999993465e+000	 3.399969999982150e+000	 1.045260787199542e+001
0	 3.866659999993465e+000	 3.466639999981867e+000	 1.044081373135038e+001
0	 3.866659999993465e+000	 3.533309999982383e+000	 1.042930998300682e+001
0	 3.866659999993465e+000	 3.599979999983600e+000	 1.041802023322392e+001
0	 3.866659999993464e+000	 3.666649999985416e+000	 1.040686808826083e+001
0	 3.866659999993465e+000	 3.733319999987733e+000	 1.039577715437673e+001
0	 3.866659999993464e+000	 3.799989999990449e+000	 1.038467103783077e+001
0	 3.866659999993464e+000	 3.866659999993466e+000	 1.037347334488211e+001
0	 3.866659999993465e+000	 3.933329999996684e+000	 1.036210768178990e+001
0	 3.866659999993465e+000	 4.000000000000000e+000	 1.035049765481331e+001
0	 3.933329999996681e+000	 3.333299999983334e+000	 1.046008700001860e+001
0	 3.933329999996682e+000	 3.399969999982151e+000	 1.044921258188327e+001
0	 3.933329999996682e+000	 3.466639999981867e+000	 1.043851975099680e+001
0	 3.933329999996682e+000	 3.533309999982382e+000	 1.042794610191081e+001
0	 3.933329999996682e+000	 3.599979999983600e+000	 1.041742922917691e+001
0	 3.933329999996681e+000	 3.666649999985416e+000	 1.040690672734669e+001
0	 3.933329999996681e+000	 3.733319999987733e+000	 1.039631619097175e+001
0	 3.933329999996681e+000	 3.799989999990450e+000	 1.038559521460369e+001
0	 3.933329999996682e+000	 3.866659999993466e+000	 1.037468139279410e+001
0	 3.933329999996682e+000	 3.933329999996684e+000	 1.036351232009456e+001
0	 3.933329999996682e+000	 4.000000000000000e+000	 1.035202559105668e+001
0	 4.000000000000000e+000	 3.333299999983333e+000	 1.045559182737608e+001
0	 4.000000000000000e+000	 3.399969999982150e+000	 1.044583246239882e+001
0	 4.000000000000001e+000	 3.466639999981866e+000	 1.043607168728258e+001
0	 4.000000000000000e+000	 3.533309999982383e+000	 1.042626611127161e+001
0	 4.000000000000000e+000	 3.599979999983600e+000	 1.041637234361006e+001
0	 4.000000000000001e+000	 3.666649999985417e+000	 1.040634699354219e+001
0	 4.000000000000001e+000	 3.733319999987733e+000	 1.039614667031215e+001
0	 4.000000000000001e+000	 3.799989999990450e+000	 1.038572798316417e+001
0	 4.000000000000000e+000	 3.866659999993467e+000	 1.037504754134243e+001
0	 3.999999999999999e+000	 3.933329999996683e+000	 1.036406195409110e+001
0	 4.000000000000000e+000	 4.000000000000000e+000	 1.035272783065437e+001
0	 3.333299999983333e+000	 4.000000000000000e+000	 1.030952524118447e+001
0	 3.333299999983334e+000	 4.066670000003317e+000	 1.029669252408859e+001
0	 3.333299999983334e+000	 4.133340000006534e+000	 1.028423872216879e+001
0	 3.333299999983335e+000	 4.200010000009551e+000	 1.027214634324987e+001
0	 3.333299999983334e+000	 4.266680000012268e+000	 1.026039789515656e+001
0	 3.333299999983334e+000	 4.333350000014583e+000	 1.024897588571363e+001
0	 3.333299999983334e+000	 4.400020000016401e+000	 1.023786282274586e+001
0	 3.333299999983333e+000	 4.466690000017617e+000	 1.022704121407800e+001
0	 3.333299999983334e+000	 4.533360000018134e+000	 1.021649356753482e+001
0	 3.333299999983334e+000	 4.600030000017851e+000	 1.020620239094110e+001
0	 3.333299999983333e+000	 4.666700000016666e+000	 1.019615019212163e+001
0	 3.399969999982150e+000	 4.000000000000000e+000	 1.031736590392457e+001
0	 3.399969999982150e+000	 4.066670000003317e+000	 1.030488255128672e+001
0	 3.399969999982150e+000	 4.133340000006534e+000	 1.029268676209695e+001
0	 3.399969999982150e+000	 4.200010000009551e+000	 1.028077409236863e+001
0	 3.399969999982150e+000	 4.266680000012267e+000	 1.026914009811514e+001
0	 3.399969999982150e+000	 4.333350000014584e+000	 1.025778033534984e+001
0	 3.399969999982149e+000	 4.400020000016400e+000	 1.024669036008613e+001
0	 3.399969999982150e+000	 4.466690000017616e+000	 1.023586572833737e+001
0	 3.399969999982149e+000	 4.533360000018131e+000	 1.022530199611697e+001
0	 3.399969999982150e+000	 4.600030000017850e+000	 1.021499471943830e+001
0	 3.399969999982150e+000	 4.666700000016666e+000	 1.020493945431477e+001
0	 3.466639999981866e+000	 4.000000000000001e+000	 1.032444594705647e+001
0	 3.466639999981866e+000	 4.066670000003318e+000	 1.031221646114612e+001
0	 3.466639999981865e+000	 4.133340000006533e+000	 1.030020855702178e+001
0	 3.466639999981866e+000	 4.200010000009550e+000	 1.028842822833817e+001
0	 3.466639999981866e+000	 4.266680000012267e+000	 1.027688146875000e+001
0	 3.466639999981865e+000	 4.333350000014584e+000	 1.026557427191202e+001
0	 3.466639999981866e+000	 4.400020000016402e+000	 1.025451263147893e+001
0	 3.466639999981866e+000	 4.466690000017618e+000	 1.024370254110548e+001
0	 3.466639999981866e+000	 4.533360000018133e+000	 1.023314999444639e+001
0	 3.466639999981866e+000	 4.600030000017851e+000	 1.022286098515640e+001
0	 3.466639999981866e+000	 4.666700000016666e+000	 1.021284150689026e+001
0	 3.533309999982383e+000	 4.000000000000000e+000	 1.033075723595049e+001
0	 3.533309999982383e+000	 4.066670000003318e+000	 1.031870502701181e+001
0	 3.533309999982382e+000	 4.133340000006534e+000	 1.030683129361780e+001
0	 3.533309999982382e+000	 4.200010000009551e+000	 1.029514985651727e+001
0	 3.533309999982382e+000	 4.266680000012267e+000	 1.028367453645902e+001
0	 3.533309999982382e+000	 4.333350000014583e+000	 1.027241915419185e+001
0	 3.533309999982383e+000	 4.400020000016403e+000	 1.026139753046457e+001
0	 3.533309999982381e+000	 4.466690000017615e+000	 1.025062348602601e+001
0	 3.533309999982383e+000	 4.533360000018135e+000	 1.024011084162497e+001
0	 3.533309999982383e+000	 4.600030000017849e+000	 1.022987341801025e+001
0	 3.533309999982381e+000	 4.666700000016665e+000	 1.021992503593071e+001
0	 3.599979999983598e+000	 4.000000000000000e+000	 1.033629163597693e+001
0	 3.599979999983598e+000	 4.066670000003316e+000	 1.032435902222882e+001
0	 3.599979999983599e+000	 4.133340000006532e+000	 1.031258215855955e+001
0	 3.599979999983598e+000	 4.200010000009550e+000	 1.030098008226475e+001
0	 3.599979999983598e+000	 4.266680000012268e+000	 1.028957183064005e+001
0	 3.599979999983599e+000	 4.333350000014584e+000	 1.027837644098105e+001
0	 3.599979999983598e+000	 4.400020000016402e+000	 1.026741295058339e+001
0	 3.599979999983599e+000	 4.466690000017617e+000	 1.025670039674269e+001
0	 3.599979999983598e+000	 4.533360000018133e+000	 1.024625781675460e+001
0	 3.599979999983598e+000	 4.600030000017853e+000	 1.023610424791472e+001
0	 3.599979999983599e+000	 4.666700000016667e+000	 1.022625872751872e+001
0	 3.666649999985415e+000	 4.000000000000001e+000	 1.034104101250611e+001
0	 3.666649999985415e+000	 4.066670000003317e+000	 1.032918922014217e+001
0	 3.666649999985415e+000	 4.133340000006534e+000	 1.031748833852155e+001
0	 3.666649999985415e+000	 4.200010000009550e+000	 1.030596001093941e+001
0	 3.666649999985415e+000	 4.266680000012268e+000	 1.029462588069094e+001
0	 3.666649999985415e+000	 4.333350000014582e+000	 1.028350759107132e+001
0	 3.666649999985415e+000	 4.400020000016401e+000	 1.027262678537569e+001
0	 3.666649999985416e+000	 4.466690000017618e+000	 1.026200510689925e+001
0	 3.666649999985415e+000	 4.533360000018133e+000	 1.025166419893719e+001
0	 3.666649999985416e+000	 4.600030000017850e+000	 1.024162570478467e+001
0	 3.666649999985415e+000	 4.666700000016665e+000	 1.023191126773688e+001
0	 3.733319999987732e+000	 4.000000000000001e+000	 1.034499723090836e+001
0	 3.733319999987732e+000	 4.066670000003318e+000	 1.033320639409691e+001
0	 3.733319999987732e+000	 4.133340000006535e+000	 1.032157702017832e+001
0	 3.733319999987732e+000	 4.200010000009550e+000	 1.031013074790006e+001
0	 3.733319999987731e+000	 4.266680000012267e+000	 1.029888921600959e+001
0	 3.733319999987732e+000	 4.333350000014584e+000	 1.028787406325435e+001
0	 3.733319999987732e+000	 4.400020000016402e+000	 1.027710692838180e+001
0	 3.733319999987732e+000	 4.466690000017617e+000	 1.026660945013940e+001
0	 3.733319999987732e+000	 4.533360000018135e+000	 1.025640326727464e+001
0	 3.733319999987732e+000	 4.600030000017851e+000	 1.024651001853495e+001
0	 3.733319999987732e+000	 4.666700000016666e+000	 1.023695134266783e+001
0	 3.799989999990448e+000	 4.000000000000001e+000	 1.034815215655399e+001
0	 3.799989999990449e+000	 4.066670000003317e+000	 1.033642131743806e+001
0	 3.799989999990448e+000	 4.133340000006534e+000	 1.032487539020441e+001
0	 3.799989999990448e+000	 4.200010000009550e+000	 1.031353339850551e+001
0	 3.799989999990448e+000	 4.266680000012267e+000	 1.030241436599383e+001
0	 3.799989999990448e+000	 4.333350000014583e+000	 1.029153731632185e+001
0	 3.799989999990448e+000	 4.400020000016401e+000	 1.028092127314203e+001
0	 3.799989999990447e+000	 4.466690000017617e+000	 1.027058526010687e+001
0	 3.799989999990449e+000	 4.533360000018134e+000	 1.026054830086884e+001
0	 3.799989999990449e+000	 4.600030000017850e+000	 1.025082941908044e+001
0	 3.799989999990448e+000	 4.666700000016666e+000	 1.024144763839414e+001
0	 3.866659999993465e+000	 4.000000000000000e+000	 1.035049765481332e+001
0	 3.866659999993464e+000	 4.066670000003316e+000	 1.033884476351067e+001
0	 3.866659999993465e+000	 4.133340000006534e+000	 1.032741063527435e+001
0	 3.866659999993464e+000	 4.200010000009551e+000	 1.031620906811456e+001
0	 3.866659999993464e+000	 4.266680000012268e+000	 1.030525386004155e+001
0	 3.866659999993464e+000	 4.333350000014585e+000	 1.029455880906554e+001
0	 3.866659999993466e+000	 4.400020000016401e+000	 1.028413771319674e+001
0	 3.866659999993465e+000	 4.466690000017617e+000	 1.027400437044538e+001
0	 3.866659999993464e+000	 4.533360000018133e+000	 1.026417257882173e+001
0	 3.866659999993464e+000	 4.600030000017849e+000	 1.025465613633601e+001
0	 3.866659999993464e+000	 4.666700000016665e+000	 1.024546884099844e+001
0	 3.933329999996682e+000	 4.000000000000000e+000	 1.035202559105668e+001
0	 3.933329999996681e+000	 4.066670000003316e+000	 1.034048750565979e+001
0	 3.933329999996682e+000	 4.133340000006535e+000	 1.032920994206267e+001
0	 3.933329999996682e+000	 4.200010000009551e+000	 1.031819886208605e+001
0	 3.933329999996681e+000	 4.266680000012268e+000	 1.030746022755062e+001
0	 3.933329999996682e+000	 4.333350000014584e+000	 1.029700000027711e+001
0	 3.933329999996681e+000	 4.400020000016401e+000	 1.028682414208622e+001
0	 3.933329999996682e+000	 4.466690000017618e+000	 1.027693861479868e+001
0	 3.933329999996682e+000	 4.533360000018134e+000	 1.026734938023521e+001
0	 3.933329999996682e+000	 4.600030000017851e+000	 1.025806240021653e+001
0	 3.933329999996682e+000	 4.666700000016666e+000	 1.024908363656336e+001
0	 4.000000000000000e+000	 4.000000000000000e+000	 1.035272783065437e+001
0	 4.000000000000000e+000	 4.066670000003317e+000	 1.034136031723042e+001
0	 4.000000000000000e+000	 4.133340000006534e+000	 1.033030049724391e+001
0	 4.000000000000000e+000	 4.200010000009550e+000	 1.031954388577876e+001
0	 4.000000000000001e+000	 4.266680000012268e+000	 1.030908599791890e+001
0	 4.000000000000000e+000	 4.333350000014584e+000	 1.029892234874828e+001
0	 4.000000000000000e+000	 4.400020000016401e+000	 1.028904845335083e+001
0	 4.000000000000000e+000	 4.466690000017617e+000	 1.027945982681048e+001
0	 4.000000000000001e+000	 4.533360000018134e+000	 1.027015198421117e+001
0	 4.000000000000000e+000	 4.600030000017851e+000	 1.026112044063687e+001
0	 4.000000000000000e+000	 4.666700000016666e+000	 1.025236071117151e+001
0	 3.333299999983333e+000	 4.666700000016666e+000	 1.019615019212163e+001
0	 3.333299999983334e+000	 4.733360000014533e+000	 1.018639261371591e+001
0	 3.333299999983334e+000	 4.800020000011601e+000	 1.017699479073922e+001
0	 3.333299999983333e+000	 4.866680000008066e+000	 1.016795794169958e+001
0	 3.333299999983335e+000	 4.933340000004134e+000	 1.015928328510503e+001
0	 3.333299999983334e+000	 5.000000000000001e+000	 1.015097203946361e+001
0	 3.333299999983334e+000	 5.066659999995867e+000	 1.014302542328331e+001
0	 3.333299999983334e+000	 5.133319999991934e+000	 1.013544465507214e+001
0	 3.333299999983334e+000	 5.199979999988400e+000	 1.012823095333813e+001
0	 3.333299999983333e+000	 5.266639999985467e+000	 1.012138553658923e+001
0	 3.333299999983334e+000	 5.333299999983335e+000	 1.011490962333344e+001
0	 3.399969999982150e+000	 4.666700000016666e+000	 1.020493945431477e+001
0	 3.399969999982151e+000	 4.733360000014534e+000	 1.019519222869168e+001
0	 3.399969999982150e+000	 4.800020000011601e+000	 1.018580584652045e+001
0	 3.399969999982149e+000	 4.866680000008066e+000	 1.017677549643340e+001
0	 3.399969999982149e+000	 4.933340000004132e+000	 1.016809636706284e+001
0	 3.399969999982150e+000	 5.000000000000001e+000	 1.015976364704111e+001
0	 3.399969999982150e+000	 5.066659999995867e+000	 1.015177252500051e+001
0	 3.399969999982149e+000	 5.133319999991934e+000	 1.014411818957334e+001
0	 3.399969999982150e+000	 5.199979999988400e+000	 1.013679582939190e+001
0	 3.399969999982150e+000	 5.266639999985468e+000	 1.012980063308847e+001
0	 3.399969999982149e+000	 5.333299999983332e+000	 1.012312778929534e+001
0	 3.466639999981866e+000	 4.666700000016666e+000	 1.021284150689026e+001
0	 3.466639999981866e+000	 4.733360000014534e+000	 1.020314301900565e+001
0	 3.466639999981866e+000	 4.800020000011600e+000	 1.019380356563282e+001
0	 3.466639999981866e+000	 4.866680000008067e+000	 1.018481346458469e+001
0	 3.466639999981866e+000	 4.933340000004135e+000	 1.017616303367414e+001
0	 3.466639999981866e+000	 4.999999999999999e+000	 1.016784259071409e+001
0	 3.466639999981866e+000	 5.066659999995866e+000	 1.015984245351741e+001
0	 3.466639999981866e+000	 5.133319999991933e+000	 1.015215293989698e+001
0	 3.466639999981866e+000	 5.199979999988401e+000	 1.014476436766568e+001
0	 3.466639999981866e+000	 5.266639999985468e+000	 1.013766705463637e+001
0	 3.466639999981866e+000	 5.333299999983334e+000	 1.013085131862190e+001
0	 3.533309999982381e+000	 4.666700000016665e+000	 1.021992503593071e+001
0	 3.533309999982382e+000	 4.733360000014534e+000	 1.021030876213720e+001
0	 3.533309999982382e+000	 4.800020000011601e+000	 1.020104658061856e+001
0	 3.533309999982384e+000	 4.866680000008067e+000	 1.019212509742457e+001
0	 3.533309999982383e+000	 4.933340000004134e+000	 1.018353091860499e+001
0	 3.533309999982382e+000	 4.999999999999999e+000	 1.017525065020956e+001
0	 3.533309999982382e+000	 5.066659999995867e+000	 1.016727089828804e+001
0	 3.533309999982383e+000	 5.133319999991936e+000	 1.015957826889016e+001
0	 3.533309999982382e+000	 5.199979999988400e+000	 1.015215936806566e+001
0	 3.533309999982382e+000	 5.266639999985468e+000	 1.014500080186426e+001
0	 3.533309999982382e+000	 5.333299999983335e+000	 1.013808917633569e+001
0	 3.599979999983599e+000	 4.666700000016667e+000	 1.022625872751872e+001
0	 3.599979999983598e+000	 4.733360000014534e+000	 1.021675323556572e+001
0	 3.599979999983599e+000	 4.800020000011600e+000	 1.020759352401992e+001
0	 3.599979999983599e+000	 4.866680000008065e+000	 1.019876364622417e+001
0	 3.599979999983599e+000	 4.933340000004134e+000	 1.019024765552141e+001
0	 3.599979999983598e+000	 4.999999999999999e+000	 1.018202960525453e+001
0	 3.599979999983598e+000	 5.066659999995866e+000	 1.017409354876643e+001
0	 3.599979999983598e+000	 5.133319999991934e+000	 1.016642353939996e+001
0	 3.599979999983598e+000	 5.199979999988400e+000	 1.015900363049805e+001
0	 3.599979999983598e+000	 5.266639999985467e+000	 1.015181787540352e+001
0	 3.599979999983598e+000	 5.333299999983333e+000	 1.014485032745926e+001
0	 3.666649999985415e+000	 4.666700000016665e+000	 1.023191126773688e+001
0	 3.666649999985415e+000	 4.733360000014534e+000	 1.022254021677063e+001
0	 3.666649999985415e+000	 4.800020000011601e+000	 1.021350302837910e+001
0	 3.666649999985415e+000	 4.866680000008065e+000	 1.020478236225460e+001
0	 3.666649999985414e+000	 4.933340000004133e+000	 1.019636087808947e+001
0	 3.666649999985415e+000	 5.000000000000001e+000	 1.018822123557604e+001
0	 3.666649999985415e+000	 5.066659999995867e+000	 1.018034609440662e+001
0	 3.666649999985415e+000	 5.133319999991935e+000	 1.017271811427352e+001
0	 3.666649999985415e+000	 5.199979999988400e+000	 1.016531995486905e+001
0	 3.666649999985415e+000	 5.266639999985467e+000	 1.015813427588550e+001
0	 3.666649999985415e+000	 5.333299999983333e+000	 1.015114373701519e+001
0	 3.733319999987732e+000	 4.666700000016666e+000	 1.023695134266783e+001
0	 3.733319999987732e+000	 4.733360000014534e+000	 1.022773348323132e+001
0	 3.733319999987731e+000	 4.800020000011599e+000	 1.021883372623836e+001
0	 3.733319999987733e+000	 4.866680000008066e+000	 1.021023449678697e+001
0	 3.733319999987731e+000	 4.933340000004131e+000	 1.020191821997520e+001
0	 3.733319999987731e+000	 4.999999999999999e+000	 1.019386732090108e+001
0	 3.733319999987732e+000	 5.066659999995868e+000	 1.018606422466264e+001
0	 3.733319999987732e+000	 5.133319999991934e+000	 1.017849135635789e+001
0	 3.733319999987732e+000	 5.199979999988401e+000	 1.017113114108488e+001
0	 3.733319999987732e+000	 5.266639999985467e+000	 1.016396600394158e+001
0	 3.733319999987731e+000	 5.333299999983333e+000	 1.015697837002603e+001
0	 3.799989999990448e+000	 4.666700000016666e+000	 1.024144763839414e+001
0	 3.799989999990448e+000	 4.733360000014532e+000	 1.023239681242718e+001
0	 3.799989999990448e+000	 4.800020000011600e+000	 1.022364425013993e+001
0	 3.799989999990448e+000	 4.866680000008067e+000	 1.021517330109241e+001
0	 3.799989999990448e+000	 4.933340000004133e+000	 1.020696731484466e+001
0	 3.799989999990447e+000	 4.999999999999999e+000	 1.019900964095670e+001
0	 3.799989999990449e+000	 5.066659999995868e+000	 1.019128362898854e+001
0	 3.799989999990448e+000	 5.133319999991934e+000	 1.018377262850023e+001
0	 3.799989999990448e+000	 5.199979999988400e+000	 1.017645998905175e+001
0	 3.799989999990449e+000	 5.266639999985467e+000	 1.016932906020311e+001
0	 3.799989999990449e+000	 5.333299999983334e+000	 1.016236319151434e+001
0	 3.866659999993464e+000	 4.666700000016665e+000	 1.024546884099844e+001
0	 3.866659999993465e+000	 4.733360000014533e+000	 1.023659398183763e+001
0	 3.866659999993465e+000	 4.800020000011601e+000	 1.022799323262606e+001
0	 3.866659999993464e+000	 4.866680000008066e+000	 1.021965202644205e+001
0	 3.866659999993465e+000	 4.933340000004133e+000	 1.021155579636389e+001
0	 3.866659999993465e+000	 5.000000000000000e+000	 1.020368997546991e+001
0	 3.866659999993465e+000	 5.066659999995866e+000	 1.019603999683838e+001
0	 3.866659999993465e+000	 5.133319999991935e+000	 1.018859129354761e+001
0	 3.866659999993465e+000	 5.199979999988400e+000	 1.018132929867588e+001
0	 3.866659999993465e+000	 5.266639999985468e+000	 1.017423944530149e+001
0	 3.866659999993464e+000	 5.333299999983333e+000	 1.016730716650270e+001
0	 3.933329999996682e+000	 4.666700000016666e+000	 1.024908363656336e+001
0	 3.933329999996682e+000	 4.733360000014532e+000	 1.024038876894208e+001
0	 3.933329999996682e+000	 4.800020000011600e+000	 1.023193930623901e+001
0	 3.933329999996682e+000	 4.866680000008067e+000	 1.022372392410702e+001
0	 3.933329999996682e+000	 4.933340000004133e+000	 1.021573129819898e+001
0	 3.933329999996682e+000	 5.000000000000001e+000	 1.020795010416774e+001
0	 3.933329999996681e+000	 5.066659999995867e+000	 1.020036901766618e+001
0	 3.933329999996682e+000	 5.133319999991934e+000	 1.019297671434715e+001
0	 3.933329999996682e+000	 5.199979999988400e+000	 1.018576186986349e+001
0	 3.933329999996682e+000	 5.266639999985467e+000	 1.017871315986806e+001
0	 3.933329999996682e+000	 5.333299999983334e+000	 1.017181926001369e+001
0	 4.000000000000000e+000	 4.666700000016666e+000	 1.025236071117151e+001
0	 4.000000000000000e+000	 4.733360000014533e+000	 1.024384495121994e+001
0	 4.000000000000000e+000	 4.800020000011600e+000	 1.023554110352100e+001
0	 4.000000000000001e+000	 4.866680000008067e+000	 1.022744224535844e+001
0	 3.999999999999999e+000	 4.933340000004133e+000	 1.021954145401595e+001
0	 3.999999999999999e+000	 5.000000000000000e+000	 1.021183180677724e+001
0	 4.000000000000000e+000	 5.066659999995866e+000	 1.020430638092601e+001
0	 4.000000000000000e+000	 5.133319999991934e+000	 1.019695825374597e+001
0	 4.000000000000001e+000	 5.199979999988400e+000	 1.018978050252080e+001
0	 4.000000000000000e+000	 5.266639999985467e+000	 1.018276620453421e+001
0	 4.000000000000000e+000	 5.333299999983334e+000	 1.017590843706987e+001
0	 3.333299999983334e+000	 5.333299999983335e+000	 1.011490962333344e+001
0	 3.333299999983334e+000	 5.399969999982148e+000	 1.010874111488256e+001
0	 3.333299999983335e+000	 5.466639999981867e+000	 1.010282262012063e+001
0	 3.333299999983334e+000	 5.533309999982384e+000	 1.009715958779086e+001
0	 3.333299999983334e+000	 5.599979999983601e+000	 1.009175746663654e+001
0	 3.333299999983334e+000	 5.666649999985414e+000	 1.008662170540094e+001
0	 3.333299999983334e+000	 5.733319999987733e+000	 1.008175775282732e+001
0	 3.333299999983333e+000	 5.799989999990449e+000	 1.007717105765894e+001
0	 3.333299999983333e+000	 5.866659999993468e+000	 1.007286706863909e+001
0	 3.333299999983334e+000	 5.933329999996684e+000	 1.006885123451106e+001
0	 3.333299999983333e+000	 5.999999999999998e+000	 1.006512900401810e+001
0	 3.399969999982149e+000	 5.333299999983332e+000	 1.012312778929534e+001
0	 3.399969999982150e+000	 5.399969999982149e+000	 1.011674273917670e+001
0	 3.399969999982150e+000	 5.466639999981866e+000	 1.011061989498365e+001
0	 3.399969999982150e+000	 5.533309999982383e+000	 1.010476497071350e+001
0	 3.399969999982150e+000	 5.599979999983599e+000	 1.009918368036358e+001
0	 3.399969999982150e+000	 5.666649999985416e+000	 1.009388173793122e+001
0	 3.399969999982150e+000	 5.733319999987733e+000	 1.008886485741378e+001
0	 3.399969999982150e+000	 5.799989999990447e+000	 1.008413875280857e+001
0	 3.399969999982150e+000	 5.866659999993466e+000	 1.007970913811297e+001
0	 3.399969999982150e+000	 5.933329999996683e+000	 1.007558172732429e+001
0	 3.399969999982150e+000	 6.000000000000001e+000	 1.007176223443990e+001
0	 3.466639999981866e+000	 5.333299999983334e+000	 1.013085131862190e+001
0	 3.466639999981866e+000	 5.399969999982150e+000	 1.012430372247946e+001
0	 3.466639999981867e+000	 5.466639999981867e+000	 1.011802311969964e+001
0	 3.466639999981866e+000	 5.533309999982382e+000	 1.011201525856612e+001
0	 3.466639999981865e+000	 5.599979999983598e+000	 1.010628588736262e+001
0	 3.466639999981866e+000	 5.666649999985417e+000	 1.010084075437284e+001
0	 3.466639999981866e+000	 5.733319999987733e+000	 1.009568560788049e+001
0	 3.466639999981867e+000	 5.799989999990451e+000	 1.009082619616930e+001
0	 3.466639999981866e+000	 5.866659999993467e+000	 1.008626826752296e+001
0	 3.466639999981866e+000	 5.933329999996685e+000	 1.008201757022521e+001
0	 3.466639999981866e+000	 6.000000000000001e+000	 1.007807985255978e+001
0	 3.533309999982382e+000	 5.333299999983335e+000	 1.013808917633569e+001
0	 3.533309999982383e+000	 5.399969999982149e+000	 1.013142653708122e+001
0	 3.533309999982383e+000	 5.466639999981865e+000	 1.012502959806032e+001
0	 3.533309999982382e+000	 5.533309999982382e+000	 1.011890391087536e+001
0	 3.533309999982383e+000	 5.599979999983600e+000	 1.011305502712874e+001
0	 3.533309999982382e+000	 5.666649999985417e+000	 1.010748849842282e+001
0	 3.533309999982383e+000	 5.733319999987733e+000	 1.010220987636004e+001
0	 3.533309999982382e+000	 5.799989999990449e+000	 1.009722471254273e+001
0	 3.533309999982382e+000	 5.866659999993466e+000	 1.009253855857334e+001
0	 3.533309999982382e+000	 5.933329999996683e+000	 1.008815696605424e+001
0	 3.533309999982383e+000	 6.000000000000000e+000	 1.008408548658785e+001
0	 3.599979999983598e+000	 5.333299999983333e+000	 1.014485032745926e+001
0	 3.599979999983598e+000	 5.399969999982149e+000	 1.013811365527235e+001
0	 3.599979999983600e+000	 5.466639999981866e+000	 1.013163663385743e+001
0	 3.599979999983599e+000	 5.533309999982384e+000	 1.012542438716786e+001
0	 3.599979999983598e+000	 5.599979999983600e+000	 1.011948203915703e+001
0	 3.599979999983598e+000	 5.666649999985416e+000	 1.011381471377829e+001
0	 3.599979999983598e+000	 5.733319999987733e+000	 1.010842753498500e+001
0	 3.599979999983598e+000	 5.799989999990449e+000	 1.010332562673058e+001
0	 3.599979999983599e+000	 5.866659999993468e+000	 1.009851411296839e+001
0	 3.599979999983598e+000	 5.933329999996683e+000	 1.009399811765182e+001
0	 3.599979999983599e+000	 6.000000000000001e+000	 1.008978276473425e+001
0	 3.666649999985415e+000	 5.333299999983333e+000	 1.015114373701519e+001
0	 3.666649999985415e+000	 5.399969999982151e+000	 1.014436754934324e+001
0	 3.666649999985415e+000	 5.466639999981864e+000	 1.013784153088272e+001
0	 3.666649999985415e+000	 5.533309999982385e+000	 1.013157014697028e+001
0	 3.666649999985415e+000	 5.599979999983601e+000	 1.012555786294257e+001
0	 3.666649999985415e+000	 5.666649999985416e+000	 1.011980914413627e+001
0	 3.666649999985416e+000	 5.733319999987733e+000	 1.011432845588802e+001
0	 3.666649999985415e+000	 5.799989999990449e+000	 1.010912026353451e+001
0	 3.666649999985415e+000	 5.866659999993467e+000	 1.010418903241240e+001
0	 3.666649999985415e+000	 5.933329999996684e+000	 1.009953922785838e+001
0	 3.666649999985415e+000	 5.999999999999998e+000	 1.009517531520911e+001
0	 3.733319999987731e+000	 5.333299999983333e+000	 1.015697837002603e+001
0	 3.733319999987733e+000	 5.399969999982150e+000	 1.015019069158429e+001
0	 3.733319999987732e+000	 5.466639999981866e+000	 1.014364159292794e+001
0	 3.733319999987732e+000	 5.533309999982384e+000	 1.013733464980925e+001
0	 3.733319999987731e+000	 5.599979999983598e+000	 1.013127343798047e+001
0	 3.733319999987731e+000	 5.666649999985416e+000	 1.012546153319385e+001
0	 3.733319999987731e+000	 5.733319999987733e+000	 1.011990251120167e+001
0	 3.733319999987732e+000	 5.799989999990450e+000	 1.011459994775617e+001
0	 3.733319999987731e+000	 5.866659999993466e+000	 1.010955741860964e+001
0	 3.733319999987732e+000	 5.933329999996684e+000	 1.010477849951434e+001
0	 3.733319999987732e+000	 6.000000000000000e+000	 1.010026676622255e+001
0	 3.799989999990449e+000	 5.333299999983334e+000	 1.016236319151434e+001
0	 3.799989999990449e+000	 5.399969999982148e+000	 1.015558555428585e+001
0	 3.799989999990448e+000	 5.466639999981866e+000	 1.014903412378483e+001
0	 3.799989999990448e+000	 5.533309999982381e+000	 1.014271135521143e+001
0	 3.799989999990449e+000	 5.599979999983600e+000	 1.013661970376582e+001
0	 3.799989999990449e+000	 5.666649999985418e+000	 1.013076162464813e+001
0	 3.799989999990448e+000	 5.733319999987732e+000	 1.012513957305856e+001
0	 3.799989999990448e+000	 5.799989999990449e+000	 1.011975600419726e+001
0	 3.799989999990448e+000	 5.866659999993468e+000	 1.011461337326440e+001
0	 3.799989999990449e+000	 5.933329999996684e+000	 1.010971413546015e+001
0	 3.799989999990448e+000	 6.000000000000000e+000	 1.010506074598469e+001
0	 3.866659999993464e+000	 5.333299999983333e+000	 1.016730716650270e+001
0	 3.866659999993465e+000	 5.399969999982149e+000	 1.016055460973833e+001
0	 3.866659999993465e+000	 5.466639999981866e+000	 1.015401642724513e+001
0	 3.866659999993465e+000	 5.533309999982382e+000	 1.014769372270345e+001
0	 3.866659999993464e+000	 5.599979999983599e+000	 1.014158759979369e+001
0	 3.866659999993463e+000	 5.666649999985416e+000	 1.013569916219618e+001
0	 3.866659999993465e+000	 5.733319999987733e+000	 1.013002951359129e+001
0	 3.866659999993464e+000	 5.799989999990449e+000	 1.012457975765943e+001
0	 3.866659999993466e+000	 5.866659999993469e+000	 1.011935099808095e+001
0	 3.866659999993465e+000	 5.933329999996684e+000	 1.011434433853624e+001
0	 3.866659999993465e+000	 6.000000000000000e+000	 1.010956088270566e+001
0	 3.933329999996682e+000	 5.333299999983334e+000	 1.017181926001369e+001
0	 3.933329999996681e+000	 5.399969999982149e+000	 1.016510033023212e+001
0	 3.933329999996681e+000	 5.466639999981867e+000	 1.015858580710059e+001
0	 3.933329999996681e+000	 5.533309999982383e+000	 1.015227521181199e+001
0	 3.933329999996681e+000	 5.599979999983599e+000	 1.014616806555920e+001
0	 3.933329999996681e+000	 5.666649999985417e+000	 1.014026388953506e+001
0	 3.933329999996682e+000	 5.733319999987733e+000	 1.013456220493250e+001
0	 3.933329999996682e+000	 5.799989999990448e+000	 1.012906253294439e+001
0	 3.933329999996682e+000	 5.866659999993466e+000	 1.012376439476359e+001
0	 3.933329999996682e+000	 5.933329999996683e+000	 1.011866731158304e+001
0	 3.933329999996682e+000	 5.999999999999998e+000	 1.011377080459559e+001
0	 4.000000000000000e+000	 5.333299999983334e+000	 1.017590843706987e+001
0	 4.000000000000000e+000	 5.399969999982148e+000	 1.016922518805760e+001
0	 4.000000000000002e+000	 5.466639999981868e+000	 1.016273956714298e+001
0	 4.000000000000000e+000	 5.533309999982382e+000	 1.015644928206369e+001
0	 4.000000000000001e+000	 5.599979999983600e+000	 1.015035204055742e+001
0	 4.000000000000001e+000	 5.666649999985416e+000	 1.014444555036188e+001
0	 4.000000000000001e+000	 5.733319999987733e+000	 1.013872751921477e+001
0	 4.000000000000000e+000	 5.799989999990448e+000	 1.013319565485377e+001
0	 4.000000000000001e+000	 5.866659999993468e+000	 1.012784766501661e+001
0	 4.000000000000000e+000	 5.933329999996682e+000	 1.012268125744099e+001
0	 4.000000000000000e+000	 6.000000000000001e+000	 1.011769413986462e+001
0	 3.333299999983333e+000	 5.999999999999998e+000	 1.006512900401810e+001
0	 3.333299999983333e+000	 6.066670000003317e+000	 1.006161768023759e+001
0	 3.333299999983333e+000	 6.133340000006531e+000	 1.005823088495149e+001
0	 3.333299999983334e+000	 6.200010000009550e+000	 1.005496854496005e+001
0	 3.333299999983334e+000	 6.266680000012269e+000	 1.005183058706355e+001
0	 3.333299999983334e+000	 6.333350000014584e+000	 1.004881693806221e+001
0	 3.333299999983334e+000	 6.400020000016401e+000	 1.004592752475629e+001
0	 3.333299999983334e+000	 6.466690000017618e+000	 1.004316227394607e+001
0	 3.333299999983334e+000	 6.533360000018134e+000	 1.004052111243178e+001
0	 3.333299999983334e+000	 6.600030000017851e+000	 1.003800396701369e+001
0	 3.333299999983333e+000	 6.666700000016665e+000	 1.003561076449207e+001
0	 3.399969999982150e+000	 6.000000000000001e+000	 1.007176223443990e+001
0	 3.399969999982150e+000	 6.066670000003313e+000	 1.006815207267903e+001
0	 3.399969999982150e+000	 6.133340000006532e+000	 1.006464936898132e+001
0	 3.399969999982150e+000	 6.200010000009552e+000	 1.006125490792466e+001
0	 3.399969999982150e+000	 6.266680000012269e+000	 1.005796947408696e+001
0	 3.399969999982151e+000	 6.333350000014587e+000	 1.005479385204614e+001
0	 3.399969999982150e+000	 6.400020000016400e+000	 1.005172882638012e+001
0	 3.399969999982150e+000	 6.466690000017618e+000	 1.004877518166679e+001
0	 3.399969999982150e+000	 6.533360000018132e+000	 1.004593370248410e+001
0	 3.399969999982150e+000	 6.600030000017850e+000	 1.004320517340996e+001
0	 3.399969999982150e+000	 6.666700000016666e+000	 1.004059037902226e+001
0	 3.466639999981866e+000	 6.000000000000001e+000	 1.007807985255978e+001
0	 3.466639999981866e+000	 6.066670000003317e+000	 1.007434897429021e+001
0	 3.466639999981866e+000	 6.133340000006534e+000	 1.007071597473683e+001
0	 3.466639999981867e+000	 6.200010000009552e+000	 1.006718237151852e+001
0	 3.466639999981866e+000	 6.266680000012266e+000	 1.006374968225416e+001
0	 3.466639999981866e+000	 6.333350000014584e+000	 1.006041942456259e+001
0	 3.466639999981866e+000	 6.400020000016401e+000	 1.005719311606270e+001
0	 3.466639999981866e+000	 6.466690000017618e+000	 1.005407227437336e+001
0	 3.466639999981866e+000	 6.533360000018134e+000	 1.005105841711347e+001
0	 3.466639999981866e+000	 6.600030000017850e+000	 1.004815306190189e+001
0	 3.466639999981867e+000	 6.666700000016669e+000	 1.004535772635749e+001
0	 3.533309999982383e+000	 6.000000000000000e+000	 1.008408548658785e+001
0	 3.533309999982383e+000	 6.066670000003317e+000	 1.008021749423965e+001
0	 3.533309999982382e+000	 6.133340000006533e+000	 1.007644407928896e+001
0	 3.533309999982382e+000	 6.200010000009550e+000	 1.007276736765890e+001
0	 3.533309999982382e+000	 6.266680000012268e+000	 1.006918948527261e+001
0	 3.533309999982381e+000	 6.333350000014585e+000	 1.006571255805323e+001
0	 3.533309999982383e+000	 6.400020000016402e+000	 1.006233871192388e+001
0	 3.533309999982382e+000	 6.466690000017618e+000	 1.005907007280770e+001
0	 3.533309999982383e+000	 6.533360000018136e+000	 1.005590876662785e+001
0	 3.533309999982383e+000	 6.600030000017850e+000	 1.005285691930745e+001
0	 3.533309999982382e+000	 6.666700000016667e+000	 1.004991665676965e+001
0	 3.599979999983599e+000	 6.000000000000001e+000	 1.008978276473425e+001
0	 3.599979999983598e+000	 6.066670000003318e+000	 1.008576674169593e+001
0	 3.599979999983598e+000	 6.133340000006532e+000	 1.008184705970864e+001
0	 3.599979999983598e+000	 6.200010000009550e+000	 1.007802632826304e+001
0	 3.599979999983598e+000	 6.266680000012266e+000	 1.007430715684986e+001
0	 3.599979999983599e+000	 6.333350000014584e+000	 1.007069215495978e+001
0	 3.599979999983598e+000	 6.400020000016400e+000	 1.006718393208351e+001
0	 3.599979999983599e+000	 6.466690000017616e+000	 1.006378509771175e+001
0	 3.599979999983598e+000	 6.533360000018133e+000	 1.006049826133518e+001
0	 3.599979999983599e+000	 6.600030000017851e+000	 1.005732603244454e+001
0	 3.599979999983599e+000	 6.666700000016668e+000	 1.005427102053050e+001
0	 3.666649999985415e+000	 5.999999999999998e+000	 1.009517531520911e+001
0	 3.666649999985415e+000	 6.066670000003318e+000	 1.009100582582761e+001
0	 3.666649999985415e+000	 6.133340000006533e+000	 1.008693829306678e+001
0	 3.666649999985415e+000	 6.200010000009550e+000	 1.008297568524819e+001
0	 3.666649999985415e+000	 6.266680000012267e+000	 1.007912097069341e+001
0	 3.666649999985415e+000	 6.333350000014584e+000	 1.007537711772397e+001
0	 3.666649999985415e+000	 6.400020000016402e+000	 1.007174709466146e+001
0	 3.666649999985416e+000	 6.466690000017619e+000	 1.006823386982743e+001
0	 3.666649999985416e+000	 6.533360000018135e+000	 1.006484041154345e+001
0	 3.666649999985416e+000	 6.600030000017851e+000	 1.006156968813111e+001
0	 3.666649999985415e+000	 6.666700000016666e+000	 1.005842466791195e+001
0	 3.733319999987732e+000	 6.000000000000000e+000	 1.010026676622255e+001
0	 3.733319999987732e+000	 6.066670000003316e+000	 1.009594385580324e+001
0	 3.733319999987732e+000	 6.133340000006533e+000	 1.009173115643434e+001
0	 3.733319999987732e+000	 6.200010000009552e+000	 1.008763187053161e+001
0	 3.733319999987732e+000	 6.266680000012268e+000	 1.008364920051075e+001
0	 3.733319999987732e+000	 6.333350000014586e+000	 1.007978634878750e+001
0	 3.733319999987731e+000	 6.400020000016399e+000	 1.007604651777757e+001
0	 3.733319999987732e+000	 6.466690000017619e+000	 1.007243290989670e+001
0	 3.733319999987732e+000	 6.533360000018135e+000	 1.006894872756063e+001
0	 3.733319999987733e+000	 6.600030000017851e+000	 1.006559717318508e+001
0	 3.733319999987732e+000	 6.666700000016666e+000	 1.006238144918580e+001
0	 3.799989999990448e+000	 6.000000000000000e+000	 1.010506074598469e+001
0	 3.799989999990448e+000	 6.066670000003319e+000	 1.010058994079138e+001
0	 3.799989999990448e+000	 6.133340000006533e+000	 1.009623902688228e+001
0	 3.799989999990448e+000	 6.200010000009551e+000	 1.009201131603056e+001
0	 3.799989999990448e+000	 6.266680000012268e+000	 1.008791012000943e+001
0	 3.799989999990449e+000	 6.333350000014584e+000	 1.008393875059208e+001
0	 3.799989999990448e+000	 6.400020000016402e+000	 1.008010051955169e+001
0	 3.799989999990448e+000	 6.466690000017616e+000	 1.007639873866150e+001
0	 3.799989999990449e+000	 6.533360000018135e+000	 1.007283671969465e+001
0	 3.799989999990449e+000	 6.600030000017850e+000	 1.006941777442438e+001
0	 3.799989999990448e+000	 6.666700000016664e+000	 1.006614521462389e+001
0	 3.866659999993465e+000	 6.000000000000000e+000	 1.010956088270566e+001
0	 3.866659999993464e+000	 6.066670000003315e+000	 1.010495318996060e+001
0	 3.866659999993465e+000	 6.133340000006534e+000	 1.010047528148149e+001
0	 3.866659999993464e+000	 6.200010000009551e+000	 1.009613045366227e+001
0	 3.866659999993465e+000	 6.266680000012268e+000	 1.009192200289694e+001
0	 3.866659999993465e+000	 6.333350000014584e+000	 1.008785322557943e+001
0	 3.866659999993465e+000	 6.400020000016401e+000	 1.008392741810370e+001
0	 3.866659999993465e+000	 6.466690000017617e+000	 1.008014787686373e+001
0	 3.866659999993464e+000	 6.533360000018134e+000	 1.007651789825350e+001
0	 3.866659999993465e+000	 6.600030000017849e+000	 1.007304077866695e+001
0	 3.866659999993464e+000	 6.666700000016666e+000	 1.006971981449807e+001
0	 3.933329999996682e+000	 5.999999999999998e+000	 1.011377080459559e+001
0	 3.933329999996682e+000	 6.066670000003318e+000	 1.010904271247946e+001
0	 3.933329999996682e+000	 6.133340000006533e+000	 1.010445329730294e+001
0	 3.933329999996682e+000	 6.200010000009552e+000	 1.010000571534404e+001
0	 3.933329999996681e+000	 6.266680000012267e+000	 1.009570312288080e+001
0	 3.933329999996682e+000	 6.333350000014585e+000	 1.009154867619127e+001
0	 3.933329999996682e+000	 6.400020000016402e+000	 1.008754553155345e+001
0	 3.933329999996681e+000	 6.466690000017615e+000	 1.008369684524540e+001
0	 3.933329999996682e+000	 6.533360000018136e+000	 1.008000577354514e+001
0	 3.933329999996682e+000	 6.600030000017851e+000	 1.007647547273073e+001
0	 3.933329999996681e+000	 6.666700000016666e+000	 1.007310909908018e+001
0	 4.000000000000000e+000	 6.000000000000001e+000	 1.011769413986462e+001
0	 4.000000000000000e+000	 6.066670000003314e+000	 1.011286761751654e+001
0	 4.000000000000001e+000	 6.133340000006534e+000	 1.010818645141755e+001
0	 4.000000000000000e+000	 6.200010000009551e+000	 1.010365353299309e+001
0	 4.000000000000001e+000	 6.266680000012268e+000	 1.009927175366854e+001
0	 4.000000000000000e+000	 6.333350000014584e+000	 1.009504400486931e+001
0	 3.999999999999999e+000	 6.400020000016398e+000	 1.009097317802080e+001
0	 4.000000000000000e+000	 6.466690000017617e+000	 1.008706216454841e+001
0	 4.000000000000000e+000	 6.533360000018133e+000	 1.008331385587754e+001
0	 4.000000000000000e+000	 6.600030000017848e+000	 1.007973114343362e+001
0	 4.000000000000000e+000	 6.666700000016665e+000	 1.007631691864206e+001
0	 3.333299999983333e+000	 6.666700000016665e+000	 1.003561076449208e+001
0	 3.333299999983334e+000	 6.733360000014534e+000	 1.003333210389401e+001
0	 3.333299999983334e+000	 6.800020000011601e+000	 1.003116135149034e+001
0	 3.333299999983333e+000	 6.866680000008064e+000	 1.002910363395944e+001
0	 3.333299999983334e+000	 6.933340000004133e+000	 1.002716407797970e+001
0	 3.333299999983333e+000	 6.999999999999999e+000	 1.002534781022950e+001
0	 3.333299999983335e+000	 7.066659999995867e+000	 1.002365995738721e+001
0	 3.333299999983334e+000	 7.133319999991936e+000	 1.002210564613120e+001
0	 3.333299999983334e+000	 7.199979999988401e+000	 1.002069000313985e+001
0	 3.333299999983334e+000	 7.266639999985467e+000	 1.001941815509152e+001
0	 3.333299999983335e+000	 7.333299999983336e+000	 1.001829522866458e+001
0	 3.399969999982150e+000	 6.666700000016666e+000	 1.004059037902226e+001
0	 3.399969999982150e+000	 6.733360000014531e+000	 1.003809502379842e+001
0	 3.399969999982150e+000	 6.800020000011599e+000	 1.003572583834077e+001
0	 3.399969999982150e+000	 6.866680000008066e+000	 1.003348629730660e+001
0	 3.399969999982150e+000	 6.933340000004133e+000	 1.003137987535319e+001
0	 3.399969999982150e+000	 6.999999999999999e+000	 1.002941004713785e+001
0	 3.399969999982150e+000	 7.066659999995865e+000	 1.002758028731785e+001
0	 3.399969999982150e+000	 7.133319999991934e+000	 1.002589407055047e+001
0	 3.399969999982150e+000	 7.199979999988400e+000	 1.002435487149296e+001
0	 3.399969999982150e+000	 7.266639999985467e+000	 1.002296616480263e+001
0	 3.399969999982149e+000	 7.333299999983332e+000	 1.002173142513671e+001
0	 3.466639999981867e+000	 6.666700000016669e+000	 1.004535772635750e+001
0	 3.466639999981867e+000	 6.733360000014534e+000	 1.004268629598471e+001
0	 3.466639999981866e+000	 6.800020000011599e+000	 1.004015219033277e+001
0	 3.466639999981866e+000	 6.866680000008068e+000	 1.003775746094504e+001
0	 3.466639999981866e+000	 6.933340000004134e+000	 1.003550415936495e+001
0	 3.466639999981866e+000	 6.999999999999998e+000	 1.003339433713587e+001
0	 3.466639999981866e+000	 7.066659999995866e+000	 1.003143004580120e+001
0	 3.466639999981866e+000	 7.133319999991935e+000	 1.002961333690431e+001
0	 3.466639999981866e+000	 7.199979999988400e+000	 1.002794626198860e+001
0	 3.466639999981866e+000	 7.266639999985467e+000	 1.002643087259742e+001
0	 3.466639999981866e+000	 7.333299999983332e+000	 1.002506922027417e+001
0	 3.533309999982382e+000	 6.666700000016667e+000	 1.004991665676965e+001
0	 3.533309999982382e+000	 6.733360000014534e+000	 1.004710423372573e+001
0	 3.533309999982382e+000	 6.800020000011599e+000	 1.004443419407752e+001
0	 3.533309999982383e+000	 6.866680000008067e+000	 1.004190739516172e+001
0	 3.533309999982382e+000	 6.933340000004132e+000	 1.003952469431503e+001
0	 3.533309999982383e+000	 7.000000000000001e+000	 1.003728694887414e+001
0	 3.533309999982382e+000	 7.066659999995866e+000	 1.003519501617574e+001
0	 3.533309999982383e+000	 7.133319999991936e+000	 1.003324975355652e+001
0	 3.533309999982382e+000	 7.199979999988400e+000	 1.003145201835316e+001
0	 3.533309999982383e+000	 7.266639999985467e+000	 1.002980266790237e+001
0	 3.533309999982382e+000	 7.333299999983335e+000	 1.002830255954077e+001
0	 3.599979999983599e+000	 6.666700000016668e+000	 1.005427102053051e+001
0	 3.599979999983599e+000	 6.733360000014532e+000	 1.005134715029428e+001
0	 3.599979999983599e+000	 6.800020000011598e+000	 1.004856563618624e+001
0	 3.599979999983598e+000	 6.866680000008066e+000	 1.004592637024357e+001
0	 3.599979999983599e+000	 6.933340000004134e+000	 1.004342924450350e+001
0	 3.599979999983598e+000	 6.999999999999999e+000	 1.004107415100322e+001
0	 3.599979999983598e+000	 7.066659999995865e+000	 1.003886098177992e+001
0	 3.599979999983599e+000	 7.133319999991934e+000	 1.003678962887081e+001
0	 3.599979999983598e+000	 7.199979999988399e+000	 1.003485998431307e+001
0	 3.599979999983599e+000	 7.266639999985468e+000	 1.003307194014388e+001
0	 3.599979999983598e+000	 7.333299999983334e+000	 1.003142538840043e+001
0	 3.666649999985415e+000	 6.666700000016666e+000	 1.005842466791195e+001
0	 3.666649999985415e+000	 6.733360000014532e+000	 1.005541335896320e+001
0	 3.666649999985415e+000	 6.800020000011601e+000	 1.005254030327009e+001
0	 3.666649999985415e+000	 6.866680000008066e+000	 1.004980465647754e+001
0	 3.666649999985414e+000	 6.933340000004129e+000	 1.004720557423043e+001
0	 3.666649999985415e+000	 6.999999999999999e+000	 1.004474221217371e+001
0	 3.666649999985415e+000	 7.066659999995867e+000	 1.004241372595224e+001
0	 3.666649999985415e+000	 7.133319999991936e+000	 1.004021927121095e+001
0	 3.666649999985416e+000	 7.199979999988400e+000	 1.003815800359472e+001
0	 3.666649999985415e+000	 7.266639999985468e+000	 1.003622907874844e+001
0	 3.666649999985415e+000	 7.333299999983333e+000	 1.003443165231700e+001
0	 3.733319999987732e+000	 6.666700000016666e+000	 1.006238144918580e+001
0	 3.733319999987731e+000	 6.733360000014532e+000	 1.005930117300530e+001
0	 3.733319999987731e+000	 6.800020000011599e+000	 1.005635198194026e+001
0	 3.733319999987732e+000	 6.866680000008067e+000	 1.005353252415052e+001
0	 3.733319999987732e+000	 6.933340000004134e+000	 1.005084144779589e+001
0	 3.733319999987732e+000	 6.999999999999999e+000	 1.004827740103616e+001
0	 3.733319999987732e+000	 7.066659999995867e+000	 1.004583903203116e+001
0	 3.733319999987732e+000	 7.133319999991934e+000	 1.004352498894068e+001
0	 3.733319999987732e+000	 7.199979999988401e+000	 1.004133391992452e+001
0	 3.733319999987732e+000	 7.266639999985467e+000	 1.003926447314247e+001
0	 3.733319999987732e+000	 7.333299999983333e+000	 1.003731529675434e+001
0	 3.799989999990448e+000	 6.666700000016664e+000	 1.006614521462389e+001
0	 3.799989999990449e+000	 6.733360000014533e+000	 1.006300890569340e+001
0	 3.799989999990449e+000	 6.800020000011601e+000	 1.005999445880796e+001
0	 3.799989999990448e+000	 6.866680000008067e+000	 1.005710024354950e+001
0	 3.799989999990448e+000	 6.933340000004132e+000	 1.005432462949996e+001
0	 3.799989999990448e+000	 6.999999999999999e+000	 1.005166598624119e+001
0	 3.799989999990448e+000	 7.066659999995867e+000	 1.004912268335516e+001
0	 3.799989999990448e+000	 7.133319999991934e+000	 1.004669309042374e+001
0	 3.799989999990449e+000	 7.199979999988400e+000	 1.004437557702887e+001
0	 3.799989999990448e+000	 7.266639999985467e+000	 1.004216851275243e+001
0	 3.799989999990449e+000	 7.333299999983335e+000	 1.004007026717631e+001
0	 3.866659999993464e+000	 6.666700000016666e+000	 1.006971981449807e+001
0	 3.866659999993465e+000	 6.733360000014533e+000	 1.006653487030033e+001
0	 3.866659999993465e+000	 6.800020000011601e+000	 1.006346152048437e+001
0	 3.866659999993465e+000	 6.866680000008067e+000	 1.006049808496142e+001
0	 3.866659999993465e+000	 6.933340000004135e+000	 1.005764288364266e+001
0	 3.866659999993464e+000	 6.999999999999999e+000	 1.005489423643935e+001
0	 3.866659999993465e+000	 7.066659999995868e+000	 1.005225046326270e+001
0	 3.866659999993465e+000	 7.133319999991935e+000	 1.004970988402391e+001
0	 3.866659999993465e+000	 7.199979999988401e+000	 1.004727081863419e+001
0	 3.866659999993466e+000	 7.266639999985467e+000	 1.004493158700475e+001
0	 3.866659999993464e+000	 7.333299999983333e+000	 1.004269050904679e+001
0	 3.933329999996681e+000	 6.666700000016666e+000	 1.007310909908018e+001
0	 3.933329999996682e+000	 6.733360000014534e+000	 1.006987738009893e+001
0	 3.933329999996682e+000	 6.800020000011600e+000	 1.006674695358069e+001
0	 3.933329999996682e+000	 6.866680000008067e+000	 1.006371631867317e+001
0	 3.933329999996682e+000	 6.933340000004133e+000	 1.006078397452412e+001
0	 3.933329999996681e+000	 6.999999999999999e+000	 1.005794842028125e+001
0	 3.933329999996681e+000	 7.066659999995866e+000	 1.005520815509227e+001
0	 3.933329999996681e+000	 7.133319999991934e+000	 1.005256167810491e+001
0	 3.933329999996682e+000	 7.199979999988401e+000	 1.005000748846689e+001
0	 3.933329999996682e+000	 7.266639999985467e+000	 1.004754408532590e+001
0	 3.933329999996682e+000	 7.333299999983334e+000	 1.004516996782965e+001
0	 4.000000000000000e+000	 6.666700000016665e+000	 1.007631691864206e+001
0	 4.000000000000001e+000	 6.733360000014532e+000	 1.007303474836201e+001
0	 4.000000000000000e+000	 6.800020000011598e+000	 1.006984454470809e+001
0	 4.000000000000000e+000	 6.866680000008068e+000	 1.006674521497174e+001
0	 4.000000000000001e+000	 6.933340000004132e+000	 1.006373566644438e+001
0	 4.000000000000000e+000	 6.999999999999998e+000	 1.006081480641745e+001
0	 4.000000000000000e+000	 7.066659999995868e+000	 1.005798154218236e+001
0	 4.000000000000000e+000	 7.133319999991934e+000	 1.005523478103053e+001
0	 4.000000000000001e+000	 7.199979999988402e+000	 1.005257343025337e+001
0	 4.000000000000001e+000	 7.266639999985467e+000	 1.004999639714231e+001
0	 4.000000000000001e+000	 7.333299999983335e+000	 1.004750258898877e+001
0	 3.333299999983335e+000	 7.333299999983336e+000	 1.001829522866457e+001
0	 3.333299999983333e+000	 7.399969999982149e+000	 1.001726415250040e+001
0	 3.333299999983334e+000	 7.466639999981866e+000	 1.001626473172399e+001
0	 3.333299999983334e+000	 7.533309999982383e+000	 1.001529693665145e+001
0	 3.333299999983334e+000	 7.599979999983601e+000	 1.001436073759891e+001
0	 3.333299999983334e+000	 7.666649999985416e+000	 1.001345610488247e+001
0	 3.333299999983334e+000	 7.733319999987733e+000	 1.001258300881823e+001
0	 3.333299999983334e+000	 7.799989999990448e+000	 1.001174141972235e+001
0	 3.333299999983333e+000	 7.866659999993466e+000	 1.001093130791091e+001
0	 3.333299999983334e+000	 7.933329999996683e+000	 1.001015264370003e+001
0	 3.333299999983334e+000	 8.000000000000000e+000	 1.000940539740582e+001
0	 3.399969999982149e+000	 7.333299999983332e+000	 1.002173142513671e+001
0	 3.399969999982150e+000	 7.399969999982149e+000	 1.002058590297221e+001
0	 3.399969999982150e+000	 7.466639999981865e+000	 1.001946366641130e+001
0	 3.399969999982150e+000	 7.533309999982385e+000	 1.001836589602800e+001
0	 3.399969999982150e+000	 7.599979999983598e+000	 1.001729377239627e+001
0	 3.399969999982150e+000	 7.666649999985416e+000	 1.001624847609013e+001
0	 3.399969999982150e+000	 7.733319999987732e+000	 1.001523118768355e+001
0	 3.399969999982150e+000	 7.799989999990450e+000	 1.001424308775053e+001
0	 3.399969999982150e+000	 7.866659999993466e+000	 1.001328535686507e+001
0	 3.399969999982150e+000	 7.933329999996683e+000	 1.001235917560115e+001
0	 3.399969999982150e+000	 8.000000000000000e+000	 1.001146572453277e+001
0	 3.466639999981866e+000	 7.333299999983332e+000	 1.002506922027417e+001
0	 3.466639999981866e+000	 7.399969999982150e+000	 1.002379398290258e+001
0	 3.466639999981867e+000	 7.466639999981868e+000	 1.002253830244244e+001
0	 3.466639999981866e+000	 7.533309999982382e+000	 1.002130434864838e+001
0	 3.466639999981866e+000	 7.599979999983601e+000	 1.002009429127502e+001
0	 3.466639999981866e+000	 7.666649999985418e+000	 1.001891030007698e+001
0	 3.466639999981866e+000	 7.733319999987734e+000	 1.001775454480889e+001
0	 3.466639999981867e+000	 7.799989999990450e+000	 1.001662919522538e+001
0	 3.466639999981866e+000	 7.866659999993466e+000	 1.001553642108106e+001
0	 3.466639999981866e+000	 7.933329999996682e+000	 1.001447839213057e+001
0	 3.466639999981866e+000	 8.000000000000000e+000	 1.001345727812855e+001
0	 3.533309999982382e+000	 7.333299999983335e+000	 1.002830255954077e+001
0	 3.533309999982383e+000	 7.399969999982151e+000	 1.002688606072313e+001
0	 3.533309999982383e+000	 7.466639999981866e+000	 1.002548935352155e+001
0	 3.533309999982382e+000	 7.533309999982385e+000	 1.002411537579409e+001
0	 3.533309999982383e+000	 7.599979999983599e+000	 1.002276706539873e+001
0	 3.533309999982382e+000	 7.666649999985417e+000	 1.002144736019350e+001
0	 3.533309999982382e+000	 7.733319999987733e+000	 1.002015919803642e+001
0	 3.533309999982382e+000	 7.799989999990448e+000	 1.001890551678551e+001
0	 3.533309999982382e+000	 7.866659999993467e+000	 1.001768925429878e+001
0	 3.533309999982383e+000	 7.933329999996684e+000	 1.001651334843426e+001
0	 3.533309999982383e+000	 8.000000000000000e+000	 1.001538073704996e+001
0	 3.599979999983598e+000	 7.333299999983334e+000	 1.003142538840043e+001
0	 3.599979999983599e+000	 7.399969999982151e+000	 1.002985980486547e+001
0	 3.599979999983599e+000	 7.466639999981866e+000	 1.002831753335281e+001
0	 3.599979999983599e+000	 7.533309999982382e+000	 1.002680205874659e+001
0	 3.599979999983598e+000	 7.599979999983598e+000	 1.002531686593098e+001
0	 3.599979999983598e+000	 7.666649999985415e+000	 1.002386543979018e+001
0	 3.599979999983599e+000	 7.733319999987733e+000	 1.002245126520832e+001
0	 3.599979999983598e+000	 7.799989999990448e+000	 1.002107782706959e+001
0	 3.599979999983598e+000	 7.866659999993466e+000	 1.001974861025813e+001
0	 3.599979999983598e+000	 7.933329999996682e+000	 1.001846709965814e+001
0	 3.599979999983599e+000	 8.000000000000002e+000	 1.001723678015378e+001
0	 3.666649999985415e+000	 7.333299999983333e+000	 1.003443165231700e+001
0	 3.666649999985415e+000	 7.399969999982151e+000	 1.003271288376123e+001
0	 3.666649999985415e+000	 7.466639999981868e+000	 1.003102355564032e+001
0	 3.666649999985416e+000	 7.533309999982385e+000	 1.002936747878737e+001
0	 3.666649999985415e+000	 7.599979999983599e+000	 1.002774846403539e+001
0	 3.666649999985415e+000	 7.666649999985417e+000	 1.002617032221750e+001
0	 3.666649999985415e+000	 7.733319999987732e+000	 1.002463686416676e+001
0	 3.666649999985415e+000	 7.799989999990449e+000	 1.002315190071626e+001
0	 3.666649999985415e+000	 7.866659999993464e+000	 1.002171924269905e+001
0	 3.666649999985415e+000	 7.933329999996682e+000	 1.002034270094823e+001
0	 3.666649999985414e+000	 7.999999999999998e+000	 1.001902608629686e+001
0	 3.733319999987732e+000	 7.333299999983333e+000	 1.003731529675433e+001
0	 3.733319999987732e+000	 7.399969999982150e+000	 1.003544296584202e+001
0	 3.733319999987732e+000	 7.466639999981866e+000	 1.003360813408827e+001
0	 3.733319999987732e+000	 7.533309999982383e+000	 1.003181471719786e+001
0	 3.733319999987730e+000	 7.599979999983598e+000	 1.003006663087550e+001
0	 3.733319999987732e+000	 7.666649999985416e+000	 1.002836779082594e+001
0	 3.733319999987732e+000	 7.733319999987733e+000	 1.002672211275391e+001
0	 3.733319999987732e+000	 7.799989999990451e+000	 1.002513351236417e+001
0	 3.733319999987732e+000	 7.866659999993465e+000	 1.002360590536143e+001
0	 3.733319999987732e+000	 7.933329999996683e+000	 1.002214320745045e+001
0	 3.733319999987732e+000	 8.000000000000000e+000	 1.002074933433597e+001
0	 3.799989999990449e+000	 7.333299999983335e+000	 1.004007026717631e+001
0	 3.799989999990449e+000	 7.399969999982151e+000	 1.003804771953945e+001
0	 3.799989999990448e+000	 7.466639999981865e+000	 1.003607198240081e+001
0	 3.799989999990448e+000	 7.533309999982384e+000	 1.003414685525959e+001
0	 3.799989999990448e+000	 7.599979999983598e+000	 1.003227613761493e+001
0	 3.799989999990449e+000	 7.666649999985417e+000	 1.003046362896600e+001
0	 3.799989999990449e+000	 7.733319999987733e+000	 1.002871312881195e+001
0	 3.799989999990448e+000	 7.799989999990450e+000	 1.002702843665196e+001
0	 3.799989999990448e+000	 7.866659999993466e+000	 1.002541335198518e+001
0	 3.799989999990448e+000	 7.933329999996683e+000	 1.002387167431079e+001
0	 3.799989999990448e+000	 8.000000000000000e+000	 1.002240720312793e+001
0	 3.866659999993464e+000	 7.333299999983333e+000	 1.004269050904679e+001
0	 3.866659999993466e+000	 7.399969999982151e+000	 1.004052481328512e+001
0	 3.866659999993464e+000	 7.466639999981866e+000	 1.003841581428208e+001
0	 3.866659999993465e+000	 7.533309999982382e+000	 1.003636697425401e+001
0	 3.866659999993465e+000	 7.599979999983599e+000	 1.003438175541725e+001
0	 3.866659999993464e+000	 7.666649999985417e+000	 1.003246361998814e+001
0	 3.866659999993465e+000	 7.733319999987733e+000	 1.003061603018304e+001
0	 3.866659999993463e+000	 7.799989999990447e+000	 1.002884244821829e+001
0	 3.866659999993465e+000	 7.866659999993468e+000	 1.002714633631022e+001
0	 3.866659999993465e+000	 7.933329999996684e+000	 1.002553115667519e+001
0	 3.866659999993465e+000	 8.000000000000000e+000	 1.002400037152954e+001
0	 3.933329999996682e+000	 7.333299999983334e+000	 1.004516996782965e+001
0	 3.933329999996682e+000	 7.399969999982151e+000	 1.004287191551067e+001
0	 3.933329999996681e+000	 7.466639999981865e+000	 1.004064034343621e+001
0	 3.933329999996681e+000	 7.533309999982382e+000	 1.003847815546259e+001
0	 3.933329999996681e+000	 7.599979999983600e+000	 1.003638825544605e+001
0	 3.933329999996682e+000	 7.666649999985415e+000	 1.003437354724289e+001
0	 3.933329999996681e+000	 7.733319999987733e+000	 1.003243693470938e+001
0	 3.933329999996682e+000	 7.799989999990451e+000	 1.003058132170182e+001
0	 3.933329999996682e+000	 7.866659999993467e+000	 1.002880961207646e+001
0	 3.933329999996682e+000	 7.933329999996685e+000	 1.002712470968963e+001
0	 3.933329999996681e+000	 7.999999999999999e+000	 1.002552951839759e+001
0	 4.000000000000001e+000	 7.333299999983335e+000	 1.004750258898877e+001
0	 4.000000000000001e+000	 7.399969999982151e+000	 1.004508669464772e+001
0	 4.000000000000000e+000	 7.466639999981866e+000	 1.004274628356741e+001
0	 4.000000000000000e+000	 7.533309999982384e+000	 1.004048348016682e+001
0	 4.000000000000000e+000	 7.599979999983599e+000	 1.003830040886492e+001
0	 4.000000000000001e+000	 7.666649999985416e+000	 1.003619919408068e+001
0	 4.000000000000000e+000	 7.733319999987733e+000	 1.003418196023312e+001
0	 4.000000000000000e+000	 7.799989999990448e+000	 1.003225083174116e+001
0	 4.000000000000000e+000	 7.866659999993465e+000	 1.003040793302383e+001
0	 4.000000000000000e+000	 7.933329999996684e+000	 1.002865538850009e+001
0	 4.000000000000000e+000	 7.999999999999999e+000	 1.002699532258890e+001
0	 3.333299999983334e+000	 8.000000000000000e+000	 1.000940539740582e+001
0	 3.333299999983334e+000	 8.066670000003317e+000	 1.000869065253801e+001
0	 3.333299999983334e+000	 8.133340000006532e+000	 1.000801085235858e+001
0	 3.333299999983334e+000	 8.200010000009550e+000	 1.000736800681200e+001
0	 3.333299999983334e+000	 8.266680000012267e+000	 1.000676412584281e+001
0	 3.333299999983334e+000	 8.333350000014585e+000	 1.000620121939547e+001
0	 3.333299999983334e+000	 8.400020000016399e+000	 1.000568129741452e+001
0	 3.333299999983334e+000	 8.466690000017618e+000	 1.000520636984447e+001
0	 3.333299999983333e+000	 8.533360000018133e+000	 1.000477844662981e+001
0	 3.333299999983335e+000	 8.600030000017851e+000	 1.000439953771505e+001
0	 3.333299999983334e+000	 8.666700000016668e+000	 1.000407165304472e+001
0	 3.399969999982150e+000	 8.000000000000000e+000	 1.001146572453277e+001
0	 3.399969999982150e+000	 8.066670000003317e+000	 1.001061166244361e+001
0	 3.399969999982149e+000	 8.133340000006530e+000	 1.000980343942703e+001
0	 3.399969999982150e+000	 8.200010000009549e+000	 1.000904192302165e+001
0	 3.399969999982150e+000	 8.266680000012268e+000	 1.000832798076599e+001
0	 3.399969999982151e+000	 8.333350000014583e+000	 1.000766248019867e+001
0	 3.399969999982150e+000	 8.400020000016401e+000	 1.000704628885824e+001
0	 3.399969999982150e+000	 8.466690000017614e+000	 1.000648027428330e+001
0	 3.399969999982150e+000	 8.533360000018133e+000	 1.000596530401241e+001
0	 3.399969999982150e+000	 8.600030000017851e+000	 1.000550224558414e+001
0	 3.399969999982149e+000	 8.666700000016666e+000	 1.000509196653707e+001
0	 3.466639999981866e+000	 8.000000000000000e+000	 1.001345727812855e+001
0	 3.466639999981865e+000	 8.066670000003317e+000	 1.001248205329707e+001
0	 3.466639999981866e+000	 8.133340000006532e+000	 1.001156018006949e+001
0	 3.466639999981867e+000	 8.200010000009552e+000	 1.001069156051739e+001
0	 3.466639999981866e+000	 8.266680000012265e+000	 1.000987609671226e+001
0	 3.466639999981866e+000	 8.333350000014583e+000	 1.000911369072566e+001
0	 3.466639999981866e+000	 8.400020000016401e+000	 1.000840424462912e+001
0	 3.466639999981866e+000	 8.466690000017620e+000	 1.000774766049418e+001
0	 3.466639999981867e+000	 8.533360000018135e+000	 1.000714384039238e+001
0	 3.466639999981866e+000	 8.600030000017849e+000	 1.000659268639528e+001
0	 3.466639999981866e+000	 8.666700000016668e+000	 1.000609410057438e+001
0	 3.533309999982383e+000	 8.000000000000000e+000	 1.001538073704996e+001
0	 3.533309999982383e+000	 8.066670000003315e+000	 1.001430001332769e+001
0	 3.533309999982382e+000	 8.133340000006530e+000	 1.001327722090623e+001
0	 3.533309999982382e+000	 8.200010000009549e+000	 1.001231147332894e+001
0	 3.533309999982382e+000	 8.266680000012267e+000	 1.001140188413922e+001
0	 3.533309999982382e+000	 8.333350000014583e+000	 1.001054756688046e+001
0	 3.533309999982383e+000	 8.400020000016401e+000	 1.000974763509607e+001
0	 3.533309999982382e+000	 8.466690000017616e+000	 1.000900120232945e+001
0	 3.533309999982383e+000	 8.533360000018137e+000	 1.000830738212397e+001
0	 3.533309999982382e+000	 8.600030000017851e+000	 1.000766528802303e+001
0	 3.533309999982382e+000	 8.666700000016668e+000	 1.000707403357006e+001
0	 3.599979999983599e+000	 8.000000000000002e+000	 1.001723678015378e+001
0	 3.599979999983598e+000	 8.066670000003315e+000	 1.001606373076476e+001
0	 3.599979999983598e+000	 8.133340000006532e+000	 1.001495070855744e+001
0	 3.599979999983599e+000	 8.200010000009552e+000	 1.001389621548598e+001
0	 3.599979999983598e+000	 8.266680000012265e+000	 1.001289875350448e+001
0	 3.599979999983599e+000	 8.333350000014587e+000	 1.001195682456714e+001
0	 3.599979999983598e+000	 8.400020000016399e+000	 1.001106893062807e+001
0	 3.599979999983598e+000	 8.466690000017612e+000	 1.001023357364142e+001
0	 3.599979999983598e+000	 8.533360000018135e+000	 1.000944925556135e+001
0	 3.599979999983599e+000	 8.600030000017851e+000	 1.000871447834198e+001
0	 3.599979999983599e+000	 8.666700000016666e+000	 1.000802774393751e+001
0	 3.666649999985414e+000	 7.999999999999998e+000	 1.001902608629686e+001
0	 3.666649999985415e+000	 8.066670000003315e+000	 1.001777139383755e+001
0	 3.666649999985415e+000	 8.133340000006536e+000	 1.001657678964340e+001
0	 3.666649999985416e+000	 8.200010000009552e+000	 1.001544034101818e+001
0	 3.666649999985415e+000	 8.266680000012270e+000	 1.001436011526569e+001
0	 3.666649999985415e+000	 8.333350000014583e+000	 1.001333417968970e+001
0	 3.666649999985416e+000	 8.400020000016403e+000	 1.001236060159402e+001
0	 3.666649999985416e+000	 8.466690000017618e+000	 1.001143744828243e+001
0	 3.666649999985415e+000	 8.533360000018135e+000	 1.001056278705872e+001
0	 3.666649999985416e+000	 8.600030000017851e+000	 1.000973468522669e+001
0	 3.666649999985415e+000	 8.666700000016665e+000	 1.000895121009014e+001
0	 3.733319999987732e+000	 8.000000000000000e+000	 1.002074933433597e+001
0	 3.733319999987732e+000	 8.066670000003317e+000	 1.001942119077535e+001
0	 3.733319999987732e+000	 8.133340000006532e+000	 1.001815161078435e+001
0	 3.733319999987732e+000	 8.200010000009552e+000	 1.001693840395526e+001
0	 3.733319999987732e+000	 8.266680000012267e+000	 1.001577937988044e+001
0	 3.733319999987732e+000	 8.333350000014585e+000	 1.001467234815219e+001
0	 3.733319999987732e+000	 8.400020000016401e+000	 1.001361511836288e+001
0	 3.733319999987732e+000	 8.466690000017616e+000	 1.001260550010481e+001
0	 3.733319999987732e+000	 8.533360000018131e+000	 1.001164130297031e+001
0	 3.733319999987732e+000	 8.600030000017851e+000	 1.001072033655174e+001
0	 3.733319999987732e+000	 8.666700000016668e+000	 1.000984041044139e+001
0	 3.799989999990448e+000	 8.000000000000000e+000	 1.002240720312793e+001
0	 3.799989999990449e+000	 8.066670000003317e+000	 1.002101130980744e+001
0	 3.799989999990449e+000	 8.133340000006534e+000	 1.001967131860049e+001
0	 3.799989999990448e+000	 8.200010000009552e+000	 1.001838495832690e+001
0	 3.799989999990448e+000	 8.266680000012267e+000	 1.001714995780636e+001
0	 3.799989999990449e+000	 8.333350000014585e+000	 1.001596404585868e+001
0	 3.799989999990448e+000	 8.400020000016401e+000	 1.001482495130361e+001
0	 3.799989999990448e+000	 8.466690000017616e+000	 1.001373040296090e+001
0	 3.799989999990449e+000	 8.533360000018135e+000	 1.001267812965032e+001
0	 3.799989999990448e+000	 8.600030000017849e+000	 1.001166586019165e+001
0	 3.799989999990448e+000	 8.666700000016668e+000	 1.001069132340463e+001
0	 3.866659999993465e+000	 8.000000000000000e+000	 1.002400037152954e+001
0	 3.866659999993464e+000	 8.066670000003315e+000	 1.002253993916308e+001
0	 3.866659999993464e+000	 8.133340000006532e+000	 1.002113205971213e+001
0	 3.866659999993464e+000	 8.200010000009550e+000	 1.001977455816278e+001
0	 3.866659999993465e+000	 8.266680000012268e+000	 1.001846525950108e+001
0	 3.866659999993465e+000	 8.333350000014585e+000	 1.001720198871318e+001
0	 3.866659999993466e+000	 8.400020000016401e+000	 1.001598257078512e+001
0	 3.866659999993464e+000	 8.466690000017618e+000	 1.001480483070302e+001
0	 3.866659999993465e+000	 8.533360000018133e+000	 1.001366659345296e+001
0	 3.866659999993464e+000	 8.600030000017849e+000	 1.001256568402102e+001
0	 3.866659999993465e+000	 8.666700000016666e+000	 1.001149992739330e+001
0	 3.933329999996681e+000	 7.999999999999999e+000	 1.002552951839759e+001
0	 3.933329999996682e+000	 8.066670000003317e+000	 1.002400526707156e+001
0	 3.933329999996681e+000	 8.133340000006532e+000	 1.002252998073947e+001
0	 3.933329999996682e+000	 8.200010000009550e+000	 1.002110175749258e+001
0	 3.933329999996682e+000	 8.266680000012268e+000	 1.001971869542223e+001
0	 3.933329999996682e+000	 8.333350000014585e+000	 1.001837889261973e+001
0	 3.933329999996681e+000	 8.400020000016399e+000	 1.001708044717639e+001
0	 3.933329999996682e+000	 8.466690000017616e+000	 1.001582145718353e+001
0	 3.933329999996681e+000	 8.533360000018133e+000	 1.001460002073242e+001
0	 3.933329999996681e+000	 8.600030000017847e+000	 1.001341423591441e+001
0	 3.933329999996682e+000	 8.666700000016666e+000	 1.001226220082083e+001
0	 4.000000000000000e+000	 7.999999999999999e+000	 1.002699532258890e+001
0	 4.000000000000001e+000	 8.066670000003319e+000	 1.002540548176219e+001
0	 4.000000000000001e+000	 8.133340000006536e+000	 1.002386122830275e+001
0	 4.000000000000002e+000	 8.200010000009552e+000	 1.002236111034601e+001
0	 4.000000000000000e+000	 8.266680000012267e+000	 1.002090367602743e+001
0	 4.000000000000000e+000	 8.333350000014585e+000	 1.001948747348240e+001
0	 4.000000000000000e+000	 8.400020000016399e+000	 1.001811105084636e+001
0	 4.000000000000000e+000	 8.466690000017618e+000	 1.001677295625472e+001
0	 4.000000000000001e+000	 8.533360000018135e+000	 1.001547173784292e+001
0	 4.000000000000000e+000	 8.600030000017847e+000	 1.001420594374640e+001
0	 4.000000000000000e+000	 8.666700000016666e+000	 1.001297412210058e+001
0	 3.333299999983334e+000	 8.666700000016668e+000	 1.000407165304471e+001
0	 3.333299999983334e+000	 8.733360002791903e+000	 1.000377372871135e+001
0	 3.333299999983334e+000	 8.800020022230553e+000	 1.000348247868223e+001
0	 3.333299999983334e+000	 8.866680074997039e+000	 1.000319671545877e+001
0	 3.333299999983334e+000	 8.933340177755779e+000	 1.000291525152313e+001
0	 3.333299999983333e+000	 9.000000347171181e+000	 1.000263689933822e+001
0	 3.333299999983334e+000	 9.066660599907667e+000	 1.000236047134762e+001
0	 3.333299999983335e+000	 9.133320952629656e+000	 1.000208477997564e+001
0	 3.333299999983333e+000	 9.199981422001558e+000	 1.000180863762734e+001
0	 3.333299999983334e+000	 9.266642024687796e+000	 1.000153085668839e+001
0	 3.333299999983334e+000	 9.333302777352785e+000	 1.000125024952527e+001
0	 3.399969999982149e+000	 8.666700000016666e+000	 1.000509196653707e+001
0	 3.399969999982150e+000	 8.733360002791905e+000	 1.000471171301409e+001
0	 3.399969999982150e+000	 8.800020022230555e+000	 1.000433766941036e+001
0	 3.399969999982150e+000	 8.866680074997044e+000	 1.000396928323207e+001
0	 3.399969999982150e+000	 8.933340177755776e+000	 1.000360600195572e+001
0	 3.399969999982150e+000	 9.000000347171181e+000	 1.000324727302818e+001
0	 3.399969999982150e+000	 9.066660599907669e+000	 1.000289254386661e+001
0	 3.399969999982150e+000	 9.133320952629656e+000	 1.000254126185850e+001
0	 3.399969999982150e+000	 9.199981422001562e+000	 1.000219287436166e+001
0	 3.399969999982150e+000	 9.266642024687798e+000	 1.000184682870419e+001
0	 3.399969999982149e+000	 9.333302777352783e+000	 1.000150257218448e+001
0	 3.466639999981866e+000	 8.666700000016668e+000	 1.000609410057438e+001
0	 3.466639999981866e+000	 8.733360002791901e+000	 1.000562577268820e+001
0	 3.466639999981866e+000	 8.800020022230555e+000	 1.000516527663771e+001
0	 3.466639999981866e+000	 8.866680074997040e+000	 1.000471255321650e+001
0	 3.466639999981866e+000	 8.933340177755781e+000	 1.000426754317606e+001
0	 3.466639999981866e+000	 9.000000347171181e+000	 1.000383018722583e+001
0	 3.466639999981866e+000	 9.066660599907669e+000	 1.000340042603312e+001
0	 3.466639999981866e+000	 9.133320952629655e+000	 1.000297820022317e+001
0	 3.466639999981866e+000	 9.199981422001557e+000	 1.000256345037919e+001
0	 3.466639999981867e+000	 9.266642024687799e+000	 1.000215611704217e+001
0	 3.466639999981866e+000	 9.333302777352783e+000	 1.000175614071108e+001
0	 3.533309999982382e+000	 8.666700000016668e+000	 1.000707403357006e+001
0	 3.533309999982382e+000	 8.733360002791901e+000	 1.000651350646840e+001
0	 3.533309999982382e+000	 8.800020022230557e+000	 1.000596421049860e+001
0	 3.533309999982382e+000	 8.866680074997042e+000	 1.000542643802366e+001
0	 3.533309999982382e+000	 8.933340177755778e+000	 1.000490048135048e+001
0	 3.533309999982383e+000	 9.000000347171184e+000	 1.000438663272996e+001
0	 3.533309999982382e+000	 9.066660599907669e+000	 1.000388518435698e+001
0	 3.533309999982383e+000	 9.133320952629658e+000	 1.000339642837030e+001
0	 3.533309999982383e+000	 9.199981422001558e+000	 1.000292065685273e+001
0	 3.533309999982382e+000	 9.266642024687796e+000	 1.000245816183095e+001
0	 3.533309999982382e+000	 9.333302777352783e+000	 1.000200923527559e+001
0	 3.599979999983599e+000	 8.666700000016666e+000	 1.000802774393751e+001
0	 3.599979999983598e+000	 8.733360002791899e+000	 1.000737251308941e+001
0	 3.599979999983599e+000	 8.800020022230555e+000	 1.000673338112737e+001
0	 3.599979999983599e+000	 8.866680074997042e+000	 1.000611085026512e+001
0	 3.599979999983599e+000	 8.933340177755779e+000	 1.000550542264527e+001
0	 3.599979999983599e+000	 9.000000347171184e+000	 1.000491760033943e+001
0	 3.599979999983599e+000	 9.066660599907666e+000	 1.000434788534805e+001
0	 3.599979999983599e+000	 9.133320952629655e+000	 1.000379677960054e+001
0	 3.599979999983598e+000	 9.199981422001558e+000	 1.000326478495516e+001
0	 3.599979999983598e+000	 9.266642024687796e+000	 1.000275240319912e+001
0	 3.599979999983598e+000	 9.333302777352783e+000	 1.000226013604853e+001
0	 3.666649999985415e+000	 8.666700000016665e+000	 1.000895121009015e+001
0	 3.666649999985415e+000	 8.733360002791903e+000	 1.000820039128598e+001
0	 3.666649999985415e+000	 8.800020022230557e+000	 1.000747169865835e+001
0	 3.666649999985415e+000	 8.866680074997044e+000	 1.000676570255246e+001
0	 3.666649999985415e+000	 8.933340177755778e+000	 1.000608297322681e+001
0	 3.666649999985416e+000	 9.000000347171184e+000	 1.000542408085307e+001
0	 3.666649999985416e+000	 9.066660599907667e+000	 1.000478959551621e+001
0	 3.666649999985416e+000	 9.133320952629656e+000	 1.000418008721447e+001
0	 3.666649999985415e+000	 9.199981422001560e+000	 1.000359612585926e+001
0	 3.666649999985415e+000	 9.266642024687796e+000	 1.000303828127528e+001
0	 3.666649999985415e+000	 9.333302777352781e+000	 1.000250712320045e+001
0	 3.733319999987732e+000	 8.666700000016668e+000	 1.000984041044139e+001
0	 3.733319999987732e+000	 8.733360002791905e+000	 1.000899473979282e+001
0	 3.733319999987732e+000	 8.800020022230555e+000	 1.000817807322586e+001
0	 3.733319999987731e+000	 8.866680074997040e+000	 1.000739090749732e+001
0	 3.733319999987732e+000	 8.933340177755778e+000	 1.000663373926139e+001
0	 3.733319999987732e+000	 9.000000347171183e+000	 1.000590706506971e+001
0	 3.733319999987732e+000	 9.066660599907669e+000	 1.000521138137134e+001
0	 3.733319999987732e+000	 9.133320952629656e+000	 1.000454718451278e+001
0	 3.733319999987732e+000	 9.199981422001560e+000	 1.000391497073790e+001
0	 3.733319999987733e+000	 9.266642024687796e+000	 1.000331523618803e+001
0	 3.733319999987732e+000	 9.333302777352783e+000	 1.000274847690186e+001
0	 3.799989999990448e+000	 8.666700000016668e+000	 1.001069132340463e+001
0	 3.799989999990448e+000	 8.733360002791905e+000	 1.000975315734467e+001
0	 3.799989999990448e+000	 8.800020022230555e+000	 1.000885141496426e+001
0	 3.799989999990448e+000	 8.866680074997042e+000	 1.000798637771125e+001
0	 3.799989999990448e+000	 8.933340177755779e+000	 1.000715832691535e+001
0	 3.799989999990449e+000	 9.000000347171179e+000	 1.000636754378818e+001
0	 3.799989999990449e+000	 9.066660599907667e+000	 1.000561430942328e+001
0	 3.799989999990449e+000	 9.133320952629658e+000	 1.000489890479609e+001
0	 3.799989999990447e+000	 9.199981422001557e+000	 1.000422161076390e+001
0	 3.799989999990448e+000	 9.266642024687798e+000	 1.000358270806595e+001
0	 3.799989999990448e+000	 9.333302777352783e+000	 1.000298247732333e+001
0	 3.866659999993465e+000	 8.666700000016666e+000	 1.001149992739330e+001
0	 3.866659999993465e+000	 8.733360002791903e+000	 1.001047324267625e+001
0	 3.866659999993464e+000	 8.800020022230553e+000	 1.000949063400786e+001
0	 3.866659999993465e+000	 8.866680074997040e+000	 1.000855202580584e+001
0	 3.866659999993465e+000	 8.933340177755778e+000	 1.000765734235501e+001
0	 3.866659999993465e+000	 9.000000347171183e+000	 1.000680650780732e+001
0	 3.866659999993465e+000	 9.066660599907669e+000	 1.000599944618191e+001
0	 3.866659999993465e+000	 9.133320952629658e+000	 1.000523608136503e+001
0	 3.866659999993465e+000	 9.199981422001558e+000	 1.000451633711011e+001
0	 3.866659999993464e+000	 9.266642024687796e+000	 1.000384013703768e+001
0	 3.866659999993464e+000	 9.333302777352783e+000	 1.000320740463539e+001
0	 3.933329999996682e+000	 8.666700000016666e+000	 1.001226220082083e+001
0	 3.933329999996681e+000	 8.733360002791899e+000	 1.001115259452227e+001
0	 3.933329999996682e+000	 8.800020022230557e+000	 1.001009464049100e+001
0	 3.933329999996682e+000	 8.866680074997040e+000	 1.000908776439270e+001
0	 3.933329999996682e+000	 8.933340177755776e+000	 1.000813139174667e+001
0	 3.933329999996681e+000	 9.000000347171183e+000	 1.000722494792594e+001
0	 3.933329999996681e+000	 9.066660599907669e+000	 1.000636785815706e+001
0	 3.933329999996682e+000	 9.133320952629655e+000	 1.000555954752026e+001
0	 3.933329999996681e+000	 9.199981422001555e+000	 1.000479944094935e+001
0	 3.933329999996682e+000	 9.266642024687799e+000	 1.000408696323177e+001
0	 3.933329999996682e+000	 9.333302777352781e+000	 1.000342153900856e+001
0	 4.000000000000000e+000	 8.666700000016666e+000	 1.001297412210058e+001
0	 4.000000000000000e+000	 8.733360002791901e+000	 1.001178881161752e+001
0	 4.000000000000000e+000	 8.800020022230555e+000	 1.001066234454802e+001
0	 4.000000000000000e+000	 8.866680074997040e+000	 1.000959350608339e+001
0	 4.000000000000000e+000	 8.933340177755778e+000	 1.000858108125672e+001
0	 4.000000000000001e+000	 9.000000347171181e+000	 1.000762385494291e+001
0	 4.000000000000000e+000	 9.066660599907667e+000	 1.000672061185866e+001
0	 4.000000000000001e+000	 9.133320952629656e+000	 1.000587013656241e+001
0	 4.000000000000001e+000	 9.199981422001560e+000	 1.000507121345446e+001
0	 4.000000000000001e+000	 9.266642024687796e+000	 1.000432262677686e+001
0	 4.000000000000000e+000	 9.333302777352783e+000	 1.000362316061339e+001
0	 3.333299999983334e+000	 9.333302777352785e+000	 1.000125024952527e+001
0	 3.333299999983334e+000	 9.399973674588177e+000	 1.000098691832135e+001
0	 3.333299999983334e+000	 9.466644621844619e+000	 1.000076074696959e+001
0	 3.333299999983334e+000	 9.533315502450002e+000	 1.000057009372448e+001
0	 3.333299999983333e+000	 9.599986199732197e+000	 1.000041331742486e+001
0	 3.333299999983334e+000	 9.666656597019093e+000	 1.000028877749352e+001
0	 3.333299999983334e+000	 9.733326577638577e+000	 1.000019483393709e+001
0	 3.333299999983334e+000	 9.799996024918524e+000	 1.000012984734565e+001
0	 3.333299999983334e+000	 9.866664822186822e+000	 1.000009217889264e+001
0	 3.333299999983333e+000	 9.933332852771354e+000	 1.000008019033460e+001
0	 3.333299999983334e+000	 1.000000000000000e+001	 1.000009224401105e+001
0	 3.399969999982149e+000	 9.333302777352783e+000	 1.000150257218448e+001
0	 3.399969999982150e+000	 9.399973674588175e+000	 1.000118339449082e+001
0	 3.399969999982151e+000	 9.466644621844623e+000	 1.000091106522376e+001
0	 3.399969999982150e+000	 9.533315502449995e+000	 1.000068259745522e+001
0	 3.399969999982150e+000	 9.599986199732198e+000	 1.000049500497485e+001
0	 3.399969999982150e+000	 9.666656597019093e+000	 1.000034530228986e+001
0	 3.399969999982149e+000	 9.733326577638572e+000	 1.000023050462472e+001
0	 3.399969999982150e+000	 9.799996024918524e+000	 1.000014762792093e+001
0	 3.399969999982150e+000	 9.866664822186822e+000	 1.000009368883691e+001
0	 3.399969999982150e+000	 9.933332852771354e+000	 1.000006570474770e+001
0	 3.399969999982150e+000	 1.000000000000000e+001	 1.000006069374493e+001
0	 3.466639999981866e+000	 9.333302777352783e+000	 1.000175614071108e+001
0	 3.466639999981866e+000	 9.399973674588175e+000	 1.000138829232217e+001
0	 3.466639999981866e+000	 9.466644621844619e+000	 1.000107475452282e+001
0	 3.466639999981866e+000	 9.533315502449998e+000	 1.000081140760977e+001
0	 3.466639999981866e+000	 9.599986199732197e+000	 1.000059413271107e+001
0	 3.466639999981866e+000	 9.666656597019095e+000	 1.000041881178571e+001
0	 3.466639999981866e+000	 9.733326577638575e+000	 1.000028132762353e+001
0	 3.466639999981866e+000	 9.799996024918523e+000	 1.000017756384484e+001
0	 3.466639999981866e+000	 9.866664822186820e+000	 1.000010340490032e+001
0	 3.466639999981866e+000	 9.933332852771354e+000	 1.000005473607098e+001
0	 3.466639999981865e+000	 1.000000000000000e+001	 1.000002744346773e+001
0	 3.533309999982382e+000	 9.333302777352783e+000	 1.000200923527559e+001
0	 3.533309999982383e+000	 9.399973674588178e+000	 1.000159873186237e+001
0	 3.533309999982383e+000	 9.466644621844623e+000	 1.000124808376053e+001
0	 3.533309999982381e+000	 9.533315502450002e+000	 1.000095225089494e+001
0	 3.533309999982383e+000	 9.599986199732197e+000	 1.000070619411837e+001
0	 3.533309999982382e+000	 9.666656597019092e+000	 1.000050487521124e+001
0	 3.533309999982382e+000	 9.733326577638573e+000	 1.000034325688150e+001
0	 3.533309999982382e+000	 9.799996024918524e+000	 1.000021630276433e+001
0	 3.533309999982382e+000	 9.866664822186825e+000	 1.000011897742200e+001
0	 3.533309999982383e+000	 9.933332852771352e+000	 1.000004624634381e+001
0	 3.533309999982383e+000	 1.000000000000000e+001	 9.999993075945751e+000
0	 3.599979999983598e+000	 9.333302777352783e+000	 1.000226013604853e+001
0	 3.599979999983598e+000	 9.399973674588177e+000	 1.000181183315821e+001
0	 3.599979999983599e+000	 9.466644621844619e+000	 1.000142732183064e+001
0	 3.599979999983599e+000	 9.533315502450003e+000	 1.000110085401751e+001
0	 3.599979999983598e+000	 9.599986199732195e+000	 1.000082668268163e+001
0	 3.599979999983598e+000	 9.666656597019093e+000	 1.000059906179656e+001
0	 3.599979999983598e+000	 9.733326577638575e+000	 1.000041224634661e+001
0	 3.599979999983599e+000	 9.799996024918526e+000	 1.000026049232645e+001
0	 3.599979999983600e+000	 9.866664822186822e+000	 1.000013805674110e+001
0	 3.599979999983598e+000	 9.933332852771352e+000	 1.000003919760559e+001
0	 3.599979999983598e+000	 1.000000000000000e+001	 9.999958173945233e+000
0	 3.666649999985415e+000	 9.333302777352781e+000	 1.000250712320045e+001
0	 3.666649999985415e+000	 9.399973674588177e+000	 1.000202471625665e+001
0	 3.666649999985416e+000	 9.466644621844621e+000	 1.000160873762691e+001
0	 3.666649999985416e+000	 9.533315502450002e+000	 1.000125294368425e+001
0	 3.666649999985415e+000	 9.599986199732197e+000	 1.000095109188568e+001
0	 3.666649999985414e+000	 9.666656597019092e+000	 1.000069694077183e+001
0	 3.666649999985415e+000	 9.733326577638577e+000	 1.000048424996686e+001
0	 3.666649999985415e+000	 9.799996024918523e+000	 1.000030678017827e+001
0	 3.666649999985415e+000	 9.866664822186824e+000	 1.000015829319664e+001
0	 3.666649999985415e+000	 9.933332852771354e+000	 1.000003255189579e+001
0	 3.666649999985415e+000	 9.999999999999998e+000	 9.999923320232272e+000
0	 3.733319999987732e+000	 9.333302777352783e+000	 1.000274847690186e+001
0	 3.733319999987732e+000	 9.399973674588175e+000	 1.000223450120453e+001
0	 3.733319999987732e+000	 9.466644621844621e+000	 1.000178860004305e+001
0	 3.733319999987732e+000	 9.533315502450002e+000	 1.000140424660194e+001
0	 3.733319999987731e+000	 9.599986199732195e+000	 1.000107491521544e+001
0	 3.733319999987732e+000	 9.666656597019093e+000	 1.000079408136718e+001
0	 3.733319999987732e+000	 9.733326577638577e+000	 1.000055522169023e+001
0	 3.733319999987732e+000	 9.799996024918524e+000	 1.000035181396674e+001
0	 3.733319999987731e+000	 9.866664822186820e+000	 1.000017733712794e+001
0	 3.733319999987732e+000	 9.933332852771356e+000	 1.000002527125372e+001
0	 3.733319999987732e+000	 1.000000000000000e+001	 9.999889097573194e+000
0	 3.799989999990448e+000	 9.333302777352783e+000	 1.000298247732333e+001
0	 3.799989999990449e+000	 9.399973674588177e+000	 1.000243830804874e+001
0	 3.799989999990447e+000	 9.466644621844621e+000	 1.000196317797289e+001
0	 3.799989999990449e+000	 9.533315502450000e+000	 1.000155048947739e+001
0	 3.799989999990448e+000	 9.599986199732197e+000	 1.000119364615571e+001
0	 3.799989999990449e+000	 9.666656597019095e+000	 1.000088605281275e+001
0	 3.799989999990448e+000	 9.733326577638575e+000	 1.000062111546473e+001
0	 3.799989999990448e+000	 9.799996024918524e+000	 1.000039224133895e+001
0	 3.799989999990447e+000	 9.866664822186824e+000	 1.000019283887396e+001
0	 3.799989999990449e+000	 9.933332852771352e+000	 1.000001631771893e+001
0	 3.799989999990448e+000	 1.000000000000000e+001	 9.999856088734280e+000
0	 3.866659999993464e+000	 9.333302777352783e+000	 1.000320740463539e+001
0	 3.866659999993465e+000	 9.399973674588177e+000	 1.000263325683620e+001
0	 3.866659999993464e+000	 9.466644621844621e+000	 1.000212874031009e+001
0	 3.866659999993465e+000	 9.533315502450002e+000	 1.000168739901734e+001
0	 3.866659999993466e+000	 9.599986199732198e+000	 1.000130277819143e+001
0	 3.866659999993465e+000	 9.666656597019095e+000	 1.000096842433872e+001
0	 3.866659999993465e+000	 9.733326577638577e+000	 1.000067788523832e+001
0	 3.866659999993465e+000	 9.799996024918524e+000	 1.000042470994196e+001
0	 3.866659999993466e+000	 9.866664822186824e+000	 1.000020244877387e+001
0	 3.866659999993464e+000	 9.933332852771352e+000	 1.000000465333071e+001
0	 3.866659999993465e+000	 1.000000000000000e+001	 9.999824876481583e+000
0	 3.933329999996682e+000	 9.333302777352781e+000	 1.000342153900856e+001
0	 3.933329999996682e+000	 9.399973674588177e+000	 1.000281646761374e+001
0	 3.933329999996682e+000	 9.466644621844619e+000	 1.000228155594844e+001
0	 3.933329999996682e+000	 9.533315502450000e+000	 1.000181070192861e+001
0	 3.933329999996681e+000	 9.599986199732197e+000	 1.000139780480743e+001
0	 3.933329999996682e+000	 9.666656597019093e+000	 1.000103676517518e+001
0	 3.933329999996681e+000	 9.733326577638575e+000	 1.000072148495896e+001
0	 3.933329999996681e+000	 9.799996024918524e+000	 1.000044586742273e+001
0	 3.933329999996682e+000	 9.866664822186824e+000	 1.000020381716686e+001
0	 3.933329999996682e+000	 9.933332852771352e+000	 9.999989240128576e+000
0	 3.933329999996682e+000	 1.000000000000000e+001	 9.999796043581462e+000
0	 4.000000000000000e+000	 9.333302777352783e+000	 1.000362316061339e+001
0	 4.000000000000001e+000	 9.399973674588178e+000	 1.000298506042828e+001
0	 4.000000000000001e+000	 9.466644621844623e+000	 1.000241789378169e+001
0	 4.000000000000000e+000	 9.533315502450000e+000	 1.000191612491792e+001
0	 4.000000000000000e+000	 9.599986199732195e+000	 1.000147421948856e+001
0	 4.000000000000000e+000	 9.666656597019095e+000	 1.000108664455231e+001
0	 4.000000000000001e+000	 9.733326577638577e+000	 1.000074786857474e+001
0	 3.999999999999999e+000	 9.799996024918523e+000	 1.000045236142828e+001
0	 4.000000000000000e+000	 9.866664822186824e+000	 1.000019459439205e+001
0	 4.000000000000000e+000	 9.933332852771352e+000	 9.999969040151813e+000
0	 4.000000000000000e+000	 1.000000000000000e+001	 9.999770172800075e+000
0	 4.000000000000000e+000	 0.000000000000000e+000	 1.032546697470673e+001
0	 4.000000000000001e+000	 6.666714722864757e-002	 1.037082292724806e+001
0	 4.000000000000001e+000	 1.333351778131790e-001	 1.040899557296197e+001
0	 4.000000000000000e+000	 2.000039750814772e-001	 1.044091392345884e+001
0	 4.000000000000001e+000	 2.666734223614255e-001	 1.046750699779678e+001
0	 3.999999999999999e+000	 3.333434029809068e-001	 1.048970382248376e+001
0	 4.000000000000000e+000	 4.000138002678045e-001	 1.050843343148010e+001
0	 4.000000000000000e+000	 4.666844975500011e-001	 1.052462486620106e+001
0	 4.000000000000000e+000	 5.333553781553803e-001	 1.053920717551960e+001
0	 4.000000000000001e+000	 6.000263254118247e-001	 1.055310941576943e+001
0	 4.000000000000000e+000	 6.666972226472175e-001	 1.056726065074821e+001
0	 4.066670000003317e+000	 0.000000000000000e+000	 1.025024976113378e+001
0	 4.066670000003317e+000	 6.666714722864756e-002	 1.029537373766503e+001
0	 4.066670000003317e+000	 1.333351778131789e-001	 1.033532190754433e+001
0	 4.066670000003317e+000	 2.000039750814773e-001	 1.037066009849177e+001
0	 4.066670000003317e+000	 2.666734223614256e-001	 1.040195413541389e+001
0	 4.066670000003317e+000	 3.333434029809069e-001	 1.042976984040777e+001
0	 4.066670000003318e+000	 4.000138002678044e-001	 1.045467303276479e+001
0	 4.066670000003316e+000	 4.666844975500010e-001	 1.047722952897456e+001
0	 4.066670000003317e+000	 5.333553781553803e-001	 1.049800514272858e+001
0	 4.066670000003318e+000	 6.000263254118246e-001	 1.051756568492396e+001
0	 4.066670000003317e+000	 6.666972226472177e-001	 1.053647696366699e+001
0	 4.133340000006534e+000	 0.000000000000000e+000	 1.020675232862513e+001
0	 4.133340000006533e+000	 6.666714722864754e-002	 1.024799592966904e+001
0	 4.133340000006533e+000	 1.333351778131789e-001	 1.028601365362988e+001
0	 4.133340000006534e+000	 2.000039750814772e-001	 1.032106147055569e+001
0	 4.133340000006534e+000	 2.666734223614255e-001	 1.035339534152574e+001
0	 4.133340000006532e+000	 3.333434029809069e-001	 1.038327121865538e+001
0	 4.133340000006534e+000	 4.000138002678043e-001	 1.041094504510071e+001
0	 4.133340000006535e+000	 4.666844975500012e-001	 1.043667275506295e+001
0	 4.133340000006533e+000	 5.333553781553800e-001	 1.046071027379260e+001
0	 4.133340000006534e+000	 6.000263254118247e-001	 1.048331351759337e+001
0	 4.133340000006534e+000	 6.666972226472177e-001	 1.050473839382589e+001
0	 4.200010000009550e+000	 0.000000000000000e+000	 1.018989538467182e+001
0	 4.200010000009549e+000	 6.666714722864756e-002	 1.022446983278084e+001
0	 4.200010000009550e+000	 1.333351778131789e-001	 1.025765205305364e+001
0	 4.200010000009550e+000	 2.000039750814773e-001	 1.028944149046893e+001
0	 4.200010000009550e+000	 2.666734223614256e-001	 1.031983757837060e+001
0	 4.200010000009550e+000	 3.333434029809069e-001	 1.034883973847276e+001
0	 4.200010000009550e+000	 4.000138002678044e-001	 1.037644738086451e+001
0	 4.200010000009550e+000	 4.666844975500010e-001	 1.040265990401440e+001
0	 4.200010000009550e+000	 5.333553781553800e-001	 1.042747669477459e+001
0	 4.200010000009550e+000	 6.000263254118248e-001	 1.045089712838460e+001
0	 4.200010000009550e+000	 6.666972226472178e-001	 1.047292056847496e+001
0	 4.266680000012267e+000	 0.000000000000000e+000	 1.019459963676493e+001
0	 4.266680000012266e+000	 6.666714722864754e-002	 1.022057577652120e+001
0	 4.266680000012267e+000	 1.333351778131790e-001	 1.024681834765069e+001
0	 4.266680000012267e+000	 2.000039750814772e-001	 1.027312360904985e+001
0	 4.266680000012268e+000	 2.666734223614256e-001	 1.029928780818682e+001
0	 4.266680000012268e+000	 3.333434029809068e-001	 1.032510718110609e+001
0	 4.266680000012267e+000	 4.000138002678044e-001	 1.035037795243287e+001
0	 4.266680000012267e+000	 4.666844975500011e-001	 1.037489633537715e+001
0	 4.266680000012267e+000	 5.333553781553803e-001	 1.039845853173753e+001
0	 4.266680000012268e+000	 6.000263254118248e-001	 1.042086073190463e+001
0	 4.266680000012267e+000	 6.666972226472177e-001	 1.044189911486431e+001
0	 4.333350000014584e+000	 0.000000000000000e+000	 1.021578579239556e+001
0	 4.333350000014582e+000	 6.666714722864756e-002	 1.023209409041096e+001
0	 4.333350000014582e+000	 1.333351778131790e-001	 1.025009377925613e+001
0	 4.333350000014583e+000	 2.000039750814773e-001	 1.026943127711681e+001
0	 4.333350000014585e+000	 2.666734223614256e-001	 1.028975299321277e+001
0	 4.333350000014582e+000	 3.333434029809069e-001	 1.031070532780164e+001
0	 4.333350000014584e+000	 4.000138002678044e-001	 1.033193467218254e+001
0	 4.333350000014584e+000	 4.666844975500012e-001	 1.035308740869947e+001
0	 4.333350000014583e+000	 5.333553781553800e-001	 1.037380991074448e+001
0	 4.333350000014583e+000	 6.000263254118247e-001	 1.039374854276048e+001
0	 4.333350000014583e+000	 6.666972226472177e-001	 1.041254966024406e+001
0	 4.400020000016400e+000	 0.000000000000000e+000	 1.024837455905482e+001
0	 4.400020000016400e+000	 6.666714722864754e-002	 1.025480510397094e+001
0	 4.400020000016400e+000	 1.333351778131789e-001	 1.026405958970514e+001
0	 4.400020000016400e+000	 2.000039750814773e-001	 1.027568794548831e+001
0	 4.400020000016401e+000	 2.666734223614256e-001	 1.028924009568691e+001
0	 4.400020000016400e+000	 3.333434029809069e-001	 1.030426595980570e+001
0	 4.400020000016402e+000	 4.000138002678044e-001	 1.032031545249030e+001
0	 4.400020000016398e+000	 4.666844975500011e-001	 1.033693848352969e+001
0	 4.400020000016401e+000	 5.333553781553803e-001	 1.035368495785850e+001
0	 4.400020000016400e+000	 6.000263254118248e-001	 1.037010477555923e+001
0	 4.400020000016399e+000	 6.666972226472175e-001	 1.038574783186437e+001
0	 4.466690000017617e+000	 0.000000000000000e+000	 1.028728664423383e+001
0	 4.466690000017615e+000	 6.666714722864756e-002	 1.028448914672204e+001
0	 4.466690000017616e+000	 1.333351778131790e-001	 1.028529702083292e+001
0	 4.466690000017617e+000	 2.000039750814773e-001	 1.028921706498282e+001
0	 4.466690000017615e+000	 2.666734223614255e-001	 1.029575607784772e+001
0	 4.466690000017616e+000	 3.333434029809069e-001	 1.030442085836464e+001
0	 4.466690000017616e+000	 4.000138002678044e-001	 1.031471820573302e+001
0	 4.466690000017619e+000	 4.666844975500012e-001	 1.032615491941618e+001
0	 4.466690000017617e+000	 5.333553781553801e-001	 1.033823779914272e+001
0	 4.466690000017616e+000	 6.000263254118246e-001	 1.035047364490797e+001
0	 4.466690000017616e+000	 6.666972226472177e-001	 1.036236925697546e+001
0	 4.533360000018132e+000	 0.000000000000000e+000	 1.032744275542374e+001
0	 4.533360000018133e+000	 6.666714722864756e-002	 1.031692654818517e+001
0	 4.533360000018132e+000	 1.333351778131789e-001	 1.031038731447470e+001
0	 4.533360000018133e+000	 2.000039750814773e-001	 1.030734208641889e+001
0	 4.533360000018131e+000	 2.666734223614256e-001	 1.030730790193376e+001
0	 4.533360000018131e+000	 3.333434029809069e-001	 1.030980180472488e+001
0	 4.533360000018132e+000	 4.000138002678044e-001	 1.031434084428759e+001
0	 4.533360000018133e+000	 4.666844975500011e-001	 1.032044207590736e+001
0	 4.533360000018132e+000	 5.333553781553803e-001	 1.032762256066030e+001
0	 4.533360000018133e+000	 6.000263254118248e-001	 1.033539936541384e+001
0	 4.533360000018133e+000	 6.666972226472177e-001	 1.034328956282754e+001
0	 4.600030000017849e+000	 0.000000000000000e+000	 1.036376360011573e+001
0	 4.600030000017847e+000	 6.666714722864754e-002	 1.034789763788125e+001
0	 4.600030000017849e+000	 1.333351778131790e-001	 1.033591171246579e+001
0	 4.600030000017848e+000	 2.000039750814773e-001	 1.032738646061514e+001
0	 4.600030000017848e+000	 2.666734223614254e-001	 1.032190253018362e+001
0	 4.600030000017848e+000	 3.333434029809069e-001	 1.031904058013288e+001
0	 4.600030000017848e+000	 4.000138002678044e-001	 1.031838128053095e+001
0	 4.600030000017849e+000	 4.666844975500011e-001	 1.031950531255171e+001
0	 4.600030000017849e+000	 5.333553781553801e-001	 1.032199336847448e+001
0	 4.600030000017849e+000	 6.000263254118249e-001	 1.032542615168404e+001
0	 4.600030000017848e+000	 6.666972226472175e-001	 1.032938437667088e+001
0	 4.666700000016666e+000	 0.000000000000000e+000	 1.039116988580096e+001
0	 4.666700000016666e+000	 6.666714722864757e-002	 1.037318274533127e+001
0	 4.666700000016667e+000	 1.333351778131790e-001	 1.035845145664150e+001
0	 4.666700000016665e+000	 2.000039750814772e-001	 1.034667363839020e+001
0	 4.666700000016666e+000	 2.666734223614256e-001	 1.033754692483596e+001
0	 4.666700000016668e+000	 3.333434029809070e-001	 1.033076896583515e+001
0	 4.666700000016665e+000	 4.000138002678044e-001	 1.032603742684012e+001
0	 4.666700000016666e+000	 4.666844975500011e-001	 1.032304998889775e+001
0	 4.666700000016667e+000	 5.333553781553803e-001	 1.032150434864849e+001
0	 4.666700000016666e+000	 6.000263254118248e-001	 1.032109821832577e+001
0	 4.666700000016667e+000	 6.666972226472179e-001	 1.032152932575581e+001
0	 4.000000000000000e+000	 6.666972226472175e-001	 1.056726065074821e+001
0	 4.000000000000002e+000	 7.333579753122048e-001	 1.058074011459381e+001
0	 4.000000000000001e+000	 8.000185779984418e-001	 1.059202668391256e+001
0	 4.000000000000000e+000	 8.666790473703454e-001	 1.060114233170918e+001
0	 4.000000000000000e+000	 9.333394000923323e-001	 1.060810903501028e+001
0	 3.999999999999999e+000	 9.999996528288188e-001	 1.061294877486437e+001
0	 4.000000000000001e+000	 1.066659822244222e+000	 1.061568353634209e+001
0	 3.999999999999999e+000	 1.133319925002959e+000	 1.061633530853622e+001
0	 4.000000000000001e+000	 1.199979977769445e+000	 1.061492608456183e+001
0	 4.000000000000000e+000	 1.266639997208098e+000	 1.061147786155633e+001
0	 3.999999999999999e+000	 1.333299999983334e+000	 1.060601264067955e+001
0	 4.066670000003317e+000	 6.666972226472177e-001	 1.053647696366699e+001
0	 4.066670000003317e+000	 7.333579753122046e-001	 1.055385575745396e+001
0	 4.066670000003316e+000	 8.000185779984417e-001	 1.056846418412217e+001
0	 4.066670000003318e+000	 8.666790473703452e-001	 1.058032761360819e+001
0	 4.066670000003317e+000	 9.333394000923323e-001	 1.058947142031447e+001
0	 4.066670000003317e+000	 9.999996528288190e-001	 1.059592098310953e+001
0	 4.066670000003318e+000	 1.066659822244223e+000	 1.059970168532809e+001
0	 4.066670000003317e+000	 1.133319925002959e+000	 1.060083891477114e+001
0	 4.066670000003318e+000	 1.199979977769445e+000	 1.059935806370606e+001
0	 4.066670000003317e+000	 1.266639997208098e+000	 1.059528452886668e+001
0	 4.066670000003317e+000	 1.333299999983333e+000	 1.058864371145335e+001
0	 4.133340000006534e+000	 6.666972226472177e-001	 1.050473839382589e+001
0	 4.133340000006534e+000	 7.333579753122047e-001	 1.052415473731073e+001
0	 4.133340000006532e+000	 8.000185779984416e-001	 1.054058750983759e+001
0	 4.133340000006534e+000	 8.666790473703452e-001	 1.055406589184854e+001
0	 4.133340000006534e+000	 9.333394000923320e-001	 1.056461906819757e+001
0	 4.133340000006535e+000	 9.999996528288191e-001	 1.057227622815083e+001
0	 4.133340000006534e+000	 1.066659822244222e+000	 1.057706656538663e+001
0	 4.133340000006535e+000	 1.133319925002959e+000	 1.057901927799572e+001
0	 4.133340000006534e+000	 1.199979977769445e+000	 1.057816356848120e+001
0	 4.133340000006534e+000	 1.266639997208098e+000	 1.057452864375869e+001
0	 4.133340000006534e+000	 1.333299999983334e+000	 1.056814371515637e+001
0	 4.200010000009550e+000	 6.666972226472178e-001	 1.047292056847497e+001
0	 4.200010000009551e+000	 7.333579753122049e-001	 1.049278355489623e+001
0	 4.200010000009550e+000	 8.000185779984417e-001	 1.050975172198214e+001
0	 4.200010000009550e+000	 8.666790473703452e-001	 1.052385847370025e+001
0	 4.200010000009550e+000	 9.333394000923323e-001	 1.053513721797160e+001
0	 4.200010000009551e+000	 9.999996528288190e-001	 1.054362136667081e+001
0	 4.200010000009550e+000	 1.066659822244222e+000	 1.054934433562620e+001
0	 4.200010000009550e+000	 1.133319925002958e+000	 1.055233954461990e+001
0	 4.200010000009550e+000	 1.199979977769445e+000	 1.055264041738791e+001
0	 4.200010000009550e+000	 1.266639997208098e+000	 1.055028038162016e+001
0	 4.200010000009550e+000	 1.333299999983334e+000	 1.054529286896059e+001
0	 4.266680000012267e+000	 6.666972226472177e-001	 1.044189911486431e+001
0	 4.266680000012267e+000	 7.333579753122047e-001	 1.046088871094265e+001
0	 4.266680000012265e+000	 8.000185779984413e-001	 1.047731188147916e+001
0	 4.266680000012267e+000	 8.666790473703453e-001	 1.049120666643334e+001
0	 4.266680000012268e+000	 9.333394000923322e-001	 1.050261110894854e+001
0	 4.266680000012267e+000	 9.999996528288189e-001	 1.051156325535206e+001
0	 4.266680000012267e+000	 1.066659822244222e+000	 1.051810115515527e+001
0	 4.266680000012266e+000	 1.133319925002959e+000	 1.052226286105366e+001
0	 4.266680000012267e+000	 1.199979977769445e+000	 1.052408642892689e+001
0	 4.266680000012267e+000	 1.266639997208098e+000	 1.052360991783892e+001
0	 4.266680000012265e+000	 1.333299999983333e+000	 1.052087139003801e+001
0	 4.333350000014583e+000	 6.666972226472177e-001	 1.041254966024406e+001
0	 4.333350000014583e+000	 7.333579753122048e-001	 1.042961670618217e+001
0	 4.333350000014583e+000	 8.000185779984417e-001	 1.044462304925204e+001
0	 4.333350000014583e+000	 8.666790473703452e-001	 1.045761177731786e+001
0	 4.333350000014584e+000	 9.333394000923323e-001	 1.046862598044042e+001
0	 4.333350000014582e+000	 9.999996528288190e-001	 1.047770875087719e+001
0	 4.333350000014583e+000	 1.066659822244222e+000	 1.048490318308237e+001
0	 4.333350000014583e+000	 1.133319925002959e+000	 1.049025237370695e+001
0	 4.333350000014582e+000	 1.199979977769445e+000	 1.049379942159882e+001
0	 4.333350000014583e+000	 1.266639997208098e+000	 1.049558742780279e+001
0	 4.333350000014583e+000	 1.333299999983334e+000	 1.049565949556059e+001
0	 4.400020000016399e+000	 6.666972226472175e-001	 1.038574783186437e+001
0	 4.400020000016400e+000	 7.333579753122048e-001	 1.040011404134700e+001
0	 4.400020000016400e+000	 8.000185779984417e-001	 1.041304028622415e+001
0	 4.400020000016399e+000	 8.666790473703453e-001	 1.042457511362387e+001
0	 4.400020000016400e+000	 9.333394000923323e-001	 1.043476707175929e+001
0	 4.400020000016398e+000	 9.999996528288188e-001	 1.044366470992879e+001
0	 4.400020000016401e+000	 1.066659822244222e+000	 1.045131657851597e+001
0	 4.400020000016401e+000	 1.133319925002958e+000	 1.045777122898975e+001
0	 4.400020000016400e+000	 1.199979977769445e+000	 1.046307721390441e+001
0	 4.400020000016400e+000	 1.266639997208098e+000	 1.046728308689958e+001
0	 4.400020000016401e+000	 1.333299999983334e+000	 1.047043740270031e+001
0	 4.466690000017616e+000	 6.666972226472177e-001	 1.036236925697546e+001
0	 4.466690000017617e+000	 7.333579753122048e-001	 1.037352721716941e+001
0	 4.466690000017617e+000	 8.000185779984417e-001	 1.038391865331898e+001
0	 4.466690000017616e+000	 8.666790473703452e-001	 1.039359798262148e+001
0	 4.466690000017616e+000	 9.333394000923321e-001	 1.040261962221721e+001
0	 4.466690000017618e+000	 9.999996528288189e-001	 1.041103798918948e+001
0	 4.466690000017617e+000	 1.066659822244222e+000	 1.041890750056463e+001
0	 4.466690000017614e+000	 1.133319925002958e+000	 1.042628257331208e+001
0	 4.466690000017616e+000	 1.199979977769445e+000	 1.043321762434436e+001
0	 4.466690000017615e+000	 1.266639997208098e+000	 1.043976707051712e+001
0	 4.466690000017615e+000	 1.333299999983334e+000	 1.044598532862919e+001
0	 4.533360000018133e+000	 6.666972226472177e-001	 1.034328956282754e+001
0	 4.533360000018132e+000	 7.333579753122049e-001	 1.035100273438167e+001
0	 4.533360000018132e+000	 8.000185779984417e-001	 1.035861321145994e+001
0	 4.533360000018130e+000	 8.666790473703453e-001	 1.036618169158081e+001
0	 4.533360000018133e+000	 9.333394000923322e-001	 1.037376887112627e+001
0	 4.533360000018132e+000	 9.999996528288191e-001	 1.038143544534190e+001
0	 4.533360000018132e+000	 1.066659822244222e+000	 1.038924210833686e+001
0	 4.533360000018133e+000	 1.133319925002959e+000	 1.039724955308390e+001
0	 4.533360000018133e+000	 1.199979977769445e+000	 1.040551847141937e+001
0	 4.533360000018133e+000	 1.266639997208098e+000	 1.041410955404325e+001
0	 4.533360000018131e+000	 1.333299999983334e+000	 1.042308349051917e+001
0	 4.600030000017848e+000	 6.666972226472175e-001	 1.032938437667088e+001
0	 4.600030000017849e+000	 7.333579753122049e-001	 1.033368709371610e+001
0	 4.600030000017849e+000	 8.000185779984419e-001	 1.033847902157054e+001
0	 4.600030000017848e+000	 8.666790473703451e-001	 1.034382754777198e+001
0	 4.600030000017849e+000	 9.333394000923323e-001	 1.034980005779855e+001
0	 4.600030000017849e+000	 9.999996528288190e-001	 1.035646393506870e+001
0	 4.600030000017849e+000	 1.066659822244222e+000	 1.036388656094123e+001
0	 4.600030000017849e+000	 1.133319925002959e+000	 1.037213531471523e+001
0	 4.600030000017849e+000	 1.199979977769445e+000	 1.038127757363016e+001
0	 4.600030000017847e+000	 1.266639997208098e+000	 1.039138071286578e+001
0	 4.600030000017849e+000	 1.333299999983334e+000	 1.040251210554226e+001
0	 4.666700000016667e+000	 6.666972226472179e-001	 1.032152932575581e+001
0	 4.666700000016665e+000	 7.333579753122046e-001	 1.032272679590504e+001
0	 4.666700000016666e+000	 8.000185779984418e-001	 1.032487114457426e+001
0	 4.666700000016665e+000	 8.666790473703452e-001	 1.032803685846516e+001
0	 4.666700000016666e+000	 9.333394000923320e-001	 1.033229842154617e+001
0	 4.666700000016666e+000	 9.999996528288190e-001	 1.033773031505255e+001
0	 4.666700000016665e+000	 1.066659822244222e+000	 1.034440701748627e+001
0	 4.666700000016667e+000	 1.133319925002959e+000	 1.035240300461608e+001
0	 4.666700000016666e+000	 1.199979977769445e+000	 1.036179274947745e+001
0	 4.666700000016667e+000	 1.266639997208098e+000	 1.037265072237257e+001
0	 4.666700000016666e+000	 1.333299999983334e+000	 1.038505139087045e+001
0	 3.999999999999999e+000	 1.333299999983334e+000	 1.060601264067955e+001
0	 4.000000000000000e+000	 1.399969999982150e+000	 1.060007318093158e+001
0	 4.000000000000002e+000	 1.466639999981866e+000	 1.059519394404236e+001
0	 4.000000000000000e+000	 1.533309999982383e+000	 1.059138157811899e+001
0	 4.000000000000001e+000	 1.599979999983599e+000	 1.058864273126859e+001
0	 4.000000000000001e+000	 1.666649999985416e+000	 1.058698405159828e+001
0	 4.000000000000001e+000	 1.733319999987733e+000	 1.058641218721518e+001
0	 4.000000000000001e+000	 1.799989999990450e+000	 1.058693378622641e+001
0	 4.000000000000000e+000	 1.866659999993467e+000	 1.058855549673911e+001
0	 4.000000000000001e+000	 1.933329999996683e+000	 1.059128396686041e+001
0	 4.000000000000001e+000	 2.000000000000000e+000	 1.059512584469743e+001
0	 4.066670000003317e+000	 1.333299999983333e+000	 1.058864371145335e+001
0	 4.066670000003317e+000	 1.399969999982150e+000	 1.058136562290687e+001
0	 4.066670000003317e+000	 1.466639999981866e+000	 1.057538013713315e+001
0	 4.066670000003316e+000	 1.533309999982383e+000	 1.057070888982804e+001
0	 4.066670000003318e+000	 1.599979999983600e+000	 1.056737351668745e+001
0	 4.066670000003317e+000	 1.666649999985416e+000	 1.056539565340726e+001
0	 4.066670000003317e+000	 1.733319999987733e+000	 1.056479693568337e+001
0	 4.066670000003317e+000	 1.799989999990450e+000	 1.056559899921168e+001
0	 4.066670000003317e+000	 1.866659999993467e+000	 1.056782347968813e+001
0	 4.066670000003316e+000	 1.933329999996683e+000	 1.057149201280862e+001
0	 4.066670000003316e+000	 2.000000000000000e+000	 1.057662623426910e+001
0	 4.133340000006534e+000	 1.333299999983334e+000	 1.056814371515637e+001
0	 4.133340000006534e+000	 1.399969999982151e+000	 1.056102686642644e+001
0	 4.133340000006534e+000	 1.466639999981866e+000	 1.055520197619401e+001
0	 4.133340000006533e+000	 1.533309999982382e+000	 1.055070346347068e+001
0	 4.133340000006534e+000	 1.599979999983600e+000	 1.054756574726808e+001
0	 4.133340000006534e+000	 1.666649999985416e+000	 1.054582324659783e+001
0	 4.133340000006534e+000	 1.733319999987733e+000	 1.054551038047158e+001
0	 4.133340000006534e+000	 1.799989999990450e+000	 1.054666156790097e+001
0	 4.133340000006534e+000	 1.866659999993467e+000	 1.054931122789767e+001
0	 4.133340000006535e+000	 1.933329999996683e+000	 1.055349377947333e+001
0	 4.133340000006533e+000	 2.000000000000000e+000	 1.055924364163964e+001
0	 4.200010000009550e+000	 1.333299999983334e+000	 1.054529286896059e+001
0	 4.200010000009549e+000	 1.399969999982150e+000	 1.053953897102893e+001
0	 4.200010000009550e+000	 1.466639999981866e+000	 1.053488937562872e+001
0	 4.200010000009551e+000	 1.533309999982383e+000	 1.053138908081429e+001
0	 4.200010000009550e+000	 1.599979999983599e+000	 1.052908308463994e+001
0	 4.200010000009549e+000	 1.666649999985416e+000	 1.052801638516001e+001
0	 4.200010000009550e+000	 1.733319999987733e+000	 1.052823398042884e+001
0	 4.200010000009550e+000	 1.799989999990450e+000	 1.052978086850075e+001
0	 4.200010000009550e+000	 1.866659999993466e+000	 1.053270204743014e+001
0	 4.200010000009550e+000	 1.933329999996683e+000	 1.053704251527133e+001
0	 4.200010000009550e+000	 1.999999999999999e+000	 1.054284727007872e+001
0	 4.266680000012265e+000	 1.333299999983333e+000	 1.052087139003801e+001
0	 4.266680000012267e+000	 1.399969999982150e+000	 1.051738399625297e+001
0	 4.266680000012267e+000	 1.466639999981867e+000	 1.051467224984105e+001
0	 4.266680000012266e+000	 1.533309999982383e+000	 1.051278952362624e+001
0	 4.266680000012267e+000	 1.599979999983599e+000	 1.051178919043248e+001
0	 4.266680000012267e+000	 1.666649999985416e+000	 1.051172462308378e+001
0	 4.266680000012268e+000	 1.733319999987733e+000	 1.051264919440412e+001
0	 4.266680000012266e+000	 1.799989999990449e+000	 1.051461627721750e+001
0	 4.266680000012268e+000	 1.866659999993466e+000	 1.051767924434795e+001
0	 4.266680000012267e+000	 1.933329999996683e+000	 1.052189146861944e+001
0	 4.266680000012267e+000	 2.000000000000000e+000	 1.052730632285603e+001
0	 4.333350000014583e+000	 1.333299999983334e+000	 1.049565949556059e+001
0	 4.333350000014585e+000	 1.399969999982150e+000	 1.049504400163719e+001
0	 4.333350000014582e+000	 1.466639999981867e+000	 1.049478051323477e+001
0	 4.333350000014582e+000	 1.533309999982383e+000	 1.049492857367388e+001
0	 4.333350000014584e+000	 1.599979999983599e+000	 1.049554772627513e+001
0	 4.333350000014583e+000	 1.666649999985416e+000	 1.049669751435911e+001
0	 4.333350000014583e+000	 1.733319999987733e+000	 1.049843748124643e+001
0	 4.333350000014583e+000	 1.799989999990449e+000	 1.050082717025769e+001
0	 4.333350000014583e+000	 1.866659999993466e+000	 1.050392612471349e+001
0	 4.333350000014583e+000	 1.933329999996683e+000	 1.050779388793446e+001
0	 4.333350000014584e+000	 2.000000000000000e+000	 1.051249000324121e+001
0	 4.400020000016401e+000	 1.333299999983334e+000	 1.047043740270031e+001
0	 4.400020000016399e+000	 1.399969999982150e+000	 1.047300104672025e+001
0	 4.400020000016400e+000	 1.466639999981867e+000	 1.047544408021363e+001
0	 4.400020000016399e+000	 1.533309999982383e+000	 1.047783001272460e+001
0	 4.400020000016400e+000	 1.599979999983599e+000	 1.048022235379733e+001
0	 4.400020000016400e+000	 1.666649999985416e+000	 1.048268461297600e+001
0	 4.400020000016399e+000	 1.733319999987733e+000	 1.048528029980475e+001
0	 4.400020000016400e+000	 1.799989999990450e+000	 1.048807292382774e+001
0	 4.400020000016399e+000	 1.866659999993466e+000	 1.049112599458917e+001
0	 4.400020000016399e+000	 1.933329999996683e+000	 1.049450302163317e+001
0	 4.400020000016400e+000	 2.000000000000000e+000	 1.049826751450393e+001
0	 4.466690000017615e+000	 1.333299999983334e+000	 1.044598532862918e+001
0	 4.466690000017617e+000	 1.399969999982150e+000	 1.045173719104076e+001
0	 4.466690000017617e+000	 1.466639999981867e+000	 1.045689286518140e+001
0	 4.466690000017618e+000	 1.533309999982383e+000	 1.046151762254576e+001
0	 4.466690000017615e+000	 1.599979999983599e+000	 1.046567673462853e+001
0	 4.466690000017616e+000	 1.666649999985416e+000	 1.046943547292440e+001
0	 4.466690000017616e+000	 1.733319999987733e+000	 1.047285910892805e+001
0	 4.466690000017616e+000	 1.799989999990450e+000	 1.047601291413415e+001
0	 4.466690000017617e+000	 1.866659999993466e+000	 1.047896216003737e+001
0	 4.466690000017617e+000	 1.933329999996683e+000	 1.048177211813238e+001
0	 4.466690000017617e+000	 2.000000000000000e+000	 1.048450805991385e+001
0	 4.533360000018131e+000	 1.333299999983334e+000	 1.042308349051917e+001
0	 4.533360000018131e+000	 1.399969999982150e+000	 1.043173449413739e+001
0	 4.533360000018132e+000	 1.466639999981867e+000	 1.043935678254185e+001
0	 4.533360000018131e+000	 1.533309999982383e+000	 1.044601518490471e+001
0	 4.533360000018132e+000	 1.599979999983600e+000	 1.045177453039815e+001
0	 4.533360000018132e+000	 1.666649999985416e+000	 1.045669964819430e+001
0	 4.533360000018131e+000	 1.733319999987733e+000	 1.046085536746531e+001
0	 4.533360000018132e+000	 1.799989999990450e+000	 1.046430651738332e+001
0	 4.533360000018133e+000	 1.866659999993466e+000	 1.046711792712047e+001
0	 4.533360000018133e+000	 1.933329999996683e+000	 1.046935442584886e+001
0	 4.533360000018131e+000	 2.000000000000000e+000	 1.047108084274062e+001
0	 4.600030000017849e+000	 1.333299999983334e+000	 1.040251210554226e+001
0	 4.600030000017848e+000	 1.399969999982150e+000	 1.041347501554873e+001
0	 4.600030000017847e+000	 1.466639999981866e+000	 1.042306574669872e+001
0	 4.600030000017849e+000	 1.533309999982383e+000	 1.043134648156882e+001
0	 4.600030000017849e+000	 1.599979999983599e+000	 1.043837940273561e+001
0	 4.600030000017848e+000	 1.666649999985416e+000	 1.044422669277565e+001
0	 4.600030000017849e+000	 1.733319999987733e+000	 1.044895053426552e+001
0	 4.600030000017848e+000	 1.799989999990449e+000	 1.045261310978173e+001
0	 4.600030000017849e+000	 1.866659999993466e+000	 1.045527660190086e+001
0	 4.600030000017850e+000	 1.933329999996683e+000	 1.045700319319940e+001
0	 4.600030000017850e+000	 2.000000000000000e+000	 1.045785506625389e+001
0	 4.666700000016666e+000	 1.333299999983334e+000	 1.038505139087045e+001
0	 4.666700000016665e+000	 1.399969999982150e+000	 1.039744081481344e+001
0	 4.666700000016666e+000	 1.466639999981866e+000	 1.040824967205578e+001
0	 4.666700000016667e+000	 1.533309999982383e+000	 1.041753529430544e+001
0	 4.666700000016666e+000	 1.599979999983600e+000	 1.042535501327034e+001
0	 4.666700000016665e+000	 1.666649999985416e+000	 1.043176616065843e+001
0	 4.666700000016666e+000	 1.733319999987733e+000	 1.043682606817762e+001
0	 4.666700000016666e+000	 1.799989999990450e+000	 1.044059206753581e+001
0	 4.666700000016666e+000	 1.866659999993466e+000	 1.044312149044090e+001
0	 4.666700000016666e+000	 1.933329999996683e+000	 1.044447166860078e+001
0	 4.666700000016666e+000	 2.000000000000000e+000	 1.044469993372329e+001
0	 4.000000000000001e+000	 2.000000000000000e+000	 1.059512584469743e+001
0	 4.000000000000001e+000	 2.066670000003317e+000	 1.059876521369394e+001
0	 4.000000000000001e+000	 2.133340000006534e+000	 1.060087241724421e+001
0	 4.000000000000000e+000	 2.200010000009551e+000	 1.060143349338113e+001
0	 4.000000000000001e+000	 2.266680000012268e+000	 1.060043448013757e+001
0	 4.000000000000000e+000	 2.333350000014584e+000	 1.059786141554638e+001
0	 4.000000000000000e+000	 2.400020000016400e+000	 1.059370033764039e+001
0	 4.000000000000001e+000	 2.466690000017617e+000	 1.058793728445242e+001
0	 4.000000000000001e+000	 2.533360000018134e+000	 1.058055829401524e+001
0	 4.000000000000000e+000	 2.600030000017850e+000	 1.057154940436163e+001
0	 4.000000000000000e+000	 2.666700000016667e+000	 1.056089665352434e+001
0	 4.066670000003316e+000	 2.000000000000000e+000	 1.057662623426910e+001
0	 4.066670000003317e+000	 2.066670000003317e+000	 1.058162896761768e+001
0	 4.066670000003317e+000	 2.133340000006534e+000	 1.058489223502503e+001
0	 4.066670000003317e+000	 2.200010000009551e+000	 1.058642147012090e+001
0	 4.066670000003318e+000	 2.266680000012268e+000	 1.058622210653497e+001
0	 4.066670000003317e+000	 2.333350000014583e+000	 1.058429957789694e+001
0	 4.066670000003317e+000	 2.400020000016401e+000	 1.058065931783649e+001
0	 4.066670000003317e+000	 2.466690000017617e+000	 1.057530675998324e+001
0	 4.066670000003318e+000	 2.533360000018134e+000	 1.056824733796683e+001
0	 4.066670000003317e+000	 2.600030000017850e+000	 1.055948648541686e+001
0	 4.066670000003316e+000	 2.666700000016667e+000	 1.054902963596291e+001
0	 4.133340000006533e+000	 2.000000000000000e+000	 1.055924364163964e+001
0	 4.133340000006534e+000	 2.066670000003318e+000	 1.056487534255381e+001
0	 4.133340000006534e+000	 2.133340000006534e+000	 1.056869464891040e+001
0	 4.133340000006533e+000	 2.200010000009550e+000	 1.057072283752706e+001
0	 4.133340000006534e+000	 2.266680000012267e+000	 1.057098118522140e+001
0	 4.133340000006533e+000	 2.333350000014585e+000	 1.056949096881105e+001
0	 4.133340000006535e+000	 2.400020000016401e+000	 1.056627346511361e+001
0	 4.133340000006534e+000	 2.466690000017617e+000	 1.056134995094662e+001
0	 4.133340000006533e+000	 2.533360000018134e+000	 1.055474170312764e+001
0	 4.133340000006534e+000	 2.600030000017851e+000	 1.054646999847419e+001
0	 4.133340000006534e+000	 2.666700000016666e+000	 1.053655611380378e+001
0	 4.200010000009550e+000	 1.999999999999999e+000	 1.054284727007872e+001
0	 4.200010000009550e+000	 2.066670000003318e+000	 1.054850162873817e+001
0	 4.200010000009550e+000	 2.133340000006534e+000	 1.055238328783039e+001
0	 4.200010000009550e+000	 2.200010000009551e+000	 1.055452581495203e+001
0	 4.200010000009550e+000	 2.266680000012268e+000	 1.055496277769975e+001
0	 4.200010000009550e+000	 2.333350000014584e+000	 1.055372774367015e+001
0	 4.200010000009550e+000	 2.400020000016400e+000	 1.055085428045985e+001
0	 4.200010000009551e+000	 2.466690000017618e+000	 1.054637595566540e+001
0	 4.200010000009550e+000	 2.533360000018134e+000	 1.054032633688339e+001
0	 4.200010000009550e+000	 2.600030000017850e+000	 1.053273899171031e+001
0	 4.200010000009550e+000	 2.666700000016667e+000	 1.052364748774273e+001
0	 4.266680000012267e+000	 2.000000000000000e+000	 1.052730632285603e+001
0	 4.266680000012266e+000	 2.066670000003317e+000	 1.053250511640656e+001
0	 4.266680000012268e+000	 2.133340000006534e+000	 1.053606178071505e+001
0	 4.266680000012268e+000	 2.200010000009550e+000	 1.053801862174824e+001
0	 4.266680000012268e+000	 2.266680000012267e+000	 1.053841794547288e+001
0	 4.266680000012268e+000	 2.333350000014584e+000	 1.053730205785567e+001
0	 4.266680000012268e+000	 2.400020000016401e+000	 1.053471326486330e+001
0	 4.266680000012266e+000	 2.466690000017617e+000	 1.053069387246246e+001
0	 4.266680000012267e+000	 2.533360000018134e+000	 1.052528618661978e+001
0	 4.266680000012268e+000	 2.600030000017850e+000	 1.051853251330192e+001
0	 4.266680000012266e+000	 2.666700000016666e+000	 1.051047515847548e+001
0	 4.333350000014584e+000	 2.000000000000000e+000	 1.051249000324121e+001
0	 4.333350000014583e+000	 2.066670000003317e+000	 1.051688309579478e+001
0	 4.333350000014582e+000	 2.133340000006534e+000	 1.051983375649444e+001
0	 4.333350000014584e+000	 2.200010000009550e+000	 1.052138947726810e+001
0	 4.333350000014583e+000	 2.266680000012267e+000	 1.052159775004366e+001
0	 4.333350000014582e+000	 2.333350000014584e+000	 1.052050606674902e+001
0	 4.333350000014584e+000	 2.400020000016401e+000	 1.051816191931206e+001
0	 4.333350000014582e+000	 2.466690000017616e+000	 1.051461279966063e+001
0	 4.333350000014583e+000	 2.533360000018134e+000	 1.050990619972255e+001
0	 4.333350000014584e+000	 2.600030000017851e+000	 1.050408961142569e+001
0	 4.333350000014583e+000	 2.666700000016666e+000	 1.049721052669781e+001
0	 4.400020000016400e+000	 2.000000000000000e+000	 1.049826751450393e+001
0	 4.400020000016400e+000	 2.066670000003317e+000	 1.050163285713868e+001
0	 4.400020000016399e+000	 2.133340000006534e+000	 1.050380284409865e+001
0	 4.400020000016399e+000	 2.200010000009550e+000	 1.050482660086402e+001
0	 4.400020000016399e+000	 2.266680000012267e+000	 1.050475325291497e+001
0	 4.400020000016399e+000	 2.333350000014585e+000	 1.050363192573167e+001
0	 4.400020000016401e+000	 2.400020000016401e+000	 1.050151174479422e+001
0	 4.400020000016400e+000	 2.466690000017617e+000	 1.049844183558278e+001
0	 4.400020000016401e+000	 2.533360000018133e+000	 1.049447132357744e+001
0	 4.400020000016400e+000	 2.600030000017850e+000	 1.048964933425831e+001
0	 4.400020000016400e+000	 2.666700000016666e+000	 1.048402499310546e+001
0	 4.466690000017617e+000	 2.000000000000000e+000	 1.048450805991385e+001
0	 4.466690000017616e+000	 2.066670000003316e+000	 1.048675169067402e+001
0	 4.466690000017616e+000	 2.133340000006533e+000	 1.048807267245770e+001
0	 4.466690000017617e+000	 2.200010000009550e+000	 1.048851821188842e+001
0	 4.466690000017615e+000	 2.266680000012267e+000	 1.048813551558968e+001
0	 4.466690000017616e+000	 2.333350000014585e+000	 1.048697179018501e+001
0	 4.466690000017615e+000	 2.400020000016400e+000	 1.048507424229787e+001
0	 4.466690000017616e+000	 2.466690000017617e+000	 1.048249007855176e+001
0	 4.466690000017618e+000	 2.533360000018134e+000	 1.047926650557014e+001
0	 4.466690000017618e+000	 2.600030000017851e+000	 1.047545072997647e+001
0	 4.466690000017616e+000	 2.666700000016666e+000	 1.047108995839419e+001
0	 4.533360000018131e+000	 2.000000000000000e+000	 1.047108084274062e+001
0	 4.533360000018133e+000	 2.066670000003317e+000	 1.047223688663663e+001
0	 4.533360000018133e+000	 2.133340000006534e+000	 1.047274687050167e+001
0	 4.533360000018131e+000	 2.200010000009550e+000	 1.047265252969370e+001
0	 4.533360000018131e+000	 2.266680000012267e+000	 1.047199559957066e+001
0	 4.533360000018132e+000	 2.333350000014584e+000	 1.047081781549048e+001
0	 4.533360000018132e+000	 2.400020000016400e+000	 1.046916091281110e+001
0	 4.533360000018132e+000	 2.466690000017617e+000	 1.046706662689043e+001
0	 4.533360000018132e+000	 2.533360000018133e+000	 1.046457669308639e+001
0	 4.533360000018132e+000	 2.600030000017850e+000	 1.046173284675686e+001
0	 4.533360000018131e+000	 2.666700000016666e+000	 1.045857682325974e+001
0	 4.600030000017850e+000	 2.000000000000000e+000	 1.045785506625389e+001
0	 4.600030000017848e+000	 2.066670000003317e+000	 1.045808573526230e+001
0	 4.600030000017850e+000	 2.133340000006534e+000	 1.045792906716060e+001
0	 4.600030000017849e+000	 2.200010000009551e+000	 1.045741777363226e+001
0	 4.600030000017848e+000	 2.266680000012267e+000	 1.045658456636076e+001
0	 4.600030000017848e+000	 2.333350000014584e+000	 1.045546215702952e+001
0	 4.600030000017849e+000	 2.400020000016401e+000	 1.045408325732200e+001
0	 4.600030000017850e+000	 2.466690000017617e+000	 1.045248057892166e+001
0	 4.600030000017848e+000	 2.533360000018134e+000	 1.045068683351191e+001
0	 4.600030000017849e+000	 2.600030000017850e+000	 1.044873473277617e+001
0	 4.600030000017850e+000	 2.666700000016666e+000	 1.044665698839789e+001
0	 4.666700000016666e+000	 2.000000000000000e+000	 1.044469993372329e+001
0	 4.666700000016665e+000	 2.066670000003317e+000	 1.044429552678682e+001
0	 4.666700000016666e+000	 2.133340000006534e+000	 1.044372289136454e+001
0	 4.666700000016667e+000	 2.200010000009551e+000	 1.044300216305653e+001
0	 4.666700000016666e+000	 2.266680000012268e+000	 1.044215347746285e+001
0	 4.666700000016667e+000	 2.333350000014584e+000	 1.044119697018354e+001
0	 4.666700000016666e+000	 2.400020000016401e+000	 1.044015277681866e+001
0	 4.666700000016668e+000	 2.466690000017617e+000	 1.043904103296828e+001
0	 4.666700000016667e+000	 2.533360000018134e+000	 1.043788187423241e+001
0	 4.666700000016667e+000	 2.600030000017851e+000	 1.043669543621110e+001
0	 4.666700000016666e+000	 2.666700000016666e+000	 1.043550185450438e+001
0	 4.000000000000000e+000	 2.666700000016667e+000	 1.056089665352434e+001
0	 4.000000000000000e+000	 2.733360000014533e+000	 1.054953070055677e+001
0	 4.000000000000000e+000	 2.800020000011599e+000	 1.053838053662317e+001
0	 4.000000000000001e+000	 2.866680000008067e+000	 1.052743486336518e+001
0	 4.000000000000000e+000	 2.933340000004133e+000	 1.051668238242446e+001
0	 4.000000000000000e+000	 3.000000000000000e+000	 1.050611179544266e+001
0	 4.000000000000000e+000	 3.066659999995867e+000	 1.049571180406144e+001
0	 4.000000000000000e+000	 3.133319999991933e+000	 1.048547110992249e+001
0	 4.000000000000001e+000	 3.199979999988401e+000	 1.047537841466749e+001
0	 4.000000000000001e+000	 3.266639999985467e+000	 1.046542241993812e+001
0	 4.000000000000000e+000	 3.333299999983333e+000	 1.045559182737608e+001
0	 4.066670000003316e+000	 2.666700000016667e+000	 1.054902963596291e+001
0	 4.066670000003318e+000	 2.733360000014534e+000	 1.053792799759835e+001
0	 4.066670000003316e+000	 2.800020000011600e+000	 1.052720428629472e+001
0	 4.066670000003319e+000	 2.866680000008067e+000	 1.051682628376095e+001
0	 4.066670000003317e+000	 2.933340000004133e+000	 1.050676177170600e+001
0	 4.066670000003319e+000	 3.000000000000000e+000	 1.049697853183883e+001
0	 4.066670000003318e+000	 3.066659999995867e+000	 1.048744434586840e+001
0	 4.066670000003318e+000	 3.133319999991933e+000	 1.047812699550370e+001
0	 4.066670000003316e+000	 3.199979999988401e+000	 1.046899426245368e+001
0	 4.066670000003318e+000	 3.266639999985467e+000	 1.046001392842734e+001
0	 4.066670000003317e+000	 3.333299999983334e+000	 1.045115377513366e+001
0	 4.133340000006534e+000	 2.666700000016666e+000	 1.053655611380378e+001
0	 4.133340000006534e+000	 2.733360000014534e+000	 1.052607501287389e+001
0	 4.133340000006531e+000	 2.800020000011599e+000	 1.051605161093600e+001
0	 4.133340000006533e+000	 2.866680000008067e+000	 1.050643693935432e+001
0	 4.133340000006534e+000	 2.933340000004133e+000	 1.049718202949305e+001
0	 4.133340000006534e+000	 3.000000000000000e+000	 1.048823791271643e+001
0	 4.133340000006534e+000	 3.066659999995867e+000	 1.047955562038865e+001
0	 4.133340000006533e+000	 3.133319999991933e+000	 1.047108618387396e+001
0	 4.133340000006533e+000	 3.199979999988401e+000	 1.046278063453657e+001
0	 4.133340000006533e+000	 3.266639999985467e+000	 1.045459000374073e+001
0	 4.133340000006533e+000	 3.333299999983333e+000	 1.044646532285067e+001
0	 4.200010000009550e+000	 2.666700000016667e+000	 1.052364748774273e+001
0	 4.200010000009551e+000	 2.733360000014533e+000	 1.051407059291869e+001
0	 4.200010000009551e+000	 2.800020000011600e+000	 1.050496071427949e+001
0	 4.200010000009550e+000	 2.866680000008067e+000	 1.049625630243252e+001
0	 4.200010000009551e+000	 2.933340000004133e+000	 1.048789580798523e+001
0	 4.200010000009553e+000	 3.000000000000000e+000	 1.047981768154501e+001
0	 4.200010000009550e+000	 3.066659999995866e+000	 1.047196037371931e+001
0	 4.200010000009550e+000	 3.133319999991933e+000	 1.046426233511557e+001
0	 4.200010000009550e+000	 3.199979999988401e+000	 1.045666201634121e+001
0	 4.200010000009550e+000	 3.266639999985467e+000	 1.044909786800372e+001
0	 4.200010000009550e+000	 3.333299999983334e+000	 1.044150834071050e+001
0	 4.266680000012266e+000	 2.666700000016666e+000	 1.051047515847548e+001
0	 4.266680000012268e+000	 2.733360000014534e+000	 1.050201358426809e+001
0	 4.266680000012265e+000	 2.800020000011599e+000	 1.049396980005768e+001
0	 4.266680000012267e+000	 2.866680000008067e+000	 1.048627384528283e+001
0	 4.266680000012267e+000	 2.933340000004133e+000	 1.047885575938212e+001
0	 4.266680000012267e+000	 2.999999999999999e+000	 1.047164558179415e+001
0	 4.266680000012265e+000	 3.066659999995866e+000	 1.046457335195752e+001
0	 4.266680000012267e+000	 3.133319999991934e+000	 1.045756910931084e+001
0	 4.266680000012266e+000	 3.199979999988400e+000	 1.045056289329270e+001
0	 4.266680000012268e+000	 3.266639999985467e+000	 1.044348474334173e+001
0	 4.266680000012266e+000	 3.333299999983333e+000	 1.043626469889657e+001
0	 4.333350000014583e+000	 2.666700000016666e+000	 1.049721052669781e+001
0	 4.333350000014582e+000	 2.733360000014532e+000	 1.049000283345739e+001
0	 4.333350000014582e+000	 2.800020000011599e+000	 1.048311707200304e+001
0	 4.333350000014584e+000	 2.866680000008067e+000	 1.047647904019246e+001
0	 4.333350000014582e+000	 2.933340000004133e+000	 1.047001453588336e+001
0	 4.333350000014583e+000	 3.000000000000000e+000	 1.046364935693343e+001
0	 4.333350000014583e+000	 3.066659999995867e+000	 1.045730930120042e+001
0	 4.333350000014584e+000	 3.133319999991934e+000	 1.045092016654205e+001
0	 4.333350000014582e+000	 3.199979999988400e+000	 1.044440775081606e+001
0	 4.333350000014583e+000	 3.266639999985467e+000	 1.043769785188020e+001
0	 4.333350000014582e+000	 3.333299999983333e+000	 1.043071626759223e+001
0	 4.400020000016400e+000	 2.666700000016666e+000	 1.048402499310547e+001
0	 4.400020000016401e+000	 2.733360000014534e+000	 1.047813718702193e+001
0	 4.400020000016400e+000	 2.800020000011600e+000	 1.047244073384808e+001
0	 4.400020000016399e+000	 2.866680000008066e+000	 1.046686135944868e+001
0	 4.400020000016400e+000	 2.933340000004134e+000	 1.046132478968853e+001
0	 4.400020000016397e+000	 2.999999999999999e+000	 1.045575675043241e+001
0	 4.400020000016401e+000	 3.066659999995867e+000	 1.045008296754514e+001
0	 4.400020000016399e+000	 3.133319999991933e+000	 1.044422916689151e+001
0	 4.400020000016401e+000	 3.199979999988401e+000	 1.043812107433637e+001
0	 4.400020000016401e+000	 3.266639999985468e+000	 1.043168441574455e+001
0	 4.400020000016401e+000	 3.333299999983334e+000	 1.042484491698088e+001
0	 4.466690000017616e+000	 2.666700000016666e+000	 1.047108995839419e+001
0	 4.466690000017616e+000	 2.733360000014533e+000	 1.046651549149701e+001
0	 4.466690000017618e+000	 2.800020000011600e+000	 1.046197898932525e+001
0	 4.466690000017616e+000	 2.866680000008066e+000	 1.045741027533873e+001
0	 4.466690000017616e+000	 2.933340000004134e+000	 1.045273917299725e+001
0	 4.466690000017618e+000	 3.000000000000000e+000	 1.044789550576066e+001
0	 4.466690000017615e+000	 3.066659999995867e+000	 1.044280909708879e+001
0	 4.466690000017616e+000	 3.133319999991933e+000	 1.043740977044151e+001
0	 4.466690000017618e+000	 3.199979999988400e+000	 1.043162734927868e+001
0	 4.466690000017616e+000	 3.266639999985467e+000	 1.042539165706017e+001
0	 4.466690000017616e+000	 3.333299999983334e+000	 1.041863251724591e+001
0	 4.533360000018131e+000	 2.666700000016666e+000	 1.045857682325974e+001
0	 4.533360000018131e+000	 2.733360000014534e+000	 1.045523659341796e+001
0	 4.533360000018133e+000	 2.800020000011601e+000	 1.045177004216706e+001
0	 4.533360000018132e+000	 2.866680000008066e+000	 1.044811526014985e+001
0	 4.533360000018132e+000	 2.933340000004133e+000	 1.044421033800914e+001
0	 4.533360000018131e+000	 3.000000000000000e+000	 1.043999336638776e+001
0	 4.533360000018131e+000	 3.066659999995866e+000	 1.043540243592854e+001
0	 4.533360000018134e+000	 3.133319999991933e+000	 1.043037563727435e+001
0	 4.533360000018133e+000	 3.199979999988401e+000	 1.042485106106804e+001
0	 4.533360000018132e+000	 3.266639999985467e+000	 1.041876679795252e+001
0	 4.533360000018131e+000	 3.333299999983334e+000	 1.041206093857067e+001
0	 4.600030000017850e+000	 2.666700000016666e+000	 1.044665698839789e+001
0	 4.600030000017848e+000	 2.733360000014532e+000	 1.044439933932010e+001
0	 4.600030000017848e+000	 2.800020000011600e+000	 1.044185209610599e+001
0	 4.600030000017849e+000	 2.866680000008067e+000	 1.043896578616929e+001
0	 4.600030000017848e+000	 2.933340000004133e+000	 1.043569093692380e+001
0	 4.600030000017849e+000	 3.000000000000000e+000	 1.043197807578326e+001
0	 4.600030000017848e+000	 3.066659999995867e+000	 1.042777773016149e+001
0	 4.600030000017848e+000	 3.133319999991934e+000	 1.042304042747230e+001
0	 4.600030000017849e+000	 3.199979999988401e+000	 1.041771669512952e+001
0	 4.600030000017848e+000	 3.266639999985467e+000	 1.041175706054699e+001
0	 4.600030000017848e+000	 3.333299999983334e+000	 1.040511205113857e+001
0	 4.666700000016666e+000	 2.666700000016666e+000	 1.043550185450438e+001
0	 4.666700000016666e+000	 2.733360000014533e+000	 1.043410257573875e+001
0	 4.666700000016665e+000	 2.800020000011599e+000	 1.043226335487451e+001
0	 4.666700000016666e+000	 2.866680000008067e+000	 1.042995132568431e+001
0	 4.666700000016667e+000	 2.933340000004133e+000	 1.042713362194082e+001
0	 4.666700000016666e+000	 3.000000000000000e+000	 1.042377737741675e+001
0	 4.666700000016665e+000	 3.066659999995866e+000	 1.041984972588478e+001
0	 4.666700000016666e+000	 3.133319999991934e+000	 1.041531780111768e+001
0	 4.666700000016665e+000	 3.199979999988400e+000	 1.041014873688816e+001
0	 4.666700000016665e+000	 3.266639999985467e+000	 1.040430966696900e+001
0	 4.666700000016666e+000	 3.333299999983334e+000	 1.039776772513298e+001
0	 4.000000000000000e+000	 3.333299999983333e+000	 1.045559182737608e+001
0	 4.000000000000000e+000	 3.399969999982150e+000	 1.044583246239882e+001
0	 4.000000000000001e+000	 3.466639999981866e+000	 1.043607168728258e+001
0	 4.000000000000000e+000	 3.533309999982383e+000	 1.042626611127161e+001
0	 4.000000000000000e+000	 3.599979999983600e+000	 1.041637234361006e+001
0	 4.000000000000001e+000	 3.666649999985417e+000	 1.040634699354219e+001
0	 4.000000000000001e+000	 3.733319999987733e+000	 1.039614667031215e+001
0	 4.000000000000001e+000	 3.799989999990450e+000	 1.038572798316417e+001
0	 4.000000000000000e+000	 3.866659999993467e+000	 1.037504754134243e+001
0	 3.999999999999999e+000	 3.933329999996683e+000	 1.036406195409110e+001
0	 4.000000000000000e+000	 4.000000000000000e+000	 1.035272783065437e+001
0	 4.066670000003317e+000	 3.333299999983334e+000	 1.045115377513365e+001
0	 4.066670000003317e+000	 3.399969999982150e+000	 1.044227292142285e+001
0	 4.066670000003318e+000	 3.466639999981866e+000	 1.043323889504994e+001
0	 4.066670000003315e+000	 3.533309999982382e+000	 1.042402812582354e+001
0	 4.066670000003316e+000	 3.599979999983600e+000	 1.041461704355223e+001
0	 4.066670000003317e+000	 3.666649999985416e+000	 1.040498207804461e+001
0	 4.066670000003318e+000	 3.733319999987734e+000	 1.039509965910928e+001
0	 4.066670000003317e+000	 3.799989999990450e+000	 1.038494621655479e+001
0	 4.066670000003317e+000	 3.866659999993466e+000	 1.037449818018975e+001
0	 4.066670000003317e+000	 3.933329999996684e+000	 1.036373197982272e+001
0	 4.066670000003317e+000	 4.000000000000001e+000	 1.035262404526227e+001
0	 4.133340000006533e+000	 3.333299999983333e+000	 1.044646532285067e+001
0	 4.133340000006534e+000	 3.399969999982150e+000	 1.043823106921562e+001
0	 4.133340000006534e+000	 3.466639999981867e+000	 1.042974202240482e+001
0	 4.133340000006534e+000	 3.533309999982382e+000	 1.042099101813469e+001
0	 4.133340000006533e+000	 3.599979999983600e+000	 1.041197089212161e+001
0	 4.133340000006534e+000	 3.666649999985416e+000	 1.040267448008199e+001
0	 4.133340000006534e+000	 3.733319999987733e+000	 1.039309461773221e+001
0	 4.133340000006534e+000	 3.799989999990451e+000	 1.038322414078866e+001
0	 4.133340000006533e+000	 3.866659999993467e+000	 1.037305588496770e+001
0	 4.133340000006534e+000	 3.933329999996684e+000	 1.036258268598573e+001
0	 4.133340000006533e+000	 4.000000000000001e+000	 1.035179737955911e+001
0	 4.200010000009550e+000	 3.333299999983334e+000	 1.044150834071051e+001
0	 4.200010000009550e+000	 3.399969999982150e+000	 1.043372637685286e+001
0	 4.200010000009551e+000	 3.466639999981867e+000	 1.042563212344416e+001
0	 4.200010000009551e+000	 3.533309999982383e+000	 1.041723140745202e+001
0	 4.200010000009551e+000	 3.599979999983601e+000	 1.040853005584406e+001
0	 4.200010000009550e+000	 3.666649999985415e+000	 1.039953389558787e+001
0	 4.200010000009551e+000	 3.733319999987733e+000	 1.039024875365108e+001
0	 4.200010000009550e+000	 3.799989999990450e+000	 1.038068045700126e+001
0	 4.200010000009550e+000	 3.866659999993467e+000	 1.037083483260602e+001
0	 4.200010000009549e+000	 3.933329999996684e+000	 1.036071770743295e+001
0	 4.200010000009550e+000	 4.000000000000000e+000	 1.035033490844963e+001
0	 4.266680000012266e+000	 3.333299999983333e+000	 1.043626469889657e+001
0	 4.266680000012267e+000	 3.399969999982151e+000	 1.042877831541031e+001
0	 4.266680000012267e+000	 3.466639999981867e+000	 1.042096025226488e+001
0	 4.266680000012266e+000	 3.533309999982384e+000	 1.041282591302249e+001
0	 4.266680000012268e+000	 3.599979999983600e+000	 1.040439070124538e+001
0	 4.266680000012268e+000	 3.666649999985416e+000	 1.039567002049579e+001
0	 4.266680000012268e+000	 3.733319999987733e+000	 1.038667927433596e+001
0	 4.266680000012266e+000	 3.799989999990449e+000	 1.037743386632809e+001
0	 4.266680000012268e+000	 3.866659999993467e+000	 1.036794920003443e+001
0	 4.266680000012267e+000	 3.933329999996684e+000	 1.035824067901717e+001
0	 4.266680000012267e+000	 4.000000000000001e+000	 1.034832370683854e+001
0	 4.333350000014582e+000	 3.333299999983333e+000	 1.043071626759223e+001
0	 4.333350000014584e+000	 3.399969999982150e+000	 1.042340635596374e+001
0	 4.333350000014582e+000	 3.466639999981867e+000	 1.041577746296392e+001
0	 4.333350000014582e+000	 3.533309999982383e+000	 1.040785115409305e+001
0	 4.333350000014584e+000	 3.599979999983600e+000	 1.039964899485143e+001
0	 4.333350000014584e+000	 3.666649999985416e+000	 1.039119255073930e+001
0	 4.333350000014582e+000	 3.733319999987733e+000	 1.038250338725696e+001
0	 4.333350000014583e+000	 3.799989999990450e+000	 1.037360306990465e+001
0	 4.333350000014584e+000	 3.866659999993467e+000	 1.036451316418265e+001
0	 4.333350000014584e+000	 3.933329999996683e+000	 1.035525523559121e+001
0	 4.333350000014585e+000	 4.000000000000000e+000	 1.034585084963057e+001
0	 4.400020000016401e+000	 3.333299999983334e+000	 1.042484491698088e+001
0	 4.400020000016399e+000	 3.399969999982149e+000	 1.041762996958884e+001
0	 4.400020000016400e+000	 3.466639999981866e+000	 1.041013480963820e+001
0	 4.400020000016400e+000	 3.533309999982383e+000	 1.040238374991068e+001
0	 4.400020000016401e+000	 3.599979999983600e+000	 1.039440110318802e+001
0	 4.400020000016399e+000	 3.666649999985415e+000	 1.038621118225194e+001
0	 4.400020000016400e+000	 3.733319999987733e+000	 1.037783829988417e+001
0	 4.400020000016399e+000	 3.799989999990451e+000	 1.036930676886643e+001
0	 4.400020000016399e+000	 3.866659999993466e+000	 1.036064090198041e+001
0	 4.400020000016399e+000	 3.933329999996684e+000	 1.035186501200785e+001
0	 4.400020000016400e+000	 4.000000000000000e+000	 1.034300341173045e+001
0	 4.466690000017616e+000	 3.333299999983334e+000	 1.041863251724591e+001
0	 4.466690000017617e+000	 3.399969999982150e+000	 1.041146862736137e+001
0	 4.466690000017617e+000	 3.466639999981867e+000	 1.040408334638465e+001
0	 4.466690000017617e+000	 3.533309999982383e+000	 1.039650031972233e+001
0	 4.466690000017616e+000	 3.599979999983599e+000	 1.038874319278100e+001
0	 4.466690000017617e+000	 3.666649999985417e+000	 1.038083561096727e+001
0	 4.466690000017615e+000	 3.733319999987733e+000	 1.037280121968770e+001
0	 4.466690000017616e+000	 3.799989999990450e+000	 1.036466366434890e+001
0	 4.466690000017618e+000	 3.866659999993467e+000	 1.035644659035745e+001
0	 4.466690000017615e+000	 3.933329999996683e+000	 1.034817364311992e+001
0	 4.466690000017616e+000	 4.000000000000001e+000	 1.033986846804288e+001
0	 4.533360000018131e+000	 3.333299999983334e+000	 1.041206093857067e+001
0	 4.533360000018132e+000	 3.399969999982150e+000	 1.040494180035706e+001
0	 4.533360000018132e+000	 3.466639999981867e+000	 1.039767412730018e+001
0	 4.533360000018132e+000	 3.533309999982382e+000	 1.039027748277494e+001
0	 4.533360000018132e+000	 3.599979999983599e+000	 1.038277143015619e+001
0	 4.533360000018131e+000	 3.666649999985416e+000	 1.037517553281880e+001
0	 4.533360000018131e+000	 3.733319999987734e+000	 1.036750935413765e+001
0	 4.533360000018133e+000	 3.799989999990450e+000	 1.035979245748760e+001
0	 4.533360000018131e+000	 3.866659999993466e+000	 1.035204440624350e+001
0	 4.533360000018132e+000	 3.933329999996683e+000	 1.034428476378023e+001
0	 4.533360000018131e+000	 4.000000000000001e+000	 1.033653309347263e+001
0	 4.600030000017848e+000	 3.333299999983334e+000	 1.040511205113858e+001
0	 4.600030000017849e+000	 3.399969999982150e+000	 1.039806895965162e+001
0	 4.600030000017848e+000	 3.466639999981866e+000	 1.039095820648174e+001
0	 4.600030000017849e+000	 3.533309999982383e+000	 1.038379185831548e+001
0	 4.600030000017849e+000	 3.599979999983600e+000	 1.037658198183941e+001
0	 4.600030000017848e+000	 3.666649999985416e+000	 1.036934064374010e+001
0	 4.600030000017849e+000	 3.733319999987733e+000	 1.036207991070411e+001
0	 4.600030000017848e+000	 3.799989999990450e+000	 1.035481184941799e+001
0	 4.600030000017849e+000	 3.866659999993467e+000	 1.034754852656830e+001
0	 4.600030000017848e+000	 3.933329999996683e+000	 1.034030200884158e+001
0	 4.600030000017848e+000	 4.000000000000000e+000	 1.033308436292441e+001
0	 4.666700000016666e+000	 3.333299999983334e+000	 1.039776772513298e+001
0	 4.666700000016665e+000	 3.399969999982150e+000	 1.039086957632082e+001
0	 4.666700000016666e+000	 3.466639999981866e+000	 1.038398663802623e+001
0	 4.666700000016666e+000	 3.533309999982382e+000	 1.037712006559091e+001
0	 4.666700000016665e+000	 3.599979999983599e+000	 1.037027101435650e+001
0	 4.666700000016667e+000	 3.666649999985417e+000	 1.036344063966471e+001
0	 4.666700000016667e+000	 3.733319999987733e+000	 1.035663009685718e+001
0	 4.666700000016666e+000	 3.799989999990449e+000	 1.034984054127557e+001
0	 4.666700000016667e+000	 3.866659999993467e+000	 1.034307312826156e+001
0	 4.666700000016666e+000	 3.933329999996684e+000	 1.033632901315679e+001
0	 4.666700000016667e+000	 4.000000000000001e+000	 1.032960935130294e+001
0	 4.000000000000000e+000	 4.000000000000000e+000	 1.035272783065437e+001
0	 4.000000000000000e+000	 4.066670000003317e+000	 1.034136031723042e+001
0	 4.000000000000000e+000	 4.133340000006534e+000	 1.033030049724391e+001
0	 4.000000000000000e+000	 4.200010000009550e+000	 1.031954388577876e+001
0	 4.000000000000001e+000	 4.266680000012268e+000	 1.030908599791890e+001
0	 4.000000000000000e+000	 4.333350000014584e+000	 1.029892234874828e+001
0	 4.000000000000000e+000	 4.400020000016401e+000	 1.028904845335083e+001
0	 4.000000000000000e+000	 4.466690000017617e+000	 1.027945982681048e+001
0	 4.000000000000001e+000	 4.533360000018134e+000	 1.027015198421117e+001
0	 4.000000000000000e+000	 4.600030000017851e+000	 1.026112044063687e+001
0	 4.000000000000000e+000	 4.666700000016666e+000	 1.025236071117151e+001
0	 4.066670000003317e+000	 4.000000000000001e+000	 1.035262404526227e+001
0	 4.066670000003317e+000	 4.066670000003317e+000	 1.034151512826448e+001
0	 4.066670000003317e+000	 4.133340000006534e+000	 1.033075154576433e+001
0	 4.066670000003317e+000	 4.200010000009550e+000	 1.032031807533868e+001
0	 4.066670000003318e+000	 4.266680000012268e+000	 1.031019949456444e+001
0	 4.066670000003318e+000	 4.333350000014584e+000	 1.030038058101848e+001
0	 4.066670000003317e+000	 4.400020000016400e+000	 1.029084611227769e+001
0	 4.066670000003317e+000	 4.466690000017617e+000	 1.028158086591896e+001
0	 4.066670000003316e+000	 4.533360000018134e+000	 1.027256961951920e+001
0	 4.066670000003317e+000	 4.600030000017850e+000	 1.026379715065528e+001
0	 4.066670000003317e+000	 4.666700000016667e+000	 1.025524823690411e+001
0	 4.133340000006533e+000	 4.000000000000001e+000	 1.035179737955911e+001
0	 4.133340000006534e+000	 4.066670000003318e+000	 1.034104250444860e+001
0	 4.133340000006533e+000	 4.133340000006534e+000	 1.033064942165511e+001
0	 4.133340000006533e+000	 4.200010000009550e+000	 1.032059420025520e+001
0	 4.133340000006534e+000	 4.266680000012268e+000	 1.031085290932543e+001
0	 4.133340000006532e+000	 4.333350000014584e+000	 1.030140161794238e+001
0	 4.133340000006534e+000	 4.400020000016402e+000	 1.029221639518261e+001
0	 4.133340000006534e+000	 4.466690000017618e+000	 1.028327331012271e+001
0	 4.133340000006534e+000	 4.533360000018134e+000	 1.027454843183924e+001
0	 4.133340000006534e+000	 4.600030000017851e+000	 1.026601782940877e+001
0	 4.133340000006533e+000	 4.666700000016667e+000	 1.025765757190788e+001
0	 4.200010000009550e+000	 4.000000000000000e+000	 1.035033490844963e+001
0	 4.200010000009550e+000	 4.066670000003317e+000	 1.034001117259497e+001
0	 4.200010000009550e+000	 4.133340000006535e+000	 1.033004694521816e+001
0	 4.200010000009550e+000	 4.200010000009550e+000	 1.032041161590217e+001
0	 4.200010000009550e+000	 4.266680000012268e+000	 1.031107457422999e+001
0	 4.200010000009551e+000	 4.333350000014583e+000	 1.030200520978460e+001
0	 4.200010000009550e+000	 4.400020000016402e+000	 1.029317291214895e+001
0	 4.200010000009551e+000	 4.466690000017619e+000	 1.028454707090607e+001
0	 4.200010000009550e+000	 4.533360000018135e+000	 1.027609707563890e+001
0	 4.200010000009550e+000	 4.600030000017851e+000	 1.026779231593043e+001
0	 4.200010000009550e+000	 4.666700000016666e+000	 1.025960218136368e+001
0	 4.266680000012267e+000	 4.000000000000001e+000	 1.034832370683854e+001
0	 4.266680000012267e+000	 4.066670000003317e+000	 1.033848985951578e+001
0	 4.266680000012268e+000	 4.133340000006534e+000	 1.032899693675539e+001
0	 4.266680000012267e+000	 4.200010000009550e+000	 1.031980967765350e+001
0	 4.266680000012268e+000	 4.266680000012268e+000	 1.031089282130624e+001
0	 4.266680000012268e+000	 4.333350000014583e+000	 1.030221110680971e+001
0	 4.266680000012267e+000	 4.400020000016402e+000	 1.029372927326004e+001
0	 4.266680000012266e+000	 4.466690000017617e+000	 1.028541205975334e+001
0	 4.266680000012266e+000	 4.533360000018133e+000	 1.027722420538575e+001
0	 4.266680000012267e+000	 4.600030000017851e+000	 1.026913044925338e+001
0	 4.266680000012266e+000	 4.666700000016666e+000	 1.026109553045234e+001
0	 4.333350000014585e+000	 4.000000000000000e+000	 1.034585084963057e+001
0	 4.333350000014583e+000	 4.066670000003318e+000	 1.033654729202320e+001
0	 4.333350000014582e+000	 4.133340000006534e+000	 1.032755221656870e+001
0	 4.333350000014584e+000	 4.200010000009550e+000	 1.031882774088306e+001
0	 4.333350000014583e+000	 4.266680000012268e+000	 1.031033598258227e+001
0	 4.333350000014582e+000	 4.333350000014584e+000	 1.030203905928233e+001
0	 4.333350000014583e+000	 4.400020000016401e+000	 1.029389908859920e+001
0	 4.333350000014582e+000	 4.466690000017616e+000	 1.028587818814889e+001
0	 4.333350000014583e+000	 4.533360000018132e+000	 1.027793847554738e+001
0	 4.333350000014583e+000	 4.600030000017850e+000	 1.027004206841065e+001
0	 4.333350000014582e+000	 4.666700000016665e+000	 1.026215108435470e+001
0	 4.400020000016400e+000	 4.000000000000000e+000	 1.034300341173044e+001
0	 4.400020000016399e+000	 4.066670000003317e+000	 1.033425219692944e+001
0	 4.400020000016399e+000	 4.133340000006534e+000	 1.032576560496002e+001
0	 4.400020000016399e+000	 4.200010000009550e+000	 1.031750516096476e+001
0	 4.400020000016399e+000	 4.266680000012268e+000	 1.030943239008623e+001
0	 4.400020000016399e+000	 4.333350000014584e+000	 1.030150881746706e+001
0	 4.400020000016399e+000	 4.400020000016402e+000	 1.029369596824979e+001
0	 4.400020000016399e+000	 4.466690000017615e+000	 1.028595536757704e+001
0	 4.400020000016399e+000	 4.533360000018132e+000	 1.027824854059136e+001
0	 4.400020000016399e+000	 4.600030000017850e+000	 1.027053701243536e+001
0	 4.400020000016400e+000	 4.666700000016666e+000	 1.026278230825163e+001
0	 4.466690000017616e+000	 4.000000000000001e+000	 1.033986846804288e+001
0	 4.466690000017616e+000	 4.066670000003316e+000	 1.033167330104669e+001
0	 4.466690000017616e+000	 4.133340000006534e+000	 1.032368992223123e+001
0	 4.466690000017616e+000	 4.200010000009551e+000	 1.031588129327245e+001
0	 4.466690000017615e+000	 4.266680000012268e+000	 1.030821037584623e+001
0	 4.466690000017618e+000	 4.333350000014584e+000	 1.030064013162849e+001
0	 4.466690000017616e+000	 4.400020000016401e+000	 1.029313352229515e+001
0	 4.466690000017617e+000	 4.466690000017619e+000	 1.028565350952212e+001
0	 4.466690000017618e+000	 4.533360000018133e+000	 1.027816305498530e+001
0	 4.466690000017618e+000	 4.600030000017851e+000	 1.027062512036061e+001
0	 4.466690000017615e+000	 4.666700000016665e+000	 1.026300266732396e+001
0	 4.533360000018131e+000	 4.000000000000001e+000	 1.033653309347263e+001
0	 4.533360000018134e+000	 4.066670000003318e+000	 1.032887933118715e+001
0	 4.533360000018133e+000	 4.133340000006534e+000	 1.032137798868429e+001
0	 4.533360000018130e+000	 4.200010000009550e+000	 1.031399549318005e+001
0	 4.533360000018131e+000	 4.266680000012268e+000	 1.030669827189038e+001
0	 4.533360000018131e+000	 4.333350000014583e+000	 1.029945275203125e+001
0	 4.533360000018132e+000	 4.400020000016402e+000	 1.029222536081863e+001
0	 4.533360000018132e+000	 4.466690000017617e+000	 1.028498252546848e+001
0	 4.533360000018133e+000	 4.533360000018135e+000	 1.027769067319678e+001
0	 4.533360000018133e+000	 4.600030000017851e+000	 1.027031623121948e+001
0	 4.533360000018131e+000	 4.666700000016666e+000	 1.026282562675255e+001
0	 4.600030000017848e+000	 4.000000000000000e+000	 1.033308436292441e+001
0	 4.600030000017849e+000	 4.066670000003318e+000	 1.032593901416300e+001
0	 4.600030000017850e+000	 4.133340000006535e+000	 1.031888262462110e+001
0	 4.600030000017849e+000	 4.200010000009551e+000	 1.031188711606145e+001
0	 4.600030000017848e+000	 4.266680000012267e+000	 1.030492441024681e+001
0	 4.600030000017848e+000	 4.333350000014583e+000	 1.029796642893993e+001
0	 4.600030000017849e+000	 4.400020000016401e+000	 1.029098509390356e+001
0	 4.600030000017849e+000	 4.466690000017617e+000	 1.028395232690047e+001
0	 4.600030000017847e+000	 4.533360000018132e+000	 1.027684004969338e+001
0	 4.600030000017848e+000	 4.600030000017850e+000	 1.026962018404505e+001
0	 4.600030000017850e+000	 4.666700000016668e+000	 1.026226465171823e+001
0	 4.666700000016667e+000	 4.000000000000001e+000	 1.032960935130294e+001
0	 4.666700000016666e+000	 4.066670000003317e+000	 1.032292107678646e+001
0	 4.666700000016666e+000	 4.133340000006535e+000	 1.031625665034357e+001
0	 4.666700000016667e+000	 4.200010000009550e+000	 1.030959551729054e+001
0	 4.666700000016666e+000	 4.266680000012268e+000	 1.030291712294364e+001
0	 4.666700000016665e+000	 4.333350000014583e+000	 1.029620091261915e+001
0	 4.666700000016665e+000	 4.400020000016400e+000	 1.028942633163331e+001
0	 4.666700000016667e+000	 4.466690000017618e+000	 1.028257282530240e+001
0	 4.666700000016666e+000	 4.533360000018134e+000	 1.027561983894269e+001
0	 4.666700000016668e+000	 4.600030000017852e+000	 1.026854681787042e+001
0	 4.666700000016666e+000	 4.666700000016666e+000	 1.026133320740187e+001
0	 4.000000000000000e+000	 4.666700000016666e+000	 1.025236071117151e+001
0	 4.000000000000000e+000	 4.733360000014533e+000	 1.024384495121994e+001
0	 4.000000000000000e+000	 4.800020000011600e+000	 1.023554110352100e+001
0	 4.000000000000001e+000	 4.866680000008067e+000	 1.022744224535844e+001
0	 3.999999999999999e+000	 4.933340000004133e+000	 1.021954145401595e+001
0	 3.999999999999999e+000	 5.000000000000000e+000	 1.021183180677724e+001
0	 4.000000000000000e+000	 5.066659999995866e+000	 1.020430638092601e+001
0	 4.000000000000000e+000	 5.133319999991934e+000	 1.019695825374597e+001
0	 4.000000000000001e+000	 5.199979999988400e+000	 1.018978050252080e+001
0	 4.000000000000000e+000	 5.266639999985467e+000	 1.018276620453421e+001
0	 4.000000000000000e+000	 5.333299999983334e+000	 1.017590843706987e+001
0	 4.066670000003317e+000	 4.666700000016667e+000	 1.025524823690411e+001
0	 4.066670000003317e+000	 4.733360000014532e+000	 1.024689803941614e+001
0	 4.066670000003315e+000	 4.800020000011598e+000	 1.023872773500368e+001
0	 4.066670000003319e+000	 4.866680000008067e+000	 1.023073492354104e+001
0	 4.066670000003318e+000	 4.933340000004133e+000	 1.022291720490254e+001
0	 4.066670000003317e+000	 5.000000000000000e+000	 1.021527217896251e+001
0	 4.066670000003318e+000	 5.066659999995867e+000	 1.020779744559528e+001
0	 4.066670000003318e+000	 5.133319999991933e+000	 1.020049060467516e+001
0	 4.066670000003315e+000	 5.199979999988400e+000	 1.019334925607646e+001
0	 4.066670000003317e+000	 5.266639999985467e+000	 1.018637099967351e+001
0	 4.066670000003316e+000	 5.333299999983332e+000	 1.017955343534061e+001
0	 4.133340000006533e+000	 4.666700000016667e+000	 1.025765757190788e+001
0	 4.133340000006532e+000	 4.733360000014532e+000	 1.024945301753944e+001
0	 4.133340000006533e+000	 4.800020000011599e+000	 1.024140379721303e+001
0	 4.133340000006534e+000	 4.866680000008066e+000	 1.023351111625686e+001
0	 4.133340000006533e+000	 4.933340000004134e+000	 1.022577617999913e+001
0	 4.133340000006535e+000	 5.000000000000002e+000	 1.021820019376808e+001
0	 4.133340000006534e+000	 5.066659999995867e+000	 1.021078436289188e+001
0	 4.133340000006534e+000	 5.133319999991933e+000	 1.020352989269876e+001
0	 4.133340000006534e+000	 5.199979999988401e+000	 1.019643798851690e+001
0	 4.133340000006533e+000	 5.266639999985468e+000	 1.018950985567450e+001
0	 4.133340000006533e+000	 5.333299999983334e+000	 1.018274669949975e+001
0	 4.200010000009550e+000	 4.666700000016666e+000	 1.025960218136368e+001
0	 4.200010000009551e+000	 4.733360000014534e+000	 1.025152787296482e+001
0	 4.200010000009550e+000	 4.800020000011601e+000	 1.024359115168282e+001
0	 4.200010000009550e+000	 4.866680000008064e+000	 1.023579591116305e+001
0	 4.200010000009551e+000	 4.933340000004133e+000	 1.022814604505086e+001
0	 4.200010000009553e+000	 5.000000000000001e+000	 1.022064544699161e+001
0	 4.200010000009550e+000	 5.066659999995866e+000	 1.021329801063064e+001
0	 4.200010000009550e+000	 5.133319999991934e+000	 1.020610762961332e+001
0	 4.200010000009550e+000	 5.199979999988400e+000	 1.019907819758497e+001
0	 4.200010000009550e+000	 5.266639999985467e+000	 1.019221360819095e+001
0	 4.200010000009550e+000	 5.333299999983334e+000	 1.018551775507660e+001
0	 4.266680000012266e+000	 4.666700000016666e+000	 1.026109553045234e+001
0	 4.266680000012268e+000	 4.733360000014534e+000	 1.025314059306732e+001
0	 4.266680000012265e+000	 4.800020000011599e+000	 1.024531165994688e+001
0	 4.266680000012267e+000	 4.866680000008066e+000	 1.023761439591680e+001
0	 4.266680000012266e+000	 4.933340000004134e+000	 1.023005446580284e+001
0	 4.266680000012268e+000	 5.000000000000000e+000	 1.022263753443077e+001
0	 4.266680000012266e+000	 5.066659999995866e+000	 1.021536926662637e+001
0	 4.266680000012266e+000	 5.133319999991935e+000	 1.020825532721536e+001
0	 4.266680000012267e+000	 5.199979999988400e+000	 1.020130138102355e+001
0	 4.266680000012267e+000	 5.266639999985468e+000	 1.019451309287667e+001
0	 4.266680000012265e+000	 5.333299999983333e+000	 1.018789612760047e+001
0	 4.333350000014582e+000	 4.666700000016665e+000	 1.026215108435470e+001
0	 4.333350000014582e+000	 4.733360000014533e+000	 1.025430916522196e+001
0	 4.333350000014582e+000	 4.800020000011600e+000	 1.024658718353898e+001
0	 4.333350000014583e+000	 4.866680000008066e+000	 1.023899165817524e+001
0	 4.333350000014582e+000	 4.933340000004133e+000	 1.023152910800018e+001
0	 4.333350000014582e+000	 4.999999999999998e+000	 1.022420605188323e+001
0	 4.333350000014583e+000	 5.066659999995869e+000	 1.021702900869384e+001
0	 4.333350000014583e+000	 5.133319999991934e+000	 1.021000449730146e+001
0	 4.333350000014583e+000	 5.199979999988401e+000	 1.020313903657553e+001
0	 4.333350000014582e+000	 5.266639999985467e+000	 1.019643914538544e+001
0	 4.333350000014583e+000	 5.333299999983334e+000	 1.018991134260067e+001
0	 4.400020000016400e+000	 4.666700000016666e+000	 1.026278230825163e+001
0	 4.400020000016401e+000	 4.733360000014534e+000	 1.025505157680376e+001
0	 4.400020000016399e+000	 4.800020000011600e+000	 1.024743958399293e+001
0	 4.400020000016399e+000	 4.866680000008065e+000	 1.023995278559555e+001
0	 4.400020000016400e+000	 4.933340000004133e+000	 1.023259763738799e+001
0	 4.400020000016400e+000	 5.000000000000000e+000	 1.022538059514666e+001
0	 4.400020000016400e+000	 5.066659999995867e+000	 1.021830811464791e+001
0	 4.400020000016399e+000	 5.133319999991933e+000	 1.021138665166814e+001
0	 4.400020000016400e+000	 5.199979999988400e+000	 1.020462266198373e+001
0	 4.400020000016401e+000	 5.266639999985467e+000	 1.019802260137107e+001
0	 4.400020000016400e+000	 5.333299999983333e+000	 1.019159292560650e+001
0	 4.466690000017615e+000	 4.666700000016665e+000	 1.026300266732396e+001
0	 4.466690000017615e+000	 4.733360000014532e+000	 1.025538581518776e+001
0	 4.466690000017618e+000	 4.800020000011601e+000	 1.024789072284253e+001
0	 4.466690000017617e+000	 4.866680000008068e+000	 1.024052286583488e+001
0	 4.466690000017615e+000	 4.933340000004133e+000	 1.023328771971142e+001
0	 4.466690000017618e+000	 5.000000000000000e+000	 1.022619076001871e+001
0	 4.466690000017615e+000	 5.066659999995866e+000	 1.021923746230337e+001
0	 4.466690000017616e+000	 5.133319999991935e+000	 1.021243330211197e+001
0	 4.466690000017618e+000	 5.199979999988400e+000	 1.020578375499110e+001
0	 4.466690000017614e+000	 5.266639999985467e+000	 1.019929429648735e+001
0	 4.466690000017616e+000	 5.333299999983335e+000	 1.019297040214729e+001
0	 4.533360000018131e+000	 4.666700000016666e+000	 1.026282562675255e+001
0	 4.533360000018132e+000	 4.733360000014534e+000	 1.025532986774897e+001
0	 4.533360000018133e+000	 4.800020000011601e+000	 1.024796246162157e+001
0	 4.533360000018133e+000	 4.866680000008067e+000	 1.024072698655041e+001
0	 4.533360000018132e+000	 4.933340000004135e+000	 1.023362702071556e+001
0	 4.533360000018132e+000	 5.000000000000001e+000	 1.022666614229708e+001
0	 4.533360000018133e+000	 5.066659999995866e+000	 1.021984792947503e+001
0	 4.533360000018133e+000	 5.133319999991935e+000	 1.021317596042948e+001
0	 4.533360000018132e+000	 5.199979999988401e+000	 1.020665381334047e+001
0	 4.533360000018132e+000	 5.266639999985467e+000	 1.020028506638807e+001
0	 4.533360000018131e+000	 5.333299999983334e+000	 1.019407329775233e+001
0	 4.600030000017850e+000	 4.666700000016668e+000	 1.026226465171823e+001
0	 4.600030000017849e+000	 4.733360000014534e+000	 1.025490172186244e+001
0	 4.600030000017848e+000	 4.800020000011601e+000	 1.024767666186385e+001
0	 4.600030000017848e+000	 4.866680000008065e+000	 1.024059023539929e+001
0	 4.600030000017848e+000	 4.933340000004134e+000	 1.023364320614554e+001
0	 4.600030000017849e+000	 4.999999999999999e+000	 1.022683633777942e+001
0	 4.600030000017848e+000	 5.066659999995866e+000	 1.022017039397771e+001
0	 4.600030000017849e+000	 5.133319999991935e+000	 1.021364613841722e+001
0	 4.600030000017849e+000	 5.199979999988401e+000	 1.020726433477474e+001
0	 4.600030000017848e+000	 5.266639999985468e+000	 1.020102574672704e+001
0	 4.600030000017849e+000	 5.333299999983335e+000	 1.019493113795094e+001
0	 4.666700000016666e+000	 4.666700000016666e+000	 1.026133320740187e+001
0	 4.666700000016666e+000	 4.733360000014534e+000	 1.025411936490317e+001
0	 4.666700000016665e+000	 4.800020000011599e+000	 1.024705518510318e+001
0	 4.666700000016666e+000	 4.866680000008067e+000	 1.024013770003868e+001
0	 4.666700000016667e+000	 4.933340000004135e+000	 1.023336394174649e+001
0	 4.666700000016666e+000	 5.000000000000001e+000	 1.022673094226341e+001
0	 4.666700000016667e+000	 5.066659999995867e+000	 1.022023573362624e+001
0	 4.666700000016666e+000	 5.133319999991935e+000	 1.021387534787175e+001
0	 4.666700000016665e+000	 5.199979999988400e+000	 1.020764681703677e+001
0	 4.666700000016667e+000	 5.266639999985468e+000	 1.020154717315806e+001
0	 4.666700000016667e+000	 5.333299999983335e+000	 1.019557344827244e+001
0	 4.000000000000000e+000	 5.333299999983334e+000	 1.017590843706987e+001
0	 4.000000000000000e+000	 5.399969999982148e+000	 1.016922518805760e+001
0	 4.000000000000002e+000	 5.466639999981868e+000	 1.016273956714298e+001
0	 4.000000000000000e+000	 5.533309999982382e+000	 1.015644928206369e+001
0	 4.000000000000001e+000	 5.599979999983600e+000	 1.015035204055742e+001
0	 4.000000000000001e+000	 5.666649999985416e+000	 1.014444555036188e+001
0	 4.000000000000001e+000	 5.733319999987733e+000	 1.013872751921477e+001
0	 4.000000000000000e+000	 5.799989999990448e+000	 1.013319565485377e+001
0	 4.000000000000001e+000	 5.866659999993468e+000	 1.012784766501661e+001
0	 4.000000000000000e+000	 5.933329999996682e+000	 1.012268125744099e+001
0	 4.000000000000000e+000	 6.000000000000001e+000	 1.011769413986462e+001
0	 4.066670000003316e+000	 5.333299999983332e+000	 1.017955343534061e+001
0	 4.066670000003317e+000	 5.399969999982150e+000	 1.017291207554020e+001
0	 4.066670000003318e+000	 5.466639999981867e+000	 1.016646335804322e+001
0	 4.066670000003317e+000	 5.533309999982384e+000	 1.016020323827505e+001
0	 4.066670000003316e+000	 5.599979999983599e+000	 1.015412767166110e+001
0	 4.066670000003317e+000	 5.666649999985415e+000	 1.014823261362683e+001
0	 4.066670000003318e+000	 5.733319999987733e+000	 1.014251401959765e+001
0	 4.066670000003318e+000	 5.799989999990451e+000	 1.013696784499899e+001
0	 4.066670000003317e+000	 5.866659999993468e+000	 1.013159004525628e+001
0	 4.066670000003316e+000	 5.933329999996683e+000	 1.012637657579494e+001
0	 4.066670000003316e+000	 5.999999999999999e+000	 1.012132339204043e+001
0	 4.133340000006533e+000	 5.333299999983334e+000	 1.018274669949975e+001
0	 4.133340000006534e+000	 5.399969999982150e+000	 1.017616080226416e+001
0	 4.133340000006533e+000	 5.466639999981865e+000	 1.016976201787844e+001
0	 4.133340000006533e+000	 5.533309999982382e+000	 1.016354490270927e+001
0	 4.133340000006534e+000	 5.599979999983601e+000	 1.015750401312331e+001
0	 4.133340000006533e+000	 5.666649999985417e+000	 1.015163390548723e+001
0	 4.133340000006535e+000	 5.733319999987733e+000	 1.014592913616768e+001
0	 4.133340000006532e+000	 5.799989999990449e+000	 1.014038426153135e+001
0	 4.133340000006532e+000	 5.866659999993466e+000	 1.013499383794489e+001
0	 4.133340000006533e+000	 5.933329999996684e+000	 1.012975242177496e+001
0	 4.133340000006532e+000	 6.000000000000000e+000	 1.012465456938826e+001
0	 4.200010000009550e+000	 5.333299999983334e+000	 1.018551775507659e+001
0	 4.200010000009550e+000	 5.399969999982150e+000	 1.017899921640798e+001
0	 4.200010000009550e+000	 5.466639999981865e+000	 1.017266163154969e+001
0	 4.200010000009551e+000	 5.533309999982384e+000	 1.016649851106313e+001
0	 4.200010000009550e+000	 5.599979999983600e+000	 1.016050336550969e+001
0	 4.200010000009549e+000	 5.666649999985416e+000	 1.015466970545085e+001
0	 4.200010000009550e+000	 5.733319999987733e+000	 1.014899104144796e+001
0	 4.200010000009550e+000	 5.799989999990450e+000	 1.014346088406246e+001
0	 4.200010000009550e+000	 5.866659999993467e+000	 1.013807274385578e+001
0	 4.200010000009550e+000	 5.933329999996684e+000	 1.013282013138935e+001
0	 4.200010000009550e+000	 5.999999999999998e+000	 1.012769655722460e+001
0	 4.266680000012265e+000	 5.333299999983333e+000	 1.018789612760047e+001
0	 4.266680000012267e+000	 5.399969999982151e+000	 1.018145516615030e+001
0	 4.266680000012266e+000	 5.466639999981866e+000	 1.017518828395804e+001
0	 4.266680000012267e+000	 5.533309999982383e+000	 1.016908829903334e+001
0	 4.266680000012268e+000	 5.599979999983600e+000	 1.016314802938590e+001
0	 4.266680000012268e+000	 5.666649999985417e+000	 1.015736029302539e+001
0	 4.266680000012268e+000	 5.733319999987733e+000	 1.015171790796151e+001
0	 4.266680000012266e+000	 5.799989999990449e+000	 1.014621369220393e+001
0	 4.266680000012268e+000	 5.866659999993467e+000	 1.014084046376235e+001
0	 4.266680000012267e+000	 5.933329999996683e+000	 1.013559104064642e+001
0	 4.266680000012267e+000	 6.000000000000000e+000	 1.013045824086586e+001
0	 4.333350000014583e+000	 5.333299999983334e+000	 1.018991134260067e+001
0	 4.333350000014583e+000	 5.399969999982149e+000	 1.018355649966968e+001
0	 4.333350000014583e+000	 5.466639999981866e+000	 1.017736806000452e+001
0	 4.333350000014582e+000	 5.533309999982382e+000	 1.017133850231667e+001
0	 4.333350000014583e+000	 5.599979999983598e+000	 1.016546030531757e+001
0	 4.333350000014584e+000	 5.666649999985417e+000	 1.015972594771868e+001
0	 4.333350000014583e+000	 5.733319999987733e+000	 1.015412790823147e+001
0	 4.333350000014583e+000	 5.799989999990449e+000	 1.014865866556738e+001
0	 4.333350000014583e+000	 5.866659999993468e+000	 1.014331069843789e+001
0	 4.333350000014584e+000	 5.933329999996684e+000	 1.013807648555446e+001
0	 4.333350000014585e+000	 6.000000000000001e+000	 1.013294850562855e+001
0	 4.400020000016400e+000	 5.333299999983333e+000	 1.019159292560650e+001
0	 4.400020000016400e+000	 5.399969999982149e+000	 1.018533106514469e+001
0	 4.400020000016401e+000	 5.466639999981866e+000	 1.017922704459022e+001
0	 4.400020000016399e+000	 5.533309999982382e+000	 1.017327335660987e+001
0	 4.400020000016400e+000	 5.599979999983599e+000	 1.016746249387036e+001
0	 4.400020000016399e+000	 5.666649999985414e+000	 1.016178694903844e+001
0	 4.400020000016400e+000	 5.733319999987732e+000	 1.015623921478087e+001
0	 4.400020000016400e+000	 5.799989999990449e+000	 1.015081178376440e+001
0	 4.400020000016401e+000	 5.866659999993468e+000	 1.014549714865579e+001
0	 4.400020000016399e+000	 5.933329999996682e+000	 1.014028780212178e+001
0	 4.400020000016400e+000	 6.000000000000000e+000	 1.013517623682913e+001
0	 4.466690000017616e+000	 5.333299999983335e+000	 1.019297040214729e+001
0	 4.466690000017618e+000	 5.399969999982151e+000	 1.018680671075392e+001
0	 4.466690000017616e+000	 5.466639999981865e+000	 1.018079132261620e+001
0	 4.466690000017615e+000	 5.533309999982382e+000	 1.017491709760967e+001
0	 4.466690000017616e+000	 5.599979999983600e+000	 1.016917689560992e+001
0	 4.466690000017615e+000	 5.666649999985417e+000	 1.016356357649245e+001
0	 4.466690000017614e+000	 5.733319999987733e+000	 1.015807000013283e+001
0	 4.466690000017616e+000	 5.799989999990449e+000	 1.015268902640664e+001
0	 4.466690000017617e+000	 5.866659999993466e+000	 1.014741351518940e+001
0	 4.466690000017616e+000	 5.933329999996682e+000	 1.014223632635668e+001
0	 4.466690000017617e+000	 6.000000000000001e+000	 1.013715031978405e+001
0	 4.533360000018131e+000	 5.333299999983334e+000	 1.019407329775233e+001
0	 4.533360000018133e+000	 5.399969999982151e+000	 1.018801128467594e+001
0	 4.533360000018131e+000	 5.466639999981865e+000	 1.018208697898348e+001
0	 4.533360000018134e+000	 5.533309999982383e+000	 1.017629396101284e+001
0	 4.533360000018132e+000	 5.599979999983599e+000	 1.017062581110188e+001
0	 4.533360000018132e+000	 5.666649999985416e+000	 1.016507610958845e+001
0	 4.533360000018131e+000	 5.733319999987733e+000	 1.015963843681043e+001
0	 4.533360000018132e+000	 5.799989999990448e+000	 1.015430637310567e+001
0	 4.533360000018133e+000	 5.866659999993467e+000	 1.014907349881208e+001
0	 4.533360000018134e+000	 5.933329999996684e+000	 1.014393339426750e+001
0	 4.533360000018132e+000	 6.000000000000000e+000	 1.013887963980980e+001
0	 4.600030000017849e+000	 5.333299999983335e+000	 1.019493113795094e+001
0	 4.600030000017848e+000	 5.399969999982150e+000	 1.018897263508934e+001
0	 4.600030000017849e+000	 5.466639999981867e+000	 1.018314009859317e+001
0	 4.600030000017849e+000	 5.533309999982384e+000	 1.017742818251614e+001
0	 4.600030000017849e+000	 5.599979999983599e+000	 1.017183154091193e+001
0	 4.600030000017848e+000	 5.666649999985417e+000	 1.016634482783421e+001
0	 4.600030000017848e+000	 5.733319999987731e+000	 1.016096269733673e+001
0	 4.600030000017848e+000	 5.799989999990449e+000	 1.015567980347314e+001
0	 4.600030000017849e+000	 5.866659999993467e+000	 1.015049080029717e+001
0	 4.600030000017849e+000	 5.933329999996683e+000	 1.014539034186250e+001
0	 4.600030000017848e+000	 6.000000000000001e+000	 1.014037308222284e+001
0	 4.666700000016667e+000	 5.333299999983335e+000	 1.019557344827244e+001
0	 4.666700000016665e+000	 5.399969999982150e+000	 1.018971861017271e+001
0	 4.666700000016666e+000	 5.466639999981867e+000	 1.018397676634632e+001
0	 4.666700000016665e+000	 5.533309999982382e+000	 1.017834399781630e+001
0	 4.666700000016666e+000	 5.599979999983599e+000	 1.017281638560569e+001
0	 4.666700000016665e+000	 5.666649999985416e+000	 1.016739001073752e+001
0	 4.666700000016666e+000	 5.733319999987732e+000	 1.016206095423483e+001
0	 4.666700000016666e+000	 5.799989999990449e+000	 1.015682529712065e+001
0	 4.666700000016666e+000	 5.866659999993467e+000	 1.015167912041804e+001
0	 4.666700000016667e+000	 5.933329999996684e+000	 1.014661850515002e+001
0	 4.666700000016666e+000	 6.000000000000000e+000	 1.014163953233964e+001
0	 4.000000000000000e+000	 6.000000000000001e+000	 1.011769413986462e+001
0	 4.000000000000000e+000	 6.066670000003314e+000	 1.011286761751654e+001
0	 4.000000000000001e+000	 6.133340000006534e+000	 1.010818645141755e+001
0	 4.000000000000000e+000	 6.200010000009551e+000	 1.010365353299309e+001
0	 4.000000000000001e+000	 6.266680000012268e+000	 1.009927175366854e+001
0	 4.000000000000000e+000	 6.333350000014584e+000	 1.009504400486931e+001
0	 3.999999999999999e+000	 6.400020000016398e+000	 1.009097317802080e+001
0	 4.000000000000000e+000	 6.466690000017617e+000	 1.008706216454841e+001
0	 4.000000000000000e+000	 6.533360000018133e+000	 1.008331385587754e+001
0	 4.000000000000000e+000	 6.600030000017848e+000	 1.007973114343362e+001
0	 4.000000000000000e+000	 6.666700000016665e+000	 1.007631691864206e+001
0	 4.066670000003316e+000	 5.999999999999999e+000	 1.012132339204043e+001
0	 4.066670000003317e+000	 6.066670000003316e+000	 1.011642268998527e+001
0	 4.066670000003316e+000	 6.133340000006532e+000	 1.011167106242559e+001
0	 4.066670000003317e+000	 6.200010000009550e+000	 1.010707105999227e+001
0	 4.066670000003319e+000	 6.266680000012269e+000	 1.010262523331615e+001
0	 4.066670000003316e+000	 6.333350000014583e+000	 1.009833613302810e+001
0	 4.066670000003317e+000	 6.400020000016401e+000	 1.009420630975898e+001
0	 4.066670000003318e+000	 6.466690000017618e+000	 1.009023831413965e+001
0	 4.066670000003317e+000	 6.533360000018134e+000	 1.008643469680099e+001
0	 4.066670000003317e+000	 6.600030000017851e+000	 1.008279800837388e+001
0	 4.066670000003317e+000	 6.666700000016667e+000	 1.007933079948916e+001
0	 4.133340000006532e+000	 6.000000000000000e+000	 1.012465456938826e+001
0	 4.133340000006533e+000	 6.066670000003317e+000	 1.011970104494399e+001
0	 4.133340000006533e+000	 6.133340000006534e+000	 1.011489769681633e+001
0	 4.133340000006533e+000	 6.200010000009551e+000	 1.011024670769447e+001
0	 4.133340000006534e+000	 6.266680000012267e+000	 1.010575026026764e+001
0	 4.133340000006532e+000	 6.333350000014583e+000	 1.010141053722500e+001
0	 4.133340000006535e+000	 6.400020000016401e+000	 1.009722972125577e+001
0	 4.133340000006535e+000	 6.466690000017617e+000	 1.009320999504915e+001
0	 4.133340000006532e+000	 6.533360000018134e+000	 1.008935354129434e+001
0	 4.133340000006533e+000	 6.600030000017849e+000	 1.008566254268053e+001
0	 4.133340000006534e+000	 6.666700000016666e+000	 1.008213918189693e+001
0	 4.200010000009550e+000	 5.999999999999998e+000	 1.012769655722460e+001
0	 4.200010000009548e+000	 6.066670000003315e+000	 1.012270928677855e+001
0	 4.200010000009550e+000	 6.133340000006534e+000	 1.011787110349427e+001
0	 4.200010000009550e+000	 6.200010000009553e+000	 1.011318379497216e+001
0	 4.200010000009551e+000	 6.266680000012268e+000	 1.010864914881261e+001
0	 4.200010000009550e+000	 6.333350000014583e+000	 1.010426895261603e+001
0	 4.200010000009551e+000	 6.400020000016402e+000	 1.010004499398285e+001
0	 4.200010000009550e+000	 6.466690000017617e+000	 1.009597906051348e+001
0	 4.200010000009551e+000	 6.533360000018136e+000	 1.009207293980832e+001
0	 4.200010000009550e+000	 6.600030000017851e+000	 1.008832841946778e+001
0	 4.200010000009549e+000	 6.666700000016665e+000	 1.008474728709230e+001
0	 4.266680000012267e+000	 6.000000000000000e+000	 1.013045824086586e+001
0	 4.266680000012265e+000	 6.066670000003316e+000	 1.012545401987481e+001
0	 4.266680000012268e+000	 6.133340000006534e+000	 1.012059603136392e+001
0	 4.266680000012267e+000	 6.200010000009549e+000	 1.011588564069768e+001
0	 4.266680000012268e+000	 6.266680000012267e+000	 1.011132421324061e+001
0	 4.266680000012268e+000	 6.333350000014584e+000	 1.010691311435717e+001
0	 4.266680000012268e+000	 6.400020000016403e+000	 1.010265370941189e+001
0	 4.266680000012266e+000	 6.466690000017617e+000	 1.009854736376924e+001
0	 4.266680000012266e+000	 6.533360000018135e+000	 1.009459544279373e+001
0	 4.266680000012266e+000	 6.600030000017849e+000	 1.009079931184988e+001
0	 4.266680000012267e+000	 6.666700000016666e+000	 1.008716033630216e+001
0	 4.333350000014585e+000	 6.000000000000001e+000	 1.013294850562855e+001
0	 4.333350000014583e+000	 6.066670000003317e+000	 1.012794184861863e+001
0	 4.333350000014582e+000	 6.133340000006533e+000	 1.012307722932980e+001
0	 4.333350000014582e+000	 6.200010000009551e+000	 1.011835556374350e+001
0	 4.333350000014584e+000	 6.266680000012268e+000	 1.011377776784123e+001
0	 4.333350000014582e+000	 6.333350000014582e+000	 1.010934475760441e+001
0	 4.333350000014584e+000	 6.400020000016401e+000	 1.010505744901451e+001
0	 4.333350000014582e+000	 6.466690000017615e+000	 1.010091675805300e+001
0	 4.333350000014582e+000	 6.533360000018134e+000	 1.009692360070134e+001
0	 4.333350000014584e+000	 6.600030000017850e+000	 1.009307889294099e+001
0	 4.333350000014582e+000	 6.666700000016665e+000	 1.008938355075342e+001
0	 4.400020000016400e+000	 6.000000000000000e+000	 1.013517623682913e+001
0	 4.400020000016399e+000	 6.066670000003317e+000	 1.013017937739587e+001
0	 4.400020000016400e+000	 6.133340000006532e+000	 1.012531944629641e+001
0	 4.400020000016400e+000	 6.200010000009550e+000	 1.012059688298204e+001
0	 4.400020000016399e+000	 6.266680000012267e+000	 1.011601212690404e+001
0	 4.400020000016399e+000	 6.333350000014584e+000	 1.011156561751374e+001
0	 4.400020000016400e+000	 6.400020000016399e+000	 1.010725779426241e+001
0	 4.400020000016398e+000	 6.466690000017617e+000	 1.010308909660137e+001
0	 4.400020000016401e+000	 6.533360000018135e+000	 1.009905996398191e+001
0	 4.400020000016400e+000	 6.600030000017850e+000	 1.009517083585535e+001
0	 4.400020000016401e+000	 6.666700000016666e+000	 1.009142215167299e+001
0	 4.466690000017617e+000	 6.000000000000001e+000	 1.013715031978405e+001
0	 4.466690000017616e+000	 6.066670000003316e+000	 1.013217321059240e+001
0	 4.466690000017617e+000	 6.133340000006532e+000	 1.012732743116827e+001
0	 4.466690000017617e+000	 6.200010000009551e+000	 1.012261291728569e+001
0	 4.466690000017615e+000	 6.266680000012268e+000	 1.011802960471864e+001
0	 4.466690000017616e+000	 6.333350000014584e+000	 1.011357742924115e+001
0	 4.466690000017616e+000	 6.400020000016401e+000	 1.010925632662726e+001
0	 4.466690000017616e+000	 6.466690000017617e+000	 1.010506623265094e+001
0	 4.466690000017616e+000	 6.533360000018133e+000	 1.010100708308623e+001
0	 4.466690000017617e+000	 6.600030000017851e+000	 1.009707881370717e+001
0	 4.466690000017615e+000	 6.666700000016665e+000	 1.009328136028775e+001
0	 4.533360000018132e+000	 6.000000000000000e+000	 1.013887963980980e+001
0	 4.533360000018132e+000	 6.066670000003316e+000	 1.013392995259408e+001
0	 4.533360000018132e+000	 6.133340000006533e+000	 1.012910593284990e+001
0	 4.533360000018130e+000	 6.200010000009550e+000	 1.012440698552687e+001
0	 4.533360000018131e+000	 6.266680000012268e+000	 1.011983251557458e+001
0	 4.533360000018131e+000	 6.333350000014584e+000	 1.011538192794265e+001
0	 4.533360000018133e+000	 6.400020000016402e+000	 1.011105462758069e+001
0	 4.533360000018133e+000	 6.466690000017616e+000	 1.010685001943828e+001
0	 4.533360000018132e+000	 6.533360000018135e+000	 1.010276750846507e+001
0	 4.533360000018134e+000	 6.600030000017852e+000	 1.009880649961064e+001
0	 4.533360000018133e+000	 6.666700000016666e+000	 1.009496639782462e+001
0	 4.600030000017848e+000	 6.000000000000001e+000	 1.014037308222284e+001
0	 4.600030000017849e+000	 6.066670000003317e+000	 1.013545620778678e+001
0	 4.600030000017849e+000	 6.133340000006534e+000	 1.013065970024581e+001
0	 4.600030000017847e+000	 6.200010000009550e+000	 1.012598240657801e+001
0	 4.600030000017848e+000	 6.266680000012268e+000	 1.012142317376147e+001
0	 4.600030000017849e+000	 6.333350000014584e+000	 1.011698084877424e+001
0	 4.600030000017848e+000	 6.400020000016399e+000	 1.011265427859440e+001
0	 4.600030000017848e+000	 6.466690000017617e+000	 1.010844231020002e+001
0	 4.600030000017850e+000	 6.533360000018135e+000	 1.010434379056921e+001
0	 4.600030000017848e+000	 6.600030000017850e+000	 1.010035756668000e+001
0	 4.600030000017849e+000	 6.666700000016666e+000	 1.009648248551052e+001
0	 4.666700000016666e+000	 6.000000000000000e+000	 1.014163953233964e+001
0	 4.666700000016665e+000	 6.066670000003318e+000	 1.013675858055635e+001
0	 4.666700000016667e+000	 6.133340000006533e+000	 1.013199348226051e+001
0	 4.666700000016666e+000	 6.200010000009551e+000	 1.012734249931154e+001
0	 4.666700000016667e+000	 6.266680000012267e+000	 1.012280389356888e+001
0	 4.666700000016667e+000	 6.333350000014587e+000	 1.011837592689190e+001
0	 4.666700000016666e+000	 6.400020000016402e+000	 1.011405686114005e+001
0	 4.666700000016667e+000	 6.466690000017617e+000	 1.010984495817274e+001
0	 4.666700000016666e+000	 6.533360000018133e+000	 1.010573847984940e+001
0	 4.666700000016666e+000	 6.600030000017847e+000	 1.010173568802946e+001
0	 4.666700000016666e+000	 6.666700000016667e+000	 1.009783484457232e+001
0	 4.000000000000000e+000	 6.666700000016665e+000	 1.007631691864206e+001
0	 4.000000000000001e+000	 6.733360000014532e+000	 1.007303474836201e+001
0	 4.000000000000000e+000	 6.800020000011598e+000	 1.006984454470809e+001
0	 4.000000000000000e+000	 6.866680000008068e+000	 1.006674521497174e+001
0	 4.000000000000001e+000	 6.933340000004132e+000	 1.006373566644438e+001
0	 4.000000000000000e+000	 6.999999999999998e+000	 1.006081480641745e+001
0	 4.000000000000000e+000	 7.066659999995868e+000	 1.005798154218236e+001
0	 4.000000000000000e+000	 7.133319999991934e+000	 1.005523478103053e+001
0	 4.000000000000001e+000	 7.199979999988402e+000	 1.005257343025337e+001
0	 4.000000000000001e+000	 7.266639999985467e+000	 1.004999639714231e+001
0	 4.000000000000001e+000	 7.333299999983335e+000	 1.004750258898877e+001
0	 4.066670000003317e+000	 6.666700000016667e+000	 1.007933079948916e+001
0	 4.066670000003318e+000	 6.733360000014534e+000	 1.007599232673330e+001
0	 4.066670000003316e+000	 6.800020000011600e+000	 1.007273872635934e+001
0	 4.066670000003319e+000	 6.866680000008067e+000	 1.006956939015035e+001
0	 4.066670000003318e+000	 6.933340000004136e+000	 1.006648370988944e+001
0	 4.066670000003318e+000	 7.000000000000002e+000	 1.006348107735970e+001
0	 4.066670000003319e+000	 7.066659999995869e+000	 1.006056088434419e+001
0	 4.066670000003319e+000	 7.133319999991935e+000	 1.005772252262604e+001
0	 4.066670000003316e+000	 7.199979999988399e+000	 1.005496538398829e+001
0	 4.066670000003317e+000	 7.266639999985467e+000	 1.005228886021407e+001
0	 4.066670000003317e+000	 7.333299999983334e+000	 1.004969234308642e+001
0	 4.133340000006534e+000	 6.666700000016666e+000	 1.008213918189693e+001
0	 4.133340000006534e+000	 6.733360000014533e+000	 1.007874111564594e+001
0	 4.133340000006533e+000	 6.800020000011598e+000	 1.007542338062011e+001
0	 4.133340000006535e+000	 6.866680000008068e+000	 1.007218577688289e+001
0	 4.133340000006534e+000	 6.933340000004133e+000	 1.006902810449780e+001
0	 4.133340000006534e+000	 6.999999999999997e+000	 1.006595016352830e+001
0	 4.133340000006534e+000	 7.066659999995868e+000	 1.006295175403788e+001
0	 4.133340000006534e+000	 7.133319999991934e+000	 1.006003267608999e+001
0	 4.133340000006533e+000	 7.199979999988399e+000	 1.005719272974815e+001
0	 4.133340000006533e+000	 7.266639999985467e+000	 1.005443171507580e+001
0	 4.133340000006533e+000	 7.333299999983331e+000	 1.005174943213642e+001
0	 4.200010000009549e+000	 6.666700000016665e+000	 1.008474728709230e+001
0	 4.200010000009550e+000	 6.733360000014530e+000	 1.008128790155686e+001
0	 4.200010000009550e+000	 6.800020000011600e+000	 1.007790646849100e+001
0	 4.200010000009551e+000	 6.866680000008067e+000	 1.007460312002729e+001
0	 4.200010000009551e+000	 6.933340000004134e+000	 1.007137798829834e+001
0	 4.200010000009552e+000	 7.000000000000001e+000	 1.006823120543676e+001
0	 4.200010000009552e+000	 7.066659999995866e+000	 1.006516290357512e+001
0	 4.200010000009551e+000	 7.133319999991935e+000	 1.006217321484603e+001
0	 4.200010000009550e+000	 7.199979999988400e+000	 1.005926227138207e+001
0	 4.200010000009550e+000	 7.266639999985467e+000	 1.005643020531582e+001
0	 4.200010000009550e+000	 7.333299999983334e+000	 1.005367714877989e+001
0	 4.266680000012267e+000	 6.666700000016666e+000	 1.008716033630217e+001
0	 4.266680000012267e+000	 6.733360000014534e+000	 1.008363947092300e+001
0	 4.266680000012266e+000	 6.800020000011599e+000	 1.008019595097261e+001
0	 4.266680000012267e+000	 6.866680000008067e+000	 1.007683016444145e+001
0	 4.266680000012266e+000	 6.933340000004132e+000	 1.007354249931995e+001
0	 4.266680000012266e+000	 6.999999999999997e+000	 1.007033334359854e+001
0	 4.266680000012266e+000	 7.066659999995866e+000	 1.006720308526766e+001
0	 4.266680000012268e+000	 7.133319999991934e+000	 1.006415211231774e+001
0	 4.266680000012266e+000	 7.199979999988400e+000	 1.006118081273920e+001
0	 4.266680000012268e+000	 7.266639999985468e+000	 1.005828957452247e+001
0	 4.266680000012265e+000	 7.333299999983333e+000	 1.005547878565797e+001
0	 4.333350000014582e+000	 6.666700000016665e+000	 1.008938355075343e+001
0	 4.333350000014582e+000	 6.733360000014533e+000	 1.008580261020127e+001
0	 4.333350000014582e+000	 6.800020000011600e+000	 1.008229978906555e+001
0	 4.333350000014583e+000	 6.866680000008066e+000	 1.007887565498328e+001
0	 4.333350000014583e+000	 6.933340000004134e+000	 1.007553077559149e+001
0	 4.333350000014583e+000	 7.000000000000000e+000	 1.007226571852713e+001
0	 4.333350000014582e+000	 7.066659999995867e+000	 1.006908105142722e+001
0	 4.333350000014584e+000	 7.133319999991933e+000	 1.006597734192873e+001
0	 4.333350000014582e+000	 7.199979999988400e+000	 1.006295515766869e+001
0	 4.333350000014583e+000	 7.266639999985467e+000	 1.006001506628406e+001
0	 4.333350000014583e+000	 7.333299999983334e+000	 1.005715763541181e+001
0	 4.400020000016401e+000	 6.666700000016666e+000	 1.009142215167299e+001
0	 4.400020000016400e+000	 6.733360000014531e+000	 1.008778410584860e+001
0	 4.400020000016399e+000	 6.800020000011599e+000	 1.008422594377043e+001
0	 4.400020000016398e+000	 6.866680000008064e+000	 1.008074833651076e+001
0	 4.400020000016400e+000	 6.933340000004134e+000	 1.007735195514186e+001
0	 4.400020000016399e+000	 6.999999999999999e+000	 1.007403747073602e+001
0	 4.400020000016400e+000	 7.066659999995868e+000	 1.007080555436551e+001
0	 4.400020000016400e+000	 7.133319999991934e+000	 1.006765687710266e+001
0	 4.400020000016399e+000	 7.199979999988400e+000	 1.006459211001968e+001
0	 4.400020000016401e+000	 7.266639999985467e+000	 1.006161192418890e+001
0	 4.400020000016400e+000	 7.333299999983333e+000	 1.005871699068256e+001
0	 4.466690000017615e+000	 6.666700000016665e+000	 1.009328136028775e+001
0	 4.466690000017616e+000	 6.733360000014533e+000	 1.008959074432196e+001
0	 4.466690000017618e+000	 6.800020000011601e+000	 1.008598237608786e+001
0	 4.466690000017615e+000	 6.866680000008068e+000	 1.008245695388174e+001
0	 4.466690000017615e+000	 6.933340000004133e+000	 1.007901517599992e+001
0	 4.466690000017617e+000	 7.000000000000000e+000	 1.007565774073867e+001
0	 4.466690000017615e+000	 7.066659999995867e+000	 1.007238534639430e+001
0	 4.466690000017616e+000	 7.133319999991935e+000	 1.006919869126309e+001
0	 4.466690000017616e+000	 7.199979999988399e+000	 1.006609847364134e+001
0	 4.466690000017615e+000	 7.266639999985466e+000	 1.006308539182532e+001
0	 4.466690000017616e+000	 7.333299999983335e+000	 1.006016014411132e+001
0	 4.533360000018133e+000	 6.666700000016666e+000	 1.009496639782463e+001
0	 4.533360000018131e+000	 6.733360000014534e+000	 1.009122931207825e+001
0	 4.533360000018134e+000	 6.800020000011600e+000	 1.008757704701843e+001
0	 4.533360000018134e+000	 6.866680000008068e+000	 1.008401025195419e+001
0	 4.533360000018132e+000	 6.933340000004134e+000	 1.008052957619456e+001
0	 4.533360000018132e+000	 6.999999999999998e+000	 1.007713566904859e+001
0	 4.533360000018133e+000	 7.066659999995868e+000	 1.007382917982529e+001
0	 4.533360000018133e+000	 7.133319999991935e+000	 1.007061075783368e+001
0	 4.533360000018132e+000	 7.199979999988400e+000	 1.006748105238279e+001
0	 4.533360000018132e+000	 7.266639999985467e+000	 1.006444071278165e+001
0	 4.533360000018132e+000	 7.333299999983335e+000	 1.006149038833927e+001
0	 4.600030000017849e+000	 6.666700000016666e+000	 1.009648248551052e+001
0	 4.600030000017850e+000	 6.733360000014533e+000	 1.009270659557442e+001
0	 4.600030000017849e+000	 6.800020000011599e+000	 1.008901791756276e+001
0	 4.600030000017849e+000	 6.866680000008067e+000	 1.008541697558602e+001
0	 4.600030000017849e+000	 6.933340000004133e+000	 1.008190429375468e+001
0	 4.600030000017849e+000	 6.999999999999999e+000	 1.007848039617925e+001
0	 4.600030000017848e+000	 7.066659999995867e+000	 1.007514580697020e+001
0	 4.600030000017849e+000	 7.133319999991935e+000	 1.007190105023802e+001
0	 4.600030000017849e+000	 7.199979999988402e+000	 1.006874665009320e+001
0	 4.600030000017848e+000	 7.266639999985467e+000	 1.006568313064621e+001
0	 4.600030000017849e+000	 7.333299999983334e+000	 1.006271101600753e+001
0	 4.666700000016666e+000	 6.666700000016667e+000	 1.009783484457232e+001
0	 4.666700000016666e+000	 6.733360000014533e+000	 1.009402938126741e+001
0	 4.666700000016665e+000	 6.800020000011599e+000	 1.009031294872146e+001
0	 4.666700000016666e+000	 6.866680000008066e+000	 1.008668586963515e+001
0	 4.666700000016666e+000	 6.933340000004132e+000	 1.008314846670915e+001
0	 4.666700000016666e+000	 6.999999999999999e+000	 1.007970106264413e+001
0	 4.666700000016666e+000	 7.066659999995867e+000	 1.007634398014078e+001
0	 4.666700000016667e+000	 7.133319999991935e+000	 1.007307754189976e+001
0	 4.666700000016666e+000	 7.199979999988400e+000	 1.006990207062171e+001
0	 4.666700000016667e+000	 7.266639999985467e+000	 1.006681788900731e+001
0	 4.666700000016665e+000	 7.333299999983333e+000	 1.006382531975723e+001
0	 4.000000000000001e+000	 7.333299999983335e+000	 1.004750258898877e+001
0	 4.000000000000001e+000	 7.399969999982151e+000	 1.004508669464772e+001
0	 4.000000000000000e+000	 7.466639999981866e+000	 1.004274628356741e+001
0	 4.000000000000000e+000	 7.533309999982384e+000	 1.004048348016682e+001
0	 4.000000000000000e+000	 7.599979999983599e+000	 1.003830040886492e+001
0	 4.000000000000001e+000	 7.666649999985416e+000	 1.003619919408068e+001
0	 4.000000000000000e+000	 7.733319999987733e+000	 1.003418196023312e+001
0	 4.000000000000000e+000	 7.799989999990448e+000	 1.003225083174116e+001
0	 4.000000000000000e+000	 7.866659999993465e+000	 1.003040793302383e+001
0	 4.000000000000000e+000	 7.933329999996684e+000	 1.002865538850009e+001
0	 4.000000000000000e+000	 7.999999999999999e+000	 1.002699532258890e+001
0	 4.066670000003317e+000	 7.333299999983334e+000	 1.004969234308642e+001
0	 4.066670000003318e+000	 7.399969999982152e+000	 1.004717604791153e+001
0	 4.066670000003317e+000	 7.466639999981867e+000	 1.004474222152140e+001
0	 4.066670000003317e+000	 7.533309999982385e+000	 1.004239215235033e+001
0	 4.066670000003317e+000	 7.599979999983600e+000	 1.004012712883261e+001
0	 4.066670000003317e+000	 7.666649999985415e+000	 1.003794843940256e+001
0	 4.066670000003318e+000	 7.733319999987733e+000	 1.003585737249450e+001
0	 4.066670000003318e+000	 7.799989999990450e+000	 1.003385521654271e+001
0	 4.066670000003316e+000	 7.866659999993468e+000	 1.003194325998151e+001
0	 4.066670000003318e+000	 7.933329999996684e+000	 1.003012279124522e+001
0	 4.066670000003316e+000	 7.999999999999998e+000	 1.002839509876814e+001
0	 4.133340000006533e+000	 7.333299999983331e+000	 1.005174943213642e+001
0	 4.133340000006533e+000	 7.399969999982151e+000	 1.004914930655119e+001
0	 4.133340000006533e+000	 7.466639999981865e+000	 1.004663606382820e+001
0	 4.133340000006533e+000	 7.533309999982381e+000	 1.004421026439955e+001
0	 4.133340000006533e+000	 7.599979999983600e+000	 1.004187246869739e+001
0	 4.133340000006534e+000	 7.666649999985416e+000	 1.003962323715386e+001
0	 4.133340000006534e+000	 7.733319999987733e+000	 1.003746313020113e+001
0	 4.133340000006532e+000	 7.799989999990447e+000	 1.003539270827131e+001
0	 4.133340000006533e+000	 7.866659999993467e+000	 1.003341253179655e+001
0	 4.133340000006533e+000	 7.933329999996684e+000	 1.003152316120901e+001
0	 4.133340000006533e+000	 7.999999999999998e+000	 1.002972515694085e+001
0	 4.200010000009550e+000	 7.333299999983334e+000	 1.005367714877989e+001
0	 4.200010000009550e+000	 7.399969999982148e+000	 1.005100779004900e+001
0	 4.200010000009551e+000	 7.466639999981867e+000	 1.004842750371826e+001
0	 4.200010000009551e+000	 7.533309999982384e+000	 1.004593623020013e+001
0	 4.200010000009551e+000	 7.599979999983600e+000	 1.004353390990708e+001
0	 4.200010000009550e+000	 7.666649999985415e+000	 1.004122048325163e+001
0	 4.200010000009551e+000	 7.733319999987732e+000	 1.003899589064625e+001
0	 4.200010000009550e+000	 7.799989999990451e+000	 1.003686007250342e+001
0	 4.200010000009550e+000	 7.866659999993466e+000	 1.003481296923563e+001
0	 4.200010000009549e+000	 7.933329999996683e+000	 1.003285452125536e+001
0	 4.200010000009550e+000	 8.000000000000000e+000	 1.003098466897512e+001
0	 4.266680000012265e+000	 7.333299999983333e+000	 1.005547878565797e+001
0	 4.266680000012266e+000	 7.399969999982150e+000	 1.005275281788726e+001
0	 4.266680000012266e+000	 7.466639999981865e+000	 1.005011623442207e+001
0	 4.266680000012267e+000	 7.533309999982383e+000	 1.004756846363772e+001
0	 4.266680000012268e+000	 7.599979999983600e+000	 1.004510893390956e+001
0	 4.266680000012268e+000	 7.666649999985416e+000	 1.004273707361290e+001
0	 4.266680000012267e+000	 7.733319999987732e+000	 1.004045231112309e+001
0	 4.266680000012266e+000	 7.799989999990448e+000	 1.003825407481546e+001
0	 4.266680000012268e+000	 7.866659999993467e+000	 1.003614179306536e+001
0	 4.266680000012267e+000	 7.933329999996684e+000	 1.003411489424811e+001
0	 4.266680000012268e+000	 8.000000000000000e+000	 1.003217280673906e+001
0	 4.333350000014583e+000	 7.333299999983334e+000	 1.005715763541181e+001
0	 4.333350000014583e+000	 7.399969999982148e+000	 1.005438570954828e+001
0	 4.333350000014582e+000	 7.466639999981867e+000	 1.005170194917013e+001
0	 4.333350000014583e+000	 7.533309999982384e+000	 1.004910537859800e+001
0	 4.333350000014584e+000	 7.599979999983599e+000	 1.004659502215264e+001
0	 4.333350000014584e+000	 7.666649999985417e+000	 1.004416990415471e+001
0	 4.333350000014583e+000	 7.733319999987733e+000	 1.004182904892490e+001
0	 4.333350000014582e+000	 7.799989999990448e+000	 1.003957148078390e+001
0	 4.333350000014583e+000	 7.866659999993468e+000	 1.003739622405242e+001
0	 4.333350000014583e+000	 7.933329999996683e+000	 1.003530230305113e+001
0	 4.333350000014584e+000	 8.000000000000000e+000	 1.003328874210075e+001
0	 4.400020000016400e+000	 7.333299999983333e+000	 1.005871699068256e+001
0	 4.400020000016400e+000	 7.399969999982149e+000	 1.005590778451436e+001
0	 4.400020000016401e+000	 7.466639999981867e+000	 1.005318434119287e+001
0	 4.400020000016399e+000	 7.533309999982383e+000	 1.005054538896662e+001
0	 4.400020000016400e+000	 7.599979999983600e+000	 1.004798965608419e+001
0	 4.400020000016399e+000	 7.666649999985414e+000	 1.004551587079409e+001
0	 4.400020000016399e+000	 7.733319999987733e+000	 1.004312276134491e+001
0	 4.400020000016400e+000	 7.799989999990449e+000	 1.004080905598518e+001
0	 4.400020000016401e+000	 7.866659999993468e+000	 1.003857348296346e+001
0	 4.400020000016398e+000	 7.933329999996681e+000	 1.003641477052831e+001
0	 4.400020000016399e+000	 7.999999999999999e+000	 1.003433164692830e+001
0	 4.466690000017616e+000	 7.333299999983335e+000	 1.006016014411132e+001
0	 4.466690000017616e+000	 7.399969999982149e+000	 1.005732036226780e+001
0	 4.466690000017616e+000	 7.466639999981865e+000	 1.005456310372080e+001
0	 4.466690000017615e+000	 7.533309999982382e+000	 1.005188690862924e+001
0	 4.466690000017616e+000	 7.599979999983599e+000	 1.004929031715203e+001
0	 4.466690000017617e+000	 7.666649999985417e+000	 1.004677186944809e+001
0	 4.466690000017615e+000	 7.733319999987733e+000	 1.004433010567635e+001
0	 4.466690000017616e+000	 7.799989999990450e+000	 1.004196356599573e+001
0	 4.466690000017617e+000	 7.866659999993466e+000	 1.003967079056515e+001
0	 4.466690000017616e+000	 7.933329999996684e+000	 1.003745031954353e+001
0	 4.466690000017617e+000	 8.000000000000000e+000	 1.003530069308982e+001
0	 4.533360000018132e+000	 7.333299999983335e+000	 1.006149038833926e+001
0	 4.533360000018132e+000	 7.399969999982149e+000	 1.005862476229094e+001
0	 4.533360000018132e+000	 7.466639999981865e+000	 1.005583792998442e+001
0	 4.533360000018134e+000	 7.533309999982383e+000	 1.005312835147152e+001
0	 4.533360000018132e+000	 7.599979999983598e+000	 1.005049448680404e+001
0	 4.533360000018131e+000	 7.666649999985417e+000	 1.004793479603375e+001
0	 4.533360000018131e+000	 7.733319999987732e+000	 1.004544773921246e+001
0	 4.533360000018131e+000	 7.799989999990449e+000	 1.004303177639200e+001
0	 4.533360000018133e+000	 7.866659999993465e+000	 1.004068536762411e+001
0	 4.533360000018134e+000	 7.933329999996683e+000	 1.003840697296064e+001
0	 4.533360000018131e+000	 8.000000000000000e+000	 1.003619505245338e+001
0	 4.600030000017849e+000	 7.333299999983334e+000	 1.006271101600752e+001
0	 4.600030000017848e+000	 7.399969999982149e+000	 1.005982230406605e+001
0	 4.600030000017851e+000	 7.466639999981866e+000	 1.005700851321417e+001
0	 4.600030000017848e+000	 7.533309999982384e+000	 1.005426813137911e+001
0	 4.600030000017848e+000	 7.599979999983599e+000	 1.005159964648803e+001
0	 4.600030000017848e+000	 7.666649999985416e+000	 1.004900154646810e+001
0	 4.600030000017848e+000	 7.733319999987732e+000	 1.004647231924649e+001
0	 4.600030000017848e+000	 7.799989999990448e+000	 1.004401045275042e+001
0	 4.600030000017849e+000	 7.866659999993466e+000	 1.004161443490704e+001
0	 4.600030000017848e+000	 7.933329999996684e+000	 1.003928275364355e+001
0	 4.600030000017850e+000	 8.000000000000000e+000	 1.003701389688711e+001
0	 4.666700000016665e+000	 7.333299999983333e+000	 1.006382531975723e+001
0	 4.666700000016665e+000	 7.399969999982149e+000	 1.006091430707545e+001
0	 4.666700000016666e+000	 7.466639999981866e+000	 1.005807454664058e+001
0	 4.666700000016665e+000	 7.533309999982382e+000	 1.005530466223770e+001
0	 4.666700000016666e+000	 7.599979999983599e+000	 1.005260327765187e+001
0	 4.666700000016667e+000	 7.666649999985417e+000	 1.004996901666818e+001
0	 4.666700000016667e+000	 7.733319999987733e+000	 1.004740050307169e+001
0	 4.666700000016665e+000	 7.799989999990450e+000	 1.004489636064746e+001
0	 4.666700000016665e+000	 7.866659999993466e+000	 1.004245521318057e+001
0	 4.666700000016666e+000	 7.933329999996682e+000	 1.004007568445609e+001
0	 4.666700000016665e+000	 7.999999999999998e+000	 1.003775639825910e+001
0	 4.000000000000000e+000	 7.999999999999999e+000	 1.002699532258890e+001
0	 4.000000000000001e+000	 8.066670000003319e+000	 1.002540548176219e+001
0	 4.000000000000001e+000	 8.133340000006536e+000	 1.002386122830275e+001
0	 4.000000000000002e+000	 8.200010000009552e+000	 1.002236111034601e+001
0	 4.000000000000000e+000	 8.266680000012267e+000	 1.002090367602743e+001
0	 4.000000000000000e+000	 8.333350000014585e+000	 1.001948747348240e+001
0	 4.000000000000000e+000	 8.400020000016399e+000	 1.001811105084636e+001
0	 4.000000000000000e+000	 8.466690000017618e+000	 1.001677295625472e+001
0	 4.000000000000001e+000	 8.533360000018135e+000	 1.001547173784292e+001
0	 4.000000000000000e+000	 8.600030000017847e+000	 1.001420594374640e+001
0	 4.000000000000000e+000	 8.666700000016666e+000	 1.001297412210058e+001
0	 4.066670000003316e+000	 7.999999999999998e+000	 1.002839509876814e+001
0	 4.066670000003318e+000	 8.066670000003319e+000	 1.002673622845670e+001
0	 4.066670000003316e+000	 8.133340000006532e+000	 1.002512072660755e+001
0	 4.066670000003317e+000	 8.200010000009550e+000	 1.002354763224035e+001
0	 4.066670000003317e+000	 8.266680000012268e+000	 1.002201598437474e+001
0	 4.066670000003318e+000	 8.333350000014583e+000	 1.002052482203044e+001
0	 4.066670000003318e+000	 8.400020000016403e+000	 1.001907318422708e+001
0	 4.066670000003317e+000	 8.466690000017618e+000	 1.001766010998433e+001
0	 4.066670000003316e+000	 8.533360000018135e+000	 1.001628463832186e+001
0	 4.066670000003316e+000	 8.600030000017849e+000	 1.001494580825934e+001
0	 4.066670000003317e+000	 8.666700000016668e+000	 1.001364265881645e+001
0	 4.133340000006533e+000	 7.999999999999998e+000	 1.002972515694085e+001
0	 4.133340000006533e+000	 8.066670000003317e+000	 1.002799460911228e+001
0	 4.133340000006533e+000	 8.133340000006534e+000	 1.002630685731893e+001
0	 4.133340000006533e+000	 8.200010000009549e+000	 1.002466133620606e+001
0	 4.133340000006534e+000	 8.266680000012268e+000	 1.002305748041898e+001
0	 4.133340000006533e+000	 8.333350000014583e+000	 1.002149472460290e+001
0	 4.133340000006534e+000	 8.400020000016401e+000	 1.001997250340309e+001
0	 4.133340000006534e+000	 8.466690000017616e+000	 1.001849025146483e+001
0	 4.133340000006534e+000	 8.533360000018135e+000	 1.001704740343338e+001
0	 4.133340000006533e+000	 8.600030000017847e+000	 1.001564339395400e+001
0	 4.133340000006534e+000	 8.666700000016665e+000	 1.001427765767196e+001
0	 4.200010000009550e+000	 8.000000000000000e+000	 1.003098466897512e+001
0	 4.200010000009548e+000	 8.066670000003319e+000	 1.002918099706119e+001
0	 4.200010000009550e+000	 8.133340000006534e+000	 1.002742095324634e+001
0	 4.200010000009551e+000	 8.200010000009552e+000	 1.002570427254277e+001
0	 4.200010000009550e+000	 8.266680000012265e+000	 1.002403068996272e+001
0	 4.200010000009550e+000	 8.333350000014583e+000	 1.002239994051838e+001
0	 4.200010000009550e+000	 8.400020000016401e+000	 1.002081175922198e+001
0	 4.200010000009552e+000	 8.466690000017620e+000	 1.001926588108573e+001
0	 4.200010000009550e+000	 8.533360000018133e+000	 1.001776204112185e+001
0	 4.200010000009550e+000	 8.600030000017847e+000	 1.001629997434256e+001
0	 4.200010000009550e+000	 8.666700000016666e+000	 1.001487941576007e+001
0	 4.266680000012268e+000	 8.000000000000000e+000	 1.003217280673906e+001
0	 4.266680000012268e+000	 8.066670000003317e+000	 1.003029576563576e+001
0	 4.266680000012268e+000	 8.133340000006534e+000	 1.002846434719923e+001
0	 4.266680000012267e+000	 8.200010000009550e+000	 1.002667849155001e+001
0	 4.266680000012268e+000	 8.266680000012268e+000	 1.002493813880860e+001
0	 4.266680000012268e+000	 8.333350000014582e+000	 1.002324322909553e+001
0	 4.266680000012268e+000	 8.400020000016403e+000	 1.002159370253133e+001
0	 4.266680000012266e+000	 8.466690000017616e+000	 1.001998949923653e+001
0	 4.266680000012268e+000	 8.533360000018137e+000	 1.001843055933163e+001
0	 4.266680000012266e+000	 8.600030000017849e+000	 1.001691682293719e+001
0	 4.266680000012267e+000	 8.666700000016668e+000	 1.001544823017372e+001
0	 4.333350000014584e+000	 8.000000000000000e+000	 1.003328874210075e+001
0	 4.333350000014583e+000	 8.066670000003319e+000	 1.003133928816827e+001
0	 4.333350000014582e+000	 8.133340000006534e+000	 1.002943837198709e+001
0	 4.333350000014582e+000	 8.200010000009550e+000	 1.002758604352733e+001
0	 4.333350000014584e+000	 8.266680000012268e+000	 1.002578235275925e+001
0	 4.333350000014582e+000	 8.333350000014582e+000	 1.002402734965298e+001
0	 4.333350000014584e+000	 8.400020000016401e+000	 1.002232108417872e+001
0	 4.333350000014582e+000	 8.466690000017616e+000	 1.002066360630673e+001
0	 4.333350000014582e+000	 8.533360000018133e+000	 1.001905496600709e+001
0	 4.333350000014583e+000	 8.600030000017849e+000	 1.001749521325007e+001
0	 4.333350000014583e+000	 8.666700000016666e+000	 1.001598439800583e+001
0	 4.400020000016399e+000	 7.999999999999999e+000	 1.003433164692830e+001
0	 4.400020000016399e+000	 8.066670000003317e+000	 1.003231193799106e+001
0	 4.400020000016400e+000	 8.133340000006532e+000	 1.003034436041932e+001
0	 4.400020000016400e+000	 8.200010000009549e+000	 1.002842897877433e+001
0	 4.400020000016400e+000	 8.266680000012267e+000	 1.002656585761728e+001
0	 4.400020000016400e+000	 8.333350000014583e+000	 1.002475506150935e+001
0	 4.400020000016399e+000	 8.400020000016397e+000	 1.002299665501179e+001
0	 4.400020000016399e+000	 8.466690000017618e+000	 1.002129070268580e+001
0	 4.400020000016401e+000	 8.533360000018135e+000	 1.001963726909259e+001
0	 4.400020000016400e+000	 8.600030000017849e+000	 1.001803641879338e+001
0	 4.400020000016401e+000	 8.666700000016666e+000	 1.001648821634937e+001
0	 4.466690000017617e+000	 8.000000000000000e+000	 1.003530069308982e+001
0	 4.466690000017616e+000	 8.066670000003319e+000	 1.003321408843639e+001
0	 4.466690000017617e+000	 8.133340000006534e+000	 1.003118364530544e+001
0	 4.466690000017617e+000	 8.200010000009552e+000	 1.002920934759054e+001
0	 4.466690000017615e+000	 8.266680000012265e+000	 1.002729117918530e+001
0	 4.466690000017617e+000	 8.333350000014587e+000	 1.002542912398328e+001
0	 4.466690000017615e+000	 8.400020000016401e+000	 1.002362316587808e+001
0	 4.466690000017616e+000	 8.466690000017618e+000	 1.002187328876329e+001
0	 4.466690000017616e+000	 8.533360000018135e+000	 1.002017947653249e+001
0	 4.466690000017616e+000	 8.600030000017851e+000	 1.001854171307929e+001
0	 4.466690000017616e+000	 8.666700000016668e+000	 1.001695998229728e+001
0	 4.533360000018131e+000	 8.000000000000000e+000	 1.003619505245338e+001
0	 4.533360000018133e+000	 8.066670000003317e+000	 1.003404611283659e+001
0	 4.533360000018132e+000	 8.133340000006534e+000	 1.003195755945487e+001
0	 4.533360000018130e+000	 8.200010000009549e+000	 1.002992920027555e+001
0	 4.533360000018132e+000	 8.266680000012267e+000	 1.002796084326596e+001
0	 4.533360000018131e+000	 8.333350000014583e+000	 1.002605229639340e+001
0	 4.533360000018133e+000	 8.400020000016399e+000	 1.002420336762519e+001
0	 4.533360000018133e+000	 8.466690000017616e+000	 1.002241386492868e+001
0	 4.533360000018132e+000	 8.533360000018131e+000	 1.002068359627117e+001
0	 4.533360000018133e+000	 8.600030000017849e+000	 1.001901236961998e+001
0	 4.533360000018131e+000	 8.666700000016666e+000	 1.001739999294246e+001
0	 4.600030000017850e+000	 8.000000000000000e+000	 1.003701389688711e+001
0	 4.600030000017848e+000	 8.066670000003315e+000	 1.003480838452395e+001
0	 4.600030000017848e+000	 8.133340000006532e+000	 1.003266743567708e+001
0	 4.600030000017848e+000	 8.200010000009549e+000	 1.003059058712893e+001
0	 4.600030000017849e+000	 8.266680000012267e+000	 1.002857737566187e+001
0	 4.600030000017849e+000	 8.333350000014583e+000	 1.002662733805833e+001
0	 4.600030000017848e+000	 8.400020000016401e+000	 1.002474001110072e+001
0	 4.600030000017850e+000	 8.466690000017618e+000	 1.002291493157147e+001
0	 4.600030000017848e+000	 8.533360000018133e+000	 1.002115163625297e+001
0	 4.600030000017849e+000	 8.600030000017851e+000	 1.001944966192765e+001
0	 4.600030000017849e+000	 8.666700000016668e+000	 1.001780854537790e+001
0	 4.666700000016665e+000	 7.999999999999998e+000	 1.003775639825910e+001
0	 4.666700000016665e+000	 8.066670000003317e+000	 1.003550127683080e+001
0	 4.666700000016666e+000	 8.133340000006532e+000	 1.003331460678155e+001
0	 4.666700000016666e+000	 8.200010000009549e+000	 1.003119555845021e+001
0	 4.666700000016666e+000	 8.266680000012268e+000	 1.002914330217566e+001
0	 4.666700000016667e+000	 8.333350000014585e+000	 1.002715700829673e+001
0	 4.666700000016666e+000	 8.400020000016399e+000	 1.002523584715227e+001
0	 4.666700000016666e+000	 8.466690000017616e+000	 1.002337898908117e+001
0	 4.666700000016666e+000	 8.533360000018133e+000	 1.002158560442228e+001
0	 4.666700000016667e+000	 8.600030000017853e+000	 1.001985486351445e+001
0	 4.666700000016665e+000	 8.666700000016666e+000	 1.001818593669653e+001
0	 4.000000000000000e+000	 8.666700000016666e+000	 1.001297412210058e+001
0	 4.000000000000000e+000	 8.733360002791901e+000	 1.001178881161752e+001
0	 4.000000000000000e+000	 8.800020022230555e+000	 1.001066234454802e+001
0	 4.000000000000000e+000	 8.866680074997040e+000	 1.000959350608339e+001
0	 4.000000000000000e+000	 8.933340177755778e+000	 1.000858108125672e+001
0	 4.000000000000001e+000	 9.000000347171181e+000	 1.000762385494291e+001
0	 4.000000000000000e+000	 9.066660599907667e+000	 1.000672061185866e+001
0	 4.000000000000001e+000	 9.133320952629656e+000	 1.000587013656241e+001
0	 4.000000000000001e+000	 9.199981422001560e+000	 1.000507121345446e+001
0	 4.000000000000001e+000	 9.266642024687796e+000	 1.000432262677686e+001
0	 4.000000000000000e+000	 9.333302777352783e+000	 1.000362316061339e+001
0	 4.066670000003317e+000	 8.666700000016668e+000	 1.001364265881645e+001
0	 4.066670000003318e+000	 8.733360002791907e+000	 1.001239031402321e+001
0	 4.066670000003317e+000	 8.800020022230557e+000	 1.001120290072202e+001
0	 4.066670000003317e+000	 8.866680074997040e+000	 1.001007854052939e+001
0	 4.066670000003319e+000	 8.933340177755778e+000	 1.000901535489383e+001
0	 4.066670000003318e+000	 9.000000347171183e+000	 1.000801146509587e+001
0	 4.066670000003317e+000	 9.066660599907669e+000	 1.000706499224803e+001
0	 4.066670000003317e+000	 9.133320952629655e+000	 1.000617405729484e+001
0	 4.066670000003317e+000	 9.199981422001560e+000	 1.000533678101276e+001
0	 4.066670000003317e+000	 9.266642024687794e+000	 1.000455128401034e+001
0	 4.066670000003317e+000	 9.333302777352783e+000	 1.000381568672800e+001
0	 4.133340000006534e+000	 8.666700000016665e+000	 1.001427765767195e+001
0	 4.133340000006533e+000	 8.733360002791905e+000	 1.001296665110063e+001
0	 4.133340000006533e+000	 8.800020022230553e+000	 1.001172517277102e+001
0	 4.133340000006534e+000	 8.866680074997040e+000	 1.001055077624726e+001
0	 4.133340000006533e+000	 8.933340177755776e+000	 1.000944101491757e+001
0	 4.133340000006534e+000	 9.000000347171183e+000	 1.000839344199430e+001
0	 4.133340000006535e+000	 9.066660599907667e+000	 1.000740561051383e+001
0	 4.133340000006534e+000	 9.133320952629656e+000	 1.000647507333661e+001
0	 4.133340000006533e+000	 9.199981422001560e+000	 1.000559938314723e+001
0	 4.133340000006533e+000	 9.266642024687796e+000	 1.000477609245428e+001
0	 4.133340000006535e+000	 9.333302777352783e+000	 1.000400275359045e+001
0	 4.200010000009550e+000	 8.666700000016666e+000	 1.001487941576007e+001
0	 4.200010000009550e+000	 8.733360002791905e+000	 1.001351711553447e+001
0	 4.200010000009550e+000	 8.800020022230555e+000	 1.001222763465166e+001
0	 4.200010000009550e+000	 8.866680074997040e+000	 1.001100805414623e+001
0	 4.200010000009551e+000	 8.933340177755779e+000	 1.000985545487055e+001
0	 4.200010000009550e+000	 9.000000347171181e+000	 1.000876691749472e+001
0	 4.200010000009551e+000	 9.066660599907671e+000	 1.000773952250665e+001
0	 4.200010000009550e+000	 9.133320952629656e+000	 1.000677035021197e+001
0	 4.200010000009550e+000	 9.199981422001558e+000	 1.000585648073412e+001
0	 4.200010000009550e+000	 9.266642024687796e+000	 1.000499499401423e+001
0	 4.200010000009550e+000	 9.333302777352779e+000	 1.000418296981122e+001
0	 4.266680000012267e+000	 8.666700000016668e+000	 1.001544823017372e+001
0	 4.266680000012268e+000	 8.733360002791903e+000	 1.001404100000941e+001
0	 4.266680000012266e+000	 8.800020022230553e+000	 1.001270876032062e+001
0	 4.266680000012267e+000	 8.866680074997040e+000	 1.001144821513560e+001
0	 4.266680000012266e+000	 8.933340177755779e+000	 1.001025606829535e+001
0	 4.266680000012266e+000	 9.000000347171181e+000	 1.000912902345370e+001
0	 4.266680000012267e+000	 9.066660599907667e+000	 1.000806378407719e+001
0	 4.266680000012266e+000	 9.133320952629655e+000	 1.000705705344517e+001
0	 4.266680000012267e+000	 9.199981422001560e+000	 1.000610553464973e+001
0	 4.266680000012268e+000	 9.266642024687798e+000	 1.000520593059571e+001
0	 4.266680000012267e+000	 9.333302777352785e+000	 1.000435494400072e+001
0	 4.333350000014583e+000	 8.666700000016666e+000	 1.001598439800583e+001
0	 4.333350000014583e+000	 8.733360002791903e+000	 1.001453759721014e+001
0	 4.333350000014582e+000	 8.800020022230555e+000	 1.001316702373455e+001
0	 4.333350000014582e+000	 8.866680074997039e+000	 1.001186910012458e+001
0	 4.333350000014583e+000	 8.933340177755781e+000	 1.001064024873458e+001
0	 4.333350000014583e+000	 9.000000347171181e+000	 1.000947689172777e+001
0	 4.333350000014582e+000	 9.066660599907666e+000	 1.000837545107609e+001
0	 4.333350000014584e+000	 9.133320952629658e+000	 1.000733234856042e+001
0	 4.333350000014582e+000	 9.199981422001557e+000	 1.000634400577033e+001
0	 4.333350000014583e+000	 9.266642024687798e+000	 1.000540684410426e+001
0	 4.333350000014585e+000	 9.333302777352785e+000	 1.000451728476944e+001
0	 4.400020000016401e+000	 8.666700000016666e+000	 1.001648821634937e+001
0	 4.400020000016400e+000	 8.733360002791901e+000	 1.001500619982136e+001
0	 4.400020000016400e+000	 8.800020022230553e+000	 1.001360089885009e+001
0	 4.400020000016401e+000	 8.866680074997042e+000	 1.001226855002243e+001
0	 4.400020000016401e+000	 8.933340177755779e+000	 1.001100538973085e+001
0	 4.400020000016398e+000	 9.000000347171181e+000	 1.000980765417346e+001
0	 4.400020000016399e+000	 9.066660599907667e+000	 1.000867157935405e+001
0	 4.400020000016400e+000	 9.133320952629656e+000	 1.000759340108196e+001
0	 4.400020000016400e+000	 9.199981422001557e+000	 1.000656935497221e+001
0	 4.400020000016400e+000	 9.266642024687796e+000	 1.000559567644543e+001
0	 4.400020000016399e+000	 9.333302777352781e+000	 1.000466860072785e+001
0	 4.466690000017616e+000	 8.666700000016668e+000	 1.001695998229728e+001
0	 4.466690000017615e+000	 8.733360002791899e+000	 1.001544610052774e+001
0	 4.466690000017618e+000	 8.800020022230557e+000	 1.001400885962394e+001
0	 4.466690000017615e+000	 8.866680074997040e+000	 1.001264440573842e+001
0	 4.466690000017616e+000	 8.933340177755776e+000	 1.001134888482673e+001
0	 4.466690000017617e+000	 9.000000347171179e+000	 1.001011844264734e+001
0	 4.466690000017616e+000	 9.066660599907671e+000	 1.000894922476166e+001
0	 4.466690000017617e+000	 9.133320952629656e+000	 1.000783737653403e+001
0	 4.466690000017617e+000	 9.199981422001558e+000	 1.000677904313166e+001
0	 4.466690000017617e+000	 9.266642024687799e+000	 1.000577036952475e+001
0	 4.466690000017616e+000	 9.333302777352783e+000	 1.000480750048639e+001
0	 4.533360000018131e+000	 8.666700000016666e+000	 1.001739999294246e+001
0	 4.533360000018132e+000	 8.733360002791899e+000	 1.001585659201401e+001
0	 4.533360000018134e+000	 8.800020022230559e+000	 1.001438938001272e+001
0	 4.533360000018135e+000	 8.866680074997042e+000	 1.001299450818179e+001
0	 4.533360000018133e+000	 8.933340177755781e+000	 1.001166812756483e+001
0	 4.533360000018134e+000	 9.000000347171181e+000	 1.001040638900596e+001
0	 4.533360000018132e+000	 9.066660599907666e+000	 1.000920544314966e+001
0	 4.533360000018132e+000	 9.133320952629656e+000	 1.000806144044085e+001
0	 4.533360000018132e+000	 9.199981422001558e+000	 1.000697053112497e+001
0	 4.533360000018133e+000	 9.266642024687796e+000	 1.000592886524777e+001
0	 4.533360000018132e+000	 9.333302777352779e+000	 1.000493259265550e+001
0	 4.600030000017849e+000	 8.666700000016668e+000	 1.001780854537790e+001
0	 4.600030000017849e+000	 8.733360002791903e+000	 1.001623696696483e+001
0	 4.600030000017848e+000	 8.800020022230553e+000	 1.001474093397312e+001
0	 4.600030000017848e+000	 8.866680074997042e+000	 1.001331669826181e+001
0	 4.600030000017850e+000	 8.933340177755779e+000	 1.001196051148779e+001
0	 4.600030000017848e+000	 9.000000347171181e+000	 1.001066862510584e+001
0	 4.600030000017849e+000	 9.066660599907667e+000	 1.000943729036863e+001
0	 4.600030000017849e+000	 9.133320952629656e+000	 1.000826275832671e+001
0	 4.600030000017848e+000	 9.199981422001558e+000	 1.000714127982842e+001
0	 4.600030000017848e+000	 9.266642024687796e+000	 1.000606910552003e+001
0	 4.600030000017849e+000	 9.333302777352783e+000	 1.000504248584569e+001
0	 4.666700000016665e+000	 8.666700000016666e+000	 1.001818593669653e+001
0	 4.666700000016665e+000	 8.733360002791901e+000	 1.001658651806489e+001
0	 4.666700000016665e+000	 8.800020022230555e+000	 1.001506199546178e+001
0	 4.666700000016666e+000	 8.866680074997040e+000	 1.001360881688770e+001
0	 4.666700000016666e+000	 8.933340177755778e+000	 1.001222343013815e+001
0	 4.666700000016666e+000	 9.000000347171181e+000	 1.001090228280354e+001
0	 4.666700000016667e+000	 9.066660599907669e+000	 1.000964182226929e+001
0	 4.666700000016666e+000	 9.133320952629655e+000	 1.000843849571576e+001
0	 4.666700000016666e+000	 9.199981422001557e+000	 1.000728875011827e+001
0	 4.666700000016667e+000	 9.266642024687798e+000	 1.000618903224705e+001
0	 4.666700000016665e+000	 9.333302777352781e+000	 1.000513578866738e+001
0	 4.000000000000000e+000	 9.333302777352783e+000	 1.000362316061339e+001
0	 4.000000000000001e+000	 9.399973674588178e+000	 1.000298506042828e+001
0	 4.000000000000001e+000	 9.466644621844623e+000	 1.000241789378169e+001
0	 4.000000000000000e+000	 9.533315502450000e+000	 1.000191612491792e+001
0	 4.000000000000000e+000	 9.599986199732195e+000	 1.000147421948856e+001
0	 4.000000000000000e+000	 9.666656597019095e+000	 1.000108664455231e+001
0	 4.000000000000001e+000	 9.733326577638577e+000	 1.000074786857474e+001
0	 3.999999999999999e+000	 9.799996024918523e+000	 1.000045236142828e+001
0	 4.000000000000000e+000	 9.866664822186824e+000	 1.000019459439205e+001
0	 4.000000000000000e+000	 9.933332852771352e+000	 9.999969040151813e+000
0	 4.000000000000000e+000	 1.000000000000000e+001	 9.999770172800075e+000
0	 4.066670000003317e+000	 9.333302777352783e+000	 1.000381568672800e+001
0	 4.066670000003318e+000	 9.399973674588175e+000	 1.000314223988043e+001
0	 4.066670000003318e+000	 9.466644621844623e+000	 1.000254137631604e+001
0	 4.066670000003317e+000	 9.533315502450000e+000	 1.000200817055898e+001
0	 4.066670000003318e+000	 9.599986199732197e+000	 1.000153769861899e+001
0	 4.066670000003319e+000	 9.666656597019097e+000	 1.000112503799118e+001
0	 4.066670000003317e+000	 9.733326577638575e+000	 1.000076526765591e+001
0	 4.066670000003318e+000	 9.799996024918523e+000	 1.000045346807867e+001
0	 4.066670000003316e+000	 9.866664822186820e+000	 1.000018472121007e+001
0	 4.066670000003316e+000	 9.933332852771352e+000	 9.999954110485605e+000
0	 4.066670000003317e+000	 1.000000000000000e+001	 9.999756720825847e+000
0	 4.133340000006535e+000	 9.333302777352783e+000	 1.000400275359045e+001
0	 4.133340000006534e+000	 9.399973674588178e+000	 1.000329263989778e+001
0	 4.133340000006533e+000	 9.466644621844621e+000	 1.000265792080088e+001
0	 4.133340000006534e+000	 9.533315502450003e+000	 1.000209415663843e+001
0	 4.133340000006533e+000	 9.599986199732195e+000	 1.000159690931999e+001
0	 4.133340000006531e+000	 9.666656597019092e+000	 1.000116174232577e+001
0	 4.133340000006533e+000	 9.733326577638575e+000	 1.000078422070658e+001
0	 4.133340000006532e+000	 9.799996024918521e+000	 1.000045991108359e+001
0	 4.133340000006532e+000	 9.866664822186818e+000	 1.000018438164841e+001
0	 4.133340000006533e+000	 9.933332852771351e+000	 9.999953202162876e+000
0	 4.133340000006534e+000	 1.000000000000000e+001	 9.999761943959316e+000
0	 4.200010000009550e+000	 9.333302777352779e+000	 1.000418296981122e+001
0	 4.200010000009550e+000	 9.399973674588175e+000	 1.000343552451774e+001
0	 4.200010000009551e+000	 9.466644621844621e+000	 1.000276723824478e+001
0	 4.200010000009550e+000	 9.533315502449998e+000	 1.000217403268260e+001
0	 4.200010000009551e+000	 9.599986199732198e+000	 1.000165183118227e+001
0	 4.200010000009550e+000	 9.666656597019090e+000	 1.000119655875566e+001
0	 4.200010000009550e+000	 9.733326577638575e+000	 1.000080414207539e+001
0	 4.200010000009550e+000	 9.799996024918524e+000	 1.000047050947439e+001
0	 4.200010000009550e+000	 9.866664822186822e+000	 1.000019159094625e+001
0	 4.200010000009550e+000	 9.933332852771352e+000	 9.999963318144911e+000
0	 4.200010000009550e+000	 9.999999999999998e+000	 9.999781624384902e+000
0	 4.266680000012267e+000	 9.333302777352785e+000	 1.000435494400072e+001
0	 4.266680000012267e+000	 9.399973674588175e+000	 1.000357015777768e+001
0	 4.266680000012268e+000	 9.466644621844623e+000	 1.000286903965641e+001
0	 4.266680000012266e+000	 9.533315502450000e+000	 1.000224774821784e+001
0	 4.266680000012268e+000	 9.599986199732198e+000	 1.000170244379653e+001
0	 4.266680000012268e+000	 9.666656597019090e+000	 1.000122928848045e+001
0	 4.266680000012268e+000	 9.733326577638575e+000	 1.000082444611092e+001
0	 4.266680000012268e+000	 9.799996024918521e+000	 1.000048408228248e+001
0	 4.266680000012266e+000	 9.866664822186824e+000	 1.000020436434283e+001
0	 4.266680000012268e+000	 9.933332852771356e+000	 9.999981461392878e+000
0	 4.266680000012267e+000	 9.999999999999998e+000	 9.999811544286887e+000
0	 4.333350000014585e+000	 9.333302777352785e+000	 1.000451728476944e+001
0	 4.333350000014583e+000	 9.399973674588175e+000	 1.000369580371502e+001
0	 4.333350000014582e+000	 9.466644621844619e+000	 1.000296303604431e+001
0	 4.333350000014584e+000	 9.533315502450000e+000	 1.000231525277047e+001
0	 4.333350000014584e+000	 9.599986199732198e+000	 1.000174872675344e+001
0	 4.333350000014582e+000	 9.666656597019093e+000	 1.000125973269960e+001
0	 4.333350000014583e+000	 9.733326577638572e+000	 1.000084454716184e+001
0	 4.333350000014583e+000	 9.799996024918523e+000	 1.000049944853927e+001
0	 4.333350000014583e+000	 9.866664822186824e+000	 1.000022071707746e+001
0	 4.333350000014585e+000	 9.933332852771358e+000	 1.000000463486814e+001
0	 4.333350000014584e+000	 1.000000000000000e+001	 9.999847485849742e+000
0	 4.400020000016399e+000	 9.333302777352781e+000	 1.000466860072785e+001
0	 4.400020000016400e+000	 9.399973674588177e+000	 1.000381172636717e+001
0	 4.400020000016400e+000	 9.466644621844621e+000	 1.000304893841710e+001
0	 4.400020000016398e+000	 9.533315502450000e+000	 1.000237649586688e+001
0	 4.400020000016400e+000	 9.599986199732198e+000	 1.000179065964373e+001
0	 4.400020000016400e+000	 9.666656597019092e+000	 1.000128769261275e+001
0	 4.400020000016401e+000	 9.733326577638575e+000	 1.000086385957675e+001
0	 4.400020000016400e+000	 9.799996024918524e+000	 1.000051542727617e+001
0	 4.400020000016400e+000	 9.866664822186820e+000	 1.000023866438930e+001
0	 4.400020000016399e+000	 9.933332852771354e+000	 1.000002984153196e+001
0	 4.400020000016400e+000	 1.000000000000000e+001	 9.999885231257784e+000
0	 4.466690000017616e+000	 9.333302777352783e+000	 1.000480750048639e+001
0	 4.466690000017616e+000	 9.399973674588177e+000	 1.000391718977150e+001
0	 4.466690000017615e+000	 9.466644621844621e+000	 1.000312645778338e+001
0	 4.466690000017617e+000	 9.533315502450000e+000	 1.000243142703335e+001
0	 4.466690000017616e+000	 9.599986199732195e+000	 1.000182822205808e+001
0	 4.466690000017615e+000	 9.666656597019092e+000	 1.000131296941937e+001
0	 4.466690000017616e+000	 9.733326577638577e+000	 1.000088179770421e+001
0	 4.466690000017616e+000	 9.799996024918524e+000	 1.000053083752463e+001
0	 4.466690000017616e+000	 9.866664822186822e+000	 1.000025622151764e+001
0	 4.466690000017616e+000	 9.933332852771354e+000	 1.000005408434548e+001
0	 4.466690000017617e+000	 1.000000000000000e+001	 9.999920562695534e+000
0	 4.533360000018132e+000	 9.333302777352779e+000	 1.000493259265550e+001
0	 4.533360000018131e+000	 9.399973674588173e+000	 1.000401145796541e+001
0	 4.533360000018132e+000	 9.466644621844619e+000	 1.000319530515177e+001
0	 4.533360000018134e+000	 9.533315502450002e+000	 1.000247999579627e+001
0	 4.533360000018131e+000	 9.599986199732197e+000	 1.000186139358718e+001
0	 4.533360000018131e+000	 9.666656597019093e+000	 1.000133536431906e+001
0	 4.533360000018134e+000	 9.733326577638577e+000	 1.000089777589293e+001
0	 4.533360000018132e+000	 9.799996024918528e+000	 1.000054449831598e+001
0	 4.533360000018132e+000	 9.866664822186822e+000	 1.000027140370170e+001
0	 4.533360000018132e+000	 9.933332852771356e+000	 1.000007436627003e+001
0	 4.533360000018132e+000	 1.000000000000000e+001	 9.999949262347283e+000
0	 4.600030000017849e+000	 9.333302777352783e+000	 1.000504248584569e+001
0	 4.600030000017849e+000	 9.399973674588177e+000	 1.000409379498630e+001
0	 4.600030000017849e+000	 9.466644621844619e+000	 1.000325519153084e+001
0	 4.600030000017849e+000	 9.533315502450002e+000	 1.000252215168198e+001
0	 4.600030000017849e+000	 9.599986199732195e+000	 1.000189015382173e+001
0	 4.600030000017847e+000	 9.666656597019092e+000	 1.000135467851137e+001
0	 4.600030000017849e+000	 9.733326577638573e+000	 1.000091120849148e+001
0	 4.600030000017848e+000	 9.799996024918523e+000	 1.000055522868164e+001
0	 4.600030000017849e+000	 9.866664822186822e+000	 1.000028222618073e+001
0	 4.600030000017848e+000	 9.933332852771352e+000	 1.000008769026684e+001
0	 4.600030000017849e+000	 1.000000000000000e+001	 9.999967112397549e+000
0	 4.666700000016665e+000	 9.333302777352781e+000	 1.000513578866738e+001
0	 4.666700000016666e+000	 9.399973674588177e+000	 1.000416346487156e+001
0	 4.666700000016667e+000	 9.466644621844621e+000	 1.000330582792923e+001
0	 4.666700000016667e+000	 9.533315502450000e+000	 1.000255784421676e+001
0	 4.666700000016666e+000	 9.599986199732197e+000	 1.000191448235239e+001
0	 4.666700000016666e+000	 9.666656597019095e+000	 1.000137071319586e+001
0	 4.666700000016666e+000	 9.733326577638573e+000	 1.000092150984850e+001
0	 4.666700000016665e+000	 9.799996024918521e+000	 1.000056184765310e+001
0	 4.666700000016666e+000	 9.866664822186822e+000	 1.000028670419398e+001
0	 4.666700000016666e+000	 9.933332852771352e+000	 1.000009105929717e+001
0	 4.666700000016666e+000	 1.000000000000000e+001	 9.999969895030484e+000
0	 4.666700000016666e+000	 0.000000000000000e+000	 1.039116988580096e+001
0	 4.666700000016666e+000	 6.666714722864757e-002	 1.037318274533127e+001
0	 4.666700000016667e+000	 1.333351778131790e-001	 1.035845145664150e+001
0	 4.666700000016665e+000	 2.000039750814772e-001	 1.034667363839020e+001
0	 4.666700000016666e+000	 2.666734223614256e-001	 1.033754692483596e+001
0	 4.666700000016668e+000	 3.333434029809070e-001	 1.033076896583515e+001
0	 4.666700000016665e+000	 4.000138002678044e-001	 1.032603742684011e+001
0	 4.666700000016666e+000	 4.666844975500011e-001	 1.032304998889775e+001
0	 4.666700000016667e+000	 5.333553781553803e-001	 1.032150434864849e+001
0	 4.666700000016666e+000	 6.000263254118248e-001	 1.032109821832577e+001
0	 4.666700000016667e+000	 6.666972226472179e-001	 1.032152932575581e+001
0	 4.733360000014534e+000	 0.000000000000000e+000	 1.040510074553550e+001
0	 4.733360000014533e+000	 6.666714722864754e-002	 1.038767522120259e+001
0	 4.733360000014533e+000	 1.333351778131789e-001	 1.037262552543352e+001
0	 4.733360000014534e+000	 2.000039750814773e-001	 1.035978300668321e+001
0	 4.733360000014534e+000	 2.666734223614255e-001	 1.034897903218475e+001
0	 4.733360000014533e+000	 3.333434029809068e-001	 1.034004498794649e+001
0	 4.733360000014533e+000	 4.000138002678044e-001	 1.033281227874960e+001
0	 4.733360000014534e+000	 4.666844975500012e-001	 1.032711232814609e+001
0	 4.733360000014533e+000	 5.333553781553801e-001	 1.032277657845743e+001
0	 4.733360000014534e+000	 6.000263254118248e-001	 1.031963649077352e+001
0	 4.733360000014533e+000	 6.666972226472174e-001	 1.031752354495225e+001
0	 4.800020000011600e+000	 0.000000000000000e+000	 1.040591359020231e+001
0	 4.800020000011600e+000	 6.666714722864754e-002	 1.039038663560229e+001
0	 4.800020000011601e+000	 1.333351778131790e-001	 1.037642076282733e+001
0	 4.800020000011601e+000	 2.000039750814772e-001	 1.036396120590904e+001
0	 4.800020000011600e+000	 2.666734223614255e-001	 1.035295321956235e+001
0	 4.800020000011599e+000	 3.333434029809069e-001	 1.034334207918221e+001
0	 4.800020000011599e+000	 4.000138002678044e-001	 1.033507308084081e+001
0	 4.800020000011599e+000	 4.666844975500012e-001	 1.032809154128532e+001
0	 4.800020000011601e+000	 5.333553781553804e-001	 1.032234279793626e+001
0	 4.800020000011601e+000	 6.000263254118247e-001	 1.031777220888631e+001
0	 4.800020000011600e+000	 6.666972226472175e-001	 1.031432515289970e+001
0	 4.866680000008066e+000	 0.000000000000000e+000	 1.039589697935227e+001
0	 4.866680000008067e+000	 6.666714722864757e-002	 1.038326518168243e+001
0	 4.866680000008067e+000	 1.333351778131789e-001	 1.037146125091280e+001
0	 4.866680000008068e+000	 2.000039750814772e-001	 1.036052446012692e+001
0	 4.866680000008065e+000	 2.666734223614256e-001	 1.035049410389457e+001
0	 4.866680000008065e+000	 3.333434029809069e-001	 1.034140949826832e+001
0	 4.866680000008066e+000	 4.000138002678044e-001	 1.033330998078066e+001
0	 4.866680000008067e+000	 4.666844975500011e-001	 1.032623491044168e+001
0	 4.866680000008067e+000	 5.333553781553803e-001	 1.032022366773734e+001
0	 4.866680000008066e+000	 6.000263254118248e-001	 1.031531565462826e+001
0	 4.866680000008067e+000	 6.666972226472177e-001	 1.031155029454914e+001
0	 4.933340000004134e+000	 0.000000000000000e+000	 1.037733947253624e+001
0	 4.933340000004134e+000	 6.666714722864754e-002	 1.036825905259510e+001
0	 4.933340000004133e+000	 1.333351778131789e-001	 1.035937107177982e+001
0	 4.933340000004134e+000	 2.000039750814772e-001	 1.035078899339609e+001
0	 4.933340000004134e+000	 2.666734223614255e-001	 1.034262630210722e+001
0	 4.933340000004134e+000	 3.333434029809070e-001	 1.033499650393084e+001
0	 4.933340000004134e+000	 4.000138002678044e-001	 1.032801312623610e+001
0	 4.933340000004133e+000	 4.666844975500011e-001	 1.032178971774146e+001
0	 4.933340000004133e+000	 5.333553781553803e-001	 1.031643984851304e+001
0	 4.933340000004133e+000	 6.000263254118248e-001	 1.031207710996352e+001
0	 4.933340000004133e+000	 6.666972226472175e-001	 1.030881511485158e+001
0	 5.000000000000000e+000	 0.000000000000000e+000	 1.035252962930509e+001
0	 5.000000000000004e+000	 6.666714722864757e-002	 1.034731644149239e+001
0	 5.000000000000002e+000	 1.333351778131790e-001	 1.034177430751833e+001
0	 5.000000000000001e+000	 2.000039750814772e-001	 1.033607102977584e+001
0	 5.000000000000000e+000	 2.666734223614255e-001	 1.033037443112616e+001
0	 5.000000000000001e+000	 3.333434029809069e-001	 1.032485235489582e+001
0	 5.000000000000001e+000	 4.000138002678044e-001	 1.031967266487409e+001
0	 4.999999999999999e+000	 4.666844975500012e-001	 1.031500324531098e+001
0	 5.000000000000001e+000	 5.333553781553803e-001	 1.031101200091580e+001
0	 4.999999999999999e+000	 6.000263254118246e-001	 1.030786685685627e+001
0	 5.000000000000001e+000	 6.666972226472178e-001	 1.030573575875803e+001
0	 5.066659999995866e+000	 0.000000000000000e+000	 1.032375600920967e+001
0	 5.066659999995868e+000	 6.666714722864757e-002	 1.032238554152639e+001
0	 5.066659999995867e+000	 1.333351778131790e-001	 1.032029504021825e+001
0	 5.066659999995868e+000	 2.000039750814772e-001	 1.031768679332545e+001
0	 5.066659999995867e+000	 2.666734223614256e-001	 1.031476310787726e+001
0	 5.066659999995866e+000	 3.333434029809069e-001	 1.031172630988936e+001
0	 5.066659999995867e+000	 4.000138002678044e-001	 1.030877874436165e+001
0	 5.066659999995866e+000	 4.666844975500011e-001	 1.030612277527660e+001
0	 5.066659999995866e+000	 5.333553781553804e-001	 1.030396078559809e+001
0	 5.066659999995868e+000	 6.000263254118248e-001	 1.030249517727070e+001
0	 5.066659999995868e+000	 6.666972226472178e-001	 1.030192837121959e+001
0	 5.133319999991932e+000	 0.000000000000000e+000	 1.029330717180081e+001
0	 5.133319999991933e+000	 6.666714722864756e-002	 1.029541454584920e+001
0	 5.133319999991933e+000	 1.333351778131789e-001	 1.029655735196952e+001
0	 5.133319999991933e+000	 2.000039750814772e-001	 1.029695250810424e+001
0	 5.133319999991933e+000	 2.666734223614255e-001	 1.029681694928645e+001
0	 5.133319999991933e+000	 3.333434029809069e-001	 1.029636762763759e+001
0	 5.133319999991934e+000	 4.000138002678043e-001	 1.029582151236584e+001
0	 5.133319999991933e+000	 4.666844975500012e-001	 1.029539558976473e+001
0	 5.133319999991935e+000	 5.333553781553804e-001	 1.029530686321238e+001
0	 5.133319999991932e+000	 6.000263254118248e-001	 1.029577235317108e+001
0	 5.133319999991933e+000	 6.666972226472177e-001	 1.029700909718735e+001
0	 5.199979999988400e+000	 0.000000000000000e+000	 1.026347167662934e+001
0	 5.199979999988399e+000	 6.666714722864756e-002	 1.026835164761290e+001
0	 5.199979999988400e+000	 1.333351778131790e-001	 1.027218532486211e+001
0	 5.199979999988400e+000	 2.000039750814773e-001	 1.027518439817159e+001
0	 5.199979999988401e+000	 2.666734223614256e-001	 1.027756057227967e+001
0	 5.199979999988399e+000	 3.333434029809069e-001	 1.027952556686667e+001
0	 5.199979999988399e+000	 4.000138002678044e-001	 1.028129111655372e+001
0	 5.199979999988399e+000	 4.666844975500011e-001	 1.028306897090179e+001
0	 5.199979999988400e+000	 5.333553781553800e-001	 1.028507089441122e+001
0	 5.199979999988400e+000	 6.000263254118249e-001	 1.028750866652170e+001
0	 5.199979999988399e+000	 6.666972226472177e-001	 1.029059408161245e+001
0	 5.266639999985466e+000	 0.000000000000000e+000	 1.023653808324607e+001
0	 5.266639999985466e+000	 6.666714722864756e-002	 1.024314503996962e+001
0	 5.266639999985464e+000	 1.333351778131789e-001	 1.024880304098601e+001
0	 5.266639999985465e+000	 2.000039750814772e-001	 1.025369868758684e+001
0	 5.266639999985465e+000	 2.666734223614255e-001	 1.025801859378287e+001
0	 5.266639999985465e+000	 3.333434029809068e-001	 1.026194938630280e+001
0	 5.266639999985466e+000	 4.000138002678045e-001	 1.026567770459244e+001
0	 5.266639999985465e+000	 4.666844975500011e-001	 1.026939020081425e+001
0	 5.266639999985465e+000	 5.333553781553801e-001	 1.027327353984719e+001
0	 5.266639999985466e+000	 6.000263254118247e-001	 1.027751439928685e+001
0	 5.266639999985466e+000	 6.666972226472178e-001	 1.028229946944605e+001
0	 5.333299999983334e+000	 0.000000000000000e+000	 1.021479495120182e+001
0	 5.333299999983336e+000	 6.666714722864757e-002	 1.022174291607145e+001
0	 5.333299999983333e+000	 1.333351778131789e-001	 1.022803458243119e+001
0	 5.333299999983336e+000	 2.000039750814772e-001	 1.023381160040941e+001
0	 5.333299999983334e+000	 2.666734223614255e-001	 1.023921563072211e+001
0	 5.333299999983334e+000	 3.333434029809068e-001	 1.024438834467222e+001
0	 5.333299999983334e+000	 4.000138002678044e-001	 1.024947142414915e+001
0	 5.333299999983334e+000	 4.666844975500011e-001	 1.025460656162864e+001
0	 5.333299999983333e+000	 5.333553781553803e-001	 1.025993546017287e+001
0	 5.333299999983335e+000	 6.000263254118248e-001	 1.026559983343092e+001
0	 5.333299999983334e+000	 6.666972226472175e-001	 1.027174140563937e+001
0	 4.666700000016667e+000	 6.666972226472179e-001	 1.032152932575581e+001
0	 4.666700000016665e+000	 7.333579753122046e-001	 1.032272679590504e+001
0	 4.666700000016666e+000	 8.000185779984418e-001	 1.032487114457426e+001
0	 4.666700000016665e+000	 8.666790473703452e-001	 1.032803685846516e+001
0	 4.666700000016666e+000	 9.333394000923320e-001	 1.033229842154617e+001
0	 4.666700000016666e+000	 9.999996528288190e-001	 1.033773031505255e+001
0	 4.666700000016665e+000	 1.066659822244222e+000	 1.034440701748627e+001
0	 4.666700000016667e+000	 1.133319925002959e+000	 1.035240300461608e+001
0	 4.666700000016666e+000	 1.199979977769445e+000	 1.036179274947745e+001
0	 4.666700000016667e+000	 1.266639997208098e+000	 1.037265072237258e+001
0	 4.666700000016666e+000	 1.333299999983334e+000	 1.038505139087045e+001
0	 4.733360000014533e+000	 6.666972226472174e-001	 1.031752354495225e+001
0	 4.733360000014534e+000	 7.333579753122049e-001	 1.031644676245818e+001
0	 4.733360000014533e+000	 8.000185779984421e-001	 1.031658081901056e+001
0	 4.733360000014535e+000	 8.666790473703454e-001	 1.031800643256684e+001
0	 4.733360000014532e+000	 9.333394000923320e-001	 1.032080431799661e+001
0	 4.733360000014533e+000	 9.999996528288190e-001	 1.032505518708158e+001
0	 4.733360000014534e+000	 1.066659822244222e+000	 1.033083974851553e+001
0	 4.733360000014534e+000	 1.133319925002959e+000	 1.033823870790428e+001
0	 4.733360000014533e+000	 1.199979977769445e+000	 1.034733276776575e+001
0	 4.733360000014534e+000	 1.266639997208097e+000	 1.035820262752987e+001
0	 4.733360000014534e+000	 1.333299999983334e+000	 1.037092898353867e+001
0	 4.800020000011600e+000	 6.666972226472175e-001	 1.031432515289970e+001
0	 4.800020000011599e+000	 7.333579753122046e-001	 1.031203705997016e+001
0	 4.800020000011600e+000	 8.000185779984415e-001	 1.031103543250297e+001
0	 4.800020000011601e+000	 8.666790473703455e-001	 1.031140507752541e+001
0	 4.800020000011600e+000	 9.333394000923323e-001	 1.031323079891308e+001
0	 4.800020000011599e+000	 9.999996528288186e-001	 1.031659739738994e+001
0	 4.800020000011601e+000	 1.066659822244222e+000	 1.032158967052815e+001
0	 4.800020000011601e+000	 1.133319925002959e+000	 1.032829241274819e+001
0	 4.800020000011601e+000	 1.199979977769445e+000	 1.033679041531875e+001
0	 4.800020000011601e+000	 1.266639997208098e+000	 1.034716846635675e+001
0	 4.800020000011601e+000	 1.333299999983334e+000	 1.035951135082739e+001
0	 4.866680000008067e+000	 6.666972226472177e-001	 1.031155029454914e+001
0	 4.866680000008067e+000	 7.333579753122050e-001	 1.030894523684107e+001
0	 4.866680000008067e+000	 8.000185779984419e-001	 1.030754872124377e+001
0	 4.866680000008067e+000	 8.666790473703453e-001	 1.030744750199052e+001
0	 4.866680000008066e+000	 9.333394000923324e-001	 1.030872833033776e+001
0	 4.866680000008067e+000	 9.999996528288191e-001	 1.031147795456517e+001
0	 4.866680000008066e+000	 1.066659822244222e+000	 1.031578311997557e+001
0	 4.866680000008065e+000	 1.133319925002958e+000	 1.032173056889492e+001
0	 4.866680000008068e+000	 1.199979977769445e+000	 1.032940704067229e+001
0	 4.866680000008066e+000	 1.266639997208098e+000	 1.033889927167992e+001
0	 4.866680000008067e+000	 1.333299999983334e+000	 1.035029399531319e+001
0	 4.933340000004133e+000	 6.666972226472175e-001	 1.030881511485158e+001
0	 4.933340000004135e+000	 7.333579753122049e-001	 1.030661884147097e+001
0	 4.933340000004133e+000	 8.000185779984418e-001	 1.030543442142524e+001
0	 4.933340000004134e+000	 8.666790473703455e-001	 1.030534841461185e+001
0	 4.933340000004133e+000	 9.333394000923323e-001	 1.030644737831286e+001
0	 4.933340000004134e+000	 9.999996528288190e-001	 1.030881786719491e+001
0	 4.933340000004134e+000	 1.066659822244222e+000	 1.031254643330922e+001
0	 4.933340000004135e+000	 1.133319925002959e+000	 1.031771962609156e+001
0	 4.933340000004133e+000	 1.199979977769445e+000	 1.032442399236225e+001
0	 4.933340000004134e+000	 1.266639997208098e+000	 1.033274607632613e+001
0	 4.933340000004134e+000	 1.333299999983334e+000	 1.034277241957265e+001
0	 5.000000000000001e+000	 6.666972226472178e-001	 1.030573575875803e+001
0	 5.000000000000002e+000	 7.333579753122050e-001	 1.030450542226000e+001
0	 5.000000000000002e+000	 8.000185779984418e-001	 1.030400626923971e+001
0	 5.000000000000001e+000	 8.666790473703453e-001	 1.030432252403914e+001
0	 5.000000000000001e+000	 9.333394000923323e-001	 1.030553840888061e+001
0	 5.000000000000000e+000	 9.999996528288190e-001	 1.030773814386676e+001
0	 5.000000000000001e+000	 1.066659822244222e+000	 1.031100594698056e+001
0	 5.000000000000002e+000	 1.133319925002959e+000	 1.031542603408528e+001
0	 5.000000000000001e+000	 1.199979977769445e+000	 1.032108261892451e+001
0	 5.000000000000000e+000	 1.266639997208098e+000	 1.032805991312213e+001
0	 4.999999999999999e+000	 1.333299999983334e+000	 1.033644212618235e+001
0	 5.066659999995868e+000	 6.666972226472178e-001	 1.030192837121959e+001
0	 5.066659999995868e+000	 7.333579753122048e-001	 1.030205252760832e+001
0	 5.066659999995867e+000	 8.000185779984419e-001	 1.030257800087952e+001
0	 5.066659999995865e+000	 8.666790473703453e-001	 1.030358453892211e+001
0	 5.066659999995866e+000	 9.333394000923321e-001	 1.030515188808326e+001
0	 5.066659999995865e+000	 9.999996528288186e-001	 1.030735979316836e+001
0	 5.066659999995867e+000	 1.066659822244222e+000	 1.031028799744106e+001
0	 5.066659999995868e+000	 1.133319925002959e+000	 1.031401624262321e+001
0	 5.066659999995867e+000	 1.199979977769445e+000	 1.031862426889495e+001
0	 5.066659999995866e+000	 1.266639997208098e+000	 1.032419181489463e+001
0	 5.066659999995866e+000	 1.333299999983334e+000	 1.033079861771891e+001
0	 5.133319999991933e+000	 6.666972226472177e-001	 1.029700909718735e+001
0	 5.133319999991933e+000	 7.333579753122048e-001	 1.029870770591611e+001
0	 5.133319999991933e+000	 8.000185779984418e-001	 1.030046335253705e+001
0	 5.133319999991933e+000	 8.666790473703454e-001	 1.030234916791054e+001
0	 5.133319999991933e+000	 9.333394000923322e-001	 1.030443828196310e+001
0	 5.133319999991934e+000	 9.999996528288190e-001	 1.030680382368738e+001
0	 5.133319999991932e+000	 1.066659822244222e+000	 1.030951892114220e+001
0	 5.133319999991933e+000	 1.133319925002959e+000	 1.031265670145252e+001
0	 5.133319999991932e+000	 1.199979977769445e+000	 1.031629029080949e+001
0	 5.133319999991934e+000	 1.266639997208098e+000	 1.032049281447045e+001
0	 5.133319999991933e+000	 1.333299999983334e+000	 1.032533739675889e+001
0	 5.199979999988399e+000	 6.666972226472177e-001	 1.029059408161245e+001
0	 5.199979999988398e+000	 7.333579753122047e-001	 1.029391850558359e+001
0	 5.199979999988399e+000	 8.000185779984419e-001	 1.029697606040470e+001
0	 5.199979999988399e+000	 8.666790473703452e-001	 1.029983111965420e+001
0	 5.199979999988399e+000	 9.333394000923322e-001	 1.030254805656242e+001
0	 5.199979999988399e+000	 9.999996528288189e-001	 1.030519124401150e+001
0	 5.199979999988400e+000	 1.066659822244222e+000	 1.030782505453551e+001
0	 5.199979999988399e+000	 1.133319925002959e+000	 1.031051386032040e+001
0	 5.199979999988399e+000	 1.199979977769445e+000	 1.031332203320406e+001
0	 5.199979999988398e+000	 1.266639997208097e+000	 1.031631394467632e+001
0	 5.199979999988400e+000	 1.333299999983334e+000	 1.031955396587894e+001
0	 5.266639999985466e+000	 6.666972226472178e-001	 1.028229946944605e+001
0	 5.266639999985464e+000	 7.333579753122047e-001	 1.028713247501101e+001
0	 5.266639999985466e+000	 8.000185779984418e-001	 1.029142986067490e+001
0	 5.266639999985464e+000	 8.666790473703451e-001	 1.029524510280294e+001
0	 5.266639999985466e+000	 9.333394000923322e-001	 1.029863167792355e+001
0	 5.266639999985465e+000	 9.999996528288189e-001	 1.030164306272841e+001
0	 5.266639999985464e+000	 1.066659822244222e+000	 1.030433273407249e+001
0	 5.266639999985465e+000	 1.133319925002958e+000	 1.030675416897403e+001
0	 5.266639999985466e+000	 1.199979977769445e+000	 1.030896084461458e+001
0	 5.266639999985465e+000	 1.266639997208098e+000	 1.031100623833905e+001
0	 5.266639999985464e+000	 1.333299999983333e+000	 1.031294382765568e+001
0	 5.333299999983334e+000	 6.666972226472175e-001	 1.027174140563937e+001
0	 5.333299999983334e+000	 7.333579753122048e-001	 1.027779716259864e+001
0	 5.333299999983334e+000	 8.000185779984417e-001	 1.028313848954011e+001
0	 5.333299999983334e+000	 8.666790473703453e-001	 1.028780582600656e+001
0	 5.333299999983335e+000	 9.333394000923322e-001	 1.029183961208883e+001
0	 5.333299999983333e+000	 9.999996528288189e-001	 1.029528028842587e+001
0	 5.333299999983334e+000	 1.066659822244222e+000	 1.029816829620473e+001
0	 5.333299999983335e+000	 1.133319925002959e+000	 1.030054407716063e+001
0	 5.333299999983334e+000	 1.199979977769445e+000	 1.030244807357700e+001
0	 5.333299999983333e+000	 1.266639997208098e+000	 1.030392072828543e+001
0	 5.333299999983335e+000	 1.333299999983334e+000	 1.030500248466575e+001
0	 4.666700000016666e+000	 1.333299999983334e+000	 1.038505139087045e+001
0	 4.666700000016665e+000	 1.399969999982150e+000	 1.039744081481344e+001
0	 4.666700000016666e+000	 1.466639999981866e+000	 1.040824967205578e+001
0	 4.666700000016667e+000	 1.533309999982383e+000	 1.041753529430544e+001
0	 4.666700000016666e+000	 1.599979999983600e+000	 1.042535501327034e+001
0	 4.666700000016665e+000	 1.666649999985416e+000	 1.043176616065843e+001
0	 4.666700000016666e+000	 1.733319999987733e+000	 1.043682606817762e+001
0	 4.666700000016666e+000	 1.799989999990450e+000	 1.044059206753581e+001
0	 4.666700000016666e+000	 1.866659999993466e+000	 1.044312149044090e+001
0	 4.666700000016666e+000	 1.933329999996683e+000	 1.044447166860078e+001
0	 4.666700000016666e+000	 2.000000000000000e+000	 1.044469993372329e+001
0	 4.733360000014534e+000	 1.333299999983334e+000	 1.037092898353867e+001
0	 4.733360000014534e+000	 1.399969999982150e+000	 1.038377398588018e+001
0	 4.733360000014533e+000	 1.466639999981867e+000	 1.039497628707853e+001
0	 4.733360000014533e+000	 1.533309999982383e+000	 1.040458749210563e+001
0	 4.733360000014534e+000	 1.599979999983600e+000	 1.041265920593336e+001
0	 4.733360000014534e+000	 1.666649999985416e+000	 1.041924303353362e+001
0	 4.733360000014533e+000	 1.733319999987733e+000	 1.042439057987825e+001
0	 4.733360000014532e+000	 1.799989999990450e+000	 1.042815344993911e+001
0	 4.733360000014534e+000	 1.866659999993466e+000	 1.043058324868803e+001
0	 4.733360000014534e+000	 1.933329999996683e+000	 1.043173158109684e+001
0	 4.733360000014533e+000	 2.000000000000000e+000	 1.043165005213734e+001
0	 4.800020000011601e+000	 1.333299999983334e+000	 1.035951135082739e+001
0	 4.800020000011600e+000	 1.399969999982150e+000	 1.037205504472867e+001
0	 4.800020000011600e+000	 1.466639999981866e+000	 1.038300588184724e+001
0	 4.800020000011599e+000	 1.533309999982383e+000	 1.039241019117136e+001
0	 4.800020000011599e+000	 1.599979999983599e+000	 1.040031430168929e+001
0	 4.800020000011600e+000	 1.666649999985416e+000	 1.040676454238926e+001
0	 4.800020000011599e+000	 1.733319999987733e+000	 1.041180724225950e+001
0	 4.800020000011599e+000	 1.799989999990449e+000	 1.041548873028821e+001
0	 4.800020000011599e+000	 1.866659999993466e+000	 1.041785533546358e+001
0	 4.800020000011600e+000	 1.933329999996683e+000	 1.041895338677379e+001
0	 4.800020000011601e+000	 2.000000000000000e+000	 1.041882921320703e+001
0	 4.866680000008067e+000	 1.333299999983334e+000	 1.035029399531319e+001
0	 4.866680000008065e+000	 1.399969999982150e+000	 1.036193032600599e+001
0	 4.866680000008065e+000	 1.466639999981866e+000	 1.037211351375304e+001
0	 4.866680000008068e+000	 1.533309999982383e+000	 1.038088506231136e+001
0	 4.866680000008067e+000	 1.599979999983599e+000	 1.038828647543799e+001
0	 4.866680000008066e+000	 1.666649999985416e+000	 1.039435925688993e+001
0	 4.866680000008068e+000	 1.733319999987733e+000	 1.039914491042420e+001
0	 4.866680000008065e+000	 1.799989999990449e+000	 1.040268493979776e+001
0	 4.866680000008067e+000	 1.866659999993467e+000	 1.040502084876758e+001
0	 4.866680000008066e+000	 1.933329999996683e+000	 1.040619414109063e+001
0	 4.866680000008066e+000	 2.000000000000000e+000	 1.040624632052384e+001
0	 4.933340000004134e+000	 1.333299999983334e+000	 1.034277241957265e+001
0	 4.933340000004134e+000	 1.399969999982150e+000	 1.035304616435920e+001
0	 4.933340000004134e+000	 1.466639999981866e+000	 1.036207424018701e+001
0	 4.933340000004133e+000	 1.533309999982383e+000	 1.036989377633430e+001
0	 4.933340000004133e+000	 1.599979999983599e+000	 1.037654190207930e+001
0	 4.933340000004133e+000	 1.666649999985416e+000	 1.038205574670020e+001
0	 4.933340000004133e+000	 1.733319999987733e+000	 1.038647243947517e+001
0	 4.933340000004134e+000	 1.799989999990449e+000	 1.038982910968242e+001
0	 4.933340000004132e+000	 1.866659999993466e+000	 1.039216288660008e+001
0	 4.933340000004134e+000	 1.933329999996684e+000	 1.039351089950631e+001
0	 4.933340000004134e+000	 2.000000000000000e+000	 1.039391027767927e+001
0	 4.999999999999999e+000	 1.333299999983334e+000	 1.033644212618236e+001
0	 5.000000000000001e+000	 1.399969999982150e+000	 1.034504889443537e+001
0	 5.000000000000000e+000	 1.466639999981866e+000	 1.035266311854029e+001
0	 4.999999999999998e+000	 1.533309999982383e+000	 1.035931800404893e+001
0	 5.000000000000000e+000	 1.599979999983600e+000	 1.036504675651311e+001
0	 5.000000000000000e+000	 1.666649999985416e+000	 1.036988258148463e+001
0	 5.000000000000000e+000	 1.733319999987733e+000	 1.037385868451528e+001
0	 5.000000000000002e+000	 1.799989999990450e+000	 1.037700827115686e+001
0	 5.000000000000002e+000	 1.866659999993466e+000	 1.037936454696112e+001
0	 5.000000000000002e+000	 1.933329999996683e+000	 1.038096071747985e+001
0	 5.000000000000001e+000	 2.000000000000000e+000	 1.038182998826479e+001
0	 5.066659999995866e+000	 1.333299999983334e+000	 1.033079861771890e+001
0	 5.066659999995867e+000	 1.399969999982150e+000	 1.033758485088159e+001
0	 5.066659999995868e+000	 1.466639999981866e+000	 1.034365520620400e+001
0	 5.066659999995866e+000	 1.533309999982383e+000	 1.034903941626394e+001
0	 5.066659999995868e+000	 1.599979999983600e+000	 1.035376721363927e+001
0	 5.066659999995866e+000	 1.666649999985416e+000	 1.035786833090780e+001
0	 5.066659999995867e+000	 1.733319999987733e+000	 1.036137250064736e+001
0	 5.066659999995867e+000	 1.799989999990449e+000	 1.036430945543574e+001
0	 5.066659999995868e+000	 1.866659999993466e+000	 1.036670892785077e+001
0	 5.066659999995865e+000	 1.933329999996683e+000	 1.036860065047023e+001
0	 5.066659999995866e+000	 2.000000000000000e+000	 1.037001435587190e+001
0	 5.133319999991933e+000	 1.333299999983334e+000	 1.032533739675890e+001
0	 5.133319999991933e+000	 1.399969999982150e+000	 1.033030036834495e+001
0	 5.133319999991933e+000	 1.466639999981867e+000	 1.033482556056926e+001
0	 5.133319999991933e+000	 1.533309999982383e+000	 1.033893968378807e+001
0	 5.133319999991933e+000	 1.599979999983600e+000	 1.034266944835767e+001
0	 5.133319999991934e+000	 1.666649999985416e+000	 1.034604156463430e+001
0	 5.133319999991933e+000	 1.733319999987733e+000	 1.034908274297425e+001
0	 5.133319999991933e+000	 1.799989999990450e+000	 1.035181969373375e+001
0	 5.133319999991933e+000	 1.866659999993466e+000	 1.035427912726906e+001
0	 5.133319999991933e+000	 1.933329999996683e+000	 1.035648775393644e+001
0	 5.133319999991933e+000	 2.000000000000000e+000	 1.035847228409210e+001
0	 5.199979999988400e+000	 1.333299999983334e+000	 1.031955396587895e+001
0	 5.199979999988398e+000	 1.399969999982150e+000	 1.032284178147257e+001
0	 5.199979999988401e+000	 1.466639999981867e+000	 1.032594923902723e+001
0	 5.199979999988400e+000	 1.533309999982383e+000	 1.032890047743005e+001
0	 5.199979999988399e+000	 1.599979999983599e+000	 1.033171963556817e+001
0	 5.199979999988401e+000	 1.666649999985417e+000	 1.033443085232871e+001
0	 5.199979999988400e+000	 1.733319999987733e+000	 1.033705826659880e+001
0	 5.199979999988400e+000	 1.799989999990450e+000	 1.033962601726554e+001
0	 5.199979999988398e+000	 1.866659999993466e+000	 1.034215824321606e+001
0	 5.199979999988399e+000	 1.933329999996683e+000	 1.034467908333747e+001
0	 5.199979999988400e+000	 2.000000000000000e+000	 1.034721267651688e+001
0	 5.266639999985464e+000	 1.333299999983333e+000	 1.031294382765568e+001
0	 5.266639999985466e+000	 1.399969999982150e+000	 1.031485542491152e+001
0	 5.266639999985465e+000	 1.466639999981866e+000	 1.031680129896902e+001
0	 5.266639999985466e+000	 1.533309999982383e+000	 1.031880346799860e+001
0	 5.266639999985467e+000	 1.599979999983599e+000	 1.032088395017067e+001
0	 5.266639999985467e+000	 1.666649999985417e+000	 1.032306476365562e+001
0	 5.266639999985466e+000	 1.733319999987733e+000	 1.032536792662386e+001
0	 5.266639999985466e+000	 1.799989999990450e+000	 1.032781545724579e+001
0	 5.266639999985466e+000	 1.866659999993466e+000	 1.033042937369182e+001
0	 5.266639999985465e+000	 1.933329999996683e+000	 1.033323169413234e+001
0	 5.266639999985466e+000	 2.000000000000000e+000	 1.033624443673775e+001
0	 5.333299999983335e+000	 1.333299999983334e+000	 1.030500248466575e+001
0	 5.333299999983333e+000	 1.399969999982150e+000	 1.030598763330893e+001
0	 5.333299999983335e+000	 1.466639999981867e+000	 1.030715679778581e+001
0	 5.333299999983333e+000	 1.533309999982383e+000	 1.030853032630249e+001
0	 5.333299999983335e+000	 1.599979999983599e+000	 1.031012856706505e+001
0	 5.333299999983334e+000	 1.666649999985416e+000	 1.031197186827962e+001
0	 5.333299999983334e+000	 1.733319999987733e+000	 1.031408057815230e+001
0	 5.333299999983333e+000	 1.799989999990449e+000	 1.031647504488918e+001
0	 5.333299999983334e+000	 1.866659999993466e+000	 1.031917561669639e+001
0	 5.333299999983334e+000	 1.933329999996684e+000	 1.032220264178003e+001
0	 5.333299999983333e+000	 2.000000000000000e+000	 1.032557646834622e+001
0	 4.666700000016666e+000	 2.000000000000000e+000	 1.044469993372329e+001
0	 4.666700000016665e+000	 2.066670000003317e+000	 1.044429552678682e+001
0	 4.666700000016666e+000	 2.133340000006534e+000	 1.044372289136454e+001
0	 4.666700000016667e+000	 2.200010000009551e+000	 1.044300216305653e+001
0	 4.666700000016666e+000	 2.266680000012268e+000	 1.044215347746285e+001
0	 4.666700000016667e+000	 2.333350000014584e+000	 1.044119697018354e+001
0	 4.666700000016666e+000	 2.400020000016401e+000	 1.044015277681866e+001
0	 4.666700000016668e+000	 2.466690000017617e+000	 1.043904103296828e+001
0	 4.666700000016667e+000	 2.533360000018134e+000	 1.043788187423241e+001
0	 4.666700000016667e+000	 2.600030000017851e+000	 1.043669543621110e+001
0	 4.666700000016666e+000	 2.666700000016666e+000	 1.043550185450438e+001
0	 4.733360000014533e+000	 2.000000000000000e+000	 1.043165005213734e+001
0	 4.733360000014532e+000	 2.066670000003317e+000	 1.043096160842643e+001
0	 4.733360000014533e+000	 2.133340000006534e+000	 1.043025946539708e+001
0	 4.733360000014531e+000	 2.200010000009550e+000	 1.042955063124518e+001
0	 4.733360000014532e+000	 2.266680000012267e+000	 1.042884211416662e+001
0	 4.733360000014534e+000	 2.333350000014585e+000	 1.042814092235728e+001
0	 4.733360000014534e+000	 2.400020000016401e+000	 1.042745406401306e+001
0	 4.733360000014533e+000	 2.466690000017617e+000	 1.042678854732983e+001
0	 4.733360000014534e+000	 2.533360000018134e+000	 1.042615138050346e+001
0	 4.733360000014534e+000	 2.600030000017850e+000	 1.042554957172982e+001
0	 4.733360000014534e+000	 2.666700000016666e+000	 1.042499012920478e+001
0	 4.800020000011601e+000	 2.000000000000000e+000	 1.041882921320703e+001
0	 4.800020000011599e+000	 2.066670000003316e+000	 1.041814693139567e+001
0	 4.800020000011598e+000	 2.133340000006533e+000	 1.041753732281578e+001
0	 4.800020000011600e+000	 2.200010000009550e+000	 1.041699671372095e+001
0	 4.800020000011599e+000	 2.266680000012266e+000	 1.041652143036483e+001
0	 4.800020000011599e+000	 2.333350000014585e+000	 1.041610779900102e+001
0	 4.800020000011599e+000	 2.400020000016400e+000	 1.041575214588314e+001
0	 4.800020000011599e+000	 2.466690000017617e+000	 1.041545079726478e+001
0	 4.800020000011600e+000	 2.533360000018134e+000	 1.041520007939955e+001
0	 4.800020000011601e+000	 2.600030000017851e+000	 1.041499631854107e+001
0	 4.800020000011601e+000	 2.666700000016667e+000	 1.041483584094292e+001
0	 4.866680000008066e+000	 2.000000000000000e+000	 1.040624632052384e+001
0	 4.866680000008067e+000	 2.066670000003316e+000	 1.040580631640972e+001
0	 4.866680000008066e+000	 2.133340000006534e+000	 1.040546744876829e+001
0	 4.866680000008066e+000	 2.200010000009550e+000	 1.040521780737281e+001
0	 4.866680000008066e+000	 2.266680000012267e+000	 1.040504548199652e+001
0	 4.866680000008065e+000	 2.333350000014584e+000	 1.040493856241267e+001
0	 4.866680000008066e+000	 2.400020000016400e+000	 1.040488513839449e+001
0	 4.866680000008067e+000	 2.466690000017617e+000	 1.040487329971522e+001
0	 4.866680000008067e+000	 2.533360000018134e+000	 1.040489113614809e+001
0	 4.866680000008065e+000	 2.600030000017850e+000	 1.040492673746633e+001
0	 4.866680000008069e+000	 2.666700000016667e+000	 1.040496819344318e+001
0	 4.933340000004134e+000	 2.000000000000000e+000	 1.039391027767927e+001
0	 4.933340000004133e+000	 2.066670000003317e+000	 1.039389458418373e+001
0	 4.933340000004133e+000	 2.133340000006534e+000	 1.039396082840228e+001
0	 4.933340000004133e+000	 2.200010000009550e+000	 1.039409130908968e+001
0	 4.933340000004133e+000	 2.266680000012267e+000	 1.039426832500071e+001
0	 4.933340000004134e+000	 2.333350000014584e+000	 1.039447417489015e+001
0	 4.933340000004133e+000	 2.400020000016400e+000	 1.039469115751275e+001
0	 4.933340000004134e+000	 2.466690000017617e+000	 1.039490157162327e+001
0	 4.933340000004133e+000	 2.533360000018133e+000	 1.039508771597648e+001
0	 4.933340000004135e+000	 2.600030000017851e+000	 1.039523188932715e+001
0	 4.933340000004134e+000	 2.666700000016666e+000	 1.039531639043003e+001
0	 5.000000000000001e+000	 2.000000000000000e+000	 1.038182998826479e+001
0	 5.000000000000002e+000	 2.066670000003317e+000	 1.038236655543288e+001
0	 5.000000000000002e+000	 2.133340000006534e+000	 1.038292844686538e+001
0	 5.000000000000002e+000	 2.200010000009550e+000	 1.038349461576050e+001
0	 5.000000000000000e+000	 2.266680000012267e+000	 1.038404401531643e+001
0	 5.000000000000000e+000	 2.333350000014584e+000	 1.038455559873137e+001
0	 5.000000000000000e+000	 2.400020000016401e+000	 1.038500831920350e+001
0	 5.000000000000000e+000	 2.466690000017617e+000	 1.038538112993103e+001
0	 5.000000000000002e+000	 2.533360000018134e+000	 1.038565298411215e+001
0	 5.000000000000000e+000	 2.600030000017850e+000	 1.038580283494503e+001
0	 5.000000000000000e+000	 2.666700000016665e+000	 1.038580963562787e+001
0	 5.066659999995866e+000	 2.000000000000000e+000	 1.037001435587190e+001
0	 5.066659999995867e+000	 2.066670000003317e+000	 1.037117705087235e+001
0	 5.066659999995868e+000	 2.133340000006534e+000	 1.037228128930527e+001
0	 5.066659999995867e+000	 2.200010000009550e+000	 1.037330512427422e+001
0	 5.066659999995867e+000	 2.266680000012268e+000	 1.037422660888270e+001
0	 5.066659999995865e+000	 2.333350000014584e+000	 1.037502379623426e+001
0	 5.066659999995868e+000	 2.400020000016401e+000	 1.037567473943241e+001
0	 5.066659999995866e+000	 2.466690000017617e+000	 1.037615749158066e+001
0	 5.066659999995867e+000	 2.533360000018133e+000	 1.037645010578253e+001
0	 5.066659999995867e+000	 2.600030000017850e+000	 1.037653063514153e+001
0	 5.066659999995867e+000	 2.666700000016666e+000	 1.037637713276116e+001
0	 5.133319999991933e+000	 2.000000000000000e+000	 1.035847228409210e+001
0	 5.133319999991932e+000	 2.066670000003317e+000	 1.036028089121730e+001
0	 5.133319999991933e+000	 2.133340000006534e+000	 1.036193034086960e+001
0	 5.133319999991933e+000	 2.200010000009551e+000	 1.036340023151978e+001
0	 5.133319999991933e+000	 2.266680000012267e+000	 1.036467016163859e+001
0	 5.133319999991933e+000	 2.333350000014584e+000	 1.036571972969677e+001
0	 5.133319999991934e+000	 2.400020000016400e+000	 1.036652853416508e+001
0	 5.133319999991933e+000	 2.466690000017618e+000	 1.036707617351425e+001
0	 5.133319999991930e+000	 2.533360000018133e+000	 1.036734224621504e+001
0	 5.133319999991933e+000	 2.600030000017851e+000	 1.036730635073816e+001
0	 5.133319999991933e+000	 2.666700000016667e+000	 1.036694808555435e+001
0	 5.199979999988400e+000	 2.000000000000000e+000	 1.034721267651688e+001
0	 5.199979999988399e+000	 2.066670000003317e+000	 1.034963289718292e+001
0	 5.199979999988398e+000	 2.133340000006534e+000	 1.035178658670604e+001
0	 5.199979999988400e+000	 2.200010000009550e+000	 1.035365733438615e+001
0	 5.199979999988400e+000	 2.266680000012267e+000	 1.035522872952313e+001
0	 5.199979999988400e+000	 2.333350000014584e+000	 1.035648436141683e+001
0	 5.199979999988399e+000	 2.400020000016401e+000	 1.035740781936716e+001
0	 5.199979999988398e+000	 2.466690000017617e+000	 1.035798269267397e+001
0	 5.199979999988400e+000	 2.533360000018133e+000	 1.035819257063712e+001
0	 5.199979999988398e+000	 2.600030000017850e+000	 1.035802104255648e+001
0	 5.199979999988400e+000	 2.666700000016666e+000	 1.035745169773189e+001
0	 5.266639999985466e+000	 2.000000000000000e+000	 1.033624443673775e+001
0	 5.266639999985465e+000	 2.066670000003317e+000	 1.033918788948440e+001
0	 5.266639999985466e+000	 2.133340000006534e+000	 1.034176101196227e+001
0	 5.266639999985466e+000	 2.200010000009550e+000	 1.034395382976229e+001
0	 5.266639999985467e+000	 2.266680000012267e+000	 1.034575636847536e+001
0	 5.266639999985466e+000	 2.333350000014584e+000	 1.034715865369239e+001
0	 5.266639999985467e+000	 2.400020000016401e+000	 1.034815071100429e+001
0	 5.266639999985466e+000	 2.466690000017617e+000	 1.034872256600194e+001
0	 5.266639999985463e+000	 2.533360000018133e+000	 1.034886424427623e+001
0	 5.266639999985467e+000	 2.600030000017851e+000	 1.034856577141803e+001
0	 5.266639999985465e+000	 2.666700000016666e+000	 1.034781717301825e+001
0	 5.333299999983333e+000	 2.000000000000000e+000	 1.032557646834622e+001
0	 5.333299999983333e+000	 2.066670000003317e+000	 1.032890068883692e+001
0	 5.333299999983333e+000	 2.133340000006534e+000	 1.033176460178595e+001
0	 5.333299999983335e+000	 2.200010000009550e+000	 1.033416711453715e+001
0	 5.333299999983333e+000	 2.266680000012268e+000	 1.033610713443437e+001
0	 5.333299999983335e+000	 2.333350000014584e+000	 1.033758356882141e+001
0	 5.333299999983334e+000	 2.400020000016401e+000	 1.033859532504212e+001
0	 5.333299999983334e+000	 2.466690000017617e+000	 1.033914131044032e+001
0	 5.333299999983335e+000	 2.533360000018134e+000	 1.033922043235980e+001
0	 5.333299999983333e+000	 2.600030000017851e+000	 1.033883159814441e+001
0	 5.333299999983334e+000	 2.666700000016666e+000	 1.033797371513790e+001
0	 4.666700000016666e+000	 2.666700000016666e+000	 1.043550185450438e+001
0	 4.666700000016666e+000	 2.733360000014533e+000	 1.043410257573875e+001
0	 4.666700000016665e+000	 2.800020000011599e+000	 1.043226335487451e+001
0	 4.666700000016666e+000	 2.866680000008067e+000	 1.042995132568431e+001
0	 4.666700000016667e+000	 2.933340000004133e+000	 1.042713362194082e+001
0	 4.666700000016666e+000	 3.000000000000000e+000	 1.042377737741675e+001
0	 4.666700000016665e+000	 3.066659999995866e+000	 1.041984972588478e+001
0	 4.666700000016666e+000	 3.133319999991934e+000	 1.041531780111768e+001
0	 4.666700000016665e+000	 3.199979999988400e+000	 1.041014873688816e+001
0	 4.666700000016665e+000	 3.266639999985467e+000	 1.040430966696900e+001
0	 4.666700000016666e+000	 3.333299999983334e+000	 1.039776772513298e+001
0	 4.733360000014534e+000	 2.666700000016666e+000	 1.042499012920478e+001
0	 4.733360000014534e+000	 2.733360000014534e+000	 1.042418270887218e+001
0	 4.733360000014532e+000	 2.800020000011599e+000	 1.042282173401130e+001
0	 4.733360000014534e+000	 2.866680000008067e+000	 1.042089160497456e+001
0	 4.733360000014534e+000	 2.933340000004133e+000	 1.041837672211443e+001
0	 4.733360000014534e+000	 3.000000000000000e+000	 1.041526148578339e+001
0	 4.733360000014534e+000	 3.066659999995867e+000	 1.041153029633393e+001
0	 4.733360000014534e+000	 3.133319999991934e+000	 1.040716755411858e+001
0	 4.733360000014534e+000	 3.199979999988400e+000	 1.040215765948985e+001
0	 4.733360000014534e+000	 3.266639999985468e+000	 1.039648501280031e+001
0	 4.733360000014534e+000	 3.333299999983334e+000	 1.039013401440254e+001
0	 4.800020000011601e+000	 2.666700000016667e+000	 1.041483584094292e+001
0	 4.800020000011601e+000	 2.733360000014532e+000	 1.041438673805149e+001
0	 4.800020000011600e+000	 2.800020000011599e+000	 1.041331872405672e+001
0	 4.800020000011601e+000	 2.866680000008067e+000	 1.041163062235172e+001
0	 4.800020000011599e+000	 2.933340000004135e+000	 1.040932125632957e+001
0	 4.800020000011600e+000	 3.000000000000000e+000	 1.040638944938339e+001
0	 4.800020000011601e+000	 3.066659999995867e+000	 1.040283402490631e+001
0	 4.800020000011601e+000	 3.133319999991933e+000	 1.039865380629147e+001
0	 4.800020000011600e+000	 3.199979999988401e+000	 1.039384761693206e+001
0	 4.800020000011599e+000	 3.266639999985466e+000	 1.038841428022126e+001
0	 4.800020000011601e+000	 3.333299999983335e+000	 1.038235261955226e+001
0	 4.866680000008069e+000	 2.666700000016667e+000	 1.040496819344318e+001
0	 4.866680000008066e+000	 2.733360000014534e+000	 1.040468389639257e+001
0	 4.866680000008067e+000	 2.800020000011600e+000	 1.040375712616597e+001
0	 4.866680000008065e+000	 2.866680000008066e+000	 1.040219828565799e+001
0	 4.866680000008066e+000	 2.933340000004133e+000	 1.040001777776320e+001
0	 4.866680000008067e+000	 3.000000000000000e+000	 1.039722600537617e+001
0	 4.866680000008066e+000	 3.066659999995866e+000	 1.039383337139157e+001
0	 4.866680000008066e+000	 3.133319999991934e+000	 1.038985027870399e+001
0	 4.866680000008067e+000	 3.199979999988400e+000	 1.038528713020809e+001
0	 4.866680000008066e+000	 3.266639999985467e+000	 1.038015432879856e+001
0	 4.866680000008066e+000	 3.333299999983333e+000	 1.037446227737007e+001
0	 4.933340000004134e+000	 2.666700000016666e+000	 1.039531639043003e+001
0	 4.933340000004135e+000	 2.733360000014533e+000	 1.039504341701140e+001
0	 4.933340000004134e+000	 2.800020000011601e+000	 1.039413974149429e+001
0	 4.933340000004132e+000	 2.866680000008067e+000	 1.039262450273561e+001
0	 4.933340000004133e+000	 2.933340000004133e+000	 1.039051683959228e+001
0	 4.933340000004135e+000	 3.000000000000000e+000	 1.038783589092123e+001
0	 4.933340000004134e+000	 3.066659999995867e+000	 1.038460079557940e+001
0	 4.933340000004134e+000	 3.133319999991934e+000	 1.038083069242376e+001
0	 4.933340000004132e+000	 3.199979999988401e+000	 1.037654472031130e+001
0	 4.933340000004135e+000	 3.266639999985467e+000	 1.037176201809902e+001
0	 4.933340000004134e+000	 3.333299999983334e+000	 1.036650172464393e+001
0	 5.000000000000000e+000	 2.666700000016665e+000	 1.038580963562787e+001
0	 5.000000000000000e+000	 2.733360000014533e+000	 1.038543453302394e+001
0	 5.000000000000000e+000	 2.800020000011600e+000	 1.038446937119689e+001
0	 5.000000000000002e+000	 2.866680000008067e+000	 1.038293918142681e+001
0	 5.000000000000002e+000	 2.933340000004133e+000	 1.038086899499380e+001
0	 5.000000000000000e+000	 3.000000000000000e+000	 1.037828384317798e+001
0	 5.000000000000002e+000	 3.066659999995867e+000	 1.037520875725947e+001
0	 5.000000000000000e+000	 3.133319999991934e+000	 1.037166876851843e+001
0	 5.000000000000002e+000	 3.199979999988401e+000	 1.036768890823501e+001
0	 5.000000000000001e+000	 3.266639999985467e+000	 1.036329420768939e+001
0	 4.999999999999999e+000	 3.333299999983334e+000	 1.035850969816177e+001
0	 5.066659999995867e+000	 2.666700000016666e+000	 1.037637713276116e+001
0	 5.066659999995868e+000	 2.733360000014533e+000	 1.037582647754615e+001
0	 5.066659999995868e+000	 2.800020000011599e+000	 1.037474881642900e+001
0	 5.066659999995866e+000	 2.866680000008067e+000	 1.037317222957381e+001
0	 5.066659999995866e+000	 2.933340000004133e+000	 1.037112479714473e+001
0	 5.066659999995867e+000	 3.000000000000000e+000	 1.036863459930589e+001
0	 5.066659999995866e+000	 3.066659999995866e+000	 1.036572971622146e+001
0	 5.066659999995867e+000	 3.133319999991934e+000	 1.036243822805563e+001
0	 5.066659999995868e+000	 3.199979999988400e+000	 1.035878821497255e+001
0	 5.066659999995868e+000	 3.266639999985467e+000	 1.035480775713645e+001
0	 5.066659999995866e+000	 3.333299999983334e+000	 1.035052493471153e+001
0	 5.133319999991933e+000	 2.666700000016667e+000	 1.036694808555435e+001
0	 5.133319999991935e+000	 2.733360000014533e+000	 1.036618848369402e+001
0	 5.133319999991932e+000	 2.800020000011599e+000	 1.036498087834586e+001
0	 5.133319999991932e+000	 2.866680000008067e+000	 1.036335355501887e+001
0	 5.133319999991933e+000	 2.933340000004133e+000	 1.036133479922206e+001
0	 5.133319999991935e+000	 3.000000000000000e+000	 1.035895289646444e+001
0	 5.133319999991934e+000	 3.066659999995868e+000	 1.035623613225508e+001
0	 5.133319999991932e+000	 3.133319999991933e+000	 1.035321279210300e+001
0	 5.133319999991933e+000	 3.199979999988400e+000	 1.034991116151727e+001
0	 5.133319999991934e+000	 3.266639999985467e+000	 1.034635952600696e+001
0	 5.133319999991931e+000	 3.333299999983333e+000	 1.034258617108116e+001
0	 5.199979999988400e+000	 2.666700000016666e+000	 1.035745169773189e+001
0	 5.199979999988398e+000	 2.733360000014533e+000	 1.035648978458353e+001
0	 5.199979999988401e+000	 2.800020000011600e+000	 1.035516835810273e+001
0	 5.199979999988399e+000	 2.866680000008067e+000	 1.035351306560423e+001
0	 5.199979999988400e+000	 2.933340000004133e+000	 1.035154955440277e+001
0	 5.199979999988399e+000	 3.000000000000000e+000	 1.034930347181309e+001
0	 5.199979999988400e+000	 3.066659999995867e+000	 1.034680046514998e+001
0	 5.199979999988399e+000	 3.133319999991933e+000	 1.034406618172818e+001
0	 5.199979999988400e+000	 3.199979999988401e+000	 1.034112626886249e+001
0	 5.199979999988398e+000	 3.266639999985467e+000	 1.033800637386769e+001
0	 5.199979999988399e+000	 3.333299999983334e+000	 1.033473214405860e+001
0	 5.266639999985465e+000	 2.666700000016666e+000	 1.034781717301825e+001
0	 5.266639999985464e+000	 2.733360000014533e+000	 1.034669961333065e+001
0	 5.266639999985467e+000	 2.800020000011600e+000	 1.034531405685484e+001
0	 5.266639999985466e+000	 2.866680000008066e+000	 1.034368066917213e+001
0	 5.266639999985465e+000	 2.933340000004133e+000	 1.034181961586385e+001
0	 5.266639999985466e+000	 3.000000000000000e+000	 1.033975106251131e+001
0	 5.266639999985466e+000	 3.066659999995868e+000	 1.033749517469586e+001
0	 5.266639999985465e+000	 3.133319999991933e+000	 1.033507211799881e+001
0	 5.266639999985467e+000	 3.199979999988400e+000	 1.033250205800155e+001
0	 5.266639999985465e+000	 3.266639999985467e+000	 1.032980516028542e+001
0	 5.266639999985465e+000	 3.333299999983333e+000	 1.032700159043179e+001
0	 5.333299999983334e+000	 2.666700000016666e+000	 1.033797371513790e+001
0	 5.333299999983334e+000	 2.733360000014532e+000	 1.033678720305139e+001
0	 5.333299999983334e+000	 2.800020000011599e+000	 1.033542077575746e+001
0	 5.333299999983334e+000	 2.866680000008067e+000	 1.033388627356486e+001
0	 5.333299999983335e+000	 2.933340000004133e+000	 1.033219553678231e+001
0	 5.333299999983333e+000	 3.000000000000000e+000	 1.033036040571857e+001
0	 5.333299999983334e+000	 3.066659999995867e+000	 1.032839272068240e+001
0	 5.333299999983334e+000	 3.133319999991934e+000	 1.032630432198255e+001
0	 5.333299999983333e+000	 3.199979999988401e+000	 1.032410704992779e+001
0	 5.333299999983334e+000	 3.266639999985468e+000	 1.032181274482691e+001
0	 5.333299999983335e+000	 3.333299999983334e+000	 1.031943324698867e+001
0	 4.666700000016666e+000	 3.333299999983334e+000	 1.039776772513298e+001
0	 4.666700000016665e+000	 3.399969999982150e+000	 1.039086957632082e+001
0	 4.666700000016666e+000	 3.466639999981866e+000	 1.038398663802623e+001
0	 4.666700000016666e+000	 3.533309999982382e+000	 1.037712006559091e+001
0	 4.666700000016665e+000	 3.599979999983599e+000	 1.037027101435650e+001
0	 4.666700000016667e+000	 3.666649999985417e+000	 1.036344063966471e+001
0	 4.666700000016667e+000	 3.733319999987733e+000	 1.035663009685718e+001
0	 4.666700000016666e+000	 3.799989999990449e+000	 1.034984054127557e+001
0	 4.666700000016667e+000	 3.866659999993467e+000	 1.034307312826156e+001
0	 4.666700000016666e+000	 3.933329999996684e+000	 1.033632901315679e+001
0	 4.666700000016667e+000	 4.000000000000001e+000	 1.032960935130294e+001
0	 4.733360000014534e+000	 3.333299999983334e+000	 1.039013401440254e+001
0	 4.733360000014534e+000	 3.399969999982150e+000	 1.038348200001199e+001
0	 4.733360000014533e+000	 3.466639999981868e+000	 1.037691178217730e+001
0	 4.733360000014533e+000	 3.533309999982383e+000	 1.037041296328102e+001
0	 4.733360000014534e+000	 3.599979999983600e+000	 1.036397514570579e+001
0	 4.733360000014534e+000	 3.666649999985415e+000	 1.035758793183415e+001
0	 4.733360000014534e+000	 3.733319999987733e+000	 1.035124092404872e+001
0	 4.733360000014531e+000	 3.799989999990450e+000	 1.034492372473207e+001
0	 4.733360000014534e+000	 3.866659999993467e+000	 1.033862593626680e+001
0	 4.733360000014534e+000	 3.933329999996684e+000	 1.033233716103548e+001
0	 4.733360000014533e+000	 4.000000000000000e+000	 1.032604700142069e+001
0	 4.800020000011601e+000	 3.333299999983335e+000	 1.038235261955226e+001
0	 4.800020000011601e+000	 3.399969999982150e+000	 1.037604214944821e+001
0	 4.800020000011599e+000	 3.466639999981866e+000	 1.036985186660340e+001
0	 4.800020000011600e+000	 3.533309999982383e+000	 1.036376194808416e+001
0	 4.800020000011598e+000	 3.599979999983599e+000	 1.035775257095678e+001
0	 4.800020000011599e+000	 3.666649999985417e+000	 1.035180391228762e+001
0	 4.800020000011599e+000	 3.733319999987733e+000	 1.034589614914293e+001
0	 4.800020000011600e+000	 3.799989999990451e+000	 1.034000945858904e+001
0	 4.800020000011599e+000	 3.866659999993466e+000	 1.033412401769227e+001
0	 4.800020000011600e+000	 3.933329999996684e+000	 1.032822000351890e+001
0	 4.800020000011600e+000	 4.000000000000000e+000	 1.032227759313526e+001
0	 4.866680000008066e+000	 3.333299999983333e+000	 1.037446227737007e+001
0	 4.866680000008066e+000	 3.399969999982150e+000	 1.036856915942706e+001
0	 4.866680000008066e+000	 3.466639999981866e+000	 1.036280993344779e+001
0	 4.866680000008066e+000	 3.533309999982382e+000	 1.035715747882510e+001
0	 4.866680000008066e+000	 3.599979999983599e+000	 1.035158467495182e+001
0	 4.866680000008067e+000	 3.666649999985417e+000	 1.034606440122079e+001
0	 4.866680000008068e+000	 3.733319999987734e+000	 1.034056953702484e+001
0	 4.866680000008066e+000	 3.799989999990450e+000	 1.033507296175683e+001
0	 4.866680000008066e+000	 3.866659999993467e+000	 1.032954755480955e+001
0	 4.866680000008066e+000	 3.933329999996684e+000	 1.032396619557586e+001
0	 4.866680000008067e+000	 4.000000000000001e+000	 1.031830176344856e+001
0	 4.933340000004134e+000	 3.333299999983334e+000	 1.036650172464393e+001
0	 4.933340000004133e+000	 3.399969999982149e+000	 1.036108216474618e+001
0	 4.933340000004134e+000	 3.466639999981867e+000	 1.035578902485369e+001
0	 4.933340000004134e+000	 3.533309999982384e+000	 1.035059001432861e+001
0	 4.933340000004135e+000	 3.599979999983600e+000	 1.034545284253312e+001
0	 4.933340000004133e+000	 3.666649999985416e+000	 1.034034521882938e+001
0	 4.933340000004134e+000	 3.733319999987733e+000	 1.033523485257955e+001
0	 4.933340000004133e+000	 3.799989999990450e+000	 1.033008945314579e+001
0	 4.933340000004135e+000	 3.866659999993468e+000	 1.032487672989025e+001
0	 4.933340000004135e+000	 3.933329999996684e+000	 1.031956439217510e+001
0	 4.933340000004135e+000	 4.000000000000001e+000	 1.031412014936248e+001
0	 4.999999999999999e+000	 3.333299999983334e+000	 1.035850969816177e+001
0	 5.000000000000000e+000	 3.399969999982150e+000	 1.035360030020318e+001
0	 5.000000000000000e+000	 3.466639999981867e+000	 1.034879218296432e+001
0	 5.000000000000000e+000	 3.533309999982383e+000	 1.034405001341948e+001
0	 5.000000000000001e+000	 3.599979999983600e+000	 1.033933845854297e+001
0	 4.999999999999999e+000	 3.666649999985416e+000	 1.033462218530907e+001
0	 5.000000000000002e+000	 3.733319999987733e+000	 1.032986586069209e+001
0	 5.000000000000002e+000	 3.799989999990450e+000	 1.032503415166629e+001
0	 5.000000000000001e+000	 3.866659999993467e+000	 1.032009172520598e+001
0	 5.000000000000002e+000	 3.933329999996685e+000	 1.031500324828543e+001
0	 5.000000000000000e+000	 4.000000000000001e+000	 1.030973338787892e+001
0	 5.066659999995866e+000	 3.333299999983334e+000	 1.035052493471153e+001
0	 5.066659999995867e+000	 3.399969999982150e+000	 1.034614270059567e+001
0	 5.066659999995867e+000	 3.466639999981866e+000	 1.034182244992291e+001
0	 5.066659999995866e+000	 3.533309999982384e+000	 1.033752793492249e+001
0	 5.066659999995868e+000	 3.599979999983600e+000	 1.033322290782363e+001
0	 5.066659999995867e+000	 3.666649999985416e+000	 1.032887112085556e+001
0	 5.066659999995867e+000	 3.733319999987733e+000	 1.032443632624751e+001
0	 5.066659999995869e+000	 3.799989999990451e+000	 1.031988227622870e+001
0	 5.066659999995866e+000	 3.866659999993466e+000	 1.031517272302833e+001
0	 5.066659999995867e+000	 3.933329999996685e+000	 1.031027141887562e+001
0	 5.066659999995867e+000	 4.000000000000000e+000	 1.030514211599980e+001
0	 5.133319999991931e+000	 3.333299999983333e+000	 1.034258617108116e+001
0	 5.133319999991933e+000	 3.399969999982150e+000	 1.033872850072127e+001
0	 5.133319999991933e+000	 3.466639999981867e+000	 1.033488286787268e+001
0	 5.133319999991932e+000	 3.533309999982383e+000	 1.033101423766240e+001
0	 5.133319999991933e+000	 3.599979999983600e+000	 1.032708757521737e+001
0	 5.133319999991934e+000	 3.666649999985416e+000	 1.032306784566455e+001
0	 5.133319999991934e+000	 3.733319999987733e+000	 1.031892001413089e+001
0	 5.133319999991934e+000	 3.799989999990450e+000	 1.031460904574336e+001
0	 5.133319999991933e+000	 3.866659999993467e+000	 1.031009990562890e+001
0	 5.133319999991932e+000	 3.933329999996683e+000	 1.030535755891447e+001
0	 5.133319999991932e+000	 4.000000000000001e+000	 1.030034697072698e+001
0	 5.199979999988399e+000	 3.333299999983334e+000	 1.033473214405860e+001
0	 5.199979999988398e+000	 3.399969999982150e+000	 1.033137683537759e+001
0	 5.199979999988400e+000	 3.466639999981868e+000	 1.032797647895688e+001
0	 5.199979999988400e+000	 3.533309999982383e+000	 1.032449938046401e+001
0	 5.199979999988400e+000	 3.599979999983599e+000	 1.032091384556644e+001
0	 5.199979999988400e+000	 3.666649999985417e+000	 1.031718817993171e+001
0	 5.199979999988400e+000	 3.733319999987733e+000	 1.031329068922728e+001
0	 5.199979999988400e+000	 3.799989999990451e+000	 1.030918967912066e+001
0	 5.199979999988399e+000	 3.866659999993466e+000	 1.030485345527932e+001
0	 5.199979999988399e+000	 3.933329999996684e+000	 1.030025032337074e+001
0	 5.199979999988400e+000	 4.000000000000001e+000	 1.029534858906239e+001
0	 5.266639999985465e+000	 3.333299999983333e+000	 1.032700159043178e+001
0	 5.266639999985467e+000	 3.399969999982150e+000	 1.032410683936224e+001
0	 5.266639999985465e+000	 3.466639999981867e+000	 1.032110632531872e+001
0	 5.266639999985467e+000	 3.533309999982383e+000	 1.031797382215208e+001
0	 5.266639999985466e+000	 3.599979999983600e+000	 1.031468310371315e+001
0	 5.266639999985466e+000	 3.666649999985417e+000	 1.031120794385276e+001
0	 5.266639999985467e+000	 3.733319999987733e+000	 1.030752211642176e+001
0	 5.266639999985466e+000	 3.799989999990450e+000	 1.030359939527095e+001
0	 5.266639999985466e+000	 3.866659999993467e+000	 1.029941355425117e+001
0	 5.266639999985466e+000	 3.933329999996684e+000	 1.029493836721323e+001
0	 5.266639999985465e+000	 4.000000000000000e+000	 1.029014760800794e+001
0	 5.333299999983335e+000	 3.333299999983334e+000	 1.031943324698867e+001
0	 5.333299999983331e+000	 3.399969999982149e+000	 1.031693764747284e+001
0	 5.333299999983335e+000	 3.466639999981866e+000	 1.031427544910142e+001
0	 5.333299999983334e+000	 3.533309999982383e+000	 1.031142802155139e+001
0	 5.333299999983335e+000	 3.599979999983600e+000	 1.030837673449972e+001
0	 5.333299999983335e+000	 3.666649999985416e+000	 1.030510295762338e+001
0	 5.333299999983334e+000	 3.733319999987733e+000	 1.030158806059936e+001
0	 5.333299999983333e+000	 3.799989999990450e+000	 1.029781341310461e+001
0	 5.333299999983334e+000	 3.866659999993467e+000	 1.029376038481608e+001
0	 5.333299999983335e+000	 3.933329999996684e+000	 1.028941034541074e+001
0	 5.333299999983334e+000	 4.000000000000000e+000	 1.028474466456552e+001
0	 4.666700000016667e+000	 4.000000000000001e+000	 1.032960935130294e+001
0	 4.666700000016666e+000	 4.066670000003317e+000	 1.032292107678646e+001
0	 4.666700000016666e+000	 4.133340000006535e+000	 1.031625665034357e+001
0	 4.666700000016667e+000	 4.200010000009550e+000	 1.030959551729054e+001
0	 4.666700000016666e+000	 4.266680000012268e+000	 1.030291712294364e+001
0	 4.666700000016665e+000	 4.333350000014583e+000	 1.029620091261915e+001
0	 4.666700000016665e+000	 4.400020000016400e+000	 1.028942633163331e+001
0	 4.666700000016667e+000	 4.466690000017618e+000	 1.028257282530240e+001
0	 4.666700000016666e+000	 4.533360000018134e+000	 1.027561983894269e+001
0	 4.666700000016668e+000	 4.600030000017852e+000	 1.026854681787042e+001
0	 4.666700000016666e+000	 4.666700000016666e+000	 1.026133320740187e+001
0	 4.733360000014533e+000	 4.000000000000000e+000	 1.032604700142069e+001
0	 4.733360000014532e+000	 4.066670000003317e+000	 1.031974101167896e+001
0	 4.733360000014533e+000	 4.133340000006534e+000	 1.031340322298111e+001
0	 4.733360000014532e+000	 4.200010000009551e+000	 1.030702095308112e+001
0	 4.733360000014533e+000	 4.266680000012268e+000	 1.030058151973297e+001
0	 4.733360000014534e+000	 4.333350000014584e+000	 1.029407224069065e+001
0	 4.733360000014533e+000	 4.400020000016402e+000	 1.028748043370811e+001
0	 4.733360000014533e+000	 4.466690000017618e+000	 1.028079341653934e+001
0	 4.733360000014533e+000	 4.533360000018131e+000	 1.027399850693832e+001
0	 4.733360000014534e+000	 4.600030000017852e+000	 1.026708302265901e+001
0	 4.733360000014533e+000	 4.666700000016665e+000	 1.026003428145538e+001
0	 4.800020000011600e+000	 4.000000000000000e+000	 1.032227759313526e+001
0	 4.800020000011599e+000	 4.066670000003316e+000	 1.031627647938977e+001
0	 4.800020000011600e+000	 4.133340000006532e+000	 1.031020547809648e+001
0	 4.800020000011601e+000	 4.200010000009550e+000	 1.030405845076999e+001
0	 4.800020000011600e+000	 4.266680000012267e+000	 1.029782925892497e+001
0	 4.800020000011600e+000	 4.333350000014584e+000	 1.029151176407606e+001
0	 4.800020000011600e+000	 4.400020000016401e+000	 1.028509982773788e+001
0	 4.800020000011600e+000	 4.466690000017619e+000	 1.027858731142508e+001
0	 4.800020000011598e+000	 4.533360000018132e+000	 1.027196807665229e+001
0	 4.800020000011601e+000	 4.600030000017850e+000	 1.026523598493414e+001
0	 4.800020000011601e+000	 4.666700000016666e+000	 1.025838489778526e+001
0	 4.866680000008067e+000	 4.000000000000001e+000	 1.031830176344856e+001
0	 4.866680000008067e+000	 4.066670000003319e+000	 1.031254082378201e+001
0	 4.866680000008066e+000	 4.133340000006533e+000	 1.030668740673416e+001
0	 4.866680000008065e+000	 4.200010000009550e+000	 1.030074058890328e+001
0	 4.866680000008066e+000	 4.266680000012268e+000	 1.029469944688761e+001
0	 4.866680000008068e+000	 4.333350000014586e+000	 1.028856305728540e+001
0	 4.866680000008066e+000	 4.400020000016400e+000	 1.028233049669491e+001
0	 4.866680000008068e+000	 4.466690000017619e+000	 1.027600084171437e+001
0	 4.866680000008067e+000	 4.533360000018135e+000	 1.026957316894204e+001
0	 4.866680000008065e+000	 4.600030000017850e+000	 1.026304655497616e+001
0	 4.866680000008067e+000	 4.666700000016666e+000	 1.025642007641497e+001
0	 4.933340000004135e+000	 4.000000000000001e+000	 1.031412014936248e+001
0	 4.933340000004134e+000	 4.066670000003317e+000	 1.030854738871874e+001
0	 4.933340000004133e+000	 4.133340000006534e+000	 1.030287299993868e+001
0	 4.933340000004134e+000	 4.200010000009550e+000	 1.029709994602710e+001
0	 4.933340000004133e+000	 4.266680000012266e+000	 1.029123118998882e+001
0	 4.933340000004133e+000	 4.333350000014583e+000	 1.028526969482867e+001
0	 4.933340000004133e+000	 4.400020000016400e+000	 1.027921842355145e+001
0	 4.933340000004134e+000	 4.466690000017618e+000	 1.027308033916196e+001
0	 4.933340000004134e+000	 4.533360000018133e+000	 1.026685840466502e+001
0	 4.933340000004132e+000	 4.600030000017849e+000	 1.026055558306543e+001
0	 4.933340000004135e+000	 4.666700000016668e+000	 1.025417483736800e+001
0	 5.000000000000000e+000	 4.000000000000001e+000	 1.030973338787893e+001
0	 5.000000000000002e+000	 4.066670000003318e+000	 1.030430951806307e+001
0	 5.000000000000001e+000	 4.133340000006534e+000	 1.029878624875451e+001
0	 5.000000000000002e+000	 4.200010000009551e+000	 1.029316910068757e+001
0	 5.000000000000001e+000	 4.266680000012268e+000	 1.028746359459659e+001
0	 5.000000000000000e+000	 4.333350000014583e+000	 1.028167525121588e+001
0	 5.000000000000001e+000	 4.400020000016402e+000	 1.027580959127978e+001
0	 5.000000000000000e+000	 4.466690000017617e+000	 1.026987213552259e+001
0	 5.000000000000001e+000	 4.533360000018135e+000	 1.026386840467866e+001
0	 4.999999999999999e+000	 4.600030000017849e+000	 1.025780391948229e+001
0	 5.000000000000000e+000	 4.666700000016665e+000	 1.025168420066781e+001
0	 5.066659999995867e+000	 4.000000000000000e+000	 1.030514211599979e+001
0	 5.066659999995867e+000	 4.066670000003318e+000	 1.029984055567809e+001
0	 5.066659999995867e+000	 4.133340000006535e+000	 1.029445114422618e+001
0	 5.066659999995866e+000	 4.200010000009550e+000	 1.028898063143083e+001
0	 5.066659999995867e+000	 4.266680000012268e+000	 1.028343576707887e+001
0	 5.066659999995866e+000	 4.333350000014584e+000	 1.027782330095705e+001
0	 5.066659999995868e+000	 4.400020000016403e+000	 1.027214998285218e+001
0	 5.066659999995866e+000	 4.466690000017617e+000	 1.026642256255104e+001
0	 5.066659999995868e+000	 4.533360000018134e+000	 1.026064778984042e+001
0	 5.066659999995866e+000	 4.600030000017851e+000	 1.025483241450710e+001
0	 5.066659999995866e+000	 4.666700000016666e+000	 1.024898318633786e+001
0	 5.133319999991932e+000	 4.000000000000001e+000	 1.030034697072698e+001
0	 5.133319999991933e+000	 4.066670000003318e+000	 1.029515384542690e+001
0	 5.133319999991933e+000	 4.133340000006535e+000	 1.028989167739817e+001
0	 5.133319999991935e+000	 4.200010000009552e+000	 1.028456711680300e+001
0	 5.133319999991933e+000	 4.266680000012268e+000	 1.027918681380361e+001
0	 5.133319999991934e+000	 4.333350000014585e+000	 1.027375741856218e+001
0	 5.133319999991934e+000	 4.400020000016400e+000	 1.026828558124092e+001
0	 5.133319999991933e+000	 4.466690000017619e+000	 1.026277795200203e+001
0	 5.133319999991932e+000	 4.533360000018133e+000	 1.025724118100772e+001
0	 5.133319999991933e+000	 4.600030000017851e+000	 1.025168191842020e+001
0	 5.133319999991934e+000	 4.666700000016666e+000	 1.024610681440163e+001
0	 5.199979999988400e+000	 4.000000000000001e+000	 1.029534858906239e+001
0	 5.199979999988399e+000	 4.066670000003317e+000	 1.029026273117259e+001
0	 5.199979999988398e+000	 4.133340000006534e+000	 1.028513183931500e+001
0	 5.199979999988399e+000	 4.200010000009550e+000	 1.027996113535020e+001
0	 5.199979999988400e+000	 4.266680000012268e+000	 1.027475584113877e+001
0	 5.199979999988401e+000	 4.333350000014585e+000	 1.026952117854127e+001
0	 5.199979999988400e+000	 4.400020000016402e+000	 1.026426236941827e+001
0	 5.199979999988399e+000	 4.466690000017616e+000	 1.025898463563034e+001
0	 5.199979999988400e+000	 4.533360000018133e+000	 1.025369319903803e+001
0	 5.199979999988399e+000	 4.600030000017850e+000	 1.024839328150193e+001
0	 5.199979999988399e+000	 4.666700000016666e+000	 1.024309010488257e+001
0	 5.266639999985465e+000	 4.000000000000000e+000	 1.029014760800794e+001
0	 5.266639999985466e+000	 4.066670000003318e+000	 1.028518055677826e+001
0	 5.266639999985465e+000	 4.133340000006534e+000	 1.028019562102116e+001
0	 5.266639999985465e+000	 4.200010000009550e+000	 1.027519526561855e+001
0	 5.266639999985466e+000	 4.266680000012267e+000	 1.027018195545232e+001
0	 5.266639999985467e+000	 4.333350000014584e+000	 1.026515815540434e+001
0	 5.266639999985466e+000	 4.400020000016401e+000	 1.026012633035650e+001
0	 5.266639999985466e+000	 4.466690000017618e+000	 1.025508894519069e+001
0	 5.266639999985466e+000	 4.533360000018134e+000	 1.025004846478877e+001
0	 5.266639999985466e+000	 4.600030000017851e+000	 1.024500735403264e+001
0	 5.266639999985466e+000	 4.666700000016667e+000	 1.023996807780416e+001
0	 5.333299999983334e+000	 4.000000000000000e+000	 1.028474466456552e+001
0	 5.333299999983332e+000	 4.066670000003316e+000	 1.027992066610699e+001
0	 5.333299999983334e+000	 4.133340000006534e+000	 1.027510701356117e+001
0	 5.333299999983336e+000	 4.200010000009550e+000	 1.027030208615419e+001
0	 5.333299999983333e+000	 4.266680000012268e+000	 1.026550426311223e+001
0	 5.333299999983335e+000	 4.333350000014584e+000	 1.026071192366141e+001
0	 5.333299999983333e+000	 4.400020000016401e+000	 1.025592344702790e+001
0	 5.333299999983334e+000	 4.466690000017618e+000	 1.025113721243784e+001
0	 5.333299999983334e+000	 4.533360000018134e+000	 1.024635159911738e+001
0	 5.333299999983333e+000	 4.600030000017851e+000	 1.024156498629267e+001
0	 5.333299999983335e+000	 4.666700000016667e+000	 1.023677575318985e+001
0	 4.666700000016666e+000	 4.666700000016666e+000	 1.026133320740187e+001
0	 4.666700000016666e+000	 4.733360000014534e+000	 1.025411936490317e+001
0	 4.666700000016665e+000	 4.800020000011599e+000	 1.024705518510318e+001
0	 4.666700000016666e+000	 4.866680000008067e+000	 1.024013770003868e+001
0	 4.666700000016667e+000	 4.933340000004135e+000	 1.023336394174649e+001
0	 4.666700000016666e+000	 5.000000000000001e+000	 1.022673094226341e+001
0	 4.666700000016667e+000	 5.066659999995867e+000	 1.022023573362624e+001
0	 4.666700000016666e+000	 5.133319999991935e+000	 1.021387534787175e+001
0	 4.666700000016665e+000	 5.199979999988400e+000	 1.020764681703677e+001
0	 4.666700000016667e+000	 5.266639999985468e+000	 1.020154717315806e+001
0	 4.666700000016667e+000	 5.333299999983335e+000	 1.019557344827244e+001
0	 4.733360000014533e+000	 4.666700000016665e+000	 1.026003428145538e+001
0	 4.733360000014534e+000	 4.733360000014534e+000	 1.025299724906665e+001
0	 4.733360000014533e+000	 4.800020000011600e+000	 1.024611867818472e+001
0	 4.733360000014534e+000	 4.866680000008067e+000	 1.023939177065104e+001
0	 4.733360000014534e+000	 4.933340000004135e+000	 1.023280972830710e+001
0	 4.733360000014534e+000	 4.999999999999999e+000	 1.022636575299434e+001
0	 4.733360000014534e+000	 5.066659999995867e+000	 1.022005304655426e+001
0	 4.733360000014534e+000	 5.133319999991935e+000	 1.021386481082827e+001
0	 4.733360000014534e+000	 5.199979999988400e+000	 1.020779424765787e+001
0	 4.733360000014534e+000	 5.266639999985467e+000	 1.020183455888451e+001
0	 4.733360000014534e+000	 5.333299999983335e+000	 1.019597894634965e+001
0	 4.800020000011601e+000	 4.666700000016666e+000	 1.025838489778526e+001
0	 4.800020000011601e+000	 4.733360000014534e+000	 1.025155661475819e+001
0	 4.800020000011601e+000	 4.800020000011601e+000	 1.024488834765357e+001
0	 4.800020000011601e+000	 4.866680000008067e+000	 1.023837018688661e+001
0	 4.800020000011599e+000	 4.933340000004133e+000	 1.023199222287250e+001
0	 4.800020000011601e+000	 5.000000000000001e+000	 1.022574454602645e+001
0	 4.800020000011600e+000	 5.066659999995867e+000	 1.021961724676364e+001
0	 4.800020000011601e+000	 5.133319999991934e+000	 1.021360041549929e+001
0	 4.800020000011600e+000	 5.199979999988400e+000	 1.020768414264857e+001
0	 4.800020000011601e+000	 5.266639999985467e+000	 1.020185851862668e+001
0	 4.800020000011600e+000	 5.333299999983335e+000	 1.019611363384882e+001
0	 4.866680000008067e+000	 4.666700000016666e+000	 1.025642007641497e+001
0	 4.866680000008067e+000	 4.733360000014534e+000	 1.024982606070616e+001
0	 4.866680000008068e+000	 4.800020000011600e+000	 1.024338724648848e+001
0	 4.866680000008065e+000	 4.866680000008067e+000	 1.023709133151992e+001
0	 4.866680000008066e+000	 4.933340000004133e+000	 1.023092601355848e+001
0	 4.866680000008067e+000	 4.999999999999999e+000	 1.022487899036217e+001
0	 4.866680000008066e+000	 5.066659999995866e+000	 1.021893795968898e+001
0	 4.866680000008066e+000	 5.133319999991934e+000	 1.021309061929691e+001
0	 4.866680000008067e+000	 5.199979999988401e+000	 1.020732466694396e+001
0	 4.866680000008067e+000	 5.266639999985467e+000	 1.020162780038811e+001
0	 4.866680000008066e+000	 5.333299999983334e+000	 1.019598771738737e+001
0	 4.933340000004135e+000	 4.666700000016668e+000	 1.025417483736800e+001
0	 4.933340000004135e+000	 4.733360000014533e+000	 1.024783418563896e+001
0	 4.933340000004132e+000	 4.800020000011599e+000	 1.024163842766815e+001
0	 4.933340000004134e+000	 4.866680000008067e+000	 1.023557358732548e+001
0	 4.933340000004135e+000	 4.933340000004134e+000	 1.022962568848078e+001
0	 4.933340000004134e+000	 5.000000000000000e+000	 1.022378075500393e+001
0	 4.933340000004134e+000	 5.066659999995868e+000	 1.021802481076479e+001
0	 4.933340000004134e+000	 5.133319999991934e+000	 1.021234387963325e+001
0	 4.933340000004132e+000	 5.199979999988400e+000	 1.020672398547914e+001
0	 4.933340000004136e+000	 5.266639999985469e+000	 1.020115115217235e+001
0	 4.933340000004134e+000	 5.333299999983335e+000	 1.019561140358274e+001
0	 5.000000000000000e+000	 4.666700000016665e+000	 1.025168420066781e+001
0	 5.000000000000001e+000	 4.733360000014534e+000	 1.024560958828495e+001
0	 5.000000000000001e+000	 4.800020000011600e+000	 1.023966494417135e+001
0	 5.000000000000001e+000	 4.866680000008067e+000	 1.023383533707782e+001
0	 5.000000000000001e+000	 4.933340000004134e+000	 1.022810583575516e+001
0	 5.000000000000001e+000	 5.000000000000000e+000	 1.022246150895417e+001
0	 5.000000000000001e+000	 5.066659999995866e+000	 1.021688742542565e+001
0	 5.000000000000001e+000	 5.133319999991935e+000	 1.021136865392040e+001
0	 5.000000000000001e+000	 5.199979999988400e+000	 1.020589026318923e+001
0	 5.000000000000001e+000	 5.266639999985467e+000	 1.020043732198294e+001
0	 5.000000000000000e+000	 5.333299999983333e+000	 1.019499489905234e+001
0	 5.066659999995866e+000	 4.666700000016666e+000	 1.024898318633787e+001
0	 5.066659999995868e+000	 4.733360000014535e+000	 1.024318086737251e+001
0	 5.066659999995868e+000	 4.800020000011601e+000	 1.023748984897678e+001
0	 5.066659999995866e+000	 4.866680000008067e+000	 1.023189496355146e+001
0	 5.066659999995868e+000	 4.933340000004136e+000	 1.022638104349737e+001
0	 5.066659999995867e+000	 5.000000000000001e+000	 1.022093292121530e+001
0	 5.066659999995867e+000	 5.066659999995867e+000	 1.021553542910607e+001
0	 5.066659999995868e+000	 5.133319999991935e+000	 1.021017339957048e+001
0	 5.066659999995868e+000	 5.199979999988401e+000	 1.020483166500932e+001
0	 5.066659999995868e+000	 5.266639999985467e+000	 1.019949505782343e+001
0	 5.066659999995866e+000	 5.333299999983335e+000	 1.019414841041361e+001
0	 5.133319999991934e+000	 4.666700000016666e+000	 1.024610681440163e+001
0	 5.133319999991934e+000	 4.733360000014534e+000	 1.024057662163003e+001
0	 5.133319999991933e+000	 4.800020000011601e+000	 1.023513619506318e+001
0	 5.133319999991933e+000	 4.866680000008067e+000	 1.022977084952093e+001
0	 5.133319999991934e+000	 4.933340000004135e+000	 1.022446589982317e+001
0	 5.133319999991934e+000	 5.000000000000000e+000	 1.021920666078976e+001
0	 5.133319999991933e+000	 5.066659999995866e+000	 1.021397844724061e+001
0	 5.133319999991933e+000	 5.133319999991934e+000	 1.020876657399557e+001
0	 5.133319999991933e+000	 5.199979999988400e+000	 1.020355635587453e+001
0	 5.133319999991934e+000	 5.266639999985468e+000	 1.019833310769737e+001
0	 5.133319999991933e+000	 5.333299999983334e+000	 1.019308214428397e+001
0	 5.199979999988399e+000	 4.666700000016666e+000	 1.024309010488257e+001
0	 5.199979999988399e+000	 4.733360000014533e+000	 1.023782544978589e+001
0	 5.199979999988399e+000	 4.800020000011600e+000	 1.023262703540927e+001
0	 5.199979999988400e+000	 4.866680000008068e+000	 1.022748137776073e+001
0	 5.199979999988400e+000	 4.933340000004134e+000	 1.022237499284830e+001
0	 5.199979999988400e+000	 5.000000000000000e+000	 1.021729439667998e+001
0	 5.199979999988400e+000	 5.066659999995867e+000	 1.021222610526381e+001
0	 5.199979999988399e+000	 5.133319999991934e+000	 1.020715663460779e+001
0	 5.199979999988400e+000	 5.199979999988401e+000	 1.020207250071994e+001
0	 5.199979999988400e+000	 5.266639999985467e+000	 1.019696021960829e+001
0	 5.199979999988400e+000	 5.333299999983335e+000	 1.019180630728085e+001
0	 5.266639999985466e+000	 4.666700000016667e+000	 1.023996807780417e+001
0	 5.266639999985465e+000	 4.733360000014534e+000	 1.023495595056843e+001
0	 5.266639999985467e+000	 4.800020000011601e+000	 1.022998542299376e+001
0	 5.266639999985467e+000	 4.866680000008067e+000	 1.022504493104539e+001
0	 5.266639999985465e+000	 4.933340000004133e+000	 1.022012291068851e+001
0	 5.266639999985465e+000	 4.999999999999999e+000	 1.021520779788839e+001
0	 5.266639999985465e+000	 5.066659999995867e+000	 1.021028802861022e+001
0	 5.266639999985467e+000	 5.133319999991935e+000	 1.020535203881923e+001
0	 5.266639999985467e+000	 5.199979999988401e+000	 1.020038826448065e+001
0	 5.266639999985466e+000	 5.266639999985468e+000	 1.019538514155973e+001
0	 5.266639999985465e+000	 5.333299999983333e+000	 1.019033110602167e+001
0	 5.333299999983335e+000	 4.666700000016667e+000	 1.023677575318986e+001
0	 5.333299999983333e+000	 4.733360000014533e+000	 1.023199672270604e+001
0	 5.333299999983335e+000	 4.800020000011600e+000	 1.022723441079539e+001
0	 5.333299999983335e+000	 4.866680000008068e+000	 1.022247989214940e+001
0	 5.333299999983335e+000	 4.933340000004134e+000	 1.021772424145957e+001
0	 5.333299999983333e+000	 5.000000000000000e+000	 1.021295853341739e+001
0	 5.333299999983334e+000	 5.066659999995866e+000	 1.020817384271435e+001
0	 5.333299999983335e+000	 5.133319999991934e+000	 1.020336124404199e+001
0	 5.333299999983333e+000	 5.199979999988400e+000	 1.019851181209178e+001
0	 5.333299999983334e+000	 5.266639999985467e+000	 1.019361662155523e+001
0	 5.333299999983333e+000	 5.333299999983333e+000	 1.018866674712385e+001
0	 4.666700000016667e+000	 5.333299999983335e+000	 1.019557344827244e+001
0	 4.666700000016665e+000	 5.399969999982150e+000	 1.018971861017271e+001
0	 4.666700000016666e+000	 5.466639999981867e+000	 1.018397676634632e+001
0	 4.666700000016665e+000	 5.533309999982382e+000	 1.017834399781630e+001
0	 4.666700000016666e+000	 5.599979999983599e+000	 1.017281638560569e+001
0	 4.666700000016665e+000	 5.666649999985416e+000	 1.016739001073752e+001
0	 4.666700000016666e+000	 5.733319999987732e+000	 1.016206095423483e+001
0	 4.666700000016666e+000	 5.799989999990449e+000	 1.015682529712065e+001
0	 4.666700000016666e+000	 5.866659999993467e+000	 1.015167912041804e+001
0	 4.666700000016667e+000	 5.933329999996684e+000	 1.014661850515002e+001
0	 4.666700000016666e+000	 6.000000000000000e+000	 1.014163953233964e+001
0	 4.733360000014534e+000	 5.333299999983335e+000	 1.019597894634965e+001
0	 4.733360000014534e+000	 5.399969999982151e+000	 1.019022347497482e+001
0	 4.733360000014533e+000	 5.466639999981866e+000	 1.018456884039687e+001
0	 4.733360000014532e+000	 5.533309999982382e+000	 1.017901257764085e+001
0	 4.733360000014534e+000	 5.599979999983600e+000	 1.017355222173171e+001
0	 4.733360000014534e+000	 5.666649999985416e+000	 1.016818530769448e+001
0	 4.733360000014534e+000	 5.733319999987733e+000	 1.016290937055415e+001
0	 4.733360000014533e+000	 5.799989999990449e+000	 1.015772194533571e+001
0	 4.733360000014533e+000	 5.866659999993466e+000	 1.015262056706418e+001
0	 4.733360000014533e+000	 5.933329999996683e+000	 1.014760277076456e+001
0	 4.733360000014533e+000	 5.999999999999999e+000	 1.014266609146183e+001
0	 4.800020000011600e+000	 5.333299999983335e+000	 1.019611363384882e+001
0	 4.800020000011600e+000	 5.399969999982150e+000	 1.019045109928329e+001
0	 4.800020000011599e+000	 5.466639999981864e+000	 1.018487997168486e+001
0	 4.800020000011600e+000	 5.533309999982384e+000	 1.017939894137328e+001
0	 4.800020000011600e+000	 5.599979999983599e+000	 1.017400669866829e+001
0	 4.800020000011600e+000	 5.666649999985417e+000	 1.016870193388964e+001
0	 4.800020000011599e+000	 5.733319999987732e+000	 1.016348333735706e+001
0	 4.800020000011600e+000	 5.799989999990451e+000	 1.015834959939033e+001
0	 4.800020000011599e+000	 5.866659999993465e+000	 1.015329941030918e+001
0	 4.800020000011599e+000	 5.933329999996684e+000	 1.014833146043337e+001
0	 4.800020000011601e+000	 6.000000000000000e+000	 1.014344444008263e+001
0	 4.866680000008066e+000	 5.333299999983334e+000	 1.019598771738737e+001
0	 4.866680000008065e+000	 5.399969999982148e+000	 1.019041344699308e+001
0	 4.866680000008066e+000	 5.466639999981866e+000	 1.018492360259547e+001
0	 4.866680000008067e+000	 5.533309999982384e+000	 1.017951773110186e+001
0	 4.866680000008066e+000	 5.599979999983598e+000	 1.017419537941952e+001
0	 4.866680000008066e+000	 5.666649999985416e+000	 1.016895609445573e+001
0	 4.866680000008067e+000	 5.733319999987733e+000	 1.016379942311776e+001
0	 4.866680000008067e+000	 5.799989999990451e+000	 1.015872491231290e+001
0	 4.866680000008065e+000	 5.866659999993467e+000	 1.015373210894843e+001
0	 4.866680000008065e+000	 5.933329999996684e+000	 1.014882055993165e+001
0	 4.866680000008067e+000	 6.000000000000002e+000	 1.014398981216983e+001
0	 4.933340000004134e+000	 5.333299999983335e+000	 1.019561140358274e+001
0	 4.933340000004133e+000	 5.399969999982149e+000	 1.019012248199906e+001
0	 4.933340000004134e+000	 5.466639999981867e+000	 1.018471317551389e+001
0	 4.933340000004134e+000	 5.533309999982382e+000	 1.017938358891484e+001
0	 4.933340000004135e+000	 5.599979999983601e+000	 1.017413382698952e+001
0	 4.933340000004133e+000	 5.666649999985416e+000	 1.016896399452550e+001
0	 4.933340000004133e+000	 5.733319999987733e+000	 1.016387419631039e+001
0	 4.933340000004134e+000	 5.799989999990450e+000	 1.015886453713181e+001
0	 4.933340000004133e+000	 5.866659999993466e+000	 1.015393512177735e+001
0	 4.933340000004134e+000	 5.933329999996683e+000	 1.014908605503461e+001
0	 4.933340000004133e+000	 5.999999999999998e+000	 1.014431744169121e+001
0	 5.000000000000000e+000	 5.333299999983333e+000	 1.019499489905234e+001
0	 5.000000000000000e+000	 5.399969999982149e+000	 1.018959016819617e+001
0	 5.000000000000001e+000	 5.466639999981866e+000	 1.018426213282531e+001
0	 5.000000000000001e+000	 5.533309999982384e+000	 1.017901115690048e+001
0	 5.000000000000000e+000	 5.599979999983601e+000	 1.017383760438236e+001
0	 4.999999999999999e+000	 5.666649999985416e+000	 1.016874183923169e+001
0	 5.000000000000001e+000	 5.733319999987733e+000	 1.016372422540915e+001
0	 5.000000000000001e+000	 5.799989999990450e+000	 1.015878512687545e+001
0	 5.000000000000001e+000	 5.866659999993466e+000	 1.015392490759132e+001
0	 5.000000000000002e+000	 5.933329999996683e+000	 1.014914393151744e+001
0	 5.000000000000001e+000	 6.000000000000000e+000	 1.014444256261454e+001
0	 5.066659999995866e+000	 5.333299999983335e+000	 1.019414841041361e+001
0	 5.066659999995867e+000	 5.399969999982150e+000	 1.018882846947931e+001
0	 5.066659999995867e+000	 5.466639999981866e+000	 1.018358391691490e+001
0	 5.066659999995865e+000	 5.533309999982381e+000	 1.017841507714699e+001
0	 5.066659999995867e+000	 5.599979999983598e+000	 1.017332227460216e+001
0	 5.066659999995866e+000	 5.666649999985416e+000	 1.016830583370702e+001
0	 5.066659999995866e+000	 5.733319999987733e+000	 1.016336607888818e+001
0	 5.066659999995869e+000	 5.799989999990451e+000	 1.015850333457221e+001
0	 5.066659999995866e+000	 5.866659999993466e+000	 1.015371792518573e+001
0	 5.066659999995867e+000	 5.933329999996683e+000	 1.014901017515532e+001
0	 5.066659999995866e+000	 5.999999999999999e+000	 1.014438040890760e+001
0	 5.133319999991933e+000	 5.333299999983334e+000	 1.019308214428397e+001
0	 5.133319999991933e+000	 5.399969999982150e+000	 1.018784934974339e+001
0	 5.133319999991932e+000	 5.466639999981866e+000	 1.018269197016785e+001
0	 5.133319999991933e+000	 5.533309999982383e+000	 1.017760999174264e+001
0	 5.133319999991934e+000	 5.599979999983600e+000	 1.017260340065302e+001
0	 5.133319999991934e+000	 5.666649999985416e+000	 1.016767218308427e+001
0	 5.133319999991934e+000	 5.733319999987732e+000	 1.016281632522167e+001
0	 5.133319999991933e+000	 5.799989999990447e+000	 1.015803581325048e+001
0	 5.133319999991934e+000	 5.866659999993467e+000	 1.015333063335598e+001
0	 5.133319999991933e+000	 5.933329999996683e+000	 1.014870077172346e+001
0	 5.133319999991934e+000	 6.000000000000001e+000	 1.014414621453817e+001
0	 5.199979999988400e+000	 5.333299999983335e+000	 1.019180630728085e+001
0	 5.199979999988400e+000	 5.399969999982149e+000	 1.018666477288332e+001
0	 5.199979999988400e+000	 5.466639999981865e+000	 1.018159973496935e+001
0	 5.199979999988400e+000	 5.533309999982384e+000	 1.017661054277567e+001
0	 5.199979999988398e+000	 5.599979999983598e+000	 1.017169654553902e+001
0	 5.199979999988401e+000	 5.666649999985417e+000	 1.016685709249614e+001
0	 5.199979999988400e+000	 5.733319999987733e+000	 1.016209153288377e+001
0	 5.199979999988399e+000	 5.799989999990449e+000	 1.015739921593863e+001
0	 5.199979999988400e+000	 5.866659999993467e+000	 1.015277949089747e+001
0	 5.199979999988400e+000	 5.933329999996683e+000	 1.014823170699703e+001
0	 5.199979999988400e+000	 6.000000000000002e+000	 1.014375521347403e+001
0	 5.266639999985465e+000	 5.333299999983333e+000	 1.019033110602167e+001
0	 5.266639999985466e+000	 5.399969999982151e+000	 1.018528670279402e+001
0	 5.266639999985467e+000	 5.466639999981866e+000	 1.018032065370457e+001
0	 5.266639999985465e+000	 5.533309999982384e+000	 1.017543137233432e+001
0	 5.266639999985466e+000	 5.599979999983599e+000	 1.017061727226427e+001
0	 5.266639999985466e+000	 5.666649999985417e+000	 1.016587676707538e+001
0	 5.266639999985467e+000	 5.733319999987733e+000	 1.016120827034865e+001
0	 5.266639999985466e+000	 5.799989999990451e+000	 1.015661019566505e+001
0	 5.266639999985466e+000	 5.866659999993466e+000	 1.015208095660557e+001
0	 5.266639999985466e+000	 5.933329999996684e+000	 1.014761896675122e+001
0	 5.266639999985465e+000	 5.999999999999998e+000	 1.014322263968295e+001
0	 5.333299999983333e+000	 5.333299999983333e+000	 1.018866674712385e+001
0	 5.333299999983333e+000	 5.399969999982149e+000	 1.018372710337036e+001
0	 5.333299999983334e+000	 5.466639999981867e+000	 1.017886816875869e+001
0	 5.333299999983334e+000	 5.533309999982384e+000	 1.017408712250686e+001
0	 5.333299999983334e+000	 5.599979999983600e+000	 1.016938114383284e+001
0	 5.333299999983334e+000	 5.666649999985415e+000	 1.016474741195471e+001
0	 5.333299999983335e+000	 5.733319999987733e+000	 1.016018310609047e+001
0	 5.333299999983334e+000	 5.799989999990448e+000	 1.015568540545812e+001
0	 5.333299999983333e+000	 5.866659999993467e+000	 1.015125148927569e+001
0	 5.333299999983335e+000	 5.933329999996684e+000	 1.014687853676121e+001
0	 5.333299999983333e+000	 5.999999999999998e+000	 1.014256372713269e+001
0	 4.666700000016666e+000	 6.000000000000000e+000	 1.014163953233964e+001
0	 4.666700000016665e+000	 6.066670000003318e+000	 1.013675858055635e+001
0	 4.666700000016667e+000	 6.133340000006533e+000	 1.013199348226051e+001
0	 4.666700000016666e+000	 6.200010000009551e+000	 1.012734249931154e+001
0	 4.666700000016667e+000	 6.266680000012267e+000	 1.012280389356888e+001
0	 4.666700000016667e+000	 6.333350000014587e+000	 1.011837592689190e+001
0	 4.666700000016666e+000	 6.400020000016402e+000	 1.011405686114005e+001
0	 4.666700000016667e+000	 6.466690000017617e+000	 1.010984495817274e+001
0	 4.666700000016666e+000	 6.533360000018133e+000	 1.010573847984940e+001
0	 4.666700000016666e+000	 6.600030000017847e+000	 1.010173568802946e+001
0	 4.666700000016666e+000	 6.666700000016667e+000	 1.009783484457232e+001
0	 4.733360000014533e+000	 5.999999999999999e+000	 1.014266609146183e+001
0	 4.733360000014531e+000	 6.066670000003316e+000	 1.013782579891708e+001
0	 4.733360000014533e+000	 6.133340000006532e+000	 1.013309728457002e+001
0	 4.733360000014532e+000	 6.200010000009550e+000	 1.012847826596362e+001
0	 4.733360000014534e+000	 6.266680000012268e+000	 1.012396646064082e+001
0	 4.733360000014533e+000	 6.333350000014584e+000	 1.011955958614461e+001
0	 4.733360000014533e+000	 6.400020000016400e+000	 1.011525536001797e+001
0	 4.733360000014533e+000	 6.466690000017619e+000	 1.011105149980382e+001
0	 4.733360000014533e+000	 6.533360000018132e+000	 1.010694572304517e+001
0	 4.733360000014534e+000	 6.600030000017850e+000	 1.010293574728497e+001
0	 4.733360000014534e+000	 6.666700000016669e+000	 1.009901929006619e+001
0	 4.800020000011601e+000	 6.000000000000000e+000	 1.014344444008263e+001
0	 4.800020000011599e+000	 6.066670000003315e+000	 1.013865210750516e+001
0	 4.800020000011597e+000	 6.133340000006532e+000	 1.013396728193489e+001
0	 4.800020000011599e+000	 6.200010000009551e+000	 1.012938724517030e+001
0	 4.800020000011599e+000	 6.266680000012264e+000	 1.012490927900981e+001
0	 4.800020000011600e+000	 6.333350000014585e+000	 1.012053066525188e+001
0	 4.800020000011601e+000	 6.400020000016402e+000	 1.011624868569496e+001
0	 4.800020000011600e+000	 6.466690000017618e+000	 1.011206062213751e+001
0	 4.800020000011599e+000	 6.533360000018134e+000	 1.010796375637797e+001
0	 4.800020000011601e+000	 6.600030000017850e+000	 1.010395537021478e+001
0	 4.800020000011601e+000	 6.666700000016667e+000	 1.010003274544644e+001
0	 4.866680000008067e+000	 6.000000000000002e+000	 1.014398981216983e+001
0	 4.866680000008066e+000	 6.066670000003316e+000	 1.013925184898122e+001
0	 4.866680000008066e+000	 6.133340000006532e+000	 1.013461692549643e+001
0	 4.866680000008067e+000	 6.200010000009551e+000	 1.013008199634133e+001
0	 4.866680000008067e+000	 6.266680000012268e+000	 1.012564401614181e+001
0	 4.866680000008067e+000	 6.333350000014585e+000	 1.012129993952371e+001
0	 4.866680000008066e+000	 6.400020000016401e+000	 1.011704672111289e+001
0	 4.866680000008068e+000	 6.466690000017618e+000	 1.011288131553524e+001
0	 4.866680000008066e+000	 6.533360000018134e+000	 1.010880067741663e+001
0	 4.866680000008065e+000	 6.600030000017849e+000	 1.010480176138292e+001
0	 4.866680000008068e+000	 6.666700000016667e+000	 1.010088152205999e+001
0	 4.933340000004133e+000	 5.999999999999998e+000	 1.014431744169121e+001
0	 4.933340000004134e+000	 6.066670000003318e+000	 1.013963936600592e+001
0	 4.933340000004133e+000	 6.133340000006531e+000	 1.013505966639595e+001
0	 4.933340000004134e+000	 6.200010000009551e+000	 1.013057507888650e+001
0	 4.933340000004134e+000	 6.266680000012268e+000	 1.012618233950282e+001
0	 4.933340000004135e+000	 6.333350000014584e+000	 1.012187818427010e+001
0	 4.933340000004135e+000	 6.400020000016403e+000	 1.011765934921357e+001
0	 4.933340000004134e+000	 6.466690000017617e+000	 1.011352257035845e+001
0	 4.933340000004133e+000	 6.533360000018134e+000	 1.010946458372997e+001
0	 4.933340000004134e+000	 6.600030000017849e+000	 1.010548212535333e+001
0	 4.933340000004135e+000	 6.666700000016668e+000	 1.010157193125377e+001
0	 5.000000000000001e+000	 6.000000000000000e+000	 1.014444256261454e+001
0	 5.000000000000003e+000	 6.066670000003318e+000	 1.013982900123992e+001
0	 5.000000000000000e+000	 6.133340000006531e+000	 1.013530895577476e+001
0	 5.000000000000002e+000	 6.200010000009551e+000	 1.013087905221557e+001
0	 5.000000000000001e+000	 6.266680000012268e+000	 1.012653591655886e+001
0	 5.000000000000000e+000	 6.333350000014584e+000	 1.012227617480111e+001
0	 5.000000000000001e+000	 6.400020000016401e+000	 1.011809645293883e+001
0	 4.999999999999999e+000	 6.466690000017617e+000	 1.011399337696856e+001
0	 5.000000000000000e+000	 6.533360000018134e+000	 1.010996357288677e+001
0	 4.999999999999998e+000	 6.600030000017848e+000	 1.010600366669001e+001
0	 4.999999999999999e+000	 6.666700000016665e+000	 1.010211028437476e+001
0	 5.066659999995866e+000	 5.999999999999999e+000	 1.014438040890760e+001
0	 5.066659999995866e+000	 6.066670000003317e+000	 1.013983509734387e+001
0	 5.066659999995866e+000	 6.133340000006534e+000	 1.013537824477420e+001
0	 5.066659999995867e+000	 6.200010000009553e+000	 1.013100647573829e+001
0	 5.066659999995867e+000	 6.266680000012268e+000	 1.012671641477589e+001
0	 5.066659999995866e+000	 6.333350000014583e+000	 1.012250468642672e+001
0	 5.066659999995868e+000	 6.400020000016402e+000	 1.011836791523052e+001
0	 5.066659999995866e+000	 6.466690000017616e+000	 1.011430272572699e+001
0	 5.066659999995868e+000	 6.533360000018134e+000	 1.011030574245589e+001
0	 5.066659999995866e+000	 6.600030000017849e+000	 1.010637358995693e+001
0	 5.066659999995866e+000	 6.666700000016666e+000	 1.010250289276986e+001
0	 5.133319999991934e+000	 6.000000000000001e+000	 1.014414621453817e+001
0	 5.133319999991932e+000	 6.066670000003318e+000	 1.013967199697842e+001
0	 5.133319999991935e+000	 6.133340000006536e+000	 1.013528098453555e+001
0	 5.133319999991934e+000	 6.200010000009552e+000	 1.013096990886442e+001
0	 5.133319999991933e+000	 6.266680000012267e+000	 1.012673550161994e+001
0	 5.133319999991933e+000	 6.333350000014583e+000	 1.012257449445699e+001
0	 5.133319999991933e+000	 6.400020000016400e+000	 1.011848361903045e+001
0	 5.133319999991933e+000	 6.466690000017620e+000	 1.011445960699518e+001
0	 5.133319999991932e+000	 6.533360000018132e+000	 1.011049919000611e+001
0	 5.133319999991933e+000	 6.600030000017851e+000	 1.010659909971808e+001
0	 5.133319999991932e+000	 6.666700000016667e+000	 1.010275606778601e+001
0	 5.199979999988400e+000	 6.000000000000002e+000	 1.014375521347403e+001
0	 5.199979999988400e+000	 6.066670000003317e+000	 1.013935404280422e+001
0	 5.199979999988400e+000	 6.133340000006535e+000	 1.013503062620013e+001
0	 5.199979999988400e+000	 6.200010000009552e+000	 1.013078191100373e+001
0	 5.199979999988400e+000	 6.266680000012268e+000	 1.012660484455700e+001
0	 5.199979999988400e+000	 6.333350000014584e+000	 1.012249637420191e+001
0	 5.199979999988400e+000	 6.400020000016402e+000	 1.011845344728043e+001
0	 5.199979999988400e+000	 6.466690000017617e+000	 1.011447301113454e+001
0	 5.199979999988400e+000	 6.533360000018134e+000	 1.011055201310622e+001
0	 5.199979999988398e+000	 6.600030000017849e+000	 1.010668740053743e+001
0	 5.199979999988400e+000	 6.666700000016667e+000	 1.010287612077015e+001
0	 5.266639999985465e+000	 5.999999999999998e+000	 1.014322263968295e+001
0	 5.266639999985466e+000	 6.066670000003317e+000	 1.013889557748190e+001
0	 5.266639999985466e+000	 6.133340000006534e+000	 1.013464062090925e+001
0	 5.266639999985466e+000	 6.200010000009551e+000	 1.013045504156596e+001
0	 5.266639999985467e+000	 6.266680000012267e+000	 1.012633611105304e+001
0	 5.266639999985467e+000	 6.333350000014585e+000	 1.012228110097149e+001
0	 5.266639999985464e+000	 6.400020000016398e+000	 1.011828728292231e+001
0	 5.266639999985466e+000	 6.466690000017616e+000	 1.011435192850648e+001
0	 5.266639999985466e+000	 6.533360000018135e+000	 1.011047230932504e+001
0	 5.266639999985466e+000	 6.600030000017850e+000	 1.010664569697894e+001
0	 5.266639999985466e+000	 6.666700000016667e+000	 1.010286936306922e+001
0	 5.333299999983333e+000	 5.999999999999998e+000	 1.014256372713269e+001
0	 5.333299999983334e+000	 6.066670000003317e+000	 1.013831094367215e+001
0	 5.333299999983333e+000	 6.133340000006530e+000	 1.013412441980422e+001
0	 5.333299999983334e+000	 6.200010000009550e+000	 1.013000185996087e+001
0	 5.333299999983335e+000	 6.266680000012268e+000	 1.012594096857407e+001
0	 5.333299999983334e+000	 6.333350000014584e+000	 1.012193945007576e+001
0	 5.333299999983335e+000	 6.400020000016401e+000	 1.011799500889789e+001
0	 5.333299999983334e+000	 6.466690000017618e+000	 1.011410534947244e+001
0	 5.333299999983333e+000	 6.533360000018132e+000	 1.011026817623136e+001
0	 5.333299999983333e+000	 6.600030000017849e+000	 1.010648119360661e+001
0	 5.333299999983334e+000	 6.666700000016665e+000	 1.010274210603015e+001
0	 4.666700000016666e+000	 6.666700000016667e+000	 1.009783484457232e+001
0	 4.666700000016666e+000	 6.733360000014533e+000	 1.009402938126741e+001
0	 4.666700000016665e+000	 6.800020000011599e+000	 1.009031294872146e+001
0	 4.666700000016666e+000	 6.866680000008066e+000	 1.008668586963515e+001
0	 4.666700000016666e+000	 6.933340000004132e+000	 1.008314846670915e+001
0	 4.666700000016666e+000	 6.999999999999999e+000	 1.007970106264413e+001
0	 4.666700000016666e+000	 7.066659999995867e+000	 1.007634398014078e+001
0	 4.666700000016667e+000	 7.133319999991935e+000	 1.007307754189976e+001
0	 4.666700000016666e+000	 7.199979999988400e+000	 1.006990207062171e+001
0	 4.666700000016667e+000	 7.266639999985467e+000	 1.006681788900731e+001
0	 4.666700000016665e+000	 7.333299999983333e+000	 1.006382531975723e+001
0	 4.733360000014534e+000	 6.666700000016669e+000	 1.009901929006619e+001
0	 4.733360000014534e+000	 6.733360000014533e+000	 1.009519434419318e+001
0	 4.733360000014533e+000	 6.800020000011599e+000	 1.009145932015323e+001
0	 4.733360000014535e+000	 6.866680000008067e+000	 1.008781430363329e+001
0	 4.733360000014534e+000	 6.933340000004134e+000	 1.008425938032024e+001
0	 4.733360000014534e+000	 6.999999999999999e+000	 1.008079463590098e+001
0	 4.733360000014534e+000	 7.066659999995869e+000	 1.007742015606240e+001
0	 4.733360000014534e+000	 7.133319999991936e+000	 1.007413602649139e+001
0	 4.733360000014533e+000	 7.199979999988400e+000	 1.007094233287485e+001
0	 4.733360000014534e+000	 7.266639999985467e+000	 1.006783916089964e+001
0	 4.733360000014534e+000	 7.333299999983334e+000	 1.006482659625267e+001
0	 4.800020000011601e+000	 6.666700000016667e+000	 1.010003274544644e+001
0	 4.800020000011602e+000	 6.733360000014534e+000	 1.009619766743949e+001
0	 4.800020000011601e+000	 6.800020000011601e+000	 1.009245247196115e+001
0	 4.800020000011601e+000	 6.866680000008066e+000	 1.008879701261605e+001
0	 4.800020000011600e+000	 6.933340000004134e+000	 1.008523114300879e+001
0	 4.800020000011601e+000	 7.000000000000001e+000	 1.008175471674403e+001
0	 4.800020000011600e+000	 7.066659999995865e+000	 1.007836758742637e+001
0	 4.800020000011600e+000	 7.133319999991935e+000	 1.007506960866046e+001
0	 4.800020000011601e+000	 7.199979999988401e+000	 1.007186063405087e+001
0	 4.800020000011600e+000	 7.266639999985466e+000	 1.006874051720224e+001
0	 4.800020000011600e+000	 7.333299999983334e+000	 1.006570911171918e+001
0	 4.866680000008068e+000	 6.666700000016667e+000	 1.010088152205999e+001
0	 4.866680000008067e+000	 6.733360000014533e+000	 1.009704483805960e+001
0	 4.866680000008068e+000	 6.800020000011601e+000	 1.009329720469558e+001
0	 4.866680000008068e+000	 6.866680000008069e+000	 1.008963824842179e+001
0	 4.866680000008067e+000	 6.933340000004133e+000	 1.008606759569210e+001
0	 4.866680000008066e+000	 6.999999999999997e+000	 1.008258487296036e+001
0	 4.866680000008066e+000	 7.066659999995866e+000	 1.007918970668042e+001
0	 4.866680000008066e+000	 7.133319999991934e+000	 1.007588172330615e+001
0	 4.866680000008067e+000	 7.199979999988402e+000	 1.007266054929139e+001
0	 4.866680000008068e+000	 7.266639999985467e+000	 1.006952581108998e+001
0	 4.866680000008069e+000	 7.333299999983334e+000	 1.006647713515579e+001
0	 4.933340000004135e+000	 6.666700000016668e+000	 1.010157193125377e+001
0	 4.933340000004136e+000	 6.733360000014533e+000	 1.009774134310670e+001
0	 4.933340000004133e+000	 6.800020000011601e+000	 1.009399831890689e+001
0	 4.933340000004134e+000	 6.866680000008068e+000	 1.009034226288893e+001
0	 4.933340000004133e+000	 6.933340000004134e+000	 1.008677257928744e+001
0	 4.933340000004135e+000	 7.000000000000001e+000	 1.008328867233701e+001
0	 4.933340000004134e+000	 7.066659999995870e+000	 1.007988994627223e+001
0	 4.933340000004133e+000	 7.133319999991933e+000	 1.007657580532770e+001
0	 4.933340000004133e+000	 7.199979999988400e+000	 1.007334565373802e+001
0	 4.933340000004136e+000	 7.266639999985467e+000	 1.007019889573774e+001
0	 4.933340000004134e+000	 7.333299999983335e+000	 1.006713493556149e+001
0	 4.999999999999999e+000	 6.666700000016665e+000	 1.010211028437476e+001
0	 5.000000000000002e+000	 6.733360000014533e+000	 1.009829266963402e+001
0	 5.000000000000001e+000	 6.800020000011600e+000	 1.009456061514544e+001
0	 5.000000000000000e+000	 6.866680000008067e+000	 1.009091330785585e+001
0	 5.000000000000002e+000	 6.933340000004133e+000	 1.008734993471212e+001
0	 5.000000000000000e+000	 7.000000000000000e+000	 1.008386968266105e+001
0	 5.000000000000001e+000	 7.066659999995868e+000	 1.008047173864951e+001
0	 5.000000000000002e+000	 7.133319999991935e+000	 1.007715528962433e+001
0	 5.000000000000001e+000	 7.199979999988400e+000	 1.007391952253235e+001
0	 5.000000000000003e+000	 7.266639999985468e+000	 1.007076362432039e+001
0	 5.000000000000000e+000	 7.333299999983335e+000	 1.006768678193529e+001
0	 5.066659999995866e+000	 6.666700000016666e+000	 1.010250289276986e+001
0	 5.066659999995868e+000	 6.733360000014533e+000	 1.009870430469478e+001
0	 5.066659999995868e+000	 6.800020000011601e+000	 1.009498889396161e+001
0	 5.066659999995868e+000	 6.866680000008066e+000	 1.009135563516096e+001
0	 5.066659999995868e+000	 6.933340000004133e+000	 1.008780350288341e+001
0	 5.066659999995868e+000	 7.000000000000001e+000	 1.008433147171956e+001
0	 5.066659999995867e+000	 7.066659999995867e+000	 1.008093851625996e+001
0	 5.066659999995867e+000	 7.133319999991936e+000	 1.007762361109526e+001
0	 5.066659999995867e+000	 7.199979999988400e+000	 1.007438573081600e+001
0	 5.066659999995867e+000	 7.266639999985467e+000	 1.007122385001278e+001
0	 5.066659999995866e+000	 7.333299999983335e+000	 1.006813694327618e+001
0	 5.133319999991932e+000	 6.666700000016667e+000	 1.010275606778601e+001
0	 5.133319999991935e+000	 6.733360000014533e+000	 1.009898173534218e+001
0	 5.133319999991933e+000	 6.800020000011601e+000	 1.009528795590578e+001
0	 5.133319999991932e+000	 6.866680000008067e+000	 1.009167349664263e+001
0	 5.133319999991933e+000	 6.933340000004133e+000	 1.008813712471860e+001
0	 5.133319999991935e+000	 7.000000000000000e+000	 1.008467760729955e+001
0	 5.133319999991934e+000	 7.066659999995866e+000	 1.008129371155130e+001
0	 5.133319999991933e+000	 7.133319999991934e+000	 1.007798420463969e+001
0	 5.133319999991932e+000	 7.199979999988401e+000	 1.007474785373058e+001
0	 5.133319999991934e+000	 7.266639999985467e+000	 1.007158342598980e+001
0	 5.133319999991932e+000	 7.333299999983334e+000	 1.006848968858317e+001
0	 5.199979999988400e+000	 6.666700000016667e+000	 1.010287612077015e+001
0	 5.199979999988399e+000	 6.733360000014533e+000	 1.009913044862945e+001
0	 5.199979999988400e+000	 6.800020000011601e+000	 1.009546260152828e+001
0	 5.199979999988399e+000	 6.866680000008066e+000	 1.009187114413927e+001
0	 5.199979999988399e+000	 6.933340000004133e+000	 1.008835464113501e+001
0	 5.199979999988399e+000	 6.999999999999998e+000	 1.008491165718812e+001
0	 5.199979999988399e+000	 7.066659999995867e+000	 1.008154075697121e+001
0	 5.199979999988399e+000	 7.133319999991933e+000	 1.007824050515685e+001
0	 5.199979999988400e+000	 7.199979999988400e+000	 1.007500946641769e+001
0	 5.199979999988399e+000	 7.266639999985465e+000	 1.007184620542628e+001
0	 5.199979999988399e+000	 7.333299999983332e+000	 1.006874928685526e+001
0	 5.266639999985466e+000	 6.666700000016667e+000	 1.010286936306922e+001
0	 5.266639999985465e+000	 6.733360000014532e+000	 1.009915593160980e+001
0	 5.266639999985467e+000	 6.800020000011600e+000	 1.009551763137951e+001
0	 5.266639999985466e+000	 6.866680000008068e+000	 1.009195282948924e+001
0	 5.266639999985466e+000	 6.933340000004134e+000	 1.008845989304990e+001
0	 5.266639999985466e+000	 7.000000000000000e+000	 1.008503718917232e+001
0	 5.266639999985467e+000	 7.066659999995866e+000	 1.008168308496739e+001
0	 5.266639999985466e+000	 7.133319999991934e+000	 1.007839594754597e+001
0	 5.266639999985467e+000	 7.199979999988402e+000	 1.007517414401892e+001
0	 5.266639999985466e+000	 7.266639999985467e+000	 1.007201604149713e+001
0	 5.266639999985465e+000	 7.333299999983333e+000	 1.006892000709144e+001
0	 5.333299999983334e+000	 6.666700000016665e+000	 1.010274210603015e+001
0	 5.333299999983335e+000	 6.733360000014533e+000	 1.009906367133641e+001
0	 5.333299999983335e+000	 6.800020000011599e+000	 1.009545784600981e+001
0	 5.333299999983333e+000	 6.866680000008065e+000	 1.009192280453098e+001
0	 5.333299999983336e+000	 6.933340000004135e+000	 1.008845672138057e+001
0	 5.333299999983333e+000	 6.999999999999998e+000	 1.008505777103921e+001
0	 5.333299999983335e+000	 7.066659999995868e+000	 1.008172412798756e+001
0	 5.333299999983334e+000	 7.133319999991935e+000	 1.007845396670623e+001
0	 5.333299999983335e+000	 7.199979999988400e+000	 1.007524546167590e+001
0	 5.333299999983336e+000	 7.266639999985467e+000	 1.007209678737718e+001
0	 5.333299999983334e+000	 7.333299999983334e+000	 1.006900611829071e+001
0	 4.666700000016665e+000	 7.333299999983333e+000	 1.006382531975723e+001
0	 4.666700000016665e+000	 7.399969999982149e+000	 1.006091430707545e+001
0	 4.666700000016666e+000	 7.466639999981866e+000	 1.005807454664058e+001
0	 4.666700000016665e+000	 7.533309999982382e+000	 1.005530466223769e+001
0	 4.666700000016666e+000	 7.599979999983599e+000	 1.005260327765187e+001
0	 4.666700000016667e+000	 7.666649999985417e+000	 1.004996901666818e+001
0	 4.666700000016667e+000	 7.733319999987733e+000	 1.004740050307169e+001
0	 4.666700000016665e+000	 7.799989999990450e+000	 1.004489636064746e+001
0	 4.666700000016665e+000	 7.866659999993466e+000	 1.004245521318057e+001
0	 4.666700000016666e+000	 7.933329999996682e+000	 1.004007568445609e+001
0	 4.666700000016665e+000	 7.999999999999998e+000	 1.003775639825910e+001
0	 4.733360000014534e+000	 7.333299999983334e+000	 1.006482659625266e+001
0	 4.733360000014534e+000	 7.399969999982149e+000	 1.006189346783362e+001
0	 4.733360000014534e+000	 7.466639999981867e+000	 1.005902863593792e+001
0	 4.733360000014533e+000	 7.533309999982382e+000	 1.005623089795792e+001
0	 4.733360000014534e+000	 7.599979999983600e+000	 1.005349905128593e+001
0	 4.733360000014534e+000	 7.666649999985416e+000	 1.005083189331428e+001
0	 4.733360000014534e+000	 7.733319999987734e+000	 1.004822822143529e+001
0	 4.733360000014532e+000	 7.799989999990450e+000	 1.004568683304131e+001
0	 4.733360000014533e+000	 7.866659999993467e+000	 1.004320652552467e+001
0	 4.733360000014532e+000	 7.933329999996682e+000	 1.004078609627772e+001
0	 4.733360000014533e+000	 8.000000000000000e+000	 1.003842434269277e+001
0	 4.800020000011600e+000	 7.333299999983334e+000	 1.006570911171918e+001
0	 4.800020000011601e+000	 7.399969999982149e+000	 1.006275503933047e+001
0	 4.800020000011600e+000	 7.466639999981866e+000	 1.005986720796286e+001
0	 4.800020000011601e+000	 7.533309999982384e+000	 1.005704455618914e+001
0	 4.800020000011599e+000	 7.599979999983602e+000	 1.005428602258208e+001
0	 4.800020000011599e+000	 7.666649999985416e+000	 1.005159054571449e+001
0	 4.800020000011600e+000	 7.733319999987733e+000	 1.004895706415913e+001
0	 4.800020000011601e+000	 7.799989999990450e+000	 1.004638451648878e+001
0	 4.800020000011600e+000	 7.866659999993466e+000	 1.004387184127627e+001
0	 4.800020000011601e+000	 7.933329999996683e+000	 1.004141797709436e+001
0	 4.800020000011601e+000	 8.000000000000002e+000	 1.003902186251583e+001
0	 4.866680000008069e+000	 7.333299999983334e+000	 1.006647713515580e+001
0	 4.866680000008065e+000	 7.399969999982149e+000	 1.006350370793172e+001
0	 4.866680000008067e+000	 7.466639999981865e+000	 1.006059523159670e+001
0	 4.866680000008067e+000	 7.533309999982384e+000	 1.005775075347719e+001
0	 4.866680000008066e+000	 7.599979999983600e+000	 1.005496932089958e+001
0	 4.866680000008067e+000	 7.666649999985417e+000	 1.005224998119033e+001
0	 4.866680000008068e+000	 7.733319999987733e+000	 1.004959178167588e+001
0	 4.866680000008066e+000	 7.799989999990448e+000	 1.004699376968262e+001
0	 4.866680000008066e+000	 7.866659999993466e+000	 1.004445499253701e+001
0	 4.866680000008067e+000	 7.933329999996682e+000	 1.004197449756549e+001
0	 4.866680000008066e+000	 8.000000000000000e+000	 1.003955133209448e+001
0	 4.933340000004134e+000	 7.333299999983335e+000	 1.006713493556149e+001
0	 4.933340000004133e+000	 7.399969999982149e+000	 1.006414416000309e+001
0	 4.933340000004133e+000	 7.466639999981867e+000	 1.006121767572081e+001
0	 4.933340000004134e+000	 7.533309999982383e+000	 1.005835460636791e+001
0	 4.933340000004135e+000	 7.599979999983601e+000	 1.005555407559766e+001
0	 4.933340000004134e+000	 7.666649999985417e+000	 1.005281520706333e+001
0	 4.933340000004134e+000	 7.733319999987733e+000	 1.005013712441819e+001
0	 4.933340000004134e+000	 7.799989999990447e+000	 1.004751895131551e+001
0	 4.933340000004133e+000	 7.866659999993469e+000	 1.004495981140855e+001
0	 4.933340000004135e+000	 7.933329999996683e+000	 1.004245882835059e+001
0	 4.933340000004134e+000	 7.999999999999999e+000	 1.004001512579489e+001
0	 5.000000000000000e+000	 7.333299999983335e+000	 1.006768678193530e+001
0	 5.000000000000001e+000	 7.399969999982150e+000	 1.006468108191033e+001
0	 5.000000000000000e+000	 7.466639999981868e+000	 1.006173950921652e+001
0	 5.000000000000000e+000	 7.533309999982383e+000	 1.005886123140716e+001
0	 5.000000000000000e+000	 7.599979999983600e+000	 1.005604541603554e+001
0	 4.999999999999999e+000	 7.666649999985415e+000	 1.005329123065497e+001
0	 5.000000000000001e+000	 7.733319999987733e+000	 1.005059784281876e+001
0	 5.000000000000000e+000	 7.799989999990450e+000	 1.004796442008018e+001
0	 5.000000000000002e+000	 7.866659999993467e+000	 1.004539012999253e+001
0	 5.000000000000001e+000	 7.933329999996683e+000	 1.004287414010912e+001
0	 5.000000000000001e+000	 8.000000000000000e+000	 1.004041561798325e+001
0	 5.066659999995866e+000	 7.333299999983335e+000	 1.006813694327618e+001
0	 5.066659999995867e+000	 7.399969999982150e+000	 1.006511916001914e+001
0	 5.066659999995867e+000	 7.466639999981866e+000	 1.006216570096516e+001
0	 5.066659999995865e+000	 7.533309999982383e+000	 1.005927574514078e+001
0	 5.066659999995868e+000	 7.599979999983601e+000	 1.005644847157249e+001
0	 5.066659999995867e+000	 7.666649999985416e+000	 1.005368305928680e+001
0	 5.066659999995867e+000	 7.733319999987733e+000	 1.005097868731026e+001
0	 5.066659999995869e+000	 7.799989999990449e+000	 1.004833453466936e+001
0	 5.066659999995867e+000	 7.866659999993466e+000	 1.004574978039062e+001
0	 5.066659999995867e+000	 7.933329999996684e+000	 1.004322360350058e+001
0	 5.066659999995867e+000	 8.000000000000000e+000	 1.004075518302575e+001
0	 5.133319999991932e+000	 7.333299999983334e+000	 1.006848968858317e+001
0	 5.133319999991933e+000	 7.399969999982151e+000	 1.006546308069529e+001
0	 5.133319999991933e+000	 7.466639999981866e+000	 1.006250121984812e+001
0	 5.133319999991933e+000	 7.533309999982384e+000	 1.005960326411461e+001
0	 5.133319999991933e+000	 7.599979999983600e+000	 1.005676837156770e+001
0	 5.133319999991934e+000	 7.666649999985417e+000	 1.005399570028029e+001
0	 5.133319999991933e+000	 7.733319999987732e+000	 1.005128440832533e+001
0	 5.133319999991934e+000	 7.799989999990449e+000	 1.004863365377575e+001
0	 5.133319999991933e+000	 7.866659999993467e+000	 1.004604259470447e+001
0	 5.133319999991933e+000	 7.933329999996683e+000	 1.004351038918444e+001
0	 5.133319999991933e+000	 8.000000000000000e+000	 1.004103619528858e+001
0	 5.199979999988399e+000	 7.333299999983332e+000	 1.006874928685526e+001
0	 5.199979999988399e+000	 7.399969999982150e+000	 1.006571753030446e+001
0	 5.199979999988400e+000	 7.466639999981866e+000	 1.006275103474669e+001
0	 5.199979999988400e+000	 7.533309999982384e+000	 1.005984890487450e+001
0	 5.199979999988399e+000	 7.599979999983598e+000	 1.005701024538041e+001
0	 5.199979999988400e+000	 7.666649999985417e+000	 1.005423416095695e+001
0	 5.199979999988400e+000	 7.733319999987733e+000	 1.005151975629667e+001
0	 5.199979999988399e+000	 7.799989999990448e+000	 1.004886613609208e+001
0	 5.199979999988400e+000	 7.866659999993468e+000	 1.004627240503575e+001
0	 5.199979999988400e+000	 7.933329999996683e+000	 1.004373766782017e+001
0	 5.199979999988399e+000	 7.999999999999999e+000	 1.004126102913789e+001
0	 5.266639999985465e+000	 7.333299999983333e+000	 1.006892000709144e+001
0	 5.266639999985466e+000	 7.399969999982149e+000	 1.006588719521240e+001
0	 5.266639999985466e+000	 7.466639999981866e+000	 1.006292011454224e+001
0	 5.266639999985465e+000	 7.533309999982383e+000	 1.006001778396629e+001
0	 5.266639999985466e+000	 7.599979999983600e+000	 1.005717922236988e+001
0	 5.266639999985466e+000	 7.666649999985416e+000	 1.005440344863830e+001
0	 5.266639999985467e+000	 7.733319999987731e+000	 1.005168948165695e+001
0	 5.266639999985466e+000	 7.799989999990449e+000	 1.004903634031109e+001
0	 5.266639999985466e+000	 7.866659999993467e+000	 1.004644304348607e+001
0	 5.266639999985467e+000	 7.933329999996684e+000	 1.004390861006724e+001
0	 5.266639999985466e+000	 8.000000000000000e+000	 1.004143205893990e+001
0	 5.333299999983334e+000	 7.333299999983334e+000	 1.006900611829071e+001
0	 5.333299999983332e+000	 7.399969999982149e+000	 1.006597676178485e+001
0	 5.333299999983333e+000	 7.466639999981864e+000	 1.006301342811612e+001
0	 5.333299999983333e+000	 7.533309999982383e+000	 1.006011501793583e+001
0	 5.333299999983335e+000	 7.599979999983600e+000	 1.005728043189530e+001
0	 5.333299999983334e+000	 7.666649999985416e+000	 1.005450857064585e+001
0	 5.333299999983334e+000	 7.733319999987733e+000	 1.005179833483880e+001
0	 5.333299999983334e+000	 7.799989999990449e+000	 1.004914862512546e+001
0	 5.333299999983333e+000	 7.866659999993466e+000	 1.004655834215711e+001
0	 5.333299999983335e+000	 7.933329999996684e+000	 1.004402638658513e+001
0	 5.333299999983334e+000	 8.000000000000000e+000	 1.004155165906077e+001
0	 4.666700000016665e+000	 7.999999999999998e+000	 1.003775639825910e+001
0	 4.666700000016665e+000	 8.066670000003317e+000	 1.003550127683080e+001
0	 4.666700000016666e+000	 8.133340000006532e+000	 1.003331460678155e+001
0	 4.666700000016666e+000	 8.200010000009549e+000	 1.003119555845021e+001
0	 4.666700000016666e+000	 8.266680000012268e+000	 1.002914330217566e+001
0	 4.666700000016667e+000	 8.333350000014585e+000	 1.002715700829673e+001
0	 4.666700000016666e+000	 8.400020000016399e+000	 1.002523584715227e+001
0	 4.666700000016666e+000	 8.466690000017616e+000	 1.002337898908117e+001
0	 4.666700000016666e+000	 8.533360000018133e+000	 1.002158560442228e+001
0	 4.666700000016667e+000	 8.600030000017853e+000	 1.001985486351445e+001
0	 4.666700000016665e+000	 8.666700000016666e+000	 1.001818593669653e+001
0	 4.733360000014533e+000	 8.000000000000000e+000	 1.003842434269277e+001
0	 4.733360000014532e+000	 8.066670000003317e+000	 1.003612770863843e+001
0	 4.733360000014532e+000	 8.133340000006532e+000	 1.003390262717277e+001
0	 4.733360000014533e+000	 8.200010000009552e+000	 1.003174787947244e+001
0	 4.733360000014534e+000	 8.266680000012268e+000	 1.002966224671405e+001
0	 4.733360000014533e+000	 8.333350000014582e+000	 1.002764451007420e+001
0	 4.733360000014534e+000	 8.400020000016403e+000	 1.002569345072955e+001
0	 4.733360000014533e+000	 8.466690000017618e+000	 1.002380784985667e+001
0	 4.733360000014533e+000	 8.533360000018133e+000	 1.002198648863220e+001
0	 4.733360000014534e+000	 8.600030000017853e+000	 1.002022814823277e+001
0	 4.733360000014534e+000	 8.666700000016665e+000	 1.001853160983502e+001
0	 4.800020000011601e+000	 8.000000000000002e+000	 1.003902186251583e+001
0	 4.800020000011598e+000	 8.066670000003315e+000	 1.003669159825216e+001
0	 4.800020000011598e+000	 8.133340000006532e+000	 1.003443495377384e+001
0	 4.800020000011601e+000	 8.200010000009552e+000	 1.003225037079236e+001
0	 4.800020000011600e+000	 8.266680000012265e+000	 1.003013629101914e+001
0	 4.800020000011601e+000	 8.333350000014585e+000	 1.002809115616559e+001
0	 4.800020000011599e+000	 8.400020000016397e+000	 1.002611340794323e+001
0	 4.800020000011600e+000	 8.466690000017618e+000	 1.002420148806341e+001
0	 4.800020000011600e+000	 8.533360000018135e+000	 1.002235383823762e+001
0	 4.800020000011601e+000	 8.600030000017851e+000	 1.002056890017732e+001
0	 4.800020000011600e+000	 8.666700000016668e+000	 1.001884511559393e+001
0	 4.866680000008066e+000	 8.000000000000000e+000	 1.003955133209448e+001
0	 4.866680000008067e+000	 8.066670000003320e+000	 1.003719452190791e+001
0	 4.866680000008066e+000	 8.133340000006532e+000	 1.003491249586765e+001
0	 4.866680000008066e+000	 8.200010000009547e+000	 1.003270340591700e+001
0	 4.866680000008067e+000	 8.266680000012265e+000	 1.003056540399928e+001
0	 4.866680000008066e+000	 8.333350000014585e+000	 1.002849664205782e+001
0	 4.866680000008066e+000	 8.400020000016401e+000	 1.002649527203596e+001
0	 4.866680000008069e+000	 8.466690000017620e+000	 1.002455944587698e+001
0	 4.866680000008067e+000	 8.533360000018133e+000	 1.002268731552425e+001
0	 4.866680000008065e+000	 8.600030000017851e+000	 1.002087703292107e+001
0	 4.866680000008067e+000	 8.666700000016663e+000	 1.001912675001078e+001
0	 4.933340000004134e+000	 7.999999999999999e+000	 1.004001512579489e+001
0	 4.933340000004135e+000	 8.066670000003319e+000	 1.003763805584166e+001
0	 4.933340000004133e+000	 8.133340000006534e+000	 1.003533616273707e+001
0	 4.933340000004135e+000	 8.200010000009550e+000	 1.003310735835338e+001
0	 4.933340000004134e+000	 8.266680000012267e+000	 1.003094955456286e+001
0	 4.933340000004135e+000	 8.333350000014585e+000	 1.002886066323777e+001
0	 4.933340000004132e+000	 8.400020000016399e+000	 1.002683859625039e+001
0	 4.933340000004135e+000	 8.466690000017618e+000	 1.002488126547295e+001
0	 4.933340000004134e+000	 8.533360000018133e+000	 1.002298658277775e+001
0	 4.933340000004133e+000	 8.600030000017851e+000	 1.002115246003708e+001
0	 4.933340000004134e+000	 8.666700000016668e+000	 1.001937680912315e+001
0	 5.000000000000001e+000	 8.000000000000000e+000	 1.004041561798325e+001
0	 5.000000000000001e+000	 8.066670000003319e+000	 1.003802377628931e+001
0	 5.000000000000001e+000	 8.133340000006532e+000	 1.003570686366499e+001
0	 5.000000000000001e+000	 8.200010000009552e+000	 1.003346260160853e+001
0	 5.000000000000001e+000	 8.266680000012267e+000	 1.003128871161824e+001
0	 5.000000000000000e+000	 8.333350000014582e+000	 1.002918291519235e+001
0	 5.000000000000002e+000	 8.400020000016403e+000	 1.002714293382914e+001
0	 5.000000000000000e+000	 8.466690000017616e+000	 1.002516648902688e+001
0	 4.999999999999999e+000	 8.533360000018131e+000	 1.002325130228386e+001
0	 4.999999999999999e+000	 8.600030000017847e+000	 1.002139509509832e+001
0	 4.999999999999999e+000	 8.666700000016665e+000	 1.001959558896857e+001
0	 5.066659999995867e+000	 8.000000000000000e+000	 1.004075518302575e+001
0	 5.066659999995866e+000	 8.066670000003319e+000	 1.003835325948681e+001
0	 5.066659999995867e+000	 8.133340000006532e+000	 1.003602550793428e+001
0	 5.066659999995868e+000	 8.200010000009552e+000	 1.003376950918948e+001
0	 5.066659999995866e+000	 8.266680000012268e+000	 1.003158284407376e+001
0	 5.066659999995865e+000	 8.333350000014585e+000	 1.002946309340844e+001
0	 5.066659999995867e+000	 8.400020000016401e+000	 1.002740783801487e+001
0	 5.066659999995866e+000	 8.466690000017618e+000	 1.002541465871435e+001
0	 5.066659999995867e+000	 8.533360000018133e+000	 1.002348113632824e+001
0	 5.066659999995866e+000	 8.600030000017849e+000	 1.002160485167787e+001
0	 5.066659999995866e+000	 8.666700000016666e+000	 1.001978338558456e+001
0	 5.133319999991933e+000	 8.000000000000000e+000	 1.004103619528858e+001
0	 5.133319999991933e+000	 8.066670000003317e+000	 1.003862808167008e+001
0	 5.133319999991933e+000	 8.133340000006534e+000	 1.003629300482781e+001
0	 5.133319999991933e+000	 8.200010000009550e+000	 1.003402845460325e+001
0	 5.133319999991934e+000	 8.266680000012267e+000	 1.003183192083782e+001
0	 5.133319999991933e+000	 8.333350000014583e+000	 1.002970089337298e+001
0	 5.133319999991935e+000	 8.400020000016403e+000	 1.002763286205020e+001
0	 5.133319999991933e+000	 8.466690000017618e+000	 1.002562531671093e+001
0	 5.133319999991932e+000	 8.533360000018131e+000	 1.002367574719660e+001
0	 5.133319999991934e+000	 8.600030000017853e+000	 1.002178164334869e+001
0	 5.133319999991932e+000	 8.666700000016668e+000	 1.001994049500867e+001
0	 5.199979999988399e+000	 7.999999999999999e+000	 1.004126102913789e+001
0	 5.199979999988400e+000	 8.066670000003315e+000	 1.003884981907506e+001
0	 5.199979999988400e+000	 8.133340000006532e+000	 1.003651026362850e+001
0	 5.199979999988399e+000	 8.200010000009552e+000	 1.003423981135687e+001
0	 5.199979999988399e+000	 8.266680000012268e+000	 1.003203591081876e+001
0	 5.199979999988400e+000	 8.333350000014585e+000	 1.002989601057285e+001
0	 5.199979999988399e+000	 8.400020000016401e+000	 1.002781755917777e+001
0	 5.199979999988399e+000	 8.466690000017616e+000	 1.002579800519214e+001
0	 5.199979999988400e+000	 8.533360000018131e+000	 1.002383479717462e+001
0	 5.199979999988399e+000	 8.600030000017849e+000	 1.002192538368384e+001
0	 5.199979999988400e+000	 8.666700000016665e+000	 1.002006721327845e+001
0	 5.266639999985466e+000	 8.000000000000000e+000	 1.004143205893990e+001
0	 5.266639999985466e+000	 8.066670000003319e+000	 1.003902004793769e+001
0	 5.266639999985466e+000	 8.133340000006532e+000	 1.003667819361920e+001
0	 5.266639999985465e+000	 8.200010000009552e+000	 1.003440395295734e+001
0	 5.266639999985467e+000	 8.266680000012270e+000	 1.003219478292496e+001
0	 5.266639999985466e+000	 8.333350000014583e+000	 1.003004814049495e+001
0	 5.266639999985466e+000	 8.400020000016401e+000	 1.002796148264021e+001
0	 5.266639999985466e+000	 8.466690000017618e+000	 1.002593226633360e+001
0	 5.266639999985467e+000	 8.533360000018133e+000	 1.002395794854801e+001
0	 5.266639999985466e+000	 8.600030000017849e+000	 1.002203598625632e+001
0	 5.266639999985465e+000	 8.666700000016665e+000	 1.002016383643143e+001
0	 5.333299999983334e+000	 8.000000000000000e+000	 1.004155165906077e+001
0	 5.333299999983333e+000	 8.066670000003317e+000	 1.003914034449388e+001
0	 5.333299999983333e+000	 8.133340000006532e+000	 1.003679770408279e+001
0	 5.333299999983335e+000	 8.200010000009550e+000	 1.003452125291170e+001
0	 5.333299999983336e+000	 8.266680000012268e+000	 1.003230850606478e+001
0	 5.333299999983334e+000	 8.333350000014585e+000	 1.003015697862618e+001
0	 5.333299999983333e+000	 8.400020000016399e+000	 1.002806418568016e+001
0	 5.333299999983332e+000	 8.466690000017616e+000	 1.002602764231084e+001
0	 5.333299999983334e+000	 8.533360000018135e+000	 1.002404486360243e+001
0	 5.333299999983335e+000	 8.600030000017851e+000	 1.002211336463915e+001
0	 5.333299999983334e+000	 8.666700000016666e+000	 1.002023066050513e+001
0	 4.666700000016665e+000	 8.666700000016666e+000	 1.001818593669653e+001
0	 4.666700000016665e+000	 8.733360002791901e+000	 1.001658651806489e+001
0	 4.666700000016665e+000	 8.800020022230555e+000	 1.001506199546178e+001
0	 4.666700000016666e+000	 8.866680074997040e+000	 1.001360881688770e+001
0	 4.666700000016666e+000	 8.933340177755778e+000	 1.001222343013815e+001
0	 4.666700000016666e+000	 9.000000347171181e+000	 1.001090228280354e+001
0	 4.666700000016667e+000	 9.066660599907669e+000	 1.000964182226929e+001
0	 4.666700000016666e+000	 9.133320952629655e+000	 1.000843849571576e+001
0	 4.666700000016666e+000	 9.199981422001557e+000	 1.000728875011827e+001
0	 4.666700000016667e+000	 9.266642024687798e+000	 1.000618903224705e+001
0	 4.666700000016665e+000	 9.333302777352781e+000	 1.000513578866738e+001
0	 4.733360000014534e+000	 8.666700000016665e+000	 1.001853160983502e+001
0	 4.733360000014534e+000	 8.733360002791903e+000	 1.001690424828834e+001
0	 4.733360000014533e+000	 8.800020022230553e+000	 1.001535153160659e+001
0	 4.733360000014534e+000	 8.866680074997042e+000	 1.001387013023881e+001
0	 4.733360000014534e+000	 8.933340177755778e+000	 1.001245671442553e+001
0	 4.733360000014532e+000	 9.000000347171181e+000	 1.001110795419881e+001
0	 4.733360000014533e+000	 9.066660599907667e+000	 1.000982051938221e+001
0	 4.733360000014534e+000	 9.133320952629655e+000	 1.000859107959073e+001
0	 4.733360000014533e+000	 9.199981422001558e+000	 1.000741630423089e+001
0	 4.733360000014534e+000	 9.266642024687798e+000	 1.000629286250070e+001
0	 4.733360000014534e+000	 9.333302777352785e+000	 1.000521742338965e+001
0	 4.800020000011600e+000	 8.666700000016668e+000	 1.001884511559393e+001
0	 4.800020000011601e+000	 8.733360002791903e+000	 1.001719019511385e+001
0	 4.800020000011601e+000	 8.800020022230557e+000	 1.001561028027527e+001
0	 4.800020000011601e+000	 8.866680074997042e+000	 1.001410222113703e+001
0	 4.800020000011601e+000	 8.933340177755781e+000	 1.001266286754559e+001
0	 4.800020000011601e+000	 9.000000347171183e+000	 1.001128906913492e+001
0	 4.800020000011600e+000	 9.066660599907667e+000	 1.000997767532654e+001
0	 4.800020000011601e+000	 9.133320952629655e+000	 1.000872553532953e+001
0	 4.800020000011601e+000	 9.199981422001558e+000	 1.000752949814052e+001
0	 4.800020000011600e+000	 9.266642024687796e+000	 1.000638641254365e+001
0	 4.800020000011601e+000	 9.333302777352783e+000	 1.000529312711060e+001
0	 4.866680000008067e+000	 8.666700000016663e+000	 1.001912675001078e+001
0	 4.866680000008065e+000	 8.733360002791903e+000	 1.001744505273394e+001
0	 4.866680000008068e+000	 8.800020022230555e+000	 1.001583923415318e+001
0	 4.866680000008066e+000	 8.866680074997040e+000	 1.001430628109844e+001
0	 4.866680000008066e+000	 8.933340177755779e+000	 1.001284318018287e+001
0	 4.866680000008067e+000	 9.000000347171183e+000	 1.001144691780290e+001
0	 4.866680000008068e+000	 9.066660599907669e+000	 1.001011448013827e+001
0	 4.866680000008068e+000	 9.133320952629656e+000	 1.000884285315193e+001
0	 4.866680000008067e+000	 9.199981422001558e+000	 1.000762902259015e+001
0	 4.866680000008066e+000	 9.266642024687796e+000	 1.000646997398241e+001
0	 4.866680000008067e+000	 9.333302777352781e+000	 1.000536269264153e+001
0	 4.933340000004134e+000	 8.666700000016668e+000	 1.001937680912315e+001
0	 4.933340000004135e+000	 8.733360002791905e+000	 1.001766951534104e+001
0	 4.933340000004133e+000	 8.800020022230559e+000	 1.001603938592567e+001
0	 4.933340000004134e+000	 8.866680074997044e+000	 1.001448350163904e+001
0	 4.933340000004133e+000	 8.933340177755776e+000	 1.001299894302190e+001
0	 4.933340000004134e+000	 9.000000347171181e+000	 1.001158279039388e+001
0	 4.933340000004131e+000	 9.066660599907666e+000	 1.001023212385337e+001
0	 4.933340000004132e+000	 9.133320952629653e+000	 1.000894402327764e+001
0	 4.933340000004131e+000	 9.199981422001557e+000	 1.000771556832275e+001
0	 4.933340000004134e+000	 9.266642024687796e+000	 1.000654383842353e+001
0	 4.933340000004134e+000	 9.333302777352783e+000	 1.000542591279369e+001
0	 4.999999999999999e+000	 8.666700000016665e+000	 1.001959558896857e+001
0	 5.000000000000001e+000	 8.733360002791901e+000	 1.001786427712766e+001
0	 5.000000000000001e+000	 8.800020022230555e+000	 1.001621172827810e+001
0	 5.000000000000002e+000	 8.866680074997042e+000	 1.001463507427484e+001
0	 5.000000000000000e+000	 8.933340177755776e+000	 1.001313144674721e+001
0	 4.999999999999999e+000	 9.000000347171181e+000	 1.001169797709889e+001
0	 5.000000000000001e+000	 9.066660599907666e+000	 1.001033179650785e+001
0	 5.000000000000001e+000	 9.133320952629656e+000	 1.000903003592647e+001
0	 5.000000000000001e+000	 9.199981422001558e+000	 1.000778982608136e+001
0	 5.000000000000001e+000	 9.266642024687794e+000	 1.000660829747354e+001
0	 5.000000000000000e+000	 9.333302777352783e+000	 1.000548258037830e+001
0	 5.066659999995866e+000	 8.666700000016666e+000	 1.001978338558456e+001
0	 5.066659999995867e+000	 8.733360002791903e+000	 1.001803003228632e+001
0	 5.066659999995868e+000	 8.800020022230557e+000	 1.001635725389582e+001
0	 5.066659999995868e+000	 8.866680074997040e+000	 1.001476219052187e+001
0	 5.066659999995866e+000	 8.933340177755779e+000	 1.001324198204334e+001
0	 5.066659999995865e+000	 9.000000347171179e+000	 1.001179376810902e+001
0	 5.066659999995866e+000	 9.066660599907666e+000	 1.001041468813770e+001
0	 5.066659999995866e+000	 9.133320952629655e+000	 1.000910188131812e+001
0	 5.066659999995867e+000	 9.199981422001558e+000	 1.000785248660897e+001
0	 5.066659999995867e+000	 9.266642024687796e+000	 1.000666364273893e+001
0	 5.066659999995866e+000	 9.333302777352785e+000	 1.000553248820667e+001
0	 5.133319999991932e+000	 8.666700000016668e+000	 1.001994049500867e+001
0	 5.133319999991934e+000	 8.733360002791903e+000	 1.001816747500948e+001
0	 5.133319999991934e+000	 8.800020022230557e+000	 1.001647695546416e+001
0	 5.133319999991933e+000	 8.866680074997040e+000	 1.001486604189616e+001
0	 5.133319999991933e+000	 8.933340177755778e+000	 1.001333183959483e+001
0	 5.133319999991935e+000	 9.000000347171181e+000	 1.001187145361538e+001
0	 5.133319999991933e+000	 9.066660599907667e+000	 1.001048198877888e+001
0	 5.133319999991934e+000	 9.133320952629656e+000	 1.000916054967234e+001
0	 5.133319999991931e+000	 9.199981422001555e+000	 1.000790424064856e+001
0	 5.133319999991933e+000	 9.266642024687794e+000	 1.000671016582628e+001
0	 5.133319999991933e+000	 9.333302777352785e+000	 1.000557542909002e+001
0	 5.199979999988400e+000	 8.666700000016665e+000	 1.002006721327845e+001
0	 5.199979999988400e+000	 8.733360002791905e+000	 1.001827729948963e+001
0	 5.199979999988400e+000	 8.800020022230555e+000	 1.001657182566851e+001
0	 5.199979999988400e+000	 8.866680074997042e+000	 1.001494781991372e+001
0	 5.199979999988399e+000	 8.933340177755778e+000	 1.001340231008619e+001
0	 5.199979999988400e+000	 9.000000347171183e+000	 1.001193232380900e+001
0	 5.199979999988399e+000	 9.066660599907667e+000	 1.001053488846739e+001
0	 5.199979999988399e+000	 9.133320952629653e+000	 1.000920703120889e+001
0	 5.199979999988400e+000	 9.199981422001560e+000	 1.000794577894315e+001
0	 5.199979999988399e+000	 9.266642024687794e+000	 1.000674815834203e+001
0	 5.199979999988399e+000	 9.333302777352783e+000	 1.000561119583963e+001
0	 5.266639999985465e+000	 8.666700000016665e+000	 1.002016383643143e+001
0	 5.266639999985465e+000	 8.733360002791901e+000	 1.001836019991924e+001
0	 5.266639999985467e+000	 8.800020022230555e+000	 1.001664285719416e+001
0	 5.266639999985465e+000	 8.866680074997042e+000	 1.001500871609057e+001
0	 5.266639999985465e+000	 8.933340177755778e+000	 1.001345468420198e+001
0	 5.266639999985466e+000	 9.000000347171183e+000	 1.001197766888095e+001
0	 5.266639999985465e+000	 9.066660599907667e+000	 1.001057457723922e+001
0	 5.266639999985466e+000	 9.133320952629656e+000	 1.000924231614752e+001
0	 5.266639999985466e+000	 9.199981422001558e+000	 1.000797779223573e+001
0	 5.266639999985466e+000	 9.266642024687796e+000	 1.000677791189278e+001
0	 5.266639999985466e+000	 9.333302777352781e+000	 1.000563958126673e+001
0	 5.333299999983334e+000	 8.666700000016666e+000	 1.002023066050513e+001
0	 5.333299999983334e+000	 8.733360002791903e+000	 1.001841687049082e+001
0	 5.333299999983332e+000	 8.800020022230553e+000	 1.001669104272653e+001
0	 5.333299999983335e+000	 8.866680074997040e+000	 1.001504992194273e+001
0	 5.333299999983334e+000	 8.933340177755779e+000	 1.001349025262670e+001
0	 5.333299999983332e+000	 9.000000347171179e+000	 1.001200877902236e+001
0	 5.333299999983335e+000	 9.066660599907667e+000	 1.001060224513033e+001
0	 5.333299999983334e+000	 9.133320952629655e+000	 1.000926739470795e+001
0	 5.333299999983334e+000	 9.199981422001560e+000	 1.000800097126929e+001
0	 5.333299999983335e+000	 9.266642024687798e+000	 1.000679971808500e+001
0	 5.333299999983335e+000	 9.333302777352785e+000	 1.000566037818259e+001
0	 4.666700000016665e+000	 9.333302777352781e+000	 1.000513578866738e+001
0	 4.666700000016666e+000	 9.399973674588177e+000	 1.000416346487156e+001
0	 4.666700000016667e+000	 9.466644621844621e+000	 1.000330582792923e+001
0	 4.666700000016667e+000	 9.533315502450000e+000	 1.000255784421676e+001
0	 4.666700000016666e+000	 9.599986199732197e+000	 1.000191448235239e+001
0	 4.666700000016666e+000	 9.666656597019095e+000	 1.000137071319586e+001
0	 4.666700000016666e+000	 9.733326577638573e+000	 1.000092150984850e+001
0	 4.666700000016665e+000	 9.799996024918521e+000	 1.000056184765310e+001
0	 4.666700000016666e+000	 9.866664822186822e+000	 1.000028670419398e+001
0	 4.666700000016666e+000	 9.933332852771352e+000	 1.000009105929717e+001
0	 4.666700000016666e+000	 1.000000000000000e+001	 9.999969895030484e+000
0	 4.733360000014534e+000	 9.333302777352785e+000	 1.000521742338965e+001
0	 4.733360000014533e+000	 9.399973674588173e+000	 1.000422576119842e+001
0	 4.733360000014533e+000	 9.466644621844621e+000	 1.000335247888170e+001
0	 4.733360000014532e+000	 9.533315502450000e+000	 1.000259201627848e+001
0	 4.733360000014533e+000	 9.599986199732197e+000	 1.000193881551979e+001
0	 4.733360000014534e+000	 9.666656597019095e+000	 1.000138732102838e+001
0	 4.733360000014534e+000	 9.733326577638577e+000	 1.000093197951879e+001
0	 4.733360000014533e+000	 9.799996024918524e+000	 1.000056723999730e+001
0	 4.733360000014533e+000	 9.866664822186822e+000	 1.000028755376198e+001
0	 4.733360000014534e+000	 9.933332852771356e+000	 1.000008737440272e+001
0	 4.733360000014534e+000	 1.000000000000000e+001	 9.999961157801634e+000
0	 4.800020000011601e+000	 9.333302777352783e+000	 1.000529312711060e+001
0	 4.800020000011600e+000	 9.399973674588173e+000	 1.000428602909159e+001
0	 4.800020000011599e+000	 9.466644621844619e+000	 1.000339992926067e+001
0	 4.800020000011599e+000	 9.533315502450000e+000	 1.000262883176990e+001
0	 4.800020000011600e+000	 9.599986199732195e+000	 1.000196674310224e+001
0	 4.800020000011601e+000	 9.666656597019093e+000	 1.000140767207138e+001
0	 4.800020000011600e+000	 9.733326577638577e+000	 1.000094562982178e+001
0	 4.800020000011601e+000	 9.799996024918523e+000	 1.000057462982856e+001
0	 4.800020000011601e+000	 9.866664822186820e+000	 1.000028868789754e+001
0	 4.800020000011599e+000	 9.933332852771352e+000	 1.000008182216549e+001
0	 4.800020000011600e+000	 1.000000000000000e+001	 9.999948053100150e+000
0	 4.866680000008067e+000	 9.333302777352781e+000	 1.000536269264153e+001
0	 4.866680000008065e+000	 9.399973674588177e+000	 1.000434358152028e+001
0	 4.866680000008066e+000	 9.466644621844619e+000	 1.000344714992037e+001
0	 4.866680000008066e+000	 9.533315502450002e+000	 1.000266705715561e+001
0	 4.866680000008068e+000	 9.599986199732198e+000	 1.000199696489986e+001
0	 4.866680000008067e+000	 9.666656597019093e+000	 1.000143053718682e+001
0	 4.866680000008065e+000	 9.733326577638573e+000	 1.000096144041003e+001
0	 4.866680000008068e+000	 9.799996024918524e+000	 1.000058334332285e+001
0	 4.866680000008066e+000	 9.866664822186824e+000	 1.000028991703854e+001
0	 4.866680000008065e+000	 9.933332852771352e+000	 1.000007483503044e+001
0	 4.866680000008066e+000	 1.000000000000000e+001	 9.999931773132010e+000
0	 4.933340000004134e+000	 9.333302777352783e+000	 1.000542591279368e+001
0	 4.933340000004132e+000	 9.399973674588177e+000	 1.000439773145356e+001
0	 4.933340000004132e+000	 9.466644621844619e+000	 1.000349311171490e+001
0	 4.933340000004132e+000	 9.533315502450002e+000	 1.000270545890023e+001
0	 4.933340000004134e+000	 9.599986199732195e+000	 1.000202818071285e+001
0	 4.933340000004134e+000	 9.666656597019095e+000	 1.000145468723661e+001
0	 4.933340000004133e+000	 9.733326577638575e+000	 1.000097839093605e+001
0	 4.933340000004134e+000	 9.799996024918523e+000	 1.000059270665622e+001
0	 4.933340000004133e+000	 9.866664822186822e+000	 1.000029105162288e+001
0	 4.933340000004134e+000	 9.933332852771354e+000	 1.000006684544256e+001
0	 4.933340000004134e+000	 1.000000000000000e+001	 9.999913510102873e+000
0	 5.000000000000000e+000	 9.333302777352783e+000	 1.000548258037830e+001
0	 5.000000000000001e+000	 9.399973674588180e+000	 1.000444779186066e+001
0	 5.000000000000000e+000	 9.466644621844619e+000	 1.000353678549855e+001
0	 4.999999999999999e+000	 9.533315502450000e+000	 1.000274280346842e+001
0	 5.000000000000001e+000	 9.599986199732198e+000	 1.000205909034130e+001
0	 5.000000000000000e+000	 9.666656597019092e+000	 1.000147889308269e+001
0	 5.000000000000000e+000	 9.733326577638575e+000	 1.000099546105237e+001
0	 5.000000000000000e+000	 9.799996024918523e+000	 1.000060204600470e+001
0	 5.000000000000001e+000	 9.866664822186824e+000	 1.000029190208843e+001
0	 5.000000000000002e+000	 9.933332852771352e+000	 1.000005828584704e+001
0	 5.000000000000000e+000	 1.000000000000000e+001	 9.999894456218684e+000
0	 5.066659999995866e+000	 9.333302777352785e+000	 1.000553248820667e+001
0	 5.066659999995867e+000	 9.399973674588178e+000	 1.000449307571069e+001
0	 5.066659999995866e+000	 9.466644621844619e+000	 1.000357714212544e+001
0	 5.066659999995865e+000	 9.533315502449998e+000	 1.000277785732480e+001
0	 5.066659999995866e+000	 9.599986199732197e+000	 1.000208839358543e+001
0	 5.066659999995866e+000	 9.666656597019095e+000	 1.000150192558693e+001
0	 5.066659999995866e+000	 9.733326577638577e+000	 1.000101163041157e+001
0	 5.066659999995867e+000	 9.799996024918524e+000	 1.000061068754429e+001
0	 5.066659999995867e+000	 9.866664822186824e+000	 1.000029227887307e+001
0	 5.066659999995866e+000	 9.933332852771354e+000	 1.000004958868867e+001
0	 5.066659999995866e+000	 1.000000000000000e+001	 9.999875803685271e+000
0	 5.133319999991933e+000	 9.333302777352785e+000	 1.000557542909002e+001
0	 5.133319999991931e+000	 9.399973674588177e+000	 1.000453289597283e+001
0	 5.133319999991932e+000	 9.466644621844619e+000	 1.000361315244978e+001
0	 5.133319999991932e+000	 9.533315502450002e+000	 1.000280938693391e+001
0	 5.133319999991934e+000	 9.599986199732197e+000	 1.000211479024535e+001
0	 5.133319999991933e+000	 9.666656597019095e+000	 1.000152255561133e+001
0	 5.133319999991932e+000	 9.733326577638575e+000	 1.000102587866609e+001
0	 5.133319999991933e+000	 9.799996024918521e+000	 1.000061795745104e+001
0	 5.133319999991934e+000	 9.866664822186822e+000	 1.000029199241462e+001
0	 5.133319999991933e+000	 9.933332852771358e+000	 1.000004118641265e+001
0	 5.133319999991932e+000	 1.000000000000000e+001	 9.999858744708449e+000
0	 5.199979999988399e+000	 9.333302777352783e+000	 1.000561119583963e+001
0	 5.199979999988400e+000	 9.399973674588175e+000	 1.000456656561622e+001
0	 5.199979999988399e+000	 9.466644621844617e+000	 1.000364378732579e+001
0	 5.199979999988400e+000	 9.533315502450002e+000	 1.000283615876047e+001
0	 5.199979999988397e+000	 9.599986199732193e+000	 1.000213698012120e+001
0	 5.199979999988399e+000	 9.666656597019092e+000	 1.000153955401773e+001
0	 5.199979999988400e+000	 9.733326577638573e+000	 1.000103718546855e+001
0	 5.199979999988400e+000	 9.799996024918523e+000	 1.000062318190093e+001
0	 5.199979999988400e+000	 9.866664822186822e+000	 1.000029085315097e+001
0	 5.199979999988400e+000	 9.933332852771354e+000	 1.000003351146393e+001
0	 5.199979999988400e+000	 1.000000000000000e+001	 9.999844471494134e+000
0	 5.266639999985466e+000	 9.333302777352781e+000	 1.000563958126673e+001
0	 5.266639999985467e+000	 9.399973674588178e+000	 1.000459339760998e+001
0	 5.266639999985467e+000	 9.466644621844619e+000	 1.000366801760760e+001
0	 5.266639999985466e+000	 9.533315502450002e+000	 1.000285693926903e+001
0	 5.266639999985467e+000	 9.599986199732197e+000	 1.000215366301313e+001
0	 5.266639999985465e+000	 9.666656597019097e+000	 1.000155169166809e+001
0	 5.266639999985467e+000	 9.733326577638577e+000	 1.000104453047141e+001
0	 5.266639999985466e+000	 9.799996024918524e+000	 1.000062568706996e+001
0	 5.266639999985466e+000	 9.866664822186822e+000	 1.000028867152000e+001
0	 5.266639999985466e+000	 9.933332852771354e+000	 1.000002699628750e+001
0	 5.266639999985466e+000	 1.000000000000000e+001	 9.999834176248157e+000
0	 5.333299999983335e+000	 9.333302777352785e+000	 1.000566037818259e+001
0	 5.333299999983335e+000	 9.399973674588175e+000	 1.000461270492333e+001
0	 5.333299999983333e+000	 9.466644621844619e+000	 1.000368481414944e+001
0	 5.333299999983335e+000	 9.533315502450002e+000	 1.000287049492426e+001
0	 5.333299999983334e+000	 9.599986199732197e+000	 1.000216353872130e+001
0	 5.333299999983335e+000	 9.666656597019097e+000	 1.000155773942432e+001
0	 5.333299999983334e+000	 9.733326577638577e+000	 1.000104689332724e+001
0	 5.333299999983334e+000	 9.799996024918524e+000	 1.000062479913419e+001
0	 5.333299999983334e+000	 9.866664822186822e+000	 1.000028525795959e+001
0	 5.333299999983334e+000	 9.933332852771354e+000	 1.000002207332842e+001
0	 5.333299999983334e+000	 1.000000000000000e+001	 9.999829051176276e+000
0	 5.333299999983334e+000	 0.000000000000000e+000	 1.021479495120182e+001
0	 5.333299999983336e+000	 6.666714722864757e-002	 1.022174291607145e+001
0	 5.333299999983333e+000	 1.333351778131789e-001	 1.022803458243119e+001
0	 5.333299999983336e+000	 2.000039750814772e-001	 1.023381160040941e+001
0	 5.333299999983334e+000	 2.666734223614255e-001	 1.023921563072211e+001
0	 5.333299999983334e+000	 3.333434029809068e-001	 1.024438834467222e+001
0	 5.333299999983334e+000	 4.000138002678044e-001	 1.024947142414915e+001
0	 5.333299999983334e+000	 4.666844975500011e-001	 1.025460656162864e+001
0	 5.333299999983333e+000	 5.333553781553803e-001	 1.025993546017287e+001
0	 5.333299999983335e+000	 6.000263254118248e-001	 1.026559983343092e+001
0	 5.333299999983334e+000	 6.666972226472175e-001	 1.027174140563937e+001
0	 5.399969999982149e+000	 0.000000000000000e+000	 1.019936129069776e+001
0	 5.399969999982148e+000	 6.666714722864756e-002	 1.020564003770341e+001
0	 5.399969999982151e+000	 1.333351778131789e-001	 1.021163016570849e+001
0	 5.399969999982150e+000	 2.000039750814772e-001	 1.021742211661479e+001
0	 5.399969999982148e+000	 2.666734223614254e-001	 1.022310634101394e+001
0	 5.399969999982150e+000	 3.333434029809069e-001	 1.022877329818696e+001
0	 5.399969999982151e+000	 4.000138002678045e-001	 1.023451345610421e+001
0	 5.399969999982149e+000	 4.666844975500012e-001	 1.024041729142544e+001
0	 5.399969999982152e+000	 5.333553781553801e-001	 1.024657528950014e+001
0	 5.399969999982148e+000	 6.000263254118247e-001	 1.025307794436811e+001
0	 5.399969999982150e+000	 6.666972226472177e-001	 1.026001575876021e+001
0	 5.466639999981866e+000	 0.000000000000000e+000	 1.018920670830167e+001
0	 5.466639999981866e+000	 6.666714722864756e-002	 1.019448151956519e+001
0	 5.466639999981866e+000	 1.333351778131789e-001	 1.019977860026001e+001
0	 5.466639999981866e+000	 2.000039750814772e-001	 1.020514455099789e+001
0	 5.466639999981865e+000	 2.666734223614255e-001	 1.021062597943763e+001
0	 5.466639999981866e+000	 3.333434029809069e-001	 1.021626950028494e+001
0	 5.466639999981865e+000	 4.000138002678044e-001	 1.022212173529260e+001
0	 5.466639999981866e+000	 4.666844975500011e-001	 1.022822931326067e+001
0	 5.466639999981867e+000	 5.333553781553804e-001	 1.023463887003698e+001
0	 5.466639999981865e+000	 6.000263254118247e-001	 1.024139704851773e+001
0	 5.466639999981865e+000	 6.666972226472178e-001	 1.024855049864842e+001
0	 5.533309999982383e+000	 0.000000000000000e+000	 1.018338738401501e+001
0	 5.533309999982382e+000	 6.666714722864757e-002	 1.018743260061457e+001
0	 5.533309999982382e+000	 1.333351778131789e-001	 1.019175334263788e+001
0	 5.533309999982384e+000	 2.000039750814772e-001	 1.019635973694252e+001
0	 5.533309999982381e+000	 2.666734223614256e-001	 1.020126191603662e+001
0	 5.533309999982382e+000	 3.333434029809069e-001	 1.020647001807885e+001
0	 5.533309999982384e+000	 4.000138002678045e-001	 1.021199418687869e+001
0	 5.533309999982382e+000	 4.666844975500011e-001	 1.021784457189684e+001
0	 5.533309999982382e+000	 5.333553781553803e-001	 1.022403132824568e+001
0	 5.533309999982383e+000	 6.000263254118247e-001	 1.023056461669001e+001
0	 5.533309999982381e+000	 6.666972226472175e-001	 1.023745460364783e+001
0	 5.599979999983598e+000	 0.000000000000000e+000	 1.018095949783930e+001
0	 5.599979999983598e+000	 6.666714722864756e-002	 1.018365851980938e+001
0	 5.599979999983597e+000	 1.333351778131789e-001	 1.018682784939422e+001
0	 5.599979999983599e+000	 2.000039750814772e-001	 1.019044850783254e+001
0	 5.599979999983599e+000	 2.666734223614256e-001	 1.019450152085440e+001
0	 5.599979999983599e+000	 3.333434029809068e-001	 1.019896791868136e+001
0	 5.599979999983598e+000	 4.000138002678044e-001	 1.020382873602681e+001
0	 5.599979999983598e+000	 4.666844975500013e-001	 1.020906501209642e+001
0	 5.599979999983598e+000	 5.333553781553804e-001	 1.021465779058860e+001
0	 5.599979999983598e+000	 6.000263254118246e-001	 1.022058811969519e+001
0	 5.599979999983600e+000	 6.666972226472177e-001	 1.022683705210229e+001
0	 5.666649999985415e+000	 0.000000000000000e+000	 1.018097922977604e+001
0	 5.666649999985414e+000	 6.666714722864756e-002	 1.018232451610743e+001
0	 5.666649999985417e+000	 1.333351778131789e-001	 1.018427557708117e+001
0	 5.666649999985416e+000	 2.000039750814772e-001	 1.018679169705177e+001
0	 5.666649999985414e+000	 2.666734223614254e-001	 1.018983216393441e+001
0	 5.666649999985414e+000	 3.333434029809069e-001	 1.019335626920516e+001
0	 5.666649999985414e+000	 4.000138002678043e-001	 1.019732330790136e+001
0	 5.666649999985415e+000	 4.666844975500012e-001	 1.020169257862194e+001
0	 5.666649999985416e+000	 5.333553781553803e-001	 1.020642338352802e+001
0	 5.666649999985415e+000	 6.000263254118247e-001	 1.021147502834349e+001
0	 5.666649999985415e+000	 6.666972226472177e-001	 1.021680682235565e+001
0	 5.733319999987732e+000	 0.000000000000000e+000	 1.018250275982670e+001
0	 5.733319999987730e+000	 6.666714722864754e-002	 1.018259582846651e+001
0	 5.733319999987733e+000	 1.333351778131789e-001	 1.018336998225085e+001
0	 5.733319999987733e+000	 2.000039750814772e-001	 1.018477013798405e+001
0	 5.733319999987731e+000	 2.666734223614255e-001	 1.018674121532012e+001
0	 5.733319999987730e+000	 3.333434029809068e-001	 1.018922813676296e+001
0	 5.733319999987731e+000	 4.000138002678044e-001	 1.019217582766665e+001
0	 5.733319999987732e+000	 4.666844975500011e-001	 1.019552921623588e+001
0	 5.733319999987732e+000	 5.333553781553803e-001	 1.019923323352632e+001
0	 5.733319999987731e+000	 6.000263254118247e-001	 1.020323281344517e+001
0	 5.733319999987732e+000	 6.666972226472178e-001	 1.020747289275177e+001
0	 5.799989999990449e+000	 0.000000000000000e+000	 1.018458626799276e+001
0	 5.799989999990448e+000	 6.666714722864756e-002	 1.018363769584443e+001
0	 5.799989999990449e+000	 1.333351778131790e-001	 1.018338452145540e+001
0	 5.799989999990448e+000	 2.000039750814772e-001	 1.018376466401325e+001
0	 5.799989999990447e+000	 2.666734223614255e-001	 1.018471604505502e+001
0	 5.799989999990451e+000	 3.333434029809069e-001	 1.018617658846745e+001
0	 5.799989999990449e+000	 4.000138002678044e-001	 1.018808422048711e+001
0	 5.799989999990448e+000	 4.666844975500012e-001	 1.019037686970080e+001
0	 5.799989999990448e+000	 5.333553781553804e-001	 1.019299246704582e+001
0	 5.799989999990448e+000	 6.000263254118247e-001	 1.019586894581048e+001
0	 5.799989999990448e+000	 6.666972226472177e-001	 1.019894424163450e+001
0	 5.866659999993464e+000	 0.000000000000000e+000	 1.018628593427571e+001
0	 5.866659999993465e+000	 6.666714722864756e-002	 1.018461535719900e+001
0	 5.866659999993465e+000	 1.333351778131789e-001	 1.018359265124695e+001
0	 5.866659999993463e+000	 2.000039750814772e-001	 1.018315610852319e+001
0	 5.866659999993466e+000	 2.666734223614256e-001	 1.018324402318259e+001
0	 5.866659999993464e+000	 3.333434029809069e-001	 1.018379469143135e+001
0	 5.866659999993465e+000	 4.000138002678045e-001	 1.018474641152712e+001
0	 5.866659999993464e+000	 4.666844975500011e-001	 1.018603748377920e+001
0	 5.866659999993465e+000	 5.333553781553801e-001	 1.018760621054889e+001
0	 5.866659999993465e+000	 6.000263254118248e-001	 1.018939089624968e+001
0	 5.866659999993466e+000	 6.666972226472178e-001	 1.019132984734774e+001
0	 5.933329999996681e+000	 0.000000000000000e+000	 1.018665793867701e+001
0	 5.933329999996681e+000	 6.666714722864756e-002	 1.018469405148802e+001
0	 5.933329999996682e+000	 1.333351778131789e-001	 1.018326782817762e+001
0	 5.933329999996682e+000	 2.000039750814773e-001	 1.018232530489774e+001
0	 5.933329999996681e+000	 2.666734223614256e-001	 1.018181251974633e+001
0	 5.933329999996682e+000	 3.333434029809069e-001	 1.018167551276739e+001
0	 5.933329999996681e+000	 4.000138002678044e-001	 1.018186032595104e+001
0	 5.933329999996681e+000	 4.666844975500012e-001	 1.018231300323364e+001
0	 5.933329999996682e+000	 5.333553781553803e-001	 1.018297959049788e+001
0	 5.933329999996682e+000	 6.000263254118248e-001	 1.018380613557308e+001
0	 5.933329999996681e+000	 6.666972226472175e-001	 1.018473868823537e+001
0	 6.000000000000000e+000	 0.000000000000000e+000	 1.018475846119813e+001
0	 6.000000000000001e+000	 6.666714722864757e-002	 1.018303901766927e+001
0	 6.000000000000000e+000	 1.333351778131789e-001	 1.018168350879956e+001
0	 6.000000000000000e+000	 2.000039750814772e-001	 1.018065308652076e+001
0	 6.000000000000001e+000	 2.666734223614256e-001	 1.017990890478971e+001
0	 6.000000000000000e+000	 3.333434029809069e-001	 1.017941211958828e+001
0	 6.000000000000001e+000	 4.000138002678044e-001	 1.017912388892332e+001
0	 5.999999999999998e+000	 4.666844975500010e-001	 1.017900537282666e+001
0	 6.000000000000000e+000	 5.333553781553804e-001	 1.017901773335518e+001
0	 6.000000000000000e+000	 6.000263254118248e-001	 1.017912213459093e+001
0	 6.000000000000000e+000	 6.666972226472177e-001	 1.017927974264128e+001
0	 5.333299999983334e+000	 6.666972226472175e-001	 1.027174140563937e+001
0	 5.333299999983334e+000	 7.333579753122048e-001	 1.027779716259865e+001
0	 5.333299999983334e+000	 8.000185779984417e-001	 1.028313848954011e+001
0	 5.333299999983334e+000	 8.666790473703453e-001	 1.028780582600656e+001
0	 5.333299999983335e+000	 9.333394000923322e-001	 1.029183961208883e+001
0	 5.333299999983333e+000	 9.999996528288189e-001	 1.029528028842587e+001
0	 5.333299999983334e+000	 1.066659822244222e+000	 1.029816829620473e+001
0	 5.333299999983335e+000	 1.133319925002959e+000	 1.030054407716063e+001
0	 5.333299999983334e+000	 1.199979977769445e+000	 1.030244807357700e+001
0	 5.333299999983333e+000	 1.266639997208098e+000	 1.030392072828543e+001
0	 5.333299999983335e+000	 1.333299999983334e+000	 1.030500248466575e+001
0	 5.399969999982150e+000	 6.666972226472177e-001	 1.026001575876021e+001
0	 5.399969999982149e+000	 7.333579753122046e-001	 1.026679792212091e+001
0	 5.399969999982150e+000	 8.000185779984418e-001	 1.027279369671373e+001
0	 5.399969999982149e+000	 8.666790473703453e-001	 1.027803046825047e+001
0	 5.399969999982148e+000	 9.333394000923320e-001	 1.028253562321026e+001
0	 5.399969999982149e+000	 9.999996528288190e-001	 1.028633654883971e+001
0	 5.399969999982151e+000	 1.066659822244222e+000	 1.028946063315288e+001
0	 5.399969999982148e+000	 1.133319925002958e+000	 1.029193526493132e+001
0	 5.399969999982149e+000	 1.199979977769445e+000	 1.029378783372412e+001
0	 5.399969999982150e+000	 1.266639997208098e+000	 1.029504572984786e+001
0	 5.399969999982150e+000	 1.333299999983334e+000	 1.029573634438675e+001
0	 5.466639999981865e+000	 6.666972226472178e-001	 1.024855049864842e+001
0	 5.466639999981867e+000	 7.333579753122050e-001	 1.025552572482705e+001
0	 5.466639999981864e+000	 8.000185779984415e-001	 1.026173129834470e+001
0	 5.466639999981866e+000	 8.666790473703452e-001	 1.026718366057877e+001
0	 5.466639999981865e+000	 9.333394000923321e-001	 1.027189925374139e+001
0	 5.466639999981866e+000	 9.999996528288188e-001	 1.027589452087956e+001
0	 5.466639999981865e+000	 1.066659822244222e+000	 1.027918590587511e+001
0	 5.466639999981866e+000	 1.133319925002959e+000	 1.028178985344473e+001
0	 5.466639999981867e+000	 1.199979977769445e+000	 1.028372280914005e+001
0	 5.466639999981866e+000	 1.266639997208098e+000	 1.028500121934759e+001
0	 5.466639999981866e+000	 1.333299999983334e+000	 1.028564153128885e+001
0	 5.533309999982381e+000	 6.666972226472175e-001	 1.023745460364783e+001
0	 5.533309999982381e+000	 7.333579753122048e-001	 1.024418168749709e+001
0	 5.533309999982382e+000	 8.000185779984415e-001	 1.025022667811346e+001
0	 5.533309999982384e+000	 8.666790473703456e-001	 1.025559718186694e+001
0	 5.533309999982382e+000	 9.333394000923322e-001	 1.026030080590452e+001
0	 5.533309999982383e+000	 9.999996528288191e-001	 1.026434515815030e+001
0	 5.533309999982382e+000	 1.066659822244222e+000	 1.026773784730544e+001
0	 5.533309999982381e+000	 1.133319925002958e+000	 1.027048648284823e+001
0	 5.533309999982381e+000	 1.199979977769445e+000	 1.027259867503408e+001
0	 5.533309999982383e+000	 1.266639997208098e+000	 1.027408203489561e+001
0	 5.533309999982381e+000	 1.333299999983334e+000	 1.027494417424257e+001
0	 5.599979999983600e+000	 6.666972226472177e-001	 1.022683705210229e+001
0	 5.599979999983598e+000	 7.333579753122048e-001	 1.023296692691106e+001
0	 5.599979999983598e+000	 8.000185779984416e-001	 1.023855521970046e+001
0	 5.599979999983598e+000	 8.666790473703452e-001	 1.024360281099046e+001
0	 5.599979999983597e+000	 9.333394000923319e-001	 1.024811058192196e+001
0	 5.599979999983599e+000	 9.999996528288191e-001	 1.025207941425684e+001
0	 5.599979999983598e+000	 1.066659822244222e+000	 1.025551019037795e+001
0	 5.599979999983600e+000	 1.133319925002959e+000	 1.025840379328920e+001
0	 5.599979999983598e+000	 1.199979977769445e+000	 1.026076110661552e+001
0	 5.599979999983599e+000	 1.266639997208098e+000	 1.026258301460291e+001
0	 5.599979999983598e+000	 1.333299999983334e+000	 1.026387040211843e+001
0	 5.666649999985415e+000	 6.666972226472177e-001	 1.021680682235565e+001
0	 5.666649999985416e+000	 7.333579753122049e-001	 1.022208255984899e+001
0	 5.666649999985413e+000	 8.000185779984415e-001	 1.022699230678616e+001
0	 5.666649999985414e+000	 8.666790473703451e-001	 1.023153232682481e+001
0	 5.666649999985414e+000	 9.333394000923319e-001	 1.023569888401599e+001
0	 5.666649999985416e+000	 9.999996528288189e-001	 1.023948824280404e+001
0	 5.666649999985416e+000	 1.066659822244222e+000	 1.024289666802668e+001
0	 5.666649999985414e+000	 1.133319925002959e+000	 1.024592042491505e+001
0	 5.666649999985418e+000	 1.199979977769445e+000	 1.024855577909368e+001
0	 5.666649999985416e+000	 1.266639997208098e+000	 1.025079899658051e+001
0	 5.666649999985414e+000	 1.333299999983334e+000	 1.025264634378696e+001
0	 5.733319999987732e+000	 6.666972226472178e-001	 1.020747289275177e+001
0	 5.733319999987732e+000	 7.333579753122048e-001	 1.021172970309095e+001
0	 5.733319999987729e+000	 8.000185779984415e-001	 1.021581332305103e+001
0	 5.733319999987730e+000	 8.666790473703452e-001	 1.021971750824551e+001
0	 5.733319999987731e+000	 9.333394000923322e-001	 1.022343601440894e+001
0	 5.733319999987732e+000	 9.999996528288190e-001	 1.022696259739681e+001
0	 5.733319999987732e+000	 1.066659822244222e+000	 1.023029101318570e+001
0	 5.733319999987732e+000	 1.133319925002959e+000	 1.023341501787317e+001
0	 5.733319999987732e+000	 1.199979977769445e+000	 1.023632836767784e+001
0	 5.733319999987731e+000	 1.266639997208098e+000	 1.023902481893942e+001
0	 5.733319999987731e+000	 1.333299999983334e+000	 1.024149812811867e+001
0	 5.799989999990448e+000	 6.666972226472177e-001	 1.019894424163450e+001
0	 5.799989999990448e+000	 7.333579753122048e-001	 1.020210947341699e+001
0	 5.799989999990449e+000	 8.000185779984417e-001	 1.020529365217554e+001
0	 5.799989999990448e+000	 8.666790473703451e-001	 1.020849013412804e+001
0	 5.799989999990448e+000	 9.333394000923323e-001	 1.021169227532311e+001
0	 5.799989999990447e+000	 9.999996528288188e-001	 1.021489343164008e+001
0	 5.799989999990448e+000	 1.066659822244222e+000	 1.021808695878908e+001
0	 5.799989999990448e+000	 1.133319925002958e+000	 1.022126621231095e+001
0	 5.799989999990449e+000	 1.199979977769445e+000	 1.022442454757733e+001
0	 5.799989999990447e+000	 1.266639997208098e+000	 1.022755531979064e+001
0	 5.799989999990449e+000	 1.333299999983334e+000	 1.023065188398410e+001
0	 5.866659999993466e+000	 6.666972226472178e-001	 1.019132984734774e+001
0	 5.866659999993463e+000	 7.333579753122048e-001	 1.019342298760716e+001
0	 5.866659999993465e+000	 8.000185779984417e-001	 1.019570867784018e+001
0	 5.866659999993464e+000	 8.666790473703452e-001	 1.019818198334791e+001
0	 5.866659999993464e+000	 9.333394000923323e-001	 1.020083796898082e+001
0	 5.866659999993464e+000	 9.999996528288189e-001	 1.020367169913876e+001
0	 5.866659999993465e+000	 1.066659822244222e+000	 1.020667823777090e+001
0	 5.866659999993465e+000	 1.133319925002959e+000	 1.020985264837581e+001
0	 5.866659999993466e+000	 1.199979977769445e+000	 1.021318999400146e+001
0	 5.866659999993464e+000	 1.266639997208098e+000	 1.021668533724520e+001
0	 5.866659999993464e+000	 1.333299999983334e+000	 1.022033374025376e+001
0	 5.933329999996681e+000	 6.666972226472175e-001	 1.018473868823537e+001
0	 5.933329999996681e+000	 7.333579753122046e-001	 1.018587136244154e+001
0	 5.933329999996682e+000	 8.000185779984416e-001	 1.018733378372543e+001
0	 5.933329999996682e+000	 8.666790473703454e-001	 1.018912483478064e+001
0	 5.933329999996682e+000	 9.333394000923322e-001	 1.019124339760443e+001
0	 5.933329999996681e+000	 9.999996528288190e-001	 1.019368835349775e+001
0	 5.933329999996681e+000	 1.066659822244222e+000	 1.019645858306522e+001
0	 5.933329999996682e+000	 1.133319925002959e+000	 1.019955296621515e+001
0	 5.933329999996682e+000	 1.199979977769445e+000	 1.020297038215955e+001
0	 5.933329999996682e+000	 1.266639997208098e+000	 1.020670970941411e+001
0	 5.933329999996681e+000	 1.333299999983334e+000	 1.021076982579820e+001
0	 6.000000000000000e+000	 6.666972226472177e-001	 1.017927974264128e+001
0	 6.000000000000000e+000	 7.333579753122046e-001	 1.017965571470021e+001
0	 6.000000000000000e+000	 8.000185779984417e-001	 1.018044435351180e+001
0	 6.000000000000002e+000	 8.666790473703454e-001	 1.018165046730175e+001
0	 6.000000000000000e+000	 9.333394000923323e-001	 1.018327886341626e+001
0	 5.999999999999999e+000	 9.999996528288190e-001	 1.018533434832199e+001
0	 6.000000000000000e+000	 1.066659822244222e+000	 1.018782172760615e+001
0	 6.000000000000001e+000	 1.133319925002959e+000	 1.019074580597640e+001
0	 6.000000000000000e+000	 1.199979977769445e+000	 1.019411138726092e+001
0	 6.000000000000000e+000	 1.266639997208098e+000	 1.019792327440838e+001
0	 6.000000000000000e+000	 1.333299999983334e+000	 1.020218626948794e+001
0	 5.333299999983335e+000	 1.333299999983334e+000	 1.030500248466575e+001
0	 5.333299999983333e+000	 1.399969999982150e+000	 1.030598763330893e+001
0	 5.333299999983335e+000	 1.466639999981867e+000	 1.030715679778581e+001
0	 5.333299999983333e+000	 1.533309999982383e+000	 1.030853032630249e+001
0	 5.333299999983335e+000	 1.599979999983599e+000	 1.031012856706505e+001
0	 5.333299999983334e+000	 1.666649999985416e+000	 1.031197186827962e+001
0	 5.333299999983334e+000	 1.733319999987733e+000	 1.031408057815230e+001
0	 5.333299999983333e+000	 1.799989999990449e+000	 1.031647504488918e+001
0	 5.333299999983334e+000	 1.866659999993466e+000	 1.031917561669639e+001
0	 5.333299999983334e+000	 1.933329999996684e+000	 1.032220264178003e+001
0	 5.333299999983333e+000	 2.000000000000000e+000	 1.032557646834622e+001
0	 5.399969999982150e+000	 1.333299999983334e+000	 1.029573634438675e+001
0	 5.399969999982148e+000	 1.399969999982150e+000	 1.029627722523662e+001
0	 5.399969999982150e+000	 1.466639999981866e+000	 1.029708020730328e+001
0	 5.399969999982149e+000	 1.533309999982383e+000	 1.029816430002721e+001
0	 5.399969999982148e+000	 1.599979999983599e+000	 1.029954851284890e+001
0	 5.399969999982151e+000	 1.666649999985416e+000	 1.030125185520881e+001
0	 5.399969999982149e+000	 1.733319999987733e+000	 1.030329333654746e+001
0	 5.399969999982148e+000	 1.799989999990450e+000	 1.030569196630529e+001
0	 5.399969999982151e+000	 1.866659999993466e+000	 1.030846675392281e+001
0	 5.399969999982151e+000	 1.933329999996683e+000	 1.031163670884051e+001
0	 5.399969999982148e+000	 2.000000000000000e+000	 1.031522084049889e+001
0	 5.466639999981866e+000	 1.333299999983334e+000	 1.028564153128885e+001
0	 5.466639999981865e+000	 1.399969999982150e+000	 1.028610411442070e+001
0	 5.466639999981866e+000	 1.466639999981867e+000	 1.028685019677025e+001
0	 5.466639999981866e+000	 1.533309999982383e+000	 1.028789766109069e+001
0	 5.466639999981867e+000	 1.599979999983599e+000	 1.028926439013523e+001
0	 5.466639999981866e+000	 1.666649999985416e+000	 1.029096826665707e+001
0	 5.466639999981864e+000	 1.733319999987733e+000	 1.029302717340943e+001
0	 5.466639999981867e+000	 1.799989999990450e+000	 1.029545899314551e+001
0	 5.466639999981866e+000	 1.866659999993466e+000	 1.029828160861853e+001
0	 5.466639999981868e+000	 1.933329999996684e+000	 1.030151290258172e+001
0	 5.466639999981868e+000	 2.000000000000000e+000	 1.030517075778829e+001
0	 5.533309999982381e+000	 1.333299999983334e+000	 1.027494417424257e+001
0	 5.533309999982382e+000	 1.399969999982150e+000	 1.027562203593669e+001
0	 5.533309999982381e+000	 1.466639999981866e+000	 1.027655863377082e+001
0	 5.533309999982382e+000	 1.533309999982383e+000	 1.027777093588922e+001
0	 5.533309999982382e+000	 1.599979999983600e+000	 1.027927591043617e+001
0	 5.533309999982382e+000	 1.666649999985416e+000	 1.028109052555596e+001
0	 5.533309999982383e+000	 1.733319999987733e+000	 1.028323174939286e+001
0	 5.533309999982381e+000	 1.799989999990450e+000	 1.028571655009117e+001
0	 5.533309999982381e+000	 1.866659999993466e+000	 1.028856189579517e+001
0	 5.533309999982383e+000	 1.933329999996683e+000	 1.029178475464915e+001
0	 5.533309999982382e+000	 2.000000000000000e+000	 1.029540209479741e+001
0	 5.599979999983598e+000	 1.333299999983334e+000	 1.026387040211843e+001
0	 5.599979999983598e+000	 1.399969999982150e+000	 1.026498472486010e+001
0	 5.599979999983599e+000	 1.466639999981866e+000	 1.026629738588909e+001
0	 5.599979999983599e+000	 1.533309999982383e+000	 1.026782465081911e+001
0	 5.599979999983598e+000	 1.599979999983599e+000	 1.026958278526386e+001
0	 5.599979999983598e+000	 1.666649999985416e+000	 1.027158805483705e+001
0	 5.599979999983598e+000	 1.733319999987733e+000	 1.027385672515237e+001
0	 5.599979999983598e+000	 1.799989999990449e+000	 1.027640506182354e+001
0	 5.599979999983598e+000	 1.866659999993467e+000	 1.027924933046427e+001
0	 5.599979999983598e+000	 1.933329999996683e+000	 1.028240579668826e+001
0	 5.599979999983599e+000	 2.000000000000000e+000	 1.028589072610923e+001
0	 5.666649999985414e+000	 1.333299999983334e+000	 1.025264634378696e+001
0	 5.666649999985417e+000	 1.399969999982150e+000	 1.025434591626641e+001
0	 5.666649999985416e+000	 1.466639999981867e+000	 1.025615832070917e+001
0	 5.666649999985414e+000	 1.533309999982383e+000	 1.025809933227669e+001
0	 5.666649999985414e+000	 1.599979999983599e+000	 1.026018472613045e+001
0	 5.666649999985415e+000	 1.666649999985416e+000	 1.026243027743194e+001
0	 5.666649999985414e+000	 1.733319999987733e+000	 1.026485176134261e+001
0	 5.666649999985415e+000	 1.799989999990449e+000	 1.026746495302393e+001
0	 5.666649999985417e+000	 1.866659999993466e+000	 1.027028562763742e+001
0	 5.666649999985414e+000	 1.933329999996683e+000	 1.027332956034452e+001
0	 5.666649999985415e+000	 2.000000000000000e+000	 1.027661252630674e+001
0	 5.733319999987731e+000	 1.333299999983334e+000	 1.024149812811867e+001
0	 5.733319999987732e+000	 1.399969999982150e+000	 1.024385934523114e+001
0	 5.733319999987733e+000	 1.466639999981866e+000	 1.024623330581514e+001
0	 5.733319999987733e+000	 1.533309999982383e+000	 1.024863550665825e+001
0	 5.733319999987730e+000	 1.599979999983600e+000	 1.025108144454807e+001
0	 5.733319999987731e+000	 1.666649999985416e+000	 1.025358661627218e+001
0	 5.733319999987731e+000	 1.733319999987733e+000	 1.025616651861819e+001
0	 5.733319999987732e+000	 1.799989999990450e+000	 1.025883664837367e+001
0	 5.733319999987731e+000	 1.866659999993466e+000	 1.026161250232621e+001
0	 5.733319999987733e+000	 1.933329999996683e+000	 1.026450957726342e+001
0	 5.733319999987732e+000	 2.000000000000000e+000	 1.026754336997290e+001
0	 5.799989999990449e+000	 1.333299999983334e+000	 1.023065188398410e+001
0	 5.799989999990447e+000	 1.399969999982150e+000	 1.023367874682979e+001
0	 5.799989999990447e+000	 1.466639999981866e+000	 1.023661420879112e+001
0	 5.799989999990448e+000	 1.533309999982383e+000	 1.023947370036012e+001
0	 5.799989999990448e+000	 1.599979999983600e+000	 1.024227265202886e+001
0	 5.799989999990449e+000	 1.666649999985416e+000	 1.024502649428939e+001
0	 5.799989999990448e+000	 1.733319999987733e+000	 1.024775065763375e+001
0	 5.799989999990449e+000	 1.799989999990450e+000	 1.025046057255401e+001
0	 5.799989999990447e+000	 1.866659999993466e+000	 1.025317166954222e+001
0	 5.799989999990449e+000	 1.933329999996683e+000	 1.025589937909043e+001
0	 5.799989999990447e+000	 2.000000000000000e+000	 1.025865913169070e+001
0	 5.866659999993464e+000	 1.333299999983334e+000	 1.022033374025376e+001
0	 5.866659999993464e+000	 1.399969999982150e+000	 1.022395785613787e+001
0	 5.866659999993465e+000	 1.466639999981866e+000	 1.022739289722120e+001
0	 5.866659999993463e+000	 1.533309999982383e+000	 1.023065443977860e+001
0	 5.866659999993464e+000	 1.599979999983599e+000	 1.023375806008495e+001
0	 5.866659999993466e+000	 1.666649999985416e+000	 1.023671933441510e+001
0	 5.866659999993465e+000	 1.733319999987733e+000	 1.023955383904393e+001
0	 5.866659999993464e+000	 1.799989999990449e+000	 1.024227715024627e+001
0	 5.866659999993465e+000	 1.866659999993466e+000	 1.024490484429702e+001
0	 5.866659999993464e+000	 1.933329999996683e+000	 1.024745249747101e+001
0	 5.866659999993463e+000	 2.000000000000000e+000	 1.024993568604311e+001
0	 5.933329999996681e+000	 1.333299999983334e+000	 1.021076982579820e+001
0	 5.933329999996681e+000	 1.399969999982150e+000	 1.021485040823089e+001
0	 5.933329999996682e+000	 1.466639999981866e+000	 1.021866123868949e+001
0	 5.933329999996682e+000	 1.533309999982383e+000	 1.022221825131002e+001
0	 5.933329999996680e+000	 1.599979999983600e+000	 1.022553738022849e+001
0	 5.933329999996681e+000	 1.666649999985416e+000	 1.022863455958093e+001
0	 5.933329999996680e+000	 1.733319999987733e+000	 1.023152572350335e+001
0	 5.933329999996682e+000	 1.799989999990450e+000	 1.023422680613175e+001
0	 5.933329999996682e+000	 1.866659999993466e+000	 1.023675374160218e+001
0	 5.933329999996682e+000	 1.933329999996683e+000	 1.023912246405062e+001
0	 5.933329999996681e+000	 2.000000000000000e+000	 1.024134890761311e+001
0	 6.000000000000000e+000	 1.333299999983334e+000	 1.020218626948794e+001
0	 5.999999999999999e+000	 1.399969999982150e+000	 1.020651013818436e+001
0	 6.000000000000000e+000	 1.466639999981866e+000	 1.021051110078010e+001
0	 6.000000000000000e+000	 1.533309999982383e+000	 1.021420566135067e+001
0	 6.000000000000001e+000	 1.599979999983600e+000	 1.021761032397161e+001
0	 6.000000000000000e+000	 1.666649999985416e+000	 1.022074159271842e+001
0	 6.000000000000002e+000	 1.733319999987733e+000	 1.022361597166663e+001
0	 6.000000000000000e+000	 1.799989999990450e+000	 1.022624996489174e+001
0	 5.999999999999998e+000	 1.866659999993466e+000	 1.022866007646928e+001
0	 6.000000000000000e+000	 1.933329999996683e+000	 1.023086281047475e+001
0	 5.999999999999999e+000	 2.000000000000000e+000	 1.023287467098366e+001
0	 5.333299999983333e+000	 2.000000000000000e+000	 1.032557646834622e+001
0	 5.333299999983333e+000	 2.066670000003317e+000	 1.032890068883692e+001
0	 5.333299999983333e+000	 2.133340000006534e+000	 1.033176460178595e+001
0	 5.333299999983335e+000	 2.200010000009550e+000	 1.033416711453715e+001
0	 5.333299999983333e+000	 2.266680000012268e+000	 1.033610713443437e+001
0	 5.333299999983335e+000	 2.333350000014584e+000	 1.033758356882141e+001
0	 5.333299999983334e+000	 2.400020000016401e+000	 1.033859532504212e+001
0	 5.333299999983334e+000	 2.466690000017617e+000	 1.033914131044032e+001
0	 5.333299999983335e+000	 2.533360000018134e+000	 1.033922043235980e+001
0	 5.333299999983333e+000	 2.600030000017851e+000	 1.033883159814441e+001
0	 5.333299999983334e+000	 2.666700000016666e+000	 1.033797371513790e+001
0	 5.399969999982148e+000	 2.000000000000000e+000	 1.031522084049889e+001
0	 5.399969999982150e+000	 2.066670000003317e+000	 1.031875470445030e+001
0	 5.399969999982151e+000	 2.133340000006534e+000	 1.032176664174890e+001
0	 5.399969999982150e+000	 2.200010000009551e+000	 1.032426484008785e+001
0	 5.399969999982149e+000	 2.266680000012267e+000	 1.032625748716029e+001
0	 5.399969999982151e+000	 2.333350000014584e+000	 1.032775277065939e+001
0	 5.399969999982149e+000	 2.400020000016401e+000	 1.032875887827827e+001
0	 5.399969999982149e+000	 2.466690000017617e+000	 1.032928399771008e+001
0	 5.399969999982150e+000	 2.533360000018133e+000	 1.032933631664794e+001
0	 5.399969999982149e+000	 2.600030000017851e+000	 1.032892402278497e+001
0	 5.399969999982149e+000	 2.666700000016667e+000	 1.032805530381430e+001
0	 5.466639999981868e+000	 2.000000000000000e+000	 1.030517075778829e+001
0	 5.466639999981867e+000	 2.066670000003318e+000	 1.030876729248967e+001
0	 5.466639999981867e+000	 2.133340000006534e+000	 1.031181324759631e+001
0	 5.466639999981867e+000	 2.200010000009550e+000	 1.031432443984991e+001
0	 5.466639999981865e+000	 2.266680000012267e+000	 1.031631668599217e+001
0	 5.466639999981867e+000	 2.333350000014584e+000	 1.031780580276478e+001
0	 5.466639999981866e+000	 2.400020000016401e+000	 1.031880760690943e+001
0	 5.466639999981866e+000	 2.466690000017617e+000	 1.031933791516780e+001
0	 5.466639999981864e+000	 2.533360000018134e+000	 1.031941254428158e+001
0	 5.466639999981865e+000	 2.600030000017849e+000	 1.031904731099242e+001
0	 5.466639999981866e+000	 2.666700000016666e+000	 1.031825803204200e+001
0	 5.533309999982382e+000	 2.000000000000000e+000	 1.029540209479741e+001
0	 5.533309999982382e+000	 2.066670000003316e+000	 1.029893959313256e+001
0	 5.533309999982381e+000	 2.133340000006534e+000	 1.030192614411064e+001
0	 5.533309999982383e+000	 2.200010000009550e+000	 1.030438354222115e+001
0	 5.533309999982383e+000	 2.266680000012267e+000	 1.030633358195355e+001
0	 5.533309999982382e+000	 2.333350000014584e+000	 1.030779805779733e+001
0	 5.533309999982384e+000	 2.400020000016401e+000	 1.030879876424195e+001
0	 5.533309999982381e+000	 2.466690000017617e+000	 1.030935749577687e+001
0	 5.533309999982381e+000	 2.533360000018134e+000	 1.030949604689154e+001
0	 5.533309999982381e+000	 2.600030000017849e+000	 1.030923621207541e+001
0	 5.533309999982382e+000	 2.666700000016666e+000	 1.030859978581794e+001
0	 5.599979999983599e+000	 2.000000000000000e+000	 1.028589072610923e+001
0	 5.599979999983598e+000	 2.066670000003316e+000	 1.028927274655644e+001
0	 5.599979999983598e+000	 2.133340000006534e+000	 1.029212705607431e+001
0	 5.599979999983598e+000	 2.200010000009550e+000	 1.029447977559935e+001
0	 5.599979999983598e+000	 2.266680000012268e+000	 1.029635702606801e+001
0	 5.599979999983599e+000	 2.333350000014584e+000	 1.029778492841679e+001
0	 5.599979999983599e+000	 2.400020000016400e+000	 1.029878960358219e+001
0	 5.599979999983598e+000	 2.466690000017617e+000	 1.029939717250064e+001
0	 5.599979999983598e+000	 2.533360000018133e+000	 1.029963375610863e+001
0	 5.599979999983598e+000	 2.600030000017850e+000	 1.029952547534261e+001
0	 5.599979999983598e+000	 2.666700000016666e+000	 1.029909845113904e+001
0	 5.666649999985415e+000	 2.000000000000000e+000	 1.027661252630674e+001
0	 5.666649999985413e+000	 2.066670000003316e+000	 1.027976789293884e+001
0	 5.666649999985417e+000	 2.133340000006535e+000	 1.028243770826978e+001
0	 5.666649999985415e+000	 2.200010000009550e+000	 1.028465076838229e+001
0	 5.666649999985414e+000	 2.266680000012267e+000	 1.028643586935910e+001
0	 5.666649999985415e+000	 2.333350000014583e+000	 1.028782180728293e+001
0	 5.666649999985416e+000	 2.400020000016401e+000	 1.028883737823649e+001
0	 5.666649999985415e+000	 2.466690000017617e+000	 1.028951137830249e+001
0	 5.666649999985417e+000	 2.533360000018134e+000	 1.028987260356365e+001
0	 5.666649999985416e+000	 2.600030000017851e+000	 1.028994985010266e+001
0	 5.666649999985415e+000	 2.666700000016666e+000	 1.028977191400222e+001
0	 5.733319999987732e+000	 2.000000000000000e+000	 1.026754336997290e+001
0	 5.733319999987732e+000	 2.066670000003317e+000	 1.027042617245724e+001
0	 5.733319999987731e+000	 2.133340000006534e+000	 1.027287982547948e+001
0	 5.733319999987732e+000	 2.200010000009550e+000	 1.027493414896779e+001
0	 5.733319999987730e+000	 2.266680000012267e+000	 1.027661896285040e+001
0	 5.733319999987731e+000	 2.333350000014583e+000	 1.027796408705547e+001
0	 5.733319999987730e+000	 2.400020000016400e+000	 1.027899934151121e+001
0	 5.733319999987733e+000	 2.466690000017617e+000	 1.027975454614580e+001
0	 5.733319999987733e+000	 2.533360000018134e+000	 1.028025952088742e+001
0	 5.733319999987732e+000	 2.600030000017851e+000	 1.028054408566423e+001
0	 5.733319999987732e+000	 2.666700000016666e+000	 1.028063806040443e+001
0	 5.799989999990447e+000	 2.000000000000000e+000	 1.025865913169070e+001
0	 5.799989999990448e+000	 2.066670000003317e+000	 1.026124872528915e+001
0	 5.799989999990448e+000	 2.133340000006534e+000	 1.026347513248583e+001
0	 5.799989999990450e+000	 2.200010000009551e+000	 1.026536754575362e+001
0	 5.799989999990448e+000	 2.266680000012268e+000	 1.026695515756544e+001
0	 5.799989999990449e+000	 2.333350000014584e+000	 1.026826716039417e+001
0	 5.799989999990449e+000	 2.400020000016400e+000	 1.026933274671270e+001
0	 5.799989999990449e+000	 2.466690000017618e+000	 1.027018110899393e+001
0	 5.799989999990448e+000	 2.533360000018134e+000	 1.027084143971073e+001
0	 5.799989999990447e+000	 2.600030000017850e+000	 1.027134293133599e+001
0	 5.799989999990448e+000	 2.666700000016666e+000	 1.027171477634258e+001
0	 5.866659999993463e+000	 2.000000000000000e+000	 1.024993568604311e+001
0	 5.866659999993463e+000	 2.066670000003316e+000	 1.025223669161206e+001
0	 5.866659999993465e+000	 2.133340000006534e+000	 1.025424535407128e+001
0	 5.866659999993464e+000	 2.200010000009550e+000	 1.025598858713758e+001
0	 5.866659999993466e+000	 2.266680000012267e+000	 1.025749330452780e+001
0	 5.866659999993466e+000	 2.333350000014584e+000	 1.025878641995876e+001
0	 5.866659999993464e+000	 2.400020000016400e+000	 1.025989484714731e+001
0	 5.866659999993464e+000	 2.466690000017618e+000	 1.026084549981025e+001
0	 5.866659999993464e+000	 2.533360000018133e+000	 1.026166529166440e+001
0	 5.866659999993465e+000	 2.600030000017850e+000	 1.026238113642658e+001
0	 5.866659999993464e+000	 2.666700000016666e+000	 1.026301994781361e+001
0	 5.933329999996681e+000	 2.000000000000000e+000	 1.024134890761311e+001
0	 5.933329999996682e+000	 2.066670000003318e+000	 1.024339121160347e+001
0	 5.933329999996681e+000	 2.133340000006534e+000	 1.024521221501826e+001
0	 5.933329999996682e+000	 2.200010000009550e+000	 1.024683490151744e+001
0	 5.933329999996681e+000	 2.266680000012267e+000	 1.024828225476103e+001
0	 5.933329999996681e+000	 2.333350000014583e+000	 1.024957725840902e+001
0	 5.933329999996680e+000	 2.400020000016401e+000	 1.025074289612139e+001
0	 5.933329999996681e+000	 2.466690000017616e+000	 1.025180215155813e+001
0	 5.933329999996681e+000	 2.533360000018134e+000	 1.025277800837923e+001
0	 5.933329999996681e+000	 2.600030000017850e+000	 1.025369345024467e+001
0	 5.933329999996681e+000	 2.666700000016666e+000	 1.025457146081444e+001
0	 5.999999999999999e+000	 2.000000000000000e+000	 1.023287467098366e+001
0	 6.000000000000000e+000	 2.066670000003318e+000	 1.023471342544088e+001
0	 5.999999999999999e+000	 2.133340000006534e+000	 1.023639744010919e+001
0	 6.000000000000001e+000	 2.200010000009551e+000	 1.023794411729100e+001
0	 6.000000000000002e+000	 2.266680000012268e+000	 1.023937085928870e+001
0	 6.000000000000000e+000	 2.333350000014584e+000	 1.024069506840466e+001
0	 6.000000000000000e+000	 2.400020000016401e+000	 1.024193414694128e+001
0	 6.000000000000000e+000	 2.466690000017617e+000	 1.024310549720094e+001
0	 6.000000000000001e+000	 2.533360000018133e+000	 1.024422652148603e+001
0	 5.999999999999998e+000	 2.600030000017850e+000	 1.024531462209892e+001
0	 6.000000000000000e+000	 2.666700000016666e+000	 1.024638720134200e+001
0	 5.333299999983334e+000	 2.666700000016666e+000	 1.033797371513790e+001
0	 5.333299999983334e+000	 2.733360000014532e+000	 1.033678720305139e+001
0	 5.333299999983334e+000	 2.800020000011599e+000	 1.033542077575746e+001
0	 5.333299999983334e+000	 2.866680000008067e+000	 1.033388627356486e+001
0	 5.333299999983335e+000	 2.933340000004133e+000	 1.033219553678231e+001
0	 5.333299999983333e+000	 3.000000000000000e+000	 1.033036040571857e+001
0	 5.333299999983334e+000	 3.066659999995867e+000	 1.032839272068240e+001
0	 5.333299999983334e+000	 3.133319999991934e+000	 1.032630432198255e+001
0	 5.333299999983333e+000	 3.199979999988401e+000	 1.032410704992779e+001
0	 5.333299999983334e+000	 3.266639999985468e+000	 1.032181274482691e+001
0	 5.333299999983335e+000	 3.333299999983334e+000	 1.031943324698867e+001
0	 5.399969999982149e+000	 2.666700000016667e+000	 1.032805530381430e+001
0	 5.399969999982151e+000	 2.733360000014533e+000	 1.032690554328476e+001
0	 5.399969999982148e+000	 2.800020000011598e+000	 1.032564625648734e+001
0	 5.399969999982149e+000	 2.866680000008067e+000	 1.032428032109481e+001
0	 5.399969999982151e+000	 2.933340000004134e+000	 1.032281061477994e+001
0	 5.399969999982150e+000	 3.000000000000000e+000	 1.032124001521552e+001
0	 5.399969999982149e+000	 3.066659999995868e+000	 1.031957140007430e+001
0	 5.399969999982148e+000	 3.133319999991934e+000	 1.031780764702910e+001
0	 5.399969999982150e+000	 3.199979999988400e+000	 1.031595163375270e+001
0	 5.399969999982151e+000	 3.266639999985468e+000	 1.031400623791791e+001
0	 5.399969999982149e+000	 3.333299999983333e+000	 1.031197433719755e+001
0	 5.466639999981866e+000	 2.666700000016666e+000	 1.031825803204200e+001
0	 5.466639999981867e+000	 2.733360000014533e+000	 1.031723136848272e+001
0	 5.466639999981864e+000	 2.800020000011599e+000	 1.031614012926099e+001
0	 5.466639999981865e+000	 2.866680000008066e+000	 1.031497980115038e+001
0	 5.466639999981865e+000	 2.933340000004133e+000	 1.031374587092448e+001
0	 5.466639999981864e+000	 2.999999999999999e+000	 1.031243382535687e+001
0	 5.466639999981865e+000	 3.066659999995866e+000	 1.031103915122113e+001
0	 5.466639999981866e+000	 3.133319999991934e+000	 1.030955733529084e+001
0	 5.466639999981865e+000	 3.199979999988400e+000	 1.030798386433962e+001
0	 5.466639999981867e+000	 3.266639999985467e+000	 1.030631422514107e+001
0	 5.466639999981866e+000	 3.333299999983334e+000	 1.030454390446880e+001
0	 5.533309999982382e+000	 2.666700000016666e+000	 1.030859978581794e+001
0	 5.533309999982382e+000	 2.733360000014533e+000	 1.030776503597792e+001
0	 5.533309999982382e+000	 2.800020000011600e+000	 1.030688856727042e+001
0	 5.533309999982384e+000	 2.866680000008067e+000	 1.030596004730659e+001
0	 5.533309999982381e+000	 2.933340000004133e+000	 1.030496914369760e+001
0	 5.533309999982381e+000	 3.000000000000000e+000	 1.030390552405458e+001
0	 5.533309999982382e+000	 3.066659999995867e+000	 1.030275885598872e+001
0	 5.533309999982383e+000	 3.133319999991935e+000	 1.030151880711119e+001
0	 5.533309999982382e+000	 3.199979999988400e+000	 1.030017504503318e+001
0	 5.533309999982382e+000	 3.266639999985468e+000	 1.029871723736585e+001
0	 5.533309999982383e+000	 3.333299999983334e+000	 1.029713505172041e+001
0	 5.599979999983598e+000	 2.666700000016666e+000	 1.029909845113904e+001
0	 5.599979999983598e+000	 2.733360000014533e+000	 1.029850690310301e+001
0	 5.599979999983598e+000	 2.800020000011600e+000	 1.029787774370765e+001
0	 5.599979999983598e+000	 2.866680000008066e+000	 1.029719639313845e+001
0	 5.599979999983598e+000	 2.933340000004133e+000	 1.029644827158093e+001
0	 5.599979999983598e+000	 3.000000000000000e+000	 1.029561879922059e+001
0	 5.599979999983598e+000	 3.066659999995866e+000	 1.029469339624297e+001
0	 5.599979999983598e+000	 3.133319999991934e+000	 1.029365748283361e+001
0	 5.599979999983598e+000	 3.199979999988401e+000	 1.029249647917802e+001
0	 5.599979999983598e+000	 3.266639999985467e+000	 1.029119580546174e+001
0	 5.599979999983598e+000	 3.333299999983334e+000	 1.028974088187033e+001
0	 5.666649999985415e+000	 2.666700000016666e+000	 1.028977191400222e+001
0	 5.666649999985416e+000	 2.733360000014533e+000	 1.028945732719065e+001
0	 5.666649999985415e+000	 2.800020000011600e+000	 1.028909383176469e+001
0	 5.666649999985414e+000	 2.866680000008066e+000	 1.028866417222097e+001
0	 5.666649999985416e+000	 2.933340000004133e+000	 1.028815109305615e+001
0	 5.666649999985417e+000	 3.000000000000000e+000	 1.028753733876686e+001
0	 5.666649999985416e+000	 3.066659999995867e+000	 1.028680565384976e+001
0	 5.666649999985415e+000	 3.133319999991934e+000	 1.028593878280151e+001
0	 5.666649999985415e+000	 3.199979999988401e+000	 1.028491947011878e+001
0	 5.666649999985416e+000	 3.266639999985468e+000	 1.028373046029822e+001
0	 5.666649999985415e+000	 3.333299999983333e+000	 1.028235449783653e+001
0	 5.733319999987732e+000	 2.666700000016666e+000	 1.028063806040443e+001
0	 5.733319999987731e+000	 2.733360000014533e+000	 1.028061666557348e+001
0	 5.733319999987731e+000	 2.800020000011599e+000	 1.028052300463355e+001
0	 5.733319999987731e+000	 2.866680000008067e+000	 1.028033871812918e+001
0	 5.733319999987730e+000	 2.933340000004133e+000	 1.028004544660493e+001
0	 5.733319999987732e+000	 2.999999999999999e+000	 1.027962483060532e+001
0	 5.733319999987732e+000	 3.066659999995868e+000	 1.027905851067494e+001
0	 5.733319999987731e+000	 3.133319999991933e+000	 1.027832812735834e+001
0	 5.733319999987732e+000	 3.199979999988401e+000	 1.027741532120008e+001
0	 5.733319999987732e+000	 3.266639999985467e+000	 1.027630173274477e+001
0	 5.733319999987731e+000	 3.333299999983334e+000	 1.027496900253697e+001
0	 5.799989999990448e+000	 2.666700000016666e+000	 1.027171477634258e+001
0	 5.799989999990447e+000	 2.733360000014533e+000	 1.027198527558417e+001
0	 5.799989999990448e+000	 2.800020000011600e+000	 1.027215143550626e+001
0	 5.799989999990449e+000	 2.866680000008066e+000	 1.027219536443810e+001
0	 5.799989999990449e+000	 2.933340000004134e+000	 1.027209917070890e+001
0	 5.799989999990447e+000	 3.000000000000000e+000	 1.027184496264791e+001
0	 5.799989999990448e+000	 3.066659999995867e+000	 1.027141484858437e+001
0	 5.799989999990449e+000	 3.133319999991934e+000	 1.027079093684750e+001
0	 5.799989999990448e+000	 3.199979999988400e+000	 1.026995533576658e+001
0	 5.799989999990448e+000	 3.266639999985468e+000	 1.026889015367087e+001
0	 5.799989999990448e+000	 3.333299999983334e+000	 1.026757749888961e+001
0	 5.866659999993464e+000	 2.666700000016666e+000	 1.026301994781361e+001
0	 5.866659999993464e+000	 2.733360000014533e+000	 1.026356351455533e+001
0	 5.866659999993467e+000	 2.800020000011601e+000	 1.026396529757481e+001
0	 5.866659999993463e+000	 2.866680000008066e+000	 1.026420944472273e+001
0	 5.866659999993464e+000	 2.933340000004133e+000	 1.026428010384976e+001
0	 5.866659999993466e+000	 3.000000000000000e+000	 1.026416142280660e+001
0	 5.866659999993465e+000	 3.066659999995867e+000	 1.026383754944392e+001
0	 5.866659999993465e+000	 3.133319999991934e+000	 1.026329263161245e+001
0	 5.866659999993464e+000	 3.199979999988400e+000	 1.026251081716290e+001
0	 5.866659999993464e+000	 3.266639999985467e+000	 1.026147625394598e+001
0	 5.866659999993464e+000	 3.333299999983334e+000	 1.026017308981240e+001
0	 5.933329999996681e+000	 2.666700000016666e+000	 1.025457146081444e+001
0	 5.933329999996680e+000	 2.733360000014533e+000	 1.025535173981966e+001
0	 5.933329999996682e+000	 2.800020000011600e+000	 1.025595076403124e+001
0	 5.933329999996683e+000	 2.866680000008067e+000	 1.025635629255810e+001
0	 5.933329999996681e+000	 2.933340000004134e+000	 1.025655608450914e+001
0	 5.933329999996681e+000	 3.000000000000000e+000	 1.025653789899329e+001
0	 5.933329999996680e+000	 3.066659999995866e+000	 1.025628949511947e+001
0	 5.933329999996682e+000	 3.133319999991933e+000	 1.025579863199661e+001
0	 5.933329999996682e+000	 3.199979999988401e+000	 1.025505306873367e+001
0	 5.933329999996682e+000	 3.266639999985468e+000	 1.025404056443959e+001
0	 5.933329999996681e+000	 3.333299999983334e+000	 1.025274887822331e+001
0	 6.000000000000000e+000	 2.666700000016666e+000	 1.024638720134200e+001
0	 6.000000000000000e+000	 2.733360000014533e+000	 1.024735030870978e+001
0	 5.999999999999998e+000	 2.800020000011600e+000	 1.024809400806755e+001
0	 6.000000000000002e+000	 2.866680000008067e+000	 1.024861124151922e+001
0	 5.999999999999998e+000	 2.933340000004133e+000	 1.024889495116872e+001
0	 6.000000000000003e+000	 3.000000000000000e+000	 1.024893807911995e+001
0	 5.999999999999998e+000	 3.066659999995867e+000	 1.024873356747687e+001
0	 6.000000000000001e+000	 3.133319999991934e+000	 1.024827435834341e+001
0	 5.999999999999999e+000	 3.199979999988400e+000	 1.024755339382351e+001
0	 6.000000000000000e+000	 3.266639999985467e+000	 1.024656361602116e+001
0	 6.000000000000000e+000	 3.333299999983334e+000	 1.024529796704029e+001
0	 5.333299999983335e+000	 3.333299999983334e+000	 1.031943324698867e+001
0	 5.333299999983331e+000	 3.399969999982149e+000	 1.031693764747284e+001
0	 5.333299999983335e+000	 3.466639999981866e+000	 1.031427544910142e+001
0	 5.333299999983334e+000	 3.533309999982383e+000	 1.031142802155139e+001
0	 5.333299999983335e+000	 3.599979999983600e+000	 1.030837673449972e+001
0	 5.333299999983335e+000	 3.666649999985416e+000	 1.030510295762338e+001
0	 5.333299999983334e+000	 3.733319999987733e+000	 1.030158806059936e+001
0	 5.333299999983333e+000	 3.799989999990450e+000	 1.029781341310461e+001
0	 5.333299999983334e+000	 3.866659999993467e+000	 1.029376038481608e+001
0	 5.333299999983335e+000	 3.933329999996684e+000	 1.028941034541074e+001
0	 5.333299999983334e+000	 4.000000000000000e+000	 1.028474466456552e+001
0	 5.399969999982149e+000	 3.333299999983333e+000	 1.031197433719755e+001
0	 5.399969999982149e+000	 3.399969999982150e+000	 1.030979522251826e+001
0	 5.399969999982149e+000	 3.466639999981867e+000	 1.030739981280832e+001
0	 5.399969999982150e+000	 3.533309999982384e+000	 1.030477749426236e+001
0	 5.399969999982149e+000	 3.599979999983601e+000	 1.030191765307496e+001
0	 5.399969999982151e+000	 3.666649999985416e+000	 1.029880967544072e+001
0	 5.399969999982150e+000	 3.733319999987733e+000	 1.029544294755425e+001
0	 5.399969999982150e+000	 3.799989999990450e+000	 1.029180685561011e+001
0	 5.399969999982151e+000	 3.866659999993466e+000	 1.028789078580289e+001
0	 5.399969999982150e+000	 3.933329999996684e+000	 1.028368412432720e+001
0	 5.399969999982149e+000	 4.000000000000000e+000	 1.027917625737757e+001
0	 5.466639999981866e+000	 3.333299999983334e+000	 1.030454390446880e+001
0	 5.466639999981866e+000	 3.399969999982150e+000	 1.030259904229675e+001
0	 5.466639999981866e+000	 3.466639999981867e+000	 1.030040674335704e+001
0	 5.466639999981865e+000	 3.533309999982383e+000	 1.029796312150390e+001
0	 5.466639999981867e+000	 3.599979999983600e+000	 1.029526429059159e+001
0	 5.466639999981866e+000	 3.666649999985417e+000	 1.029230636447433e+001
0	 5.466639999981865e+000	 3.733319999987733e+000	 1.028908545700637e+001
0	 5.466639999981866e+000	 3.799989999990451e+000	 1.028559768204192e+001
0	 5.466639999981866e+000	 3.866659999993466e+000	 1.028183915343523e+001
0	 5.466639999981868e+000	 3.933329999996684e+000	 1.027780598504050e+001
0	 5.466639999981867e+000	 4.000000000000001e+000	 1.027349429071194e+001
0	 5.533309999982383e+000	 3.333299999983334e+000	 1.029713505172041e+001
0	 5.533309999982381e+000	 3.399969999982151e+000	 1.029535531318479e+001
0	 5.533309999982382e+000	 3.466639999981867e+000	 1.029331326460514e+001
0	 5.533309999982382e+000	 3.533309999982383e+000	 1.029101045863737e+001
0	 5.533309999982382e+000	 3.599979999983599e+000	 1.028844844793737e+001
0	 5.533309999982381e+000	 3.666649999985415e+000	 1.028562878516103e+001
0	 5.533309999982382e+000	 3.733319999987733e+000	 1.028255302296427e+001
0	 5.533309999982382e+000	 3.799989999990451e+000	 1.027922271400295e+001
0	 5.533309999982382e+000	 3.866659999993467e+000	 1.027563941093296e+001
0	 5.533309999982385e+000	 3.933329999996684e+000	 1.027180466641019e+001
0	 5.533309999982381e+000	 4.000000000000001e+000	 1.026772003309050e+001
0	 5.599979999983598e+000	 3.333299999983334e+000	 1.028974088187033e+001
0	 5.599979999983598e+000	 3.399969999982150e+000	 1.028807024155881e+001
0	 5.599979999983599e+000	 3.466639999981867e+000	 1.028613640041021e+001
0	 5.599979999983598e+000	 3.533309999982383e+000	 1.028394506102410e+001
0	 5.599979999983598e+000	 3.599979999983600e+000	 1.028150192600007e+001
0	 5.599979999983599e+000	 3.666649999985416e+000	 1.027881269793769e+001
0	 5.599979999983598e+000	 3.733319999987733e+000	 1.027588307943650e+001
0	 5.599979999983598e+000	 3.799989999990449e+000	 1.027271877309609e+001
0	 5.599979999983599e+000	 3.866659999993468e+000	 1.026932548151600e+001
0	 5.599979999983598e+000	 3.933329999996684e+000	 1.026570890729579e+001
0	 5.599979999983599e+000	 4.000000000000000e+000	 1.026187475303502e+001
0	 5.666649999985415e+000	 3.333299999983333e+000	 1.028235449783653e+001
0	 5.666649999985417e+000	 3.399969999982150e+000	 1.028075003379527e+001
0	 5.666649999985416e+000	 3.466639999981867e+000	 1.027889317462982e+001
0	 5.666649999985415e+000	 3.533309999982382e+000	 1.027679248402547e+001
0	 5.666649999985416e+000	 3.599979999983600e+000	 1.027445652566748e+001
0	 5.666649999985414e+000	 3.666649999985416e+000	 1.027189386324110e+001
0	 5.666649999985413e+000	 3.733319999987733e+000	 1.026911306043160e+001
0	 5.666649999985415e+000	 3.799989999990450e+000	 1.026612268092423e+001
0	 5.666649999985416e+000	 3.866659999993467e+000	 1.026293128840424e+001
0	 5.666649999985415e+000	 3.933329999996684e+000	 1.025954744655687e+001
0	 5.666649999985415e+000	 4.000000000000001e+000	 1.025597971906737e+001
0	 5.733319999987731e+000	 3.333299999983334e+000	 1.027496900253697e+001
0	 5.733319999987733e+000	 3.399969999982150e+000	 1.027340089627060e+001
0	 5.733319999987733e+000	 3.466639999981867e+000	 1.027160061112156e+001
0	 5.733319999987732e+000	 3.533309999982382e+000	 1.026957828300282e+001
0	 5.733319999987732e+000	 3.599979999983600e+000	 1.026734404782734e+001
0	 5.733319999987730e+000	 3.666649999985416e+000	 1.026490804150813e+001
0	 5.733319999987731e+000	 3.733319999987733e+000	 1.026228039995811e+001
0	 5.733319999987732e+000	 3.799989999990450e+000	 1.025947125909027e+001
0	 5.733319999987731e+000	 3.866659999993465e+000	 1.025649075481757e+001
0	 5.733319999987732e+000	 3.933329999996684e+000	 1.025334902305295e+001
0	 5.733319999987731e+000	 4.000000000000000e+000	 1.025005619970938e+001
0	 5.799989999990448e+000	 3.333299999983334e+000	 1.026757749888961e+001
0	 5.799989999990447e+000	 3.399969999982150e+000	 1.026602903536126e+001
0	 5.799989999990447e+000	 3.466639999981866e+000	 1.026427573374297e+001
0	 5.799989999990448e+000	 3.533309999982383e+000	 1.026232801331747e+001
0	 5.799989999990448e+000	 3.599979999983600e+000	 1.026019629336745e+001
0	 5.799989999990448e+000	 3.666649999985417e+000	 1.025789099317558e+001
0	 5.799989999990447e+000	 3.733319999987733e+000	 1.025542253202457e+001
0	 5.799989999990449e+000	 3.799989999990450e+000	 1.025280132919712e+001
0	 5.799989999990448e+000	 3.866659999993467e+000	 1.025003780397589e+001
0	 5.799989999990449e+000	 3.933329999996684e+000	 1.024714237564358e+001
0	 5.799989999990448e+000	 4.000000000000000e+000	 1.024412546348287e+001
0	 5.866659999993464e+000	 3.333299999983334e+000	 1.026017308981240e+001
0	 5.866659999993465e+000	 3.399969999982150e+000	 1.025864065744368e+001
0	 5.866659999993464e+000	 3.466639999981866e+000	 1.025693556635167e+001
0	 5.866659999993464e+000	 3.533309999982384e+000	 1.025506723033081e+001
0	 5.866659999993466e+000	 3.599979999983601e+000	 1.025304506317555e+001
0	 5.866659999993465e+000	 3.666649999985416e+000	 1.025087847868030e+001
0	 5.866659999993465e+000	 3.733319999987733e+000	 1.024857689063953e+001
0	 5.866659999993464e+000	 3.799989999990450e+000	 1.024614971284764e+001
0	 5.866659999993464e+000	 3.866659999993466e+000	 1.024360635909910e+001
0	 5.866659999993464e+000	 3.933329999996684e+000	 1.024095624318829e+001
0	 5.866659999993464e+000	 4.000000000000001e+000	 1.023820877890966e+001
0	 5.933329999996681e+000	 3.333299999983334e+000	 1.025274887822331e+001
0	 5.933329999996682e+000	 3.399969999982150e+000	 1.025124196889433e+001
0	 5.933329999996681e+000	 3.466639999981867e+000	 1.024959713280521e+001
0	 5.933329999996682e+000	 3.533309999982383e+000	 1.024782148940416e+001
0	 5.933329999996682e+000	 3.599979999983600e+000	 1.024592215813941e+001
0	 5.933329999996681e+000	 3.666649999985416e+000	 1.024390625845913e+001
0	 5.933329999996681e+000	 3.733319999987733e+000	 1.024178090981152e+001
0	 5.933329999996683e+000	 3.799989999990450e+000	 1.023955323164476e+001
0	 5.933329999996681e+000	 3.866659999993466e+000	 1.023723034340707e+001
0	 5.933329999996681e+000	 3.933329999996684e+000	 1.023481936454662e+001
0	 5.933329999996682e+000	 4.000000000000001e+000	 1.023232741451160e+001
0	 6.000000000000000e+000	 3.333299999983334e+000	 1.024529796704029e+001
0	 6.000000000000001e+000	 3.399969999982151e+000	 1.024383917608961e+001
0	 6.000000000000000e+000	 3.466639999981866e+000	 1.024227745696115e+001
0	 6.000000000000000e+000	 3.533309999982383e+000	 1.024061634589889e+001
0	 6.000000000000001e+000	 3.599979999983601e+000	 1.023885937914680e+001
0	 6.000000000000000e+000	 3.666649999985416e+000	 1.023701009294888e+001
0	 6.000000000000000e+000	 3.733319999987733e+000	 1.023507202354907e+001
0	 5.999999999999998e+000	 3.799989999990450e+000	 1.023304870719137e+001
0	 6.000000000000001e+000	 3.866659999993467e+000	 1.023094368011972e+001
0	 6.000000000000000e+000	 3.933329999996683e+000	 1.022876047857811e+001
0	 6.000000000000001e+000	 4.000000000000000e+000	 1.022650263881050e+001
0	 5.333299999983334e+000	 4.000000000000000e+000	 1.028474466456552e+001
0	 5.333299999983332e+000	 4.066670000003316e+000	 1.027992066610699e+001
0	 5.333299999983334e+000	 4.133340000006534e+000	 1.027510701356117e+001
0	 5.333299999983336e+000	 4.200010000009550e+000	 1.027030208615419e+001
0	 5.333299999983333e+000	 4.266680000012268e+000	 1.026550426311223e+001
0	 5.333299999983335e+000	 4.333350000014584e+000	 1.026071192366141e+001
0	 5.333299999983333e+000	 4.400020000016401e+000	 1.025592344702790e+001
0	 5.333299999983334e+000	 4.466690000017618e+000	 1.025113721243784e+001
0	 5.333299999983334e+000	 4.533360000018134e+000	 1.024635159911738e+001
0	 5.333299999983333e+000	 4.600030000017851e+000	 1.024156498629267e+001
0	 5.333299999983335e+000	 4.666700000016667e+000	 1.023677575318985e+001
0	 5.399969999982149e+000	 4.000000000000000e+000	 1.027917625737757e+001
0	 5.399969999982150e+000	 4.066670000003317e+000	 1.027453253587880e+001
0	 5.399969999982150e+000	 4.133340000006534e+000	 1.026992140735304e+001
0	 5.399969999982151e+000	 4.200010000009551e+000	 1.026533690289094e+001
0	 5.399969999982150e+000	 4.266680000012268e+000	 1.026077305358313e+001
0	 5.399969999982150e+000	 4.333350000014584e+000	 1.025622389052028e+001
0	 5.399969999982149e+000	 4.400020000016402e+000	 1.025168344479301e+001
0	 5.399969999982148e+000	 4.466690000017615e+000	 1.024714574749199e+001
0	 5.399969999982148e+000	 4.533360000018132e+000	 1.024260482970784e+001
0	 5.399969999982148e+000	 4.600030000017850e+000	 1.023805472253121e+001
0	 5.399969999982150e+000	 4.666700000016666e+000	 1.023348945705276e+001
0	 5.466639999981867e+000	 4.000000000000001e+000	 1.027349429071194e+001
0	 5.466639999981868e+000	 4.066670000003319e+000	 1.026906725238493e+001
0	 5.466639999981866e+000	 4.133340000006534e+000	 1.026468430149051e+001
0	 5.466639999981866e+000	 4.200010000009551e+000	 1.026033592612647e+001
0	 5.466639999981866e+000	 4.266680000012267e+000	 1.025601261439060e+001
0	 5.466639999981865e+000	 4.333350000014583e+000	 1.025170485438071e+001
0	 5.466639999981866e+000	 4.400020000016403e+000	 1.024740313419456e+001
0	 5.466639999981867e+000	 4.466690000017618e+000	 1.024309794192996e+001
0	 5.466639999981865e+000	 4.533360000018134e+000	 1.023877976568469e+001
0	 5.466639999981866e+000	 4.600030000017851e+000	 1.023443909355655e+001
0	 5.466639999981866e+000	 4.666700000016666e+000	 1.023006641364330e+001
0	 5.533309999982381e+000	 4.000000000000001e+000	 1.026772003309050e+001
0	 5.533309999982383e+000	 4.066670000003317e+000	 1.026353816866950e+001
0	 5.533309999982382e+000	 4.133340000006534e+000	 1.025940252923730e+001
0	 5.533309999982382e+000	 4.200010000009551e+000	 1.025530086504147e+001
0	 5.533309999982382e+000	 4.266680000012267e+000	 1.025122092632959e+001
0	 5.533309999982381e+000	 4.333350000014583e+000	 1.024715046334926e+001
0	 5.533309999982384e+000	 4.400020000016402e+000	 1.024307722634806e+001
0	 5.533309999982382e+000	 4.466690000017616e+000	 1.023898896557356e+001
0	 5.533309999982382e+000	 4.533360000018134e+000	 1.023487343127336e+001
0	 5.533309999982381e+000	 4.600030000017849e+000	 1.023071837369501e+001
0	 5.533309999982381e+000	 4.666700000016666e+000	 1.022651154308610e+001
0	 5.599979999983599e+000	 4.000000000000000e+000	 1.026187475303502e+001
0	 5.599979999983598e+000	 4.066670000003317e+000	 1.025795863777661e+001
0	 5.599979999983600e+000	 4.133340000006534e+000	 1.025408292385712e+001
0	 5.599979999983598e+000	 4.200010000009550e+000	 1.025023342881659e+001
0	 5.599979999983598e+000	 4.266680000012268e+000	 1.024639597019506e+001
0	 5.599979999983599e+000	 4.333350000014583e+000	 1.024255636553253e+001
0	 5.599979999983598e+000	 4.400020000016402e+000	 1.023870043236902e+001
0	 5.599979999983598e+000	 4.466690000017617e+000	 1.023481398824460e+001
0	 5.599979999983598e+000	 4.533360000018133e+000	 1.023088285069924e+001
0	 5.599979999983598e+000	 4.600030000017853e+000	 1.022689283727298e+001
0	 5.599979999983598e+000	 4.666700000016667e+000	 1.022282976550584e+001
0	 5.666649999985415e+000	 4.000000000000001e+000	 1.025597971906737e+001
0	 5.666649999985413e+000	 4.066670000003317e+000	 1.025234201275037e+001
0	 5.666649999985416e+000	 4.133340000006534e+000	 1.024873231861372e+001
0	 5.666649999985415e+000	 4.200010000009551e+000	 1.024513532663253e+001
0	 5.666649999985415e+000	 4.266680000012268e+000	 1.024153572678193e+001
0	 5.666649999985415e+000	 4.333350000014582e+000	 1.023791820903704e+001
0	 5.666649999985415e+000	 4.400020000016400e+000	 1.023426746337298e+001
0	 5.666649999985414e+000	 4.466690000017616e+000	 1.023056817976484e+001
0	 5.666649999985417e+000	 4.533360000018134e+000	 1.022680504818776e+001
0	 5.666649999985416e+000	 4.600030000017851e+000	 1.022296275861682e+001
0	 5.666649999985415e+000	 4.666700000016666e+000	 1.021902600102716e+001
0	 5.733319999987731e+000	 4.000000000000000e+000	 1.025005619970938e+001
0	 5.733319999987732e+000	 4.066670000003318e+000	 1.024670164663489e+001
0	 5.733319999987733e+000	 4.133340000006535e+000	 1.024335754677079e+001
0	 5.733319999987732e+000	 4.200010000009550e+000	 1.024000826766993e+001
0	 5.733319999987731e+000	 4.266680000012268e+000	 1.023663817688518e+001
0	 5.733319999987731e+000	 4.333350000014583e+000	 1.023323164196940e+001
0	 5.733319999987731e+000	 4.400020000016402e+000	 1.022977303047541e+001
0	 5.733319999987733e+000	 4.466690000017617e+000	 1.022624670995611e+001
0	 5.733319999987733e+000	 4.533360000018135e+000	 1.022263704796433e+001
0	 5.733319999987733e+000	 4.600030000017851e+000	 1.021892841205291e+001
0	 5.733319999987732e+000	 4.666700000016667e+000	 1.021510516977470e+001
0	 5.799989999990448e+000	 4.000000000000000e+000	 1.024412546348287e+001
0	 5.799989999990449e+000	 4.066670000003317e+000	 1.024105089247428e+001
0	 5.799989999990448e+000	 4.133340000006534e+000	 1.023796544159207e+001
0	 5.799989999990450e+000	 4.200010000009551e+000	 1.023485396110947e+001
0	 5.799989999990448e+000	 4.266680000012268e+000	 1.023170130129974e+001
0	 5.799989999990448e+000	 4.333350000014583e+000	 1.022849231243614e+001
0	 5.799989999990448e+000	 4.400020000016401e+000	 1.022521184479187e+001
0	 5.799989999990448e+000	 4.466690000017618e+000	 1.022184474864020e+001
0	 5.799989999990448e+000	 4.533360000018133e+000	 1.021837587425436e+001
0	 5.799989999990447e+000	 4.600030000017850e+000	 1.021479007190760e+001
0	 5.799989999990448e+000	 4.666700000016667e+000	 1.021107219187312e+001
0	 5.866659999993464e+000	 4.000000000000001e+000	 1.023820877890966e+001
0	 5.866659999993464e+000	 4.066670000003317e+000	 1.023540310331265e+001
0	 5.866659999993464e+000	 4.133340000006535e+000	 1.023256283634128e+001
0	 5.866659999993464e+000	 4.200010000009551e+000	 1.022967411613184e+001
0	 5.866659999993465e+000	 4.266680000012268e+000	 1.022672308082060e+001
0	 5.866659999993466e+000	 4.333350000014585e+000	 1.022369586854385e+001
0	 5.866659999993464e+000	 4.400020000016401e+000	 1.022057861743785e+001
0	 5.866659999993464e+000	 4.466690000017617e+000	 1.021735746563892e+001
0	 5.866659999993464e+000	 4.533360000018132e+000	 1.021401855128329e+001
0	 5.866659999993463e+000	 4.600030000017850e+000	 1.021054801250725e+001
0	 5.866659999993464e+000	 4.666700000016665e+000	 1.020693198744707e+001
0	 5.933329999996682e+000	 4.000000000000001e+000	 1.023232741451160e+001
0	 5.933329999996681e+000	 4.066670000003317e+000	 1.022977163219412e+001
0	 5.933329999996682e+000	 4.133340000006534e+000	 1.022715656428215e+001
0	 5.933329999996682e+000	 4.200010000009550e+000	 1.022447044191768e+001
0	 5.933329999996681e+000	 4.266680000012268e+000	 1.022170149624267e+001
0	 5.933329999996681e+000	 4.333350000014584e+000	 1.021883795839908e+001
0	 5.933329999996680e+000	 4.400020000016400e+000	 1.021586805952889e+001
0	 5.933329999996682e+000	 4.466690000017618e+000	 1.021278003077404e+001
0	 5.933329999996681e+000	 4.533360000018133e+000	 1.020956210327651e+001
0	 5.933329999996682e+000	 4.600030000017850e+000	 1.020620250817825e+001
0	 5.933329999996681e+000	 4.666700000016667e+000	 1.020268947662121e+001
0	 6.000000000000001e+000	 4.000000000000000e+000	 1.022650263881050e+001
0	 6.000000000000001e+000	 4.066670000003318e+000	 1.022416983216277e+001
0	 6.000000000000000e+000	 4.133340000006534e+000	 1.022175345867840e+001
0	 6.000000000000000e+000	 4.200010000009550e+000	 1.021924464764768e+001
0	 6.000000000000002e+000	 4.266680000012268e+000	 1.021663452836092e+001
0	 6.000000000000000e+000	 4.333350000014584e+000	 1.021391423010842e+001
0	 5.999999999999998e+000	 4.400020000016401e+000	 1.021107488218048e+001
0	 5.999999999999999e+000	 4.466690000017617e+000	 1.020810761386739e+001
0	 6.000000000000001e+000	 4.533360000018134e+000	 1.020500355445944e+001
0	 6.000000000000000e+000	 4.600030000017850e+000	 1.020175383324694e+001
0	 6.000000000000000e+000	 4.666700000016666e+000	 1.019834957952016e+001
0	 5.333299999983335e+000	 4.666700000016667e+000	 1.023677575318986e+001
0	 5.333299999983333e+000	 4.733360000014533e+000	 1.023199672270604e+001
0	 5.333299999983335e+000	 4.800020000011600e+000	 1.022723441079539e+001
0	 5.333299999983335e+000	 4.866680000008068e+000	 1.022247989214940e+001
0	 5.333299999983335e+000	 4.933340000004134e+000	 1.021772424145957e+001
0	 5.333299999983333e+000	 5.000000000000000e+000	 1.021295853341739e+001
0	 5.333299999983334e+000	 5.066659999995866e+000	 1.020817384271435e+001
0	 5.333299999983335e+000	 5.133319999991934e+000	 1.020336124404199e+001
0	 5.333299999983333e+000	 5.199979999988400e+000	 1.019851181209178e+001
0	 5.333299999983334e+000	 5.266639999985467e+000	 1.019361662155523e+001
0	 5.333299999983333e+000	 5.333299999983333e+000	 1.018866674712385e+001
0	 5.399969999982150e+000	 4.666700000016666e+000	 1.023348945705276e+001
0	 5.399969999982150e+000	 4.733360000014534e+000	 1.022891516837628e+001
0	 5.399969999982149e+000	 4.800020000011600e+000	 1.022433649145447e+001
0	 5.399969999982148e+000	 4.866680000008066e+000	 1.021974726572373e+001
0	 5.399969999982149e+000	 4.933340000004132e+000	 1.021514133062049e+001
0	 5.399969999982150e+000	 5.000000000000000e+000	 1.021051252558117e+001
0	 5.399969999982148e+000	 5.066659999995867e+000	 1.020585469004218e+001
0	 5.399969999982150e+000	 5.133319999991936e+000	 1.020116166343997e+001
0	 5.399969999982151e+000	 5.199979999988400e+000	 1.019642728521092e+001
0	 5.399969999982150e+000	 5.266639999985468e+000	 1.019164539479150e+001
0	 5.399969999982150e+000	 5.333299999983332e+000	 1.018680983161812e+001
0	 5.466639999981866e+000	 4.666700000016666e+000	 1.023006641364330e+001
0	 5.466639999981866e+000	 4.733360000014533e+000	 1.022566709133887e+001
0	 5.466639999981865e+000	 4.800020000011599e+000	 1.022124894018157e+001
0	 5.466639999981865e+000	 4.866680000008065e+000	 1.021680809672145e+001
0	 5.466639999981867e+000	 4.933340000004135e+000	 1.021234069750854e+001
0	 5.466639999981863e+000	 4.999999999999999e+000	 1.020784287909289e+001
0	 5.466639999981865e+000	 5.066659999995865e+000	 1.020331077802454e+001
0	 5.466639999981865e+000	 5.133319999991933e+000	 1.019874053085355e+001
0	 5.466639999981866e+000	 5.199979999988402e+000	 1.019412827412993e+001
0	 5.466639999981867e+000	 5.266639999985468e+000	 1.018947014440379e+001
0	 5.466639999981866e+000	 5.333299999983335e+000	 1.018476227822514e+001
0	 5.533309999982381e+000	 4.666700000016666e+000	 1.022651154308610e+001
0	 5.533309999982381e+000	 4.733360000014533e+000	 1.022226234500893e+001
0	 5.533309999982382e+000	 4.800020000011600e+000	 1.021798572457238e+001
0	 5.533309999982383e+000	 4.866680000008068e+000	 1.021367964780883e+001
0	 5.533309999982381e+000	 4.933340000004133e+000	 1.020934208075066e+001
0	 5.533309999982383e+000	 5.000000000000000e+000	 1.020497098943023e+001
0	 5.533309999982381e+000	 5.066659999995867e+000	 1.020056433987991e+001
0	 5.533309999982384e+000	 5.133319999991935e+000	 1.019612009813207e+001
0	 5.533309999982381e+000	 5.199979999988400e+000	 1.019163623021910e+001
0	 5.533309999982382e+000	 5.266639999985468e+000	 1.018711070217337e+001
0	 5.533309999982382e+000	 5.333299999983334e+000	 1.018254148002725e+001
0	 5.599979999983598e+000	 4.666700000016667e+000	 1.022282976550584e+001
0	 5.599979999983598e+000	 4.733360000014533e+000	 1.021871078280157e+001
0	 5.599979999983598e+000	 4.800020000011600e+000	 1.021456081222255e+001
0	 5.599979999983598e+000	 4.866680000008065e+000	 1.021037918165215e+001
0	 5.599979999983598e+000	 4.933340000004134e+000	 1.020616521897380e+001
0	 5.599979999983599e+000	 5.000000000000000e+000	 1.020191825207086e+001
0	 5.599979999983597e+000	 5.066659999995865e+000	 1.019763760882677e+001
0	 5.599979999983598e+000	 5.133319999991935e+000	 1.019332261712491e+001
0	 5.599979999983598e+000	 5.199979999988400e+000	 1.018897260484869e+001
0	 5.599979999983598e+000	 5.266639999985467e+000	 1.018458689988153e+001
0	 5.599979999983598e+000	 5.333299999983333e+000	 1.018016483010681e+001
0	 5.666649999985415e+000	 4.666700000016666e+000	 1.021902600102716e+001
0	 5.666649999985414e+000	 4.733360000014534e+000	 1.021502225813194e+001
0	 5.666649999985416e+000	 4.800020000011601e+000	 1.021098817072775e+001
0	 5.666649999985415e+000	 4.866680000008066e+000	 1.020692396091769e+001
0	 5.666649999985416e+000	 4.933340000004134e+000	 1.020282985080488e+001
0	 5.666649999985416e+000	 5.000000000000001e+000	 1.019870606249249e+001
0	 5.666649999985416e+000	 5.066659999995865e+000	 1.019455281808362e+001
0	 5.666649999985417e+000	 5.133319999991937e+000	 1.019037033968141e+001
0	 5.666649999985415e+000	 5.199979999988400e+000	 1.018615884938901e+001
0	 5.666649999985416e+000	 5.266639999985468e+000	 1.018191856930953e+001
0	 5.666649999985413e+000	 5.333299999983332e+000	 1.017764972154613e+001
0	 5.733319999987732e+000	 4.666700000016667e+000	 1.021510516977470e+001
0	 5.733319999987731e+000	 4.733360000014532e+000	 1.021120662441517e+001
0	 5.733319999987730e+000	 4.800020000011599e+000	 1.020728176768365e+001
0	 5.733319999987731e+000	 4.866680000008066e+000	 1.020333124827171e+001
0	 5.733319999987730e+000	 4.933340000004131e+000	 1.019935571487089e+001
0	 5.733319999987733e+000	 5.000000000000000e+000	 1.019535581617278e+001
0	 5.733319999987731e+000	 5.066659999995867e+000	 1.019133220086894e+001
0	 5.733319999987730e+000	 5.133319999991935e+000	 1.018728551765092e+001
0	 5.733319999987732e+000	 5.199979999988402e+000	 1.018321641521031e+001
0	 5.733319999987732e+000	 5.266639999985467e+000	 1.017912554223868e+001
0	 5.733319999987732e+000	 5.333299999983335e+000	 1.017501354742759e+001
0	 5.799989999990448e+000	 4.666700000016667e+000	 1.021107219187312e+001
0	 5.799989999990448e+000	 4.733360000014532e+000	 1.020727373506637e+001
0	 5.799989999990448e+000	 4.800020000011599e+000	 1.020345557068594e+001
0	 5.799989999990448e+000	 4.866680000008066e+000	 1.019961830638049e+001
0	 5.799989999990450e+000	 4.933340000004135e+000	 1.019576254979876e+001
0	 5.799989999990448e+000	 5.000000000000000e+000	 1.019188890858943e+001
0	 5.799989999990448e+000	 5.066659999995866e+000	 1.018799799040121e+001
0	 5.799989999990448e+000	 5.133319999991935e+000	 1.018409040288280e+001
0	 5.799989999990447e+000	 5.199979999988400e+000	 1.018016675368291e+001
0	 5.799989999990449e+000	 5.266639999985468e+000	 1.017622765045023e+001
0	 5.799989999990448e+000	 5.333299999983334e+000	 1.017227370083349e+001
0	 5.866659999993464e+000	 4.666700000016665e+000	 1.020693198744707e+001
0	 5.866659999993464e+000	 4.733360000014534e+000	 1.020323344350069e+001
0	 5.866659999993465e+000	 4.800020000011601e+000	 1.019952354733025e+001
0	 5.866659999993464e+000	 4.866680000008066e+000	 1.019580239791033e+001
0	 5.866659999993464e+000	 4.933340000004132e+000	 1.019207009421544e+001
0	 5.866659999993465e+000	 4.999999999999999e+000	 1.018832673522013e+001
0	 5.866659999993465e+000	 5.066659999995866e+000	 1.018457241989892e+001
0	 5.866659999993465e+000	 5.133319999991936e+000	 1.018080724722640e+001
0	 5.866659999993465e+000	 5.199979999988400e+000	 1.017703131617707e+001
0	 5.866659999993464e+000	 5.266639999985467e+000	 1.017324472572549e+001
0	 5.866659999993464e+000	 5.333299999983334e+000	 1.016944757484622e+001
0	 5.933329999996681e+000	 4.666700000016667e+000	 1.020268947662122e+001
0	 5.933329999996682e+000	 4.733360000014532e+000	 1.019909560313323e+001
0	 5.933329999996681e+000	 4.800020000011600e+000	 1.019549966521229e+001
0	 5.933329999996682e+000	 4.866680000008066e+000	 1.019190078552747e+001
0	 5.933329999996680e+000	 4.933340000004133e+000	 1.018829808674787e+001
0	 5.933329999996682e+000	 5.000000000000000e+000	 1.018469069154254e+001
0	 5.933329999996681e+000	 5.066659999995866e+000	 1.018107772258058e+001
0	 5.933329999996680e+000	 5.133319999991933e+000	 1.017745830253106e+001
0	 5.933329999996682e+000	 5.199979999988400e+000	 1.017383155406308e+001
0	 5.933329999996682e+000	 5.266639999985468e+000	 1.017019659984572e+001
0	 5.933329999996682e+000	 5.333299999983334e+000	 1.016655256254808e+001
0	 6.000000000000000e+000	 4.666700000016666e+000	 1.019834957952016e+001
0	 5.999999999999998e+000	 4.733360000014531e+000	 1.019487006737913e+001
0	 5.999999999999998e+000	 4.800020000011600e+000	 1.019139789192771e+001
0	 6.000000000000002e+000	 4.866680000008068e+000	 1.018793073189822e+001
0	 5.999999999999998e+000	 4.933340000004132e+000	 1.018446626602300e+001
0	 6.000000000000002e+000	 5.000000000000002e+000	 1.018100217303436e+001
0	 5.999999999999999e+000	 5.066659999995866e+000	 1.017753613166464e+001
0	 6.000000000000000e+000	 5.133319999991934e+000	 1.017406582064616e+001
0	 5.999999999999998e+000	 5.199979999988400e+000	 1.017058891871124e+001
0	 6.000000000000000e+000	 5.266639999985468e+000	 1.016710310459222e+001
0	 6.000000000000000e+000	 5.333299999983334e+000	 1.016360605702143e+001
0	 5.333299999983333e+000	 5.333299999983333e+000	 1.018866674712385e+001
0	 5.333299999983333e+000	 5.399969999982149e+000	 1.018372710337036e+001
0	 5.333299999983334e+000	 5.466639999981867e+000	 1.017886816875869e+001
0	 5.333299999983334e+000	 5.533309999982384e+000	 1.017408712250686e+001
0	 5.333299999983334e+000	 5.599979999983600e+000	 1.016938114383284e+001
0	 5.333299999983334e+000	 5.666649999985415e+000	 1.016474741195471e+001
0	 5.333299999983335e+000	 5.733319999987733e+000	 1.016018310609047e+001
0	 5.333299999983334e+000	 5.799989999990448e+000	 1.015568540545812e+001
0	 5.333299999983333e+000	 5.866659999993467e+000	 1.015125148927569e+001
0	 5.333299999983335e+000	 5.933329999996684e+000	 1.014687853676121e+001
0	 5.333299999983333e+000	 5.999999999999998e+000	 1.014256372713268e+001
0	 5.399969999982150e+000	 5.333299999983332e+000	 1.018680983161812e+001
0	 5.399969999982149e+000	 5.399969999982149e+000	 1.018198688271028e+001
0	 5.399969999982148e+000	 5.466639999981865e+000	 1.017724568020746e+001
0	 5.399969999982151e+000	 5.533309999982383e+000	 1.017258214200318e+001
0	 5.399969999982149e+000	 5.599979999983599e+000	 1.016799218599099e+001
0	 5.399969999982151e+000	 5.666649999985417e+000	 1.016347173006442e+001
0	 5.399969999982152e+000	 5.733319999987733e+000	 1.015901669211704e+001
0	 5.399969999982149e+000	 5.799989999990448e+000	 1.015462299004236e+001
0	 5.399969999982151e+000	 5.866659999993467e+000	 1.015028654173395e+001
0	 5.399969999982149e+000	 5.933329999996683e+000	 1.014600326508533e+001
0	 5.399969999982150e+000	 6.000000000000000e+000	 1.014176907799006e+001
0	 5.466639999981866e+000	 5.333299999983335e+000	 1.018476227822514e+001
0	 5.466639999981866e+000	 5.399969999982149e+000	 1.018006928394282e+001
0	 5.466639999981865e+000	 5.466639999981866e+000	 1.017545636706662e+001
0	 5.466639999981866e+000	 5.533309999982382e+000	 1.017091842936496e+001
0	 5.466639999981865e+000	 5.599979999983598e+000	 1.016645037260623e+001
0	 5.466639999981866e+000	 5.666649999985416e+000	 1.016204709855886e+001
0	 5.466639999981867e+000	 5.733319999987733e+000	 1.015770350899129e+001
0	 5.466639999981866e+000	 5.799989999990450e+000	 1.015341450567190e+001
0	 5.466639999981866e+000	 5.866659999993467e+000	 1.014917499036914e+001
0	 5.466639999981869e+000	 5.933329999996686e+000	 1.014497986485140e+001
0	 5.466639999981868e+000	 6.000000000000002e+000	 1.014082403088713e+001
0	 5.533309999982382e+000	 5.333299999983334e+000	 1.018254148002725e+001
0	 5.533309999982382e+000	 5.399969999982149e+000	 1.017798903256625e+001
0	 5.533309999982382e+000	 5.466639999981866e+000	 1.017351264944459e+001
0	 5.533309999982382e+000	 5.533309999982383e+000	 1.016910646150494e+001
0	 5.533309999982383e+000	 5.599979999983600e+000	 1.016476459958995e+001
0	 5.533309999982383e+000	 5.666649999985417e+000	 1.016048119454222e+001
0	 5.533309999982382e+000	 5.733319999987732e+000	 1.015625037720444e+001
0	 5.533309999982382e+000	 5.799989999990451e+000	 1.015206627841923e+001
0	 5.533309999982382e+000	 5.866659999993466e+000	 1.014792302902926e+001
0	 5.533309999982383e+000	 5.933329999996683e+000	 1.014381475987714e+001
0	 5.533309999982382e+000	 6.000000000000001e+000	 1.013973560180553e+001
0	 5.599979999983598e+000	 5.333299999983333e+000	 1.018016483010681e+001
0	 5.599979999983598e+000	 5.399969999982149e+000	 1.017576085407881e+001
0	 5.599979999983598e+000	 5.466639999981866e+000	 1.017142694744979e+001
0	 5.599979999983598e+000	 5.533309999982382e+000	 1.016715671533595e+001
0	 5.599979999983598e+000	 5.599979999983599e+000	 1.016294376285351e+001
0	 5.599979999983598e+000	 5.666649999985416e+000	 1.015878169511870e+001
0	 5.599979999983597e+000	 5.733319999987733e+000	 1.015466411724775e+001
0	 5.599979999983598e+000	 5.799989999990449e+000	 1.015058463435687e+001
0	 5.599979999983598e+000	 5.866659999993467e+000	 1.014653685156228e+001
0	 5.599979999983598e+000	 5.933329999996684e+000	 1.014251437398021e+001
0	 5.599979999983600e+000	 6.000000000000002e+000	 1.013851080672688e+001
0	 5.666649999985413e+000	 5.333299999983332e+000	 1.017764972154613e+001
0	 5.666649999985417e+000	 5.399969999982151e+000	 1.017339947397879e+001
0	 5.666649999985415e+000	 5.466639999981865e+000	 1.016921168119061e+001
0	 5.666649999985416e+000	 5.533309999982385e+000	 1.016507966777073e+001
0	 5.666649999985415e+000	 5.599979999983600e+000	 1.016099675830831e+001
0	 5.666649999985415e+000	 5.666649999985415e+000	 1.015695627739250e+001
0	 5.666649999985413e+000	 5.733319999987733e+000	 1.015295154961243e+001
0	 5.666649999985415e+000	 5.799989999990450e+000	 1.014897589955730e+001
0	 5.666649999985414e+000	 5.866659999993467e+000	 1.014502265181621e+001
0	 5.666649999985415e+000	 5.933329999996685e+000	 1.014108513097833e+001
0	 5.666649999985415e+000	 5.999999999999998e+000	 1.013715666163282e+001
0	 5.733319999987732e+000	 5.333299999983335e+000	 1.017501354742759e+001
0	 5.733319999987731e+000	 5.399969999982148e+000	 1.017091961776446e+001
0	 5.733319999987733e+000	 5.466639999981866e+000	 1.016687927077548e+001
0	 5.733319999987733e+000	 5.533309999982385e+000	 1.016288579572209e+001
0	 5.733319999987730e+000	 5.599979999983598e+000	 1.015893248186572e+001
0	 5.733319999987731e+000	 5.666649999985414e+000	 1.015501261846779e+001
0	 5.733319999987731e+000	 5.733319999987733e+000	 1.015111949478975e+001
0	 5.733319999987732e+000	 5.799989999990450e+000	 1.014724640009301e+001
0	 5.733319999987731e+000	 5.866659999993467e+000	 1.014338662363902e+001
0	 5.733319999987733e+000	 5.933329999996685e+000	 1.013953345468920e+001
0	 5.733319999987731e+000	 6.000000000000000e+000	 1.013568018250498e+001
0	 5.799989999990448e+000	 5.333299999983334e+000	 1.017227370083349e+001
0	 5.799989999990448e+000	 5.399969999982149e+000	 1.016833601093407e+001
0	 5.799989999990449e+000	 5.466639999981866e+000	 1.016444213631283e+001
0	 5.799989999990448e+000	 5.533309999982382e+000	 1.016058557610282e+001
0	 5.799989999990449e+000	 5.599979999983600e+000	 1.015675982943713e+001
0	 5.799989999990448e+000	 5.666649999985417e+000	 1.015295839544881e+001
0	 5.799989999990447e+000	 5.733319999987733e+000	 1.014917477327093e+001
0	 5.799989999990449e+000	 5.799989999990448e+000	 1.014540246203653e+001
0	 5.799989999990448e+000	 5.866659999993467e+000	 1.014163496087870e+001
0	 5.799989999990450e+000	 5.933329999996684e+000	 1.013786576893050e+001
0	 5.799989999990447e+000	 5.999999999999999e+000	 1.013408838532496e+001
0	 5.866659999993464e+000	 5.333299999983334e+000	 1.016944757484622e+001
0	 5.866659999993465e+000	 5.399969999982149e+000	 1.016566337898589e+001
0	 5.866659999993465e+000	 5.466639999981866e+000	 1.016191269791104e+001
0	 5.866659999993466e+000	 5.533309999982383e+000	 1.015818948582569e+001
0	 5.866659999993465e+000	 5.599979999983599e+000	 1.015448769693391e+001
0	 5.866659999993466e+000	 5.666649999985418e+000	 1.015080128543973e+001
0	 5.866659999993465e+000	 5.733319999987733e+000	 1.014712420554719e+001
0	 5.866659999993463e+000	 5.799989999990449e+000	 1.014345041146035e+001
0	 5.866659999993465e+000	 5.866659999993467e+000	 1.013977385738325e+001
0	 5.866659999993465e+000	 5.933329999996685e+000	 1.013608849751993e+001
0	 5.866659999993464e+000	 6.000000000000000e+000	 1.013238828607444e+001
0	 5.933329999996682e+000	 5.333299999983334e+000	 1.016655256254808e+001
0	 5.933329999996682e+000	 5.399969999982150e+000	 1.016291644741819e+001
0	 5.933329999996681e+000	 5.466639999981866e+000	 1.015930337567855e+001
0	 5.933329999996682e+000	 5.533309999982383e+000	 1.015570800180350e+001
0	 5.933329999996682e+000	 5.599979999983599e+000	 1.015212498026744e+001
0	 5.933329999996681e+000	 5.666649999985418e+000	 1.014854896554474e+001
0	 5.933329999996682e+000	 5.733319999987733e+000	 1.014497461210979e+001
0	 5.933329999996681e+000	 5.799989999990450e+000	 1.014139657443697e+001
0	 5.933329999996682e+000	 5.866659999993467e+000	 1.013780950700065e+001
0	 5.933329999996682e+000	 5.933329999996683e+000	 1.013420806427520e+001
0	 5.933329999996680e+000	 5.999999999999998e+000	 1.013058690073501e+001
0	 6.000000000000000e+000	 5.333299999983334e+000	 1.016360605702143e+001
0	 6.000000000000000e+000	 5.399969999982150e+000	 1.016010994172925e+001
0	 6.000000000000001e+000	 5.466639999981868e+000	 1.015662658972377e+001
0	 6.000000000000000e+000	 5.533309999982383e+000	 1.015315160094902e+001
0	 6.000000000000000e+000	 5.599979999983598e+000	 1.014968057534910e+001
0	 5.999999999999998e+000	 5.666649999985416e+000	 1.014620911286807e+001
0	 5.999999999999998e+000	 5.733319999987732e+000	 1.014273281344998e+001
0	 5.999999999999999e+000	 5.799989999990449e+000	 1.013924727703889e+001
0	 5.999999999999998e+000	 5.866659999993467e+000	 1.013574810357887e+001
0	 6.000000000000000e+000	 5.933329999996683e+000	 1.013223089301400e+001
0	 5.999999999999999e+000	 5.999999999999999e+000	 1.012869124528832e+001
0	 5.333299999983333e+000	 5.999999999999998e+000	 1.014256372713268e+001
0	 5.333299999983334e+000	 6.066670000003317e+000	 1.013831094367215e+001
0	 5.333299999983333e+000	 6.133340000006530e+000	 1.013412441980422e+001
0	 5.333299999983334e+000	 6.200010000009550e+000	 1.013000185996087e+001
0	 5.333299999983335e+000	 6.266680000012268e+000	 1.012594096857407e+001
0	 5.333299999983334e+000	 6.333350000014584e+000	 1.012193945007576e+001
0	 5.333299999983335e+000	 6.400020000016401e+000	 1.011799500889789e+001
0	 5.333299999983334e+000	 6.466690000017618e+000	 1.011410534947244e+001
0	 5.333299999983333e+000	 6.533360000018132e+000	 1.011026817623136e+001
0	 5.333299999983333e+000	 6.600030000017849e+000	 1.010648119360661e+001
0	 5.333299999983334e+000	 6.666700000016665e+000	 1.010274210603015e+001
0	 5.399969999982150e+000	 6.000000000000000e+000	 1.014176907799006e+001
0	 5.399969999982148e+000	 6.066670000003314e+000	 1.013758914182116e+001
0	 5.399969999982149e+000	 6.133340000006533e+000	 1.013347010163375e+001
0	 5.399969999982150e+000	 6.200010000009552e+000	 1.012941010084448e+001
0	 5.399969999982151e+000	 6.266680000012269e+000	 1.012540728287000e+001
0	 5.399969999982150e+000	 6.333350000014584e+000	 1.012145979112698e+001
0	 5.399969999982149e+000	 6.400020000016399e+000	 1.011756576903208e+001
0	 5.399969999982151e+000	 6.466690000017619e+000	 1.011372336000196e+001
0	 5.399969999982148e+000	 6.533360000018132e+000	 1.010993070745327e+001
0	 5.399969999982149e+000	 6.600030000017852e+000	 1.010618595480269e+001
0	 5.399969999982151e+000	 6.666700000016668e+000	 1.010248724546686e+001
0	 5.466639999981868e+000	 6.000000000000002e+000	 1.014082403088713e+001
0	 5.466639999981866e+000	 6.066670000003318e+000	 1.013671495470606e+001
0	 5.466639999981866e+000	 6.133340000006531e+000	 1.013266249201950e+001
0	 5.466639999981867e+000	 6.200010000009551e+000	 1.012866512881821e+001
0	 5.466639999981865e+000	 6.266680000012267e+000	 1.012472135109297e+001
0	 5.466639999981865e+000	 6.333350000014584e+000	 1.012082964483451e+001
0	 5.466639999981866e+000	 6.400020000016399e+000	 1.011698849603361e+001
0	 5.466639999981867e+000	 6.466690000017617e+000	 1.011319639068102e+001
0	 5.466639999981864e+000	 6.533360000018134e+000	 1.010945181476752e+001
0	 5.466639999981865e+000	 6.600030000017852e+000	 1.010575325428386e+001
0	 5.466639999981866e+000	 6.666700000016667e+000	 1.010209919522080e+001
0	 5.533309999982382e+000	 6.000000000000001e+000	 1.013973560180553e+001
0	 5.533309999982383e+000	 6.066670000003317e+000	 1.013569610913307e+001
0	 5.533309999982381e+000	 6.133340000006533e+000	 1.013170990371945e+001
0	 5.533309999982382e+000	 6.200010000009551e+000	 1.012777571771894e+001
0	 5.533309999982383e+000	 6.266680000012268e+000	 1.012389228328581e+001
0	 5.533309999982382e+000	 6.333350000014585e+000	 1.012005833257430e+001
0	 5.533309999982381e+000	 6.400020000016398e+000	 1.011627259773869e+001
0	 5.533309999982381e+000	 6.466690000017614e+000	 1.011253381093324e+001
0	 5.533309999982381e+000	 6.533360000018135e+000	 1.010884070431222e+001
0	 5.533309999982381e+000	 6.600030000017847e+000	 1.010519201002989e+001
0	 5.533309999982382e+000	 6.666700000016665e+000	 1.010158646024051e+001
0	 5.599979999983600e+000	 6.000000000000002e+000	 1.013851080672688e+001
0	 5.599979999983598e+000	 6.066670000003318e+000	 1.013454033190841e+001
0	 5.599979999983598e+000	 6.133340000006532e+000	 1.013062064949156e+001
0	 5.599979999983599e+000	 6.200010000009551e+000	 1.012675064138348e+001
0	 5.599979999983598e+000	 6.266680000012267e+000	 1.012292918949135e+001
0	 5.599979999983599e+000	 6.333350000014585e+000	 1.011915517572231e+001
0	 5.599979999983598e+000	 6.400020000016400e+000	 1.011542748198355e+001
0	 5.599979999983598e+000	 6.466690000017618e+000	 1.011174499018223e+001
0	 5.599979999983598e+000	 6.533360000018133e+000	 1.010810658222550e+001
0	 5.599979999983598e+000	 6.600030000017851e+000	 1.010451114002054e+001
0	 5.599979999983598e+000	 6.666700000016666e+000	 1.010095754547450e+001
0	 5.666649999985415e+000	 5.999999999999998e+000	 1.013715666163282e+001
0	 5.666649999985414e+000	 6.066670000003317e+000	 1.013325534983835e+001
0	 5.666649999985415e+000	 6.133340000006534e+000	 1.012940304209383e+001
0	 5.666649999985414e+000	 6.200010000009551e+000	 1.012559867364871e+001
0	 5.666649999985414e+000	 6.266680000012268e+000	 1.012184117975244e+001
0	 5.666649999985415e+000	 6.333350000014585e+000	 1.011812949565453e+001
0	 5.666649999985415e+000	 6.400020000016399e+000	 1.011446255660442e+001
0	 5.666649999985415e+000	 6.466690000017617e+000	 1.011083929785157e+001
0	 5.666649999985415e+000	 6.533360000018133e+000	 1.010725865464547e+001
0	 5.666649999985415e+000	 6.600030000017850e+000	 1.010371956223555e+001
0	 5.666649999985415e+000	 6.666700000016665e+000	 1.010022095587132e+001
0	 5.733319999987731e+000	 6.000000000000000e+000	 1.013568018250498e+001
0	 5.733319999987733e+000	 6.066670000003317e+000	 1.013184888972912e+001
0	 5.733319999987732e+000	 6.133340000006533e+000	 1.012806539428421e+001
0	 5.733319999987733e+000	 6.200010000009552e+000	 1.012432858835143e+001
0	 5.733319999987731e+000	 6.266680000012267e+000	 1.012063736411195e+001
0	 5.733319999987731e+000	 6.333350000014584e+000	 1.011699061374690e+001
0	 5.733319999987732e+000	 6.400020000016402e+000	 1.011338722943750e+001
0	 5.733319999987733e+000	 6.466690000017618e+000	 1.010982610336489e+001
0	 5.733319999987733e+000	 6.533360000018135e+000	 1.010630612771023e+001
0	 5.733319999987731e+000	 6.600030000017848e+000	 1.010282619465472e+001
0	 5.733319999987732e+000	 6.666700000016666e+000	 1.009938519637951e+001
0	 5.799989999990447e+000	 5.999999999999999e+000	 1.013408838532496e+001
0	 5.799989999990450e+000	 6.066670000003319e+000	 1.013032867838694e+001
0	 5.799989999990447e+000	 6.133340000006533e+000	 1.012661601882070e+001
0	 5.799989999990449e+000	 6.200010000009551e+000	 1.012294915932852e+001
0	 5.799989999990447e+000	 6.266680000012269e+000	 1.011932685261266e+001
0	 5.799989999990449e+000	 6.333350000014585e+000	 1.011574785137541e+001
0	 5.799989999990448e+000	 6.400020000016403e+000	 1.011221090831901e+001
0	 5.799989999990448e+000	 6.466690000017615e+000	 1.010871477614577e+001
0	 5.799989999990449e+000	 6.533360000018136e+000	 1.010525820755793e+001
0	 5.799989999990448e+000	 6.600030000017851e+000	 1.010183995525777e+001
0	 5.799989999990448e+000	 6.666700000016665e+000	 1.009845877194758e+001
0	 5.866659999993464e+000	 6.000000000000000e+000	 1.013238828607444e+001
0	 5.866659999993464e+000	 6.066670000003316e+000	 1.012870244261807e+001
0	 5.866659999993465e+000	 6.133340000006532e+000	 1.012506322846126e+001
0	 5.866659999993465e+000	 6.200010000009550e+000	 1.012146916041680e+001
0	 5.866659999993465e+000	 6.266680000012269e+000	 1.011791875529746e+001
0	 5.866659999993465e+000	 6.333350000014585e+000	 1.011441052991599e+001
0	 5.866659999993465e+000	 6.400020000016402e+000	 1.011094300108519e+001
0	 5.866659999993464e+000	 6.466690000017616e+000	 1.010751468561783e+001
0	 5.866659999993466e+000	 6.533360000018134e+000	 1.010412410032667e+001
0	 5.866659999993464e+000	 6.600030000017848e+000	 1.010076976202449e+001
0	 5.866659999993465e+000	 6.666700000016666e+000	 1.009745018752407e+001
0	 5.933329999996680e+000	 5.999999999999998e+000	 1.013058690073501e+001
0	 5.933329999996682e+000	 6.066670000003318e+000	 1.012697790922874e+001
0	 5.933329999996680e+000	 6.133340000006534e+000	 1.012341533596388e+001
0	 5.933329999996681e+000	 6.200010000009551e+000	 1.011989736545314e+001
0	 5.933329999996682e+000	 6.266680000012268e+000	 1.011642218220916e+001
0	 5.933329999996682e+000	 6.333350000014585e+000	 1.011298797074465e+001
0	 5.933329999996682e+000	 6.400020000016402e+000	 1.010959291557225e+001
0	 5.933329999996682e+000	 6.466690000017616e+000	 1.010623520120467e+001
0	 5.933329999996681e+000	 6.533360000018134e+000	 1.010291301215457e+001
0	 5.933329999996681e+000	 6.600030000017850e+000	 1.009962453293463e+001
0	 5.933329999996682e+000	 6.666700000016665e+000	 1.009636794805752e+001
0	 5.999999999999999e+000	 5.999999999999999e+000	 1.012869124528832e+001
0	 6.000000000000000e+000	 6.066670000003318e+000	 1.012516280502517e+001
0	 6.000000000000000e+000	 6.133340000006533e+000	 1.012168065408652e+001
0	 5.999999999999996e+000	 6.200010000009550e+000	 1.011824254827435e+001
0	 5.999999999999998e+000	 6.266680000012267e+000	 1.011484624339061e+001
0	 6.000000000000000e+000	 6.333350000014585e+000	 1.011148949523732e+001
0	 5.999999999999998e+000	 6.400020000016399e+000	 1.010817005961643e+001
0	 6.000000000000001e+000	 6.466690000017618e+000	 1.010488569232991e+001
0	 6.000000000000002e+000	 6.533360000018136e+000	 1.010163414917977e+001
0	 6.000000000000001e+000	 6.600030000017850e+000	 1.009841318596797e+001
0	 6.000000000000002e+000	 6.666700000016668e+000	 1.009522055849649e+001
0	 5.333299999983334e+000	 6.666700000016665e+000	 1.010274210603015e+001
0	 5.333299999983335e+000	 6.733360000014533e+000	 1.009906367133641e+001
0	 5.333299999983335e+000	 6.800020000011599e+000	 1.009545784600981e+001
0	 5.333299999983333e+000	 6.866680000008065e+000	 1.009192280453098e+001
0	 5.333299999983336e+000	 6.933340000004135e+000	 1.008845672138057e+001
0	 5.333299999983333e+000	 6.999999999999998e+000	 1.008505777103921e+001
0	 5.333299999983335e+000	 7.066659999995868e+000	 1.008172412798756e+001
0	 5.333299999983334e+000	 7.133319999991935e+000	 1.007845396670623e+001
0	 5.333299999983335e+000	 7.199979999988400e+000	 1.007524546167590e+001
0	 5.333299999983336e+000	 7.266639999985467e+000	 1.007209678737718e+001
0	 5.333299999983334e+000	 7.333299999983334e+000	 1.006900611829071e+001
0	 5.399969999982151e+000	 6.666700000016668e+000	 1.010248724546686e+001
0	 5.399969999982152e+000	 6.733360000014532e+000	 1.009884724146853e+001
0	 5.399969999982149e+000	 6.800020000011599e+000	 1.009527740786318e+001
0	 5.399969999982149e+000	 6.866680000008067e+000	 1.009177574687179e+001
0	 5.399969999982148e+000	 6.933340000004132e+000	 1.008834026071538e+001
0	 5.399969999982149e+000	 6.999999999999999e+000	 1.008496895161491e+001
0	 5.399969999982149e+000	 7.066659999995866e+000	 1.008165982179136e+001
0	 5.399969999982148e+000	 7.133319999991933e+000	 1.007841087346576e+001
0	 5.399969999982150e+000	 7.199979999988400e+000	 1.007522010885906e+001
0	 5.399969999982151e+000	 7.266639999985467e+000	 1.007208553019225e+001
0	 5.399969999982150e+000	 7.333299999983335e+000	 1.006900513968633e+001
0	 5.466639999981866e+000	 6.666700000016667e+000	 1.010209919522080e+001
0	 5.466639999981865e+000	 6.733360000014533e+000	 1.009850195851461e+001
0	 5.466639999981865e+000	 6.800020000011599e+000	 1.009497236202031e+001
0	 5.466639999981865e+000	 6.866680000008066e+000	 1.009150827156595e+001
0	 5.466639999981867e+000	 6.933340000004134e+000	 1.008810755297956e+001
0	 5.466639999981865e+000	 6.999999999999997e+000	 1.008476807208918e+001
0	 5.466639999981864e+000	 7.066659999995866e+000	 1.008148769472285e+001
0	 5.466639999981865e+000	 7.133319999991934e+000	 1.007826428670862e+001
0	 5.466639999981865e+000	 7.199979999988400e+000	 1.007509571387451e+001
0	 5.466639999981866e+000	 7.266639999985466e+000	 1.007197984204855e+001
0	 5.466639999981865e+000	 7.333299999983331e+000	 1.006891453705878e+001
0	 5.533309999982382e+000	 6.666700000016665e+000	 1.010158646024051e+001
0	 5.533309999982382e+000	 6.733360000014533e+000	 1.009803585660873e+001
0	 5.533309999982381e+000	 6.800020000011600e+000	 1.009455028096463e+001
0	 5.533309999982383e+000	 6.866680000008068e+000	 1.009112749861001e+001
0	 5.533309999982382e+000	 6.933340000004133e+000	 1.008776527484665e+001
0	 5.533309999982384e+000	 7.000000000000001e+000	 1.008446137497634e+001
0	 5.533309999982381e+000	 7.066659999995866e+000	 1.008121356430088e+001
0	 5.533309999982383e+000	 7.133319999991936e+000	 1.007801960812204e+001
0	 5.533309999982381e+000	 7.199979999988400e+000	 1.007487727174163e+001
0	 5.533309999982381e+000	 7.266639999985467e+000	 1.007178432046143e+001
0	 5.533309999982383e+000	 7.333299999983335e+000	 1.006873851958323e+001
0	 5.599979999983598e+000	 6.666700000016666e+000	 1.010095754547450e+001
0	 5.599979999983598e+000	 6.733360000014533e+000	 1.009745696988499e+001
0	 5.599979999983598e+000	 6.800020000011600e+000	 1.009401873717961e+001
0	 5.599979999983598e+000	 6.866680000008066e+000	 1.009064054800060e+001
0	 5.599979999983595e+000	 6.933340000004131e+000	 1.008732010299023e+001
0	 5.599979999983598e+000	 6.999999999999997e+000	 1.008405510279072e+001
0	 5.599979999983596e+000	 7.066659999995864e+000	 1.008084324804432e+001
0	 5.599979999983599e+000	 7.133319999991935e+000	 1.007768223939332e+001
0	 5.599979999983598e+000	 7.199979999988400e+000	 1.007456977747989e+001
0	 5.599979999983598e+000	 7.266639999985468e+000	 1.007150356294631e+001
0	 5.599979999983599e+000	 7.333299999983335e+000	 1.006848129643482e+001
0	 5.666649999985415e+000	 6.666700000016665e+000	 1.010022095587132e+001
0	 5.666649999985416e+000	 6.733360000014533e+000	 1.009677333247747e+001
0	 5.666649999985417e+000	 6.800020000011601e+000	 1.009338530314865e+001
0	 5.666649999985415e+000	 6.866680000008065e+000	 1.009005453973431e+001
0	 5.666649999985417e+000	 6.933340000004132e+000	 1.008677871408384e+001
0	 5.666649999985416e+000	 6.999999999999998e+000	 1.008355549804663e+001
0	 5.666649999985416e+000	 7.066659999995867e+000	 1.008038256347211e+001
0	 5.666649999985415e+000	 7.133319999991937e+000	 1.007725758220964e+001
0	 5.666649999985417e+000	 7.199979999988401e+000	 1.007417822610867e+001
0	 5.666649999985416e+000	 7.266639999985468e+000	 1.007114216701856e+001
0	 5.666649999985413e+000	 7.333299999983332e+000	 1.006814707678872e+001
0	 5.733319999987732e+000	 6.666700000016666e+000	 1.009938519637951e+001
0	 5.733319999987732e+000	 6.733360000014533e+000	 1.009599297852024e+001
0	 5.733319999987730e+000	 6.800020000011598e+000	 1.009265755135524e+001
0	 5.733319999987731e+000	 6.866680000008068e+000	 1.008937659380775e+001
0	 5.733319999987731e+000	 6.933340000004134e+000	 1.008614778480104e+001
0	 5.733319999987733e+000	 6.999999999999998e+000	 1.008296880325841e+001
0	 5.733319999987733e+000	 7.066659999995868e+000	 1.007983732810308e+001
0	 5.733319999987730e+000	 7.133319999991933e+000	 1.007675103825833e+001
0	 5.733319999987731e+000	 7.199979999988401e+000	 1.007370761264741e+001
0	 5.733319999987731e+000	 7.266639999985466e+000	 1.007070473019359e+001
0	 5.733319999987732e+000	 7.333299999983334e+000	 1.006774006982012e+001
0	 5.799989999990448e+000	 6.666700000016665e+000	 1.009845877194759e+001
0	 5.799989999990449e+000	 6.733360000014534e+000	 1.009512394214741e+001
0	 5.799989999990448e+000	 6.800020000011601e+000	 1.009184305428279e+001
0	 5.799989999990448e+000	 6.866680000008067e+000	 1.008861383021750e+001
0	 5.799989999990449e+000	 6.933340000004134e+000	 1.008543399181544e+001
0	 5.799989999990447e+000	 7.000000000000000e+000	 1.008230126094037e+001
0	 5.799989999990448e+000	 7.066659999995869e+000	 1.007921335945614e+001
0	 5.799989999990450e+000	 7.133319999991936e+000	 1.007616800922659e+001
0	 5.799989999990448e+000	 7.199979999988400e+000	 1.007316293211552e+001
0	 5.799989999990448e+000	 7.266639999985467e+000	 1.007019584998678e+001
0	 5.799989999990449e+000	 7.333299999983336e+000	 1.006726448470415e+001
0	 5.866659999993465e+000	 6.666700000016666e+000	 1.009745018752408e+001
0	 5.866659999993465e+000	 6.733360000014533e+000	 1.009417425749306e+001
0	 5.866659999993465e+000	 6.800020000011599e+000	 1.009094938441473e+001
0	 5.866659999993464e+000	 6.866680000008067e+000	 1.008777336896020e+001
0	 5.866659999993464e+000	 6.933340000004133e+000	 1.008464401180052e+001
0	 5.866659999993465e+000	 6.999999999999999e+000	 1.008155911360684e+001
0	 5.866659999993464e+000	 7.066659999995867e+000	 1.007851647505020e+001
0	 5.866659999993463e+000	 7.133319999991936e+000	 1.007551389680170e+001
0	 5.866659999993465e+000	 7.199979999988400e+000	 1.007254917953245e+001
0	 5.866659999993465e+000	 7.266639999985465e+000	 1.006962012391352e+001
0	 5.866659999993466e+000	 7.333299999983335e+000	 1.006672453061598e+001
0	 5.933329999996682e+000	 6.666700000016665e+000	 1.009636794805753e+001
0	 5.933329999996681e+000	 6.733360000014534e+000	 1.009315195869128e+001
0	 5.933329999996681e+000	 6.800020000011600e+000	 1.008998411423454e+001
0	 5.933329999996682e+000	 6.866680000008067e+000	 1.008686233003241e+001
0	 5.933329999996681e+000	 6.933340000004132e+000	 1.008378452142992e+001
0	 5.933329999996682e+000	 7.000000000000000e+000	 1.008074860377212e+001
0	 5.933329999996680e+000	 7.066659999995866e+000	 1.007775249240411e+001
0	 5.933329999996681e+000	 7.133319999991934e+000	 1.007479410267091e+001
0	 5.933329999996682e+000	 7.199979999988401e+000	 1.007187134991758e+001
0	 5.933329999996683e+000	 7.266639999985467e+000	 1.006898214948920e+001
0	 5.933329999996682e+000	 7.333299999983334e+000	 1.006612441673079e+001
0	 6.000000000000002e+000	 6.666700000016668e+000	 1.009522055849649e+001
0	 6.000000000000000e+000	 6.733360000014532e+000	 1.009206507987614e+001
0	 6.000000000000000e+000	 6.800020000011600e+000	 1.008895481622566e+001
0	 6.000000000000000e+000	 6.866680000008066e+000	 1.008588783343074e+001
0	 6.000000000000001e+000	 6.933340000004134e+000	 1.008286219737714e+001
0	 6.000000000000000e+000	 6.999999999999998e+000	 1.007987597395058e+001
0	 6.000000000000001e+000	 7.066659999995868e+000	 1.007692722903679e+001
0	 6.000000000000000e+000	 7.133319999991935e+000	 1.007401402852147e+001
0	 6.000000000000000e+000	 7.199979999988401e+000	 1.007113443829039e+001
0	 6.000000000000000e+000	 7.266639999985465e+000	 1.006828652422924e+001
0	 6.000000000000000e+000	 7.333299999983332e+000	 1.006546835222374e+001
0	 5.333299999983334e+000	 7.333299999983334e+000	 1.006900611829071e+001
0	 5.333299999983332e+000	 7.399969999982149e+000	 1.006597676178485e+001
0	 5.333299999983333e+000	 7.466639999981864e+000	 1.006301342811612e+001
0	 5.333299999983333e+000	 7.533309999982383e+000	 1.006011501793583e+001
0	 5.333299999983335e+000	 7.599979999983600e+000	 1.005728043189530e+001
0	 5.333299999983334e+000	 7.666649999985416e+000	 1.005450857064585e+001
0	 5.333299999983334e+000	 7.733319999987733e+000	 1.005179833483880e+001
0	 5.333299999983334e+000	 7.799989999990449e+000	 1.004914862512546e+001
0	 5.333299999983333e+000	 7.866659999993466e+000	 1.004655834215711e+001
0	 5.333299999983335e+000	 7.933329999996684e+000	 1.004402638658513e+001
0	 5.333299999983334e+000	 8.000000000000000e+000	 1.004155165906077e+001
0	 5.399969999982150e+000	 7.333299999983335e+000	 1.006900513968633e+001
0	 5.399969999982147e+000	 7.399969999982148e+000	 1.006598412200247e+001
0	 5.399969999982148e+000	 7.466639999981865e+000	 1.006302908983675e+001
0	 5.399969999982152e+000	 7.533309999982385e+000	 1.006013881304213e+001
0	 5.399969999982149e+000	 7.599979999983599e+000	 1.005731206147146e+001
0	 5.399969999982150e+000	 7.666649999985416e+000	 1.005454760497767e+001
0	 5.399969999982150e+000	 7.733319999987732e+000	 1.005184421341365e+001
0	 5.399969999982150e+000	 7.799989999990451e+000	 1.004920065663230e+001
0	 5.399969999982151e+000	 7.866659999993468e+000	 1.004661570448653e+001
0	 5.399969999982149e+000	 7.933329999996682e+000	 1.004408812682924e+001
0	 5.399969999982149e+000	 8.000000000000000e+000	 1.004161669351333e+001
0	 5.466639999981865e+000	 7.333299999983331e+000	 1.006891453705878e+001
0	 5.466639999981865e+000	 7.399969999982149e+000	 1.006590659465976e+001
0	 5.466639999981866e+000	 7.466639999981866e+000	 1.006296424329372e+001
0	 5.466639999981866e+000	 7.533309999982383e+000	 1.006008612935346e+001
0	 5.466639999981866e+000	 7.599979999983600e+000	 1.005727089923181e+001
0	 5.466639999981866e+000	 7.666649999985416e+000	 1.005451719932162e+001
0	 5.466639999981866e+000	 7.733319999987733e+000	 1.005182367601572e+001
0	 5.466639999981868e+000	 7.799989999990451e+000	 1.004918897570690e+001
0	 5.466639999981866e+000	 7.866659999993467e+000	 1.004661174478805e+001
0	 5.466639999981867e+000	 7.933329999996683e+000	 1.004409062965196e+001
0	 5.466639999981868e+000	 8.000000000000000e+000	 1.004162427669149e+001
0	 5.533309999982383e+000	 7.333299999983335e+000	 1.006873851958322e+001
0	 5.533309999982381e+000	 7.399969999982148e+000	 1.006574802933136e+001
0	 5.533309999982381e+000	 7.466639999981865e+000	 1.006282242689161e+001
0	 5.533309999982381e+000	 7.533309999982384e+000	 1.005996024253507e+001
0	 5.533309999982382e+000	 7.599979999983598e+000	 1.005716000653284e+001
0	 5.533309999982382e+000	 7.666649999985417e+000	 1.005442024915603e+001
0	 5.533309999982382e+000	 7.733319999987733e+000	 1.005173950067573e+001
0	 5.533309999982381e+000	 7.799989999990448e+000	 1.004911629136307e+001
0	 5.533309999982382e+000	 7.866659999993467e+000	 1.004654915148914e+001
0	 5.533309999982383e+000	 7.933329999996684e+000	 1.004403661132506e+001
0	 5.533309999982382e+000	 8.000000000000000e+000	 1.004157720114193e+001
0	 5.599979999983599e+000	 7.333299999983335e+000	 1.006848129643482e+001
0	 5.599979999983598e+000	 7.399969999982151e+000	 1.006551227559179e+001
0	 5.599979999983600e+000	 7.466639999981866e+000	 1.006260717903500e+001
0	 5.599979999983599e+000	 7.533309999982384e+000	 1.005976442825214e+001
0	 5.599979999983598e+000	 7.599979999983600e+000	 1.005698244473096e+001
0	 5.599979999983599e+000	 7.666649999985416e+000	 1.005425964995917e+001
0	 5.599979999983598e+000	 7.733319999987733e+000	 1.005159446542449e+001
0	 5.599979999983598e+000	 7.799989999990450e+000	 1.004898531261463e+001
0	 5.599979999983598e+000	 7.866659999993465e+000	 1.004643061301733e+001
0	 5.599979999983598e+000	 7.933329999996682e+000	 1.004392878812032e+001
0	 5.599979999983598e+000	 8.000000000000004e+000	 1.004147825941132e+001
0	 5.666649999985413e+000	 7.333299999983332e+000	 1.006814707678872e+001
0	 5.666649999985415e+000	 7.399969999982151e+000	 1.006520318301564e+001
0	 5.666649999985415e+000	 7.466639999981866e+000	 1.006232203812849e+001
0	 5.666649999985415e+000	 7.533309999982384e+000	 1.005950196216992e+001
0	 5.666649999985415e+000	 7.599979999983599e+000	 1.005674127518264e+001
0	 5.666649999985414e+000	 7.666649999985416e+000	 1.005403829720933e+001
0	 5.666649999985414e+000	 7.733319999987733e+000	 1.005139134829269e+001
0	 5.666649999985415e+000	 7.799989999990449e+000	 1.004879874847537e+001
0	 5.666649999985416e+000	 7.866659999993467e+000	 1.004625881780008e+001
0	 5.666649999985415e+000	 7.933329999996682e+000	 1.004376987630951e+001
0	 5.666649999985415e+000	 7.999999999999998e+000	 1.004133024404632e+001
0	 5.733319999987732e+000	 7.333299999983334e+000	 1.006774006982012e+001
0	 5.733319999987732e+000	 7.399969999982150e+000	 1.006482460117749e+001
0	 5.733319999987732e+000	 7.466639999981866e+000	 1.006197054257665e+001
0	 5.733319999987732e+000	 7.533309999982384e+000	 1.005917611995361e+001
0	 5.733319999987732e+000	 7.599979999983599e+000	 1.005643955924436e+001
0	 5.733319999987731e+000	 7.666649999985417e+000	 1.005375908638485e+001
0	 5.733319999987732e+000	 7.733319999987733e+000	 1.005113292731111e+001
0	 5.733319999987732e+000	 7.799989999990451e+000	 1.004855930795913e+001
0	 5.733319999987731e+000	 7.866659999993466e+000	 1.004603645426489e+001
0	 5.733319999987733e+000	 7.933329999996683e+000	 1.004356259216439e+001
0	 5.733319999987732e+000	 8.000000000000000e+000	 1.004113594759363e+001
0	 5.799989999990449e+000	 7.333299999983336e+000	 1.006726448470415e+001
0	 5.799989999990448e+000	 7.399969999982151e+000	 1.006438037965189e+001
0	 5.799989999990448e+000	 7.466639999981866e+000	 1.006155623078410e+001
0	 5.799989999990449e+000	 7.533309999982384e+000	 1.005879017726844e+001
0	 5.799989999990448e+000	 7.599979999983599e+000	 1.005608035827253e+001
0	 5.799989999990448e+000	 7.666649999985416e+000	 1.005342491296402e+001
0	 5.799989999990447e+000	 7.733319999987733e+000	 1.005082198051053e+001
0	 5.799989999990448e+000	 7.799989999990451e+000	 1.004826970007973e+001
0	 5.799989999990448e+000	 7.866659999993467e+000	 1.004576621083927e+001
0	 5.799989999990449e+000	 7.933329999996683e+000	 1.004330965195677e+001
0	 5.799989999990447e+000	 8.000000000000000e+000	 1.004089816259988e+001
0	 5.866659999993466e+000	 7.333299999983335e+000	 1.006672453061598e+001
0	 5.866659999993464e+000	 7.399969999982149e+000	 1.006387436801344e+001
0	 5.866659999993466e+000	 7.466639999981867e+000	 1.006108264115544e+001
0	 5.866659999993464e+000	 7.533309999982382e+000	 1.005834740977962e+001
0	 5.866659999993466e+000	 7.599979999983601e+000	 1.005566673362363e+001
0	 5.866659999993466e+000	 7.666649999985418e+000	 1.005303867242511e+001
0	 5.866659999993465e+000	 7.733319999987734e+000	 1.005046128592169e+001
0	 5.866659999993463e+000	 7.799989999990448e+000	 1.004793263385100e+001
0	 5.866659999993465e+000	 7.866659999993467e+000	 1.004545077595069e+001
0	 5.866659999993464e+000	 7.933329999996683e+000	 1.004301377195839e+001
0	 5.866659999993464e+000	 8.000000000000002e+000	 1.004061968161175e+001
0	 5.933329999996682e+000	 7.333299999983334e+000	 1.006612441673079e+001
0	 5.933329999996681e+000	 7.399969999982150e+000	 1.006331041583668e+001
0	 5.933329999996681e+000	 7.466639999981865e+000	 1.006055331209522e+001
0	 5.933329999996682e+000	 7.533309999982383e+000	 1.005785109315237e+001
0	 5.933329999996683e+000	 7.599979999983601e+000	 1.005520174665412e+001
0	 5.933329999996681e+000	 7.666649999985416e+000	 1.005260326024646e+001
0	 5.933329999996682e+000	 7.733319999987733e+000	 1.005005362157534e+001
0	 5.933329999996681e+000	 7.799989999990449e+000	 1.004755081828674e+001
0	 5.933329999996681e+000	 7.866659999993468e+000	 1.004509283802665e+001
0	 5.933329999996682e+000	 7.933329999996685e+000	 1.004267766844105e+001
0	 5.933329999996681e+000	 8.000000000000000e+000	 1.004030329717590e+001
0	 6.000000000000000e+000	 7.333299999983332e+000	 1.006546835222374e+001
0	 6.000000000000001e+000	 7.399969999982152e+000	 1.006269237269621e+001
0	 6.000000000000002e+000	 7.466639999981867e+000	 1.005997178200804e+001
0	 6.000000000000001e+000	 7.533309999982384e+000	 1.005730450305191e+001
0	 6.000000000000000e+000	 7.599979999983600e+000	 1.005468845872045e+001
0	 6.000000000000000e+000	 7.666649999985416e+000	 1.005212157190634e+001
0	 6.000000000000000e+000	 7.733319999987733e+000	 1.004960176550223e+001
0	 5.999999999999998e+000	 7.799989999990449e+000	 1.004712696240078e+001
0	 5.999999999999998e+000	 7.866659999993466e+000	 1.004469508549467e+001
0	 6.000000000000000e+000	 7.933329999996684e+000	 1.004230405767653e+001
0	 6.000000000000000e+000	 8.000000000000000e+000	 1.003995180183905e+001
0	 5.333299999983334e+000	 8.000000000000000e+000	 1.004155165906077e+001
0	 5.333299999983333e+000	 8.066670000003317e+000	 1.003914034449388e+001
0	 5.333299999983333e+000	 8.133340000006532e+000	 1.003679770408279e+001
0	 5.333299999983335e+000	 8.200010000009550e+000	 1.003452125291170e+001
0	 5.333299999983336e+000	 8.266680000012268e+000	 1.003230850606478e+001
0	 5.333299999983334e+000	 8.333350000014585e+000	 1.003015697862618e+001
0	 5.333299999983333e+000	 8.400020000016399e+000	 1.002806418568016e+001
0	 5.333299999983332e+000	 8.466690000017616e+000	 1.002602764231084e+001
0	 5.333299999983334e+000	 8.533360000018135e+000	 1.002404486360243e+001
0	 5.333299999983335e+000	 8.600030000017851e+000	 1.002211336463915e+001
0	 5.333299999983334e+000	 8.666700000016666e+000	 1.002023066050513e+001
0	 5.399969999982149e+000	 8.000000000000000e+000	 1.004161669351333e+001
0	 5.399969999982150e+000	 8.066670000003317e+000	 1.003920742996892e+001
0	 5.399969999982149e+000	 8.133340000006530e+000	 1.003686557621695e+001
0	 5.399969999982149e+000	 8.200010000009549e+000	 1.003458872399661e+001
0	 5.399969999982151e+000	 8.266680000012267e+000	 1.003237446504704e+001
0	 5.399969999982150e+000	 8.333350000014583e+000	 1.003022039110740e+001
0	 5.399969999982149e+000	 8.400020000016401e+000	 1.002812409391684e+001
0	 5.399969999982149e+000	 8.466690000017614e+000	 1.002608316521455e+001
0	 5.399969999982149e+000	 8.533360000018133e+000	 1.002409519673968e+001
0	 5.399969999982150e+000	 8.600030000017853e+000	 1.002215778023142e+001
0	 5.399969999982150e+000	 8.666700000016668e+000	 1.002026850742890e+001
0	 5.466639999981868e+000	 8.000000000000000e+000	 1.004162427669149e+001
0	 5.466639999981866e+000	 8.066670000003319e+000	 1.003921885840910e+001
0	 5.466639999981867e+000	 8.133340000006532e+000	 1.003687988688509e+001
0	 5.466639999981867e+000	 8.200010000009554e+000	 1.003460501787899e+001
0	 5.466639999981865e+000	 8.266680000012265e+000	 1.003239190715033e+001
0	 5.466639999981867e+000	 8.333350000014583e+000	 1.003023821045865e+001
0	 5.466639999981865e+000	 8.400020000016401e+000	 1.002814158356347e+001
0	 5.466639999981864e+000	 8.466690000017616e+000	 1.002609968222434e+001
0	 5.466639999981867e+000	 8.533360000018137e+000	 1.002411016220081e+001
0	 5.466639999981865e+000	 8.600030000017849e+000	 1.002217067925239e+001
0	 5.466639999981867e+000	 8.666700000016668e+000	 1.002027888913865e+001
0	 5.533309999982382e+000	 8.000000000000000e+000	 1.004157720114193e+001
0	 5.533309999982385e+000	 8.066670000003317e+000	 1.003917749842142e+001
0	 5.533309999982381e+000	 8.133340000006529e+000	 1.003684353189475e+001
0	 5.533309999982381e+000	 8.200010000009552e+000	 1.003457300870715e+001
0	 5.533309999982382e+000	 8.266680000012267e+000	 1.003236363600397e+001
0	 5.533309999982383e+000	 8.333350000014583e+000	 1.003021312093050e+001
0	 5.533309999982383e+000	 8.400020000016401e+000	 1.002811917063204e+001
0	 5.533309999982383e+000	 8.466690000017616e+000	 1.002607949225393e+001
0	 5.533309999982382e+000	 8.533360000018138e+000	 1.002409179294144e+001
0	 5.533309999982381e+000	 8.600030000017851e+000	 1.002215377983988e+001
0	 5.533309999982382e+000	 8.666700000016668e+000	 1.002026316009460e+001
0	 5.599979999983598e+000	 8.000000000000004e+000	 1.004147825941132e+001
0	 5.599979999983599e+000	 8.066670000003315e+000	 1.003908621861288e+001
0	 5.599979999983598e+000	 8.133340000006534e+000	 1.003675940705342e+001
0	 5.599979999983598e+000	 8.200010000009550e+000	 1.003449557062939e+001
0	 5.599979999983598e+000	 8.266680000012265e+000	 1.003229245523725e+001
0	 5.599979999983599e+000	 8.333350000014587e+000	 1.003014780677350e+001
0	 5.599979999983597e+000	 8.400020000016401e+000	 1.002805937113459e+001
0	 5.599979999983598e+000	 8.466690000017616e+000	 1.002602489421699e+001
0	 5.599979999983599e+000	 8.533360000018133e+000	 1.002404212191721e+001
0	 5.599979999983598e+000	 8.600030000017851e+000	 1.002210880013168e+001
0	 5.599979999983599e+000	 8.666700000016668e+000	 1.002022267475692e+001
0	 5.666649999985415e+000	 7.999999999999998e+000	 1.004133024404632e+001
0	 5.666649999985414e+000	 8.066670000003315e+000	 1.003894788759044e+001
0	 5.666649999985417e+000	 8.133340000006536e+000	 1.003663040816866e+001
0	 5.666649999985415e+000	 8.200010000009550e+000	 1.003437557779400e+001
0	 5.666649999985414e+000	 8.266680000012268e+000	 1.003218116847949e+001
0	 5.666649999985415e+000	 8.333350000014583e+000	 1.003004495223818e+001
0	 5.666649999985415e+000	 8.400020000016403e+000	 1.002796470108309e+001
0	 5.666649999985415e+000	 8.466690000017618e+000	 1.002593818702727e+001
0	 5.666649999985415e+000	 8.533360000018135e+000	 1.002396318208376e+001
0	 5.666649999985416e+000	 8.600030000017851e+000	 1.002203745826559e+001
0	 5.666649999985415e+000	 8.666700000016666e+000	 1.002015878758580e+001
0	 5.733319999987732e+000	 8.000000000000000e+000	 1.004113594759363e+001
0	 5.733319999987732e+000	 8.066670000003317e+000	 1.003876537396109e+001
0	 5.733319999987731e+000	 8.133340000006532e+000	 1.003645943104798e+001
0	 5.733319999987732e+000	 8.200010000009552e+000	 1.003421590434930e+001
0	 5.733319999987731e+000	 8.266680000012268e+000	 1.003203257935999e+001
0	 5.733319999987731e+000	 8.333350000014583e+000	 1.002990724157508e+001
0	 5.733319999987732e+000	 8.400020000016399e+000	 1.002783767648957e+001
0	 5.733319999987732e+000	 8.466690000017616e+000	 1.002582166959847e+001
0	 5.733319999987732e+000	 8.533360000018131e+000	 1.002385700639675e+001
0	 5.733319999987732e+000	 8.600030000017849e+000	 1.002194147237942e+001
0	 5.733319999987731e+000	 8.666700000016666e+000	 1.002007285304147e+001
0	 5.799989999990447e+000	 8.000000000000000e+000	 1.004089816259988e+001
0	 5.799989999990449e+000	 8.066670000003317e+000	 1.003854154633181e+001
0	 5.799989999990448e+000	 8.133340000006534e+000	 1.003624937149892e+001
0	 5.799989999990450e+000	 8.200010000009554e+000	 1.003401942444355e+001
0	 5.799989999990447e+000	 8.266680000012267e+000	 1.003184949150804e+001
0	 5.799989999990449e+000	 8.333350000014585e+000	 1.002973735903478e+001
0	 5.799989999990448e+000	 8.400020000016403e+000	 1.002768081336606e+001
0	 5.799989999990448e+000	 8.466690000017616e+000	 1.002567764084431e+001
0	 5.799989999990448e+000	 8.533360000018133e+000	 1.002372562781181e+001
0	 5.799989999990447e+000	 8.600030000017851e+000	 1.002182256061096e+001
0	 5.799989999990448e+000	 8.666700000016668e+000	 1.001996622558411e+001
0	 5.866659999993464e+000	 8.000000000000002e+000	 1.004061968161175e+001
0	 5.866659999993464e+000	 8.066670000003317e+000	 1.003827927330957e+001
0	 5.866659999993464e+000	 8.133340000006532e+000	 1.003600312532899e+001
0	 5.866659999993465e+000	 8.200010000009550e+000	 1.003378901222510e+001
0	 5.866659999993464e+000	 8.266680000012268e+000	 1.003163470855299e+001
0	 5.866659999993465e+000	 8.333350000014585e+000	 1.002953798886778e+001
0	 5.866659999993465e+000	 8.400020000016401e+000	 1.002749662772457e+001
0	 5.866659999993464e+000	 8.466690000017618e+000	 1.002550839967848e+001
0	 5.866659999993463e+000	 8.533360000018133e+000	 1.002357107928460e+001
0	 5.866659999993464e+000	 8.600030000017851e+000	 1.002168244109803e+001
0	 5.866659999993464e+000	 8.666700000016668e+000	 1.001984025967390e+001
0	 5.933329999996681e+000	 8.000000000000000e+000	 1.004030329717590e+001
0	 5.933329999996682e+000	 8.066670000003317e+000	 1.003798142350137e+001
0	 5.933329999996680e+000	 8.133340000006532e+000	 1.003572358834572e+001
0	 5.933329999996682e+000	 8.200010000009550e+000	 1.003352754184222e+001
0	 5.933329999996681e+000	 8.266680000012267e+000	 1.003139103412409e+001
0	 5.933329999996681e+000	 8.333350000014585e+000	 1.002931181532465e+001
0	 5.933329999996680e+000	 8.400020000016397e+000	 1.002728763557709e+001
0	 5.933329999996682e+000	 8.466690000017616e+000	 1.002531624501470e+001
0	 5.933329999996681e+000	 8.533360000018135e+000	 1.002339539377073e+001
0	 5.933329999996681e+000	 8.600030000017849e+000	 1.002152283197842e+001
0	 5.933329999996682e+000	 8.666700000016666e+000	 1.001969630977107e+001
0	 6.000000000000000e+000	 8.000000000000000e+000	 1.003995180183905e+001
0	 5.999999999999999e+000	 8.066670000003319e+000	 1.003765086551418e+001
0	 6.000000000000001e+000	 8.133340000006534e+000	 1.003541365635664e+001
0	 5.999999999999998e+000	 8.200010000009549e+000	 1.003323788744321e+001
0	 6.000000000000000e+000	 8.266680000012267e+000	 1.003112127185070e+001
0	 6.000000000000001e+000	 8.333350000014583e+000	 1.002906152265591e+001
0	 6.000000000000000e+000	 8.400020000016401e+000	 1.002705635293565e+001
0	 6.000000000000000e+000	 8.466690000017616e+000	 1.002510347576670e+001
0	 6.000000000000000e+000	 8.533360000018133e+000	 1.002320060422587e+001
0	 5.999999999999998e+000	 8.600030000017849e+000	 1.002134545138998e+001
0	 6.000000000000000e+000	 8.666700000016666e+000	 1.001953573033581e+001
0	 5.333299999983334e+000	 8.666700000016666e+000	 1.002023066050513e+001
0	 5.333299999983334e+000	 8.733360002791903e+000	 1.001841687049082e+001
0	 5.333299999983332e+000	 8.800020022230553e+000	 1.001669104272653e+001
0	 5.333299999983335e+000	 8.866680074997040e+000	 1.001504992194273e+001
0	 5.333299999983334e+000	 8.933340177755779e+000	 1.001349025262670e+001
0	 5.333299999983332e+000	 9.000000347171179e+000	 1.001200877902236e+001
0	 5.333299999983335e+000	 9.066660599907667e+000	 1.001060224513033e+001
0	 5.333299999983334e+000	 9.133320952629655e+000	 1.000926739470795e+001
0	 5.333299999983334e+000	 9.199981422001560e+000	 1.000800097126929e+001
0	 5.333299999983335e+000	 9.266642024687798e+000	 1.000679971808500e+001
0	 5.333299999983335e+000	 9.333302777352785e+000	 1.000566037818259e+001
0	 5.399969999982150e+000	 8.666700000016668e+000	 1.002026850742890e+001
0	 5.399969999982150e+000	 8.733360002791905e+000	 1.001844854002106e+001
0	 5.399969999982150e+000	 8.800020022230559e+000	 1.001671780163597e+001
0	 5.399969999982150e+000	 8.866680074997046e+000	 1.001507286639765e+001
0	 5.399969999982150e+000	 8.933340177755778e+000	 1.001351030818529e+001
0	 5.399969999982149e+000	 9.000000347171181e+000	 1.001202670063314e+001
0	 5.399969999982149e+000	 9.066660599907667e+000	 1.001061861713065e+001
0	 5.399969999982148e+000	 9.133320952629653e+000	 1.000928263082241e+001
0	 5.399969999982150e+000	 9.199981422001560e+000	 1.000801531460815e+001
0	 5.399969999982149e+000	 9.266642024687794e+000	 1.000681324114270e+001
0	 5.399969999982151e+000	 9.333302777352785e+000	 1.000567298283606e+001
0	 5.466639999981867e+000	 8.666700000016668e+000	 1.002027888913865e+001
0	 5.466639999981866e+000	 8.733360002791901e+000	 1.001845662543337e+001
0	 5.466639999981866e+000	 8.800020022230552e+000	 1.001672434500882e+001
0	 5.466639999981867e+000	 8.866680074997040e+000	 1.001507847927243e+001
0	 5.466639999981868e+000	 8.933340177755783e+000	 1.001351545938594e+001
0	 5.466639999981866e+000	 9.000000347171183e+000	 1.001203171626549e+001
0	 5.466639999981865e+000	 9.066660599907667e+000	 1.001062368058151e+001
0	 5.466639999981866e+000	 9.133320952629653e+000	 1.000928778275885e+001
0	 5.466639999981864e+000	 9.199981422001557e+000	 1.000802045297674e+001
0	 5.466639999981865e+000	 9.266642024687798e+000	 1.000681812116865e+001
0	 5.466639999981866e+000	 9.333302777352785e+000	 1.000567721702251e+001
0	 5.533309999982382e+000	 8.666700000016668e+000	 1.002026316009460e+001
0	 5.533309999982381e+000	 8.733360002791899e+000	 1.001844212278644e+001
0	 5.533309999982382e+000	 8.800020022230557e+000	 1.001671136979796e+001
0	 5.533309999982382e+000	 8.866680074997042e+000	 1.001506721770999e+001
0	 5.533309999982383e+000	 8.933340177755779e+000	 1.001350598285761e+001
0	 5.533309999982382e+000	 9.000000347171184e+000	 1.001202398133022e+001
0	 5.533309999982382e+000	 9.066660599907669e+000	 1.001061752897141e+001
0	 5.533309999982383e+000	 9.133320952629658e+000	 1.000928294137909e+001
0	 5.533309999982384e+000	 9.199981422001558e+000	 1.000801653390542e+001
0	 5.533309999982381e+000	 9.266642024687794e+000	 1.000681462165679e+001
0	 5.533309999982381e+000	 9.333302777352785e+000	 1.000567351949389e+001
0	 5.599979999983599e+000	 8.666700000016668e+000	 1.002022267475692e+001
0	 5.599979999983598e+000	 8.733360002791901e+000	 1.001840602813898e+001
0	 5.599979999983597e+000	 8.800020022230555e+000	 1.001667957295629e+001
0	 5.599979999983598e+000	 8.866680074997040e+000	 1.001503953885329e+001
0	 5.599979999983597e+000	 8.933340177755779e+000	 1.001348215522924e+001
0	 5.599979999983598e+000	 9.000000347171183e+000	 1.001200365123819e+001
0	 5.599979999983598e+000	 9.066660599907666e+000	 1.001060025578888e+001
0	 5.599979999983599e+000	 9.133320952629658e+000	 1.000926819754491e+001
0	 5.599979999983598e+000	 9.199981422001558e+000	 1.000800370492461e+001
0	 5.599979999983600e+000	 9.266642024687799e+000	 1.000680300610106e+001
0	 5.599979999983599e+000	 9.333302777352785e+000	 1.000566232900215e+001
0	 5.666649999985415e+000	 8.666700000016666e+000	 1.002015878758580e+001
0	 5.666649999985416e+000	 8.733360002791903e+000	 1.001834933754969e+001
0	 5.666649999985416e+000	 8.800020022230557e+000	 1.001662965143669e+001
0	 5.666649999985415e+000	 8.866680074997044e+000	 1.001499589984529e+001
0	 5.666649999985416e+000	 8.933340177755778e+000	 1.001344425312977e+001
0	 5.666649999985416e+000	 9.000000347171183e+000	 1.001197088140020e+001
0	 5.666649999985415e+000	 9.066660599907667e+000	 1.001057195452244e+001
0	 5.666649999985417e+000	 9.133320952629656e+000	 1.000924364211813e+001
0	 5.666649999985414e+000	 9.199981422001560e+000	 1.000798211356470e+001
0	 5.666649999985415e+000	 9.266642024687796e+000	 1.000678353799540e+001
0	 5.666649999985415e+000	 9.333302777352783e+000	 1.000564408429921e+001
0	 5.733319999987731e+000	 8.666700000016666e+000	 1.002007285304147e+001
0	 5.733319999987731e+000	 8.733360002791903e+000	 1.001827304707723e+001
0	 5.733319999987732e+000	 8.800020022230555e+000	 1.001656230219206e+001
0	 5.733319999987732e+000	 8.866680074997042e+000	 1.001493675782893e+001
0	 5.733319999987732e+000	 8.933340177755776e+000	 1.001339255318810e+001
0	 5.733319999987733e+000	 9.000000347171181e+000	 1.001192582722709e+001
0	 5.733319999987732e+000	 9.066660599907671e+000	 1.001053271866058e+001
0	 5.733319999987732e+000	 9.133320952629656e+000	 1.000920936596052e+001
0	 5.733319999987731e+000	 9.199981422001558e+000	 1.000795190735610e+001
0	 5.733319999987732e+000	 9.266642024687796e+000	 1.000675648083373e+001
0	 5.733319999987731e+000	 9.333302777352783e+000	 1.000561922413700e+001
0	 5.799989999990448e+000	 8.666700000016668e+000	 1.001996622558411e+001
0	 5.799989999990447e+000	 8.733360002791901e+000	 1.001817815278034e+001
0	 5.799989999990448e+000	 8.800020022230555e+000	 1.001647822217528e+001
0	 5.799989999990448e+000	 8.866680074997042e+000	 1.001486256994716e+001
0	 5.799989999990448e+000	 8.933340177755779e+000	 1.001332733203320e+001
0	 5.799989999990448e+000	 9.000000347171177e+000	 1.001186864412967e+001
0	 5.799989999990449e+000	 9.066660599907667e+000	 1.001048264169182e+001
0	 5.799989999990448e+000	 9.133320952629656e+000	 1.000916545993389e+001
0	 5.799989999990449e+000	 9.199981422001558e+000	 1.000791323382920e+001
0	 5.799989999990449e+000	 9.266642024687796e+000	 1.000672209810997e+001
0	 5.799989999990448e+000	 9.333302777352783e+000	 1.000558818726750e+001
0	 5.866659999993464e+000	 8.666700000016668e+000	 1.001984025967390e+001
0	 5.866659999993465e+000	 8.733360002791903e+000	 1.001806565071769e+001
0	 5.866659999993465e+000	 8.800020022230553e+000	 1.001637810833927e+001
0	 5.866659999993465e+000	 8.866680074997042e+000	 1.001477379334293e+001
0	 5.866659999993464e+000	 8.933340177755778e+000	 1.001324886629397e+001
0	 5.866659999993465e+000	 9.000000347171184e+000	 1.001179948751877e+001
0	 5.866659999993465e+000	 9.066660599907669e+000	 1.001042181710466e+001
0	 5.866659999993464e+000	 9.133320952629656e+000	 1.000911201490004e+001
0	 5.866659999993465e+000	 9.199981422001558e+000	 1.000786624051438e+001
0	 5.866659999993464e+000	 9.266642024687796e+000	 1.000668065331808e+001
0	 5.866659999993465e+000	 9.333302777352783e+000	 1.000555141244265e+001
0	 5.933329999996682e+000	 8.666700000016666e+000	 1.001969630977107e+001
0	 5.933329999996682e+000	 8.733360002791901e+000	 1.001793653694797e+001
0	 5.933329999996682e+000	 8.800020022230557e+000	 1.001626265763690e+001
0	 5.933329999996681e+000	 8.866680074997040e+000	 1.001467088515919e+001
0	 5.933329999996682e+000	 8.933340177755778e+000	 1.001315743259938e+001
0	 5.933329999996682e+000	 9.000000347171183e+000	 1.001171851280521e+001
0	 5.933329999996681e+000	 9.066660599907667e+000	 1.001035033838763e+001
0	 5.933329999996681e+000	 9.133320952629655e+000	 1.000904912172079e+001
0	 5.933329999996682e+000	 9.199981422001558e+000	 1.000781107494205e+001
0	 5.933329999996682e+000	 9.266642024687796e+000	 1.000663240995197e+001
0	 5.933329999996681e+000	 9.333302777352781e+000	 1.000550933841436e+001
0	 6.000000000000000e+000	 8.666700000016666e+000	 1.001953573033581e+001
0	 6.000000000000000e+000	 8.733360002791903e+000	 1.001779180752989e+001
0	 6.000000000000000e+000	 8.800020022230555e+000	 1.001613256702108e+001
0	 6.000000000000000e+000	 8.866680074997040e+000	 1.001455430253890e+001
0	 6.000000000000000e+000	 8.933340177755781e+000	 1.001305330757834e+001
0	 6.000000000000000e+000	 9.000000347171181e+000	 1.001162587539982e+001
0	 6.000000000000001e+000	 9.066660599907667e+000	 1.001026829902923e+001
0	 5.999999999999998e+000	 9.133320952629655e+000	 1.000897687125791e+001
0	 6.000000000000000e+000	 9.199981422001558e+000	 1.000774788464265e+001
0	 5.999999999999998e+000	 9.266642024687796e+000	 1.000657763150563e+001
0	 6.000000000000000e+000	 9.333302777352783e+000	 1.000546240393458e+001
0	 5.333299999983335e+000	 9.333302777352785e+000	 1.000566037818259e+001
0	 5.333299999983335e+000	 9.399973674588175e+000	 1.000461270492333e+001
0	 5.333299999983333e+000	 9.466644621844619e+000	 1.000368481414944e+001
0	 5.333299999983335e+000	 9.533315502450002e+000	 1.000287049492426e+001
0	 5.333299999983334e+000	 9.599986199732197e+000	 1.000216353872130e+001
0	 5.333299999983335e+000	 9.666656597019097e+000	 1.000155773942432e+001
0	 5.333299999983334e+000	 9.733326577638577e+000	 1.000104689332724e+001
0	 5.333299999983334e+000	 9.799996024918524e+000	 1.000062479913419e+001
0	 5.333299999983334e+000	 9.866664822186822e+000	 1.000028525795958e+001
0	 5.333299999983334e+000	 9.933332852771354e+000	 1.000002207332842e+001
0	 5.333299999983334e+000	 1.000000000000000e+001	 9.999829051176276e+000
0	 5.399969999982151e+000	 9.333302777352785e+000	 1.000567298283606e+001
0	 5.399969999982150e+000	 9.399973674588175e+000	 1.000462378926553e+001
0	 5.399969999982151e+000	 9.466644621844621e+000	 1.000369359743220e+001
0	 5.399969999982151e+000	 9.533315502449996e+000	 1.000287651273571e+001
0	 5.399969999982152e+000	 9.599986199732198e+000	 1.000216664298811e+001
0	 5.399969999982150e+000	 9.666656597019093e+000	 1.000155809841395e+001
0	 5.399969999982148e+000	 9.733326577638573e+000	 1.000104499165025e+001
0	 5.399969999982150e+000	 9.799996024918521e+000	 1.000062143774644e+001
0	 5.399969999982150e+000	 9.866664822186824e+000	 1.000028155416457e+001
0	 5.399969999982150e+000	 9.933332852771352e+000	 1.000001946077936e+001
0	 5.399969999982149e+000	 1.000000000000000e+001	 9.999829279878671e+000
0	 5.466639999981866e+000	 9.333302777352785e+000	 1.000567721702251e+001
0	 5.466639999981865e+000	 9.399973674588175e+000	 1.000462681336635e+001
0	 5.466639999981866e+000	 9.466644621844617e+000	 1.000369494984196e+001
0	 5.466639999981866e+000	 9.533315502449996e+000	 1.000287600781418e+001
0	 5.466639999981865e+000	 9.599986199732198e+000	 1.000216437106379e+001
0	 5.466639999981867e+000	 9.666656597019093e+000	 1.000155442578734e+001
0	 5.466639999981867e+000	 9.733326577638577e+000	 1.000104056059704e+001
0	 5.466639999981867e+000	 9.799996024918523e+000	 1.000061716652102e+001
0	 5.466639999981866e+000	 9.866664822186820e+000	 1.000027863700325e+001
0	 5.466639999981867e+000	 9.933332852771352e+000	 1.000001936790379e+001
0	 5.466639999981866e+000	 1.000000000000000e+001	 9.999833757499070e+000
0	 5.533309999982381e+000	 9.333302777352785e+000	 1.000567351949389e+001
0	 5.533309999982384e+000	 9.399973674588178e+000	 1.000462238861850e+001
0	 5.533309999982383e+000	 9.466644621844624e+000	 1.000368959082260e+001
0	 5.533309999982382e+000	 9.533315502450002e+000	 1.000286974306599e+001
0	 5.533309999982383e+000	 9.599986199732197e+000	 1.000215746472802e+001
0	 5.533309999982381e+000	 9.666656597019092e+000	 1.000154737760755e+001
0	 5.533309999982381e+000	 9.733326577638572e+000	 1.000103410592285e+001
0	 5.533309999982383e+000	 9.799996024918526e+000	 1.000061227631176e+001
0	 5.533309999982384e+000	 9.866664822186825e+000	 1.000027651783175e+001
0	 5.533309999982382e+000	 9.933332852771352e+000	 1.000002146196006e+001
0	 5.533309999982383e+000	 1.000000000000000e+001	 9.999841742594054e+000
0	 5.599979999983599e+000	 9.333302777352785e+000	 1.000566232900215e+001
0	 5.599979999983598e+000	 9.399973674588177e+000	 1.000461112641462e+001
0	 5.599979999983598e+000	 9.466644621844619e+000	 1.000367823981813e+001
0	 5.599979999983598e+000	 9.533315502450002e+000	 1.000285848139746e+001
0	 5.599979999983598e+000	 9.599986199732197e+000	 1.000214666576049e+001
0	 5.599979999983598e+000	 9.666656597019093e+000	 1.000153760993778e+001
0	 5.599979999983599e+000	 9.733326577638577e+000	 1.000102613338297e+001
0	 5.599979999983598e+000	 9.799996024918526e+000	 1.000060705797260e+001
0	 5.599979999983600e+000	 9.866664822186820e+000	 1.000027520800624e+001
0	 5.599979999983598e+000	 9.933332852771351e+000	 1.000002541020674e+001
0	 5.599979999983598e+000	 1.000000000000000e+001	 9.999852493720512e+000
0	 5.666649999985415e+000	 9.333302777352783e+000	 1.000564408429921e+001
0	 5.666649999985416e+000	 9.399973674588177e+000	 1.000459363814738e+001
0	 5.666649999985415e+000	 9.466644621844619e+000	 1.000366161627247e+001
0	 5.666649999985415e+000	 9.533315502450000e+000	 1.000284298571495e+001
0	 5.666649999985414e+000	 9.599986199732197e+000	 1.000213271594076e+001
0	 5.666649999985413e+000	 9.666656597019092e+000	 1.000152577884111e+001
0	 5.666649999985414e+000	 9.733326577638577e+000	 1.000101714873262e+001
0	 5.666649999985416e+000	 9.799996024918523e+000	 1.000060180235732e+001
0	 5.666649999985417e+000	 9.866664822186827e+000	 1.000027471888278e+001
0	 5.666649999985414e+000	 9.933332852771354e+000	 1.000003087990228e+001
0	 5.666649999985415e+000	 1.000000000000000e+001	 9.999865269435098e+000
0	 5.733319999987731e+000	 9.333302777352783e+000	 1.000561922413700e+001
0	 5.733319999987730e+000	 9.399973674588175e+000	 1.000457053520945e+001
0	 5.733319999987733e+000	 9.466644621844621e+000	 1.000364043962959e+001
0	 5.733319999987731e+000	 9.533315502449998e+000	 1.000282401892478e+001
0	 5.733319999987731e+000	 9.599986199732197e+000	 1.000211635704857e+001
0	 5.733319999987731e+000	 9.666656597019093e+000	 1.000151254038070e+001
0	 5.733319999987730e+000	 9.733326577638575e+000	 1.000100765772709e+001
0	 5.733319999987732e+000	 9.799996024918523e+000	 1.000059680031987e+001
0	 5.733319999987732e+000	 9.866664822186822e+000	 1.000027506181751e+001
0	 5.733319999987733e+000	 9.933332852771356e+000	 1.000003753830519e+001
0	 5.733319999987732e+000	 1.000000000000000e+001	 9.999879328294647e+000
0	 5.799989999990448e+000	 9.333302777352783e+000	 1.000558818726750e+001
0	 5.799989999990448e+000	 9.399973674588178e+000	 1.000454242899349e+001
0	 5.799989999990448e+000	 9.466644621844621e+000	 1.000361542933342e+001
0	 5.799989999990449e+000	 9.533315502450002e+000	 1.000280234393322e+001
0	 5.799989999990450e+000	 9.599986199732200e+000	 1.000209833086354e+001
0	 5.799989999990449e+000	 9.666656597019097e+000	 1.000149855061969e+001
0	 5.799989999990448e+000	 9.733326577638575e+000	 1.000099816612162e+001
0	 5.799989999990448e+000	 9.799996024918526e+000	 1.000059234271409e+001
0	 5.799989999990448e+000	 9.866664822186824e+000	 1.000027624816664e+001
0	 5.799989999990448e+000	 9.933332852771352e+000	 1.000004505267388e+001
0	 5.799989999990449e+000	 1.000000000000000e+001	 9.999893928855830e+000
0	 5.866659999993465e+000	 9.333302777352783e+000	 1.000555141244265e+001
0	 5.866659999993463e+000	 9.399973674588175e+000	 1.000450993089219e+001
0	 5.866659999993466e+000	 9.466644621844624e+000	 1.000358730482790e+001
0	 5.866659999993463e+000	 9.533315502450002e+000	 1.000277872364662e+001
0	 5.866659999993465e+000	 9.599986199732197e+000	 1.000207937916531e+001
0	 5.866659999993464e+000	 9.666656597019095e+000	 1.000148446562117e+001
0	 5.866659999993464e+000	 9.733326577638575e+000	 1.000098917967150e+001
0	 5.866659999993464e+000	 9.799996024918523e+000	 1.000058872039389e+001
0	 5.866659999993464e+000	 9.866664822186822e+000	 1.000027828928621e+001
0	 5.866659999993464e+000	 9.933332852771354e+000	 1.000005309026697e+001
0	 5.866659999993464e+000	 1.000000000000000e+001	 9.999908329675495e+000
0	 5.933329999996681e+000	 9.333302777352781e+000	 1.000550933841436e+001
0	 5.933329999996682e+000	 9.399973674588177e+000	 1.000447365229822e+001
0	 5.933329999996681e+000	 9.466644621844619e+000	 1.000355678555702e+001
0	 5.933329999996681e+000	 9.533315502450000e+000	 1.000275392097131e+001
0	 5.933329999996682e+000	 9.599986199732197e+000	 1.000206024373357e+001
0	 5.933329999996682e+000	 9.666656597019093e+000	 1.000147094144834e+001
0	 5.933329999996681e+000	 9.733326577638575e+000	 1.000098120413201e+001
0	 5.933329999996681e+000	 9.799996024918523e+000	 1.000058622421314e+001
0	 5.933329999996682e+000	 9.866664822186820e+000	 1.000028119653236e+001
0	 5.933329999996682e+000	 9.933332852771354e+000	 1.000006131834287e+001
0	 5.933329999996681e+000	 9.999999999999998e+000	 9.999921789310294e+000
0	 6.000000000000000e+000	 9.333302777352783e+000	 1.000546240393458e+001
0	 6.000000000000002e+000	 9.399973674588175e+000	 1.000443420460422e+001
0	 5.999999999999998e+000	 9.466644621844619e+000	 1.000352459096470e+001
0	 6.000000000000001e+000	 9.533315502450000e+000	 1.000272869881361e+001
0	 6.000000000000001e+000	 9.599986199732197e+000	 1.000204166634798e+001
0	 6.000000000000001e+000	 9.666656597019093e+000	 1.000145863416427e+001
0	 6.000000000000002e+000	 9.733326577638577e+000	 1.000097474525838e+001
0	 6.000000000000000e+000	 9.799996024918523e+000	 1.000058514502569e+001
0	 6.000000000000000e+000	 9.866664822186824e+000	 1.000028498126124e+001
0	 6.000000000000000e+000	 9.933332852771352e+000	 1.000006940416004e+001
0	 6.000000000000000e+000	 1.000000000000000e+001	 9.999933566317045e+000
0	 6.000000000000000e+000	 0.000000000000000e+000	 1.018475846119813e+001
0	 6.000000000000001e+000	 6.666714722864757e-002	 1.018303901766927e+001
0	 6.000000000000000e+000	 1.333351778131789e-001	 1.018168350879956e+001
0	 6.000000000000000e+000	 2.000039750814772e-001	 1.018065308652076e+001
0	 6.000000000000001e+000	 2.666734223614256e-001	 1.017990890478971e+001
0	 6.000000000000000e+000	 3.333434029809069e-001	 1.017941211958828e+001
0	 6.000000000000001e+000	 4.000138002678044e-001	 1.017912388892332e+001
0	 5.999999999999998e+000	 4.666844975500010e-001	 1.017900537282666e+001
0	 6.000000000000000e+000	 5.333553781553804e-001	 1.017901773335518e+001
0	 6.000000000000000e+000	 6.000263254118248e-001	 1.017912213459093e+001
0	 6.000000000000000e+000	 6.666972226472177e-001	 1.017927974264128e+001
0	 6.066670000003317e+000	 0.000000000000000e+000	 1.018050130379283e+001
0	 6.066670000003317e+000	 6.666714722864756e-002	 1.017932284883416e+001
0	 6.066670000003318e+000	 1.333351778131789e-001	 1.017832675886718e+001
0	 6.066670000003317e+000	 2.000039750814773e-001	 1.017749169624091e+001
0	 6.066670000003315e+000	 2.666734223614255e-001	 1.017679632557868e+001
0	 6.066670000003317e+000	 3.333434029809069e-001	 1.017621931377791e+001
0	 6.066670000003316e+000	 4.000138002678045e-001	 1.017573933001002e+001
0	 6.066670000003315e+000	 4.666844975500010e-001	 1.017533504572030e+001
0	 6.066670000003319e+000	 5.333553781553804e-001	 1.017498513462793e+001
0	 6.066670000003317e+000	 6.000263254118247e-001	 1.017466827272605e+001
0	 6.066670000003317e+000	 6.666972226472177e-001	 1.017436313828181e+001
0	 6.133340000006534e+000	 0.000000000000000e+000	 1.017464802303231e+001
0	 6.133340000006531e+000	 6.666714722864754e-002	 1.017398120447965e+001
0	 6.133340000006535e+000	 1.333351778131790e-001	 1.017336102102344e+001
0	 6.133340000006532e+000	 2.000039750814772e-001	 1.017278106259246e+001
0	 6.133340000006532e+000	 2.666734223614256e-001	 1.017223492177403e+001
0	 6.133340000006531e+000	 3.333434029809068e-001	 1.017171619381365e+001
0	 6.133340000006532e+000	 4.000138002678043e-001	 1.017121847661485e+001
0	 6.133340000006533e+000	 4.666844975500012e-001	 1.017073537073903e+001
0	 6.133340000006534e+000	 5.333553781553803e-001	 1.017026047940536e+001
0	 6.133340000006532e+000	 6.000263254118246e-001	 1.016978740849079e+001
0	 6.133340000006532e+000	 6.666972226472175e-001	 1.016930976653012e+001
0	 6.200010000009550e+000	 0.000000000000000e+000	 1.016752643084411e+001
0	 6.200010000009550e+000	 6.666714722864758e-002	 1.016732392317183e+001
0	 6.200010000009550e+000	 1.333351778131789e-001	 1.016707431715329e+001
0	 6.200010000009549e+000	 2.000039750814772e-001	 1.016678354748767e+001
0	 6.200010000009550e+000	 2.666734223614256e-001	 1.016645755201153e+001
0	 6.200010000009550e+000	 3.333434029809069e-001	 1.016610227169843e+001
0	 6.200010000009551e+000	 4.000138002678044e-001	 1.016572365065868e+001
0	 6.200010000009549e+000	 4.666844975500010e-001	 1.016532763613911e+001
0	 6.200010000009550e+000	 5.333553781553801e-001	 1.016492017852290e+001
0	 6.200010000009551e+000	 6.000263254118248e-001	 1.016450723132966e+001
0	 6.200010000009549e+000	 6.666972226472177e-001	 1.016409475121533e+001
0	 6.266680000012268e+000	 0.000000000000000e+000	 1.015946433915582e+001
0	 6.266680000012266e+000	 6.666714722864753e-002	 1.015966084347683e+001
0	 6.266680000012265e+000	 1.333351778131789e-001	 1.015975466914172e+001
0	 6.266680000012266e+000	 2.000039750814772e-001	 1.015976151283880e+001
0	 6.266680000012265e+000	 2.666734223614255e-001	 1.015969707492695e+001
0	 6.266680000012265e+000	 3.333434029809068e-001	 1.015957705943522e+001
0	 6.266680000012268e+000	 4.000138002678045e-001	 1.015941717406239e+001
0	 6.266680000012266e+000	 4.666844975500011e-001	 1.015923313017678e+001
0	 6.266680000012268e+000	 5.333553781553803e-001	 1.015904064281606e+001
0	 6.266680000012265e+000	 6.000263254118247e-001	 1.015885543068722e+001
0	 6.266680000012268e+000	 6.666972226472177e-001	 1.015869321616655e+001
0	 6.333350000014583e+000	 0.000000000000000e+000	 1.015078955989499e+001
0	 6.333350000014582e+000	 6.666714722864756e-002	 1.015130180396077e+001
0	 6.333350000014583e+000	 1.333351778131790e-001	 1.015169009887368e+001
0	 6.333350000014582e+000	 2.000039750814773e-001	 1.015197732055808e+001
0	 6.333350000014582e+000	 2.666734223614257e-001	 1.015218634915607e+001
0	 6.333350000014582e+000	 3.333434029809068e-001	 1.015234006902695e+001
0	 6.333350000014582e+000	 4.000138002678044e-001	 1.015246136874683e+001
0	 6.333350000014582e+000	 4.666844975500012e-001	 1.015257314110830e+001
0	 6.333350000014582e+000	 5.333553781553800e-001	 1.015269828312029e+001
0	 6.333350000014583e+000	 6.000263254118248e-001	 1.015285969600802e+001
0	 6.333350000014584e+000	 6.666972226472179e-001	 1.015308028521294e+001
0	 6.400020000016400e+000	 0.000000000000000e+000	 1.014182990498919e+001
0	 6.400020000016401e+000	 6.666714722864756e-002	 1.014255664318978e+001
0	 6.400020000016398e+000	 1.333351778131789e-001	 1.014316862823415e+001
0	 6.400020000016401e+000	 2.000039750814772e-001	 1.014369333255779e+001
0	 6.400020000016400e+000	 2.666734223614256e-001	 1.014415823333466e+001
0	 6.400020000016399e+000	 3.333434029809069e-001	 1.014459081247659e+001
0	 6.400020000016401e+000	 4.000138002678044e-001	 1.014501855663287e+001
0	 6.400020000016400e+000	 4.666844975500012e-001	 1.014546895718990e+001
0	 6.400020000016396e+000	 5.333553781553801e-001	 1.014596951027106e+001
0	 6.400020000016400e+000	 6.000263254118248e-001	 1.014654771673657e+001
0	 6.400020000016400e+000	 6.666972226472179e-001	 1.014723108218358e+001
0	 6.466690000017615e+000	 0.000000000000000e+000	 1.013291318636603e+001
0	 6.466690000017613e+000	 6.666714722864756e-002	 1.013373519972998e+001
0	 6.466690000017615e+000	 1.333351778131790e-001	 1.013447827910810e+001
0	 6.466690000017614e+000	 2.000039750814772e-001	 1.013517191075019e+001
0	 6.466690000017617e+000	 2.666734223614255e-001	 1.013584558609849e+001
0	 6.466690000017617e+000	 3.333434029809070e-001	 1.013652880178706e+001
0	 6.466690000017615e+000	 4.000138002678044e-001	 1.013725105964136e+001
0	 6.466690000017615e+000	 4.666844975500011e-001	 1.013804186667783e+001
0	 6.466690000017615e+000	 5.333553781553801e-001	 1.013893073510381e+001
0	 6.466690000017616e+000	 6.000263254118248e-001	 1.013994718231741e+001
0	 6.466690000017614e+000	 6.666972226472175e-001	 1.014112073090759e+001
0	 6.533360000018132e+000	 0.000000000000000e+000	 1.012436721595310e+001
0	 6.533360000018130e+000	 6.666714722864756e-002	 1.012514731214751e+001
0	 6.533360000018132e+000	 1.333351778131789e-001	 1.012590707338051e+001
0	 6.533360000018132e+000	 2.000039750814772e-001	 1.012667541704754e+001
0	 6.533360000018133e+000	 2.666734223614256e-001	 1.012748126608333e+001
0	 6.533360000018132e+000	 3.333434029809069e-001	 1.012835354896133e+001
0	 6.533360000018131e+000	 4.000138002678044e-001	 1.012932119969315e+001
0	 6.533360000018132e+000	 4.666844975500012e-001	 1.013041315782831e+001
0	 6.533360000018133e+000	 5.333553781553801e-001	 1.013165836845401e+001
0	 6.533360000018131e+000	 6.000263254118248e-001	 1.013308578219507e+001
0	 6.533360000018131e+000	 6.666972226472177e-001	 1.013472435521410e+001
0	 6.600030000017848e+000	 0.000000000000000e+000	 1.011651980567796e+001
0	 6.600030000017849e+000	 6.666714722864757e-002	 1.011710281900852e+001
0	 6.600030000017847e+000	 1.333351778131789e-001	 1.011774303293637e+001
0	 6.600030000017847e+000	 2.000039750814772e-001	 1.011846621336209e+001
0	 6.600030000017848e+000	 2.666734223614255e-001	 1.011929813192496e+001
0	 6.600030000017847e+000	 3.333434029809069e-001	 1.012026456600232e+001
0	 6.600030000017848e+000	 4.000138002678044e-001	 1.012139129870912e+001
0	 6.600030000017848e+000	 4.666844975500012e-001	 1.012270411889759e+001
0	 6.600030000017847e+000	 5.333553781553803e-001	 1.012422882115710e+001
0	 6.600030000017847e+000	 6.000263254118248e-001	 1.012599120581407e+001
0	 6.600030000017847e+000	 6.666972226472178e-001	 1.012801707893219e+001
0	 6.666700000016666e+000	 0.000000000000000e+000	 1.010969876746825e+001
0	 6.666700000016668e+000	 6.666714722864757e-002	 1.010991155887912e+001
0	 6.666700000016666e+000	 1.333351778131790e-001	 1.011027417966063e+001
0	 6.666700000016665e+000	 2.000039750814772e-001	 1.011080666160611e+001
0	 6.666700000016667e+000	 2.666734223614256e-001	 1.011152904225913e+001
0	 6.666700000016667e+000	 3.333434029809069e-001	 1.011246136491297e+001
0	 6.666700000016666e+000	 4.000138002678044e-001	 1.011362367861010e+001
0	 6.666700000016665e+000	 4.666844975500010e-001	 1.011503603814191e+001
0	 6.666700000016668e+000	 5.333553781553803e-001	 1.011671850404854e+001
0	 6.666700000016667e+000	 6.000263254118248e-001	 1.011869114261894e+001
0	 6.666700000016666e+000	 6.666972226472178e-001	 1.012097402589096e+001
0	 6.000000000000000e+000	 6.666972226472177e-001	 1.017927974264128e+001
0	 6.000000000000000e+000	 7.333579753122046e-001	 1.017965571470021e+001
0	 6.000000000000000e+000	 8.000185779984417e-001	 1.018044435351180e+001
0	 6.000000000000002e+000	 8.666790473703454e-001	 1.018165046730175e+001
0	 6.000000000000000e+000	 9.333394000923323e-001	 1.018327886341626e+001
0	 5.999999999999999e+000	 9.999996528288190e-001	 1.018533434832199e+001
0	 6.000000000000000e+000	 1.066659822244222e+000	 1.018782172760615e+001
0	 6.000000000000001e+000	 1.133319925002959e+000	 1.019074580597640e+001
0	 6.000000000000000e+000	 1.199979977769445e+000	 1.019411138726092e+001
0	 6.000000000000000e+000	 1.266639997208098e+000	 1.019792327440838e+001
0	 6.000000000000000e+000	 1.333299999983334e+000	 1.020218626948794e+001
0	 6.066670000003317e+000	 6.666972226472177e-001	 1.017436313828181e+001
0	 6.066670000003316e+000	 7.333579753122046e-001	 1.017427230980826e+001
0	 6.066670000003316e+000	 8.000185779984416e-001	 1.017461995780104e+001
0	 6.066670000003316e+000	 8.666790473703451e-001	 1.017541728733475e+001
0	 6.066670000003317e+000	 9.333394000923321e-001	 1.017667550250389e+001
0	 6.066670000003318e+000	 9.999996528288190e-001	 1.017840580642295e+001
0	 6.066670000003317e+000	 1.066659822244222e+000	 1.018061940122632e+001
0	 6.066670000003319e+000	 1.133319925002959e+000	 1.018332748806832e+001
0	 6.066670000003316e+000	 1.199979977769445e+000	 1.018654126712323e+001
0	 6.066670000003317e+000	 1.266639997208098e+000	 1.019027193758522e+001
0	 6.066670000003319e+000	 1.333299999983334e+000	 1.019453069766842e+001
0	 6.133340000006532e+000	 6.666972226472175e-001	 1.016930976653012e+001
0	 6.133340000006531e+000	 7.333579753122045e-001	 1.016903338333243e+001
0	 6.133340000006534e+000	 8.000185779984415e-001	 1.016917916197279e+001
0	 6.133340000006532e+000	 8.666790473703452e-001	 1.016976353903994e+001
0	 6.133340000006530e+000	 9.333394000923321e-001	 1.017080295011801e+001
0	 6.133340000006535e+000	 9.999996528288190e-001	 1.017231382978658e+001
0	 6.133340000006534e+000	 1.066659822244222e+000	 1.017431261162056e+001
0	 6.133340000006535e+000	 1.133319925002959e+000	 1.017681572819033e+001
0	 6.133340000006535e+000	 1.199979977769445e+000	 1.017983961106156e+001
0	 6.133340000006533e+000	 1.266639997208098e+000	 1.018340069079540e+001
0	 6.133340000006530e+000	 1.333299999983334e+000	 1.018751539694836e+001
0	 6.200010000009549e+000	 6.666972226472177e-001	 1.016409475121533e+001
0	 6.200010000009550e+000	 7.333579753122048e-001	 1.016386400726531e+001
0	 6.200010000009550e+000	 8.000185779984417e-001	 1.016400584187442e+001
0	 6.200010000009550e+000	 8.666790473703455e-001	 1.016454075789814e+001
0	 6.200010000009551e+000	 9.333394000923322e-001	 1.016548925722561e+001
0	 6.200010000009550e+000	 9.999996528288186e-001	 1.016687184077955e+001
0	 6.200010000009550e+000	 1.066659822244222e+000	 1.016870900851629e+001
0	 6.200010000009550e+000	 1.133319925002959e+000	 1.017102125942573e+001
0	 6.200010000009549e+000	 1.199979977769445e+000	 1.017382909153137e+001
0	 6.200010000009551e+000	 1.266639997208098e+000	 1.017715300189032e+001
0	 6.200010000009550e+000	 1.333299999983334e+000	 1.018101348659325e+001
0	 6.266680000012268e+000	 6.666972226472177e-001	 1.015869321616656e+001
0	 6.266680000012268e+000	 7.333579753122048e-001	 1.015868925359947e+001
0	 6.266680000012267e+000	 8.000185779984417e-001	 1.015898387335324e+001
0	 6.266680000012267e+000	 8.666790473703454e-001	 1.015960047939012e+001
0	 6.266680000012265e+000	 9.333394000923319e-001	 1.016056247479364e+001
0	 6.266680000012265e+000	 9.999996528288190e-001	 1.016189326176853e+001
0	 6.266680000012266e+000	 1.066659822244222e+000	 1.016361624164085e+001
0	 6.266680000012266e+000	 1.133319925002959e+000	 1.016575481485787e+001
0	 6.266680000012266e+000	 1.199979977769445e+000	 1.016833238098810e+001
0	 6.266680000012266e+000	 1.266639997208098e+000	 1.017137233872134e+001
0	 6.266680000012264e+000	 1.333299999983334e+000	 1.017489808586863e+001
0	 6.333350000014584e+000	 6.666972226472179e-001	 1.015308028521294e+001
0	 6.333350000014582e+000	 7.333579753122047e-001	 1.015343419432747e+001
0	 6.333350000014582e+000	 8.000185779984416e-001	 1.015399713225663e+001
0	 6.333350000014582e+000	 8.666790473703452e-001	 1.015479423899671e+001
0	 6.333350000014582e+000	 9.333394000923322e-001	 1.015585065378907e+001
0	 6.333350000014582e+000	 9.999996528288190e-001	 1.015719151512020e+001
0	 6.333350000014582e+000	 1.066659822244222e+000	 1.015884196072165e+001
0	 6.333350000014585e+000	 1.133319925002959e+000	 1.016082712757008e+001
0	 6.333350000014584e+000	 1.199979977769445e+000	 1.016317215188720e+001
0	 6.333350000014583e+000	 1.266639997208098e+000	 1.016590216913986e+001
0	 6.333350000014582e+000	 1.333299999983334e+000	 1.016904231403998e+001
0	 6.400020000016400e+000	 6.666972226472179e-001	 1.014723108218358e+001
0	 6.400020000016400e+000	 7.333579753122049e-001	 1.014802390144190e+001
0	 6.400020000016401e+000	 8.000185779984418e-001	 1.014892949443192e+001
0	 6.400020000016400e+000	 8.666790473703454e-001	 1.014997357219866e+001
0	 6.400020000016401e+000	 9.333394000923323e-001	 1.015118184517887e+001
0	 6.400020000016400e+000	 9.999996528288190e-001	 1.015258002320121e+001
0	 6.400020000016400e+000	 1.066659822244222e+000	 1.015419381548606e+001
0	 6.400020000016401e+000	 1.133319925002959e+000	 1.015604893064568e+001
0	 6.400020000016400e+000	 1.199979977769445e+000	 1.015817107668412e+001
0	 6.400020000016399e+000	 1.266639997208098e+000	 1.016058596099726e+001
0	 6.400020000016399e+000	 1.333299999983334e+000	 1.016331929037281e+001
0	 6.466690000017614e+000	 6.666972226472175e-001	 1.014112073090759e+001
0	 6.466690000017617e+000	 7.333579753122049e-001	 1.014238344693530e+001
0	 6.466690000017615e+000	 8.000185779984416e-001	 1.014366483572645e+001
0	 6.466690000017614e+000	 8.666790473703451e-001	 1.014499001447676e+001
0	 6.466690000017615e+000	 9.333394000923321e-001	 1.014638409993001e+001
0	 6.466690000017617e+000	 9.999996528288190e-001	 1.014787220837820e+001
0	 6.466690000017616e+000	 1.066659822244222e+000	 1.014947945566145e+001
0	 6.466690000017616e+000	 1.133319925002959e+000	 1.015123095716800e+001
0	 6.466690000017617e+000	 1.199979977769445e+000	 1.015315182783429e+001
0	 6.466690000017614e+000	 1.266639997208098e+000	 1.015526718214492e+001
0	 6.466690000017616e+000	 1.333299999983334e+000	 1.015760213413260e+001
0	 6.533360000018131e+000	 6.666972226472177e-001	 1.013472435521410e+001
0	 6.533360000018132e+000	 7.333579753122047e-001	 1.013643790280024e+001
0	 6.533360000018133e+000	 8.000185779984416e-001	 1.013808703198756e+001
0	 6.533360000018130e+000	 8.666790473703452e-001	 1.013969510131178e+001
0	 6.533360000018132e+000	 9.333394000923322e-001	 1.014128546900943e+001
0	 6.533360000018133e+000	 9.999996528288193e-001	 1.014288149301785e+001
0	 6.533360000018132e+000	 1.066659822244222e+000	 1.014450653097518e+001
0	 6.533360000018131e+000	 1.133319925002959e+000	 1.014618394022036e+001
0	 6.533360000018132e+000	 1.199979977769445e+000	 1.014793707779317e+001
0	 6.533360000018132e+000	 1.266639997208098e+000	 1.014978930043421e+001
0	 6.533360000018132e+000	 1.333299999983334e+000	 1.015176396458489e+001
0	 6.600030000017847e+000	 6.666972226472178e-001	 1.012801707893219e+001
0	 6.600030000017847e+000	 7.333579753122049e-001	 1.013011234102930e+001
0	 6.600030000017847e+000	 8.000185779984416e-001	 1.013207995906257e+001
0	 6.600030000017847e+000	 8.666790473703452e-001	 1.013394036818452e+001
0	 6.600030000017847e+000	 9.333394000923322e-001	 1.013571400338410e+001
0	 6.600030000017849e+000	 9.999996528288190e-001	 1.013742129948680e+001
0	 6.600030000017849e+000	 1.066659822244222e+000	 1.013908269115462e+001
0	 6.600030000017849e+000	 1.133319925002959e+000	 1.014071861288607e+001
0	 6.600030000017847e+000	 1.199979977769445e+000	 1.014234949901618e+001
0	 6.600030000017848e+000	 1.266639997208098e+000	 1.014399578371650e+001
0	 6.600030000017847e+000	 1.333299999983334e+000	 1.014567790099513e+001
0	 6.666700000016666e+000	 6.666972226472178e-001	 1.012097402589096e+001
0	 6.666700000016667e+000	 7.333579753122047e-001	 1.012333183361501e+001
0	 6.666700000016665e+000	 8.000185779984416e-001	 1.012552749279883e+001
0	 6.666700000016667e+000	 8.666790473703454e-001	 1.012757735057573e+001
0	 6.666700000016666e+000	 9.333394000923321e-001	 1.012949775402096e+001
0	 6.666700000016667e+000	 9.999996528288189e-001	 1.013130505015171e+001
0	 6.666700000016666e+000	 1.066659822244222e+000	 1.013301558592717e+001
0	 6.666700000016666e+000	 1.133319925002959e+000	 1.013464570824846e+001
0	 6.666700000016666e+000	 1.199979977769445e+000	 1.013621176395876e+001
0	 6.666700000016665e+000	 1.266639997208098e+000	 1.013773009984318e+001
0	 6.666700000016665e+000	 1.333299999983334e+000	 1.013921706262885e+001
0	 6.000000000000000e+000	 1.333299999983334e+000	 1.020218626948794e+001
0	 5.999999999999999e+000	 1.399969999982150e+000	 1.020651013818436e+001
0	 6.000000000000000e+000	 1.466639999981866e+000	 1.021051110078010e+001
0	 6.000000000000000e+000	 1.533309999982383e+000	 1.021420566135067e+001
0	 6.000000000000001e+000	 1.599979999983600e+000	 1.021761032397161e+001
0	 6.000000000000000e+000	 1.666649999985416e+000	 1.022074159271842e+001
0	 6.000000000000002e+000	 1.733319999987733e+000	 1.022361597166663e+001
0	 6.000000000000000e+000	 1.799989999990450e+000	 1.022624996489174e+001
0	 5.999999999999998e+000	 1.866659999993466e+000	 1.022866007646928e+001
0	 6.000000000000000e+000	 1.933329999996683e+000	 1.023086281047475e+001
0	 5.999999999999999e+000	 2.000000000000000e+000	 1.023287467098366e+001
0	 6.066670000003319e+000	 1.333299999983334e+000	 1.019453069766842e+001
0	 6.066670000003316e+000	 1.399969999982150e+000	 1.019887977585634e+001
0	 6.066670000003318e+000	 1.466639999981867e+000	 1.020288394516664e+001
0	 6.066670000003318e+000	 1.533309999982383e+000	 1.020656025702513e+001
0	 6.066670000003317e+000	 1.599979999983599e+000	 1.020992576285764e+001
0	 6.066670000003314e+000	 1.666649999985416e+000	 1.021299751408996e+001
0	 6.066670000003318e+000	 1.733319999987733e+000	 1.021579256214792e+001
0	 6.066670000003318e+000	 1.799989999990450e+000	 1.021832795845731e+001
0	 6.066670000003316e+000	 1.866659999993467e+000	 1.022062075444395e+001
0	 6.066670000003319e+000	 1.933329999996683e+000	 1.022268800153365e+001
0	 6.066670000003317e+000	 2.000000000000000e+000	 1.022454675115220e+001
0	 6.133340000006530e+000	 1.333299999983334e+000	 1.018751539694836e+001
0	 6.133340000006534e+000	 1.399969999982150e+000	 1.019173617310516e+001
0	 6.133340000006535e+000	 1.466639999981866e+000	 1.019561475209748e+001
0	 6.133340000006532e+000	 1.533309999982383e+000	 1.019916847544470e+001
0	 6.133340000006532e+000	 1.599979999983599e+000	 1.020241468466615e+001
0	 6.133340000006535e+000	 1.666649999985416e+000	 1.020537072128120e+001
0	 6.133340000006533e+000	 1.733319999987733e+000	 1.020805392680919e+001
0	 6.133340000006532e+000	 1.799989999990450e+000	 1.021048164276947e+001
0	 6.133340000006534e+000	 1.866659999993467e+000	 1.021267121068141e+001
0	 6.133340000006535e+000	 1.933329999996683e+000	 1.021463997206433e+001
0	 6.133340000006534e+000	 2.000000000000000e+000	 1.021640526843760e+001
0	 6.200010000009550e+000	 1.333299999983334e+000	 1.018101348659325e+001
0	 6.200010000009550e+000	 1.399969999982150e+000	 1.018498424800670e+001
0	 6.200010000009550e+000	 1.466639999981866e+000	 1.018863566701882e+001
0	 6.200010000009551e+000	 1.533309999982383e+000	 1.019198511798575e+001
0	 6.200010000009549e+000	 1.599979999983599e+000	 1.019504997526363e+001
0	 6.200010000009550e+000	 1.666649999985416e+000	 1.019784761320862e+001
0	 6.200010000009550e+000	 1.733319999987733e+000	 1.020039540617687e+001
0	 6.200010000009550e+000	 1.799989999990450e+000	 1.020271072852449e+001
0	 6.200010000009550e+000	 1.866659999993467e+000	 1.020481095460761e+001
0	 6.200010000009549e+000	 1.933329999996683e+000	 1.020671345878241e+001
0	 6.200010000009550e+000	 2.000000000000000e+000	 1.020843561540498e+001
0	 6.266680000012264e+000	 1.333299999983334e+000	 1.017489808586863e+001
0	 6.266680000012269e+000	 1.399969999982150e+000	 1.017852891863686e+001
0	 6.266680000012268e+000	 1.466639999981866e+000	 1.018187883537680e+001
0	 6.266680000012267e+000	 1.533309999982383e+000	 1.018496498602466e+001
0	 6.266680000012265e+000	 1.599979999983599e+000	 1.018780452051658e+001
0	 6.266680000012267e+000	 1.666649999985416e+000	 1.019041458878877e+001
0	 6.266680000012267e+000	 1.733319999987733e+000	 1.019281234077737e+001
0	 6.266680000012267e+000	 1.799989999990450e+000	 1.019501492641857e+001
0	 6.266680000012267e+000	 1.866659999993466e+000	 1.019703949564856e+001
0	 6.266680000012268e+000	 1.933329999996683e+000	 1.019890319840347e+001
0	 6.266680000012268e+000	 2.000000000000000e+000	 1.020062318461949e+001
0	 6.333350000014582e+000	 1.333299999983334e+000	 1.016904231403998e+001
0	 6.333350000014584e+000	 1.399969999982150e+000	 1.017227510307153e+001
0	 6.333350000014583e+000	 1.466639999981867e+000	 1.017527640261766e+001
0	 6.333350000014582e+000	 1.533309999982383e+000	 1.017806288093783e+001
0	 6.333350000014583e+000	 1.599979999983599e+000	 1.018065120629149e+001
0	 6.333350000014582e+000	 1.666649999985416e+000	 1.018305804693810e+001
0	 6.333350000014583e+000	 1.733319999987733e+000	 1.018530007113712e+001
0	 6.333350000014583e+000	 1.799989999990449e+000	 1.018739394714799e+001
0	 6.333350000014583e+000	 1.866659999993466e+000	 1.018935634323018e+001
0	 6.333350000014583e+000	 1.933329999996683e+000	 1.019120392764312e+001
0	 6.333350000014583e+000	 2.000000000000000e+000	 1.019295336864628e+001
0	 6.400020000016399e+000	 1.333299999983334e+000	 1.016331929037281e+001
0	 6.400020000016400e+000	 1.399969999982150e+000	 1.016612771938661e+001
0	 6.400020000016400e+000	 1.466639999981866e+000	 1.016876051418756e+001
0	 6.400020000016397e+000	 1.533309999982382e+000	 1.017123360410165e+001
0	 6.400020000016400e+000	 1.599979999983600e+000	 1.017356291845485e+001
0	 6.400020000016399e+000	 1.666649999985416e+000	 1.017576438657315e+001
0	 6.400020000016400e+000	 1.733319999987733e+000	 1.017785393778252e+001
0	 6.400020000016399e+000	 1.799989999990449e+000	 1.017984750140896e+001
0	 6.400020000016399e+000	 1.866659999993466e+000	 1.018176100677845e+001
0	 6.400020000016398e+000	 1.933329999996683e+000	 1.018361038321696e+001
0	 6.400020000016399e+000	 2.000000000000000e+000	 1.018541156005045e+001
0	 6.466690000017616e+000	 1.333299999983334e+000	 1.015760213413261e+001
0	 6.466690000017616e+000	 1.399969999982150e+000	 1.015999168565798e+001
0	 6.466690000017615e+000	 1.466639999981867e+000	 1.016226331553270e+001
0	 6.466690000017616e+000	 1.533309999982383e+000	 1.016443195689249e+001
0	 6.466690000017615e+000	 1.599979999983599e+000	 1.016651254287313e+001
0	 6.466690000017615e+000	 1.666649999985416e+000	 1.016852000661039e+001
0	 6.466690000017618e+000	 1.733319999987733e+000	 1.017046928124000e+001
0	 6.466690000017617e+000	 1.799989999990450e+000	 1.017237529989773e+001
0	 6.466690000017615e+000	 1.866659999993466e+000	 1.017425299571934e+001
0	 6.466690000017616e+000	 1.933329999996683e+000	 1.017611730184057e+001
0	 6.466690000017616e+000	 2.000000000000000e+000	 1.017798315139718e+001
0	 6.533360000018132e+000	 1.333299999983334e+000	 1.015176396458489e+001
0	 6.533360000018130e+000	 1.399969999982150e+000	 1.015377191996154e+001
0	 6.533360000018133e+000	 1.466639999981867e+000	 1.015571695209924e+001
0	 6.533360000018131e+000	 1.533309999982383e+000	 1.015761274068675e+001
0	 6.533360000018132e+000	 1.599979999983600e+000	 1.015947296541286e+001
0	 6.533360000018132e+000	 1.666649999985416e+000	 1.016131130596634e+001
0	 6.533360000018131e+000	 1.733319999987733e+000	 1.016314144203597e+001
0	 6.533360000018131e+000	 1.799989999990449e+000	 1.016497705331053e+001
0	 6.533360000018131e+000	 1.866659999993466e+000	 1.016683181947881e+001
0	 6.533360000018131e+000	 1.933329999996683e+000	 1.016871942022956e+001
0	 6.533360000018132e+000	 2.000000000000000e+000	 1.017065353525159e+001
0	 6.600030000017847e+000	 1.333299999983334e+000	 1.014567790099514e+001
0	 6.600030000017847e+000	 1.399969999982150e+000	 1.014737334037318e+001
0	 6.600030000017849e+000	 1.466639999981867e+000	 1.014905356933338e+001
0	 6.600030000017848e+000	 1.533309999982383e+000	 1.015073075686080e+001
0	 6.600030000017848e+000	 1.599979999983599e+000	 1.015241707194049e+001
0	 6.600030000017847e+000	 1.666649999985416e+000	 1.015412468355749e+001
0	 6.600030000017850e+000	 1.733319999987733e+000	 1.015586576069685e+001
0	 6.600030000017847e+000	 1.799989999990449e+000	 1.015765247234360e+001
0	 6.600030000017849e+000	 1.866659999993467e+000	 1.015949698748283e+001
0	 6.600030000017848e+000	 1.933329999996683e+000	 1.016141147509954e+001
0	 6.600030000017847e+000	 2.000000000000000e+000	 1.016340810417881e+001
0	 6.666700000016665e+000	 1.333299999983334e+000	 1.013921706262885e+001
0	 6.666700000016666e+000	 1.399969999982150e+000	 1.014070086496876e+001
0	 6.666700000016666e+000	 1.466639999981866e+000	 1.014220531268130e+001
0	 6.666700000016667e+000	 1.533309999982383e+000	 1.014374080679103e+001
0	 6.666700000016667e+000	 1.599979999983599e+000	 1.014531774832253e+001
0	 6.666700000016665e+000	 1.666649999985416e+000	 1.014694653830033e+001
0	 6.666700000016667e+000	 1.733319999987733e+000	 1.014863757774904e+001
0	 6.666700000016665e+000	 1.799989999990449e+000	 1.015040126769319e+001
0	 6.666700000016665e+000	 1.866659999993466e+000	 1.015224800915735e+001
0	 6.666700000016666e+000	 1.933329999996683e+000	 1.015418820316609e+001
0	 6.666700000016668e+000	 2.000000000000000e+000	 1.015623225074397e+001
0	 5.999999999999999e+000	 2.000000000000000e+000	 1.023287467098366e+001
0	 6.000000000000000e+000	 2.066670000003318e+000	 1.023471342544088e+001
0	 5.999999999999999e+000	 2.133340000006534e+000	 1.023639744010919e+001
0	 6.000000000000001e+000	 2.200010000009551e+000	 1.023794411729100e+001
0	 6.000000000000002e+000	 2.266680000012268e+000	 1.023937085928870e+001
0	 6.000000000000000e+000	 2.333350000014584e+000	 1.024069506840466e+001
0	 6.000000000000000e+000	 2.400020000016401e+000	 1.024193414694128e+001
0	 6.000000000000000e+000	 2.466690000017617e+000	 1.024310549720094e+001
0	 6.000000000000001e+000	 2.533360000018133e+000	 1.024422652148603e+001
0	 5.999999999999998e+000	 2.600030000017850e+000	 1.024531462209892e+001
0	 6.000000000000000e+000	 2.666700000016666e+000	 1.024638720134200e+001
0	 6.066670000003317e+000	 2.000000000000000e+000	 1.022454675115220e+001
0	 6.066670000003316e+000	 2.066670000003317e+000	 1.022625242311656e+001
0	 6.066670000003318e+000	 2.133340000006534e+000	 1.022785672098419e+001
0	 6.066670000003319e+000	 2.200010000009550e+000	 1.022937112179161e+001
0	 6.066670000003318e+000	 2.266680000012268e+000	 1.023080710257540e+001
0	 6.066670000003313e+000	 2.333350000014583e+000	 1.023217614037209e+001
0	 6.066670000003317e+000	 2.400020000016401e+000	 1.023348971221823e+001
0	 6.066670000003317e+000	 2.466690000017616e+000	 1.023475929515039e+001
0	 6.066670000003316e+000	 2.533360000018133e+000	 1.023599636620508e+001
0	 6.066670000003317e+000	 2.600030000017851e+000	 1.023721240241885e+001
0	 6.066670000003318e+000	 2.666700000016666e+000	 1.023841888082825e+001
0	 6.133340000006534e+000	 2.000000000000000e+000	 1.021640526843760e+001
0	 6.133340000006535e+000	 2.066670000003317e+000	 1.021803979057371e+001
0	 6.133340000006534e+000	 2.133340000006535e+000	 1.021960901173567e+001
0	 6.133340000006531e+000	 2.200010000009551e+000	 1.022111944717845e+001
0	 6.133340000006531e+000	 2.266680000012267e+000	 1.022257761215707e+001
0	 6.133340000006535e+000	 2.333350000014585e+000	 1.022399002192655e+001
0	 6.133340000006533e+000	 2.400020000016401e+000	 1.022536319174186e+001
0	 6.133340000006533e+000	 2.466690000017617e+000	 1.022670363685803e+001
0	 6.133340000006535e+000	 2.533360000018134e+000	 1.022801787253005e+001
0	 6.133340000006532e+000	 2.600030000017850e+000	 1.022931241401292e+001
0	 6.133340000006530e+000	 2.666700000016666e+000	 1.023059377656163e+001
0	 6.200010000009550e+000	 2.000000000000000e+000	 1.020843561540498e+001
0	 6.200010000009549e+000	 2.066670000003317e+000	 1.021005041191618e+001
0	 6.200010000009550e+000	 2.133340000006534e+000	 1.021162093082463e+001
0	 6.200010000009550e+000	 2.200010000009550e+000	 1.021314968908808e+001
0	 6.200010000009550e+000	 2.266680000012268e+000	 1.021463920366429e+001
0	 6.200010000009550e+000	 2.333350000014584e+000	 1.021609199151101e+001
0	 6.200010000009548e+000	 2.400020000016400e+000	 1.021751056958601e+001
0	 6.200010000009550e+000	 2.466690000017618e+000	 1.021889745484703e+001
0	 6.200010000009550e+000	 2.533360000018134e+000	 1.022025516425184e+001
0	 6.200010000009550e+000	 2.600030000017851e+000	 1.022158621475817e+001
0	 6.200010000009550e+000	 2.666700000016666e+000	 1.022289312332378e+001
0	 6.266680000012268e+000	 2.000000000000000e+000	 1.020062318461949e+001
0	 6.266680000012266e+000	 2.066670000003317e+000	 1.020225917124782e+001
0	 6.266680000012266e+000	 2.133340000006534e+000	 1.020385909671207e+001
0	 6.266680000012267e+000	 2.200010000009550e+000	 1.020542244315706e+001
0	 6.266680000012266e+000	 2.266680000012267e+000	 1.020694869272760e+001
0	 6.266680000012267e+000	 2.333350000014584e+000	 1.020843732756848e+001
0	 6.266680000012267e+000	 2.400020000016401e+000	 1.020988782982453e+001
0	 6.266680000012265e+000	 2.466690000017617e+000	 1.021129968164053e+001
0	 6.266680000012268e+000	 2.533360000018133e+000	 1.021267236516130e+001
0	 6.266680000012268e+000	 2.600030000017851e+000	 1.021400536253164e+001
0	 6.266680000012267e+000	 2.666700000016667e+000	 1.021529815589633e+001
0	 6.333350000014583e+000	 2.000000000000000e+000	 1.019295336864628e+001
0	 6.333350000014582e+000	 2.066670000003317e+000	 1.019464095267245e+001
0	 6.333350000014583e+000	 2.133340000006534e+000	 1.019629012785896e+001
0	 6.333350000014583e+000	 2.200010000009551e+000	 1.019789830502194e+001
0	 6.333350000014583e+000	 2.266680000012267e+000	 1.019946289497756e+001
0	 6.333350000014582e+000	 2.333350000014584e+000	 1.020098130854195e+001
0	 6.333350000014583e+000	 2.400020000016401e+000	 1.020245095653128e+001
0	 6.333350000014583e+000	 2.466690000017617e+000	 1.020386924976170e+001
0	 6.333350000014582e+000	 2.533360000018133e+000	 1.020523359904935e+001
0	 6.333350000014584e+000	 2.600030000017851e+000	 1.020654141521037e+001
0	 6.333350000014584e+000	 2.666700000016667e+000	 1.020779010906092e+001
0	 6.400020000016399e+000	 2.000000000000000e+000	 1.018541156005045e+001
0	 6.400020000016398e+000	 2.066670000003317e+000	 1.018717064029394e+001
0	 6.400020000016399e+000	 2.133340000006534e+000	 1.018888064272629e+001
0	 6.400020000016400e+000	 2.200010000009550e+000	 1.019053787031928e+001
0	 6.400020000016399e+000	 2.266680000012267e+000	 1.019213862604472e+001
0	 6.400020000016397e+000	 2.333350000014584e+000	 1.019367921287440e+001
0	 6.400020000016397e+000	 2.400020000016401e+000	 1.019515593378012e+001
0	 6.400020000016400e+000	 2.466690000017618e+000	 1.019656509173367e+001
0	 6.400020000016399e+000	 2.533360000018134e+000	 1.019790298970682e+001
0	 6.400020000016399e+000	 2.600030000017851e+000	 1.019916593067140e+001
0	 6.400020000016399e+000	 2.666700000016666e+000	 1.020035021759918e+001
0	 6.466690000017616e+000	 2.000000000000000e+000	 1.017798315139718e+001
0	 6.466690000017614e+000	 2.066670000003316e+000	 1.017982311821614e+001
0	 6.466690000017615e+000	 2.133340000006533e+000	 1.018159725977504e+001
0	 6.466690000017617e+000	 2.200010000009551e+000	 1.018330173468564e+001
0	 6.466690000017618e+000	 2.266680000012268e+000	 1.018493270155965e+001
0	 6.466690000017616e+000	 2.333350000014585e+000	 1.018648631900883e+001
0	 6.466690000017616e+000	 2.400020000016400e+000	 1.018795874564490e+001
0	 6.466690000017617e+000	 2.466690000017617e+000	 1.018934614007960e+001
0	 6.466690000017615e+000	 2.533360000018134e+000	 1.019064466092465e+001
0	 6.466690000017615e+000	 2.600030000017850e+000	 1.019185046679178e+001
0	 6.466690000017616e+000	 2.666700000016667e+000	 1.019295971629274e+001
0	 6.533360000018132e+000	 2.000000000000000e+000	 1.017065353525159e+001
0	 6.533360000018130e+000	 2.066670000003317e+000	 1.017257327054287e+001
0	 6.533360000018131e+000	 2.133340000006534e+000	 1.017440659746620e+001
0	 6.533360000018130e+000	 2.200010000009550e+000	 1.017615049375756e+001
0	 6.533360000018131e+000	 2.266680000012267e+000	 1.017780193715290e+001
0	 6.533360000018132e+000	 2.333350000014583e+000	 1.017935790538823e+001
0	 6.533360000018133e+000	 2.400020000016401e+000	 1.018081537619947e+001
0	 6.533360000018133e+000	 2.466690000017617e+000	 1.018217132732264e+001
0	 6.533360000018132e+000	 2.533360000018134e+000	 1.018342273649367e+001
0	 6.533360000018133e+000	 2.600030000017850e+000	 1.018456658144853e+001
0	 6.533360000018133e+000	 2.666700000016666e+000	 1.018559983992321e+001
0	 6.600030000017847e+000	 2.000000000000000e+000	 1.016340810417881e+001
0	 6.600030000017847e+000	 2.066670000003317e+000	 1.016539598137798e+001
0	 6.600030000017849e+000	 2.133340000006534e+000	 1.016727527426074e+001
0	 6.600030000017848e+000	 2.200010000009550e+000	 1.016904474317158e+001
0	 6.600030000017849e+000	 2.266680000012268e+000	 1.017070314845503e+001
0	 6.600030000017848e+000	 2.333350000014584e+000	 1.017224925045556e+001
0	 6.600030000017849e+000	 2.400020000016400e+000	 1.017368180951769e+001
0	 6.600030000017847e+000	 2.466690000017618e+000	 1.017499958598593e+001
0	 6.600030000017847e+000	 2.533360000018134e+000	 1.017620134020477e+001
0	 6.600030000017849e+000	 2.600030000017851e+000	 1.017728583251871e+001
0	 6.600030000017847e+000	 2.666700000016666e+000	 1.017825182327224e+001
0	 6.666700000016668e+000	 2.000000000000000e+000	 1.015623225074397e+001
0	 6.666700000016665e+000	 2.066670000003317e+000	 1.015826613482532e+001
0	 6.666700000016665e+000	 2.133340000006534e+000	 1.016016990861965e+001
0	 6.666700000016666e+000	 2.200010000009551e+000	 1.016194507856429e+001
0	 6.666700000016668e+000	 2.266680000012268e+000	 1.016359315109657e+001
0	 6.666700000016666e+000	 2.333350000014584e+000	 1.016511563265383e+001
0	 6.666700000016667e+000	 2.400020000016400e+000	 1.016651402967341e+001
0	 6.666700000016665e+000	 2.466690000017617e+000	 1.016778984859263e+001
0	 6.666700000016667e+000	 2.533360000018134e+000	 1.016894459584882e+001
0	 6.666700000016666e+000	 2.600030000017851e+000	 1.016997977787933e+001
0	 6.666700000016667e+000	 2.666700000016667e+000	 1.017089690112145e+001
0	 6.000000000000000e+000	 2.666700000016666e+000	 1.024638720134200e+001
0	 6.000000000000000e+000	 2.733360000014533e+000	 1.024735030870978e+001
0	 5.999999999999998e+000	 2.800020000011600e+000	 1.024809400806755e+001
0	 6.000000000000002e+000	 2.866680000008067e+000	 1.024861124151922e+001
0	 5.999999999999998e+000	 2.933340000004133e+000	 1.024889495116872e+001
0	 6.000000000000003e+000	 3.000000000000000e+000	 1.024893807911995e+001
0	 5.999999999999998e+000	 3.066659999995867e+000	 1.024873356747687e+001
0	 6.000000000000001e+000	 3.133319999991934e+000	 1.024827435834341e+001
0	 5.999999999999999e+000	 3.199979999988400e+000	 1.024755339382351e+001
0	 6.000000000000000e+000	 3.266639999985467e+000	 1.024656361602116e+001
0	 6.000000000000000e+000	 3.333299999983334e+000	 1.024529796704029e+001
0	 6.066670000003318e+000	 2.666700000016666e+000	 1.023841888082826e+001
0	 6.066670000003317e+000	 2.733360000014534e+000	 1.023950053282571e+001
0	 6.066670000003313e+000	 2.800020000011600e+000	 1.024033377236978e+001
0	 6.066670000003318e+000	 2.866680000008067e+000	 1.024091705788689e+001
0	 6.066670000003319e+000	 2.933340000004133e+000	 1.024124884780357e+001
0	 6.066670000003320e+000	 3.000000000000000e+000	 1.024132760054626e+001
0	 6.066670000003319e+000	 3.066659999995867e+000	 1.024115177454151e+001
0	 6.066670000003319e+000	 3.133319999991934e+000	 1.024071982821577e+001
0	 6.066670000003313e+000	 3.199979999988400e+000	 1.024003021999558e+001
0	 6.066670000003318e+000	 3.266639999985467e+000	 1.023908140830745e+001
0	 6.066670000003317e+000	 3.333299999983333e+000	 1.023787185157790e+001
0	 6.133340000006530e+000	 2.666700000016666e+000	 1.023059377656163e+001
0	 6.133340000006534e+000	 2.733360000014533e+000	 1.023173758117754e+001
0	 6.133340000006532e+000	 2.800020000011599e+000	 1.023261753486788e+001
0	 6.133340000006533e+000	 2.866680000008067e+000	 1.023323670730001e+001
0	 6.133340000006531e+000	 2.933340000004133e+000	 1.023359816814129e+001
0	 6.133340000006533e+000	 3.000000000000000e+000	 1.023370498705911e+001
0	 6.133340000006534e+000	 3.066659999995868e+000	 1.023356023372086e+001
0	 6.133340000006533e+000	 3.133319999991933e+000	 1.023316697779391e+001
0	 6.133340000006533e+000	 3.199979999988400e+000	 1.023252828894566e+001
0	 6.133340000006532e+000	 3.266639999985467e+000	 1.023164723684355e+001
0	 6.133340000006530e+000	 3.333299999983333e+000	 1.023052689115497e+001
0	 6.200010000009550e+000	 2.666700000016666e+000	 1.022289312332378e+001
0	 6.200010000009550e+000	 2.733360000014533e+000	 1.022405259721308e+001
0	 6.200010000009552e+000	 2.800020000011600e+000	 1.022494457161988e+001
0	 6.200010000009550e+000	 2.866680000008067e+000	 1.022557582237077e+001
0	 6.200010000009551e+000	 2.933340000004133e+000	 1.022595312529233e+001
0	 6.200010000009550e+000	 3.000000000000000e+000	 1.022608325621117e+001
0	 6.200010000009550e+000	 3.066659999995867e+000	 1.022597299095389e+001
0	 6.200010000009550e+000	 3.133319999991933e+000	 1.022562910534710e+001
0	 6.200010000009551e+000	 3.199979999988401e+000	 1.022505837521743e+001
0	 6.200010000009550e+000	 3.266639999985467e+000	 1.022426757639149e+001
0	 6.200010000009550e+000	 3.333299999983333e+000	 1.022326348469593e+001
0	 6.266680000012267e+000	 2.666700000016667e+000	 1.021529815589633e+001
0	 6.266680000012268e+000	 2.733360000014533e+000	 1.021643672438010e+001
0	 6.266680000012265e+000	 2.800020000011599e+000	 1.021731415868373e+001
0	 6.266680000012266e+000	 2.866680000008067e+000	 1.021794003571133e+001
0	 6.266680000012265e+000	 2.933340000004133e+000	 1.021832393236708e+001
0	 6.266680000012264e+000	 2.999999999999999e+000	 1.021847542555511e+001
0	 6.266680000012267e+000	 3.066659999995866e+000	 1.021840409217958e+001
0	 6.266680000012267e+000	 3.133319999991934e+000	 1.021811950914466e+001
0	 6.266680000012266e+000	 3.199979999988401e+000	 1.021763125335450e+001
0	 6.266680000012268e+000	 3.266639999985467e+000	 1.021694890171329e+001
0	 6.266680000012265e+000	 3.333299999983333e+000	 1.021608203112521e+001
0	 6.333350000014584e+000	 2.666700000016667e+000	 1.020779010906092e+001
0	 6.333350000014584e+000	 2.733360000014533e+000	 1.020888110612641e+001
0	 6.333350000014582e+000	 2.800020000011599e+000	 1.020972557211738e+001
0	 6.333350000014581e+000	 2.866680000008066e+000	 1.021033497993390e+001
0	 6.333350000014582e+000	 2.933340000004133e+000	 1.021072080247598e+001
0	 6.333350000014582e+000	 3.000000000000000e+000	 1.021089451264364e+001
0	 6.333350000014583e+000	 3.066659999995867e+000	 1.021086758333691e+001
0	 6.333350000014582e+000	 3.133319999991934e+000	 1.021065148745586e+001
0	 6.333350000014582e+000	 3.199979999988400e+000	 1.021025769790053e+001
0	 6.333350000014583e+000	 3.266639999985467e+000	 1.020969768757096e+001
0	 6.333350000014582e+000	 3.333299999983334e+000	 1.020898292936721e+001
0	 6.400020000016399e+000	 2.666700000016666e+000	 1.020035021759918e+001
0	 6.400020000016400e+000	 2.733360000014533e+000	 1.020137688589977e+001
0	 6.400020000016399e+000	 2.800020000011600e+000	 1.020217808797884e+001
0	 6.400020000016400e+000	 2.866680000008067e+000	 1.020276628765066e+001
0	 6.400020000016400e+000	 2.933340000004134e+000	 1.020315394872944e+001
0	 6.400020000016399e+000	 2.999999999999999e+000	 1.020335353502943e+001
0	 6.400020000016399e+000	 3.066659999995868e+000	 1.020337751036487e+001
0	 6.400020000016401e+000	 3.133319999991935e+000	 1.020323833855004e+001
0	 6.400020000016401e+000	 3.199979999988401e+000	 1.020294848339915e+001
0	 6.400020000016401e+000	 3.266639999985467e+000	 1.020252040872651e+001
0	 6.400020000016399e+000	 3.333299999983334e+000	 1.020196657834637e+001
0	 6.466690000017616e+000	 2.666700000016667e+000	 1.019295971629273e+001
0	 6.466690000017616e+000	 2.733360000014533e+000	 1.019391520714798e+001
0	 6.466690000017616e+000	 2.800020000011600e+000	 1.019467098232607e+001
0	 6.466690000017616e+000	 2.866680000008067e+000	 1.019523959147377e+001
0	 6.466690000017616e+000	 2.933340000004134e+000	 1.019563358423788e+001
0	 6.466690000017615e+000	 3.000000000000000e+000	 1.019586551026517e+001
0	 6.466690000017616e+000	 3.066659999995867e+000	 1.019594791920242e+001
0	 6.466690000017617e+000	 3.133319999991933e+000	 1.019589336069644e+001
0	 6.466690000017616e+000	 3.199979999988400e+000	 1.019571438439402e+001
0	 6.466690000017614e+000	 3.266639999985467e+000	 1.019542353994196e+001
0	 6.466690000017617e+000	 3.333299999983334e+000	 1.019503337698707e+001
0	 6.533360000018133e+000	 2.666700000016666e+000	 1.018559983992321e+001
0	 6.533360000018132e+000	 2.733360000014533e+000	 1.018648721331883e+001
0	 6.533360000018133e+000	 2.800020000011600e+000	 1.018720353121703e+001
0	 6.533360000018132e+000	 2.866680000008067e+000	 1.018776052401544e+001
0	 6.533360000018133e+000	 2.933340000004134e+000	 1.018816992211173e+001
0	 6.533360000018132e+000	 3.000000000000000e+000	 1.018844345590354e+001
0	 6.533360000018132e+000	 3.066659999995866e+000	 1.018859285578854e+001
0	 6.533360000018133e+000	 3.133319999991934e+000	 1.018862985216440e+001
0	 6.533360000018130e+000	 3.199979999988400e+000	 1.018856617542877e+001
0	 6.533360000018132e+000	 3.266639999985468e+000	 1.018841355597933e+001
0	 6.533360000018132e+000	 3.333299999983333e+000	 1.018818372421377e+001
0	 6.600030000017847e+000	 2.666700000016666e+000	 1.017825182327225e+001
0	 6.600030000017849e+000	 2.733360000014533e+000	 1.017908404786010e+001
0	 6.600030000017847e+000	 2.800020000011599e+000	 1.017977501070967e+001
0	 6.600030000017847e+000	 2.866680000008066e+000	 1.018033471788782e+001
0	 6.600030000017848e+000	 2.933340000004134e+000	 1.018077317546138e+001
0	 6.600030000017850e+000	 3.000000000000000e+000	 1.018110038949722e+001
0	 6.600030000017848e+000	 3.066659999995868e+000	 1.018132636606220e+001
0	 6.600030000017849e+000	 3.133319999991934e+000	 1.018146111122318e+001
0	 6.600030000017849e+000	 3.199979999988401e+000	 1.018151463104704e+001
0	 6.600030000017848e+000	 3.266639999985468e+000	 1.018149693160063e+001
0	 6.600030000017847e+000	 3.333299999983333e+000	 1.018141801895085e+001
0	 6.666700000016667e+000	 2.666700000016667e+000	 1.017089690112145e+001
0	 6.666700000016668e+000	 2.733360000014533e+000	 1.017169685421956e+001
0	 6.666700000016665e+000	 2.800020000011599e+000	 1.017238469686198e+001
0	 6.666700000016666e+000	 2.866680000008067e+000	 1.017296780570309e+001
0	 6.666700000016667e+000	 2.933340000004133e+000	 1.017345355739726e+001
0	 6.666700000016666e+000	 3.000000000000000e+000	 1.017384932859890e+001
0	 6.666700000016667e+000	 3.066659999995868e+000	 1.017416249596237e+001
0	 6.666700000016665e+000	 3.133319999991933e+000	 1.017440043614210e+001
0	 6.666700000016665e+000	 3.199979999988401e+000	 1.017457052579247e+001
0	 6.666700000016668e+000	 3.266639999985468e+000	 1.017468014156789e+001
0	 6.666700000016665e+000	 3.333299999983333e+000	 1.017473666012274e+001
0	 6.000000000000000e+000	 3.333299999983334e+000	 1.024529796704029e+001
0	 6.000000000000001e+000	 3.399969999982151e+000	 1.024383917608961e+001
0	 6.000000000000000e+000	 3.466639999981866e+000	 1.024227745696115e+001
0	 6.000000000000000e+000	 3.533309999982383e+000	 1.024061634589889e+001
0	 6.000000000000001e+000	 3.599979999983601e+000	 1.023885937914680e+001
0	 6.000000000000000e+000	 3.666649999985416e+000	 1.023701009294888e+001
0	 6.000000000000000e+000	 3.733319999987733e+000	 1.023507202354907e+001
0	 5.999999999999998e+000	 3.799989999990450e+000	 1.023304870719137e+001
0	 6.000000000000001e+000	 3.866659999993467e+000	 1.023094368011972e+001
0	 6.000000000000000e+000	 3.933329999996683e+000	 1.022876047857811e+001
0	 6.000000000000001e+000	 4.000000000000000e+000	 1.022650263881050e+001
0	 6.066670000003317e+000	 3.333299999983333e+000	 1.023787185157789e+001
0	 6.066670000003315e+000	 3.399969999982150e+000	 1.023649424005954e+001
0	 6.066670000003318e+000	 3.466639999981867e+000	 1.023504246042580e+001
0	 6.066670000003316e+000	 3.533309999982382e+000	 1.023351616247471e+001
0	 6.066670000003319e+000	 3.599979999983600e+000	 1.023191499600425e+001
0	 6.066670000003315e+000	 3.666649999985415e+000	 1.023023861081243e+001
0	 6.066670000003318e+000	 3.733319999987733e+000	 1.022848665669728e+001
0	 6.066670000003318e+000	 3.799989999990450e+000	 1.022665878345678e+001
0	 6.066670000003317e+000	 3.866659999993467e+000	 1.022475464088893e+001
0	 6.066670000003318e+000	 3.933329999996685e+000	 1.022277387879174e+001
0	 6.066670000003318e+000	 4.000000000000001e+000	 1.022071614696319e+001
0	 6.133340000006530e+000	 3.333299999983333e+000	 1.023052689115497e+001
0	 6.133340000006534e+000	 3.399969999982150e+000	 1.022926105057903e+001
0	 6.133340000006533e+000	 3.466639999981866e+000	 1.022793946958221e+001
0	 6.133340000006531e+000	 3.533309999982382e+000	 1.022655859389105e+001
0	 6.133340000006531e+000	 3.599979999983600e+000	 1.022511486923208e+001
0	 6.133340000006534e+000	 3.666649999985416e+000	 1.022360474133182e+001
0	 6.133340000006533e+000	 3.733319999987733e+000	 1.022202465591679e+001
0	 6.133340000006531e+000	 3.799989999990449e+000	 1.022037105871354e+001
0	 6.133340000006533e+000	 3.866659999993467e+000	 1.021864039544858e+001
0	 6.133340000006535e+000	 3.933329999996684e+000	 1.021682911184844e+001
0	 6.133340000006534e+000	 4.000000000000001e+000	 1.021493365363961e+001
0	 6.200010000009550e+000	 3.333299999983333e+000	 1.022326348469593e+001
0	 6.200010000009550e+000	 3.399969999982150e+000	 1.022213370714193e+001
0	 6.200010000009550e+000	 3.466639999981867e+000	 1.022095761545303e+001
0	 6.200010000009552e+000	 3.533309999982383e+000	 1.021972913365881e+001
0	 6.200010000009550e+000	 3.599979999983600e+000	 1.021844218578880e+001
0	 6.200010000009550e+000	 3.666649999985416e+000	 1.021709069587253e+001
0	 6.200010000009550e+000	 3.733319999987733e+000	 1.021566858793955e+001
0	 6.200010000009550e+000	 3.799989999990450e+000	 1.021416978601940e+001
0	 6.200010000009550e+000	 3.866659999993467e+000	 1.021258821414162e+001
0	 6.200010000009550e+000	 3.933329999996684e+000	 1.021091779633574e+001
0	 6.200010000009550e+000	 4.000000000000000e+000	 1.020915245663129e+001
0	 6.266680000012265e+000	 3.333299999983333e+000	 1.021608203112521e+001
0	 6.266680000012268e+000	 3.399969999982150e+000	 1.021510630924207e+001
0	 6.266680000012268e+000	 3.466639999981867e+000	 1.021408602906094e+001
0	 6.266680000012268e+000	 3.533309999982383e+000	 1.021301327528887e+001
0	 6.266680000012268e+000	 3.599979999983600e+000	 1.021188013263291e+001
0	 6.266680000012267e+000	 3.666649999985417e+000	 1.021067868580010e+001
0	 6.266680000012268e+000	 3.733319999987733e+000	 1.020940101949747e+001
0	 6.266680000012268e+000	 3.799989999990450e+000	 1.020803921843209e+001
0	 6.266680000012266e+000	 3.866659999993466e+000	 1.020658536731098e+001
0	 6.266680000012267e+000	 3.933329999996684e+000	 1.020503155084118e+001
0	 6.266680000012268e+000	 4.000000000000001e+000	 1.020336985372974e+001
0	 6.333350000014582e+000	 3.333299999983334e+000	 1.020898292936721e+001
0	 6.333350000014582e+000	 3.399969999982149e+000	 1.020817295637332e+001
0	 6.333350000014582e+000	 3.466639999981866e+000	 1.020731384142860e+001
0	 6.333350000014582e+000	 3.533309999982383e+000	 1.020639651229214e+001
0	 6.333350000014582e+000	 3.599979999983599e+000	 1.020541189672292e+001
0	 6.333350000014583e+000	 3.666649999985416e+000	 1.020435092248002e+001
0	 6.333350000014582e+000	 3.733319999987732e+000	 1.020320451732248e+001
0	 6.333350000014585e+000	 3.799989999990451e+000	 1.020196360900932e+001
0	 6.333350000014585e+000	 3.866659999993467e+000	 1.020061912529958e+001
0	 6.333350000014584e+000	 3.933329999996684e+000	 1.019916199395229e+001
0	 6.333350000014583e+000	 4.000000000000001e+000	 1.019758314272647e+001
0	 6.400020000016399e+000	 3.333299999983334e+000	 1.020196657834636e+001
0	 6.400020000016400e+000	 3.399969999982150e+000	 1.020132774802951e+001
0	 6.400020000016400e+000	 3.466639999981867e+000	 1.020063018357871e+001
0	 6.400020000016398e+000	 3.533309999982383e+000	 1.019986433817949e+001
0	 6.400020000016401e+000	 3.599979999983600e+000	 1.019902066501736e+001
0	 6.400020000016398e+000	 3.666649999985415e+000	 1.019808961727787e+001
0	 6.400020000016398e+000	 3.733319999987733e+000	 1.019706164814652e+001
0	 6.400020000016401e+000	 3.799989999990450e+000	 1.019592721080884e+001
0	 6.400020000016398e+000	 3.866659999993467e+000	 1.019467675845035e+001
0	 6.400020000016400e+000	 3.933329999996683e+000	 1.019330074425657e+001
0	 6.400020000016398e+000	 4.000000000000000e+000	 1.019178962141299e+001
0	 6.466690000017617e+000	 3.333299999983334e+000	 1.019503337698707e+001
0	 6.466690000017614e+000	 3.399969999982150e+000	 1.019456478370449e+001
0	 6.466690000017615e+000	 3.466639999981867e+000	 1.019402418653390e+001
0	 6.466690000017614e+000	 3.533309999982382e+000	 1.019340224646181e+001
0	 6.466690000017614e+000	 3.599979999983599e+000	 1.019268962447471e+001
0	 6.466690000017616e+000	 3.666649999985417e+000	 1.019187698155911e+001
0	 6.466690000017617e+000	 3.733319999987733e+000	 1.019095497870149e+001
0	 6.466690000017617e+000	 3.799989999990451e+000	 1.018991427688837e+001
0	 6.466690000017615e+000	 3.866659999993467e+000	 1.018874553710623e+001
0	 6.466690000017617e+000	 3.933329999996683e+000	 1.018743942034156e+001
0	 6.466690000017615e+000	 4.000000000000000e+000	 1.018598658758084e+001
0	 6.533360000018132e+000	 3.333299999983333e+000	 1.018818372421377e+001
0	 6.533360000018129e+000	 3.399969999982149e+000	 1.018787816289211e+001
0	 6.533360000018133e+000	 3.466639999981867e+000	 1.018748498131686e+001
0	 6.533360000018133e+000	 3.533309999982382e+000	 1.018699573065000e+001
0	 6.533360000018132e+000	 3.599979999983600e+000	 1.018640196205348e+001
0	 6.533360000018132e+000	 3.666649999985416e+000	 1.018569522668927e+001
0	 6.533360000018130e+000	 3.733319999987733e+000	 1.018486707571934e+001
0	 6.533360000018132e+000	 3.799989999990450e+000	 1.018390906030564e+001
0	 6.533360000018131e+000	 3.866659999993466e+000	 1.018281273161013e+001
0	 6.533360000018132e+000	 3.933329999996684e+000	 1.018156964079477e+001
0	 6.533360000018133e+000	 4.000000000000001e+000	 1.018017133902151e+001
0	 6.600030000017847e+000	 3.333299999983333e+000	 1.018141801895085e+001
0	 6.600030000017847e+000	 3.399969999982150e+000	 1.018126198508620e+001
0	 6.600030000017848e+000	 3.466639999981867e+000	 1.018100169895026e+001
0	 6.600030000017849e+000	 3.533309999982384e+000	 1.018063028425495e+001
0	 6.600030000017847e+000	 3.599979999983599e+000	 1.018014086471218e+001
0	 6.600030000017847e+000	 3.666649999985415e+000	 1.017952656403388e+001
0	 6.600030000017848e+000	 3.733319999987733e+000	 1.017878050593198e+001
0	 6.600030000017847e+000	 3.799989999990450e+000	 1.017789581411838e+001
0	 6.600030000017847e+000	 3.866659999993466e+000	 1.017686561230500e+001
0	 6.600030000017847e+000	 3.933329999996684e+000	 1.017568302420374e+001
0	 6.600030000017847e+000	 4.000000000000000e+000	 1.017434117352651e+001
0	 6.666700000016665e+000	 3.333299999983333e+000	 1.017473666012275e+001
0	 6.666700000016666e+000	 3.399969999982149e+000	 1.017471034978062e+001
0	 6.666700000016666e+000	 3.466639999981866e+000	 1.017456347045676e+001
0	 6.666700000016665e+000	 3.533309999982383e+000	 1.017429140078754e+001
0	 6.666700000016665e+000	 3.599979999983599e+000	 1.017388951940932e+001
0	 6.666700000016665e+000	 3.666649999985415e+000	 1.017335320495846e+001
0	 6.666700000016666e+000	 3.733319999987733e+000	 1.017267783607134e+001
0	 6.666700000016665e+000	 3.799989999990449e+000	 1.017185879138432e+001
0	 6.666700000016668e+000	 3.866659999993467e+000	 1.017089144953374e+001
0	 6.666700000016665e+000	 3.933329999996683e+000	 1.016977118915598e+001
0	 6.666700000016667e+000	 4.000000000000001e+000	 1.016849338888737e+001
0	 6.000000000000001e+000	 4.000000000000000e+000	 1.022650263881050e+001
0	 6.000000000000001e+000	 4.066670000003318e+000	 1.022416983216277e+001
0	 6.000000000000000e+000	 4.133340000006534e+000	 1.022175345867840e+001
0	 6.000000000000000e+000	 4.200010000009550e+000	 1.021924464764768e+001
0	 6.000000000000002e+000	 4.266680000012268e+000	 1.021663452836092e+001
0	 6.000000000000000e+000	 4.333350000014584e+000	 1.021391423010842e+001
0	 5.999999999999998e+000	 4.400020000016401e+000	 1.021107488218048e+001
0	 5.999999999999999e+000	 4.466690000017617e+000	 1.020810761386739e+001
0	 6.000000000000001e+000	 4.533360000018134e+000	 1.020500355445944e+001
0	 6.000000000000000e+000	 4.600030000017850e+000	 1.020175383324694e+001
0	 6.000000000000000e+000	 4.666700000016666e+000	 1.019834957952016e+001
0	 6.066670000003318e+000	 4.000000000000001e+000	 1.022071614696319e+001
0	 6.066670000003318e+000	 4.066670000003318e+000	 1.021857023428360e+001
0	 6.066670000003317e+000	 4.133340000006533e+000	 1.021632128802553e+001
0	 6.066670000003319e+000	 4.200010000009550e+000	 1.021396349557538e+001
0	 6.066670000003318e+000	 4.266680000012268e+000	 1.021149104431960e+001
0	 6.066670000003317e+000	 4.333350000014584e+000	 1.020889812164458e+001
0	 6.066670000003318e+000	 4.400020000016401e+000	 1.020617891493674e+001
0	 6.066670000003319e+000	 4.466690000017619e+000	 1.020332761158248e+001
0	 6.066670000003318e+000	 4.533360000018135e+000	 1.020033839896819e+001
0	 6.066670000003316e+000	 4.600030000017850e+000	 1.019720546448030e+001
0	 6.066670000003319e+000	 4.666700000016667e+000	 1.019392299550520e+001
0	 6.133340000006534e+000	 4.000000000000001e+000	 1.021493365363961e+001
0	 6.133340000006535e+000	 4.066670000003317e+000	 1.021293856605811e+001
0	 6.133340000006535e+000	 4.133340000006536e+000	 1.021082860401247e+001
0	 6.133340000006531e+000	 4.200010000009550e+000	 1.020860052773815e+001
0	 6.133340000006533e+000	 4.266680000012269e+000	 1.020625109747055e+001
0	 6.133340000006533e+000	 4.333350000014584e+000	 1.020377707344514e+001
0	 6.133340000006532e+000	 4.400020000016402e+000	 1.020117521589730e+001
0	 6.133340000006533e+000	 4.466690000017618e+000	 1.019844228506248e+001
0	 6.133340000006535e+000	 4.533360000018134e+000	 1.019557504117608e+001
0	 6.133340000006534e+000	 4.600030000017852e+000	 1.019257024447353e+001
0	 6.133340000006533e+000	 4.666700000016667e+000	 1.018942465519023e+001
0	 6.200010000009550e+000	 4.000000000000000e+000	 1.020915245663129e+001
0	 6.200010000009549e+000	 4.066670000003317e+000	 1.020727797518525e+001
0	 6.200010000009551e+000	 4.133340000006534e+000	 1.020528341469314e+001
0	 6.200010000009551e+000	 4.200010000009550e+000	 1.020316762299231e+001
0	 6.200010000009550e+000	 4.266680000012268e+000	 1.020092944792010e+001
0	 6.200010000009550e+000	 4.333350000014582e+000	 1.019856773731386e+001
0	 6.200010000009550e+000	 4.400020000016402e+000	 1.019608133901092e+001
0	 6.200010000009550e+000	 4.466690000017619e+000	 1.019346910084864e+001
0	 6.200010000009551e+000	 4.533360000018135e+000	 1.019072987066433e+001
0	 6.200010000009550e+000	 4.600030000017851e+000	 1.018786249629533e+001
0	 6.200010000009550e+000	 4.666700000016666e+000	 1.018486582557900e+001
0	 6.266680000012268e+000	 4.000000000000001e+000	 1.020336985372974e+001
0	 6.266680000012268e+000	 4.066670000003317e+000	 1.020159160936402e+001
0	 6.266680000012265e+000	 4.133340000006533e+000	 1.019969372812146e+001
0	 6.266680000012266e+000	 4.200010000009551e+000	 1.019767666019426e+001
0	 6.266680000012266e+000	 4.266680000012268e+000	 1.019554085577457e+001
0	 6.266680000012267e+000	 4.333350000014584e+000	 1.019328676505455e+001
0	 6.266680000012267e+000	 4.400020000016402e+000	 1.019091483822637e+001
0	 6.266680000012265e+000	 4.466690000017618e+000	 1.018842552548219e+001
0	 6.266680000012268e+000	 4.533360000018134e+000	 1.018581927701417e+001
0	 6.266680000012268e+000	 4.600030000017851e+000	 1.018309654301445e+001
0	 6.266680000012267e+000	 4.666700000016667e+000	 1.018025777367521e+001
0	 6.333350000014583e+000	 4.000000000000001e+000	 1.019758314272647e+001
0	 6.333350000014582e+000	 4.066670000003318e+000	 1.019588261629333e+001
0	 6.333350000014582e+000	 4.133340000006534e+000	 1.019406755235133e+001
0	 6.333350000014584e+000	 4.200010000009551e+000	 1.019213951820034e+001
0	 6.333350000014583e+000	 4.266680000012268e+000	 1.019010008114026e+001
0	 6.333350000014582e+000	 4.333350000014584e+000	 1.018795080847099e+001
0	 6.333350000014582e+000	 4.400020000016402e+000	 1.018569326749240e+001
0	 6.333350000014582e+000	 4.466690000017616e+000	 1.018332902550438e+001
0	 6.333350000014583e+000	 4.533360000018133e+000	 1.018085964980683e+001
0	 6.333350000014582e+000	 4.600030000017850e+000	 1.017828670769960e+001
0	 6.333350000014582e+000	 4.666700000016666e+000	 1.017561176648260e+001
0	 6.400020000016398e+000	 4.000000000000000e+000	 1.019178962141300e+001
0	 6.400020000016399e+000	 4.066670000003317e+000	 1.019015414367217e+001
0	 6.400020000016399e+000	 4.133340000006534e+000	 1.018841289543664e+001
0	 6.400020000016399e+000	 4.200010000009550e+000	 1.018656807586692e+001
0	 6.400020000016398e+000	 4.266680000012267e+000	 1.018462188412352e+001
0	 6.400020000016401e+000	 4.333350000014583e+000	 1.018257651936697e+001
0	 6.400020000016398e+000	 4.400020000016401e+000	 1.018043418075777e+001
0	 6.400020000016399e+000	 4.466690000017618e+000	 1.017819706745645e+001
0	 6.400020000016400e+000	 4.533360000018134e+000	 1.017586737862353e+001
0	 6.400020000016400e+000	 4.600030000017852e+000	 1.017344731341951e+001
0	 6.400020000016399e+000	 4.666700000016666e+000	 1.017093907100488e+001
0	 6.466690000017615e+000	 4.000000000000000e+000	 1.018598658758084e+001
0	 6.466690000017616e+000	 4.066670000003317e+000	 1.018440933919950e+001
0	 6.466690000017616e+000	 4.133340000006535e+000	 1.018273776543132e+001
0	 6.466690000017614e+000	 4.200010000009551e+000	 1.018097421205035e+001
0	 6.466690000017617e+000	 4.266680000012267e+000	 1.017912102483065e+001
0	 6.466690000017614e+000	 4.333350000014582e+000	 1.017718054954626e+001
0	 6.466690000017616e+000	 4.400020000016400e+000	 1.017515513197125e+001
0	 6.466690000017616e+000	 4.466690000017618e+000	 1.017304711787964e+001
0	 6.466690000017615e+000	 4.533360000018133e+000	 1.017085885304551e+001
0	 6.466690000017615e+000	 4.600030000017848e+000	 1.016859268324286e+001
0	 6.466690000017616e+000	 4.666700000016667e+000	 1.016625095424576e+001
0	 6.533360000018133e+000	 4.000000000000001e+000	 1.018017133902151e+001
0	 6.533360000018131e+000	 4.066670000003318e+000	 1.017865135057424e+001
0	 6.533360000018133e+000	 4.133340000006535e+000	 1.017705017038924e+001
0	 6.533360000018130e+000	 4.200010000009551e+000	 1.017536980560699e+001
0	 6.533360000018131e+000	 4.266680000012267e+000	 1.017361226336798e+001
0	 6.533360000018130e+000	 4.333350000014582e+000	 1.017177955081268e+001
0	 6.533360000018132e+000	 4.400020000016402e+000	 1.016987367508161e+001
0	 6.533360000018133e+000	 4.466690000017618e+000	 1.016789664331521e+001
0	 6.533360000018133e+000	 4.533360000018134e+000	 1.016585046265399e+001
0	 6.533360000018131e+000	 4.600030000017850e+000	 1.016373714023841e+001
0	 6.533360000018133e+000	 4.666700000016666e+000	 1.016155868320897e+001
0	 6.600030000017847e+000	 4.000000000000000e+000	 1.017434117352651e+001
0	 6.600030000017848e+000	 4.066670000003318e+000	 1.017288332549538e+001
0	 6.600030000017847e+000	 4.133340000006534e+000	 1.017135811836434e+001
0	 6.600030000017849e+000	 4.200010000009551e+000	 1.016976673539321e+001
0	 6.600030000017849e+000	 4.266680000012268e+000	 1.016811035984183e+001
0	 6.600030000017847e+000	 4.333350000014583e+000	 1.016639017497002e+001
0	 6.600030000017848e+000	 4.400020000016402e+000	 1.016460736403759e+001
0	 6.600030000017849e+000	 4.466690000017619e+000	 1.016276311030438e+001
0	 6.600030000017851e+000	 4.533360000018134e+000	 1.016085859703020e+001
0	 6.600030000017849e+000	 4.600030000017851e+000	 1.015889500747488e+001
0	 6.600030000017847e+000	 4.666700000016665e+000	 1.015687352489823e+001
0	 6.666700000016667e+000	 4.000000000000001e+000	 1.016849338888737e+001
0	 6.666700000016666e+000	 4.066670000003316e+000	 1.016710841166186e+001
0	 6.666700000016667e+000	 4.133340000006536e+000	 1.016566961741050e+001
0	 6.666700000016667e+000	 4.200010000009551e+000	 1.016417688026535e+001
0	 6.666700000016667e+000	 4.266680000012268e+000	 1.016263007435851e+001
0	 6.666700000016665e+000	 4.333350000014583e+000	 1.016102907382203e+001
0	 6.666700000016665e+000	 4.400020000016400e+000	 1.015937375278798e+001
0	 6.666700000016667e+000	 4.466690000017618e+000	 1.015766398538839e+001
0	 6.666700000016667e+000	 4.533360000018134e+000	 1.015589964575537e+001
0	 6.666700000016666e+000	 4.600030000017851e+000	 1.015408060802098e+001
0	 6.666700000016667e+000	 4.666700000016667e+000	 1.015220674631725e+001
0	 6.000000000000000e+000	 4.666700000016666e+000	 1.019834957952016e+001
0	 5.999999999999998e+000	 4.733360000014531e+000	 1.019487006737913e+001
0	 5.999999999999998e+000	 4.800020000011600e+000	 1.019139789192771e+001
0	 6.000000000000002e+000	 4.866680000008068e+000	 1.018793073189822e+001
0	 5.999999999999998e+000	 4.933340000004132e+000	 1.018446626602300e+001
0	 6.000000000000002e+000	 5.000000000000002e+000	 1.018100217303436e+001
0	 5.999999999999999e+000	 5.066659999995866e+000	 1.017753613166464e+001
0	 6.000000000000000e+000	 5.133319999991934e+000	 1.017406582064616e+001
0	 5.999999999999998e+000	 5.199979999988400e+000	 1.017058891871124e+001
0	 6.000000000000000e+000	 5.266639999985468e+000	 1.016710310459222e+001
0	 6.000000000000000e+000	 5.333299999983334e+000	 1.016360605702143e+001
0	 6.066670000003319e+000	 4.666700000016667e+000	 1.019392299550520e+001
0	 6.066670000003315e+000	 4.733360000014533e+000	 1.019057273063205e+001
0	 6.066670000003315e+000	 4.800020000011599e+000	 1.018723670767468e+001
0	 6.066670000003317e+000	 4.866680000008066e+000	 1.018391107440905e+001
0	 6.066670000003319e+000	 4.933340000004134e+000	 1.018059197861113e+001
0	 6.066670000003320e+000	 5.000000000000000e+000	 1.017727556805687e+001
0	 6.066670000003319e+000	 5.066659999995867e+000	 1.017395799052224e+001
0	 6.066670000003319e+000	 5.133319999991934e+000	 1.017063539378322e+001
0	 6.066670000003314e+000	 5.199979999988400e+000	 1.016730392561577e+001
0	 6.066670000003316e+000	 5.266639999985467e+000	 1.016395973379587e+001
0	 6.066670000003317e+000	 5.333299999983335e+000	 1.016059896609949e+001
0	 6.133340000006533e+000	 4.666700000016667e+000	 1.018942465519023e+001
0	 6.133340000006535e+000	 4.733360000014534e+000	 1.018621825364211e+001
0	 6.133340000006534e+000	 4.800020000011599e+000	 1.018302882185785e+001
0	 6.133340000006533e+000	 4.866680000008066e+000	 1.017985127024915e+001
0	 6.133340000006533e+000	 4.933340000004134e+000	 1.017668050922774e+001
0	 6.133340000006535e+000	 5.000000000000002e+000	 1.017351144920528e+001
0	 6.133340000006533e+000	 5.066659999995866e+000	 1.017033900059349e+001
0	 6.133340000006534e+000	 5.133319999991934e+000	 1.016715807380408e+001
0	 6.133340000006533e+000	 5.199979999988400e+000	 1.016396357924873e+001
0	 6.133340000006531e+000	 5.266639999985468e+000	 1.016075042733918e+001
0	 6.133340000006531e+000	 5.333299999983334e+000	 1.015751352848710e+001
0	 6.200010000009550e+000	 4.666700000016666e+000	 1.018486582557900e+001
0	 6.200010000009550e+000	 4.733360000014532e+000	 1.018181463935907e+001
0	 6.200010000009551e+000	 4.800020000011600e+000	 1.017877954588251e+001
0	 6.200010000009550e+000	 4.866680000008065e+000	 1.017575451178882e+001
0	 6.200010000009551e+000	 4.933340000004134e+000	 1.017273350371756e+001
0	 6.200010000009551e+000	 5.000000000000000e+000	 1.016971048830821e+001
0	 6.200010000009550e+000	 5.066659999995867e+000	 1.016667943220033e+001
0	 6.200010000009549e+000	 5.133319999991935e+000	 1.016363430203345e+001
0	 6.200010000009551e+000	 5.199979999988400e+000	 1.016056906444708e+001
0	 6.200010000009550e+000	 5.266639999985468e+000	 1.015747768608077e+001
0	 6.200010000009550e+000	 5.333299999983334e+000	 1.015435413357405e+001
0	 6.266680000012267e+000	 4.666700000016667e+000	 1.018025777367521e+001
0	 6.266680000012268e+000	 4.733360000014534e+000	 1.017736989073278e+001
0	 6.266680000012265e+000	 4.800020000011599e+000	 1.017449419115401e+001
0	 6.266680000012268e+000	 4.866680000008066e+000	 1.017162399139838e+001
0	 6.266680000012266e+000	 4.933340000004133e+000	 1.016875260792531e+001
0	 6.266680000012265e+000	 4.999999999999999e+000	 1.016587335719429e+001
0	 6.266680000012267e+000	 5.066659999995865e+000	 1.016297955566471e+001
0	 6.266680000012267e+000	 5.133319999991934e+000	 1.016006451979605e+001
0	 6.266680000012267e+000	 5.199979999988400e+000	 1.015712156604777e+001
0	 6.266680000012266e+000	 5.266639999985468e+000	 1.015414401087932e+001
0	 6.266680000012265e+000	 5.333299999983333e+000	 1.015112517075015e+001
0	 6.333350000014582e+000	 4.666700000016666e+000	 1.017561176648261e+001
0	 6.333350000014584e+000	 4.733360000014533e+000	 1.017289201071299e+001
0	 6.333350000014582e+000	 4.800020000011600e+000	 1.017017806907766e+001
0	 6.333350000014582e+000	 4.866680000008067e+000	 1.016746290144810e+001
0	 6.333350000014580e+000	 4.933340000004133e+000	 1.016473946769576e+001
0	 6.333350000014582e+000	 4.999999999999999e+000	 1.016200072769210e+001
0	 6.333350000014583e+000	 5.066659999995868e+000	 1.015923964130857e+001
0	 6.333350000014582e+000	 5.133319999991935e+000	 1.015644916841666e+001
0	 6.333350000014582e+000	 5.199979999988400e+000	 1.015362226888780e+001
0	 6.333350000014583e+000	 5.266639999985467e+000	 1.015075190259348e+001
0	 6.333350000014584e+000	 5.333299999983334e+000	 1.014783102940518e+001
0	 6.400020000016399e+000	 4.666700000016666e+000	 1.017093907100488e+001
0	 6.400020000016401e+000	 4.733360000014534e+000	 1.016838900224950e+001
0	 6.400020000016399e+000	 4.800020000011601e+000	 1.016583649105879e+001
0	 6.400020000016401e+000	 4.866680000008067e+000	 1.016327443430831e+001
0	 6.400020000016399e+000	 4.933340000004133e+000	 1.016069572887362e+001
0	 6.400020000016398e+000	 5.000000000000000e+000	 1.015809327163028e+001
0	 6.400020000016399e+000	 5.066659999995868e+000	 1.015545995945387e+001
0	 6.400020000016401e+000	 5.133319999991935e+000	 1.015278868921997e+001
0	 6.400020000016400e+000	 5.199979999988400e+000	 1.015007235780412e+001
0	 6.400020000016401e+000	 5.266639999985467e+000	 1.014730386208193e+001
0	 6.400020000016398e+000	 5.333299999983333e+000	 1.014447609892895e+001
0	 6.466690000017616e+000	 4.666700000016667e+000	 1.016625095424576e+001
0	 6.466690000017616e+000	 4.733360000014533e+000	 1.016386886829214e+001
0	 6.466690000017616e+000	 4.800020000011600e+000	 1.016147476850272e+001
0	 6.466690000017617e+000	 4.866680000008068e+000	 1.015906178234931e+001
0	 6.466690000017615e+000	 4.933340000004133e+000	 1.015662303730362e+001
0	 6.466690000017616e+000	 5.000000000000001e+000	 1.015415166083745e+001
0	 6.466690000017614e+000	 5.066659999995867e+000	 1.015164078042256e+001
0	 6.466690000017617e+000	 5.133319999991934e+000	 1.014908352353073e+001
0	 6.466690000017614e+000	 5.199979999988400e+000	 1.014647301763372e+001
0	 6.466690000017617e+000	 5.266639999985468e+000	 1.014380239020331e+001
0	 6.466690000017616e+000	 5.333299999983333e+000	 1.014106476871126e+001
0	 6.533360000018133e+000	 4.666700000016666e+000	 1.016155868320897e+001
0	 6.533360000018132e+000	 4.733360000014533e+000	 1.015933961179066e+001
0	 6.533360000018134e+000	 4.800020000011601e+000	 1.015709821281478e+001
0	 6.533360000018132e+000	 4.866680000008067e+000	 1.015482813794137e+001
0	 6.533360000018132e+000	 4.933340000004135e+000	 1.015252303883050e+001
0	 6.533360000018133e+000	 5.000000000000001e+000	 1.015017656714223e+001
0	 6.533360000018131e+000	 5.066659999995865e+000	 1.014778237453659e+001
0	 6.533360000018133e+000	 5.133319999991936e+000	 1.014533411267369e+001
0	 6.533360000018130e+000	 5.199979999988400e+000	 1.014282543321354e+001
0	 6.533360000018131e+000	 5.266639999985467e+000	 1.014024998781626e+001
0	 6.533360000018134e+000	 5.333299999983335e+000	 1.013760142814188e+001
0	 6.600030000017847e+000	 4.666700000016665e+000	 1.015687352489823e+001
0	 6.600030000017849e+000	 4.733360000014534e+000	 1.015480923569489e+001
0	 6.600030000017847e+000	 4.800020000011600e+000	 1.015271213540028e+001
0	 6.600030000017848e+000	 4.866680000008065e+000	 1.015057669345484e+001
0	 6.600030000017847e+000	 4.933340000004133e+000	 1.014839737929899e+001
0	 6.600030000017849e+000	 4.999999999999999e+000	 1.014616866237320e+001
0	 6.600030000017847e+000	 5.066659999995868e+000	 1.014388501211791e+001
0	 6.600030000017848e+000	 5.133319999991934e+000	 1.014154089797355e+001
0	 6.600030000017849e+000	 5.199979999988400e+000	 1.013913078938059e+001
0	 6.600030000017848e+000	 5.266639999985467e+000	 1.013664915577946e+001
0	 6.600030000017847e+000	 5.333299999983335e+000	 1.013409046661063e+001
0	 6.666700000016667e+000	 4.666700000016667e+000	 1.015220674631725e+001
0	 6.666700000016668e+000	 4.733360000014534e+000	 1.015028574295461e+001
0	 6.666700000016665e+000	 4.800020000011600e+000	 1.014832184766456e+001
0	 6.666700000016667e+000	 4.866680000008067e+000	 1.014631064126000e+001
0	 6.666700000016669e+000	 4.933340000004135e+000	 1.014424770455385e+001
0	 6.666700000016666e+000	 5.000000000000001e+000	 1.014212861835902e+001
0	 6.666700000016667e+000	 5.066659999995867e+000	 1.013994896348845e+001
0	 6.666700000016666e+000	 5.133319999991935e+000	 1.013770432075507e+001
0	 6.666700000016666e+000	 5.199979999988400e+000	 1.013539027097180e+001
0	 6.666700000016665e+000	 5.266639999985468e+000	 1.013300239495156e+001
0	 6.666700000016665e+000	 5.333299999983334e+000	 1.013053627350731e+001
0	 6.000000000000000e+000	 5.333299999983334e+000	 1.016360605702143e+001
0	 6.000000000000000e+000	 5.399969999982150e+000	 1.016010994172925e+001
0	 6.000000000000001e+000	 5.466639999981868e+000	 1.015662658972377e+001
0	 6.000000000000000e+000	 5.533309999982383e+000	 1.015315160094902e+001
0	 6.000000000000000e+000	 5.599979999983598e+000	 1.014968057534910e+001
0	 5.999999999999998e+000	 5.666649999985416e+000	 1.014620911286807e+001
0	 5.999999999999998e+000	 5.733319999987732e+000	 1.014273281344998e+001
0	 5.999999999999999e+000	 5.799989999990449e+000	 1.013924727703889e+001
0	 5.999999999999998e+000	 5.866659999993467e+000	 1.013574810357887e+001
0	 6.000000000000000e+000	 5.933329999996683e+000	 1.013223089301400e+001
0	 5.999999999999999e+000	 5.999999999999999e+000	 1.012869124528832e+001
0	 6.066670000003317e+000	 5.333299999983335e+000	 1.016059896609948e+001
0	 6.066670000003316e+000	 5.399969999982148e+000	 1.015723131845144e+001
0	 6.066670000003318e+000	 5.466639999981866e+000	 1.015386778948756e+001
0	 6.066670000003319e+000	 5.533309999982384e+000	 1.015050496424579e+001
0	 6.066670000003316e+000	 5.599979999983599e+000	 1.014713942776410e+001
0	 6.066670000003313e+000	 5.666649999985414e+000	 1.014376776508040e+001
0	 6.066670000003316e+000	 5.733319999987732e+000	 1.014038656123265e+001
0	 6.066670000003319e+000	 5.799989999990450e+000	 1.013699240125878e+001
0	 6.066670000003316e+000	 5.866659999993466e+000	 1.013358187019675e+001
0	 6.066670000003319e+000	 5.933329999996684e+000	 1.013015155308450e+001
0	 6.066670000003318e+000	 6.000000000000000e+000	 1.012669803495998e+001
0	 6.133340000006531e+000	 5.333299999983334e+000	 1.015751352848710e+001
0	 6.133340000006536e+000	 5.399969999982150e+000	 1.015426248162114e+001
0	 6.133340000006532e+000	 5.466639999981864e+000	 1.015100952342088e+001
0	 6.133340000006530e+000	 5.533309999982381e+000	 1.014775205806718e+001
0	 6.133340000006533e+000	 5.599979999983601e+000	 1.014448748974091e+001
0	 6.133340000006535e+000	 5.666649999985417e+000	 1.014121322262293e+001
0	 6.133340000006533e+000	 5.733319999987734e+000	 1.013792666089409e+001
0	 6.133340000006533e+000	 5.799989999990449e+000	 1.013462520873525e+001
0	 6.133340000006534e+000	 5.866659999993467e+000	 1.013130627032730e+001
0	 6.133340000006535e+000	 5.933329999996684e+000	 1.012796724985107e+001
0	 6.133340000006534e+000	 6.000000000000000e+000	 1.012460555148744e+001
0	 6.200010000009550e+000	 5.333299999983334e+000	 1.015435413357405e+001
0	 6.200010000009550e+000	 5.399969999982150e+000	 1.015120982799265e+001
0	 6.200010000009551e+000	 5.466639999981866e+000	 1.014805986014730e+001
0	 6.200010000009551e+000	 5.533309999982384e+000	 1.014490228741080e+001
0	 6.200010000009550e+000	 5.599979999983599e+000	 1.014173516715598e+001
0	 6.200010000009550e+000	 5.666649999985416e+000	 1.013855655675565e+001
0	 6.200010000009550e+000	 5.733319999987734e+000	 1.013536451358264e+001
0	 6.200010000009550e+000	 5.799989999990450e+000	 1.013215709500977e+001
0	 6.200010000009551e+000	 5.866659999993467e+000	 1.012893235840984e+001
0	 6.200010000009550e+000	 5.933329999996683e+000	 1.012568836115568e+001
0	 6.200010000009550e+000	 6.000000000000001e+000	 1.012242316062010e+001
0	 6.266680000012265e+000	 5.333299999983333e+000	 1.015112517075015e+001
0	 6.266680000012268e+000	 5.399969999982151e+000	 1.014807975432028e+001
0	 6.266680000012266e+000	 5.466639999981866e+000	 1.014502686829037e+001
0	 6.266680000012264e+000	 5.533309999982383e+000	 1.014196505727424e+001
0	 6.266680000012267e+000	 5.599979999983600e+000	 1.013889286588571e+001
0	 6.266680000012268e+000	 5.666649999985417e+000	 1.013580883873857e+001
0	 6.266680000012268e+000	 5.733319999987733e+000	 1.013271152044664e+001
0	 6.266680000012266e+000	 5.799989999990450e+000	 1.012959945562375e+001
0	 6.266680000012265e+000	 5.866659999993466e+000	 1.012647118888370e+001
0	 6.266680000012268e+000	 5.933329999996684e+000	 1.012332526484030e+001
0	 6.266680000012266e+000	 5.999999999999998e+000	 1.012016022810735e+001
0	 6.333350000014584e+000	 5.333299999983334e+000	 1.014783102940518e+001
0	 6.333350000014582e+000	 5.399969999982148e+000	 1.014487865735830e+001
0	 6.333350000014584e+000	 5.466639999981868e+000	 1.014191861647366e+001
0	 6.333350000014582e+000	 5.533309999982383e+000	 1.013894977265511e+001
0	 6.333350000014582e+000	 5.599979999983598e+000	 1.013597099180649e+001
0	 6.333350000014582e+000	 5.666649999985416e+000	 1.013298113983165e+001
0	 6.333350000014583e+000	 5.733319999987734e+000	 1.012997908263442e+001
0	 6.333350000014585e+000	 5.799989999990450e+000	 1.012696368611865e+001
0	 6.333350000014583e+000	 5.866659999993468e+000	 1.012393381618820e+001
0	 6.333350000014582e+000	 5.933329999996683e+000	 1.012088833874691e+001
0	 6.333350000014583e+000	 6.000000000000000e+000	 1.011782611969860e+001
0	 6.400020000016398e+000	 5.333299999983333e+000	 1.014447609892895e+001
0	 6.400020000016399e+000	 5.399969999982150e+000	 1.014161293386103e+001
0	 6.400020000016398e+000	 5.466639999981866e+000	 1.013874317332074e+001
0	 6.400020000016401e+000	 5.533309999982384e+000	 1.013586583855101e+001
0	 6.400020000016400e+000	 5.599979999983600e+000	 1.013297995079474e+001
0	 6.400020000016397e+000	 5.666649999985414e+000	 1.013008453129486e+001
0	 6.400020000016398e+000	 5.733319999987731e+000	 1.012717860129428e+001
0	 6.400020000016399e+000	 5.799989999990449e+000	 1.012426118203591e+001
0	 6.400020000016399e+000	 5.866659999993467e+000	 1.012133129476268e+001
0	 6.400020000016398e+000	 5.933329999996683e+000	 1.011838796071748e+001
0	 6.400020000016399e+000	 6.000000000000000e+000	 1.011543020114324e+001
0	 6.466690000017616e+000	 5.333299999983333e+000	 1.014106476871126e+001
0	 6.466690000017615e+000	 5.399969999982149e+000	 1.013828898058276e+001
0	 6.466690000017614e+000	 5.466639999981866e+000	 1.013550860745517e+001
0	 6.466690000017616e+000	 5.533309999982383e+000	 1.013272265995955e+001
0	 6.466690000017615e+000	 5.599979999983599e+000	 1.012993014872688e+001
0	 6.466690000017614e+000	 5.666649999985416e+000	 1.012713008438821e+001
0	 6.466690000017617e+000	 5.733319999987733e+000	 1.012432147757457e+001
0	 6.466690000017616e+000	 5.799989999990450e+000	 1.012150333891696e+001
0	 6.466690000017615e+000	 5.866659999993465e+000	 1.011867467904643e+001
0	 6.466690000017618e+000	 5.933329999996684e+000	 1.011583450859399e+001
0	 6.466690000017616e+000	 6.000000000000001e+000	 1.011298183819065e+001
0	 6.533360000018134e+000	 5.333299999983335e+000	 1.013760142814188e+001
0	 6.533360000018129e+000	 5.399969999982148e+000	 1.013491319427777e+001
0	 6.533360000018130e+000	 5.466639999981864e+000	 1.013222298750052e+001
0	 6.533360000018132e+000	 5.533309999982382e+000	 1.012952964187830e+001
0	 6.533360000018130e+000	 5.599979999983598e+000	 1.012683199147931e+001
0	 6.533360000018132e+000	 5.666649999985417e+000	 1.012412887037167e+001
0	 6.533360000018130e+000	 5.733319999987733e+000	 1.012141911262361e+001
0	 6.533360000018131e+000	 5.799989999990448e+000	 1.011870155230324e+001
0	 6.533360000018131e+000	 5.866659999993468e+000	 1.011597502347879e+001
0	 6.533360000018129e+000	 5.933329999996682e+000	 1.011323836021840e+001
0	 6.533360000018134e+000	 6.000000000000001e+000	 1.011049039659026e+001
0	 6.600030000017847e+000	 5.333299999983335e+000	 1.013409046661063e+001
0	 6.600030000017848e+000	 5.399969999982150e+000	 1.013149197170037e+001
0	 6.600030000017849e+000	 5.466639999981868e+000	 1.012889438208035e+001
0	 6.600030000017848e+000	 5.533309999982385e+000	 1.012629618930490e+001
0	 6.600030000017847e+000	 5.599979999983598e+000	 1.012369588492842e+001
0	 6.600030000017847e+000	 5.666649999985416e+000	 1.012109196050523e+001
0	 6.600030000017850e+000	 5.733319999987733e+000	 1.011848290758972e+001
0	 6.600030000017848e+000	 5.799989999990450e+000	 1.011586721773621e+001
0	 6.600030000017848e+000	 5.866659999993467e+000	 1.011324338249911e+001
0	 6.600030000017847e+000	 5.933329999996683e+000	 1.011060989343272e+001
0	 6.600030000017847e+000	 5.999999999999998e+000	 1.010796524209144e+001
0	 6.666700000016665e+000	 5.333299999983334e+000	 1.013053627350730e+001
0	 6.666700000016668e+000	 5.399969999982151e+000	 1.012803170960486e+001
0	 6.666700000016667e+000	 5.466639999981866e+000	 1.012553085981821e+001
0	 6.666700000016667e+000	 5.533309999982384e+000	 1.012303170723694e+001
0	 6.666700000016667e+000	 5.599979999983600e+000	 1.012053223495063e+001
0	 6.666700000016665e+000	 5.666649999985416e+000	 1.011803042604886e+001
0	 6.666700000016665e+000	 5.733319999987732e+000	 1.011552426362123e+001
0	 6.666700000016665e+000	 5.799989999990448e+000	 1.011301173075730e+001
0	 6.666700000016665e+000	 5.866659999993468e+000	 1.011049081054666e+001
0	 6.666700000016665e+000	 5.933329999996682e+000	 1.010795948607890e+001
0	 6.666700000016668e+000	 6.000000000000002e+000	 1.010541574044358e+001
0	 5.999999999999999e+000	 5.999999999999999e+000	 1.012869124528832e+001
0	 6.000000000000000e+000	 6.066670000003318e+000	 1.012516280502517e+001
0	 6.000000000000000e+000	 6.133340000006533e+000	 1.012168065408652e+001
0	 5.999999999999996e+000	 6.200010000009550e+000	 1.011824254827435e+001
0	 5.999999999999998e+000	 6.266680000012267e+000	 1.011484624339061e+001
0	 6.000000000000000e+000	 6.333350000014585e+000	 1.011148949523732e+001
0	 5.999999999999998e+000	 6.400020000016399e+000	 1.010817005961643e+001
0	 6.000000000000001e+000	 6.466690000017618e+000	 1.010488569232991e+001
0	 6.000000000000002e+000	 6.533360000018136e+000	 1.010163414917977e+001
0	 6.000000000000001e+000	 6.600030000017850e+000	 1.009841318596797e+001
0	 6.000000000000002e+000	 6.666700000016668e+000	 1.009522055849649e+001
0	 6.066670000003318e+000	 6.000000000000000e+000	 1.012669803495998e+001
0	 6.066670000003316e+000	 6.066670000003316e+000	 1.012325547184734e+001
0	 6.066670000003316e+000	 6.133340000006532e+000	 1.011985851193087e+001
0	 6.066670000003319e+000	 6.200010000009550e+000	 1.011650447848864e+001
0	 6.066670000003319e+000	 6.266680000012269e+000	 1.011319069479870e+001
0	 6.066670000003316e+000	 6.333350000014583e+000	 1.010991448413911e+001
0	 6.066670000003319e+000	 6.400020000016401e+000	 1.010667316978795e+001
0	 6.066670000003318e+000	 6.466690000017617e+000	 1.010346407502325e+001
0	 6.066670000003316e+000	 6.533360000018132e+000	 1.010028452312313e+001
0	 6.066670000003317e+000	 6.600030000017850e+000	 1.009713183736561e+001
0	 6.066670000003319e+000	 6.666700000016667e+000	 1.009400334102878e+001
0	 6.133340000006534e+000	 6.000000000000000e+000	 1.012460555148744e+001
0	 6.133340000006535e+000	 6.066670000003318e+000	 1.012125460558477e+001
0	 6.133340000006534e+000	 6.133340000006534e+000	 1.011794755939642e+001
0	 6.133340000006533e+000	 6.200010000009551e+000	 1.011468139246070e+001
0	 6.133340000006533e+000	 6.266680000012268e+000	 1.011145308431594e+001
0	 6.133340000006533e+000	 6.333350000014583e+000	 1.010825961450043e+001
0	 6.133340000006533e+000	 6.400020000016401e+000	 1.010509796255253e+001
0	 6.133340000006532e+000	 6.466690000017617e+000	 1.010196510801052e+001
0	 6.133340000006533e+000	 6.533360000018134e+000	 1.009885803041273e+001
0	 6.133340000006534e+000	 6.600030000017851e+000	 1.009577370929747e+001
0	 6.133340000006531e+000	 6.666700000016665e+000	 1.009270912420308e+001
0	 6.200010000009550e+000	 6.000000000000001e+000	 1.012242316062010e+001
0	 6.200010000009550e+000	 6.066670000003318e+000	 1.011916846411806e+001
0	 6.200010000009551e+000	 6.133340000006533e+000	 1.011595509043784e+001
0	 6.200010000009551e+000	 6.200010000009551e+000	 1.011277976416213e+001
0	 6.200010000009550e+000	 6.266680000012268e+000	 1.010963920987371e+001
0	 6.200010000009550e+000	 6.333350000014583e+000	 1.010653015215530e+001
0	 6.200010000009549e+000	 6.400020000016401e+000	 1.010344931558962e+001
0	 6.200010000009552e+000	 6.466690000017619e+000	 1.010039342475944e+001
0	 6.200010000009551e+000	 6.533360000018135e+000	 1.009735920424745e+001
0	 6.200010000009549e+000	 6.600030000017850e+000	 1.009434337863643e+001
0	 6.200010000009550e+000	 6.666700000016667e+000	 1.009134267250908e+001
0	 6.266680000012266e+000	 5.999999999999998e+000	 1.012016022810735e+001
0	 6.266680000012268e+000	 6.066670000003319e+000	 1.011700530532787e+001
0	 6.266680000012265e+000	 6.133340000006531e+000	 1.011388839900983e+001
0	 6.266680000012265e+000	 6.200010000009550e+000	 1.011080606756458e+001
0	 6.266680000012268e+000	 6.266680000012268e+000	 1.010775486940342e+001
0	 6.266680000012267e+000	 6.333350000014585e+000	 1.010473136293767e+001
0	 6.266680000012268e+000	 6.400020000016402e+000	 1.010173210657868e+001
0	 6.266680000012265e+000	 6.466690000017616e+000	 1.009875365873773e+001
0	 6.266680000012266e+000	 6.533360000018133e+000	 1.009579257782619e+001
0	 6.266680000012267e+000	 6.600030000017852e+000	 1.009284542225533e+001
0	 6.266680000012268e+000	 6.666700000016667e+000	 1.008990875043651e+001
0	 6.333350000014583e+000	 6.000000000000000e+000	 1.011782611969860e+001
0	 6.333350000014582e+000	 6.066670000003317e+000	 1.011477338709478e+001
0	 6.333350000014582e+000	 6.133340000006532e+000	 1.011175477906711e+001
0	 6.333350000014584e+000	 6.200010000009550e+000	 1.010876677663962e+001
0	 6.333350000014582e+000	 6.266680000012268e+000	 1.010580586083642e+001
0	 6.333350000014583e+000	 6.333350000014583e+000	 1.010286851268156e+001
0	 6.333350000014584e+000	 6.400020000016402e+000	 1.009995121319913e+001
0	 6.333350000014582e+000	 6.466690000017616e+000	 1.009705044341318e+001
0	 6.333350000014582e+000	 6.533360000018134e+000	 1.009416268434781e+001
0	 6.333350000014582e+000	 6.600030000017848e+000	 1.009128441702707e+001
0	 6.333350000014583e+000	 6.666700000016667e+000	 1.008841212247505e+001
0	 6.400020000016399e+000	 6.000000000000000e+000	 1.011543020114324e+001
0	 6.400020000016399e+000	 6.066670000003318e+000	 1.011248096729946e+001
0	 6.400020000016398e+000	 6.133340000006531e+000	 1.010956152456435e+001
0	 6.400020000016399e+000	 6.200010000009551e+000	 1.010666836535890e+001
0	 6.400020000016400e+000	 6.266680000012267e+000	 1.010379798210409e+001
0	 6.400020000016400e+000	 6.333350000014583e+000	 1.010094686722093e+001
0	 6.400020000016401e+000	 6.400020000016402e+000	 1.009811151313041e+001
0	 6.400020000016401e+000	 6.466690000017618e+000	 1.009528841225349e+001
0	 6.400020000016399e+000	 6.533360000018136e+000	 1.009247405701120e+001
0	 6.400020000016400e+000	 6.600030000017852e+000	 1.008966493982451e+001
0	 6.400020000016401e+000	 6.666700000016666e+000	 1.008685755311441e+001
0	 6.466690000017616e+000	 6.000000000000001e+000	 1.011298183819065e+001
0	 6.466690000017617e+000	 6.066670000003318e+000	 1.011013630382250e+001
0	 6.466690000017616e+000	 6.133340000006533e+000	 1.010731592945626e+001
0	 6.466690000017615e+000	 6.200010000009551e+000	 1.010451730769400e+001
0	 6.466690000017616e+000	 6.266680000012268e+000	 1.010173703113783e+001
0	 6.466690000017617e+000	 6.333350000014584e+000	 1.009897169238977e+001
0	 6.466690000017616e+000	 6.400020000016400e+000	 1.009621788405196e+001
0	 6.466690000017617e+000	 6.466690000017617e+000	 1.009347219872643e+001
0	 6.466690000017615e+000	 6.533360000018134e+000	 1.009073122901526e+001
0	 6.466690000017616e+000	 6.600030000017850e+000	 1.008799156752053e+001
0	 6.466690000017615e+000	 6.666700000016666e+000	 1.008524980684432e+001
0	 6.533360000018134e+000	 6.000000000000001e+000	 1.011049039659026e+001
0	 6.533360000018130e+000	 6.066670000003315e+000	 1.010774765454454e+001
0	 6.533360000018130e+000	 6.133340000006532e+000	 1.010502528769754e+001
0	 6.533360000018132e+000	 6.200010000009550e+000	 1.010232007761657e+001
0	 6.533360000018130e+000	 6.266680000012266e+000	 1.009962880586899e+001
0	 6.533360000018132e+000	 6.333350000014583e+000	 1.009694825402210e+001
0	 6.533360000018132e+000	 6.400020000016400e+000	 1.009427520364323e+001
0	 6.533360000018130e+000	 6.466690000017617e+000	 1.009160643629970e+001
0	 6.533360000018131e+000	 6.533360000018136e+000	 1.008893873355885e+001
0	 6.533360000018131e+000	 6.600030000017850e+000	 1.008626887698800e+001
0	 6.533360000018131e+000	 6.666700000016665e+000	 1.008359364815449e+001
0	 6.600030000017847e+000	 5.999999999999998e+000	 1.010796524209144e+001
0	 6.600030000017847e+000	 6.066670000003319e+000	 1.010532327734619e+001
0	 6.600030000017850e+000	 6.133340000006535e+000	 1.010269689324287e+001
0	 6.600030000017848e+000	 6.200010000009552e+000	 1.010008314909822e+001
0	 6.600030000017848e+000	 6.266680000012269e+000	 1.009747910422897e+001
0	 6.600030000017848e+000	 6.333350000014584e+000	 1.009488181795186e+001
0	 6.600030000017847e+000	 6.400020000016398e+000	 1.009228834958365e+001
0	 6.600030000017849e+000	 6.466690000017618e+000	 1.008969575844107e+001
0	 6.600030000017847e+000	 6.533360000018134e+000	 1.008710110384089e+001
0	 6.600030000017847e+000	 6.600030000017849e+000	 1.008450144509981e+001
0	 6.600030000017847e+000	 6.666700000016665e+000	 1.008189384153459e+001
0	 6.666700000016668e+000	 6.000000000000002e+000	 1.010541574044358e+001
0	 6.666700000016667e+000	 6.066670000003318e+000	 1.010287143010809e+001
0	 6.666700000016665e+000	 6.133340000006532e+000	 1.010033804004697e+001
0	 6.666700000016666e+000	 6.200010000009550e+000	 1.009781299611054e+001
0	 6.666700000016666e+000	 6.266680000012267e+000	 1.009529372414913e+001
0	 6.666700000016667e+000	 6.333350000014586e+000	 1.009277765001307e+001
0	 6.666700000016667e+000	 6.400020000016401e+000	 1.009026219955267e+001
0	 6.666700000016667e+000	 6.466690000017616e+000	 1.008774479861828e+001
0	 6.666700000016666e+000	 6.533360000018132e+000	 1.008522287306022e+001
0	 6.666700000016667e+000	 6.600030000017851e+000	 1.008269384872881e+001
0	 6.666700000016666e+000	 6.666700000016667e+000	 1.008015515147438e+001
0	 6.000000000000002e+000	 6.666700000016668e+000	 1.009522055849649e+001
0	 6.000000000000000e+000	 6.733360000014532e+000	 1.009206507987614e+001
0	 6.000000000000000e+000	 6.800020000011600e+000	 1.008895481622566e+001
0	 6.000000000000000e+000	 6.866680000008066e+000	 1.008588783343074e+001
0	 6.000000000000001e+000	 6.933340000004134e+000	 1.008286219737714e+001
0	 6.000000000000000e+000	 6.999999999999998e+000	 1.007987597395058e+001
0	 6.000000000000001e+000	 7.066659999995868e+000	 1.007692722903679e+001
0	 6.000000000000000e+000	 7.133319999991935e+000	 1.007401402852147e+001
0	 6.000000000000000e+000	 7.199979999988401e+000	 1.007113443829039e+001
0	 6.000000000000000e+000	 7.266639999985465e+000	 1.006828652422924e+001
0	 6.000000000000000e+000	 7.333299999983332e+000	 1.006546835222374e+001
0	 6.066670000003319e+000	 6.666700000016667e+000	 1.009400334102878e+001
0	 6.066670000003317e+000	 6.733360000014534e+000	 1.009090836171533e+001
0	 6.066670000003314e+000	 6.800020000011598e+000	 1.008785588828291e+001
0	 6.066670000003317e+000	 6.866680000008065e+000	 1.008484413860406e+001
0	 6.066670000003320e+000	 6.933340000004136e+000	 1.008187133055139e+001
0	 6.066670000003319e+000	 7.000000000000000e+000	 1.007893568199744e+001
0	 6.066670000003319e+000	 7.066659999995868e+000	 1.007603541081479e+001
0	 6.066670000003319e+000	 7.133319999991935e+000	 1.007316873487600e+001
0	 6.066670000003317e+000	 7.199979999988400e+000	 1.007033387205366e+001
0	 6.066670000003315e+000	 7.266639999985465e+000	 1.006752904022031e+001
0	 6.066670000003317e+000	 7.333299999983333e+000	 1.006475245724853e+001
0	 6.133340000006531e+000	 6.666700000016665e+000	 1.009270912420308e+001
0	 6.133340000006534e+000	 6.733360000014532e+000	 1.008967452118550e+001
0	 6.133340000006533e+000	 6.800020000011599e+000	 1.008668013452718e+001
0	 6.133340000006533e+000	 6.866680000008065e+000	 1.008372430111317e+001
0	 6.133340000006531e+000	 6.933340000004131e+000	 1.008080535782854e+001
0	 6.133340000006532e+000	 6.999999999999997e+000	 1.007792164155832e+001
0	 6.133340000006534e+000	 7.066659999995868e+000	 1.007507148918758e+001
0	 6.133340000006535e+000	 7.133319999991934e+000	 1.007225323760136e+001
0	 6.133340000006535e+000	 7.199979999988401e+000	 1.006946522368470e+001
0	 6.133340000006532e+000	 7.266639999985466e+000	 1.006670578432266e+001
0	 6.133340000006531e+000	 7.333299999983332e+000	 1.006397325640028e+001
0	 6.200010000009550e+000	 6.666700000016667e+000	 1.009134267250908e+001
0	 6.200010000009550e+000	 6.733360000014531e+000	 1.008836855688422e+001
0	 6.200010000009551e+000	 6.800020000011601e+000	 1.008543273678102e+001
0	 6.200010000009551e+000	 6.866680000008067e+000	 1.008253363512266e+001
0	 6.200010000009551e+000	 6.933340000004134e+000	 1.007966967483234e+001
0	 6.200010000009552e+000	 7.000000000000000e+000	 1.007683927883319e+001
0	 6.200010000009551e+000	 7.066659999995867e+000	 1.007404087004841e+001
0	 6.200010000009551e+000	 7.133319999991936e+000	 1.007127287140118e+001
0	 6.200010000009552e+000	 7.199979999988400e+000	 1.006853370581466e+001
0	 6.200010000009550e+000	 7.266639999985466e+000	 1.006582179621199e+001
0	 6.200010000009550e+000	 7.333299999983334e+000	 1.006313556551640e+001
0	 6.266680000012268e+000	 6.666700000016667e+000	 1.008990875043651e+001
0	 6.266680000012267e+000	 6.733360000014534e+000	 1.008699546740906e+001
0	 6.266680000012267e+000	 6.800020000011600e+000	 1.008411887686694e+001
0	 6.266680000012268e+000	 6.866680000008067e+000	 1.008127745479709e+001
0	 6.266680000012267e+000	 6.933340000004133e+000	 1.007846967718646e+001
0	 6.266680000012264e+000	 6.999999999999997e+000	 1.007569402002195e+001
0	 6.266680000012265e+000	 7.066659999995864e+000	 1.007294895929052e+001
0	 6.266680000012267e+000	 7.133319999991935e+000	 1.007023297097911e+001
0	 6.266680000012266e+000	 7.199979999988402e+000	 1.006754453107464e+001
0	 6.266680000012268e+000	 7.266639999985467e+000	 1.006488211556404e+001
0	 6.266680000012266e+000	 7.333299999983333e+000	 1.006224420043427e+001
0	 6.333350000014583e+000	 6.666700000016667e+000	 1.008841212247505e+001
0	 6.333350000014583e+000	 6.733360000014533e+000	 1.008556025135760e+001
0	 6.333350000014582e+000	 6.800020000011598e+000	 1.008274373660748e+001
0	 6.333350000014583e+000	 6.866680000008065e+000	 1.007996107430103e+001
0	 6.333350000014582e+000	 6.933340000004131e+000	 1.007721076051462e+001
0	 6.333350000014583e+000	 7.000000000000000e+000	 1.007449129132455e+001
0	 6.333350000014582e+000	 7.066659999995867e+000	 1.007180116280716e+001
0	 6.333350000014583e+000	 7.133319999991935e+000	 1.006913887103880e+001
0	 6.333350000014583e+000	 7.199979999988400e+000	 1.006650291209580e+001
0	 6.333350000014583e+000	 7.266639999985467e+000	 1.006389178205450e+001
0	 6.333350000014582e+000	 7.333299999983334e+000	 1.006130397699125e+001
0	 6.400020000016401e+000	 6.666700000016666e+000	 1.008685755311441e+001
0	 6.400020000016401e+000	 6.733360000014534e+000	 1.008406790732741e+001
0	 6.400020000016399e+000	 6.800020000011600e+000	 1.008131249782518e+001
0	 6.400020000016398e+000	 6.866680000008065e+000	 1.007858980779909e+001
0	 6.400020000016401e+000	 6.933340000004134e+000	 1.007589832044052e+001
0	 6.400020000016398e+000	 6.999999999999998e+000	 1.007323651894090e+001
0	 6.400020000016400e+000	 7.066659999995867e+000	 1.007060288649154e+001
0	 6.400020000016399e+000	 7.133319999991935e+000	 1.006799590628389e+001
0	 6.400020000016401e+000	 7.199979999988401e+000	 1.006541406150928e+001
0	 6.400020000016401e+000	 7.266639999985468e+000	 1.006285583535911e+001
0	 6.400020000016400e+000	 7.333299999983335e+000	 1.006031971102476e+001
0	 6.466690000017615e+000	 6.666700000016666e+000	 1.008524980684433e+001
0	 6.466690000017616e+000	 6.733360000014533e+000	 1.008252343391607e+001
0	 6.466690000017616e+000	 6.800020000011600e+000	 1.007983034234253e+001
0	 6.466690000017616e+000	 6.866680000008067e+000	 1.007716896945579e+001
0	 6.466690000017615e+000	 6.933340000004134e+000	 1.007453775258790e+001
0	 6.466690000017616e+000	 7.000000000000001e+000	 1.007193512907093e+001
0	 6.466690000017614e+000	 7.066659999995867e+000	 1.006935953623694e+001
0	 6.466690000017618e+000	 7.133319999991935e+000	 1.006680941141801e+001
0	 6.466690000017618e+000	 7.199979999988401e+000	 1.006428319194620e+001
0	 6.466690000017615e+000	 7.266639999985467e+000	 1.006177931515356e+001
0	 6.466690000017615e+000	 7.333299999983335e+000	 1.005929621837216e+001
0	 6.533360000018131e+000	 6.666700000016665e+000	 1.008359364815449e+001
0	 6.533360000018131e+000	 6.733360000014533e+000	 1.008093182972115e+001
0	 6.533360000018133e+000	 6.800020000011599e+000	 1.007830245198210e+001
0	 6.533360000018133e+000	 6.866680000008068e+000	 1.007570387343574e+001
0	 6.533360000018132e+000	 6.933340000004133e+000	 1.007313445258043e+001
0	 6.533360000018133e+000	 7.000000000000001e+000	 1.007059254791458e+001
0	 6.533360000018132e+000	 7.066659999995867e+000	 1.006807651793659e+001
0	 6.533360000018132e+000	 7.133319999991934e+000	 1.006558472114483e+001
0	 6.533360000018132e+000	 7.199979999988400e+000	 1.006311551603769e+001
0	 6.533360000018131e+000	 7.266639999985466e+000	 1.006066726111356e+001
0	 6.533360000018132e+000	 7.333299999983335e+000	 1.005823831487084e+001
0	 6.600030000017847e+000	 6.666700000016665e+000	 1.008189384153459e+001
0	 6.600030000017850e+000	 6.733360000014533e+000	 1.007929809334023e+001
0	 6.600030000017847e+000	 6.800020000011597e+000	 1.007673400856642e+001
0	 6.600030000017847e+000	 6.866680000008067e+000	 1.007419983390349e+001
0	 6.600030000017847e+000	 6.933340000004133e+000	 1.007169381604184e+001
0	 6.600030000017847e+000	 6.999999999999998e+000	 1.006921420167179e+001
0	 6.600030000017849e+000	 7.066659999995868e+000	 1.006675923748372e+001
0	 6.600030000017849e+000	 7.133319999991934e+000	 1.006432717016796e+001
0	 6.600030000017849e+000	 7.199979999988401e+000	 1.006191624641490e+001
0	 6.600030000017849e+000	 7.266639999985467e+000	 1.005952471291485e+001
0	 6.600030000017847e+000	 7.333299999983334e+000	 1.005715081635818e+001
0	 6.666700000016666e+000	 6.666700000016667e+000	 1.008015515147438e+001
0	 6.666700000016667e+000	 6.733360000014533e+000	 1.007762722337088e+001
0	 6.666700000016665e+000	 6.800020000011598e+000	 1.007513019391798e+001
0	 6.666700000016666e+000	 6.866680000008067e+000	 1.007266216502364e+001
0	 6.666700000016667e+000	 6.933340000004133e+000	 1.007022123859582e+001
0	 6.666700000016665e+000	 6.999999999999999e+000	 1.006780551654248e+001
0	 6.666700000016667e+000	 7.066659999995868e+000	 1.006541310077159e+001
0	 6.666700000016665e+000	 7.133319999991936e+000	 1.006304209319110e+001
0	 6.666700000016666e+000	 7.199979999988400e+000	 1.006069059570896e+001
0	 6.666700000016666e+000	 7.266639999985467e+000	 1.005835671023313e+001
0	 6.666700000016665e+000	 7.333299999983333e+000	 1.005603853867157e+001
0	 6.000000000000000e+000	 7.333299999983332e+000	 1.006546835222374e+001
0	 6.000000000000001e+000	 7.399969999982152e+000	 1.006269237269621e+001
0	 6.000000000000002e+000	 7.466639999981867e+000	 1.005997178200804e+001
0	 6.000000000000001e+000	 7.533309999982384e+000	 1.005730450305191e+001
0	 6.000000000000000e+000	 7.599979999983600e+000	 1.005468845872045e+001
0	 6.000000000000000e+000	 7.666649999985416e+000	 1.005212157190634e+001
0	 6.000000000000000e+000	 7.733319999987733e+000	 1.004960176550223e+001
0	 5.999999999999998e+000	 7.799989999990449e+000	 1.004712696240078e+001
0	 5.999999999999998e+000	 7.866659999993466e+000	 1.004469508549467e+001
0	 6.000000000000000e+000	 7.933329999996684e+000	 1.004230405767653e+001
0	 6.000000000000000e+000	 8.000000000000000e+000	 1.003995180183905e+001
0	 6.066670000003317e+000	 7.333299999983333e+000	 1.006475245724853e+001
0	 6.066670000003317e+000	 7.399969999982152e+000	 1.006201664314230e+001
0	 6.066670000003316e+000	 7.466639999981865e+000	 1.005933471425745e+001
0	 6.066670000003319e+000	 7.533309999982385e+000	 1.005670453949615e+001
0	 6.066670000003319e+000	 7.599979999983599e+000	 1.005412398776060e+001
0	 6.066670000003317e+000	 7.666649999985416e+000	 1.005159092795303e+001
0	 6.066670000003318e+000	 7.733319999987733e+000	 1.004910322897564e+001
0	 6.066670000003319e+000	 7.799989999990449e+000	 1.004665875973063e+001
0	 6.066670000003318e+000	 7.866659999993468e+000	 1.004425538912020e+001
0	 6.066670000003319e+000	 7.933329999996684e+000	 1.004189098604658e+001
0	 6.066670000003318e+000	 8.000000000000002e+000	 1.003956341941197e+001
0	 6.133340000006531e+000	 7.333299999983332e+000	 1.006397325640028e+001
0	 6.133340000006534e+000	 7.399969999982149e+000	 1.006128011138454e+001
0	 6.133340000006534e+000	 7.466639999981867e+000	 1.005863929818806e+001
0	 6.133340000006530e+000	 7.533309999982381e+000	 1.005604864590995e+001
0	 6.133340000006533e+000	 7.599979999983598e+000	 1.005350598364937e+001
0	 6.133340000006534e+000	 7.666649999985415e+000	 1.005100914050544e+001
0	 6.133340000006534e+000	 7.733319999987733e+000	 1.004855594557732e+001
0	 6.133340000006533e+000	 7.799989999990449e+000	 1.004614422796412e+001
0	 6.133340000006534e+000	 7.866659999993468e+000	 1.004377181676501e+001
0	 6.133340000006535e+000	 7.933329999996683e+000	 1.004143654107910e+001
0	 6.133340000006534e+000	 7.999999999999999e+000	 1.003913623000556e+001
0	 6.200010000009550e+000	 7.333299999983334e+000	 1.006313556551640e+001
0	 6.200010000009547e+000	 7.399969999982147e+000	 1.006048734648642e+001
0	 6.200010000009551e+000	 7.466639999981868e+000	 1.005788986117612e+001
0	 6.200010000009551e+000	 7.533309999982385e+000	 1.005534091306898e+001
0	 6.200010000009549e+000	 7.599979999983599e+000	 1.005283830564841e+001
0	 6.200010000009550e+000	 7.666649999985415e+000	 1.005037984239787e+001
0	 6.200010000009549e+000	 7.733319999987732e+000	 1.004796332680083e+001
0	 6.200010000009550e+000	 7.799989999990451e+000	 1.004558656234074e+001
0	 6.200010000009550e+000	 7.866659999993466e+000	 1.004324735250104e+001
0	 6.200010000009550e+000	 7.933329999996684e+000	 1.004094350076520e+001
0	 6.200010000009550e+000	 8.000000000000000e+000	 1.003867281061667e+001
0	 6.266680000012266e+000	 7.333299999983333e+000	 1.006224420043427e+001
0	 6.266680000012268e+000	 7.399969999982152e+000	 1.005964291751145e+001
0	 6.266680000012267e+000	 7.466639999981866e+000	 1.005709073059793e+001
0	 6.266680000012265e+000	 7.533309999982382e+000	 1.005458543174885e+001
0	 6.266680000012268e+000	 7.599979999983600e+000	 1.005212481301935e+001
0	 6.266680000012267e+000	 7.666649999985416e+000	 1.004970666646459e+001
0	 6.266680000012268e+000	 7.733319999987733e+000	 1.004732878413971e+001
0	 6.266680000012266e+000	 7.799989999990449e+000	 1.004498895809986e+001
0	 6.266680000012265e+000	 7.866659999993466e+000	 1.004268498040022e+001
0	 6.266680000012268e+000	 7.933329999996685e+000	 1.004041464309590e+001
0	 6.266680000012268e+000	 8.000000000000000e+000	 1.003817573824207e+001
0	 6.333350000014582e+000	 7.333299999983334e+000	 1.006130397699125e+001
0	 6.333350000014582e+000	 7.399969999982148e+000	 1.005875139352316e+001
0	 6.333350000014582e+000	 7.466639999981865e+000	 1.005624623382975e+001
0	 6.333350000014583e+000	 7.533309999982384e+000	 1.005378629272524e+001
0	 6.333350000014582e+000	 7.599979999983599e+000	 1.005136936502388e+001
0	 6.333350000014583e+000	 7.666649999985416e+000	 1.004899324553989e+001
0	 6.333350000014583e+000	 7.733319999987733e+000	 1.004665572908749e+001
0	 6.333350000014584e+000	 7.799989999990449e+000	 1.004435461048093e+001
0	 6.333350000014584e+000	 7.866659999993467e+000	 1.004208768453443e+001
0	 6.333350000014583e+000	 7.933329999996684e+000	 1.003985274606224e+001
0	 6.333350000014584e+000	 8.000000000000000e+000	 1.003764758987859e+001
0	 6.400020000016400e+000	 7.333299999983335e+000	 1.006031971102476e+001
0	 6.400020000016399e+000	 7.399969999982150e+000	 1.005781734358506e+001
0	 6.400020000016399e+000	 7.466639999981867e+000	 1.005536069824783e+001
0	 6.400020000016400e+000	 7.533309999982382e+000	 1.005294758677379e+001
0	 6.400020000016401e+000	 7.599979999983601e+000	 1.005057582092363e+001
0	 6.400020000016400e+000	 7.666649999985417e+000	 1.004824321245804e+001
0	 6.400020000016399e+000	 7.733319999987734e+000	 1.004594757313772e+001
0	 6.400020000016400e+000	 7.799989999990449e+000	 1.004368671472336e+001
0	 6.400020000016398e+000	 7.866659999993465e+000	 1.004145844897566e+001
0	 6.400020000016398e+000	 7.933329999996682e+000	 1.003926058765531e+001
0	 6.400020000016399e+000	 8.000000000000000e+000	 1.003709094252303e+001
0	 6.466690000017615e+000	 7.333299999983335e+000	 1.005929621837216e+001
0	 6.466690000017614e+000	 7.399969999982149e+000	 1.005684533676065e+001
0	 6.466690000017614e+000	 7.466639999981864e+000	 1.005443845122846e+001
0	 6.466690000017617e+000	 7.533309999982384e+000	 1.005207340467015e+001
0	 6.466690000017613e+000	 7.599979999983598e+000	 1.004974803998026e+001
0	 6.466690000017616e+000	 7.666649999985416e+000	 1.004746020005335e+001
0	 6.466690000017616e+000	 7.733319999987733e+000	 1.004520772778392e+001
0	 6.466690000017615e+000	 7.799989999990448e+000	 1.004298846606656e+001
0	 6.466690000017616e+000	 7.866659999993468e+000	 1.004080025779579e+001
0	 6.466690000017618e+000	 7.933329999996683e+000	 1.003864094586617e+001
0	 6.466690000017616e+000	 8.000000000000000e+000	 1.003650837317222e+001
0	 6.533360000018132e+000	 7.333299999983335e+000	 1.005823831487084e+001
0	 6.533360000018130e+000	 7.399969999982148e+000	 1.005583994211345e+001
0	 6.533360000018130e+000	 7.466639999981864e+000	 1.005348382014791e+001
0	 6.533360000018131e+000	 7.533309999982383e+000	 1.005116783718997e+001
0	 6.533360000018132e+000	 7.599979999983599e+000	 1.004888988145545e+001
0	 6.533360000018132e+000	 7.666649999985417e+000	 1.004664784116008e+001
0	 6.533360000018132e+000	 7.733319999987733e+000	 1.004443960451966e+001
0	 6.533360000018131e+000	 7.799989999990448e+000	 1.004226305974996e+001
0	 6.533360000018131e+000	 7.866659999993466e+000	 1.004011609506677e+001
0	 6.533360000018132e+000	 7.933329999996684e+000	 1.003799659868583e+001
0	 6.533360000018131e+000	 7.999999999999999e+000	 1.003590245882296e+001
0	 6.600030000017847e+000	 7.333299999983334e+000	 1.005715081635818e+001
0	 6.600030000017848e+000	 7.399969999982151e+000	 1.005480572870699e+001
0	 6.600030000017848e+000	 7.466639999981866e+000	 1.005250113238244e+001
0	 6.600030000017849e+000	 7.533309999982385e+000	 1.005023497510891e+001
0	 6.600030000017847e+000	 7.599979999983599e+000	 1.004800520461082e+001
0	 6.600030000017847e+000	 7.666649999985415e+000	 1.004580976861255e+001
0	 6.600030000017848e+000	 7.733319999987733e+000	 1.004364661483847e+001
0	 6.600030000017847e+000	 7.799989999990449e+000	 1.004151369101299e+001
0	 6.600030000017847e+000	 7.866659999993465e+000	 1.003940894486050e+001
0	 6.600030000017846e+000	 7.933329999996682e+000	 1.003733032410539e+001
0	 6.600030000017848e+000	 8.000000000000000e+000	 1.003527577647204e+001
0	 6.666700000016665e+000	 7.333299999983333e+000	 1.005603853867157e+001
0	 6.666700000016665e+000	 7.399969999982150e+000	 1.005374726560476e+001
0	 6.666700000016668e+000	 7.466639999981867e+000	 1.005149471530832e+001
0	 6.666700000016667e+000	 7.533309999982384e+000	 1.004927890920260e+001
0	 6.666700000016665e+000	 7.599979999983599e+000	 1.004709786870805e+001
0	 6.666700000016666e+000	 7.666649999985416e+000	 1.004494961524500e+001
0	 6.666700000016665e+000	 7.733319999987731e+000	 1.004283217023388e+001
0	 6.666700000016665e+000	 7.799989999990450e+000	 1.004074355509507e+001
0	 6.666700000016665e+000	 7.866659999993465e+000	 1.003868179124894e+001
0	 6.666700000016666e+000	 7.933329999996684e+000	 1.003664490011589e+001
0	 6.666700000016668e+000	 8.000000000000000e+000	 1.003463090311631e+001
0	 6.000000000000000e+000	 8.000000000000000e+000	 1.003995180183905e+001
0	 5.999999999999999e+000	 8.066670000003319e+000	 1.003765086551418e+001
0	 6.000000000000001e+000	 8.133340000006534e+000	 1.003541365635664e+001
0	 5.999999999999998e+000	 8.200010000009549e+000	 1.003323788744321e+001
0	 6.000000000000000e+000	 8.266680000012267e+000	 1.003112127185070e+001
0	 6.000000000000001e+000	 8.333350000014583e+000	 1.002906152265591e+001
0	 6.000000000000000e+000	 8.400020000016401e+000	 1.002705635293565e+001
0	 6.000000000000000e+000	 8.466690000017616e+000	 1.002510347576670e+001
0	 6.000000000000000e+000	 8.533360000018133e+000	 1.002320060422587e+001
0	 5.999999999999998e+000	 8.600030000017849e+000	 1.002134545138998e+001
0	 6.000000000000000e+000	 8.666700000016666e+000	 1.001953573033581e+001
0	 6.066670000003318e+000	 8.000000000000002e+000	 1.003956341941197e+001
0	 6.066670000003318e+000	 8.066670000003317e+000	 1.003728596749336e+001
0	 6.066670000003315e+000	 8.133340000006532e+000	 1.003507177754923e+001
0	 6.066670000003318e+000	 8.200010000009552e+000	 1.003291852195400e+001
0	 6.066670000003316e+000	 8.266680000012267e+000	 1.003082387308216e+001
0	 6.066670000003314e+000	 8.333350000014582e+000	 1.002878550330812e+001
0	 6.066670000003317e+000	 8.400020000016399e+000	 1.002680108500634e+001
0	 6.066670000003319e+000	 8.466690000017620e+000	 1.002486829055125e+001
0	 6.066670000003316e+000	 8.533360000018133e+000	 1.002298479231731e+001
0	 6.066670000003317e+000	 8.600030000017849e+000	 1.002114826267897e+001
0	 6.066670000003318e+000	 8.666700000016668e+000	 1.001935637401068e+001
0	 6.133340000006534e+000	 7.999999999999999e+000	 1.003913623000556e+001
0	 6.133340000006533e+000	 8.066670000003315e+000	 1.003688477768617e+001
0	 6.133340000006532e+000	 8.133340000006534e+000	 1.003469595020658e+001
0	 6.133340000006533e+000	 8.200010000009549e+000	 1.003256738458167e+001
0	 6.133340000006532e+000	 8.266680000012268e+000	 1.003049671782631e+001
0	 6.133340000006535e+000	 8.333350000014583e+000	 1.002848158695544e+001
0	 6.133340000006534e+000	 8.400020000016401e+000	 1.002651962898391e+001
0	 6.133340000006533e+000	 8.466690000017618e+000	 1.002460848092666e+001
0	 6.133340000006533e+000	 8.533360000018135e+000	 1.002274577979858e+001
0	 6.133340000006536e+000	 8.600030000017849e+000	 1.002092916261454e+001
0	 6.133340000006533e+000	 8.666700000016665e+000	 1.001915626638945e+001
0	 6.200010000009550e+000	 8.000000000000000e+000	 1.003867281061667e+001
0	 6.200010000009549e+000	 8.066670000003319e+000	 1.003644968485252e+001
0	 6.200010000009550e+000	 8.133340000006536e+000	 1.003428839527961e+001
0	 6.200010000009550e+000	 8.200010000009550e+000	 1.003218654889610e+001
0	 6.200010000009550e+000	 8.266680000012267e+000	 1.003014175270014e+001
0	 6.200010000009550e+000	 8.333350000014583e+000	 1.002815161368987e+001
0	 6.200010000009549e+000	 8.400020000016403e+000	 1.002621373886343e+001
0	 6.200010000009550e+000	 8.466690000017618e+000	 1.002432573521898e+001
0	 6.200010000009550e+000	 8.533360000018137e+000	 1.002248520975468e+001
0	 6.200010000009551e+000	 8.600030000017851e+000	 1.002068976946866e+001
0	 6.200010000009551e+000	 8.666700000016666e+000	 1.001893702135907e+001
0	 6.266680000012268e+000	 8.000000000000000e+000	 1.003817573824207e+001
0	 6.266680000012268e+000	 8.066670000003315e+000	 1.003598307775223e+001
0	 6.266680000012265e+000	 8.133340000006532e+000	 1.003385133371924e+001
0	 6.266680000012265e+000	 8.200010000009550e+000	 1.003177808846731e+001
0	 6.266680000012267e+000	 8.266680000012268e+000	 1.002976092432066e+001
0	 6.266680000012267e+000	 8.333350000014582e+000	 1.002779742360344e+001
0	 6.266680000012267e+000	 8.400020000016401e+000	 1.002588516863989e+001
0	 6.266680000012266e+000	 8.466690000017616e+000	 1.002402174175422e+001
0	 6.266680000012268e+000	 8.533360000018135e+000	 1.002220472527062e+001
0	 6.266680000012266e+000	 8.600030000017849e+000	 1.002043170151332e+001
0	 6.266680000012265e+000	 8.666700000016666e+000	 1.001870025280651e+001
0	 6.333350000014584e+000	 8.000000000000000e+000	 1.003764758987859e+001
0	 6.333350000014583e+000	 8.066670000003317e+000	 1.003548734514521e+001
0	 6.333350000014583e+000	 8.133340000006534e+000	 1.003338698647642e+001
0	 6.333350000014583e+000	 8.200010000009552e+000	 1.003134407686527e+001
0	 6.333350000014582e+000	 8.266680000012268e+000	 1.002935617930483e+001
0	 6.333350000014583e+000	 8.333350000014583e+000	 1.002742085678816e+001
0	 6.333350000014582e+000	 8.400020000016401e+000	 1.002553567230832e+001
0	 6.333350000014583e+000	 8.466690000017620e+000	 1.002369818885839e+001
0	 6.333350000014582e+000	 8.533360000018133e+000	 1.002190596943143e+001
0	 6.333350000014584e+000	 8.600030000017851e+000	 1.002015657702050e+001
0	 6.333350000014583e+000	 8.666700000016668e+000	 1.001844757461869e+001
0	 6.400020000016399e+000	 8.000000000000000e+000	 1.003709094252303e+001
0	 6.400020000016400e+000	 8.066670000003319e+000	 1.003496487579132e+001
0	 6.400020000016399e+000	 8.133340000006534e+000	 1.003289757450204e+001
0	 6.400020000016399e+000	 8.200010000009550e+000	 1.003088658765991e+001
0	 6.400020000016399e+000	 8.266680000012267e+000	 1.002892946426968e+001
0	 6.400020000016397e+000	 8.333350000014582e+000	 1.002702375333604e+001
0	 6.400020000016399e+000	 8.400020000016399e+000	 1.002516700386374e+001
0	 6.400020000016399e+000	 8.466690000017618e+000	 1.002335676485753e+001
0	 6.400020000016397e+000	 8.533360000018133e+000	 1.002159058532211e+001
0	 6.400020000016400e+000	 8.600030000017851e+000	 1.001986601426220e+001
0	 6.400020000016399e+000	 8.666700000016666e+000	 1.001818060068257e+001
0	 6.466690000017616e+000	 8.000000000000000e+000	 1.003650837317222e+001
0	 6.466690000017618e+000	 8.066670000003319e+000	 1.003441805845044e+001
0	 6.466690000017615e+000	 8.133340000006532e+000	 1.003238531874703e+001
0	 6.466690000017614e+000	 8.200010000009552e+000	 1.003040769442122e+001
0	 6.466690000017617e+000	 8.266680000012268e+000	 1.002848272583218e+001
0	 6.466690000017615e+000	 8.333350000014587e+000	 1.002660795333910e+001
0	 6.466690000017616e+000	 8.400020000016401e+000	 1.002478091730118e+001
0	 6.466690000017616e+000	 8.466690000017618e+000	 1.002299915807764e+001
0	 6.466690000017614e+000	 8.533360000018133e+000	 1.002126021602763e+001
0	 6.466690000017617e+000	 8.600030000017853e+000	 1.001956163151039e+001
0	 6.466690000017617e+000	 8.666700000016666e+000	 1.001790094488510e+001
0	 6.533360000018131e+000	 7.999999999999999e+000	 1.003590245882296e+001
0	 6.533360000018131e+000	 8.066670000003317e+000	 1.003384928188243e+001
0	 6.533360000018131e+000	 8.133340000006534e+000	 1.003185244016235e+001
0	 6.533360000018131e+000	 8.200010000009549e+000	 1.002990947071915e+001
0	 6.533360000018132e+000	 8.266680000012265e+000	 1.002801791060935e+001
0	 6.533360000018132e+000	 8.333350000014585e+000	 1.002617529688936e+001
0	 6.533360000018132e+000	 8.400020000016399e+000	 1.002437916661567e+001
0	 6.533360000018133e+000	 8.466690000017616e+000	 1.002262705684476e+001
0	 6.533360000018130e+000	 8.533360000018133e+000	 1.002091650463306e+001
0	 6.533360000018130e+000	 8.600030000017849e+000	 1.001924504703707e+001
0	 6.533360000018133e+000	 8.666700000016665e+000	 1.001761022111325e+001
0	 6.600030000017848e+000	 8.000000000000000e+000	 1.003527577647204e+001
0	 6.600030000017848e+000	 8.066670000003317e+000	 1.003326093484717e+001
0	 6.600030000017850e+000	 8.133340000006534e+000	 1.003130115969887e+001
0	 6.600030000017847e+000	 8.200010000009550e+000	 1.002939399012368e+001
0	 6.600030000017848e+000	 8.266680000012267e+000	 1.002753696521816e+001
0	 6.600030000017848e+000	 8.333350000014583e+000	 1.002572762407883e+001
0	 6.600030000017848e+000	 8.400020000016399e+000	 1.002396350580222e+001
0	 6.600030000017849e+000	 8.466690000017620e+000	 1.002224214948488e+001
0	 6.600030000017848e+000	 8.533360000018135e+000	 1.002056109422337e+001
0	 6.600030000017847e+000	 8.600030000017849e+000	 1.001891787911423e+001
0	 6.600030000017849e+000	 8.666700000016666e+000	 1.001731004325397e+001
0	 6.666700000016668e+000	 8.000000000000000e+000	 1.003463090311631e+001
0	 6.666700000016666e+000	 8.066670000003317e+000	 1.003265540610452e+001
0	 6.666700000016665e+000	 8.133340000006532e+000	 1.003073369830755e+001
0	 6.666700000016666e+000	 8.200010000009550e+000	 1.002886332620477e+001
0	 6.666700000016665e+000	 8.266680000012267e+000	 1.002704183627563e+001
0	 6.666700000016666e+000	 8.333350000014583e+000	 1.002526677499951e+001
0	 6.666700000016667e+000	 8.400020000016401e+000	 1.002353568885586e+001
0	 6.666700000016667e+000	 8.466690000017618e+000	 1.002184612432409e+001
0	 6.666700000016665e+000	 8.533360000018133e+000	 1.002019562788359e+001
0	 6.666700000016666e+000	 8.600030000017851e+000	 1.001858174601384e+001
0	 6.666700000016666e+000	 8.666700000016666e+000	 1.001700202519420e+001
0	 6.000000000000000e+000	 8.666700000016666e+000	 1.001953573033581e+001
0	 6.000000000000000e+000	 8.733360002791903e+000	 1.001779180752989e+001
0	 6.000000000000000e+000	 8.800020022230555e+000	 1.001613256702108e+001
0	 6.000000000000000e+000	 8.866680074997040e+000	 1.001455430253890e+001
0	 6.000000000000000e+000	 8.933340177755781e+000	 1.001305330757834e+001
0	 6.000000000000000e+000	 9.000000347171181e+000	 1.001162587539982e+001
0	 6.000000000000001e+000	 9.066660599907667e+000	 1.001026829902923e+001
0	 5.999999999999998e+000	 9.133320952629655e+000	 1.000897687125791e+001
0	 6.000000000000000e+000	 9.199981422001558e+000	 1.000774788464265e+001
0	 5.999999999999998e+000	 9.266642024687796e+000	 1.000657763150563e+001
0	 6.000000000000000e+000	 9.333302777352783e+000	 1.000546240393458e+001
0	 6.066670000003318e+000	 8.666700000016668e+000	 1.001935637401068e+001
0	 6.066670000003316e+000	 8.733360002791903e+000	 1.001762925863415e+001
0	 6.066670000003314e+000	 8.800020022230555e+000	 1.001598565967720e+001
0	 6.066670000003318e+000	 8.866680074997040e+000	 1.001442196216417e+001
0	 6.066670000003318e+000	 8.933340177755778e+000	 1.001293455088713e+001
0	 6.066670000003319e+000	 9.000000347171183e+000	 1.001151981040586e+001
0	 6.066670000003319e+000	 9.066660599907669e+000	 1.001017412504775e+001
0	 6.066670000003317e+000	 9.133320952629656e+000	 1.000889387890797e+001
0	 6.066670000003318e+000	 9.199981422001562e+000	 1.000767545584935e+001
0	 6.066670000003316e+000	 9.266642024687796e+000	 1.000651523950237e+001
0	 6.066670000003316e+000	 9.333302777352783e+000	 1.000540961326524e+001
0	 6.133340000006533e+000	 8.666700000016665e+000	 1.001915626638945e+001
0	 6.133340000006531e+000	 8.733360002791903e+000	 1.001744709655549e+001
0	 6.133340000006533e+000	 8.800020022230553e+000	 1.001582035526331e+001
0	 6.133340000006534e+000	 8.866680074997040e+000	 1.001427251271413e+001
0	 6.133340000006534e+000	 8.933340177755776e+000	 1.001280003887912e+001
0	 6.133340000006535e+000	 9.000000347171183e+000	 1.001139940349940e+001
0	 6.133340000006532e+000	 9.066660599907666e+000	 1.001006707608603e+001
0	 6.133340000006534e+000	 9.133320952629656e+000	 1.000879952591996e+001
0	 6.133340000006534e+000	 9.199981422001560e+000	 1.000759322205214e+001
0	 6.133340000006532e+000	 9.266642024687798e+000	 1.000644463330339e+001
0	 6.133340000006533e+000	 9.333302777352783e+000	 1.000535022826453e+001
0	 6.200010000009551e+000	 8.666700000016666e+000	 1.001893702135907e+001
0	 6.200010000009551e+000	 8.733360002791905e+000	 1.001724693253862e+001
0	 6.200010000009549e+000	 8.800020022230555e+000	 1.001563824544127e+001
0	 6.200010000009550e+000	 8.866680074997042e+000	 1.001410750932719e+001
0	 6.200010000009550e+000	 8.933340177755779e+000	 1.001265127322876e+001
0	 6.200010000009550e+000	 9.000000347171179e+000	 1.001126608595058e+001
0	 6.200010000009551e+000	 9.066660599907669e+000	 1.000994849606944e+001
0	 6.200010000009549e+000	 9.133320952629655e+000	 1.000869505193436e+001
0	 6.200010000009550e+000	 9.199981422001558e+000	 1.000750230166655e+001
0	 6.200010000009550e+000	 9.266642024687799e+000	 1.000636679315944e+001
0	 6.200010000009550e+000	 9.333302777352781e+000	 1.000528507407868e+001
0	 6.266680000012265e+000	 8.666700000016666e+000	 1.001870025280651e+001
0	 6.266680000012266e+000	 8.733360002791901e+000	 1.001703037782828e+001
0	 6.266680000012265e+000	 8.800020022230552e+000	 1.001544092187299e+001
0	 6.266680000012267e+000	 8.866680074997042e+000	 1.001392850714184e+001
0	 6.266680000012268e+000	 8.933340177755781e+000	 1.001248975561059e+001
0	 6.266680000012267e+000	 9.000000347171183e+000	 1.001112128902951e+001
0	 6.266680000012264e+000	 9.066660599907666e+000	 1.000981972892339e+001
0	 6.266680000012266e+000	 9.133320952629656e+000	 1.000858169659163e+001
0	 6.266680000012265e+000	 9.199981422001558e+000	 1.000740381310811e+001
0	 6.266680000012268e+000	 9.266642024687798e+000	 1.000628269932124e+001
0	 6.266680000012267e+000	 9.333302777352783e+000	 1.000521497585399e+001
0	 6.333350000014583e+000	 8.666700000016668e+000	 1.001844757461869e+001
0	 6.333350000014584e+000	 8.733360002791903e+000	 1.001679904366918e+001
0	 6.333350000014582e+000	 8.800020022230555e+000	 1.001522997622035e+001
0	 6.333350000014583e+000	 8.866680074997040e+000	 1.001373706129654e+001
0	 6.333350000014582e+000	 8.933340177755781e+000	 1.001231698769910e+001
0	 6.333350000014583e+000	 9.000000347171183e+000	 1.001096644400628e+001
0	 6.333350000014582e+000	 9.066660599907669e+000	 1.000968211857327e+001
0	 6.333350000014582e+000	 9.133320952629653e+000	 1.000846069953224e+001
0	 6.333350000014582e+000	 9.199981422001558e+000	 1.000729887479229e+001
0	 6.333350000014584e+000	 9.266642024687798e+000	 1.000619333203948e+001
0	 6.333350000014585e+000	 9.333302777352783e+000	 1.000514075873677e+001
0	 6.400020000016399e+000	 8.666700000016666e+000	 1.001818060068257e+001
0	 6.400020000016399e+000	 8.733360002791903e+000	 1.001655454130605e+001
0	 6.400020000016400e+000	 8.800020022230557e+000	 1.001500700014520e+001
0	 6.400020000016401e+000	 8.866680074997042e+000	 1.001353472692973e+001
0	 6.400020000016399e+000	 8.933340177755779e+000	 1.001213447116877e+001
0	 6.400020000016397e+000	 9.000000347171179e+000	 1.001080298215099e+001
0	 6.400020000016400e+000	 9.066660599907669e+000	 1.000953700894442e+001
0	 6.400020000016400e+000	 9.133320952629656e+000	 1.000833330039667e+001
0	 6.400020000016399e+000	 9.199981422001558e+000	 1.000718860513465e+001
0	 6.400020000016398e+000	 9.266642024687796e+000	 1.000609967156489e+001
0	 6.400020000016399e+000	 9.333302777352783e+000	 1.000506324787328e+001
0	 6.466690000017617e+000	 8.666700000016666e+000	 1.001790094488510e+001
0	 6.466690000017616e+000	 8.733360002791899e+000	 1.001629848198361e+001
0	 6.466690000017617e+000	 8.800020022230559e+000	 1.001477358530946e+001
0	 6.466690000017616e+000	 8.866680074997042e+000	 1.001332305917984e+001
0	 6.466690000017613e+000	 8.933340177755776e+000	 1.001194370769414e+001
0	 6.466690000017617e+000	 9.000000347171181e+000	 1.001063233473376e+001
0	 6.466690000017615e+000	 9.066660599907673e+000	 1.000938574396229e+001
0	 6.466690000017614e+000	 9.133320952629656e+000	 1.000820073882535e+001
0	 6.466690000017616e+000	 9.199981422001557e+000	 1.000707412255071e+001
0	 6.466690000017616e+000	 9.266642024687796e+000	 1.000600269814822e+001
0	 6.466690000017616e+000	 9.333302777352783e+000	 1.000498326840981e+001
0	 6.533360000018133e+000	 8.666700000016665e+000	 1.001761022111325e+001
0	 6.533360000018132e+000	 8.733360002791901e+000	 1.001603247694661e+001
0	 6.533360000018132e+000	 8.800020022230555e+000	 1.001453132337498e+001
0	 6.533360000018132e+000	 8.866680074997044e+000	 1.001310361318537e+001
0	 6.533360000018130e+000	 8.933340177755779e+000	 1.001174619894966e+001
0	 6.533360000018133e+000	 9.000000347171184e+000	 1.001045593302471e+001
0	 6.533360000018130e+000	 9.066660599907664e+000	 1.000922966755223e+001
0	 6.533360000018132e+000	 9.133320952629655e+000	 1.000806425445879e+001
0	 6.533360000018130e+000	 9.199981422001557e+000	 1.000695654545596e+001
0	 6.533360000018131e+000	 9.266642024687796e+000	 1.000590339204014e+001
0	 6.533360000018131e+000	 9.333302777352781e+000	 1.000490164549266e+001
0	 6.600030000017849e+000	 8.666700000016666e+000	 1.001731004325397e+001
0	 6.600030000017848e+000	 8.733360002791901e+000	 1.001575813743976e+001
0	 6.600030000017847e+000	 8.800020022230555e+000	 1.001428180600366e+001
0	 6.600030000017849e+000	 8.866680074997040e+000	 1.001287794408474e+001
0	 6.600030000017848e+000	 8.933340177755778e+000	 1.001154344660989e+001
0	 6.600030000017850e+000	 9.000000347171184e+000	 1.001027520829396e+001
0	 6.600030000017849e+000	 9.066660599907669e+000	 1.000907012363962e+001
0	 6.600030000017847e+000	 9.133320952629655e+000	 1.000792508693746e+001
0	 6.600030000017847e+000	 9.199981422001558e+000	 1.000683699226594e+001
0	 6.600030000017847e+000	 9.266642024687796e+000	 1.000580273349140e+001
0	 6.600030000017848e+000	 9.333302777352783e+000	 1.000481920426811e+001
0	 6.666700000016666e+000	 8.666700000016666e+000	 1.001700202519420e+001
0	 6.666700000016665e+000	 8.733360002791899e+000	 1.001547707470777e+001
0	 6.666700000016665e+000	 8.800020022230555e+000	 1.001402662485738e+001
0	 6.666700000016666e+000	 8.866680074997040e+000	 1.001264760701640e+001
0	 6.666700000016667e+000	 8.933340177755779e+000	 1.001133695234929e+001
0	 6.666700000016666e+000	 9.000000347171179e+000	 1.001009159181158e+001
0	 6.666700000016667e+000	 9.066660599907669e+000	 1.000890845614986e+001
0	 6.666700000016666e+000	 9.133320952629658e+000	 1.000778447590181e+001
0	 6.666700000016665e+000	 9.199981422001558e+000	 1.000671658139616e+001
0	 6.666700000016667e+000	 9.266642024687796e+000	 1.000570170275273e+001
0	 6.666700000016665e+000	 9.333302777352781e+000	 1.000473676988242e+001
0	 6.000000000000000e+000	 9.333302777352783e+000	 1.000546240393458e+001
0	 6.000000000000002e+000	 9.399973674588175e+000	 1.000443420460422e+001
0	 5.999999999999998e+000	 9.466644621844619e+000	 1.000352459096470e+001
0	 6.000000000000001e+000	 9.533315502450000e+000	 1.000272869881361e+001
0	 6.000000000000001e+000	 9.599986199732197e+000	 1.000204166634798e+001
0	 6.000000000000001e+000	 9.666656597019093e+000	 1.000145863416427e+001
0	 6.000000000000002e+000	 9.733326577638577e+000	 1.000097474525838e+001
0	 6.000000000000000e+000	 9.799996024918523e+000	 1.000058514502569e+001
0	 6.000000000000000e+000	 9.866664822186824e+000	 1.000028498126124e+001
0	 6.000000000000000e+000	 9.933332852771352e+000	 1.000006940416004e+001
0	 6.000000000000000e+000	 1.000000000000000e+001	 9.999933566317045e+000
0	 6.066670000003316e+000	 9.333302777352783e+000	 1.000540961326524e+001
0	 6.066670000003318e+000	 9.399973674588177e+000	 1.000439056731951e+001
0	 6.066670000003318e+000	 9.466644621844623e+000	 1.000348954646624e+001
0	 6.066670000003317e+000	 9.533315502450000e+000	 1.000270163180537e+001
0	 6.066670000003315e+000	 9.599986199732195e+000	 1.000202190681880e+001
0	 6.066670000003318e+000	 9.666656597019097e+000	 1.000144545737046e+001
0	 6.066670000003316e+000	 9.733326577638573e+000	 1.000096737170637e+001
0	 6.066670000003315e+000	 9.799996024918524e+000	 1.000058274045469e+001
0	 6.066670000003316e+000	 9.866664822186820e+000	 1.000028665662586e+001
0	 6.066670000003318e+000	 9.933332852771354e+000	 1.000007421561275e+001
0	 6.066670000003317e+000	 1.000000000000000e+001	 9.999940515191202e+000
0	 6.133340000006533e+000	 9.333302777352783e+000	 1.000535022826452e+001
0	 6.133340000006534e+000	 9.399973674588177e+000	 1.000434176941334e+001
0	 6.133340000006533e+000	 9.466644621844623e+000	 1.000345039390690e+001
0	 6.133340000006535e+000	 9.533315502450003e+000	 1.000267115308375e+001
0	 6.133340000006533e+000	 9.599986199732195e+000	 1.000199910064252e+001
0	 6.133340000006532e+000	 9.666656597019093e+000	 1.000142929264194e+001
0	 6.133340000006534e+000	 9.733326577638575e+000	 1.000095678750099e+001
0	 6.133340000006531e+000	 9.799996024918521e+000	 1.000057664599875e+001
0	 6.133340000006532e+000	 9.866664822186820e+000	 1.000028393127480e+001
0	 6.133340000006532e+000	 9.933332852771351e+000	 1.000007370882915e+001
0	 6.133340000006534e+000	 1.000000000000000e+001	 9.999941046522874e+000
0	 6.200010000009550e+000	 9.333302777352781e+000	 1.000528507407868e+001
0	 6.200010000009551e+000	 9.399973674588177e+000	 1.000428849646843e+001
0	 6.200010000009549e+000	 9.466644621844621e+000	 1.000340772737553e+001
0	 6.200010000009549e+000	 9.533315502450000e+000	 1.000263781331302e+001
0	 6.200010000009550e+000	 9.599986199732197e+000	 1.000197380312815e+001
0	 6.200010000009551e+000	 9.666656597019095e+000	 1.000141074800235e+001
0	 6.200010000009550e+000	 9.733326577638575e+000	 1.000094370145128e+001
0	 6.200010000009550e+000	 9.799996024918523e+000	 1.000056771932484e+001
0	 6.200010000009550e+000	 9.866664822186822e+000	 1.000027785980746e+001
0	 6.200010000009550e+000	 9.933332852771352e+000	 1.000006918341811e+001
0	 6.200010000009550e+000	 1.000000000000000e+001	 9.999936753010758e+000
0	 6.266680000012267e+000	 9.333302777352783e+000	 1.000521497585399e+001
0	 6.266680000012266e+000	 9.399973674588173e+000	 1.000423143406752e+001
0	 6.266680000012268e+000	 9.466644621844623e+000	 1.000336214096100e+001
0	 6.266680000012266e+000	 9.533315502450000e+000	 1.000260216315748e+001
0	 6.266680000012265e+000	 9.599986199732197e+000	 1.000194656958475e+001
0	 6.266680000012267e+000	 9.666656597019092e+000	 1.000139043147528e+001
0	 6.266680000012268e+000	 9.733326577638573e+000	 1.000092882236633e+001
0	 6.266680000012267e+000	 9.799996024918524e+000	 1.000055681809998e+001
0	 6.266680000012265e+000	 9.866664822186824e+000	 1.000026949682329e+001
0	 6.266680000012268e+000	 9.933332852771356e+000	 1.000006193898859e+001
0	 6.266680000012268e+000	 1.000000000000000e+001	 9.999929227353627e+000
0	 6.333350000014585e+000	 9.333302777352783e+000	 1.000514075873676e+001
0	 6.333350000014582e+000	 9.399973674588177e+000	 1.000417126779328e+001
0	 6.333350000014581e+000	 9.466644621844619e+000	 1.000331422875218e+001
0	 6.333350000014582e+000	 9.533315502449998e+000	 1.000256475328141e+001
0	 6.333350000014584e+000	 9.599986199732195e+000	 1.000191795532125e+001
0	 6.333350000014583e+000	 9.666656597019095e+000	 1.000136895108429e+001
0	 6.333350000014583e+000	 9.733326577638575e+000	 1.000091285905518e+001
0	 6.333350000014583e+000	 9.799996024918524e+000	 1.000054479999117e+001
0	 6.333350000014582e+000	 9.866664822186822e+000	 1.000025989692190e+001
0	 6.333350000014581e+000	 9.933332852771352e+000	 1.000005327514974e+001
0	 6.333350000014583e+000	 1.000000000000000e+001	 9.999920062250169e+000
0	 6.400020000016399e+000	 9.333302777352783e+000	 1.000506324787328e+001
0	 6.400020000016398e+000	 9.399973674588177e+000	 1.000410868322847e+001
0	 6.400020000016398e+000	 9.466644621844623e+000	 1.000326458483790e+001
0	 6.400020000016399e+000	 9.533315502449998e+000	 1.000252613434909e+001
0	 6.400020000016401e+000	 9.599986199732197e+000	 1.000188851564677e+001
0	 6.400020000016398e+000	 9.666656597019092e+000	 1.000134691485291e+001
0	 6.400020000016398e+000	 9.733326577638573e+000	 1.000089652032690e+001
0	 6.400020000016400e+000	 9.799996024918523e+000	 1.000053252266541e+001
0	 6.400020000016398e+000	 9.866664822186820e+000	 1.000025011470263e+001
0	 6.400020000016398e+000	 9.933332852771351e+000	 1.000004449151051e+001
0	 6.400020000016400e+000	 1.000000000000000e+001	 9.999910850399157e+000
0	 6.466690000017616e+000	 9.333302777352783e+000	 1.000498326840981e+001
0	 6.466690000017616e+000	 9.399973674588178e+000	 1.000404436595578e+001
0	 6.466690000017616e+000	 9.466644621844623e+000	 1.000321380330709e+001
0	 6.466690000017616e+000	 9.533315502450002e+000	 1.000248685702480e+001
0	 6.466690000017615e+000	 9.599986199732195e+000	 1.000185880587018e+001
0	 6.466690000017615e+000	 9.666656597019095e+000	 1.000132493080482e+001
0	 6.466690000017617e+000	 9.733326577638577e+000	 1.000088051499056e+001
0	 6.466690000017616e+000	 9.799996024918526e+000	 1.000052084378967e+001
0	 6.466690000017615e+000	 9.866664822186818e+000	 1.000024120476495e+001
0	 6.466690000017617e+000	 9.933332852771354e+000	 1.000003688767996e+001
0	 6.466690000017615e+000	 1.000000000000000e+001	 9.999903184499287e+000
0	 6.533360000018131e+000	 9.333302777352781e+000	 1.000490164549266e+001
0	 6.533360000018132e+000	 9.399973674588177e+000	 1.000397900155793e+001
0	 6.533360000018130e+000	 9.466644621844619e+000	 1.000316247824859e+001
0	 6.533360000018132e+000	 9.533315502450000e+000	 1.000244747197285e+001
0	 6.533360000018130e+000	 9.599986199732195e+000	 1.000182938130061e+001
0	 6.533360000018132e+000	 9.666656597019093e+000	 1.000130360696356e+001
0	 6.533360000018133e+000	 9.733326577638575e+000	 1.000086555185524e+001
0	 6.533360000018131e+000	 9.799996024918521e+000	 1.000051062103101e+001
0	 6.533360000018132e+000	 9.866664822186822e+000	 1.000023422170840e+001
0	 6.533360000018130e+000	 9.933332852771352e+000	 1.000003176326706e+001
0	 6.533360000018132e+000	 1.000000000000000e+001	 9.999898657249290e+000
0	 6.600030000017848e+000	 9.333302777352783e+000	 1.000481920426811e+001
0	 6.600030000017847e+000	 9.399973674588177e+000	 1.000391327561761e+001
0	 6.600030000017848e+000	 9.466644621844621e+000	 1.000311120375128e+001
0	 6.600030000017849e+000	 9.533315502450003e+000	 1.000240852985751e+001
0	 6.600030000017847e+000	 9.599986199732198e+000	 1.000180079724700e+001
0	 6.600030000017849e+000	 9.666656597019093e+000	 1.000128355135270e+001
0	 6.600030000017850e+000	 9.733326577638577e+000	 1.000085233972993e+001
0	 6.600030000017848e+000	 9.799996024918523e+000	 1.000050271205639e+001
0	 6.600030000017848e+000	 9.866664822186824e+000	 1.000023022013237e+001
0	 6.600030000017847e+000	 9.933332852771352e+000	 1.000003041788084e+001
0	 6.600030000017848e+000	 1.000000000000000e+001	 9.999898861347978e+000
0	 6.666700000016665e+000	 9.333302777352781e+000	 1.000473676988242e+001
0	 6.666700000016666e+000	 9.399973674588177e+000	 1.000384787371759e+001
0	 6.666700000016665e+000	 9.466644621844619e+000	 1.000306057390402e+001
0	 6.666700000016667e+000	 9.533315502449998e+000	 1.000237058134308e+001
0	 6.666700000016666e+000	 9.599986199732198e+000	 1.000177360901838e+001
0	 6.666700000016665e+000	 9.666656597019093e+000	 1.000126537199585e+001
0	 6.666700000016666e+000	 9.733326577638575e+000	 1.000084158742378e+001
0	 6.666700000016666e+000	 9.799996024918521e+000	 1.000049797453286e+001
0	 6.666700000016666e+000	 9.866664822186822e+000	 1.000023025463639e+001
0	 6.666700000016665e+000	 9.933332852771352e+000	 1.000003415113037e+001
0	 6.666700000016666e+000	 1.000000000000000e+001	 9.999905389493936e+000
0	 6.666700000016666e+000	 0.000000000000000e+000	 1.010969876746825e+001
0	 6.666700000016668e+000	 6.666714722864757e-002	 1.010991155887912e+001
0	 6.666700000016666e+000	 1.333351778131790e-001	 1.011027417966063e+001
0	 6.666700000016665e+000	 2.000039750814772e-001	 1.011080666160611e+001
0	 6.666700000016667e+000	 2.666734223614256e-001	 1.011152904225913e+001
0	 6.666700000016667e+000	 3.333434029809069e-001	 1.011246136491297e+001
0	 6.666700000016666e+000	 4.000138002678044e-001	 1.011362367861010e+001
0	 6.666700000016665e+000	 4.666844975500010e-001	 1.011503603814191e+001
0	 6.666700000016668e+000	 5.333553781553803e-001	 1.011671850404854e+001
0	 6.666700000016667e+000	 6.000263254118248e-001	 1.011869114261894e+001
0	 6.666700000016666e+000	 6.666972226472178e-001	 1.012097402589096e+001
0	 6.733360000014533e+000	 0.000000000000000e+000	 1.010369988035163e+001
0	 6.733360000014532e+000	 6.666714722864756e-002	 1.010351505175615e+001
0	 6.733360000014533e+000	 1.333351778131789e-001	 1.010356158306029e+001
0	 6.733360000014533e+000	 2.000039750814772e-001	 1.010385294953008e+001
0	 6.733360000014531e+000	 2.666734223614255e-001	 1.010440263197912e+001
0	 6.733360000014531e+000	 3.333434029809069e-001	 1.010522411676803e+001
0	 6.733360000014531e+000	 4.000138002678044e-001	 1.010633089580402e+001
0	 6.733360000014534e+000	 4.666844975500011e-001	 1.010773646654065e+001
0	 6.733360000014532e+000	 5.333553781553803e-001	 1.010945433197768e+001
0	 6.733360000014532e+000	 6.000263254118247e-001	 1.011149800066111e+001
0	 6.733360000014532e+000	 6.666972226472175e-001	 1.011388098668334e+001
0	 6.800020000011600e+000	 0.000000000000000e+000	 1.009804039843035e+001
0	 6.800020000011600e+000	 6.666714722864754e-002	 1.009758065700230e+001
0	 6.800020000011601e+000	 1.333351778131790e-001	 1.009740182915798e+001
0	 6.800020000011600e+000	 2.000039750814772e-001	 1.009751176915611e+001
0	 6.800020000011599e+000	 2.666734223614255e-001	 1.009791833641508e+001
0	 6.800020000011599e+000	 3.333434029809069e-001	 1.009862939551236e+001
0	 6.800020000011600e+000	 4.000138002678044e-001	 1.009965281618423e+001
0	 6.800020000011601e+000	 4.666844975500012e-001	 1.010099647332549e+001
0	 6.800020000011601e+000	 5.333553781553804e-001	 1.010266824698938e+001
0	 6.800020000011600e+000	 6.000263254118249e-001	 1.010467602238768e+001
0	 6.800020000011598e+000	 6.666972226472175e-001	 1.010702768989079e+001
0	 6.866680000008066e+000	 0.000000000000000e+000	 1.009263313546601e+001
0	 6.866680000008066e+000	 6.666714722864754e-002	 1.009200996969650e+001
0	 6.866680000008065e+000	 1.333351778131790e-001	 1.009168937581768e+001
0	 6.866680000008067e+000	 2.000039750814773e-001	 1.009167452241202e+001
0	 6.866680000008067e+000	 2.666734223614256e-001	 1.009196858269126e+001
0	 6.866680000008066e+000	 3.333434029809069e-001	 1.009257473449604e+001
0	 6.866680000008066e+000	 4.000138002678044e-001	 1.009349616029553e+001
0	 6.866680000008067e+000	 4.666844975500010e-001	 1.009473604718734e+001
0	 6.866680000008068e+000	 5.333553781553801e-001	 1.009629758689737e+001
0	 6.866680000008068e+000	 6.000263254118248e-001	 1.009818397577991e+001
0	 6.866680000008065e+000	 6.666972226472177e-001	 1.010039841481782e+001
0	 6.933340000004134e+000	 0.000000000000000e+000	 1.008739090522025e+001
0	 6.933340000004134e+000	 6.666714722864757e-002	 1.008670458491768e+001
0	 6.933340000004135e+000	 1.333351778131790e-001	 1.008631868090339e+001
0	 6.933340000004134e+000	 2.000039750814772e-001	 1.008623261122561e+001
0	 6.933340000004135e+000	 2.666734223614256e-001	 1.008644579793195e+001
0	 6.933340000004135e+000	 3.333434029809069e-001	 1.008695766706913e+001
0	 6.933340000004135e+000	 4.000138002678044e-001	 1.008776764868276e+001
0	 6.933340000004134e+000	 4.666844975500011e-001	 1.008887517681716e+001
0	 6.933340000004135e+000	 5.333553781553804e-001	 1.009027968951531e+001
0	 6.933340000004135e+000	 6.000263254118247e-001	 1.009198062881901e+001
0	 6.933340000004136e+000	 6.666972226472178e-001	 1.009397744076899e+001
0	 7.000000000000002e+000	 0.000000000000000e+000	 1.008222652145471e+001
0	 7.000000000000000e+000	 6.666714722864756e-002	 1.008156609774479e+001
0	 7.000000000000001e+000	 1.333351778131789e-001	 1.008118420227912e+001
0	 7.000000000000003e+000	 2.000039750814773e-001	 1.008107743752469e+001
0	 7.000000000000002e+000	 2.666734223614256e-001	 1.008124240926138e+001
0	 7.000000000000001e+000	 3.333434029809069e-001	 1.008167572658172e+001
0	 7.000000000000003e+000	 4.000138002678044e-001	 1.008237400189074e+001
0	 7.000000000000002e+000	 4.666844975500011e-001	 1.008333385090586e+001
0	 7.000000000000003e+000	 5.333553781553801e-001	 1.008455189265692e+001
0	 7.000000000000001e+000	 6.000263254118248e-001	 1.008602474948624e+001
0	 7.000000000000001e+000	 6.666972226472177e-001	 1.008774904704882e+001
0	 7.066659999995869e+000	 0.000000000000000e+000	 1.007705279793103e+001
0	 7.066659999995870e+000	 6.666714722864757e-002	 1.007649610325675e+001
0	 7.066659999995870e+000	 1.333351778131789e-001	 1.007618039780884e+001
0	 7.066659999995871e+000	 2.000039750814773e-001	 1.007610040323709e+001
0	 7.066659999995869e+000	 2.666734223614255e-001	 1.007625084380384e+001
0	 7.066659999995869e+000	 3.333434029809068e-001	 1.007662644638387e+001
0	 7.066659999995870e+000	 4.000138002678044e-001	 1.007722194046427e+001
0	 7.066659999995869e+000	 4.666844975500011e-001	 1.007803205814438e+001
0	 7.066659999995869e+000	 5.333553781553803e-001	 1.007905153413588e+001
0	 7.066659999995870e+000	 6.000263254118247e-001	 1.008027510576282e+001
0	 7.066659999995869e+000	 6.666972226472177e-001	 1.008169751296185e+001
0	 7.133319999991937e+000	 0.000000000000000e+000	 1.007178254841086e+001
0	 7.133319999991938e+000	 6.666714722864754e-002	 1.007139619653253e+001
0	 7.133319999991937e+000	 1.333351778131790e-001	 1.007120172535656e+001
0	 7.133319999991937e+000	 2.000039750814772e-001	 1.007119291029061e+001
0	 7.133319999991936e+000	 2.666734223614257e-001	 1.007136352868359e+001
0	 7.133319999991937e+000	 3.333434029809069e-001	 1.007170735982565e+001
0	 7.133319999991937e+000	 4.000138002678044e-001	 1.007221818494817e+001
0	 7.133319999991937e+000	 4.666844975500012e-001	 1.007288978722366e+001
0	 7.133319999991937e+000	 5.333553781553801e-001	 1.007371595176587e+001
0	 7.133319999991937e+000	 6.000263254118247e-001	 1.007469046562998e+001
0	 7.133319999991937e+000	 6.666972226472178e-001	 1.007580711781259e+001
0	 7.199979999988405e+000	 0.000000000000000e+000	 1.006632858665585e+001
0	 7.199979999988403e+000	 6.666714722864756e-002	 1.006616797265106e+001
0	 7.199979999988405e+000	 1.333351778131790e-001	 1.006614264278629e+001
0	 7.199979999988403e+000	 2.000039750814772e-001	 1.006624636061307e+001
0	 7.199979999988404e+000	 2.666734223614256e-001	 1.006647289102487e+001
0	 7.199979999988404e+000	 3.333434029809069e-001	 1.006681600025714e+001
0	 7.199979999988404e+000	 4.000138002678045e-001	 1.006726945588725e+001
0	 7.199979999988404e+000	 4.666844975500012e-001	 1.006782702683459e+001
0	 7.199979999988404e+000	 5.333553781553803e-001	 1.006848248336060e+001
0	 7.199979999988405e+000	 6.000263254118248e-001	 1.006922959706894e+001
0	 7.199979999988403e+000	 6.666972226472177e-001	 1.007006214090559e+001
0	 7.266639999985471e+000	 0.000000000000000e+000	 1.006060372642766e+001
0	 7.266639999985472e+000	 6.666714722864757e-002	 1.006071302669130e+001
0	 7.266639999985472e+000	 1.333351778131790e-001	 1.006089760796202e+001
0	 7.266639999985470e+000	 2.000039750814772e-001	 1.006115215613229e+001
0	 7.266639999985472e+000	 2.666734223614256e-001	 1.006147135795198e+001
0	 7.266639999985472e+000	 3.333434029809068e-001	 1.006184990102840e+001
0	 7.266639999985471e+000	 4.000138002678044e-001	 1.006228247382632e+001
0	 7.266639999985472e+000	 4.666844975500011e-001	 1.006276376566810e+001
0	 7.266639999985471e+000	 5.333553781553803e-001	 1.006328846673372e+001
0	 7.266639999985472e+000	 6.000263254118248e-001	 1.006385126806092e+001
0	 7.266639999985470e+000	 6.666972226472175e-001	 1.006444686154534e+001
0	 7.333299999983335e+000	 0.000000000000000e+000	 1.005452078148794e+001
0	 7.333299999983334e+000	 6.666714722864756e-002	 1.005493295373218e+001
0	 7.333299999983334e+000	 1.333351778131789e-001	 1.005536107874775e+001
0	 7.333299999983335e+000	 2.000039750814772e-001	 1.005580169877608e+001
0	 7.333299999983333e+000	 2.666734223614256e-001	 1.005625135658915e+001
0	 7.333299999983336e+000	 3.333434029809069e-001	 1.005670659548946e+001
0	 7.333299999983335e+000	 4.000138002678045e-001	 1.005716395931017e+001
0	 7.333299999983333e+000	 4.666844975500011e-001	 1.005761999241511e+001
0	 7.333299999983335e+000	 5.333553781553803e-001	 1.005807123969892e+001
0	 7.333299999983335e+000	 6.000263254118248e-001	 1.005851424658714e+001
0	 7.333299999983332e+000	 6.666972226472178e-001	 1.005894555903636e+001
0	 6.666700000016666e+000	 6.666972226472178e-001	 1.012097402589096e+001
0	 6.666700000016667e+000	 7.333579753122047e-001	 1.012333183361501e+001
0	 6.666700000016665e+000	 8.000185779984416e-001	 1.012552749279883e+001
0	 6.666700000016667e+000	 8.666790473703454e-001	 1.012757735057573e+001
0	 6.666700000016666e+000	 9.333394000923321e-001	 1.012949775402096e+001
0	 6.666700000016667e+000	 9.999996528288189e-001	 1.013130505015171e+001
0	 6.666700000016666e+000	 1.066659822244222e+000	 1.013301558592717e+001
0	 6.666700000016666e+000	 1.133319925002959e+000	 1.013464570824846e+001
0	 6.666700000016666e+000	 1.199979977769445e+000	 1.013621176395876e+001
0	 6.666700000016665e+000	 1.266639997208098e+000	 1.013773009984318e+001
0	 6.666700000016665e+000	 1.333299999983334e+000	 1.013921706262885e+001
0	 6.733360000014532e+000	 6.666972226472175e-001	 1.011388098668334e+001
0	 6.733360000014534e+000	 7.333579753122049e-001	 1.011634966239745e+001
0	 6.733360000014532e+000	 8.000185779984417e-001	 1.011865014820336e+001
0	 6.733360000014532e+000	 8.666790473703452e-001	 1.012079443376888e+001
0	 6.733360000014532e+000	 9.333394000923321e-001	 1.012279450876899e+001
0	 6.733360000014531e+000	 9.999996528288191e-001	 1.012466236288579e+001
0	 6.733360000014534e+000	 1.066659822244222e+000	 1.012640998580861e+001
0	 6.733360000014533e+000	 1.133319925002959e+000	 1.012804936723393e+001
0	 6.733360000014534e+000	 1.199979977769445e+000	 1.012959249686545e+001
0	 6.733360000014533e+000	 1.266639997208098e+000	 1.013105136441404e+001
0	 6.733360000014534e+000	 1.333299999983334e+000	 1.013243795959780e+001
0	 6.800020000011598e+000	 6.666972226472175e-001	 1.010702768989079e+001
0	 6.800020000011600e+000	 7.333579753122048e-001	 1.010947342064123e+001
0	 6.800020000011600e+000	 8.000185779984418e-001	 1.011176438507829e+001
0	 6.800020000011600e+000	 8.666790473703454e-001	 1.011390883965980e+001
0	 6.800020000011602e+000	 9.333394000923323e-001	 1.011591504087877e+001
0	 6.800020000011599e+000	 9.999996528288190e-001	 1.011779124526346e+001
0	 6.800020000011600e+000	 1.066659822244222e+000	 1.011954570937737e+001
0	 6.800020000011600e+000	 1.133319925002959e+000	 1.012118668981926e+001
0	 6.800020000011600e+000	 1.199979977769445e+000	 1.012272244322315e+001
0	 6.800020000011600e+000	 1.266639997208098e+000	 1.012416122625832e+001
0	 6.800020000011600e+000	 1.333299999983334e+000	 1.012551129562929e+001
0	 6.866680000008065e+000	 6.666972226472177e-001	 1.010039841481782e+001
0	 6.866680000008068e+000	 7.333579753122048e-001	 1.010271281214770e+001
0	 6.866680000008066e+000	 8.000185779984417e-001	 1.010490108505109e+001
0	 6.866680000008067e+000	 8.666790473703454e-001	 1.010696838098830e+001
0	 6.866680000008066e+000	 9.333394000923324e-001	 1.010891984745220e+001
0	 6.866680000008068e+000	 9.999996528288190e-001	 1.011076063196816e+001
0	 6.866680000008066e+000	 1.066659822244222e+000	 1.011249588209411e+001
0	 6.866680000008066e+000	 1.133319925002958e+000	 1.011413074542050e+001
0	 6.866680000008067e+000	 1.199979977769445e+000	 1.011567036957036e+001
0	 6.866680000008067e+000	 1.266639997208098e+000	 1.011711990219924e+001
0	 6.866680000008065e+000	 1.333299999983334e+000	 1.011848449099532e+001
0	 6.933340000004136e+000	 6.666972226472178e-001	 1.009397744076899e+001
0	 6.933340000004135e+000	 7.333579753122047e-001	 1.009607754071824e+001
0	 6.933340000004135e+000	 8.000185779984417e-001	 1.009809112974916e+001
0	 6.933340000004134e+000	 8.666790473703454e-001	 1.010002087049419e+001
0	 6.933340000004134e+000	 9.333394000923324e-001	 1.010186942559117e+001
0	 6.933340000004131e+000	 9.999996528288186e-001	 1.010363945768336e+001
0	 6.933340000004134e+000	 1.066659822244222e+000	 1.010533362941948e+001
0	 6.933340000004136e+000	 1.133319925002959e+000	 1.010695460345368e+001
0	 6.933340000004134e+000	 1.199979977769445e+000	 1.010850504244554e+001
0	 6.933340000004135e+000	 1.266639997208098e+000	 1.010998760906011e+001
0	 6.933340000004135e+000	 1.333299999983334e+000	 1.011140496596788e+001
0	 7.000000000000001e+000	 6.666972226472177e-001	 1.008774904704882e+001
0	 7.000000000000003e+000	 7.333579753122048e-001	 1.008957731015422e+001
0	 7.000000000000003e+000	 8.000185779984418e-001	 1.009136540079998e+001
0	 7.000000000000002e+000	 8.666790473703454e-001	 1.009311412091728e+001
0	 7.000000000000000e+000	 9.333394000923321e-001	 1.009482427239752e+001
0	 7.000000000000003e+000	 9.999996528288190e-001	 1.009649665709247e+001
0	 7.000000000000001e+000	 1.066659822244222e+000	 1.009813207681413e+001
0	 7.000000000000000e+000	 1.133319925002959e+000	 1.009973133333482e+001
0	 7.000000000000003e+000	 1.199979977769445e+000	 1.010129522838719e+001
0	 7.000000000000002e+000	 1.266639997208098e+000	 1.010282456366415e+001
0	 7.000000000000002e+000	 1.333299999983334e+000	 1.010432014081896e+001
0	 7.066659999995869e+000	 6.666972226472177e-001	 1.008169751296185e+001
0	 7.066659999995871e+000	 7.333579753122049e-001	 1.008322182425699e+001
0	 7.066659999995869e+000	 8.000185779984417e-001	 1.008475477983097e+001
0	 7.066659999995869e+000	 8.666790473703454e-001	 1.008629594499735e+001
0	 7.066659999995870e+000	 9.333394000923322e-001	 1.008784488497316e+001
0	 7.066659999995870e+000	 9.999996528288188e-001	 1.008940116487893e+001
0	 7.066659999995870e+000	 1.066659822244222e+000	 1.009096434973869e+001
0	 7.066659999995870e+000	 1.133319925002959e+000	 1.009253400447995e+001
0	 7.066659999995870e+000	 1.199979977769445e+000	 1.009410969393374e+001
0	 7.066659999995869e+000	 1.266639997208098e+000	 1.009569098283459e+001
0	 7.066659999995870e+000	 1.333299999983334e+000	 1.009727743582056e+001
0	 7.133319999991937e+000	 6.666972226472178e-001	 1.007580711781260e+001
0	 7.133319999991937e+000	 7.333579753122049e-001	 1.007702078682791e+001
0	 7.133319999991937e+000	 8.000185779984416e-001	 1.007829014846956e+001
0	 7.133319999991935e+000	 8.666790473703451e-001	 1.007961415547423e+001
0	 7.133319999991937e+000	 9.333394000923323e-001	 1.008099176041994e+001
0	 7.133319999991937e+000	 9.999996528288189e-001	 1.008242191572619e+001
0	 7.133319999991935e+000	 1.066659822244222e+000	 1.008390357365381e+001
0	 7.133319999991937e+000	 1.133319925002959e+000	 1.008543568630508e+001
0	 7.133319999991937e+000	 1.199979977769445e+000	 1.008701720562369e+001
0	 7.133319999991936e+000	 1.266639997208098e+000	 1.008864708339470e+001
0	 7.133319999991937e+000	 1.333299999983334e+000	 1.009032427124465e+001
0	 7.199979999988403e+000	 6.666972226472177e-001	 1.007006214090559e+001
0	 7.199979999988404e+000	 7.333579753122048e-001	 1.007098390166833e+001
0	 7.199979999988403e+000	 8.000185779984418e-001	 1.007200238834318e+001
0	 7.199979999988404e+000	 8.666790473703453e-001	 1.007311656508767e+001
0	 7.199979999988403e+000	 9.333394000923321e-001	 1.007432539583973e+001
0	 7.199979999988403e+000	 9.999996528288186e-001	 1.007562784431766e+001
0	 7.199979999988403e+000	 1.066659822244222e+000	 1.007702287402013e+001
0	 7.199979999988403e+000	 1.133319925002958e+000	 1.007850944822625e+001
0	 7.199979999988404e+000	 1.199979977769445e+000	 1.008008652999549e+001
0	 7.199979999988404e+000	 1.266639997208098e+000	 1.008175308216771e+001
0	 7.199979999988404e+000	 1.333299999983334e+000	 1.008350806736320e+001
0	 7.266639999985470e+000	 6.666972226472175e-001	 1.006444686154534e+001
0	 7.266639999985471e+000	 7.333579753122049e-001	 1.006512087257959e+001
0	 7.266639999985471e+000	 8.000185779984417e-001	 1.006592238107925e+001
0	 7.266639999985471e+000	 8.666790473703456e-001	 1.006685098657751e+001
0	 7.266639999985471e+000	 9.333394000923323e-001	 1.006790628833440e+001
0	 7.266639999985471e+000	 9.999996528288189e-001	 1.006908788533676e+001
0	 7.266639999985469e+000	 1.066659822244222e+000	 1.007039537629829e+001
0	 7.266639999985471e+000	 1.133319925002958e+000	 1.007182835965947e+001
0	 7.266639999985471e+000	 1.199979977769445e+000	 1.007338643358761e+001
0	 7.266639999985470e+000	 1.266639997208098e+000	 1.007506919597687e+001
0	 7.266639999985472e+000	 1.333299999983334e+000	 1.007687624444823e+001
0	 7.333299999983332e+000	 6.666972226472178e-001	 1.005894555903636e+001
0	 7.333299999983334e+000	 7.333579753122048e-001	 1.005944140336306e+001
0	 7.333299999983334e+000	 8.000185779984417e-001	 1.006008100830518e+001
0	 7.333299999983334e+000	 8.666790473703454e-001	 1.006086523268349e+001
0	 7.333299999983335e+000	 9.333394000923323e-001	 1.006179493500578e+001
0	 7.333299999983334e+000	 9.999996528288190e-001	 1.006287097346694e+001
0	 7.333299999983335e+000	 1.066659822244222e+000	 1.006409420594891e+001
0	 7.333299999983335e+000	 1.133319925002959e+000	 1.006546549002072e+001
0	 7.333299999983333e+000	 1.199979977769445e+000	 1.006698568293850e+001
0	 7.333299999983335e+000	 1.266639997208098e+000	 1.006865564164540e+001
0	 7.333299999983335e+000	 1.333299999983334e+000	 1.007047622277169e+001
0	 6.666700000016665e+000	 1.333299999983334e+000	 1.013921706262885e+001
0	 6.666700000016666e+000	 1.399969999982150e+000	 1.014070086496876e+001
0	 6.666700000016666e+000	 1.466639999981866e+000	 1.014220531268130e+001
0	 6.666700000016667e+000	 1.533309999982383e+000	 1.014374080679103e+001
0	 6.666700000016667e+000	 1.599979999983599e+000	 1.014531774832253e+001
0	 6.666700000016665e+000	 1.666649999985416e+000	 1.014694653830033e+001
0	 6.666700000016667e+000	 1.733319999987733e+000	 1.014863757774904e+001
0	 6.666700000016665e+000	 1.799989999990449e+000	 1.015040126769319e+001
0	 6.666700000016665e+000	 1.866659999993466e+000	 1.015224800915735e+001
0	 6.666700000016666e+000	 1.933329999996683e+000	 1.015418820316609e+001
0	 6.666700000016668e+000	 2.000000000000000e+000	 1.015623225074397e+001
0	 6.733360000014534e+000	 1.333299999983334e+000	 1.013243795959780e+001
0	 6.733360000014531e+000	 1.399969999982150e+000	 1.013381101318223e+001
0	 6.733360000014534e+000	 1.466639999981867e+000	 1.013522661494528e+001
0	 6.733360000014534e+000	 1.533309999982383e+000	 1.013669340269508e+001
0	 6.733360000014534e+000	 1.599979999983600e+000	 1.013822001423980e+001
0	 6.733360000014533e+000	 1.666649999985416e+000	 1.013981508738756e+001
0	 6.733360000014533e+000	 1.733319999987733e+000	 1.014148725994654e+001
0	 6.733360000014533e+000	 1.799989999990450e+000	 1.014324516972486e+001
0	 6.733360000014532e+000	 1.866659999993466e+000	 1.014509745453071e+001
0	 6.733360000014534e+000	 1.933329999996684e+000	 1.014705275217221e+001
0	 6.733360000014532e+000	 2.000000000000000e+000	 1.014911970045751e+001
0	 6.800020000011600e+000	 1.333299999983334e+000	 1.012551129562929e+001
0	 6.800020000011600e+000	 1.399969999982150e+000	 1.012684396976085e+001
0	 6.800020000011600e+000	 1.466639999981866e+000	 1.012822943052349e+001
0	 6.800020000011601e+000	 1.533309999982383e+000	 1.012967481868488e+001
0	 6.800020000011600e+000	 1.599979999983599e+000	 1.013118727501270e+001
0	 6.800020000011599e+000	 1.666649999985416e+000	 1.013277394027464e+001
0	 6.800020000011598e+000	 1.733319999987733e+000	 1.013444195523837e+001
0	 6.800020000011601e+000	 1.799989999990450e+000	 1.013619846067157e+001
0	 6.800020000011601e+000	 1.866659999993466e+000	 1.013805059734193e+001
0	 6.800020000011599e+000	 1.933329999996683e+000	 1.014000550601714e+001
0	 6.800020000011601e+000	 2.000000000000000e+000	 1.014207032746487e+001
0	 6.866680000008065e+000	 1.333299999983334e+000	 1.011848449099532e+001
0	 6.866680000008068e+000	 1.399969999982150e+000	 1.011983322909934e+001
0	 6.866680000008068e+000	 1.466639999981866e+000	 1.012123532058956e+001
0	 6.866680000008064e+000	 1.533309999982382e+000	 1.012269667536912e+001
0	 6.866680000008065e+000	 1.599979999983599e+000	 1.012422320334120e+001
0	 6.866680000008067e+000	 1.666649999985416e+000	 1.012582081440895e+001
0	 6.866680000008066e+000	 1.733319999987733e+000	 1.012749541847552e+001
0	 6.866680000008067e+000	 1.799989999990450e+000	 1.012925292544406e+001
0	 6.866680000008068e+000	 1.866659999993466e+000	 1.013109924521774e+001
0	 6.866680000008067e+000	 1.933329999996683e+000	 1.013304028769972e+001
0	 6.866680000008066e+000	 2.000000000000000e+000	 1.013508196279316e+001
0	 6.933340000004135e+000	 1.333299999983334e+000	 1.011140496596788e+001
0	 6.933340000004133e+000	 1.399969999982150e+000	 1.011281228559240e+001
0	 6.933340000004135e+000	 1.466639999981867e+000	 1.011426584631710e+001
0	 6.933340000004135e+000	 1.533309999982383e+000	 1.011577059335651e+001
0	 6.933340000004135e+000	 1.599979999983599e+000	 1.011733147192524e+001
0	 6.933340000004134e+000	 1.666649999985416e+000	 1.011895342723785e+001
0	 6.933340000004134e+000	 1.733319999987733e+000	 1.012064140450893e+001
0	 6.933340000004133e+000	 1.799989999990449e+000	 1.012240034895305e+001
0	 6.933340000004134e+000	 1.866659999993467e+000	 1.012423520578480e+001
0	 6.933340000004135e+000	 1.933329999996683e+000	 1.012615092021875e+001
0	 6.933340000004134e+000	 2.000000000000000e+000	 1.012815243746947e+001
0	 7.000000000000002e+000	 1.333299999983334e+000	 1.010432014081896e+001
0	 7.000000000000001e+000	 1.399969999982150e+000	 1.010581463363478e+001
0	 7.000000000000000e+000	 1.466639999981866e+000	 1.010734256887973e+001
0	 7.000000000000003e+000	 1.533309999982383e+000	 1.010890819325575e+001
0	 7.000000000000002e+000	 1.599979999983599e+000	 1.011051575346478e+001
0	 7.000000000000004e+000	 1.666649999985416e+000	 1.011216949620875e+001
0	 7.000000000000002e+000	 1.733319999987733e+000	 1.011387366818962e+001
0	 7.000000000000004e+000	 1.799989999990450e+000	 1.011563251610931e+001
0	 7.000000000000002e+000	 1.866659999993466e+000	 1.011745028666980e+001
0	 7.000000000000001e+000	 1.933329999996683e+000	 1.011933122657302e+001
0	 7.000000000000003e+000	 2.000000000000000e+000	 1.012127958252090e+001
0	 7.066659999995870e+000	 1.333299999983334e+000	 1.009727743582055e+001
0	 7.066659999995870e+000	 1.399969999982150e+000	 1.009887376762118e+001
0	 7.066659999995870e+000	 1.466639999981866e+000	 1.010048704945109e+001
0	 7.066659999995869e+000	 1.533309999982383e+000	 1.010212109567552e+001
0	 7.066659999995869e+000	 1.599979999983599e+000	 1.010377972065974e+001
0	 7.066659999995869e+000	 1.666649999985416e+000	 1.010546673876898e+001
0	 7.066659999995870e+000	 1.733319999987733e+000	 1.010718596436851e+001
0	 7.066659999995869e+000	 1.799989999990450e+000	 1.010894121182359e+001
0	 7.066659999995870e+000	 1.866659999993466e+000	 1.011073629549945e+001
0	 7.066659999995869e+000	 1.933329999996683e+000	 1.011257502976135e+001
0	 7.066659999995870e+000	 2.000000000000000e+000	 1.011446122897455e+001
0	 7.133319999991937e+000	 1.333299999983334e+000	 1.009032427124465e+001
0	 7.133319999991937e+000	 1.399969999982150e+000	 1.009202318194631e+001
0	 7.133319999991937e+000	 1.466639999981866e+000	 1.009372084920479e+001
0	 7.133319999991937e+000	 1.533309999982383e+000	 1.009542092122454e+001
0	 7.133319999991936e+000	 1.599979999983599e+000	 1.009712704621008e+001
0	 7.133319999991937e+000	 1.666649999985416e+000	 1.009884287236595e+001
0	 7.133319999991937e+000	 1.733319999987733e+000	 1.010057204789661e+001
0	 7.133319999991936e+000	 1.799989999990449e+000	 1.010231822100660e+001
0	 7.133319999991937e+000	 1.866659999993467e+000	 1.010408503990041e+001
0	 7.133319999991937e+000	 1.933329999996683e+000	 1.010587615278254e+001
0	 7.133319999991936e+000	 2.000000000000000e+000	 1.010769520785752e+001
0	 7.199979999988404e+000	 1.333299999983334e+000	 1.008350806736320e+001
0	 7.199979999988403e+000	 1.399969999982150e+000	 1.008529637100490e+001
0	 7.199979999988404e+000	 1.466639999981867e+000	 1.008706552931443e+001
0	 7.199979999988404e+000	 1.533309999982383e+000	 1.008881929051148e+001
0	 7.199979999988405e+000	 1.599979999983600e+000	 1.009056140281577e+001
0	 7.199979999988403e+000	 1.666649999985416e+000	 1.009229561444701e+001
0	 7.199979999988405e+000	 1.733319999987733e+000	 1.009402567362488e+001
0	 7.199979999988403e+000	 1.799989999990449e+000	 1.009575532856910e+001
0	 7.199979999988405e+000	 1.866659999993466e+000	 1.009748832749938e+001
0	 7.199979999988404e+000	 1.933329999996683e+000	 1.009922841863542e+001
0	 7.199979999988403e+000	 2.000000000000000e+000	 1.010097935019691e+001
0	 7.266639999985472e+000	 1.333299999983334e+000	 1.007687624444823e+001
0	 7.266639999985471e+000	 1.399969999982150e+000	 1.007872682919165e+001
0	 7.266639999985469e+000	 1.466639999981866e+000	 1.008054265095365e+001
0	 7.266639999985472e+000	 1.533309999982383e+000	 1.008232782414506e+001
0	 7.266639999985470e+000	 1.599979999983599e+000	 1.008408646317674e+001
0	 7.266639999985471e+000	 1.666649999985416e+000	 1.008582268245953e+001
0	 7.266639999985470e+000	 1.733319999987733e+000	 1.008754059640429e+001
0	 7.266639999985471e+000	 1.799989999990450e+000	 1.008924431942184e+001
0	 7.266639999985470e+000	 1.866659999993466e+000	 1.009093796592305e+001
0	 7.266639999985471e+000	 1.933329999996683e+000	 1.009262565031878e+001
0	 7.266639999985471e+000	 2.000000000000000e+000	 1.009431148701984e+001
0	 7.333299999983335e+000	 1.333299999983334e+000	 1.007047622277169e+001
0	 7.333299999983334e+000	 1.399969999982150e+000	 1.007234805090127e+001
0	 7.333299999983335e+000	 1.466639999981867e+000	 1.007417377529605e+001
0	 7.333299999983334e+000	 1.533309999982383e+000	 1.007595814273396e+001
0	 7.333299999983334e+000	 1.599979999983599e+000	 1.007770589999292e+001
0	 7.333299999983334e+000	 1.666649999985416e+000	 1.007942179385089e+001
0	 7.333299999983335e+000	 1.733319999987733e+000	 1.008111057108579e+001
0	 7.333299999983335e+000	 1.799989999990450e+000	 1.008277697847556e+001
0	 7.333299999983334e+000	 1.866659999993466e+000	 1.008442576279813e+001
0	 7.333299999983335e+000	 1.933329999996683e+000	 1.008606167083143e+001
0	 7.333299999983335e+000	 2.000000000000000e+000	 1.008768944935340e+001
0	 6.666700000016668e+000	 2.000000000000000e+000	 1.015623225074397e+001
0	 6.666700000016665e+000	 2.066670000003317e+000	 1.015826613482532e+001
0	 6.666700000016665e+000	 2.133340000006534e+000	 1.016016990861965e+001
0	 6.666700000016666e+000	 2.200010000009551e+000	 1.016194507856429e+001
0	 6.666700000016668e+000	 2.266680000012268e+000	 1.016359315109657e+001
0	 6.666700000016666e+000	 2.333350000014584e+000	 1.016511563265383e+001
0	 6.666700000016667e+000	 2.400020000016400e+000	 1.016651402967341e+001
0	 6.666700000016665e+000	 2.466690000017617e+000	 1.016778984859263e+001
0	 6.666700000016667e+000	 2.533360000018134e+000	 1.016894459584882e+001
0	 6.666700000016666e+000	 2.600030000017851e+000	 1.016997977787933e+001
0	 6.666700000016667e+000	 2.666700000016667e+000	 1.017089690112145e+001
0	 6.733360000014532e+000	 2.000000000000000e+000	 1.014911970045751e+001
0	 6.733360000014533e+000	 2.066670000003317e+000	 1.015117071903231e+001
0	 6.733360000014532e+000	 2.133340000006534e+000	 1.015307544900666e+001
0	 6.733360000014533e+000	 2.200010000009550e+000	 1.015483836038531e+001
0	 6.733360000014533e+000	 2.266680000012267e+000	 1.015646392317297e+001
0	 6.733360000014531e+000	 2.333350000014584e+000	 1.015795660737438e+001
0	 6.733360000014534e+000	 2.400020000016401e+000	 1.015932088299427e+001
0	 6.733360000014533e+000	 2.466690000017618e+000	 1.016056122003740e+001
0	 6.733360000014532e+000	 2.533360000018134e+000	 1.016168208850846e+001
0	 6.733360000014532e+000	 2.600030000017851e+000	 1.016268795841219e+001
0	 6.733360000014533e+000	 2.666700000016666e+000	 1.016358329975330e+001
0	 6.800020000011601e+000	 2.000000000000000e+000	 1.014207032746487e+001
0	 6.800020000011599e+000	 2.066670000003316e+000	 1.014411288817952e+001
0	 6.800020000011601e+000	 2.133340000006534e+000	 1.014600085814715e+001
0	 6.800020000011599e+000	 2.200010000009550e+000	 1.014774114337305e+001
0	 6.800020000011599e+000	 2.266680000012266e+000	 1.014934064986252e+001
0	 6.800020000011600e+000	 2.333350000014585e+000	 1.015080628362081e+001
0	 6.800020000011601e+000	 2.400020000016400e+000	 1.015214495065318e+001
0	 6.800020000011600e+000	 2.466690000017617e+000	 1.015336355696492e+001
0	 6.800020000011601e+000	 2.533360000018134e+000	 1.015446900856130e+001
0	 6.800020000011601e+000	 2.600030000017851e+000	 1.015546821144757e+001
0	 6.800020000011599e+000	 2.666700000016666e+000	 1.015636807162900e+001
0	 6.866680000008066e+000	 2.000000000000000e+000	 1.013508196279316e+001
0	 6.866680000008067e+000	 2.066670000003316e+000	 1.013709497678416e+001
0	 6.866680000008067e+000	 2.133340000006534e+000	 1.013895197231601e+001
0	 6.866680000008067e+000	 2.200010000009550e+000	 1.014066176382768e+001
0	 6.866680000008067e+000	 2.266680000012267e+000	 1.014223316575810e+001
0	 6.866680000008067e+000	 2.333350000014585e+000	 1.014367499254625e+001
0	 6.866680000008066e+000	 2.400020000016400e+000	 1.014499605863105e+001
0	 6.866680000008067e+000	 2.466690000017617e+000	 1.014620517845149e+001
0	 6.866680000008067e+000	 2.533360000018134e+000	 1.014731116644649e+001
0	 6.866680000008067e+000	 2.600030000017850e+000	 1.014832283705502e+001
0	 6.866680000008067e+000	 2.666700000016666e+000	 1.014924900471600e+001
0	 6.933340000004134e+000	 2.000000000000000e+000	 1.012815243746947e+001
0	 6.933340000004135e+000	 2.066670000003317e+000	 1.013011931936351e+001
0	 6.933340000004133e+000	 2.133340000006534e+000	 1.013193462778819e+001
0	 6.933340000004134e+000	 2.200010000009550e+000	 1.013360855804928e+001
0	 6.933340000004136e+000	 2.266680000012268e+000	 1.013515130545258e+001
0	 6.933340000004134e+000	 2.333350000014584e+000	 1.013657306530385e+001
0	 6.933340000004134e+000	 2.400020000016401e+000	 1.013788403290885e+001
0	 6.933340000004135e+000	 2.466690000017617e+000	 1.013909440357339e+001
0	 6.933340000004135e+000	 2.533360000018134e+000	 1.014021437260322e+001
0	 6.933340000004134e+000	 2.600030000017851e+000	 1.014125413530410e+001
0	 6.933340000004134e+000	 2.666700000016666e+000	 1.014222388698183e+001
0	 7.000000000000003e+000	 2.000000000000000e+000	 1.012127958252090e+001
0	 7.000000000000002e+000	 2.066670000003317e+000	 1.012318825043480e+001
0	 7.000000000000001e+000	 2.133340000006534e+000	 1.012495466083859e+001
0	 7.000000000000003e+000	 2.200010000009551e+000	 1.012658986233802e+001
0	 7.000000000000002e+000	 2.266680000012267e+000	 1.012810490353883e+001
0	 7.000000000000000e+000	 2.333350000014584e+000	 1.012951083304676e+001
0	 7.000000000000003e+000	 2.400020000016401e+000	 1.013081869946754e+001
0	 7.000000000000002e+000	 2.466690000017617e+000	 1.013203955140691e+001
0	 7.000000000000002e+000	 2.533360000018134e+000	 1.013318443747061e+001
0	 7.000000000000002e+000	 2.600030000017851e+000	 1.013426440626438e+001
0	 7.000000000000002e+000	 2.666700000016666e+000	 1.013529050639396e+001
0	 7.066659999995870e+000	 2.000000000000000e+000	 1.011446122897455e+001
0	 7.066659999995870e+000	 2.066670000003317e+000	 1.011630410451528e+001
0	 7.066659999995869e+000	 2.133340000006534e+000	 1.011801790774215e+001
0	 7.066659999995870e+000	 2.200010000009550e+000	 1.011961401299402e+001
0	 7.066659999995871e+000	 2.266680000012267e+000	 1.012110379460973e+001
0	 7.066659999995871e+000	 2.333350000014583e+000	 1.012249862692813e+001
0	 7.066659999995870e+000	 2.400020000016401e+000	 1.012380988428805e+001
0	 7.066659999995870e+000	 2.466690000017617e+000	 1.012504894102835e+001
0	 7.066659999995870e+000	 2.533360000018134e+000	 1.012622717148786e+001
0	 7.066659999995869e+000	 2.600030000017851e+000	 1.012735595000543e+001
0	 7.066659999995871e+000	 2.666700000016666e+000	 1.012844665091989e+001
0	 7.133319999991936e+000	 2.000000000000000e+000	 1.010769520785752e+001
0	 7.133319999991937e+000	 2.066670000003317e+000	 1.010946921612219e+001
0	 7.133319999991937e+000	 2.133340000006534e+000	 1.011113020477378e+001
0	 7.133319999991936e+000	 2.200010000009551e+000	 1.011268934631741e+001
0	 7.133319999991936e+000	 2.266680000012267e+000	 1.011415781325815e+001
0	 7.133319999991937e+000	 2.333350000014584e+000	 1.011554677810109e+001
0	 7.133319999991937e+000	 2.400020000016401e+000	 1.011686741335135e+001
0	 7.133319999991936e+000	 2.466690000017617e+000	 1.011813089151398e+001
0	 7.133319999991937e+000	 2.533360000018133e+000	 1.011934838509410e+001
0	 7.133319999991937e+000	 2.600030000017850e+000	 1.012053106659679e+001
0	 7.133319999991937e+000	 2.666700000016667e+000	 1.012169010852712e+001
0	 7.199979999988403e+000	 2.000000000000000e+000	 1.010097935019691e+001
0	 7.199979999988404e+000	 2.066670000003317e+000	 1.010268591977279e+001
0	 7.199979999988404e+000	 2.133340000006534e+000	 1.010429738820842e+001
0	 7.199979999988404e+000	 2.200010000009550e+000	 1.010582419860833e+001
0	 7.199979999988404e+000	 2.266680000012267e+000	 1.010727679407696e+001
0	 7.199979999988405e+000	 2.333350000014585e+000	 1.010866561771882e+001
0	 7.199979999988405e+000	 2.400020000016401e+000	 1.011000111263838e+001
0	 7.199979999988404e+000	 2.466690000017618e+000	 1.011129372194012e+001
0	 7.199979999988403e+000	 2.533360000018134e+000	 1.011255388872851e+001
0	 7.199979999988405e+000	 2.600030000017851e+000	 1.011379205610802e+001
0	 7.199979999988404e+000	 2.666700000016666e+000	 1.011501866718315e+001
0	 7.266639999985471e+000	 2.000000000000000e+000	 1.009431148701984e+001
0	 7.266639999985470e+000	 2.066670000003317e+000	 1.009595654998431e+001
0	 7.266639999985471e+000	 2.133340000006534e+000	 1.009752529432100e+001
0	 7.266639999985472e+000	 2.200010000009550e+000	 1.009902690616691e+001
0	 7.266639999985470e+000	 2.266680000012267e+000	 1.010047057165906e+001
0	 7.266639999985471e+000	 2.333350000014583e+000	 1.010186547693446e+001
0	 7.266639999985471e+000	 2.400020000016401e+000	 1.010322080813011e+001
0	 7.266639999985471e+000	 2.466690000017617e+000	 1.010454575138304e+001
0	 7.266639999985473e+000	 2.533360000018134e+000	 1.010584949283022e+001
0	 7.266639999985472e+000	 2.600030000017851e+000	 1.010714121860870e+001
0	 7.266639999985470e+000	 2.666700000016666e+000	 1.010843011485545e+001
0	 7.333299999983335e+000	 2.000000000000000e+000	 1.008768944935340e+001
0	 7.333299999983334e+000	 2.066670000003317e+000	 1.008928344127401e+001
0	 7.333299999983335e+000	 2.133340000006534e+000	 1.009081975938641e+001
0	 7.333299999983334e+000	 2.200010000009550e+000	 1.009230580529328e+001
0	 7.333299999983333e+000	 2.266680000012267e+000	 1.009374898059730e+001
0	 7.333299999983335e+000	 2.333350000014584e+000	 1.009515668690115e+001
0	 7.333299999983335e+000	 2.400020000016401e+000	 1.009653632580750e+001
0	 7.333299999983333e+000	 2.466690000017616e+000	 1.009789529891904e+001
0	 7.333299999983334e+000	 2.533360000018134e+000	 1.009924100783843e+001
0	 7.333299999983335e+000	 2.600030000017851e+000	 1.010058085416838e+001
0	 7.333299999983335e+000	 2.666700000016666e+000	 1.010192223951154e+001
0	 6.666700000016667e+000	 2.666700000016667e+000	 1.017089690112145e+001
0	 6.666700000016668e+000	 2.733360000014533e+000	 1.017169685421956e+001
0	 6.666700000016665e+000	 2.800020000011599e+000	 1.017238469686198e+001
0	 6.666700000016666e+000	 2.866680000008067e+000	 1.017296780570309e+001
0	 6.666700000016667e+000	 2.933340000004133e+000	 1.017345355739726e+001
0	 6.666700000016666e+000	 3.000000000000000e+000	 1.017384932859890e+001
0	 6.666700000016667e+000	 3.066659999995868e+000	 1.017416249596237e+001
0	 6.666700000016665e+000	 3.133319999991933e+000	 1.017440043614210e+001
0	 6.666700000016665e+000	 3.199979999988401e+000	 1.017457052579247e+001
0	 6.666700000016668e+000	 3.266639999985468e+000	 1.017468014156789e+001
0	 6.666700000016665e+000	 3.333299999983333e+000	 1.017473666012274e+001
0	 6.733360000014533e+000	 2.666700000016666e+000	 1.016358329975330e+001
0	 6.733360000014532e+000	 2.733360000014533e+000	 1.016437925466024e+001
0	 6.733360000014534e+000	 2.800020000011600e+000	 1.016508725487390e+001
0	 6.733360000014534e+000	 2.866680000008067e+000	 1.016571182613148e+001
0	 6.733360000014532e+000	 2.933340000004133e+000	 1.016625749417021e+001
0	 6.733360000014532e+000	 3.000000000000000e+000	 1.016672878472728e+001
0	 6.733360000014531e+000	 3.066659999995867e+000	 1.016713022353992e+001
0	 6.733360000014533e+000	 3.133319999991935e+000	 1.016746633634534e+001
0	 6.733360000014533e+000	 3.199979999988400e+000	 1.016774164888075e+001
0	 6.733360000014532e+000	 3.266639999985468e+000	 1.016796068688340e+001
0	 6.733360000014533e+000	 3.333299999983333e+000	 1.016812797609051e+001
0	 6.800020000011599e+000	 2.666700000016666e+000	 1.015636807162900e+001
0	 6.800020000011598e+000	 2.733360000014533e+000	 1.015718406956335e+001
0	 6.800020000011598e+000	 2.800020000011599e+000	 1.015792876141786e+001
0	 6.800020000011601e+000	 2.866680000008066e+000	 1.015860428316025e+001
0	 6.800020000011600e+000	 2.933340000004135e+000	 1.015921277075827e+001
0	 6.800020000011600e+000	 3.000000000000000e+000	 1.015975636017970e+001
0	 6.800020000011600e+000	 3.066659999995867e+000	 1.016023718739227e+001
0	 6.800020000011600e+000	 3.133319999991933e+000	 1.016065738836375e+001
0	 6.800020000011600e+000	 3.199979999988401e+000	 1.016101909906190e+001
0	 6.800020000011597e+000	 3.266639999985466e+000	 1.016132445545448e+001
0	 6.800020000011600e+000	 3.333299999983334e+000	 1.016157559350926e+001
0	 6.866680000008067e+000	 2.666700000016666e+000	 1.014924900471600e+001
0	 6.866680000008068e+000	 2.733360000014533e+000	 1.015010456135985e+001
0	 6.866680000008068e+000	 2.800020000011600e+000	 1.015089892674798e+001
0	 6.866680000008065e+000	 2.866680000008066e+000	 1.015163230822643e+001
0	 6.866680000008068e+000	 2.933340000004134e+000	 1.015230491314116e+001
0	 6.866680000008066e+000	 3.000000000000000e+000	 1.015291694883823e+001
0	 6.866680000008067e+000	 3.066659999995867e+000	 1.015346862266361e+001
0	 6.866680000008068e+000	 3.133319999991934e+000	 1.015396014196334e+001
0	 6.866680000008067e+000	 3.199979999988401e+000	 1.015439171408343e+001
0	 6.866680000008069e+000	 3.266639999985468e+000	 1.015476354636990e+001
0	 6.866680000008067e+000	 3.333299999983333e+000	 1.015507584616879e+001
0	 6.933340000004134e+000	 2.666700000016666e+000	 1.014222388698183e+001
0	 6.933340000004135e+000	 2.733360000014533e+000	 1.014313399248069e+001
0	 6.933340000004135e+000	 2.800020000011600e+000	 1.014398746111846e+001
0	 6.933340000004134e+000	 2.866680000008067e+000	 1.014478303276710e+001
0	 6.933340000004133e+000	 2.933340000004133e+000	 1.014551944729860e+001
0	 6.933340000004134e+000	 3.000000000000000e+000	 1.014619544458495e+001
0	 6.933340000004135e+000	 3.066659999995867e+000	 1.014680976449812e+001
0	 6.933340000004134e+000	 3.133319999991934e+000	 1.014736114691011e+001
0	 6.933340000004135e+000	 3.199979999988400e+000	 1.014784833169290e+001
0	 6.933340000004135e+000	 3.266639999985468e+000	 1.014827005871850e+001
0	 6.933340000004135e+000	 3.333299999983334e+000	 1.014862506785890e+001
0	 7.000000000000002e+000	 2.666700000016666e+000	 1.013529050639396e+001
0	 7.000000000000003e+000	 2.733360000014534e+000	 1.013626562535685e+001
0	 7.000000000000002e+000	 2.800020000011599e+000	 1.013718407478343e+001
0	 7.000000000000000e+000	 2.866680000008066e+000	 1.013804358821936e+001
0	 7.000000000000002e+000	 2.933340000004133e+000	 1.013884189921031e+001
0	 7.000000000000003e+000	 3.000000000000000e+000	 1.013957674130196e+001
0	 7.000000000000002e+000	 3.066659999995866e+000	 1.014024584803999e+001
0	 7.000000000000001e+000	 3.133319999991934e+000	 1.014084695297006e+001
0	 7.000000000000003e+000	 3.199979999988400e+000	 1.014137778963787e+001
0	 7.000000000000001e+000	 3.266639999985467e+000	 1.014183609158909e+001
0	 7.000000000000003e+000	 3.333299999983334e+000	 1.014221959236942e+001
0	 7.066659999995871e+000	 2.666700000016666e+000	 1.012844665091989e+001
0	 7.066659999995871e+000	 2.733360000014533e+000	 1.012949272241928e+001
0	 7.066659999995870e+000	 2.800020000011600e+000	 1.013047847799704e+001
0	 7.066659999995869e+000	 2.866680000008066e+000	 1.013140110602025e+001
0	 7.066659999995870e+000	 2.933340000004133e+000	 1.013225779485600e+001
0	 7.066659999995869e+000	 3.000000000000000e+000	 1.013304573287135e+001
0	 7.066659999995869e+000	 3.066659999995866e+000	 1.013376210843337e+001
0	 7.066659999995870e+000	 3.133319999991933e+000	 1.013440410990918e+001
0	 7.066659999995870e+000	 3.199979999988400e+000	 1.013496892566585e+001
0	 7.066659999995870e+000	 3.266639999985467e+000	 1.013545374407047e+001
0	 7.066659999995870e+000	 3.333299999983334e+000	 1.013585575349013e+001
0	 7.133319999991937e+000	 2.666700000016667e+000	 1.012169010852713e+001
0	 7.133319999991937e+000	 2.733360000014533e+000	 1.012280854609895e+001
0	 7.133319999991937e+000	 2.800020000011599e+000	 1.012386038101347e+001
0	 7.133319999991936e+000	 2.866680000008067e+000	 1.012484271760689e+001
0	 7.133319999991936e+000	 2.933340000004133e+000	 1.012575266021538e+001
0	 7.133319999991936e+000	 3.000000000000000e+000	 1.012658731317519e+001
0	 7.133319999991937e+000	 3.066659999995867e+000	 1.012734378082248e+001
0	 7.133319999991937e+000	 3.133319999991934e+000	 1.012801916749349e+001
0	 7.133319999991937e+000	 3.199979999988400e+000	 1.012861057752440e+001
0	 7.133319999991935e+000	 3.266639999985468e+000	 1.012911511525147e+001
0	 7.133319999991937e+000	 3.333299999983333e+000	 1.012952988501087e+001
0	 7.199979999988404e+000	 2.666700000016666e+000	 1.011501866718315e+001
0	 7.199979999988404e+000	 2.733360000014533e+000	 1.011620635882682e+001
0	 7.199979999988403e+000	 2.800020000011599e+000	 1.011731949408687e+001
0	 7.199979999988404e+000	 2.866680000008067e+000	 1.011835555441632e+001
0	 7.199979999988402e+000	 2.933340000004133e+000	 1.011931202126821e+001
0	 7.199979999988404e+000	 3.000000000000000e+000	 1.012018637609558e+001
0	 7.199979999988406e+000	 3.066659999995867e+000	 1.012097610035149e+001
0	 7.199979999988406e+000	 3.133319999991933e+000	 1.012167867548897e+001
0	 7.199979999988405e+000	 3.199979999988401e+000	 1.012229158296108e+001
0	 7.199979999988403e+000	 3.266639999985467e+000	 1.012281230422089e+001
0	 7.199979999988403e+000	 3.333299999983333e+000	 1.012323832072144e+001
0	 7.266639999985470e+000	 2.666700000016666e+000	 1.010843011485545e+001
0	 7.266639999985471e+000	 2.733360000014533e+000	 1.010967942303386e+001
0	 7.266639999985471e+000	 2.800020000011600e+000	 1.011084552747138e+001
0	 7.266639999985470e+000	 2.866680000008067e+000	 1.011192674788562e+001
0	 7.266639999985473e+000	 2.933340000004134e+000	 1.011292140399417e+001
0	 7.266639999985472e+000	 3.000000000000000e+000	 1.011382781551462e+001
0	 7.266639999985471e+000	 3.066659999995866e+000	 1.011464430216457e+001
0	 7.266639999985470e+000	 3.133319999991934e+000	 1.011536918366164e+001
0	 7.266639999985471e+000	 3.199979999988400e+000	 1.011600077972344e+001
0	 7.266639999985470e+000	 3.266639999985468e+000	 1.011653741006756e+001
0	 7.266639999985472e+000	 3.333299999983335e+000	 1.011697739441163e+001
0	 7.333299999983335e+000	 2.666700000016666e+000	 1.010192223951155e+001
0	 7.333299999983334e+000	 2.733360000014533e+000	 1.010322100115103e+001
0	 7.333299999983333e+000	 2.800020000011599e+000	 1.010442819142119e+001
0	 7.333299999983333e+000	 2.866680000008067e+000	 1.010554342945189e+001
0	 7.333299999983334e+000	 2.933340000004133e+000	 1.010656633437299e+001
0	 7.333299999983333e+000	 2.999999999999999e+000	 1.010749652531438e+001
0	 7.333299999983335e+000	 3.066659999995867e+000	 1.010833362140592e+001
0	 7.333299999983335e+000	 3.133319999991934e+000	 1.010907724177751e+001
0	 7.333299999983334e+000	 3.199979999988400e+000	 1.010972700555900e+001
0	 7.333299999983334e+000	 3.266639999985468e+000	 1.011028253188029e+001
0	 7.333299999983335e+000	 3.333299999983335e+000	 1.011074343987127e+001
0	 6.666700000016665e+000	 3.333299999983333e+000	 1.017473666012275e+001
0	 6.666700000016666e+000	 3.399969999982149e+000	 1.017471034978062e+001
0	 6.666700000016666e+000	 3.466639999981866e+000	 1.017456347045676e+001
0	 6.666700000016665e+000	 3.533309999982383e+000	 1.017429140078754e+001
0	 6.666700000016665e+000	 3.599979999983599e+000	 1.017388951940932e+001
0	 6.666700000016665e+000	 3.666649999985415e+000	 1.017335320495846e+001
0	 6.666700000016666e+000	 3.733319999987733e+000	 1.017267783607134e+001
0	 6.666700000016665e+000	 3.799989999990449e+000	 1.017185879138432e+001
0	 6.666700000016668e+000	 3.866659999993467e+000	 1.017089144953374e+001
0	 6.666700000016665e+000	 3.933329999996683e+000	 1.016977118915598e+001
0	 6.666700000016667e+000	 4.000000000000001e+000	 1.016849338888737e+001
0	 6.733360000014533e+000	 3.333299999983333e+000	 1.016812797609051e+001
0	 6.733360000014531e+000	 3.399969999982150e+000	 1.016820515573769e+001
0	 6.733360000014534e+000	 3.466639999981868e+000	 1.016814932694285e+001
0	 6.733360000014531e+000	 3.533309999982382e+000	 1.016795827258859e+001
0	 6.733360000014532e+000	 3.599979999983600e+000	 1.016762977555752e+001
0	 6.733360000014532e+000	 3.666649999985416e+000	 1.016716161873221e+001
0	 6.733360000014533e+000	 3.733319999987733e+000	 1.016655158499529e+001
0	 6.733360000014533e+000	 3.799989999990450e+000	 1.016579745722934e+001
0	 6.733360000014533e+000	 3.866659999993467e+000	 1.016489701831694e+001
0	 6.733360000014529e+000	 3.933329999996683e+000	 1.016384805114070e+001
0	 6.733360000014530e+000	 4.000000000000000e+000	 1.016264833858319e+001
0	 6.800020000011600e+000	 3.333299999983334e+000	 1.016157559350926e+001
0	 6.800020000011599e+000	 3.399969999982150e+000	 1.016173071674082e+001
0	 6.800020000011600e+000	 3.466639999981867e+000	 1.016174640670737e+001
0	 6.800020000011601e+000	 3.533309999982383e+000	 1.016162246758564e+001
0	 6.800020000011600e+000	 3.599979999983600e+000	 1.016135870355230e+001
0	 6.800020000011599e+000	 3.666649999985417e+000	 1.016095491878411e+001
0	 6.800020000011599e+000	 3.733319999987733e+000	 1.016041091745775e+001
0	 6.800020000011601e+000	 3.799989999990451e+000	 1.015972650374991e+001
0	 6.800020000011601e+000	 3.866659999993467e+000	 1.015890148183732e+001
0	 6.800020000011601e+000	 3.933329999996684e+000	 1.015793565589667e+001
0	 6.800020000011598e+000	 4.000000000000000e+000	 1.015682883010466e+001
0	 6.866680000008067e+000	 3.333299999983333e+000	 1.015507584616879e+001
0	 6.866680000008066e+000	 3.399969999982150e+000	 1.015528768926763e+001
0	 6.866680000008067e+000	 3.466639999981866e+000	 1.015535889011314e+001
0	 6.866680000008064e+000	 3.533309999982382e+000	 1.015529089122404e+001
0	 6.866680000008065e+000	 3.599979999983599e+000	 1.015508513511903e+001
0	 6.866680000008068e+000	 3.666649999985417e+000	 1.015474306431679e+001
0	 6.866680000008068e+000	 3.733319999987733e+000	 1.015426612133603e+001
0	 6.866680000008066e+000	 3.799989999990449e+000	 1.015365574869544e+001
0	 6.866680000008067e+000	 3.866659999993467e+000	 1.015291338891370e+001
0	 6.866680000008067e+000	 3.933329999996684e+000	 1.015204048450951e+001
0	 6.866680000008067e+000	 4.000000000000000e+000	 1.015103847800156e+001
0	 6.933340000004135e+000	 3.333299999983334e+000	 1.014862506785890e+001
0	 6.933340000004134e+000	 3.399969999982150e+000	 1.014887672979573e+001
0	 6.933340000004135e+000	 3.466639999981867e+000	 1.014899095752297e+001
0	 6.933340000004136e+000	 3.533309999982383e+000	 1.014897044894922e+001
0	 6.933340000004135e+000	 3.599979999983600e+000	 1.014881790198300e+001
0	 6.933340000004135e+000	 3.666649999985416e+000	 1.014853601453290e+001
0	 6.933340000004134e+000	 3.733319999987733e+000	 1.014812748450747e+001
0	 6.933340000004134e+000	 3.799989999990449e+000	 1.014759500981529e+001
0	 6.933340000004135e+000	 3.866659999993467e+000	 1.014694128836488e+001
0	 6.933340000004134e+000	 3.933329999996683e+000	 1.014616901806483e+001
0	 6.933340000004133e+000	 4.000000000000000e+000	 1.014528089682366e+001
0	 7.000000000000003e+000	 3.333299999983334e+000	 1.014221959236942e+001
0	 7.000000000000002e+000	 3.399969999982150e+000	 1.014249849480276e+001
0	 7.000000000000001e+000	 3.466639999981866e+000	 1.014264678929970e+001
0	 7.000000000000001e+000	 3.533309999982382e+000	 1.014266804620652e+001
0	 7.000000000000003e+000	 3.599979999983601e+000	 1.014256583586955e+001
0	 7.000000000000000e+000	 3.666649999985416e+000	 1.014234372863507e+001
0	 7.000000000000001e+000	 3.733319999987733e+000	 1.014200529484940e+001
0	 7.000000000000001e+000	 3.799989999990450e+000	 1.014155410485884e+001
0	 7.000000000000002e+000	 3.866659999993466e+000	 1.014099372900969e+001
0	 7.000000000000003e+000	 3.933329999996684e+000	 1.014032773764824e+001
0	 7.000000000000001e+000	 4.000000000000000e+000	 1.013955970112081e+001
0	 7.066659999995870e+000	 3.333299999983334e+000	 1.013585575349013e+001
0	 7.066659999995869e+000	 3.399969999982150e+000	 1.013615364076637e+001
0	 7.066659999995869e+000	 3.466639999981866e+000	 1.013633056580614e+001
0	 7.066659999995870e+000	 3.533309999982383e+000	 1.013639058844137e+001
0	 7.066659999995867e+000	 3.599979999983599e+000	 1.013633776850399e+001
0	 7.066659999995870e+000	 3.666649999985417e+000	 1.013617616582595e+001
0	 7.066659999995868e+000	 3.733319999987732e+000	 1.013590984023913e+001
0	 7.066659999995868e+000	 3.799989999990450e+000	 1.013554285157548e+001
0	 7.066659999995869e+000	 3.866659999993466e+000	 1.013507925966694e+001
0	 7.066659999995870e+000	 3.933329999996685e+000	 1.013452312434539e+001
0	 7.066659999995869e+000	 4.000000000000000e+000	 1.013387850544276e+001
0	 7.133319999991937e+000	 3.333299999983333e+000	 1.012952988501087e+001
0	 7.133319999991937e+000	 3.399969999982150e+000	 1.012984282416416e+001
0	 7.133319999991937e+000	 3.466639999981867e+000	 1.013004646740511e+001
0	 7.133319999991935e+000	 3.533309999982383e+000	 1.013014498109914e+001
0	 7.133319999991937e+000	 3.599979999983600e+000	 1.013014253161169e+001
0	 7.133319999991936e+000	 3.666649999985417e+000	 1.013004328530816e+001
0	 7.133319999991936e+000	 3.733319999987733e+000	 1.012985140855400e+001
0	 7.133319999991937e+000	 3.799989999990450e+000	 1.012957106771461e+001
0	 7.133319999991937e+000	 3.866659999993467e+000	 1.012920642915543e+001
0	 7.133319999991937e+000	 3.933329999996684e+000	 1.012876165924187e+001
0	 7.133319999991937e+000	 4.000000000000000e+000	 1.012824092433935e+001
0	 7.199979999988403e+000	 3.333299999983333e+000	 1.012323832072143e+001
0	 7.199979999988402e+000	 3.399969999982149e+000	 1.012356670147378e+001
0	 7.199979999988406e+000	 3.466639999981867e+000	 1.012379867445945e+001
0	 7.199979999988402e+000	 3.533309999982383e+000	 1.012393812962523e+001
0	 7.199979999988403e+000	 3.599979999983599e+000	 1.012398895691793e+001
0	 7.199979999988404e+000	 3.666649999985416e+000	 1.012395504628436e+001
0	 7.199979999988404e+000	 3.733319999987733e+000	 1.012384028767133e+001
0	 7.199979999988401e+000	 3.799989999990448e+000	 1.012364857102560e+001
0	 7.199979999988404e+000	 3.866659999993466e+000	 1.012338378629400e+001
0	 7.199979999988405e+000	 3.933329999996684e+000	 1.012304982342331e+001
0	 7.199979999988402e+000	 4.000000000000000e+000	 1.012265057236033e+001
0	 7.266639999985472e+000	 3.333299999983335e+000	 1.011697739441163e+001
0	 7.266639999985469e+000	 3.399969999982150e+000	 1.011732592917285e+001
0	 7.266639999985470e+000	 3.466639999981866e+000	 1.011759136733197e+001
0	 7.266639999985471e+000	 3.533309999982383e+000	 1.011777693946502e+001
0	 7.266639999985471e+000	 3.599979999983601e+000	 1.011788587614810e+001
0	 7.266639999985471e+000	 3.666649999985415e+000	 1.011792140795721e+001
0	 7.266639999985471e+000	 3.733319999987733e+000	 1.011788676546845e+001
0	 7.266639999985472e+000	 3.799989999990451e+000	 1.011778517925784e+001
0	 7.266639999985470e+000	 3.866659999993466e+000	 1.011761987990146e+001
0	 7.266639999985471e+000	 3.933329999996683e+000	 1.011739409797534e+001
0	 7.266639999985472e+000	 4.000000000000001e+000	 1.011711106405553e+001
0	 7.333299999983335e+000	 3.333299999983335e+000	 1.011074343987127e+001
0	 7.333299999983333e+000	 3.399969999982149e+000	 1.011112116373902e+001
0	 7.333299999983333e+000	 3.466639999981866e+000	 1.011142872638551e+001
0	 7.333299999983333e+000	 3.533309999982382e+000	 1.011166831606393e+001
0	 7.333299999983335e+000	 3.599979999983599e+000	 1.011184212102749e+001
0	 7.333299999983335e+000	 3.666649999985416e+000	 1.011195232952934e+001
0	 7.333299999983335e+000	 3.733319999987733e+000	 1.011200112982270e+001
0	 7.333299999983334e+000	 3.799989999990450e+000	 1.011199071016073e+001
0	 7.333299999983336e+000	 3.866659999993467e+000	 1.011192325879662e+001
0	 7.333299999983332e+000	 3.933329999996682e+000	 1.011180096398357e+001
0	 7.333299999983335e+000	 4.000000000000001e+000	 1.011162601397474e+001
0	 6.666700000016667e+000	 4.000000000000001e+000	 1.016849338888737e+001
0	 6.666700000016666e+000	 4.066670000003316e+000	 1.016710841166186e+001
0	 6.666700000016667e+000	 4.133340000006536e+000	 1.016566961741050e+001
0	 6.666700000016667e+000	 4.200010000009551e+000	 1.016417688026535e+001
0	 6.666700000016667e+000	 4.266680000012268e+000	 1.016263007435851e+001
0	 6.666700000016665e+000	 4.333350000014583e+000	 1.016102907382203e+001
0	 6.666700000016665e+000	 4.400020000016400e+000	 1.015937375278798e+001
0	 6.666700000016667e+000	 4.466690000017618e+000	 1.015766398538839e+001
0	 6.666700000016667e+000	 4.533360000018134e+000	 1.015589964575538e+001
0	 6.666700000016666e+000	 4.600030000017851e+000	 1.015408060802097e+001
0	 6.666700000016667e+000	 4.666700000016667e+000	 1.015220674631725e+001
0	 6.733360000014530e+000	 4.000000000000000e+000	 1.016264833858319e+001
0	 6.733360000014534e+000	 4.066670000003317e+000	 1.016135146562846e+001
0	 6.733360000014532e+000	 4.133340000006534e+000	 1.016001146372525e+001
0	 6.733360000014532e+000	 4.200010000009551e+000	 1.015862678545323e+001
0	 6.733360000014534e+000	 4.266680000012269e+000	 1.015719588339209e+001
0	 6.733360000014532e+000	 4.333350000014584e+000	 1.015571721012152e+001
0	 6.733360000014534e+000	 4.400020000016402e+000	 1.015418921822116e+001
0	 6.733360000014533e+000	 4.466690000017618e+000	 1.015261036027073e+001
0	 6.733360000014533e+000	 4.533360000018133e+000	 1.015097908884987e+001
0	 6.733360000014532e+000	 4.600030000017851e+000	 1.014929385653828e+001
0	 6.733360000014534e+000	 4.666700000016666e+000	 1.014755311591560e+001
0	 6.800020000011598e+000	 4.000000000000000e+000	 1.015682883010466e+001
0	 6.800020000011600e+000	 4.066670000003316e+000	 1.015563394410697e+001
0	 6.800020000011599e+000	 4.133340000006532e+000	 1.015440226207124e+001
0	 6.800020000011601e+000	 4.200010000009550e+000	 1.015313107495708e+001
0	 6.800020000011601e+000	 4.266680000012267e+000	 1.015181767372412e+001
0	 6.800020000011600e+000	 4.333350000014584e+000	 1.015045934933198e+001
0	 6.800020000011601e+000	 4.400020000016401e+000	 1.014905339274026e+001
0	 6.800020000011601e+000	 4.466690000017618e+000	 1.014759709490858e+001
0	 6.800020000011600e+000	 4.533360000018133e+000	 1.014608774679656e+001
0	 6.800020000011598e+000	 4.600030000017850e+000	 1.014452263936379e+001
0	 6.800020000011601e+000	 4.666700000016666e+000	 1.014289906356991e+001
0	 6.866680000008067e+000	 4.000000000000000e+000	 1.015103847800155e+001
0	 6.866680000008068e+000	 4.066670000003318e+000	 1.014995649469090e+001
0	 6.866680000008065e+000	 4.133340000006533e+000	 1.014884029104744e+001
0	 6.866680000008065e+000	 4.200010000009550e+000	 1.014768625634305e+001
0	 6.866680000008067e+000	 4.266680000012268e+000	 1.014649077984962e+001
0	 6.866680000008066e+000	 4.333350000014585e+000	 1.014525025083904e+001
0	 6.866680000008067e+000	 4.400020000016401e+000	 1.014396105858319e+001
0	 6.866680000008065e+000	 4.466690000017615e+000	 1.014261959235395e+001
0	 6.866680000008066e+000	 4.533360000018134e+000	 1.014122224142319e+001
0	 6.866680000008069e+000	 4.600030000017852e+000	 1.013976539506282e+001
0	 6.866680000008066e+000	 4.666700000016666e+000	 1.013824544254468e+001
0	 6.933340000004133e+000	 4.000000000000000e+000	 1.014528089682366e+001
0	 6.933340000004135e+000	 4.066670000003316e+000	 1.014431976497377e+001
0	 6.933340000004135e+000	 4.133340000006534e+000	 1.014332382925282e+001
0	 6.933340000004133e+000	 4.200010000009550e+000	 1.014228883717727e+001
0	 6.933340000004136e+000	 4.266680000012268e+000	 1.014121053626362e+001
0	 6.933340000004135e+000	 4.333350000014584e+000	 1.014008467402834e+001
0	 6.933340000004136e+000	 4.400020000016401e+000	 1.013890699798794e+001
0	 6.933340000004135e+000	 4.466690000017618e+000	 1.013767325565885e+001
0	 6.933340000004135e+000	 4.533360000018134e+000	 1.013637919455760e+001
0	 6.933340000004133e+000	 4.600030000017850e+000	 1.013502056220062e+001
0	 6.933340000004136e+000	 4.666700000016667e+000	 1.013359310610443e+001
0	 7.000000000000001e+000	 4.000000000000000e+000	 1.013955970112081e+001
0	 7.000000000000003e+000	 4.066670000003317e+000	 1.013872440254912e+001
0	 7.000000000000000e+000	 4.133340000006533e+000	 1.013785115528634e+001
0	 7.000000000000001e+000	 4.200010000009551e+000	 1.013693532502587e+001
0	 7.000000000000002e+000	 4.266680000012267e+000	 1.013597227746112e+001
0	 7.000000000000001e+000	 4.333350000014583e+000	 1.013495737828551e+001
0	 7.000000000000004e+000	 4.400020000016402e+000	 1.013388599319243e+001
0	 7.000000000000003e+000	 4.466690000017617e+000	 1.013275348787531e+001
0	 7.000000000000001e+000	 4.533360000018133e+000	 1.013155522802753e+001
0	 7.000000000000001e+000	 4.600030000017851e+000	 1.013028657934250e+001
0	 7.000000000000001e+000	 4.666700000016665e+000	 1.012894290751363e+001
0	 7.066659999995869e+000	 4.000000000000000e+000	 1.013387850544277e+001
0	 7.066659999995870e+000	 4.066670000003318e+000	 1.013317105501046e+001
0	 7.066659999995870e+000	 4.133340000006536e+000	 1.013242054774696e+001
0	 7.066659999995870e+000	 4.200010000009551e+000	 1.013162222745498e+001
0	 7.066659999995870e+000	 4.266680000012267e+000	 1.013077133793716e+001
0	 7.066659999995870e+000	 4.333350000014582e+000	 1.012986312299617e+001
0	 7.066659999995871e+000	 4.400020000016401e+000	 1.012889282643467e+001
0	 7.066659999995868e+000	 4.466690000017617e+000	 1.012785569205532e+001
0	 7.066659999995869e+000	 4.533360000018133e+000	 1.012674696366079e+001
0	 7.066659999995869e+000	 4.600030000017850e+000	 1.012556188505373e+001
0	 7.066659999995868e+000	 4.666700000016665e+000	 1.012429570003679e+001
0	 7.133319999991937e+000	 4.000000000000000e+000	 1.012824092433935e+001
0	 7.133319999991937e+000	 4.066670000003317e+000	 1.012766036995128e+001
0	 7.133319999991935e+000	 4.133340000006533e+000	 1.012703028523366e+001
0	 7.133319999991937e+000	 4.200010000009550e+000	 1.012634605203074e+001
0	 7.133319999991936e+000	 4.266680000012267e+000	 1.012560305218674e+001
0	 7.133319999991936e+000	 4.333350000014584e+000	 1.012479666754595e+001
0	 7.133319999991937e+000	 4.400020000016400e+000	 1.012392227995260e+001
0	 7.133319999991937e+000	 4.466690000017618e+000	 1.012297527125092e+001
0	 7.133319999991936e+000	 4.533360000018132e+000	 1.012195102328517e+001
0	 7.133319999991937e+000	 4.600030000017851e+000	 1.012084491789959e+001
0	 7.133319999991937e+000	 4.666700000016667e+000	 1.011965233693841e+001
0	 7.199979999988402e+000	 4.000000000000000e+000	 1.012265057236033e+001
0	 7.199979999988405e+000	 4.066670000003319e+000	 1.012219299496515e+001
0	 7.199979999988404e+000	 4.133340000006535e+000	 1.012167864634539e+001
0	 7.199979999988403e+000	 4.200010000009551e+000	 1.012110330631926e+001
0	 7.199979999988405e+000	 4.266680000012268e+000	 1.012046275470490e+001
0	 7.199979999988403e+000	 4.333350000014583e+000	 1.011975277132048e+001
0	 7.199979999988403e+000	 4.400020000016400e+000	 1.011896913598416e+001
0	 7.199979999988401e+000	 4.466690000017618e+000	 1.011810762851410e+001
0	 7.199979999988402e+000	 4.533360000018133e+000	 1.011716402872845e+001
0	 7.199979999988404e+000	 4.600030000017850e+000	 1.011613411644537e+001
0	 7.199979999988404e+000	 4.666700000016666e+000	 1.011501367148302e+001
0	 7.266639999985472e+000	 4.000000000000001e+000	 1.011711106405553e+001
0	 7.266639999985472e+000	 4.066670000003318e+000	 1.011676957764554e+001
0	 7.266639999985469e+000	 4.133340000006534e+000	 1.011636390968114e+001
0	 7.266639999985470e+000	 4.200010000009550e+000	 1.011589049788670e+001
0	 7.266639999985470e+000	 4.266680000012267e+000	 1.011534577998666e+001
0	 7.266639999985471e+000	 4.333350000014583e+000	 1.011472619370541e+001
0	 7.266639999985472e+000	 4.400020000016402e+000	 1.011402817676735e+001
0	 7.266639999985471e+000	 4.466690000017617e+000	 1.011324816689689e+001
0	 7.266639999985470e+000	 4.533360000018134e+000	 1.011238260181843e+001
0	 7.266639999985471e+000	 4.600030000017850e+000	 1.011142791925635e+001
0	 7.266639999985471e+000	 4.666700000016665e+000	 1.011038055693508e+001
0	 7.333299999983335e+000	 4.000000000000001e+000	 1.011162601397474e+001
0	 7.333299999983335e+000	 4.066670000003317e+000	 1.011139076558603e+001
0	 7.333299999983334e+000	 4.133340000006534e+000	 1.011108435383984e+001
0	 7.333299999983335e+000	 4.200010000009550e+000	 1.011070413429920e+001
0	 7.333299999983333e+000	 4.266680000012268e+000	 1.011024746252704e+001
0	 7.333299999983333e+000	 4.333350000014583e+000	 1.010971169408636e+001
0	 7.333299999983334e+000	 4.400020000016402e+000	 1.010909418454012e+001
0	 7.333299999983334e+000	 4.466690000017617e+000	 1.010839228945131e+001
0	 7.333299999983334e+000	 4.533360000018134e+000	 1.010760336438289e+001
0	 7.333299999983334e+000	 4.600030000017849e+000	 1.010672476489783e+001
0	 7.333299999983333e+000	 4.666700000016665e+000	 1.010575384655912e+001
0	 6.666700000016667e+000	 4.666700000016667e+000	 1.015220674631725e+001
0	 6.666700000016668e+000	 4.733360000014534e+000	 1.015028574295461e+001
0	 6.666700000016665e+000	 4.800020000011600e+000	 1.014832184766456e+001
0	 6.666700000016667e+000	 4.866680000008067e+000	 1.014631064126000e+001
0	 6.666700000016669e+000	 4.933340000004135e+000	 1.014424770455385e+001
0	 6.666700000016666e+000	 5.000000000000001e+000	 1.014212861835902e+001
0	 6.666700000016667e+000	 5.066659999995867e+000	 1.013994896348845e+001
0	 6.666700000016666e+000	 5.133319999991935e+000	 1.013770432075507e+001
0	 6.666700000016666e+000	 5.199979999988400e+000	 1.013539027097180e+001
0	 6.666700000016665e+000	 5.266639999985468e+000	 1.013300239495156e+001
0	 6.666700000016665e+000	 5.333299999983334e+000	 1.013053627350731e+001
0	 6.733360000014534e+000	 4.666700000016666e+000	 1.014755311591560e+001
0	 6.733360000014531e+000	 4.733360000014534e+000	 1.014576001283104e+001
0	 6.733360000014534e+000	 4.800020000011601e+000	 1.014391602576077e+001
0	 6.733360000014533e+000	 4.866680000008067e+000	 1.014201790223992e+001
0	 6.733360000014532e+000	 4.933340000004134e+000	 1.014006238980361e+001
0	 6.733360000014532e+000	 5.000000000000000e+000	 1.013804623598695e+001
0	 6.733360000014532e+000	 5.066659999995868e+000	 1.013596618832507e+001
0	 6.733360000014533e+000	 5.133319999991935e+000	 1.013381899435311e+001
0	 6.733360000014534e+000	 5.199979999988400e+000	 1.013160140160618e+001
0	 6.733360000014534e+000	 5.266639999985468e+000	 1.012931015761943e+001
0	 6.733360000014532e+000	 5.333299999983334e+000	 1.012694200992798e+001
0	 6.800020000011601e+000	 4.666700000016666e+000	 1.014289906356991e+001
0	 6.800020000011600e+000	 4.733360000014534e+000	 1.014121847221447e+001
0	 6.800020000011599e+000	 4.800020000011600e+000	 1.013948211586296e+001
0	 6.800020000011601e+000	 4.866680000008067e+000	 1.013768772625746e+001
0	 6.800020000011601e+000	 4.933340000004133e+000	 1.013583303514010e+001
0	 6.800020000011601e+000	 5.000000000000001e+000	 1.013391577425298e+001
0	 6.800020000011600e+000	 5.066659999995867e+000	 1.013193367533820e+001
0	 6.800020000011602e+000	 5.133319999991935e+000	 1.012988447013789e+001
0	 6.800020000011599e+000	 5.199979999988400e+000	 1.012776589039414e+001
0	 6.800020000011597e+000	 5.266639999985467e+000	 1.012557566784909e+001
0	 6.800020000011599e+000	 5.333299999983335e+000	 1.012331153424485e+001
0	 6.866680000008066e+000	 4.666700000016666e+000	 1.013824544254468e+001
0	 6.866680000008068e+000	 4.733360000014534e+000	 1.013666447821932e+001
0	 6.866680000008068e+000	 4.800020000011600e+000	 1.013502556008907e+001
0	 6.866680000008068e+000	 4.866680000008068e+000	 1.013332722158784e+001
0	 6.866680000008067e+000	 4.933340000004132e+000	 1.013156799614948e+001
0	 6.866680000008067e+000	 4.999999999999999e+000	 1.012974641720789e+001
0	 6.866680000008067e+000	 5.066659999995867e+000	 1.012786101819693e+001
0	 6.866680000008066e+000	 5.133319999991933e+000	 1.012591033255049e+001
0	 6.866680000008066e+000	 5.199979999988400e+000	 1.012389289370245e+001
0	 6.866680000008068e+000	 5.266639999985467e+000	 1.012180723508670e+001
0	 6.866680000008065e+000	 5.333299999983332e+000	 1.011965189013713e+001
0	 6.933340000004136e+000	 4.666700000016667e+000	 1.013359310610443e+001
0	 6.933340000004135e+000	 4.733360000014534e+000	 1.013210138795995e+001
0	 6.933340000004135e+000	 4.800020000011599e+000	 1.013055180055708e+001
0	 6.933340000004135e+000	 4.866680000008066e+000	 1.012894349650626e+001
0	 6.933340000004132e+000	 4.933340000004131e+000	 1.012727562841792e+001
0	 6.933340000004133e+000	 4.999999999999999e+000	 1.012554734890247e+001
0	 6.933340000004135e+000	 5.066659999995867e+000	 1.012375781057035e+001
0	 6.933340000004135e+000	 5.133319999991935e+000	 1.012190616603200e+001
0	 6.933340000004136e+000	 5.199979999988400e+000	 1.011999156789786e+001
0	 6.933340000004133e+000	 5.266639999985467e+000	 1.011801316877837e+001
0	 6.933340000004134e+000	 5.333299999983333e+000	 1.011597012128396e+001
0	 7.000000000000001e+000	 4.666700000016665e+000	 1.012894290751363e+001
0	 7.000000000000002e+000	 4.733360000014534e+000	 1.012753255855076e+001
0	 7.000000000000002e+000	 4.800020000011600e+000	 1.012606627938495e+001
0	 7.000000000000000e+000	 4.866680000008066e+000	 1.012454365928797e+001
0	 7.000000000000001e+000	 4.933340000004132e+000	 1.012296428753155e+001
0	 7.000000000000002e+000	 4.999999999999999e+000	 1.012132775338750e+001
0	 7.000000000000002e+000	 5.066659999995867e+000	 1.011963364612756e+001
0	 7.000000000000002e+000	 5.133319999991934e+000	 1.011788155502353e+001
0	 7.000000000000003e+000	 5.199979999988400e+000	 1.011607106934715e+001
0	 7.000000000000001e+000	 5.266639999985467e+000	 1.011420177837024e+001
0	 7.000000000000002e+000	 5.333299999983335e+000	 1.011227327136453e+001
0	 7.066659999995868e+000	 4.666700000016665e+000	 1.012429570003680e+001
0	 7.066659999995870e+000	 4.733360000014534e+000	 1.012296134710614e+001
0	 7.066659999995871e+000	 4.800020000011601e+000	 1.012157443869063e+001
0	 7.066659999995870e+000	 4.866680000008066e+000	 1.012013481820814e+001
0	 7.066659999995871e+000	 4.933340000004133e+000	 1.011864232907656e+001
0	 7.066659999995870e+000	 5.000000000000000e+000	 1.011709681471378e+001
0	 7.066659999995869e+000	 5.066659999995866e+000	 1.011549811853767e+001
0	 7.066659999995869e+000	 5.133319999991935e+000	 1.011384608396615e+001
0	 7.066659999995871e+000	 5.199979999988401e+000	 1.011214055441710e+001
0	 7.066659999995870e+000	 5.266639999985467e+000	 1.011038137330842e+001
0	 7.066659999995871e+000	 5.333299999983334e+000	 1.010856838405801e+001
0	 7.133319999991937e+000	 4.666700000016667e+000	 1.011965233693841e+001
0	 7.133319999991937e+000	 4.733360000014534e+000	 1.011839111074048e+001
0	 7.133319999991937e+000	 4.800020000011600e+000	 1.011708172059210e+001
0	 7.133319999991936e+000	 4.866680000008067e+000	 1.011572408154204e+001
0	 7.133319999991937e+000	 4.933340000004133e+000	 1.011431810863908e+001
0	 7.133319999991937e+000	 4.999999999999999e+000	 1.011286371693206e+001
0	 7.133319999991937e+000	 5.066659999995867e+000	 1.011136082146975e+001
0	 7.133319999991937e+000	 5.133319999991935e+000	 1.010980933730095e+001
0	 7.133319999991937e+000	 5.199979999988400e+000	 1.010820917947444e+001
0	 7.133319999991937e+000	 5.266639999985468e+000	 1.010656026303906e+001
0	 7.133319999991937e+000	 5.333299999983334e+000	 1.010486250304359e+001
0	 7.199979999988404e+000	 4.666700000016666e+000	 1.011501367148302e+001
0	 7.199979999988404e+000	 4.733360000014532e+000	 1.011382520656818e+001
0	 7.199979999988403e+000	 4.800020000011600e+000	 1.011259356720729e+001
0	 7.199979999988404e+000	 4.866680000008066e+000	 1.011131855756484e+001
0	 7.199979999988403e+000	 4.933340000004133e+000	 1.010999998180531e+001
0	 7.199979999988403e+000	 4.999999999999999e+000	 1.010863764409317e+001
0	 7.199979999988406e+000	 5.066659999995866e+000	 1.010723134859291e+001
0	 7.199979999988405e+000	 5.133319999991934e+000	 1.010578089946902e+001
0	 7.199979999988405e+000	 5.199979999988401e+000	 1.010428610088598e+001
0	 7.199979999988403e+000	 5.266639999985467e+000	 1.010274675700828e+001
0	 7.199979999988404e+000	 5.333299999983335e+000	 1.010116267200043e+001
0	 7.266639999985471e+000	 4.666700000016665e+000	 1.011038055693508e+001
0	 7.266639999985471e+000	 4.733360000014534e+000	 1.010926699170361e+001
0	 7.266639999985471e+000	 4.800020000011601e+000	 1.010811542065420e+001
0	 7.266639999985471e+000	 4.866680000008067e+000	 1.010692535455181e+001
0	 7.266639999985473e+000	 4.933340000004134e+000	 1.010569630416138e+001
0	 7.266639999985472e+000	 5.000000000000000e+000	 1.010442778024787e+001
0	 7.266639999985472e+000	 5.066659999995866e+000	 1.010311929357624e+001
0	 7.266639999985470e+000	 5.133319999991934e+000	 1.010177035491144e+001
0	 7.266639999985471e+000	 5.199979999988400e+000	 1.010038047501845e+001
0	 7.266639999985471e+000	 5.266639999985467e+000	 1.009894916466222e+001
0	 7.266639999985469e+000	 5.333299999983333e+000	 1.009747593460770e+001
0	 7.333299999983333e+000	 4.666700000016665e+000	 1.010575384655912e+001
0	 7.333299999983334e+000	 4.733360000014534e+000	 1.010471982326118e+001
0	 7.333299999983334e+000	 4.800020000011600e+000	 1.010365272305078e+001
0	 7.333299999983334e+000	 4.866680000008068e+000	 1.010255158077814e+001
0	 7.333299999983335e+000	 4.933340000004134e+000	 1.010141543129346e+001
0	 7.333299999983335e+000	 4.999999999999999e+000	 1.010024330944696e+001
0	 7.333299999983336e+000	 5.066659999995867e+000	 1.009903425008884e+001
0	 7.333299999983335e+000	 5.133319999991935e+000	 1.009778728806933e+001
0	 7.333299999983335e+000	 5.199979999988400e+000	 1.009650145823864e+001
0	 7.333299999983333e+000	 5.266639999985469e+000	 1.009517579544700e+001
0	 7.333299999983334e+000	 5.333299999983333e+000	 1.009380933454461e+001
0	 6.666700000016665e+000	 5.333299999983334e+000	 1.013053627350730e+001
0	 6.666700000016668e+000	 5.399969999982151e+000	 1.012803170960486e+001
0	 6.666700000016667e+000	 5.466639999981866e+000	 1.012553085981821e+001
0	 6.666700000016667e+000	 5.533309999982384e+000	 1.012303170723694e+001
0	 6.666700000016667e+000	 5.599979999983600e+000	 1.012053223495063e+001
0	 6.666700000016665e+000	 5.666649999985416e+000	 1.011803042604886e+001
0	 6.666700000016665e+000	 5.733319999987732e+000	 1.011552426362123e+001
0	 6.666700000016665e+000	 5.799989999990448e+000	 1.011301173075730e+001
0	 6.666700000016665e+000	 5.866659999993468e+000	 1.011049081054666e+001
0	 6.666700000016665e+000	 5.933329999996682e+000	 1.010795948607890e+001
0	 6.666700000016668e+000	 6.000000000000002e+000	 1.010541574044358e+001
0	 6.733360000014532e+000	 5.333299999983334e+000	 1.012694200992798e+001
0	 6.733360000014532e+000	 5.399969999982151e+000	 1.012453755872497e+001
0	 6.733360000014532e+000	 5.466639999981866e+000	 1.012213859274442e+001
0	 6.733360000014530e+000	 5.533309999982382e+000	 1.011974255876670e+001
0	 6.733360000014530e+000	 5.599979999983599e+000	 1.011734690357215e+001
0	 6.733360000014532e+000	 5.666649999985415e+000	 1.011494907394117e+001
0	 6.733360000014531e+000	 5.733319999987733e+000	 1.011254651665413e+001
0	 6.733360000014533e+000	 5.799989999990450e+000	 1.011013667849141e+001
0	 6.733360000014533e+000	 5.866659999993468e+000	 1.010771700623339e+001
0	 6.733360000014532e+000	 5.933329999996683e+000	 1.010528494666041e+001
0	 6.733360000014532e+000	 6.000000000000000e+000	 1.010283794655287e+001
0	 6.800020000011599e+000	 5.333299999983335e+000	 1.012331153424485e+001
0	 6.800020000011599e+000	 5.399969999982150e+000	 1.012101315110752e+001
0	 6.800020000011599e+000	 5.466639999981864e+000	 1.011872039646165e+001
0	 6.800020000011601e+000	 5.533309999982385e+000	 1.011643029086308e+001
0	 6.800020000011601e+000	 5.599979999983599e+000	 1.011413985486762e+001
0	 6.800020000011599e+000	 5.666649999985417e+000	 1.011184610903114e+001
0	 6.800020000011601e+000	 5.733319999987733e+000	 1.010954607390946e+001
0	 6.800020000011600e+000	 5.799989999990451e+000	 1.010723677005844e+001
0	 6.800020000011601e+000	 5.866659999993466e+000	 1.010491521803388e+001
0	 6.800020000011601e+000	 5.933329999996684e+000	 1.010257843839166e+001
0	 6.800020000011599e+000	 6.000000000000000e+000	 1.010022345168760e+001
0	 6.866680000008065e+000	 5.333299999983332e+000	 1.011965189013713e+001
0	 6.866680000008067e+000	 5.399969999982150e+000	 1.011746417034047e+001
0	 6.866680000008067e+000	 5.466639999981866e+000	 1.011528082510701e+001
0	 6.866680000008065e+000	 5.533309999982381e+000	 1.011309855885274e+001
0	 6.866680000008065e+000	 5.599979999983598e+000	 1.011091407599361e+001
0	 6.866680000008067e+000	 5.666649999985416e+000	 1.010872408094562e+001
0	 6.866680000008067e+000	 5.733319999987732e+000	 1.010652527812473e+001
0	 6.866680000008067e+000	 5.799989999990450e+000	 1.010431437194693e+001
0	 6.866680000008065e+000	 5.866659999993467e+000	 1.010208806682819e+001
0	 6.866680000008066e+000	 5.933329999996683e+000	 1.009984306718448e+001
0	 6.866680000008067e+000	 6.000000000000000e+000	 1.009757607743178e+001
0	 6.933340000004134e+000	 5.333299999983333e+000	 1.011597012128396e+001
0	 6.933340000004134e+000	 5.399969999982148e+000	 1.011389630001174e+001
0	 6.933340000004135e+000	 5.466639999981866e+000	 1.011182443281760e+001
0	 6.933340000004135e+000	 5.533309999982381e+000	 1.010975101806232e+001
0	 6.933340000004136e+000	 5.599979999983600e+000	 1.010767255410669e+001
0	 6.933340000004135e+000	 5.666649999985418e+000	 1.010558553931148e+001
0	 6.933340000004135e+000	 5.733319999987732e+000	 1.010348647203749e+001
0	 6.933340000004135e+000	 5.799989999990449e+000	 1.010137185064551e+001
0	 6.933340000004134e+000	 5.866659999993468e+000	 1.009923817349631e+001
0	 6.933340000004136e+000	 5.933329999996682e+000	 1.009708193895072e+001
0	 6.933340000004135e+000	 5.999999999999999e+000	 1.009489964536948e+001
0	 7.000000000000002e+000	 5.333299999983335e+000	 1.011227327136453e+001
0	 7.000000000000003e+000	 5.399969999982150e+000	 1.011031522370932e+001
0	 7.000000000000001e+000	 5.466639999981865e+000	 1.010835577373055e+001
0	 7.000000000000002e+000	 5.533309999982384e+000	 1.010639132381848e+001
0	 7.000000000000002e+000	 5.599979999983599e+000	 1.010441827636340e+001
0	 7.000000000000002e+000	 5.666649999985417e+000	 1.010243303375556e+001
0	 7.000000000000002e+000	 5.733319999987733e+000	 1.010043199838526e+001
0	 7.000000000000003e+000	 5.799989999990449e+000	 1.009841157264276e+001
0	 7.000000000000002e+000	 5.866659999993467e+000	 1.009636815891830e+001
0	 7.000000000000002e+000	 5.933329999996682e+000	 1.009429815960220e+001
0	 7.000000000000002e+000	 6.000000000000000e+000	 1.009219797708471e+001
0	 7.066659999995871e+000	 5.333299999983334e+000	 1.010856838405801e+001
0	 7.066659999995871e+000	 5.399969999982151e+000	 1.010672662502114e+001
0	 7.066659999995870e+000	 5.466639999981867e+000	 1.010487940198295e+001
0	 7.066659999995869e+000	 5.533309999982382e+000	 1.010302313144787e+001
0	 7.066659999995868e+000	 5.599979999983598e+000	 1.010115422992032e+001
0	 7.066659999995871e+000	 5.666649999985417e+000	 1.009926911390475e+001
0	 7.066659999995869e+000	 5.733319999987732e+000	 1.009736419990559e+001
0	 7.066659999995869e+000	 5.799989999990451e+000	 1.009543590442725e+001
0	 7.066659999995870e+000	 5.866659999993467e+000	 1.009348064397417e+001
0	 7.066659999995871e+000	 5.933329999996683e+000	 1.009149483505078e+001
0	 7.066659999995868e+000	 5.999999999999998e+000	 1.008947489416150e+001
0	 7.133319999991937e+000	 5.333299999983334e+000	 1.010486250304359e+001
0	 7.133319999991936e+000	 5.399969999982148e+000	 1.010313618753516e+001
0	 7.133319999991937e+000	 5.466639999981866e+000	 1.010139987171191e+001
0	 7.133319999991937e+000	 5.533309999982383e+000	 1.009965009627712e+001
0	 7.133319999991936e+000	 5.599979999983598e+000	 1.009788340193402e+001
0	 7.133319999991937e+000	 5.666649999985417e+000	 1.009609632938590e+001
0	 7.133319999991935e+000	 5.733319999987732e+000	 1.009428541933601e+001
0	 7.133319999991938e+000	 5.799989999990449e+000	 1.009244721248760e+001
0	 7.133319999991937e+000	 5.866659999993467e+000	 1.009057824954393e+001
0	 7.133319999991937e+000	 5.933329999996683e+000	 1.008867507120827e+001
0	 7.133319999991937e+000	 6.000000000000000e+000	 1.008673421818388e+001
0	 7.199979999988404e+000	 5.333299999983335e+000	 1.010116267200042e+001
0	 7.199979999988404e+000	 5.399969999982150e+000	 1.009954959483933e+001
0	 7.199979999988403e+000	 5.466639999981866e+000	 1.009792173705456e+001
0	 7.199979999988404e+000	 5.533309999982383e+000	 1.009627587363288e+001
0	 7.199979999988405e+000	 5.599979999983601e+000	 1.009460877956106e+001
0	 7.199979999988403e+000	 5.666649999985415e+000	 1.009291722982585e+001
0	 7.199979999988403e+000	 5.733319999987732e+000	 1.009119799941404e+001
0	 7.199979999988404e+000	 5.799989999990449e+000	 1.008944786331236e+001
0	 7.199979999988404e+000	 5.866659999993468e+000	 1.008766359650762e+001
0	 7.199979999988405e+000	 5.933329999996684e+000	 1.008584197398654e+001
0	 7.199979999988402e+000	 6.000000000000000e+000	 1.008397977073589e+001
0	 7.266639999985469e+000	 5.333299999983333e+000	 1.009747593460770e+001
0	 7.266639999985471e+000	 5.399969999982150e+000	 1.009597253052160e+001
0	 7.266639999985472e+000	 5.466639999981868e+000	 1.009444955214799e+001
0	 7.266639999985470e+000	 5.533309999982383e+000	 1.009290411884179e+001
0	 7.266639999985471e+000	 5.599979999983599e+000	 1.009133334995798e+001
0	 7.266639999985472e+000	 5.666649999985416e+000	 1.008973436485148e+001
0	 7.266639999985471e+000	 5.733319999987733e+000	 1.008810428287723e+001
0	 7.266639999985471e+000	 5.799989999990450e+000	 1.008644022339017e+001
0	 7.266639999985471e+000	 5.866659999993466e+000	 1.008473930574524e+001
0	 7.266639999985472e+000	 5.933329999996683e+000	 1.008299864929739e+001
0	 7.266639999985472e+000	 6.000000000000001e+000	 1.008121537340155e+001
0	 7.333299999983334e+000	 5.333299999983333e+000	 1.009380933454461e+001
0	 7.333299999983335e+000	 5.399969999982150e+000	 1.009241067816994e+001
0	 7.333299999983333e+000	 5.466639999981867e+000	 1.009098787112932e+001
0	 7.333299999983334e+000	 5.533309999982385e+000	 1.008953848723054e+001
0	 7.333299999983335e+000	 5.599979999983599e+000	 1.008806010028139e+001
0	 7.333299999983334e+000	 5.666649999985417e+000	 1.008655028408963e+001
0	 7.333299999983336e+000	 5.733319999987733e+000	 1.008500661246310e+001
0	 7.333299999983334e+000	 5.799989999990449e+000	 1.008342665920958e+001
0	 7.333299999983333e+000	 5.866659999993468e+000	 1.008180799813684e+001
0	 7.333299999983334e+000	 5.933329999996684e+000	 1.008014820305268e+001
0	 7.333299999983334e+000	 6.000000000000002e+000	 1.007844484776489e+001
0	 6.666700000016668e+000	 6.000000000000002e+000	 1.010541574044358e+001
0	 6.666700000016667e+000	 6.066670000003318e+000	 1.010287143010809e+001
0	 6.666700000016665e+000	 6.133340000006532e+000	 1.010033804004697e+001
0	 6.666700000016666e+000	 6.200010000009550e+000	 1.009781299611054e+001
0	 6.666700000016666e+000	 6.266680000012267e+000	 1.009529372414913e+001
0	 6.666700000016667e+000	 6.333350000014586e+000	 1.009277765001307e+001
0	 6.666700000016667e+000	 6.400020000016401e+000	 1.009026219955267e+001
0	 6.666700000016667e+000	 6.466690000017616e+000	 1.008774479861828e+001
0	 6.666700000016666e+000	 6.533360000018132e+000	 1.008522287306022e+001
0	 6.666700000016667e+000	 6.600030000017851e+000	 1.008269384872881e+001
0	 6.666700000016666e+000	 6.666700000016667e+000	 1.008015515147438e+001
0	 6.733360000014532e+000	 6.000000000000000e+000	 1.010283794655287e+001
0	 6.733360000014534e+000	 6.066670000003316e+000	 1.010038682258944e+001
0	 6.733360000014533e+000	 6.133340000006534e+000	 1.009794263090761e+001
0	 6.733360000014533e+000	 6.200010000009552e+000	 1.009550317747595e+001
0	 6.733360000014532e+000	 6.266680000012268e+000	 1.009306626826306e+001
0	 6.733360000014531e+000	 6.333350000014582e+000	 1.009062970923753e+001
0	 6.733360000014532e+000	 6.400020000016401e+000	 1.008819130636790e+001
0	 6.733360000014532e+000	 6.466690000017618e+000	 1.008574886562280e+001
0	 6.733360000014531e+000	 6.533360000018131e+000	 1.008330019297079e+001
0	 6.733360000014532e+000	 6.600030000017852e+000	 1.008084309438045e+001
0	 6.733360000014532e+000	 6.666700000016667e+000	 1.007837537582036e+001
0	 6.800020000011599e+000	 6.000000000000000e+000	 1.010022345168760e+001
0	 6.800020000011599e+000	 6.066670000003315e+000	 1.009786097749040e+001
0	 6.800020000011600e+000	 6.133340000006532e+000	 1.009550247139508e+001
0	 6.800020000011601e+000	 6.200010000009552e+000	 1.009314605799695e+001
0	 6.800020000011598e+000	 6.266680000012264e+000	 1.009078986189128e+001
0	 6.800020000011599e+000	 6.333350000014585e+000	 1.008843200767334e+001
0	 6.800020000011601e+000	 6.400020000016402e+000	 1.008607061993843e+001
0	 6.800020000011601e+000	 6.466690000017619e+000	 1.008370382328184e+001
0	 6.800020000011600e+000	 6.533360000018136e+000	 1.008132974229883e+001
0	 6.800020000011600e+000	 6.600030000017851e+000	 1.007894650158472e+001
0	 6.800020000011599e+000	 6.666700000016666e+000	 1.007655222573476e+001
0	 6.866680000008067e+000	 6.000000000000000e+000	 1.009757607743178e+001
0	 6.866680000008066e+000	 6.066670000003317e+000	 1.009529848032099e+001
0	 6.866680000008067e+000	 6.133340000006534e+000	 1.009302277681264e+001
0	 6.866680000008067e+000	 6.200010000009553e+000	 1.009074734863716e+001
0	 6.866680000008067e+000	 6.266680000012267e+000	 1.008847057752501e+001
0	 6.866680000008068e+000	 6.333350000014585e+000	 1.008619084520659e+001
0	 6.866680000008067e+000	 6.400020000016401e+000	 1.008390653341234e+001
0	 6.866680000008068e+000	 6.466690000017618e+000	 1.008161602387273e+001
0	 6.866680000008065e+000	 6.533360000018133e+000	 1.007931769831816e+001
0	 6.866680000008067e+000	 6.600030000017850e+000	 1.007700993847907e+001
0	 6.866680000008066e+000	 6.666700000016666e+000	 1.007469112608592e+001
0	 6.933340000004135e+000	 5.999999999999999e+000	 1.009489964536948e+001
0	 6.933340000004135e+000	 6.066670000003317e+000	 1.009270391659124e+001
0	 6.933340000004134e+000	 6.133340000006533e+000	 1.009050876246348e+001
0	 6.933340000004134e+000	 6.200010000009551e+000	 1.008831276036021e+001
0	 6.933340000004134e+000	 6.266680000012267e+000	 1.008611448765547e+001
0	 6.933340000004135e+000	 6.333350000014587e+000	 1.008391252172331e+001
0	 6.933340000004134e+000	 6.400020000016400e+000	 1.008170543993774e+001
0	 6.933340000004135e+000	 6.466690000017616e+000	 1.007949181967281e+001
0	 6.933340000004133e+000	 6.533360000018133e+000	 1.007727023830255e+001
0	 6.933340000004133e+000	 6.600030000017850e+000	 1.007503927320100e+001
0	 6.933340000004135e+000	 6.666700000016667e+000	 1.007279750174216e+001
0	 7.000000000000002e+000	 6.000000000000000e+000	 1.009219797708471e+001
0	 7.000000000000001e+000	 6.066670000003315e+000	 1.009008187181117e+001
0	 7.000000000000001e+000	 6.133340000006533e+000	 1.008796564365080e+001
0	 7.000000000000002e+000	 6.200010000009550e+000	 1.008584800412971e+001
0	 7.000000000000001e+000	 6.266680000012267e+000	 1.008372766477393e+001
0	 6.999999999999999e+000	 6.333350000014583e+000	 1.008160333710958e+001
0	 7.000000000000003e+000	 6.400020000016401e+000	 1.007947373266273e+001
0	 7.000000000000001e+000	 6.466690000017617e+000	 1.007733756295944e+001
0	 7.000000000000003e+000	 6.533360000018134e+000	 1.007519353952580e+001
0	 6.999999999999999e+000	 6.600030000017848e+000	 1.007304037388790e+001
0	 7.000000000000003e+000	 6.666700000016667e+000	 1.007087677757181e+001
0	 7.066659999995868e+000	 5.999999999999998e+000	 1.008947489416150e+001
0	 7.066659999995870e+000	 6.066670000003318e+000	 1.008743693149079e+001
0	 7.066659999995870e+000	 6.133340000006535e+000	 1.008539863567785e+001
0	 7.066659999995870e+000	 6.200010000009553e+000	 1.008335879090927e+001
0	 7.066659999995871e+000	 6.266680000012268e+000	 1.008131618137162e+001
0	 7.066659999995869e+000	 6.333350000014583e+000	 1.007926959125146e+001
0	 7.066659999995869e+000	 6.400020000016400e+000	 1.007721780473538e+001
0	 7.066659999995870e+000	 6.466690000017619e+000	 1.007515960600994e+001
0	 7.066659999995870e+000	 6.533360000018135e+000	 1.007309377926172e+001
0	 7.066659999995870e+000	 6.600030000017852e+000	 1.007101910867728e+001
0	 7.066659999995870e+000	 6.666700000016668e+000	 1.006893437844320e+001
0	 7.133319999991937e+000	 6.000000000000000e+000	 1.008673421818388e+001
0	 7.133319999991937e+000	 6.066670000003318e+000	 1.008477368114011e+001
0	 7.133319999991937e+000	 6.133340000006534e+000	 1.008281295384783e+001
0	 7.133319999991937e+000	 6.200010000009551e+000	 1.008085083166254e+001
0	 7.133319999991937e+000	 6.266680000012268e+000	 1.007888610993977e+001
0	 7.133319999991937e+000	 6.333350000014583e+000	 1.007691758403502e+001
0	 7.133319999991937e+000	 6.400020000016401e+000	 1.007494404930382e+001
0	 7.133319999991937e+000	 6.466690000017618e+000	 1.007296430110166e+001
0	 7.133319999991936e+000	 6.533360000018134e+000	 1.007097713478410e+001
0	 7.133319999991937e+000	 6.600030000017851e+000	 1.006898134570657e+001
0	 7.133319999991937e+000	 6.666700000016666e+000	 1.006697572922467e+001
0	 7.199979999988402e+000	 6.000000000000000e+000	 1.008397977073589e+001
0	 7.199979999988403e+000	 6.066670000003315e+000	 1.008209670626916e+001
0	 7.199979999988403e+000	 6.133340000006532e+000	 1.008021381346395e+001
0	 7.199979999988404e+000	 6.200010000009550e+000	 1.007832983735312e+001
0	 7.199979999988403e+000	 6.266680000012268e+000	 1.007644352296962e+001
0	 7.199979999988404e+000	 6.333350000014582e+000	 1.007455361534632e+001
0	 7.199979999988403e+000	 6.400020000016398e+000	 1.007265885951613e+001
0	 7.199979999988405e+000	 6.466690000017617e+000	 1.007075800051196e+001
0	 7.199979999988401e+000	 6.533360000018133e+000	 1.006884978336670e+001
0	 7.199979999988405e+000	 6.600030000017851e+000	 1.006693295311327e+001
0	 7.199979999988403e+000	 6.666700000016665e+000	 1.006500625478455e+001
0	 7.266639999985472e+000	 6.000000000000001e+000	 1.008121537340155e+001
0	 7.266639999985472e+000	 6.066670000003317e+000	 1.007941059238797e+001
0	 7.266639999985470e+000	 6.133340000006532e+000	 1.007760642982941e+001
0	 7.266639999985472e+000	 6.200010000009552e+000	 1.007580151894466e+001
0	 7.266639999985471e+000	 6.266680000012268e+000	 1.007399449295240e+001
0	 7.266639999985471e+000	 6.333350000014582e+000	 1.007218398507142e+001
0	 7.266639999985472e+000	 6.400020000016402e+000	 1.007036862852043e+001
0	 7.266639999985471e+000	 6.466690000017617e+000	 1.006854705651816e+001
0	 7.266639999985472e+000	 6.533360000018135e+000	 1.006671790228336e+001
0	 7.266639999985471e+000	 6.600030000017851e+000	 1.006487979903479e+001
0	 7.266639999985470e+000	 6.666700000016665e+000	 1.006303137999115e+001
0	 7.333299999983334e+000	 6.000000000000002e+000	 1.007844484776489e+001
0	 7.333299999983334e+000	 6.066670000003316e+000	 1.007671992500652e+001
0	 7.333299999983332e+000	 6.133340000006531e+000	 1.007499601824747e+001
0	 7.333299999983334e+000	 6.200010000009550e+000	 1.007327158740075e+001
0	 7.333299999983334e+000	 6.266680000012268e+000	 1.007154509237939e+001
0	 7.333299999983335e+000	 6.333350000014586e+000	 1.006981499309639e+001
0	 7.333299999983336e+000	 6.400020000016400e+000	 1.006807974946479e+001
0	 7.333299999983333e+000	 6.466690000017615e+000	 1.006633782139762e+001
0	 7.333299999983334e+000	 6.533360000018135e+000	 1.006458766880788e+001
0	 7.333299999983335e+000	 6.600030000017851e+000	 1.006282775160862e+001
0	 7.333299999983333e+000	 6.666700000016665e+000	 1.006105652971283e+001
0	 6.666700000016666e+000	 6.666700000016667e+000	 1.008015515147438e+001
0	 6.666700000016667e+000	 6.733360000014533e+000	 1.007762722337088e+001
0	 6.666700000016665e+000	 6.800020000011598e+000	 1.007513019391798e+001
0	 6.666700000016666e+000	 6.866680000008067e+000	 1.007266216502364e+001
0	 6.666700000016667e+000	 6.933340000004133e+000	 1.007022123859582e+001
0	 6.666700000016665e+000	 6.999999999999999e+000	 1.006780551654248e+001
0	 6.666700000016667e+000	 7.066659999995868e+000	 1.006541310077159e+001
0	 6.666700000016665e+000	 7.133319999991936e+000	 1.006304209319110e+001
0	 6.666700000016666e+000	 7.199979999988400e+000	 1.006069059570896e+001
0	 6.666700000016666e+000	 7.266639999985467e+000	 1.005835671023313e+001
0	 6.666700000016665e+000	 7.333299999983333e+000	 1.005603853867157e+001
0	 6.733360000014532e+000	 6.666700000016667e+000	 1.007837537582036e+001
0	 6.733360000014534e+000	 6.733360000014534e+000	 1.007591762317417e+001
0	 6.733360000014534e+000	 6.800020000011599e+000	 1.007348978144888e+001
0	 6.733360000014532e+000	 6.866680000008068e+000	 1.007108980843447e+001
0	 6.733360000014532e+000	 6.933340000004133e+000	 1.006871566192088e+001
0	 6.733360000014533e+000	 7.000000000000000e+000	 1.006636529969807e+001
0	 6.733360000014532e+000	 7.066659999995870e+000	 1.006403667955599e+001
0	 6.733360000014534e+000	 7.133319999991937e+000	 1.006172775928460e+001
0	 6.733360000014534e+000	 7.199979999988401e+000	 1.005943649667386e+001
0	 6.733360000014532e+000	 7.266639999985467e+000	 1.005716084951371e+001
0	 6.733360000014532e+000	 7.333299999983334e+000	 1.005489877559410e+001
0	 6.800020000011599e+000	 6.666700000016666e+000	 1.007655222573476e+001
0	 6.800020000011600e+000	 6.733360000014534e+000	 1.007416715243049e+001
0	 6.800020000011600e+000	 6.800020000011601e+000	 1.007181061481814e+001
0	 6.800020000011601e+000	 6.866680000008067e+000	 1.006948046082443e+001
0	 6.800020000011600e+000	 6.933340000004134e+000	 1.006717453837607e+001
0	 6.800020000011599e+000	 7.000000000000001e+000	 1.006489069539977e+001
0	 6.800020000011599e+000	 7.066659999995865e+000	 1.006262677982225e+001
0	 6.800020000011600e+000	 7.133319999991935e+000	 1.006038063957023e+001
0	 6.800020000011601e+000	 7.199979999988401e+000	 1.005815012257039e+001
0	 6.800020000011598e+000	 7.266639999985466e+000	 1.005593307674949e+001
0	 6.800020000011599e+000	 7.333299999983334e+000	 1.005372735003419e+001
0	 6.866680000008066e+000	 6.666700000016666e+000	 1.007469112608592e+001
0	 6.866680000008067e+000	 6.733360000014532e+000	 1.007238075367522e+001
0	 6.866680000008068e+000	 6.800020000011601e+000	 1.007009721008011e+001
0	 6.866680000008065e+000	 6.866680000008065e+000	 1.006783826761888e+001
0	 6.866680000008067e+000	 6.933340000004134e+000	 1.006560169860973e+001
0	 6.866680000008066e+000	 6.999999999999998e+000	 1.006338527537090e+001
0	 6.866680000008067e+000	 7.066659999995866e+000	 1.006118677022062e+001
0	 6.866680000008067e+000	 7.133319999991934e+000	 1.005900395547713e+001
0	 6.866680000008066e+000	 7.199979999988402e+000	 1.005683460345869e+001
0	 6.866680000008068e+000	 7.266639999985467e+000	 1.005467648648348e+001
0	 6.866680000008064e+000	 7.333299999983331e+000	 1.005252737686977e+001
0	 6.933340000004135e+000	 6.666700000016667e+000	 1.007279750174216e+001
0	 6.933340000004135e+000	 6.733360000014533e+000	 1.007056336944366e+001
0	 6.933340000004135e+000	 6.800020000011600e+000	 1.006835408328915e+001
0	 6.933340000004135e+000	 6.866680000008066e+000	 1.006616737424314e+001
0	 6.933340000004134e+000	 6.933340000004133e+000	 1.006400097327017e+001
0	 6.933340000004135e+000	 6.999999999999999e+000	 1.006185261133473e+001
0	 6.933340000004134e+000	 7.066659999995865e+000	 1.005972001940136e+001
0	 6.933340000004136e+000	 7.133319999991936e+000	 1.005760092843456e+001
0	 6.933340000004134e+000	 7.199979999988400e+000	 1.005549306939885e+001
0	 6.933340000004135e+000	 7.266639999985467e+000	 1.005339417325875e+001
0	 6.933340000004135e+000	 7.333299999983335e+000	 1.005130197097878e+001
0	 7.000000000000003e+000	 6.666700000016667e+000	 1.007087677757181e+001
0	 7.000000000000003e+000	 6.733360000014531e+000	 1.006871994227119e+001
0	 7.000000000000002e+000	 6.800020000011599e+000	 1.006658575049960e+001
0	 7.000000000000002e+000	 6.866680000008066e+000	 1.006447192612260e+001
0	 7.000000000000002e+000	 6.933340000004133e+000	 1.006237619300573e+001
0	 7.000000000000004e+000	 7.000000000000000e+000	 1.006029627501457e+001
0	 7.000000000000002e+000	 7.066659999995866e+000	 1.005822989601471e+001
0	 7.000000000000003e+000	 7.133319999991936e+000	 1.005617477987167e+001
0	 7.000000000000001e+000	 7.199979999988400e+000	 1.005412865045102e+001
0	 7.000000000000001e+000	 7.266639999985466e+000	 1.005208923161835e+001
0	 7.000000000000001e+000	 7.333299999983334e+000	 1.005005424723919e+001
0	 7.066659999995870e+000	 6.666700000016668e+000	 1.006893437844320e+001
0	 7.066659999995871e+000	 6.733360000014533e+000	 1.006685541469317e+001
0	 7.066659999995871e+000	 6.800020000011601e+000	 1.006479672776583e+001
0	 7.066659999995869e+000	 6.866680000008066e+000	 1.006275606868256e+001
0	 7.066659999995870e+000	 6.933340000004133e+000	 1.006073118846475e+001
0	 7.066659999995870e+000	 7.000000000000000e+000	 1.005871983813373e+001
0	 7.066659999995870e+000	 7.066659999995866e+000	 1.005671976871090e+001
0	 7.066659999995870e+000	 7.133319999991935e+000	 1.005472873121765e+001
0	 7.066659999995869e+000	 7.199979999988401e+000	 1.005274447667531e+001
0	 7.066659999995869e+000	 7.266639999985467e+000	 1.005076475610530e+001
0	 7.066659999995870e+000	 7.333299999983335e+000	 1.004878732052894e+001
0	 7.133319999991937e+000	 6.666700000016666e+000	 1.006697572922467e+001
0	 7.133319999991937e+000	 6.733360000014534e+000	 1.006497472924493e+001
0	 7.133319999991937e+000	 6.800020000011600e+000	 1.006299153114218e+001
0	 7.133319999991936e+000	 6.866680000008067e+000	 1.006102394734840e+001
0	 7.133319999991937e+000	 6.933340000004133e+000	 1.005906979029551e+001
0	 7.133319999991937e+000	 6.999999999999999e+000	 1.005712687241548e+001
0	 7.133319999991937e+000	 7.066659999995865e+000	 1.005519300614022e+001
0	 7.133319999991937e+000	 7.133319999991935e+000	 1.005326600390171e+001
0	 7.133319999991937e+000	 7.199979999988401e+000	 1.005134367813185e+001
0	 7.133319999991937e+000	 7.266639999985466e+000	 1.004942384126264e+001
0	 7.133319999991937e+000	 7.333299999983333e+000	 1.004750430572598e+001
0	 7.199979999988403e+000	 6.666700000016665e+000	 1.006500625478454e+001
0	 7.199979999988403e+000	 6.733360000014533e+000	 1.006308282846180e+001
0	 7.199979999988404e+000	 6.800020000011600e+000	 1.006117467668301e+001
0	 7.199979999988404e+000	 6.866680000008068e+000	 1.005927970754545e+001
0	 7.199979999988404e+000	 6.933340000004134e+000	 1.005739582914638e+001
0	 7.199979999988402e+000	 6.999999999999997e+000	 1.005552094958311e+001
0	 7.199979999988404e+000	 7.066659999995867e+000	 1.005365297695289e+001
0	 7.199979999988404e+000	 7.133319999991935e+000	 1.005178981935303e+001
0	 7.199979999988404e+000	 7.199979999988401e+000	 1.004992938488077e+001
0	 7.199979999988406e+000	 7.266639999985467e+000	 1.004806958163342e+001
0	 7.199979999988405e+000	 7.333299999983335e+000	 1.004620831770825e+001
0	 7.266639999985470e+000	 6.666700000016665e+000	 1.006303137999115e+001
0	 7.266639999985472e+000	 6.733360000014533e+000	 1.006118465487915e+001
0	 7.266639999985471e+000	 6.800020000011600e+000	 1.005935068044268e+001
0	 7.266639999985471e+000	 6.866680000008067e+000	 1.005752749469905e+001
0	 7.266639999985471e+000	 6.933340000004134e+000	 1.005571313566568e+001
0	 7.266639999985470e+000	 7.000000000000000e+000	 1.005390564135992e+001
0	 7.266639999985470e+000	 7.066659999995866e+000	 1.005210304979918e+001
0	 7.266639999985471e+000	 7.133319999991934e+000	 1.005030339900080e+001
0	 7.266639999985471e+000	 7.199979999988401e+000	 1.004850472698218e+001
0	 7.266639999985470e+000	 7.266639999985465e+000	 1.004670507176068e+001
0	 7.266639999985471e+000	 7.333299999983332e+000	 1.004490247135369e+001
0	 7.333299999983333e+000	 6.666700000016665e+000	 1.006105652971283e+001
0	 7.333299999983335e+000	 6.733360000014533e+000	 1.005928515103235e+001
0	 7.333299999983334e+000	 6.800020000011600e+000	 1.005752405847552e+001
0	 7.333299999983332e+000	 6.866680000008064e+000	 1.005577145423455e+001
0	 7.333299999983334e+000	 6.933340000004134e+000	 1.005402554050172e+001
0	 7.333299999983332e+000	 6.999999999999998e+000	 1.005228451946921e+001
0	 7.333299999983334e+000	 7.066659999995866e+000	 1.005054659332932e+001
0	 7.333299999983333e+000	 7.133319999991934e+000	 1.004880996427424e+001
0	 7.333299999983334e+000	 7.199979999988401e+000	 1.004707283449621e+001
0	 7.333299999983335e+000	 7.266639999985467e+000	 1.004533340618747e+001
0	 7.333299999983336e+000	 7.333299999983336e+000	 1.004358988154027e+001
0	 6.666700000016665e+000	 7.333299999983333e+000	 1.005603853867157e+001
0	 6.666700000016665e+000	 7.399969999982150e+000	 1.005374726560476e+001
0	 6.666700000016668e+000	 7.466639999981867e+000	 1.005149471530832e+001
0	 6.666700000016667e+000	 7.533309999982384e+000	 1.004927890920260e+001
0	 6.666700000016665e+000	 7.599979999983599e+000	 1.004709786870805e+001
0	 6.666700000016666e+000	 7.666649999985416e+000	 1.004494961524500e+001
0	 6.666700000016665e+000	 7.733319999987731e+000	 1.004283217023388e+001
0	 6.666700000016665e+000	 7.799989999990450e+000	 1.004074355509507e+001
0	 6.666700000016665e+000	 7.866659999993465e+000	 1.003868179124894e+001
0	 6.666700000016666e+000	 7.933329999996684e+000	 1.003664490011589e+001
0	 6.666700000016668e+000	 8.000000000000000e+000	 1.003463090311631e+001
0	 6.733360000014532e+000	 7.333299999983334e+000	 1.005489877559410e+001
0	 6.733360000014531e+000	 7.399969999982149e+000	 1.005266162048906e+001
0	 6.733360000014531e+000	 7.466639999981864e+000	 1.005046149908272e+001
0	 6.733360000014533e+000	 7.533309999982383e+000	 1.004829650784322e+001
0	 6.733360000014532e+000	 7.599979999983601e+000	 1.004616474323863e+001
0	 6.733360000014532e+000	 7.666649999985416e+000	 1.004406430173702e+001
0	 6.733360000014533e+000	 7.733319999987734e+000	 1.004199327980653e+001
0	 6.733360000014532e+000	 7.799989999990450e+000	 1.003994977391521e+001
0	 6.733360000014533e+000	 7.866659999993466e+000	 1.003793188053118e+001
0	 6.733360000014531e+000	 7.933329999996682e+000	 1.003593769612249e+001
0	 6.733360000014532e+000	 7.999999999999999e+000	 1.003396531715729e+001
0	 6.800020000011599e+000	 7.333299999983334e+000	 1.005372735003419e+001
0	 6.800020000011598e+000	 7.399969999982149e+000	 1.005154459679504e+001
0	 6.800020000011598e+000	 7.466639999981866e+000	 1.004939733979017e+001
0	 6.800020000011601e+000	 7.533309999982384e+000	 1.004728373907563e+001
0	 6.800020000011600e+000	 7.599979999983600e+000	 1.004520195470746e+001
0	 6.800020000011599e+000	 7.666649999985415e+000	 1.004315014674173e+001
0	 6.800020000011600e+000	 7.733319999987733e+000	 1.004112647523449e+001
0	 6.800020000011601e+000	 7.799989999990449e+000	 1.003912910024180e+001
0	 6.800020000011600e+000	 7.866659999993466e+000	 1.003715618181970e+001
0	 6.800020000011600e+000	 7.933329999996683e+000	 1.003520588002425e+001
0	 6.800020000011600e+000	 8.000000000000000e+000	 1.003327635491153e+001
0	 6.866680000008064e+000	 7.333299999983331e+000	 1.005252737686977e+001
0	 6.866680000008066e+000	 7.399969999982150e+000	 1.005039934827076e+001
0	 6.866680000008066e+000	 7.466639999981864e+000	 1.004830541125265e+001
0	 6.866680000008067e+000	 7.533309999982383e+000	 1.004624377799972e+001
0	 6.866680000008068e+000	 7.599979999983600e+000	 1.004421266069622e+001
0	 6.866680000008068e+000	 7.666649999985416e+000	 1.004221027152643e+001
0	 6.866680000008067e+000	 7.733319999987733e+000	 1.004023482267465e+001
0	 6.866680000008067e+000	 7.799989999990450e+000	 1.003828452632514e+001
0	 6.866680000008065e+000	 7.866659999993466e+000	 1.003635759466220e+001
0	 6.866680000008067e+000	 7.933329999996683e+000	 1.003445223987008e+001
0	 6.866680000008066e+000	 7.999999999999999e+000	 1.003256667413306e+001
0	 6.933340000004135e+000	 7.333299999983335e+000	 1.005130197097878e+001
0	 6.933340000004134e+000	 7.399969999982151e+000	 1.004922902866426e+001
0	 6.933340000004134e+000	 7.466639999981865e+000	 1.004718888729221e+001
0	 6.933340000004135e+000	 7.533309999982382e+000	 1.004517979971538e+001
0	 6.933340000004136e+000	 7.599979999983599e+000	 1.004320001878654e+001
0	 6.933340000004136e+000	 7.666649999985417e+000	 1.004124779735845e+001
0	 6.933340000004135e+000	 7.733319999987733e+000	 1.003932138828388e+001
0	 6.933340000004134e+000	 7.799989999990448e+000	 1.003741904441558e+001
0	 6.933340000004134e+000	 7.866659999993467e+000	 1.003553901860632e+001
0	 6.933340000004135e+000	 7.933329999996683e+000	 1.003367956370886e+001
0	 6.933340000004137e+000	 8.000000000000000e+000	 1.003183893257596e+001
0	 7.000000000000001e+000	 7.333299999983334e+000	 1.005005424723919e+001
0	 7.000000000000003e+000	 7.399969999982150e+000	 1.004803679172356e+001
0	 7.000000000000002e+000	 7.466639999981865e+000	 1.004605094173084e+001
0	 7.000000000000002e+000	 7.533309999982384e+000	 1.004409497932251e+001
0	 7.000000000000003e+000	 7.599979999983599e+000	 1.004216718656011e+001
0	 7.000000000000002e+000	 7.666649999985417e+000	 1.004026584550512e+001
0	 7.000000000000003e+000	 7.733319999987733e+000	 1.003838923821908e+001
0	 7.000000000000002e+000	 7.799989999990450e+000	 1.003653564676346e+001
0	 7.000000000000002e+000	 7.866659999993466e+000	 1.003470335319977e+001
0	 7.000000000000002e+000	 7.933329999996682e+000	 1.003289063958954e+001
0	 7.000000000000002e+000	 8.000000000000000e+000	 1.003109578799428e+001
0	 7.066659999995870e+000	 7.333299999983335e+000	 1.004878732052893e+001
0	 7.066659999995869e+000	 7.399969999982151e+000	 1.004682579119670e+001
0	 7.066659999995868e+000	 7.466639999981865e+000	 1.004489474839054e+001
0	 7.066659999995871e+000	 7.533309999982383e+000	 1.004299249192100e+001
0	 7.066659999995867e+000	 7.599979999983598e+000	 1.004111732159857e+001
0	 7.066659999995870e+000	 7.666649999985416e+000	 1.003926753723377e+001
0	 7.066659999995870e+000	 7.733319999987732e+000	 1.003744143863710e+001
0	 7.066659999995869e+000	 7.799989999990450e+000	 1.003563732561909e+001
0	 7.066659999995868e+000	 7.866659999993466e+000	 1.003385349799022e+001
0	 7.066659999995870e+000	 7.933329999996683e+000	 1.003208825556104e+001
0	 7.066659999995870e+000	 7.999999999999999e+000	 1.003033989814205e+001
0	 7.133319999991937e+000	 7.333299999983333e+000	 1.004750430572598e+001
0	 7.133319999991937e+000	 7.399969999982150e+000	 1.004559918083171e+001
0	 7.133319999991937e+000	 7.466639999981867e+000	 1.004372348109337e+001
0	 7.133319999991937e+000	 7.533309999982383e+000	 1.004187551261074e+001
0	 7.133319999991937e+000	 7.599979999983598e+000	 1.004005358148359e+001
0	 7.133319999991936e+000	 7.666649999985416e+000	 1.003825599381170e+001
0	 7.133319999991937e+000	 7.733319999987733e+000	 1.003648105569485e+001
0	 7.133319999991937e+000	 7.799989999990448e+000	 1.003472707323282e+001
0	 7.133319999991935e+000	 7.866659999993466e+000	 1.003299235252536e+001
0	 7.133319999991937e+000	 7.933329999996682e+000	 1.003127519967229e+001
0	 7.133319999991937e+000	 7.999999999999999e+000	 1.002957392077335e+001
0	 7.199979999988405e+000	 7.333299999983335e+000	 1.004620831770825e+001
0	 7.199979999988402e+000	 7.399969999982148e+000	 1.004436011437662e+001
0	 7.199979999988403e+000	 7.466639999981866e+000	 1.004254031366131e+001
0	 7.199979999988403e+000	 7.533309999982382e+000	 1.004074721649162e+001
0	 7.199979999988403e+000	 7.599979999983599e+000	 1.003897912379682e+001
0	 7.199979999988404e+000	 7.666649999985416e+000	 1.003723433650626e+001
0	 7.199979999988405e+000	 7.733319999987733e+000	 1.003551115554921e+001
0	 7.199979999988404e+000	 7.799989999990448e+000	 1.003380788185497e+001
0	 7.199979999988403e+000	 7.866659999993466e+000	 1.003212281635286e+001
0	 7.199979999988405e+000	 7.933329999996683e+000	 1.003045425997217e+001
0	 7.199979999988405e+000	 8.000000000000000e+000	 1.002880051364222e+001
0	 7.266639999985471e+000	 7.333299999983332e+000	 1.004490247135369e+001
0	 7.266639999985469e+000	 7.399969999982150e+000	 1.004311174557949e+001
0	 7.266639999985471e+000	 7.466639999981865e+000	 1.004134841991640e+001
0	 7.266639999985471e+000	 7.533309999982383e+000	 1.003961077866352e+001
0	 7.266639999985471e+000	 7.599979999983600e+000	 1.003789710611994e+001
0	 7.266639999985471e+000	 7.666649999985413e+000	 1.003620568658475e+001
0	 7.266639999985471e+000	 7.733319999987733e+000	 1.003453480435702e+001
0	 7.266639999985471e+000	 7.799989999990449e+000	 1.003288274373588e+001
0	 7.266639999985472e+000	 7.866659999993468e+000	 1.003124778902038e+001
0	 7.266639999985471e+000	 7.933329999996683e+000	 1.002962822450963e+001
0	 7.266639999985470e+000	 8.000000000000000e+000	 1.002802233450271e+001
0	 7.333299999983336e+000	 7.333299999983336e+000	 1.004358988154027e+001
0	 7.333299999983333e+000	 7.399969999982150e+000	 1.004185722818832e+001
0	 7.333299999983334e+000	 7.466639999981866e+000	 1.004015097368063e+001
0	 7.333299999983335e+000	 7.533309999982384e+000	 1.003846937422634e+001
0	 7.333299999983334e+000	 7.599979999983599e+000	 1.003681068603459e+001
0	 7.333299999983335e+000	 7.666649999985417e+000	 1.003517316531450e+001
0	 7.333299999983335e+000	 7.733319999987733e+000	 1.003355506827521e+001
0	 7.333299999983334e+000	 7.799989999990448e+000	 1.003195465112588e+001
0	 7.333299999983332e+000	 7.866659999993465e+000	 1.003037017007562e+001
0	 7.333299999983333e+000	 7.933329999996682e+000	 1.002879988133357e+001
0	 7.333299999983335e+000	 8.000000000000000e+000	 1.002724204110888e+001
0	 6.666700000016668e+000	 8.000000000000000e+000	 1.003463090311631e+001
0	 6.666700000016666e+000	 8.066670000003317e+000	 1.003265540610452e+001
0	 6.666700000016665e+000	 8.133340000006532e+000	 1.003073369830755e+001
0	 6.666700000016666e+000	 8.200010000009550e+000	 1.002886332620477e+001
0	 6.666700000016665e+000	 8.266680000012267e+000	 1.002704183627563e+001
0	 6.666700000016666e+000	 8.333350000014583e+000	 1.002526677499951e+001
0	 6.666700000016667e+000	 8.400020000016401e+000	 1.002353568885586e+001
0	 6.666700000016667e+000	 8.466690000017618e+000	 1.002184612432409e+001
0	 6.666700000016665e+000	 8.533360000018133e+000	 1.002019562788359e+001
0	 6.666700000016666e+000	 8.600030000017851e+000	 1.001858174601384e+001
0	 6.666700000016666e+000	 8.666700000016666e+000	 1.001700202519420e+001
0	 6.733360000014532e+000	 7.999999999999999e+000	 1.003396531715729e+001
0	 6.733360000014533e+000	 8.066670000003317e+000	 1.003203026661645e+001
0	 6.733360000014531e+000	 8.133340000006530e+000	 1.003014770944578e+001
0	 6.733360000014533e+000	 8.200010000009550e+000	 1.002831520506065e+001
0	 6.733360000014531e+000	 8.266680000012268e+000	 1.002653031287643e+001
0	 6.733360000014533e+000	 8.333350000014582e+000	 1.002479059230852e+001
0	 6.733360000014533e+000	 8.400020000016401e+000	 1.002309360277231e+001
0	 6.733360000014534e+000	 8.466690000017616e+000	 1.002143690368318e+001
0	 6.733360000014533e+000	 8.533360000018133e+000	 1.001981805445653e+001
0	 6.733360000014533e+000	 8.600030000017853e+000	 1.001823461450773e+001
0	 6.733360000014533e+000	 8.666700000016666e+000	 1.001668414325217e+001
0	 6.800020000011600e+000	 8.000000000000000e+000	 1.003327635491153e+001
0	 6.800020000011600e+000	 8.066670000003317e+000	 1.003138299095666e+001
0	 6.800020000011599e+000	 8.133340000006530e+000	 1.002954078467596e+001
0	 6.800020000011601e+000	 8.200010000009554e+000	 1.002774731418718e+001
0	 6.800020000011601e+000	 8.266680000012265e+000	 1.002600015760803e+001
0	 6.800020000011600e+000	 8.333350000014585e+000	 1.002429689305630e+001
0	 6.800020000011599e+000	 8.400020000016397e+000	 1.002263509864974e+001
0	 6.800020000011599e+000	 8.466690000017618e+000	 1.002101235250607e+001
0	 6.800020000011601e+000	 8.533360000018135e+000	 1.001942623274307e+001
0	 6.800020000011600e+000	 8.600030000017853e+000	 1.001787431747850e+001
0	 6.800020000011599e+000	 8.666700000016668e+000	 1.001635418483009e+001
0	 6.866680000008066e+000	 7.999999999999999e+000	 1.003256667413306e+001
0	 6.866680000008068e+000	 8.066670000003319e+000	 1.003071609928437e+001
0	 6.866680000008069e+000	 8.133340000006536e+000	 1.002891531075874e+001
0	 6.866680000008066e+000	 8.200010000009549e+000	 1.002716191114263e+001
0	 6.866680000008067e+000	 8.266680000012268e+000	 1.002545350302256e+001
0	 6.866680000008067e+000	 8.333350000014585e+000	 1.002378768898506e+001
0	 6.866680000008067e+000	 8.400020000016399e+000	 1.002216207161664e+001
0	 6.866680000008066e+000	 8.466690000017614e+000	 1.002057425350378e+001
0	 6.866680000008068e+000	 8.533360000018133e+000	 1.001902183723303e+001
0	 6.866680000008067e+000	 8.600030000017849e+000	 1.001750242539088e+001
0	 6.866680000008068e+000	 8.666700000016668e+000	 1.001601362056386e+001
0	 6.933340000004137e+000	 8.000000000000000e+000	 1.003183893257596e+001
0	 6.933340000004134e+000	 8.066670000003317e+000	 1.003003211175888e+001
0	 6.933340000004132e+000	 8.133340000006532e+000	 1.002827367445477e+001
0	 6.933340000004134e+000	 8.200010000009550e+000	 1.002656125348533e+001
0	 6.933340000004134e+000	 8.266680000012267e+000	 1.002489248167220e+001
0	 6.933340000004133e+000	 8.333350000014583e+000	 1.002326499183706e+001
0	 6.933340000004135e+000	 8.400020000016401e+000	 1.002167641680156e+001
0	 6.933340000004134e+000	 8.466690000017616e+000	 1.002012438938738e+001
0	 6.933340000004134e+000	 8.533360000018133e+000	 1.001860654241620e+001
0	 6.933340000004134e+000	 8.600030000017851e+000	 1.001712050870965e+001
0	 6.933340000004135e+000	 8.666700000016666e+000	 1.001566392108943e+001
0	 7.000000000000002e+000	 8.000000000000000e+000	 1.003109578799428e+001
0	 7.000000000000002e+000	 8.066670000003315e+000	 1.002933354853937e+001
0	 7.000000000000000e+000	 8.133340000006530e+000	 1.002761826252473e+001
0	 7.000000000000002e+000	 8.200010000009554e+000	 1.002594759877355e+001
0	 7.000000000000000e+000	 8.266680000012265e+000	 1.002431922610907e+001
0	 7.000000000000002e+000	 8.333350000014585e+000	 1.002273081335450e+001
0	 7.000000000000003e+000	 8.400020000016401e+000	 1.002118002933304e+001
0	 7.000000000000002e+000	 8.466690000017616e+000	 1.001966454286791e+001
0	 7.000000000000002e+000	 8.533360000018133e+000	 1.001818202278236e+001
0	 7.000000000000000e+000	 8.600030000017851e+000	 1.001673013789957e+001
0	 7.000000000000003e+000	 8.666700000016666e+000	 1.001530655704279e+001
0	 7.066659999995870e+000	 7.999999999999999e+000	 1.003033989814205e+001
0	 7.066659999995869e+000	 8.066670000003317e+000	 1.002862292978514e+001
0	 7.066659999995871e+000	 8.133340000006534e+000	 1.002695146172926e+001
0	 7.066659999995870e+000	 8.200010000009554e+000	 1.002532320456561e+001
0	 7.066659999995870e+000	 8.266680000012267e+000	 1.002373586888534e+001
0	 7.066659999995871e+000	 8.333350000014583e+000	 1.002218716527962e+001
0	 7.066659999995869e+000	 8.400020000016399e+000	 1.002067480433959e+001
0	 7.066659999995870e+000	 8.466690000017618e+000	 1.001919649665644e+001
0	 7.066659999995870e+000	 8.533360000018137e+000	 1.001774995282132e+001
0	 7.066659999995870e+000	 8.600030000017851e+000	 1.001633288342540e+001
0	 7.066659999995869e+000	 8.666700000016668e+000	 1.001494299905985e+001
0	 7.133319999991937e+000	 7.999999999999999e+000	 1.002957392077335e+001
0	 7.133319999991937e+000	 8.066670000003319e+000	 1.002790277565539e+001
0	 7.133319999991937e+000	 8.133340000006534e+000	 1.002627565882903e+001
0	 7.133319999991937e+000	 8.200010000009554e+000	 1.002469032841979e+001
0	 7.133319999991937e+000	 8.266680000012268e+000	 1.002314454255316e+001
0	 7.133319999991937e+000	 8.333350000014583e+000	 1.002163605935465e+001
0	 7.133319999991937e+000	 8.400020000016403e+000	 1.002016263694975e+001
0	 7.133319999991935e+000	 8.466690000017620e+000	 1.001872203346399e+001
0	 7.133319999991937e+000	 8.533360000018135e+000	 1.001731200702287e+001
0	 7.133319999991937e+000	 8.600030000017851e+000	 1.001593031575190e+001
0	 7.133319999991937e+000	 8.666700000016668e+000	 1.001457471777658e+001
0	 7.199979999988405e+000	 8.000000000000000e+000	 1.002880051364222e+001
0	 7.199979999988403e+000	 8.066670000003315e+000	 1.002717560630939e+001
0	 7.199979999988404e+000	 8.133340000006532e+000	 1.002559324058470e+001
0	 7.199979999988405e+000	 8.200010000009550e+000	 1.002405122789437e+001
0	 7.199979999988405e+000	 8.266680000012267e+000	 1.002254737966467e+001
0	 7.199979999988406e+000	 8.333350000014583e+000	 1.002107950732180e+001
0	 7.199979999988403e+000	 8.400020000016399e+000	 1.001964542229205e+001
0	 7.199979999988404e+000	 8.466690000017616e+000	 1.001824293600163e+001
0	 7.199979999988404e+000	 8.533360000018135e+000	 1.001686985987681e+001
0	 7.199979999988404e+000	 8.600030000017851e+000	 1.001552400534382e+001
0	 7.199979999988403e+000	 8.666700000016666e+000	 1.001420318382892e+001
0	 7.266639999985470e+000	 8.000000000000000e+000	 1.002802233450271e+001
0	 7.266639999985472e+000	 8.066670000003319e+000	 1.002644394190639e+001
0	 7.266639999985471e+000	 8.133340000006534e+000	 1.002490659375691e+001
0	 7.266639999985472e+000	 8.200010000009552e+000	 1.002340816054766e+001
0	 7.266639999985472e+000	 8.266680000012267e+000	 1.002194651277201e+001
0	 7.266639999985473e+000	 8.333350000014585e+000	 1.002051952092334e+001
0	 7.266639999985472e+000	 8.400020000016403e+000	 1.001912505549501e+001
0	 7.266639999985472e+000	 8.466690000017618e+000	 1.001776098698042e+001
0	 7.266639999985470e+000	 8.533360000018133e+000	 1.001642518587294e+001
0	 7.266639999985472e+000	 8.600030000017851e+000	 1.001511552266593e+001
0	 7.266639999985471e+000	 8.666700000016668e+000	 1.001382986785280e+001
0	 7.333299999983335e+000	 8.000000000000000e+000	 1.002724204110888e+001
0	 7.333299999983335e+000	 8.066670000003317e+000	 1.002571030260561e+001
0	 7.333299999983332e+000	 8.133340000006532e+000	 1.002421810510632e+001
0	 7.333299999983334e+000	 8.200010000009550e+000	 1.002276338393794e+001
0	 7.333299999983334e+000	 8.266680000012268e+000	 1.002134407442736e+001
0	 7.333299999983335e+000	 8.333350000014585e+000	 1.001995811190147e+001
0	 7.333299999983333e+000	 8.400020000016399e+000	 1.001860343168717e+001
0	 7.333299999983334e+000	 8.466690000017620e+000	 1.001727796911140e+001
0	 7.333299999983332e+000	 8.533360000018135e+000	 1.001597965950103e+001
0	 7.333299999983335e+000	 8.600030000017853e+000	 1.001470643818299e+001
0	 7.333299999983334e+000	 8.666700000016665e+000	 1.001345624048417e+001
0	 6.666700000016666e+000	 8.666700000016666e+000	 1.001700202519420e+001
0	 6.666700000016665e+000	 8.733360002791899e+000	 1.001547707470777e+001
0	 6.666700000016665e+000	 8.800020022230555e+000	 1.001402662485737e+001
0	 6.666700000016666e+000	 8.866680074997040e+000	 1.001264760701640e+001
0	 6.666700000016667e+000	 8.933340177755779e+000	 1.001133695234929e+001
0	 6.666700000016666e+000	 9.000000347171179e+000	 1.001009159181158e+001
0	 6.666700000016667e+000	 9.066660599907669e+000	 1.000890845614986e+001
0	 6.666700000016666e+000	 9.133320952629658e+000	 1.000778447590181e+001
0	 6.666700000016665e+000	 9.199981422001558e+000	 1.000671658139616e+001
0	 6.666700000016667e+000	 9.266642024687796e+000	 1.000570170275273e+001
0	 6.666700000016665e+000	 9.333302777352781e+000	 1.000473676988242e+001
0	 6.733360000014533e+000	 8.666700000016666e+000	 1.001668414325217e+001
0	 6.733360000014534e+000	 8.733360002791903e+000	 1.001518725226692e+001
0	 6.733360000014534e+000	 8.800020022230553e+000	 1.001376369721854e+001
0	 6.733360000014532e+000	 8.866680074997042e+000	 1.001241044412821e+001
0	 6.733360000014532e+000	 8.933340177755776e+000	 1.001112445881165e+001
0	 6.733360000014532e+000	 9.000000347171183e+000	 1.000990270687902e+001
0	 6.733360000014532e+000	 9.066660599907669e+000	 1.000874215373497e+001
0	 6.733360000014533e+000	 9.133320952629656e+000	 1.000763976457867e+001
0	 6.733360000014533e+000	 9.199981422001558e+000	 1.000659250440376e+001
0	 6.733360000014532e+000	 9.266642024687798e+000	 1.000559733799834e+001
0	 6.733360000014532e+000	 9.333302777352783e+000	 1.000465122994503e+001
0	 6.800020000011599e+000	 8.666700000016668e+000	 1.001635418483009e+001
0	 6.800020000011601e+000	 8.733360002791905e+000	 1.001488639364541e+001
0	 6.800020000011600e+000	 8.800020022230557e+000	 1.001349066838494e+001
0	 6.800020000011601e+000	 8.866680074997042e+000	 1.001216401267231e+001
0	 6.800020000011600e+000	 8.933340177755781e+000	 1.001090342992930e+001
0	 6.800020000011600e+000	 9.000000347171183e+000	 1.000970592337582e+001
0	 6.800020000011601e+000	 9.066660599907669e+000	 1.000856849602983e+001
0	 6.800020000011601e+000	 9.133320952629655e+000	 1.000748815070749e+001
0	 6.800020000011601e+000	 9.199981422001558e+000	 1.000646189002299e+001
0	 6.800020000011599e+000	 9.266642024687796e+000	 1.000548671638868e+001
0	 6.800020000011601e+000	 9.333302777352783e+000	 1.000455963201503e+001
0	 6.866680000008068e+000	 8.666700000016668e+000	 1.001601362056386e+001
0	 6.866680000008066e+000	 8.733360002791903e+000	 1.001457587784875e+001
0	 6.866680000008068e+000	 8.800020022230553e+000	 1.001320883790291e+001
0	 6.866680000008067e+000	 8.866680074997044e+000	 1.001190954490710e+001
0	 6.866680000008067e+000	 8.933340177755781e+000	 1.001067504284408e+001
0	 6.866680000008067e+000	 9.000000347171181e+000	 1.000950237549855e+001
0	 6.866680000008067e+000	 9.066660599907667e+000	 1.000838858645705e+001
0	 6.866680000008067e+000	 9.133320952629655e+000	 1.000733071910818e+001
0	 6.866680000008067e+000	 9.199981422001557e+000	 1.000632581664236e+001
0	 6.866680000008068e+000	 9.266642024687796e+000	 1.000537092205205e+001
0	 6.866680000008068e+000	 9.333302777352783e+000	 1.000446307813155e+001
0	 6.933340000004135e+000	 8.666700000016666e+000	 1.001566392108943e+001
0	 6.933340000004134e+000	 8.733360002791901e+000	 1.001425708388242e+001
0	 6.933340000004134e+000	 8.800020022230557e+000	 1.001291950531872e+001
0	 6.933340000004135e+000	 8.866680074997042e+000	 1.001164827309097e+001
0	 6.933340000004134e+000	 8.933340177755776e+000	 1.001044047469781e+001
0	 6.933340000004135e+000	 9.000000347171181e+000	 1.000929319744373e+001
0	 6.933340000004135e+000	 9.066660599907667e+000	 1.000820352843922e+001
0	 6.933340000004135e+000	 9.133320952629655e+000	 1.000716855460066e+001
0	 6.933340000004134e+000	 9.199981422001558e+000	 1.000618536265040e+001
0	 6.933340000004133e+000	 9.266642024687796e+000	 1.000525103911673e+001
0	 6.933340000004136e+000	 9.333302777352786e+000	 1.000436267033382e+001
0	 7.000000000000003e+000	 8.666700000016666e+000	 1.001530655704279e+001
0	 7.000000000000002e+000	 8.733360002791903e+000	 1.001393139075195e+001
0	 7.000000000000003e+000	 8.800020022230557e+000	 1.001262397017870e+001
0	 7.000000000000002e+000	 8.866680074997042e+000	 1.001138142948234e+001
0	 7.000000000000004e+000	 8.933340177755778e+000	 1.001020090263225e+001
0	 7.000000000000003e+000	 9.000000347171181e+000	 1.000907952340791e+001
0	 7.000000000000002e+000	 9.066660599907667e+000	 1.000801442539891e+001
0	 7.000000000000002e+000	 9.133320952629658e+000	 1.000700274200490e+001
0	 7.000000000000002e+000	 9.199981422001558e+000	 1.000604160643567e+001
0	 7.000000000000004e+000	 9.266642024687796e+000	 1.000512815171104e+001
0	 7.000000000000002e+000	 9.333302777352783e+000	 1.000425951066099e+001
0	 7.066659999995869e+000	 8.666700000016668e+000	 1.001494299905985e+001
0	 7.066659999995869e+000	 8.733360002791901e+000	 1.001360017746284e+001
0	 7.066659999995870e+000	 8.800020022230555e+000	 1.001232353202917e+001
0	 7.066659999995870e+000	 8.866680074997042e+000	 1.001111024633959e+001
0	 7.066659999995870e+000	 8.933340177755781e+000	 1.000995750378926e+001
0	 7.066659999995869e+000	 9.000000347171181e+000	 1.000886248758767e+001
0	 7.066659999995871e+000	 9.066660599907667e+000	 1.000782238075878e+001
0	 7.066659999995871e+000	 9.133320952629656e+000	 1.000683436614088e+001
0	 7.066659999995870e+000	 9.199981422001558e+000	 1.000589562638667e+001
0	 7.066659999995869e+000	 9.266642024687794e+000	 1.000500334396329e+001
0	 7.066659999995870e+000	 9.333302777352783e+000	 1.000415470115222e+001
0	 7.133319999991937e+000	 8.666700000016668e+000	 1.001457471777658e+001
0	 7.133319999991937e+000	 8.733360002791903e+000	 1.001326482302059e+001
0	 7.133319999991937e+000	 8.800020022230553e+000	 1.001201949041642e+001
0	 7.133319999991937e+000	 8.866680074997039e+000	 1.001083595592115e+001
0	 7.133319999991936e+000	 8.933340177755776e+000	 1.000971145531060e+001
0	 7.133319999991937e+000	 9.000000347171181e+000	 1.000864322417950e+001
0	 7.133319999991936e+000	 9.066660599907671e+000	 1.000762849794136e+001
0	 7.133319999991936e+000	 9.133320952629656e+000	 1.000666451182845e+001
0	 7.133319999991937e+000	 9.199981422001560e+000	 1.000574850089193e+001
0	 7.133319999991937e+000	 9.266642024687801e+000	 1.000487770000176e+001
0	 7.133319999991937e+000	 9.333302777352781e+000	 1.000404934384669e+001
0	 7.199979999988403e+000	 8.666700000016666e+000	 1.001420318382892e+001
0	 7.199979999988404e+000	 8.733360002791903e+000	 1.001292670643070e+001
0	 7.199979999988405e+000	 8.800020022230557e+000	 1.001171314488677e+001
0	 7.199979999988404e+000	 8.866680074997042e+000	 1.001055979048537e+001
0	 7.199979999988404e+000	 8.933340177755779e+000	 1.000946393433812e+001
0	 7.199979999988405e+000	 9.000000347171183e+000	 1.000842286737999e+001
0	 7.199979999988404e+000	 9.066660599907666e+000	 1.000743388036928e+001
0	 7.199979999988404e+000	 9.133320952629655e+000	 1.000649426388762e+001
0	 7.199979999988404e+000	 9.199981422001560e+000	 1.000560130834000e+001
0	 7.199979999988403e+000	 9.266642024687796e+000	 1.000475230395476e+001
0	 7.199979999988404e+000	 9.333302777352785e+000	 1.000394454078358e+001
0	 7.266639999985471e+000	 8.666700000016668e+000	 1.001382986785280e+001
0	 7.266639999985470e+000	 8.733360002791899e+000	 1.001258720669870e+001
0	 7.266639999985471e+000	 8.800020022230555e+000	 1.001140579498651e+001
0	 7.266639999985473e+000	 8.866680074997042e+000	 1.001028298229068e+001
0	 7.266639999985470e+000	 8.933340177755778e+000	 1.000921611801360e+001
0	 7.266639999985471e+000	 9.000000347171179e+000	 1.000820255138564e+001
0	 7.266639999985472e+000	 9.066660599907667e+000	 1.000723963146512e+001
0	 7.266639999985472e+000	 9.133320952629658e+000	 1.000632470713831e+001
0	 7.266639999985472e+000	 9.199981422001558e+000	 1.000545512711940e+001
0	 7.266639999985473e+000	 9.266642024687798e+000	 1.000462823995060e+001
0	 7.266639999985471e+000	 9.333302777352783e+000	 1.000384139400204e+001
0	 7.333299999983334e+000	 8.666700000016665e+000	 1.001345624048417e+001
0	 7.333299999983335e+000	 8.733360002791903e+000	 1.001224770283005e+001
0	 7.333299999983333e+000	 8.800020022230555e+000	 1.001109874026195e+001
0	 7.333299999983335e+000	 8.866680074997040e+000	 1.001000676359546e+001
0	 7.333299999983334e+000	 8.933340177755779e+000	 1.000896918347885e+001
0	 7.333299999983333e+000	 9.000000347171179e+000	 1.000798341039304e+001
0	 7.333299999983335e+000	 9.066660599907667e+000	 1.000704685465150e+001
0	 7.333299999983334e+000	 9.133320952629655e+000	 1.000615692640044e+001
0	 7.333299999983333e+000	 9.199981422001558e+000	 1.000531103561864e+001
0	 7.333299999983333e+000	 9.266642024687794e+000	 1.000450659211756e+001
0	 7.333299999983334e+000	 9.333302777352781e+000	 1.000374100554125e+001
0	 6.666700000016665e+000	 9.333302777352781e+000	 1.000473676988242e+001
0	 6.666700000016666e+000	 9.399973674588177e+000	 1.000384787371759e+001
0	 6.666700000016665e+000	 9.466644621844619e+000	 1.000306057390402e+001
0	 6.666700000016667e+000	 9.533315502449998e+000	 1.000237058134308e+001
0	 6.666700000016666e+000	 9.599986199732198e+000	 1.000177360901838e+001
0	 6.666700000016665e+000	 9.666656597019093e+000	 1.000126537199585e+001
0	 6.666700000016666e+000	 9.733326577638575e+000	 1.000084158742378e+001
0	 6.666700000016666e+000	 9.799996024918521e+000	 1.000049797453286e+001
0	 6.666700000016666e+000	 9.866664822186822e+000	 1.000023025463639e+001
0	 6.666700000016665e+000	 9.933332852771352e+000	 1.000003415113037e+001
0	 6.666700000016666e+000	 1.000000000000000e+001	 9.999905389493936e+000
0	 6.733360000014532e+000	 9.333302777352783e+000	 1.000465122994503e+001
0	 6.733360000014532e+000	 9.399973674588175e+000	 1.000377956207860e+001
0	 6.733360000014532e+000	 9.466644621844621e+000	 1.000300727465188e+001
0	 6.733360000014534e+000	 9.533315502450002e+000	 1.000233025604491e+001
0	 6.733360000014530e+000	 9.599986199732195e+000	 1.000174439667988e+001
0	 6.733360000014533e+000	 9.666656597019095e+000	 1.000124558902127e+001
0	 6.733360000014531e+000	 9.733326577638575e+000	 1.000082972757582e+001
0	 6.733360000014533e+000	 9.799996024918523e+000	 1.000049270889261e+001
0	 6.733360000014532e+000	 9.866664822186824e+000	 1.000023043156330e+001
0	 6.733360000014534e+000	 9.933332852771352e+000	 1.000003879622223e+001
0	 6.733360000014533e+000	 1.000000000000000e+001	 9.999913705546661e+000
0	 6.800020000011601e+000	 9.333302777352783e+000	 1.000455963201503e+001
0	 6.800020000011597e+000	 9.399973674588173e+000	 1.000370537817581e+001
0	 6.800020000011599e+000	 9.466644621844619e+000	 1.000294833601824e+001
0	 6.800020000011599e+000	 9.533315502450000e+000	 1.000228456205477e+001
0	 6.800020000011599e+000	 9.599986199732195e+000	 1.000171011479990e+001
0	 6.800020000011601e+000	 9.666656597019093e+000	 1.000122105477035e+001
0	 6.800020000011600e+000	 9.733326577638577e+000	 1.000081344448481e+001
0	 6.800020000011601e+000	 9.799996024918523e+000	 1.000048334846431e+001
0	 6.800020000011600e+000	 9.866664822186820e+000	 1.000022683323221e+001
0	 6.800020000011599e+000	 9.933332852771351e+000	 1.000003996731446e+001
0	 6.800020000011600e+000	 1.000000000000000e+001	 9.999918821239838e+000
0	 6.866680000008068e+000	 9.333302777352783e+000	 1.000446307813155e+001
0	 6.866680000008066e+000	 9.399973674588178e+000	 1.000362644372719e+001
0	 6.866680000008066e+000	 9.466644621844617e+000	 1.000288489075754e+001
0	 6.866680000008067e+000	 9.533315502450000e+000	 1.000223463452134e+001
0	 6.866680000008065e+000	 9.599986199732195e+000	 1.000167189227915e+001
0	 6.866680000008066e+000	 9.666656597019095e+000	 1.000119288325329e+001
0	 6.866680000008066e+000	 9.733326577638573e+000	 1.000079382862792e+001
0	 6.866680000008066e+000	 9.799996024918523e+000	 1.000047095154905e+001
0	 6.866680000008066e+000	 9.866664822186824e+000	 1.000022047712487e+001
0	 6.866680000008068e+000	 9.933332852771352e+000	 1.000003863242565e+001
0	 6.866680000008066e+000	 9.999999999999998e+000	 9.999921646484342e+000
0	 6.933340000004136e+000	 9.333302777352786e+000	 1.000436267033382e+001
0	 6.933340000004133e+000	 9.399973674588173e+000	 1.000354388045074e+001
0	 6.933340000004133e+000	 9.466644621844619e+000	 1.000281807162426e+001
0	 6.933340000004132e+000	 9.533315502449998e+000	 1.000218160859338e+001
0	 6.933340000004134e+000	 9.599986199732197e+000	 1.000163085801828e+001
0	 6.933340000004136e+000	 9.666656597019095e+000	 1.000116218848035e+001
0	 6.933340000004136e+000	 9.733326577638575e+000	 1.000077197048227e+001
0	 6.933340000004134e+000	 9.799996024918521e+000	 1.000045657644798e+001
0	 6.933340000004135e+000	 9.866664822186822e+000	 1.000021238072300e+001
0	 6.933340000004135e+000	 9.933332852771352e+000	 1.000003575957440e+001
0	 6.933340000004134e+000	 9.999999999999998e+000	 9.999923091191477e+000
0	 7.000000000000002e+000	 9.333302777352783e+000	 1.000425951066099e+001
0	 7.000000000000002e+000	 9.399973674588177e+000	 1.000345881006439e+001
0	 7.000000000000003e+000	 9.466644621844621e+000	 1.000274901137289e+001
0	 7.000000000000002e+000	 9.533315502449998e+000	 1.000212661941957e+001
0	 7.000000000000000e+000	 9.599986199732197e+000	 1.000158814091794e+001
0	 7.000000000000001e+000	 9.666656597019093e+000	 1.000113008446173e+001
0	 7.000000000000003e+000	 9.733326577638577e+000	 1.000074896052499e+001
0	 7.000000000000001e+000	 9.799996024918524e+000	 1.000044128146218e+001
0	 7.000000000000003e+000	 9.866664822186825e+000	 1.000020356150840e+001
0	 7.000000000000001e+000	 9.933332852771354e+000	 1.000003231677942e+001
0	 7.000000000000002e+000	 1.000000000000000e+001	 9.999924065272042e+000
0	 7.066659999995870e+000	 9.333302777352783e+000	 1.000415470115222e+001
0	 7.066659999995868e+000	 9.399973674588175e+000	 1.000337235428612e+001
0	 7.066659999995871e+000	 9.466644621844621e+000	 1.000267884275780e+001
0	 7.066659999995871e+000	 9.533315502450002e+000	 1.000207080214861e+001
0	 7.066659999995870e+000	 9.599986199732197e+000	 1.000154486987882e+001
0	 7.066659999995869e+000	 9.666656597019095e+000	 1.000109768520764e+001
0	 7.066659999995870e+000	 9.733326577638573e+000	 1.000072588923326e+001
0	 7.066659999995870e+000	 9.799996024918524e+000	 1.000042612489285e+001
0	 7.066659999995870e+000	 9.866664822186824e+000	 1.000019503696291e+001
0	 7.066659999995870e+000	 9.933332852771356e+000	 1.000002927205919e+001
0	 7.066659999995869e+000	 9.999999999999998e+000	 9.999925478637177e+000
0	 7.133319999991937e+000	 9.333302777352781e+000	 1.000404934384669e+001
0	 7.133319999991936e+000	 9.399973674588177e+000	 1.000328563483392e+001
0	 7.133319999991937e+000	 9.466644621844619e+000	 1.000260869853358e+001
0	 7.133319999991936e+000	 9.533315502450002e+000	 1.000201529192922e+001
0	 7.133319999991937e+000	 9.599986199732202e+000	 1.000150217380160e+001
0	 7.133319999991937e+000	 9.666656597019095e+000	 1.000106610472832e+001
0	 7.133319999991936e+000	 9.733326577638577e+000	 1.000070384708421e+001
0	 7.133319999991937e+000	 9.799996024918523e+000	 1.000041216504110e+001
0	 7.133319999991937e+000	 9.866664822186824e+000	 1.000018782456826e+001
0	 7.133319999991937e+000	 9.933332852771354e+000	 1.000002759343238e+001
0	 7.133319999991937e+000	 1.000000000000000e+001	 9.999928241197912e+000
0	 7.199979999988404e+000	 9.333302777352785e+000	 1.000394454078358e+001
0	 7.199979999988403e+000	 9.399973674588175e+000	 1.000319977342574e+001
0	 7.199979999988403e+000	 9.466644621844617e+000	 1.000253971145455e+001
0	 7.199979999988404e+000	 9.533315502450000e+000	 1.000196122391009e+001
0	 7.199979999988403e+000	 9.599986199732197e+000	 1.000146118158689e+001
0	 7.199979999988402e+000	 9.666656597019093e+000	 1.000103645703399e+001
0	 7.199979999988403e+000	 9.733326577638575e+000	 1.000068392455495e+001
0	 7.199979999988405e+000	 9.799996024918523e+000	 1.000040046020800e+001
0	 7.199979999988403e+000	 9.866664822186822e+000	 1.000018294180625e+001
0	 7.199979999988404e+000	 9.933332852771354e+000	 1.000002824891762e+001
0	 7.199979999988405e+000	 1.000000000000000e+001	 9.999933262865305e+000
0	 7.266639999985471e+000	 9.333302777352783e+000	 1.000384139400204e+001
0	 7.266639999985473e+000	 9.399973674588177e+000	 1.000311589177952e+001
0	 7.266639999985470e+000	 9.466644621844619e+000	 1.000247301427528e+001
0	 7.266639999985472e+000	 9.533315502449998e+000	 1.000190973323996e+001
0	 7.266639999985472e+000	 9.599986199732197e+000	 1.000142302213542e+001
0	 7.266639999985471e+000	 9.666656597019095e+000	 1.000100985613483e+001
0	 7.266639999985470e+000	 9.733326577638575e+000	 1.000066721212267e+001
0	 7.266639999985471e+000	 9.799996024918524e+000	 1.000039206869480e+001
0	 7.266639999985471e+000	 9.866664822186822e+000	 1.000018140615867e+001
0	 7.266639999985471e+000	 9.933332852771352e+000	 1.000003220653343e+001
0	 7.266639999985471e+000	 1.000000000000000e+001	 9.999941453550193e+000
0	 7.333299999983334e+000	 9.333302777352781e+000	 1.000374100554126e+001
0	 7.333299999983336e+000	 9.399973674588173e+000	 1.000303511161325e+001
0	 7.333299999983334e+000	 9.466644621844624e+000	 1.000240973975020e+001
0	 7.333299999983333e+000	 9.533315502449998e+000	 1.000186195506749e+001
0	 7.333299999983335e+000	 9.599986199732195e+000	 1.000138882434783e+001
0	 7.333299999983334e+000	 9.666656597019097e+000	 1.000098741604109e+001
0	 7.333299999983333e+000	 9.733326577638573e+000	 1.000065480026448e+001
0	 7.333299999983335e+000	 9.799996024918523e+000	 1.000038804880253e+001
0	 7.333299999983333e+000	 9.866664822186822e+000	 1.000018423510729e+001
0	 7.333299999983333e+000	 9.933332852771354e+000	 1.000004043429854e+001
0	 7.333299999983335e+000	 1.000000000000000e+001	 9.999953723163916e+000
0	 7.333299999983335e+000	 0.000000000000000e+000	 1.005452078148794e+001
0	 7.333299999983334e+000	 6.666714722864756e-002	 1.005493295373218e+001
0	 7.333299999983334e+000	 1.333351778131789e-001	 1.005536107874775e+001
0	 7.333299999983335e+000	 2.000039750814772e-001	 1.005580169877608e+001
0	 7.333299999983333e+000	 2.666734223614256e-001	 1.005625135658915e+001
0	 7.333299999983336e+000	 3.333434029809069e-001	 1.005670659548946e+001
0	 7.333299999983335e+000	 4.000138002678045e-001	 1.005716395931017e+001
0	 7.333299999983333e+000	 4.666844975500011e-001	 1.005761999241510e+001
0	 7.333299999983335e+000	 5.333553781553803e-001	 1.005807123969892e+001
0	 7.333299999983335e+000	 6.000263254118248e-001	 1.005851424658714e+001
0	 7.333299999983332e+000	 6.666972226472178e-001	 1.005894555903636e+001
0	 7.399969999982150e+000	 0.000000000000000e+000	 1.004826350594825e+001
0	 7.399969999982149e+000	 6.666714722864757e-002	 1.004892804526188e+001
0	 7.399969999982151e+000	 1.333351778131789e-001	 1.004956271272448e+001
0	 7.399969999982151e+000	 2.000039750814772e-001	 1.005016620625300e+001
0	 7.399969999982151e+000	 2.666734223614254e-001	 1.005073722415572e+001
0	 7.399969999982149e+000	 3.333434029809069e-001	 1.005127446513235e+001
0	 7.399969999982150e+000	 4.000138002678045e-001	 1.005177662827405e+001
0	 7.399969999982149e+000	 4.666844975500011e-001	 1.005224241306357e+001
0	 7.399969999982151e+000	 5.333553781553801e-001	 1.005267051937529e+001
0	 7.399969999982150e+000	 6.000263254118246e-001	 1.005305964747535e+001
0	 7.399969999982150e+000	 6.666972226472177e-001	 1.005340849802175e+001
0	 7.466639999981865e+000	 0.000000000000000e+000	 1.004207177474861e+001
0	 7.466639999981864e+000	 6.666714722864756e-002	 1.004287286445074e+001
0	 7.466639999981866e+000	 1.333351778131789e-001	 1.004361975409205e+001
0	 7.466639999981867e+000	 2.000039750814773e-001	 1.004431296146328e+001
0	 7.466639999981864e+000	 2.666734223614254e-001	 1.004495300477433e+001
0	 7.466639999981866e+000	 3.333434029809069e-001	 1.004554040265436e+001
0	 7.466639999981865e+000	 4.000138002678043e-001	 1.004607567415174e+001
0	 7.466639999981865e+000	 4.666844975500011e-001	 1.004655933873424e+001
0	 7.466639999981864e+000	 5.333553781553803e-001	 1.004699191628903e+001
0	 7.466639999981865e+000	 6.000263254118248e-001	 1.004737392712280e+001
0	 7.466639999981865e+000	 6.666972226472177e-001	 1.004770589196186e+001
0	 7.533309999982381e+000	 0.000000000000000e+000	 1.003593975163808e+001
0	 7.533309999982382e+000	 6.666714722864756e-002	 1.003677772468502e+001
0	 7.533309999982382e+000	 1.333351778131790e-001	 1.003755546752968e+001
0	 7.533309999982382e+000	 2.000039750814773e-001	 1.003827498222162e+001
0	 7.533309999982383e+000	 2.666734223614256e-001	 1.003893827139082e+001
0	 7.533309999982381e+000	 3.333434029809068e-001	 1.003954733824764e+001
0	 7.533309999982381e+000	 4.000138002678044e-001	 1.004010418658288e+001
0	 7.533309999982382e+000	 4.666844975500011e-001	 1.004061082076783e+001
0	 7.533309999982384e+000	 5.333553781553801e-001	 1.004106924575433e+001
0	 7.533309999982381e+000	 6.000263254118246e-001	 1.004148146707480e+001
0	 7.533309999982381e+000	 6.666972226472175e-001	 1.004184949084241e+001
0	 7.599979999983598e+000	 0.000000000000000e+000	 1.002986160036568e+001
0	 7.599979999983597e+000	 6.666714722864754e-002	 1.003065293935098e+001
0	 7.599979999983598e+000	 1.333351778131789e-001	 1.003139311771660e+001
0	 7.599979999983599e+000	 2.000039750814772e-001	 1.003208528634274e+001
0	 7.599979999983599e+000	 2.666734223614256e-001	 1.003273259695100e+001
0	 7.599979999983598e+000	 3.333434029809069e-001	 1.003333820210434e+001
0	 7.599979999983601e+000	 4.000138002678044e-001	 1.003390525520711e+001
0	 7.599979999983598e+000	 4.666844975500011e-001	 1.003443691050506e+001
0	 7.599979999983599e+000	 5.333553781553801e-001	 1.003493632308534e+001
0	 7.599979999983598e+000	 6.000263254118244e-001	 1.003540664887662e+001
0	 7.599979999983598e+000	 6.666972226472177e-001	 1.003585104464911e+001
0	 7.666649999985414e+000	 0.000000000000000e+000	 1.002383148468048e+001
0	 7.666649999985414e+000	 6.666714722864756e-002	 1.002450882183487e+001
0	 7.666649999985416e+000	 1.333351778131789e-001	 1.002515596933207e+001
0	 7.666649999985417e+000	 2.000039750814773e-001	 1.002577689164136e+001
0	 7.666649999985414e+000	 2.666734223614254e-001	 1.002637555440072e+001
0	 7.666649999985414e+000	 3.333434029809068e-001	 1.002695592441663e+001
0	 7.666649999985417e+000	 4.000138002678044e-001	 1.002752196966411e+001
0	 7.666649999985415e+000	 4.666844975500012e-001	 1.002807765928666e+001
0	 7.666649999985415e+000	 5.333553781553803e-001	 1.002862696359629e+001
0	 7.666649999985413e+000	 6.000263254118246e-001	 1.002917385407356e+001
0	 7.666649999985416e+000	 6.666972226472177e-001	 1.002972230336765e+001
0	 7.733319999987730e+000	 0.000000000000000e+000	 1.001784356833150e+001
0	 7.733319999987733e+000	 6.666714722864756e-002	 1.001835568552296e+001
0	 7.733319999987733e+000	 1.333351778131789e-001	 1.001886728705530e+001
0	 7.733319999987730e+000	 2.000039750814772e-001	 1.001938281593219e+001
0	 7.733319999987731e+000	 2.666734223614256e-001	 1.001990671668581e+001
0	 7.733319999987732e+000	 3.333434029809069e-001	 1.002044343537665e+001
0	 7.733319999987733e+000	 4.000138002678044e-001	 1.002099741959350e+001
0	 7.733319999987730e+000	 4.666844975500011e-001	 1.002157311845333e+001
0	 7.733319999987731e+000	 5.333553781553803e-001	 1.002217498260134e+001
0	 7.733319999987732e+000	 6.000263254118247e-001	 1.002280746421091e+001
0	 7.733319999987733e+000	 6.666972226472177e-001	 1.002347501698377e+001
0	 7.799989999990447e+000	 0.000000000000000e+000	 1.001189201506780e+001
0	 7.799989999990450e+000	 6.666714722864757e-002	 1.001220384380150e+001
0	 7.799989999990449e+000	 1.333351778131790e-001	 1.001255033556554e+001
0	 7.799989999990447e+000	 2.000039750814772e-001	 1.001293607702995e+001
0	 7.799989999990448e+000	 2.666734223614256e-001	 1.001336565675211e+001
0	 7.799989999990450e+000	 3.333434029809069e-001	 1.001384366517657e+001
0	 7.799989999990448e+000	 4.000138002678043e-001	 1.001437469463494e+001
0	 7.799989999990447e+000	 4.666844975500011e-001	 1.001496333934580e+001
0	 7.799989999990449e+000	 5.333553781553804e-001	 1.001561419541465e+001
0	 7.799989999990449e+000	 6.000263254118248e-001	 1.001633186083395e+001
0	 7.799989999990450e+000	 6.666972226472179e-001	 1.001712093548314e+001
0	 7.866659999993463e+000	 0.000000000000000e+000	 1.000597098863843e+001
0	 7.866659999993464e+000	 6.666714722864754e-002	 1.000606361005675e+001
0	 7.866659999993464e+000	 1.333351778131789e-001	 1.000622837954204e+001
0	 7.866659999993465e+000	 2.000039750814773e-001	 1.000646969274935e+001
0	 7.866659999993465e+000	 2.666734223614255e-001	 1.000679194754544e+001
0	 7.866659999993464e+000	 3.333434029809069e-001	 1.000719954400852e+001
0	 7.866659999993463e+000	 4.000138002678044e-001	 1.000769688442807e+001
0	 7.866659999993464e+000	 4.666844975500012e-001	 1.000828837330478e+001
0	 7.866659999993464e+000	 5.333553781553801e-001	 1.000897841735045e+001
0	 7.866659999993465e+000	 6.000263254118247e-001	 1.000977142548799e+001
0	 7.866659999993464e+000	 6.666972226472177e-001	 1.001067180885150e+001
0	 7.933329999996681e+000	 0.000000000000000e+000	 1.000007465279244e+001
0	 7.933329999996681e+000	 6.666714722864756e-002	 9.999945297674977e+000
0	 7.933329999996682e+000	 1.333351778131790e-001	 9.999924683664025e+000
0	 7.933329999996682e+000	 2.000039750814772e-001	 1.000001668090512e+001
0	 7.933329999996683e+000	 2.666734223614256e-001	 1.000022516201166e+001
0	 7.933329999996680e+000	 3.333434029809068e-001	 1.000055400206467e+001
0	 7.933329999996681e+000	 4.000138002678044e-001	 1.000100707861255e+001
0	 7.933329999996680e+000	 4.666844975500011e-001	 1.000158827167099e+001
0	 7.933329999996679e+000	 5.333553781553800e-001	 1.000230146372288e+001
0	 7.933329999996682e+000	 6.000263254118248e-001	 1.000315053971829e+001
0	 7.933329999996682e+000	 6.666972226472177e-001	 1.000413938707453e+001
0	 8.000000000000000e+000	 0.000000000000000e+000	 9.994197171278893e+000
0	 8.000000000000002e+000	 6.666714722864757e-002	 9.993859220042447e+000
0	 8.000000000000000e+000	 1.333351778131789e-001	 9.993662512610744e+000
0	 8.000000000000000e+000	 2.000039750814773e-001	 9.993610059311964e+000
0	 8.000000000000002e+000	 2.666734223614256e-001	 9.993704873096597e+000
0	 8.000000000000000e+000	 3.333434029809069e-001	 9.993949969537166e+000
0	 8.000000000000000e+000	 4.000138002678044e-001	 9.994348366828021e+000
0	 8.000000000000000e+000	 4.666844975500011e-001	 9.994903085785156e+000
0	 7.999999999999999e+000	 5.333553781553803e-001	 9.995617149846149e+000
0	 8.000000000000000e+000	 6.000263254118246e-001	 9.996493585070160e+000
0	 7.999999999999999e+000	 6.666972226472177e-001	 9.997535420137957e+000
0	 7.333299999983332e+000	 6.666972226472178e-001	 1.005894555903636e+001
0	 7.333299999983334e+000	 7.333579753122048e-001	 1.005944140336306e+001
0	 7.333299999983334e+000	 8.000185779984417e-001	 1.006008100830518e+001
0	 7.333299999983334e+000	 8.666790473703454e-001	 1.006086523268349e+001
0	 7.333299999983335e+000	 9.333394000923323e-001	 1.006179493500578e+001
0	 7.333299999983334e+000	 9.999996528288190e-001	 1.006287097346694e+001
0	 7.333299999983335e+000	 1.066659822244222e+000	 1.006409420594891e+001
0	 7.333299999983335e+000	 1.133319925002959e+000	 1.006546549002072e+001
0	 7.333299999983333e+000	 1.199979977769445e+000	 1.006698568293850e+001
0	 7.333299999983335e+000	 1.266639997208098e+000	 1.006865564164540e+001
0	 7.333299999983335e+000	 1.333299999983334e+000	 1.007047622277169e+001
0	 7.399969999982150e+000	 6.666972226472177e-001	 1.005340849802174e+001
0	 7.399969999982151e+000	 7.333579753122047e-001	 1.005380902283438e+001
0	 7.399969999982151e+000	 8.000185779984417e-001	 1.005435567853549e+001
0	 7.399969999982151e+000	 8.666790473703451e-001	 1.005505077531194e+001
0	 7.399969999982150e+000	 9.333394000923321e-001	 1.005589662301654e+001
0	 7.399969999982149e+000	 9.999996528288190e-001	 1.005689553116807e+001
0	 7.399969999982150e+000	 1.066659822244222e+000	 1.005804980895125e+001
0	 7.399969999982148e+000	 1.133319925002958e+000	 1.005936176521671e+001
0	 7.399969999982151e+000	 1.199979977769445e+000	 1.006083370848105e+001
0	 7.399969999982150e+000	 1.266639997208098e+000	 1.006246794692682e+001
0	 7.399969999982149e+000	 1.333299999983334e+000	 1.006426678840252e+001
0	 7.466639999981865e+000	 6.666972226472177e-001	 1.004770589196187e+001
0	 7.466639999981864e+000	 7.333579753122048e-001	 1.004808148669046e+001
0	 7.466639999981866e+000	 8.000185779984416e-001	 1.004859647971104e+001
0	 7.466639999981865e+000	 8.666790473703453e-001	 1.004925439239341e+001
0	 7.466639999981867e+000	 9.333394000923321e-001	 1.005005874576932e+001
0	 7.466639999981865e+000	 9.999996528288189e-001	 1.005101306053256e+001
0	 7.466639999981866e+000	 1.066659822244222e+000	 1.005212085703884e+001
0	 7.466639999981866e+000	 1.133319925002959e+000	 1.005338565530587e+001
0	 7.466639999981865e+000	 1.199979977769445e+000	 1.005481097501333e+001
0	 7.466639999981866e+000	 1.266639997208098e+000	 1.005640033550293e+001
0	 7.466639999981866e+000	 1.333299999983334e+000	 1.005815725577828e+001
0	 7.533309999982381e+000	 6.666972226472175e-001	 1.004184949084241e+001
0	 7.533309999982382e+000	 7.333579753122047e-001	 1.004225732579845e+001
0	 7.533309999982382e+000	 8.000185779984415e-001	 1.004279074204903e+001
0	 7.533309999982384e+000	 8.666790473703456e-001	 1.004345423198494e+001
0	 7.533309999982383e+000	 9.333394000923321e-001	 1.004425228766906e+001
0	 7.533309999982382e+000	 9.999996528288192e-001	 1.004518940083648e+001
0	 7.533309999982381e+000	 1.066659822244222e+000	 1.004627006289438e+001
0	 7.533309999982384e+000	 1.133319925002959e+000	 1.004749876492213e+001
0	 7.533309999982384e+000	 1.199979977769445e+000	 1.004887999767126e+001
0	 7.533309999982383e+000	 1.266639997208098e+000	 1.005041825156543e+001
0	 7.533309999982382e+000	 1.333299999983334e+000	 1.005211801670046e+001
0	 7.599979999983598e+000	 6.666972226472177e-001	 1.003585104464911e+001
0	 7.599979999983600e+000	 7.333579753122048e-001	 1.003633507102551e+001
0	 7.599979999983599e+000	 8.000185779984416e-001	 1.003692579576665e+001
0	 7.599979999983598e+000	 8.666790473703451e-001	 1.003762844214355e+001
0	 7.599979999983598e+000	 9.333394000923319e-001	 1.003844823312066e+001
0	 7.599979999983598e+000	 9.999996528288191e-001	 1.003939039135588e+001
0	 7.599979999983599e+000	 1.066659822244222e+000	 1.004046013920055e+001
0	 7.599979999983598e+000	 1.133319925002959e+000	 1.004166269869944e+001
0	 7.599979999983599e+000	 1.199979977769445e+000	 1.004300329159072e+001
0	 7.599979999983598e+000	 1.266639997208098e+000	 1.004448713930607e+001
0	 7.599979999983598e+000	 1.333299999983334e+000	 1.004611946297053e+001
0	 7.666649999985416e+000	 6.666972226472177e-001	 1.002972230336766e+001
0	 7.666649999985416e+000	 7.333579753122048e-001	 1.003031325323884e+001
0	 7.666649999985414e+000	 8.000185779984416e-001	 1.003098897108108e+001
0	 7.666649999985416e+000	 8.666790473703452e-001	 1.003175517092626e+001
0	 7.666649999985413e+000	 9.333394000923320e-001	 1.003261756652904e+001
0	 7.666649999985415e+000	 9.999996528288189e-001	 1.003358187136689e+001
0	 7.666649999985413e+000	 1.066659822244222e+000	 1.003465379864010e+001
0	 7.666649999985415e+000	 1.133319925002959e+000	 1.003583906127171e+001
0	 7.666649999985416e+000	 1.199979977769445e+000	 1.003714337190765e+001
0	 7.666649999985416e+000	 1.266639997208098e+000	 1.003857244291656e+001
0	 7.666649999985415e+000	 1.333299999983333e+000	 1.004013198638995e+001
0	 7.733319999987733e+000	 6.666972226472177e-001	 1.002347501698377e+001
0	 7.733319999987730e+000	 7.333579753122047e-001	 1.002419040330559e+001
0	 7.733319999987730e+000	 8.000185779984415e-001	 1.002496759820952e+001
0	 7.733319999987731e+000	 8.666790473703452e-001	 1.002581256639010e+001
0	 7.733319999987733e+000	 9.333394000923324e-001	 1.002673127229912e+001
0	 7.733319999987733e+000	 9.999996528288190e-001	 1.002772968014556e+001
0	 7.733319999987731e+000	 1.066659822244222e+000	 1.002881375389567e+001
0	 7.733319999987731e+000	 1.133319925002959e+000	 1.002998945727291e+001
0	 7.733319999987731e+000	 1.199979977769445e+000	 1.003126275375793e+001
0	 7.733319999987731e+000	 1.266639997208098e+000	 1.003263960658863e+001
0	 7.733319999987732e+000	 1.333299999983334e+000	 1.003412597876016e+001
0	 7.799989999990450e+000	 6.666972226472179e-001	 1.001712093548314e+001
0	 7.799989999990447e+000	 7.333579753122047e-001	 1.001796505209296e+001
0	 7.799989999990447e+000	 8.000185779984416e-001	 1.001884900736915e+001
0	 7.799989999990449e+000	 8.666790473703453e-001	 1.001977877659208e+001
0	 7.799989999990447e+000	 9.333394000923323e-001	 1.002076033483580e+001
0	 7.799989999990448e+000	 9.999996528288188e-001	 1.002179965696798e+001
0	 7.799989999990447e+000	 1.066659822244222e+000	 1.002290271765002e+001
0	 7.799989999990448e+000	 1.133319925002959e+000	 1.002407549133694e+001
0	 7.799989999990447e+000	 1.199979977769445e+000	 1.002532395227747e+001
0	 7.799989999990448e+000	 1.266639997208098e+000	 1.002665407451402e+001
0	 7.799989999990448e+000	 1.333299999983334e+000	 1.002807183188266e+001
0	 7.866659999993464e+000	 6.666972226472177e-001	 1.001067180885150e+001
0	 7.866659999993464e+000	 7.333579753122048e-001	 1.001163573046809e+001
0	 7.866659999993465e+000	 8.000185779984416e-001	 1.001262052877714e+001
0	 7.866659999993465e+000	 8.666790473703451e-001	 1.001363194958924e+001
0	 7.866659999993466e+000	 9.333394000923324e-001	 1.001467573854400e+001
0	 7.866659999993465e+000	 9.999996528288190e-001	 1.001575764111023e+001
0	 7.866659999993464e+000	 1.066659822244222e+000	 1.001688340258580e+001
0	 7.866659999993465e+000	 1.133319925002959e+000	 1.001805876809774e+001
0	 7.866659999993465e+000	 1.199979977769445e+000	 1.001928948260221e+001
0	 7.866659999993463e+000	 1.266639997208098e+000	 1.002058129088444e+001
0	 7.866659999993465e+000	 1.333299999983334e+000	 1.002193993755888e+001
0	 7.933329999996682e+000	 6.666972226472177e-001	 1.000413938707454e+001
0	 7.933329999996680e+000	 7.333579753122045e-001	 1.000520096929816e+001
0	 7.933329999996681e+000	 8.000185779984416e-001	 1.000626949265073e+001
0	 7.933329999996682e+000	 8.666790473703456e-001	 1.000735023343859e+001
0	 7.933329999996682e+000	 9.333394000923321e-001	 1.000844846782867e+001
0	 7.933329999996682e+000	 9.999996528288190e-001	 1.000956947184839e+001
0	 7.933329999996682e+000	 1.066659822244222e+000	 1.001071852138574e+001
0	 7.933329999996681e+000	 1.133319925002959e+000	 1.001190089218925e+001
0	 7.933329999996680e+000	 1.199979977769445e+000	 1.001312185986800e+001
0	 7.933329999996682e+000	 1.266639997208098e+000	 1.001438669989163e+001
0	 7.933329999996682e+000	 1.333299999983334e+000	 1.001570068759030e+001
0	 7.999999999999999e+000	 6.666972226472177e-001	 9.997535420137957e+000
0	 8.000000000000000e+000	 7.333579753122049e-001	 9.998659299450349e+000
0	 8.000000000000000e+000	 8.000185779984418e-001	 9.999783229207043e+000
0	 8.000000000000000e+000	 8.666790473703454e-001	 1.000091177619715e+001
0	 8.000000000000000e+000	 9.333394000923323e-001	 1.000204950709467e+001
0	 8.000000000000000e+000	 9.999996528288189e-001	 1.000320098845852e+001
0	 8.000000000000000e+000	 1.066659822244222e+000	 1.000437078673251e+001
0	 8.000000000000000e+000	 1.133319925002959e+000	 1.000556346824539e+001
0	 8.000000000000000e+000	 1.199979977769445e+000	 1.000678359921080e+001
0	 7.999999999999999e+000	 1.266639997208097e+000	 1.000803574572730e+001
0	 8.000000000000000e+000	 1.333299999983334e+000	 1.000932447377837e+001
0	 7.333299999983335e+000	 1.333299999983334e+000	 1.007047622277169e+001
0	 7.333299999983334e+000	 1.399969999982150e+000	 1.007234805090127e+001
0	 7.333299999983335e+000	 1.466639999981867e+000	 1.007417377529605e+001
0	 7.333299999983334e+000	 1.533309999982383e+000	 1.007595814273396e+001
0	 7.333299999983334e+000	 1.599979999983599e+000	 1.007770589999292e+001
0	 7.333299999983334e+000	 1.666649999985416e+000	 1.007942179385089e+001
0	 7.333299999983335e+000	 1.733319999987733e+000	 1.008111057108579e+001
0	 7.333299999983335e+000	 1.799989999990450e+000	 1.008277697847556e+001
0	 7.333299999983334e+000	 1.866659999993466e+000	 1.008442576279813e+001
0	 7.333299999983335e+000	 1.933329999996683e+000	 1.008606167083143e+001
0	 7.333299999983335e+000	 2.000000000000000e+000	 1.008768944935340e+001
0	 7.399969999982149e+000	 1.333299999983334e+000	 1.006426678840251e+001
0	 7.399969999982150e+000	 1.399969999982150e+000	 1.006612120920394e+001
0	 7.399969999982151e+000	 1.466639999981866e+000	 1.006792370230198e+001
0	 7.399969999982149e+000	 1.533309999982383e+000	 1.006967969725231e+001
0	 7.399969999982150e+000	 1.599979999983600e+000	 1.007139462361057e+001
0	 7.399969999982150e+000	 1.666649999985416e+000	 1.007307391093248e+001
0	 7.399969999982149e+000	 1.733319999987733e+000	 1.007472298877368e+001
0	 7.399969999982149e+000	 1.799989999990450e+000	 1.007634728668984e+001
0	 7.399969999982149e+000	 1.866659999993466e+000	 1.007795223423666e+001
0	 7.399969999982151e+000	 1.933329999996683e+000	 1.007954326096978e+001
0	 7.399969999982152e+000	 2.000000000000000e+000	 1.008112579644489e+001
0	 7.466639999981866e+000	 1.333299999983334e+000	 1.005815725577828e+001
0	 7.466639999981865e+000	 1.399969999982150e+000	 1.005997099271340e+001
0	 7.466639999981867e+000	 1.466639999981867e+000	 1.006173186923108e+001
0	 7.466639999981864e+000	 1.533309999982383e+000	 1.006344583208042e+001
0	 7.466639999981866e+000	 1.599979999983599e+000	 1.006511882801055e+001
0	 7.466639999981867e+000	 1.666649999985416e+000	 1.006675680377055e+001
0	 7.466639999981865e+000	 1.733319999987733e+000	 1.006836570610956e+001
0	 7.466639999981867e+000	 1.799989999990450e+000	 1.006995148177668e+001
0	 7.466639999981866e+000	 1.866659999993466e+000	 1.007152007752101e+001
0	 7.466639999981868e+000	 1.933329999996684e+000	 1.007307744009166e+001
0	 7.466639999981866e+000	 2.000000000000000e+000	 1.007462951623775e+001
0	 7.533309999982382e+000	 1.333299999983334e+000	 1.005211801670046e+001
0	 7.533309999982383e+000	 1.399969999982150e+000	 1.005387334635315e+001
0	 7.533309999982383e+000	 1.466639999981866e+000	 1.005557896481378e+001
0	 7.533309999982382e+000	 1.533309999982383e+000	 1.005724117044061e+001
0	 7.533309999982381e+000	 1.599979999983600e+000	 1.005886626159189e+001
0	 7.533309999982382e+000	 1.666649999985415e+000	 1.006046053662586e+001
0	 7.533309999982382e+000	 1.733319999987733e+000	 1.006203029390077e+001
0	 7.533309999982382e+000	 1.799989999990450e+000	 1.006358183177485e+001
0	 7.533309999982382e+000	 1.866659999993466e+000	 1.006512144860636e+001
0	 7.533309999982383e+000	 1.933329999996683e+000	 1.006665544275355e+001
0	 7.533309999982381e+000	 2.000000000000000e+000	 1.006819011257468e+001
0	 7.599979999983598e+000	 1.333299999983334e+000	 1.004611946297053e+001
0	 7.599979999983599e+000	 1.399969999982150e+000	 1.004780421504670e+001
0	 7.599979999983599e+000	 1.466639999981866e+000	 1.004944567778055e+001
0	 7.599979999983599e+000	 1.533309999982383e+000	 1.005105033555520e+001
0	 7.599979999983598e+000	 1.599979999983599e+000	 1.005262467275368e+001
0	 7.599979999983598e+000	 1.666649999985416e+000	 1.005417517375913e+001
0	 7.599979999983598e+000	 1.733319999987733e+000	 1.005570832295460e+001
0	 7.599979999983597e+000	 1.799989999990449e+000	 1.005723060472317e+001
0	 7.599979999983598e+000	 1.866659999993466e+000	 1.005874850344794e+001
0	 7.599979999983600e+000	 1.933329999996683e+000	 1.006026850351199e+001
0	 7.599979999983599e+000	 2.000000000000001e+000	 1.006179708929838e+001
0	 7.666649999985415e+000	 1.333299999983333e+000	 1.004013198638995e+001
0	 7.666649999985414e+000	 1.399969999982150e+000	 1.004173954371754e+001
0	 7.666649999985416e+000	 1.466639999981867e+000	 1.004331269686184e+001
0	 7.666649999985417e+000	 1.533309999982383e+000	 1.004485795064645e+001
0	 7.666649999985416e+000	 1.599979999983600e+000	 1.004638180989500e+001
0	 7.666649999985415e+000	 1.666649999985416e+000	 1.004789077943110e+001
0	 7.666649999985414e+000	 1.733319999987733e+000	 1.004939136407838e+001
0	 7.666649999985416e+000	 1.799989999990449e+000	 1.005089006866045e+001
0	 7.666649999985415e+000	 1.866659999993466e+000	 1.005239339800093e+001
0	 7.666649999985415e+000	 1.933329999996683e+000	 1.005390785692343e+001
0	 7.666649999985416e+000	 2.000000000000000e+000	 1.005543995025158e+001
0	 7.733319999987732e+000	 1.333299999983334e+000	 1.003412597876016e+001
0	 7.733319999987731e+000	 1.399969999982150e+000	 1.003565527728919e+001
0	 7.733319999987732e+000	 1.466639999981867e+000	 1.003716071078808e+001
0	 7.733319999987732e+000	 1.533309999982383e+000	 1.003864863893670e+001
0	 7.733319999987731e+000	 1.599979999983599e+000	 1.004012542141489e+001
0	 7.733319999987731e+000	 1.666649999985416e+000	 1.004159741790251e+001
0	 7.733319999987733e+000	 1.733319999987733e+000	 1.004307098807942e+001
0	 7.733319999987732e+000	 1.799989999990450e+000	 1.004455249162546e+001
0	 7.733319999987732e+000	 1.866659999993466e+000	 1.004604828822050e+001
0	 7.733319999987732e+000	 1.933329999996683e+000	 1.004756473754438e+001
0	 7.733319999987731e+000	 2.000000000000000e+000	 1.004910819927695e+001
0	 7.799989999990448e+000	 1.333299999983334e+000	 1.002807183188266e+001
0	 7.799989999990449e+000	 1.399969999982150e+000	 1.002952736068514e+001
0	 7.799989999990445e+000	 1.466639999981866e+000	 1.003097040828973e+001
0	 7.799989999990447e+000	 1.533309999982383e+000	 1.003240702364823e+001
0	 7.799989999990447e+000	 1.599979999983600e+000	 1.003384325571243e+001
0	 7.799989999990449e+000	 1.666649999985416e+000	 1.003528515343410e+001
0	 7.799989999990449e+000	 1.733319999987733e+000	 1.003673876576504e+001
0	 7.799989999990448e+000	 1.799989999990450e+000	 1.003821014165704e+001
0	 7.799989999990448e+000	 1.866659999993466e+000	 1.003970533006188e+001
0	 7.799989999990448e+000	 1.933329999996683e+000	 1.004123037993135e+001
0	 7.799989999990449e+000	 2.000000000000000e+000	 1.004279134021723e+001
0	 7.866659999993465e+000	 1.333299999983334e+000	 1.002193993755888e+001
0	 7.866659999993465e+000	 1.399969999982150e+000	 1.002333173882889e+001
0	 7.866659999993464e+000	 1.466639999981866e+000	 1.002472247809724e+001
0	 7.866659999993463e+000	 1.533309999982383e+000	 1.002611772800336e+001
0	 7.866659999993463e+000	 1.599979999983599e+000	 1.002752306118667e+001
0	 7.866659999993463e+000	 1.666649999985416e+000	 1.002894405028660e+001
0	 7.866659999993466e+000	 1.733319999987733e+000	 1.003038626794254e+001
0	 7.866659999993464e+000	 1.799989999990449e+000	 1.003185528679395e+001
0	 7.866659999993464e+000	 1.866659999993467e+000	 1.003335667948024e+001
0	 7.866659999993464e+000	 1.933329999996683e+000	 1.003489601864080e+001
0	 7.866659999993465e+000	 2.000000000000000e+000	 1.003647887691510e+001
0	 7.933329999996682e+000	 1.333299999983334e+000	 1.001570068759030e+001
0	 7.933329999996682e+000	 1.399969999982150e+000	 1.001704435664394e+001
0	 7.933329999996681e+000	 1.466639999981866e+000	 1.001839760894105e+001
0	 7.933329999996682e+000	 1.533309999982383e+000	 1.001976537522439e+001
0	 7.933329999996680e+000	 1.599979999983600e+000	 1.002115258623670e+001
0	 7.933329999996682e+000	 1.666649999985416e+000	 1.002256417272074e+001
0	 7.933329999996682e+000	 1.733319999987733e+000	 1.002400506541926e+001
0	 7.933329999996682e+000	 1.799989999990449e+000	 1.002548019507502e+001
0	 7.933329999996680e+000	 1.866659999993466e+000	 1.002699449243077e+001
0	 7.933329999996680e+000	 1.933329999996683e+000	 1.002855288822927e+001
0	 7.933329999996680e+000	 2.000000000000000e+000	 1.003016031321327e+001
0	 8.000000000000000e+000	 1.333299999983334e+000	 1.000932447377837e+001
0	 8.000000000000000e+000	 1.399969999982150e+000	 1.001064115905381e+001
0	 8.000000000000000e+000	 1.466639999981866e+000	 1.001197648955163e+001
0	 8.000000000000000e+000	 1.533309999982383e+000	 1.001333458853362e+001
0	 8.000000000000000e+000	 1.599979999983599e+000	 1.001471957926157e+001
0	 8.000000000000000e+000	 1.666649999985416e+000	 1.001613558499727e+001
0	 7.999999999999999e+000	 1.733319999987733e+000	 1.001758672900249e+001
0	 8.000000000000000e+000	 1.799989999990450e+000	 1.001907713453903e+001
0	 8.000000000000000e+000	 1.866659999993466e+000	 1.002061092486868e+001
0	 8.000000000000000e+000	 1.933329999996683e+000	 1.002219222325323e+001
0	 7.999999999999999e+000	 2.000000000000000e+000	 1.002382515295446e+001
0	 7.333299999983335e+000	 2.000000000000000e+000	 1.008768944935340e+001
0	 7.333299999983334e+000	 2.066670000003317e+000	 1.008928344127401e+001
0	 7.333299999983335e+000	 2.133340000006534e+000	 1.009081975938641e+001
0	 7.333299999983334e+000	 2.200010000009550e+000	 1.009230580529328e+001
0	 7.333299999983333e+000	 2.266680000012267e+000	 1.009374898059730e+001
0	 7.333299999983335e+000	 2.333350000014584e+000	 1.009515668690115e+001
0	 7.333299999983335e+000	 2.400020000016401e+000	 1.009653632580750e+001
0	 7.333299999983333e+000	 2.466690000017616e+000	 1.009789529891904e+001
0	 7.333299999983334e+000	 2.533360000018134e+000	 1.009924100783843e+001
0	 7.333299999983335e+000	 2.600030000017851e+000	 1.010058085416838e+001
0	 7.333299999983335e+000	 2.666700000016666e+000	 1.010192223951154e+001
0	 7.399969999982152e+000	 2.000000000000000e+000	 1.008112579644489e+001
0	 7.399969999982149e+000	 2.066670000003317e+000	 1.008268319641278e+001
0	 7.399969999982150e+000	 2.133340000006534e+000	 1.008419886130554e+001
0	 7.399969999982152e+000	 2.200010000009551e+000	 1.008567828770073e+001
0	 7.399969999982150e+000	 2.266680000012267e+000	 1.008712697217598e+001
0	 7.399969999982150e+000	 2.333350000014584e+000	 1.008855041130886e+001
0	 7.399969999982150e+000	 2.400020000016400e+000	 1.008995410167695e+001
0	 7.399969999982150e+000	 2.466690000017617e+000	 1.009134353985787e+001
0	 7.399969999982149e+000	 2.533360000018133e+000	 1.009272422242919e+001
0	 7.399969999982148e+000	 2.600030000017851e+000	 1.009410164596849e+001
0	 7.399969999982151e+000	 2.666700000016667e+000	 1.009548130705338e+001
0	 7.466639999981866e+000	 2.000000000000000e+000	 1.007462951623775e+001
0	 7.466639999981865e+000	 2.066670000003317e+000	 1.007616460440209e+001
0	 7.466639999981867e+000	 2.133340000006534e+000	 1.007766962436305e+001
0	 7.466639999981867e+000	 2.200010000009550e+000	 1.007914845487300e+001
0	 7.466639999981863e+000	 2.266680000012266e+000	 1.008060497468436e+001
0	 7.466639999981866e+000	 2.333350000014584e+000	 1.008204306254953e+001
0	 7.466639999981866e+000	 2.400020000016401e+000	 1.008346659722089e+001
0	 7.466639999981866e+000	 2.466690000017617e+000	 1.008487945745085e+001
0	 7.466639999981866e+000	 2.533360000018134e+000	 1.008628552199181e+001
0	 7.466639999981865e+000	 2.600030000017849e+000	 1.008768866959616e+001
0	 7.466639999981866e+000	 2.666700000016666e+000	 1.008909277901630e+001
0	 7.533309999982381e+000	 2.000000000000000e+000	 1.006819011257468e+001
0	 7.533309999982384e+000	 2.066670000003317e+000	 1.006971528891605e+001
0	 7.533309999982381e+000	 2.133340000006534e+000	 1.007121830246993e+001
0	 7.533309999982381e+000	 2.200010000009551e+000	 1.007270170136341e+001
0	 7.533309999982384e+000	 2.266680000012267e+000	 1.007416803372361e+001
0	 7.533309999982382e+000	 2.333350000014584e+000	 1.007561984767761e+001
0	 7.533309999982381e+000	 2.400020000016401e+000	 1.007705969135252e+001
0	 7.533309999982381e+000	 2.466690000017617e+000	 1.007849011287547e+001
0	 7.533309999982383e+000	 2.533360000018134e+000	 1.007991366037352e+001
0	 7.533309999982381e+000	 2.600030000017850e+000	 1.008133288197379e+001
0	 7.533309999982381e+000	 2.666700000016666e+000	 1.008275032580339e+001
0	 7.599979999983599e+000	 2.000000000000001e+000	 1.006179708929838e+001
0	 7.599979999983598e+000	 2.066670000003316e+000	 1.006332287362877e+001
0	 7.599979999983598e+000	 2.133340000006534e+000	 1.006483114953717e+001
0	 7.599979999983598e+000	 2.200010000009550e+000	 1.006632342172531e+001
0	 7.599979999983597e+000	 2.266680000012267e+000	 1.006780119489487e+001
0	 7.599979999983598e+000	 2.333350000014584e+000	 1.006926597374757e+001
0	 7.599979999983599e+000	 2.400020000016401e+000	 1.007071926298511e+001
0	 7.599979999983598e+000	 2.466690000017617e+000	 1.007216256730920e+001
0	 7.599979999983598e+000	 2.533360000018134e+000	 1.007359739142151e+001
0	 7.599979999983599e+000	 2.600030000017850e+000	 1.007502524002379e+001
0	 7.599979999983599e+000	 2.666700000016667e+000	 1.007644761781770e+001
0	 7.666649999985416e+000	 2.000000000000000e+000	 1.005543995025158e+001
0	 7.666649999985413e+000	 2.066670000003316e+000	 1.005697498221434e+001
0	 7.666649999985416e+000	 2.133340000006534e+000	 1.005849441947575e+001
0	 7.666649999985416e+000	 2.200010000009550e+000	 1.005999901051201e+001
0	 7.666649999985416e+000	 2.266680000012267e+000	 1.006148950379931e+001
0	 7.666649999985416e+000	 2.333350000014583e+000	 1.006296664781386e+001
0	 7.666649999985417e+000	 2.400020000016400e+000	 1.006443119103185e+001
0	 7.666649999985416e+000	 2.466690000017617e+000	 1.006588388192950e+001
0	 7.666649999985415e+000	 2.533360000018134e+000	 1.006732546898299e+001
0	 7.666649999985414e+000	 2.600030000017851e+000	 1.006875670066854e+001
0	 7.666649999985415e+000	 2.666700000016666e+000	 1.007017832546232e+001
0	 7.733319999987731e+000	 2.000000000000000e+000	 1.004910819927695e+001
0	 7.733319999987733e+000	 2.066670000003317e+000	 1.005065923834689e+001
0	 7.733319999987733e+000	 2.133340000006533e+000	 1.005219436619666e+001
0	 7.733319999987732e+000	 2.200010000009551e+000	 1.005371386227684e+001
0	 7.733319999987733e+000	 2.266680000012267e+000	 1.005521800603809e+001
0	 7.733319999987732e+000	 2.333350000014584e+000	 1.005670707693093e+001
0	 7.733319999987731e+000	 2.400020000016401e+000	 1.005818135440599e+001
0	 7.733319999987732e+000	 2.466690000017617e+000	 1.005964111791387e+001
0	 7.733319999987732e+000	 2.533360000018134e+000	 1.006108664690517e+001
0	 7.733319999987732e+000	 2.600030000017851e+000	 1.006251822083044e+001
0	 7.733319999987731e+000	 2.666700000016666e+000	 1.006393611914031e+001
0	 7.799989999990449e+000	 2.000000000000000e+000	 1.004279134021723e+001
0	 7.799989999990449e+000	 2.066670000003317e+000	 1.004436326570050e+001
0	 7.799989999990448e+000	 2.133340000006534e+000	 1.004591724361085e+001
0	 7.799989999990448e+000	 2.200010000009550e+000	 1.004745337157317e+001
0	 7.799989999990448e+000	 2.266680000012268e+000	 1.004897174721234e+001
0	 7.799989999990449e+000	 2.333350000014584e+000	 1.005047246815324e+001
0	 7.799989999990448e+000	 2.400020000016400e+000	 1.005195563202076e+001
0	 7.799989999990447e+000	 2.466690000017617e+000	 1.005342133643979e+001
0	 7.799989999990449e+000	 2.533360000018133e+000	 1.005486967903521e+001
0	 7.799989999990450e+000	 2.600030000017851e+000	 1.005630075743190e+001
0	 7.799989999990448e+000	 2.666700000016666e+000	 1.005771466925475e+001
0	 7.866659999993465e+000	 2.000000000000000e+000	 1.003647887691510e+001
0	 7.866659999993463e+000	 2.066670000003317e+000	 1.003807468794929e+001
0	 7.866659999993464e+000	 2.133340000006534e+000	 1.003964930562933e+001
0	 7.866659999993465e+000	 2.200010000009550e+000	 1.004120293295428e+001
0	 7.866659999993466e+000	 2.266680000012268e+000	 1.004273577292323e+001
0	 7.866659999993463e+000	 2.333350000014583e+000	 1.004424802853524e+001
0	 7.866659999993465e+000	 2.400020000016401e+000	 1.004573990278938e+001
0	 7.866659999993465e+000	 2.466690000017618e+000	 1.004721159868472e+001
0	 7.866659999993463e+000	 2.533360000018133e+000	 1.004866331922034e+001
0	 7.866659999993465e+000	 2.600030000017850e+000	 1.005009526739529e+001
0	 7.866659999993463e+000	 2.666700000016666e+000	 1.005150764620868e+001
0	 7.933329999996680e+000	 2.000000000000000e+000	 1.003016031321327e+001
0	 7.933329999996682e+000	 2.066670000003318e+000	 1.003178112876737e+001
0	 7.933329999996680e+000	 2.133340000006534e+000	 1.003337680616307e+001
0	 7.933329999996682e+000	 2.200010000009550e+000	 1.003494794097354e+001
0	 7.933329999996682e+000	 2.266680000012267e+000	 1.003649512877192e+001
0	 7.933329999996679e+000	 2.333350000014583e+000	 1.003801896513139e+001
0	 7.933329999996682e+000	 2.400020000016401e+000	 1.003952004562508e+001
0	 7.933329999996681e+000	 2.466690000017617e+000	 1.004099896582615e+001
0	 7.933329999996680e+000	 2.533360000018134e+000	 1.004245632130776e+001
0	 7.933329999996682e+000	 2.600030000017850e+000	 1.004389270764306e+001
0	 7.933329999996682e+000	 2.666700000016666e+000	 1.004530872040520e+001
0	 7.999999999999999e+000	 2.000000000000000e+000	 1.002382515295446e+001
0	 8.000000000000000e+000	 2.066670000003318e+000	 1.002547021182884e+001
0	 8.000000000000000e+000	 2.133340000006534e+000	 1.002708599912306e+001
0	 8.000000000000000e+000	 2.200010000009551e+000	 1.002867379018426e+001
0	 8.000000000000000e+000	 2.266680000012267e+000	 1.003023486035957e+001
0	 7.999999999999999e+000	 2.333350000014584e+000	 1.003177048499614e+001
0	 8.000000000000000e+000	 2.400020000016401e+000	 1.003328193944107e+001
0	 8.000000000000000e+000	 2.466690000017617e+000	 1.003477049904154e+001
0	 8.000000000000000e+000	 2.533360000018134e+000	 1.003623743914466e+001
0	 8.000000000000000e+000	 2.600030000017851e+000	 1.003768403509754e+001
0	 7.999999999999999e+000	 2.666700000016666e+000	 1.003911156224736e+001
0	 7.333299999983335e+000	 2.666700000016666e+000	 1.010192223951155e+001
0	 7.333299999983334e+000	 2.733360000014533e+000	 1.010322100115103e+001
0	 7.333299999983333e+000	 2.800020000011599e+000	 1.010442819142119e+001
0	 7.333299999983333e+000	 2.866680000008067e+000	 1.010554342945189e+001
0	 7.333299999983334e+000	 2.933340000004133e+000	 1.010656633437299e+001
0	 7.333299999983333e+000	 2.999999999999999e+000	 1.010749652531438e+001
0	 7.333299999983335e+000	 3.066659999995867e+000	 1.010833362140592e+001
0	 7.333299999983335e+000	 3.133319999991934e+000	 1.010907724177751e+001
0	 7.333299999983334e+000	 3.199979999988400e+000	 1.010972700555900e+001
0	 7.333299999983334e+000	 3.266639999985468e+000	 1.011028253188029e+001
0	 7.333299999983335e+000	 3.333299999983335e+000	 1.011074343987127e+001
0	 7.399969999982151e+000	 2.666700000016667e+000	 1.009548130705338e+001
0	 7.399969999982150e+000	 2.733360000014533e+000	 1.009681464848744e+001
0	 7.399969999982147e+000	 2.800020000011598e+000	 1.009805055023589e+001
0	 7.399969999982149e+000	 2.866680000008067e+000	 1.009919004247441e+001
0	 7.399969999982150e+000	 2.933340000004134e+000	 1.010023415537869e+001
0	 7.399969999982149e+000	 2.999999999999999e+000	 1.010118391912443e+001
0	 7.399969999982150e+000	 3.066659999995866e+000	 1.010204036388733e+001
0	 7.399969999982149e+000	 3.133319999991933e+000	 1.010280451984310e+001
0	 7.399969999982150e+000	 3.199979999988400e+000	 1.010347741716742e+001
0	 7.399969999982149e+000	 3.266639999985467e+000	 1.010406008603601e+001
0	 7.399969999982150e+000	 3.333299999983333e+000	 1.010455355662457e+001
0	 7.466639999981866e+000	 2.666700000016666e+000	 1.008909277901630e+001
0	 7.466639999981864e+000	 2.733360000014533e+000	 1.009044792707806e+001
0	 7.466639999981865e+000	 2.800020000011599e+000	 1.009170349510413e+001
0	 7.466639999981866e+000	 2.866680000008067e+000	 1.009286168597637e+001
0	 7.466639999981867e+000	 2.933340000004133e+000	 1.009392470257663e+001
0	 7.466639999981863e+000	 2.999999999999999e+000	 1.009489474778676e+001
0	 7.466639999981865e+000	 3.066659999995866e+000	 1.009577402448862e+001
0	 7.466639999981867e+000	 3.133319999991934e+000	 1.009656473556408e+001
0	 7.466639999981867e+000	 3.199979999988400e+000	 1.009726908389501e+001
0	 7.466639999981866e+000	 3.266639999985468e+000	 1.009788927236328e+001
0	 7.466639999981866e+000	 3.333299999983334e+000	 1.009842750385074e+001
0	 7.533309999982381e+000	 2.666700000016666e+000	 1.008275032580339e+001
0	 7.533309999982383e+000	 2.733360000014533e+000	 1.008411721726857e+001
0	 7.533309999982382e+000	 2.800020000011600e+000	 1.008538559972315e+001
0	 7.533309999982384e+000	 2.866680000008067e+000	 1.008655861041548e+001
0	 7.533309999982381e+000	 2.933340000004133e+000	 1.008763938659393e+001
0	 7.533309999982383e+000	 3.000000000000000e+000	 1.008863106550684e+001
0	 7.533309999982383e+000	 3.066659999995867e+000	 1.008953678440258e+001
0	 7.533309999982384e+000	 3.133319999991935e+000	 1.009035968052955e+001
0	 7.533309999982383e+000	 3.199979999988400e+000	 1.009110289113606e+001
0	 7.533309999982383e+000	 3.266639999985467e+000	 1.009176955347052e+001
0	 7.533309999982381e+000	 3.333299999983334e+000	 1.009236280478129e+001
0	 7.599979999983599e+000	 2.666700000016667e+000	 1.007644761781770e+001
0	 7.599979999983599e+000	 2.733360000014533e+000	 1.007781889940462e+001
0	 7.599979999983599e+000	 2.800020000011600e+000	 1.007909543779014e+001
0	 7.599979999983599e+000	 2.866680000008067e+000	 1.008028106624944e+001
0	 7.599979999983598e+000	 2.933340000004133e+000	 1.008137961805772e+001
0	 7.599979999983597e+000	 3.000000000000000e+000	 1.008239492649020e+001
0	 7.599979999983597e+000	 3.066659999995866e+000	 1.008333082482206e+001
0	 7.599979999983598e+000	 3.133319999991933e+000	 1.008419114632856e+001
0	 7.599979999983599e+000	 3.199979999988400e+000	 1.008497972428484e+001
0	 7.599979999983598e+000	 3.266639999985467e+000	 1.008570039196616e+001
0	 7.599979999983598e+000	 3.333299999983333e+000	 1.008635698264773e+001
0	 7.666649999985415e+000	 2.666700000016666e+000	 1.007017832546232e+001
0	 7.666649999985416e+000	 2.733360000014533e+000	 1.007154935383192e+001
0	 7.666649999985414e+000	 2.800020000011600e+000	 1.007283158300233e+001
0	 7.666649999985414e+000	 2.866680000008065e+000	 1.007402930393594e+001
0	 7.666649999985415e+000	 2.933340000004133e+000	 1.007514680759515e+001
0	 7.666649999985414e+000	 3.000000000000000e+000	 1.007618838494233e+001
0	 7.666649999985415e+000	 3.066659999995867e+000	 1.007715832693987e+001
0	 7.666649999985415e+000	 3.133319999991934e+000	 1.007806092455017e+001
0	 7.666649999985416e+000	 3.199979999988401e+000	 1.007890046873564e+001
0	 7.666649999985416e+000	 3.266639999985468e+000	 1.007968125045863e+001
0	 7.666649999985415e+000	 3.333299999983334e+000	 1.008040756068159e+001
0	 7.733319999987731e+000	 2.666700000016666e+000	 1.006393611914031e+001
0	 7.733319999987730e+000	 2.733360000014533e+000	 1.006530496089610e+001
0	 7.733319999987730e+000	 2.800020000011599e+000	 1.006659260905692e+001
0	 7.733319999987732e+000	 2.866680000008066e+000	 1.006780357393270e+001
0	 7.733319999987731e+000	 2.933340000004133e+000	 1.006894236583333e+001
0	 7.733319999987732e+000	 3.000000000000000e+000	 1.007001349506873e+001
0	 7.733319999987733e+000	 3.066659999995868e+000	 1.007102147194882e+001
0	 7.733319999987731e+000	 3.133319999991933e+000	 1.007197080678351e+001
0	 7.733319999987732e+000	 3.199979999988401e+000	 1.007286600988271e+001
0	 7.733319999987732e+000	 3.266639999985467e+000	 1.007371159155636e+001
0	 7.733319999987730e+000	 3.333299999983333e+000	 1.007451206211435e+001
0	 7.799989999990448e+000	 2.666700000016666e+000	 1.005771466925475e+001
0	 7.799989999990447e+000	 2.733360000014533e+000	 1.005908210094285e+001
0	 7.799989999990447e+000	 2.800020000011600e+000	 1.006037708965114e+001
0	 7.799989999990448e+000	 2.866680000008066e+000	 1.006160412669740e+001
0	 7.799989999990446e+000	 2.933340000004133e+000	 1.006276770339941e+001
0	 7.799989999990447e+000	 3.000000000000000e+000	 1.006387231107492e+001
0	 7.799989999990447e+000	 3.066659999995866e+000	 1.006492244104173e+001
0	 7.799989999990449e+000	 3.133319999991934e+000	 1.006592258461763e+001
0	 7.799989999990449e+000	 3.199979999988400e+000	 1.006687723312036e+001
0	 7.799989999990448e+000	 3.266639999985467e+000	 1.006779087786774e+001
0	 7.799989999990447e+000	 3.333299999983334e+000	 1.006866801017754e+001
0	 7.866659999993463e+000	 2.666700000016666e+000	 1.005150764620868e+001
0	 7.866659999993464e+000	 2.733360000014533e+000	 1.005287715431783e+001
0	 7.866659999993466e+000	 2.800020000011601e+000	 1.005418359848220e+001
0	 7.866659999993464e+000	 2.866680000008067e+000	 1.005543121268776e+001
0	 7.866659999993465e+000	 2.933340000004133e+000	 1.005662423092049e+001
0	 7.866659999993466e+000	 3.000000000000000e+000	 1.005776688716640e+001
0	 7.866659999993467e+000	 3.066659999995867e+000	 1.005886341541143e+001
0	 7.866659999993465e+000	 3.133319999991934e+000	 1.005991804964160e+001
0	 7.866659999993463e+000	 3.199979999988400e+000	 1.006093502384286e+001
0	 7.866659999993463e+000	 3.266639999985467e+000	 1.006191857200123e+001
0	 7.866659999993463e+000	 3.333299999983334e+000	 1.006287292810266e+001
0	 7.933329999996682e+000	 2.666700000016666e+000	 1.004530872040520e+001
0	 7.933329999996680e+000	 2.733360000014532e+000	 1.004668650136672e+001
0	 7.933329999996681e+000	 2.800020000011600e+000	 1.004801070924730e+001
0	 7.933329999996682e+000	 2.866680000008067e+000	 1.004928508236145e+001
0	 7.933329999996681e+000	 2.933340000004133e+000	 1.005051335902373e+001
0	 7.933329999996682e+000	 3.000000000000000e+000	 1.005169927754865e+001
0	 7.933329999996682e+000	 3.066659999995867e+000	 1.005284657625073e+001
0	 7.933329999996681e+000	 3.133319999991933e+000	 1.005395899344449e+001
0	 7.933329999996680e+000	 3.199979999988400e+000	 1.005504026744448e+001
0	 7.933329999996682e+000	 3.266639999985468e+000	 1.005609413656522e+001
0	 7.933329999996682e+000	 3.333299999983334e+000	 1.005712433912125e+001
0	 7.999999999999999e+000	 2.666700000016666e+000	 1.003911156224736e+001
0	 8.000000000000000e+000	 2.733360000014533e+000	 1.004050652243517e+001
0	 7.999999999999998e+000	 2.800020000011599e+000	 1.004185699564365e+001
0	 7.999999999999999e+000	 2.866680000008067e+000	 1.004316598617621e+001
0	 8.000000000000000e+000	 2.933340000004133e+000	 1.004443649833625e+001
0	 8.000000000000000e+000	 3.000000000000000e+000	 1.004567153642719e+001
0	 8.000000000000000e+000	 3.066659999995867e+000	 1.004687410475244e+001
0	 7.999999999999999e+000	 3.133319999991933e+000	 1.004804720761540e+001
0	 7.999999999999999e+000	 3.199979999988401e+000	 1.004919384931951e+001
0	 8.000000000000000e+000	 3.266639999985468e+000	 1.005031703416817e+001
0	 7.999999999999999e+000	 3.333299999983334e+000	 1.005141976646478e+001
0	 7.333299999983335e+000	 3.333299999983335e+000	 1.011074343987127e+001
0	 7.333299999983333e+000	 3.399969999982149e+000	 1.011112116373902e+001
0	 7.333299999983333e+000	 3.466639999981866e+000	 1.011142872638551e+001
0	 7.333299999983333e+000	 3.533309999982382e+000	 1.011166831606393e+001
0	 7.333299999983335e+000	 3.599979999983599e+000	 1.011184212102749e+001
0	 7.333299999983335e+000	 3.666649999985416e+000	 1.011195232952934e+001
0	 7.333299999983335e+000	 3.733319999987733e+000	 1.011200112982270e+001
0	 7.333299999983334e+000	 3.799989999990450e+000	 1.011199071016073e+001
0	 7.333299999983336e+000	 3.866659999993467e+000	 1.011192325879662e+001
0	 7.333299999983332e+000	 3.933329999996682e+000	 1.011180096398357e+001
0	 7.333299999983335e+000	 4.000000000000001e+000	 1.011162601397474e+001
0	 7.399969999982150e+000	 3.333299999983333e+000	 1.010455355662457e+001
0	 7.399969999982148e+000	 3.399969999982150e+000	 1.010497271153908e+001
0	 7.399969999982148e+000	 3.466639999981866e+000	 1.010533231156386e+001
0	 7.399969999982150e+000	 3.533309999982384e+000	 1.010563340630900e+001
0	 7.399969999982151e+000	 3.599979999983601e+000	 1.010587704538458e+001
0	 7.399969999982150e+000	 3.666649999985416e+000	 1.010606427840073e+001
0	 7.399969999982150e+000	 3.733319999987733e+000	 1.010619615496754e+001
0	 7.399969999982149e+000	 3.799989999990449e+000	 1.010627372469510e+001
0	 7.399969999982150e+000	 3.866659999993467e+000	 1.010629803719351e+001
0	 7.399969999982152e+000	 3.933329999996683e+000	 1.010627014207287e+001
0	 7.399969999982151e+000	 4.000000000000001e+000	 1.010619108894327e+001
0	 7.466639999981866e+000	 3.333299999983334e+000	 1.009842750385074e+001
0	 7.466639999981866e+000	 3.399969999982150e+000	 1.009889933511899e+001
0	 7.466639999981867e+000	 3.466639999981867e+000	 1.009931877269647e+001
0	 7.466639999981864e+000	 3.533309999982383e+000	 1.009968591823204e+001
0	 7.466639999981867e+000	 3.599979999983600e+000	 1.010000087337461e+001
0	 7.466639999981867e+000	 3.666649999985417e+000	 1.010026373977303e+001
0	 7.466639999981864e+000	 3.733319999987733e+000	 1.010047461907617e+001
0	 7.466639999981865e+000	 3.799989999990450e+000	 1.010063361293289e+001
0	 7.466639999981868e+000	 3.866659999993466e+000	 1.010074082299209e+001
0	 7.466639999981867e+000	 3.933329999996683e+000	 1.010079635090262e+001
0	 7.466639999981866e+000	 4.000000000000000e+000	 1.010080029831333e+001
0	 7.533309999982381e+000	 3.333299999983334e+000	 1.009236280478129e+001
0	 7.533309999982383e+000	 3.399969999982150e+000	 1.009289659100218e+001
0	 7.533309999982381e+000	 3.466639999981866e+000	 1.009338216218687e+001
0	 7.533309999982383e+000	 3.533309999982383e+000	 1.009381886270488e+001
0	 7.533309999982381e+000	 3.599979999983600e+000	 1.009420603692572e+001
0	 7.533309999982381e+000	 3.666649999985415e+000	 1.009454302921887e+001
0	 7.533309999982384e+000	 3.733319999987733e+000	 1.009482918395388e+001
0	 7.533309999982383e+000	 3.799989999990450e+000	 1.009506384550021e+001
0	 7.533309999982383e+000	 3.866659999993467e+000	 1.009524635822739e+001
0	 7.533309999982383e+000	 3.933329999996684e+000	 1.009537606650492e+001
0	 7.533309999982381e+000	 4.000000000000000e+000	 1.009545231470229e+001
0	 7.599979999983598e+000	 3.333299999983333e+000	 1.008635698264773e+001
0	 7.599979999983599e+000	 3.399969999982149e+000	 1.008696003571211e+001
0	 7.599979999983600e+000	 3.466639999981867e+000	 1.008751653243862e+001
0	 7.599979999983598e+000	 3.533309999982383e+000	 1.008802525059926e+001
0	 7.599979999983599e+000	 3.599979999983600e+000	 1.008848496796603e+001
0	 7.599979999983598e+000	 3.666649999985416e+000	 1.008889446231094e+001
0	 7.599979999983599e+000	 3.733319999987733e+000	 1.008925251140598e+001
0	 7.599979999983597e+000	 3.799989999990449e+000	 1.008955789302316e+001
0	 7.599979999983598e+000	 3.866659999993467e+000	 1.008980938493446e+001
0	 7.599979999983600e+000	 3.933329999996684e+000	 1.009000576491189e+001
0	 7.599979999983598e+000	 4.000000000000000e+000	 1.009014581072743e+001
0	 7.666649999985415e+000	 3.333299999983334e+000	 1.008040756068159e+001
0	 7.666649999985414e+000	 3.399969999982150e+000	 1.008108522577226e+001
0	 7.666649999985416e+000	 3.466639999981867e+000	 1.008171593585526e+001
0	 7.666649999985417e+000	 3.533309999982384e+000	 1.008229809278696e+001
0	 7.666649999985416e+000	 3.599979999983600e+000	 1.008283009842371e+001
0	 7.666649999985415e+000	 3.666649999985416e+000	 1.008331035462188e+001
0	 7.666649999985415e+000	 3.733319999987733e+000	 1.008373726323780e+001
0	 7.666649999985414e+000	 3.799989999990450e+000	 1.008410922612783e+001
0	 7.666649999985416e+000	 3.866659999993467e+000	 1.008442464514833e+001
0	 7.666649999985414e+000	 3.933329999996683e+000	 1.008468192215565e+001
0	 7.666649999985416e+000	 4.000000000000000e+000	 1.008487945900613e+001
0	 7.733319999987730e+000	 3.333299999983333e+000	 1.007451206211435e+001
0	 7.733319999987732e+000	 3.399969999982150e+000	 1.007526771770605e+001
0	 7.733319999987733e+000	 3.466639999981866e+000	 1.007597442484034e+001
0	 7.733319999987733e+000	 3.533309999982383e+000	 1.007663040013977e+001
0	 7.733319999987733e+000	 3.599979999983600e+000	 1.007723386022690e+001
0	 7.733319999987732e+000	 3.666649999985416e+000	 1.007778302172434e+001
0	 7.733319999987731e+000	 3.733319999987732e+000	 1.007827610125462e+001
0	 7.733319999987733e+000	 3.799989999990450e+000	 1.007871131544033e+001
0	 7.733319999987732e+000	 3.866659999993466e+000	 1.007908688090404e+001
0	 7.733319999987731e+000	 3.933329999996684e+000	 1.007940101426830e+001
0	 7.733319999987732e+000	 4.000000000000000e+000	 1.007965193215568e+001
0	 7.799989999990447e+000	 3.333299999983334e+000	 1.006866801017754e+001
0	 7.799989999990449e+000	 3.399969999982150e+000	 1.006950306803697e+001
0	 7.799989999990445e+000	 3.466639999981866e+000	 1.007028605179738e+001
0	 7.799989999990447e+000	 3.533309999982383e+000	 1.007101518352942e+001
0	 7.799989999990448e+000	 3.599979999983600e+000	 1.007168868530374e+001
0	 7.799989999990450e+000	 3.666649999985417e+000	 1.007230477919097e+001
0	 7.799989999990446e+000	 3.733319999987732e+000	 1.007286168726177e+001
0	 7.799989999990448e+000	 3.799989999990450e+000	 1.007335763158677e+001
0	 7.799989999990447e+000	 3.866659999993467e+000	 1.007379083423662e+001
0	 7.799989999990448e+000	 3.933329999996683e+000	 1.007415951728196e+001
0	 7.799989999990450e+000	 4.000000000000001e+000	 1.007446190279343e+001
0	 7.866659999993463e+000	 3.333299999983334e+000	 1.006287292810266e+001
0	 7.866659999993464e+000	 3.399969999982150e+000	 1.006378683328847e+001
0	 7.866659999993463e+000	 3.466639999981866e+000	 1.006464486912996e+001
0	 7.866659999993463e+000	 3.533309999982383e+000	 1.006544545382774e+001
0	 7.866659999993462e+000	 3.599979999983600e+000	 1.006618700558237e+001
0	 7.866659999993464e+000	 3.666649999985417e+000	 1.006686794259444e+001
0	 7.866659999993464e+000	 3.733319999987732e+000	 1.006748668306455e+001
0	 7.866659999993464e+000	 3.799989999990450e+000	 1.006804164519324e+001
0	 7.866659999993463e+000	 3.866659999993466e+000	 1.006853124718112e+001
0	 7.866659999993465e+000	 3.933329999996684e+000	 1.006895390722874e+001
0	 7.866659999993466e+000	 4.000000000000001e+000	 1.006930804353671e+001
0	 7.933329999996682e+000	 3.333299999983334e+000	 1.005712433912125e+001
0	 7.933329999996682e+000	 3.399969999982150e+000	 1.005811456998399e+001
0	 7.933329999996681e+000	 3.466639999981867e+000	 1.005904492924161e+001
0	 7.933329999996682e+000	 3.533309999982382e+000	 1.005991422190645e+001
0	 7.933329999996681e+000	 3.599979999983600e+000	 1.006072125299094e+001
0	 7.933329999996682e+000	 3.666649999985416e+000	 1.006146482750740e+001
0	 7.933329999996682e+000	 3.733319999987733e+000	 1.006214375046823e+001
0	 7.933329999996682e+000	 3.799989999990450e+000	 1.006275682688583e+001
0	 7.933329999996682e+000	 3.866659999993467e+000	 1.006330286177255e+001
0	 7.933329999996682e+000	 3.933329999996684e+000	 1.006378066014077e+001
0	 7.933329999996681e+000	 4.000000000000000e+000	 1.006418902700286e+001
0	 7.999999999999999e+000	 3.333299999983334e+000	 1.005141976646478e+001
0	 8.000000000000000e+000	 3.399969999982150e+000	 1.005248183464700e+001
0	 8.000000000000002e+000	 3.466639999981866e+000	 1.005348028453585e+001
0	 8.000000000000000e+000	 3.533309999982383e+000	 1.005441449863736e+001
0	 8.000000000000000e+000	 3.599979999983600e+000	 1.005528385945756e+001
0	 7.999999999999999e+000	 3.666649999985416e+000	 1.005608774950249e+001
0	 7.999999999999999e+000	 3.733319999987733e+000	 1.005682555127818e+001
0	 8.000000000000000e+000	 3.799989999990450e+000	 1.005749664729067e+001
0	 7.999999999999999e+000	 3.866659999993467e+000	 1.005810042004598e+001
0	 8.000000000000000e+000	 3.933329999996683e+000	 1.005863625205014e+001
0	 8.000000000000000e+000	 4.000000000000001e+000	 1.005910352580918e+001
0	 7.333299999983335e+000	 4.000000000000001e+000	 1.011162601397474e+001
0	 7.333299999983335e+000	 4.066670000003317e+000	 1.011139076558603e+001
0	 7.333299999983334e+000	 4.133340000006534e+000	 1.011108435383984e+001
0	 7.333299999983335e+000	 4.200010000009550e+000	 1.011070413429920e+001
0	 7.333299999983333e+000	 4.266680000012268e+000	 1.011024746252704e+001
0	 7.333299999983333e+000	 4.333350000014583e+000	 1.010971169408636e+001
0	 7.333299999983334e+000	 4.400020000016402e+000	 1.010909418454012e+001
0	 7.333299999983334e+000	 4.466690000017617e+000	 1.010839228945131e+001
0	 7.333299999983334e+000	 4.533360000018134e+000	 1.010760336438289e+001
0	 7.333299999983334e+000	 4.600030000017849e+000	 1.010672476489783e+001
0	 7.333299999983333e+000	 4.666700000016665e+000	 1.010575384655912e+001
0	 7.399969999982151e+000	 4.000000000000001e+000	 1.010619108894327e+001
0	 7.399969999982151e+000	 4.066670000003318e+000	 1.010604922756490e+001
0	 7.399969999982150e+000	 4.133340000006534e+000	 1.010583109322786e+001
0	 7.399969999982151e+000	 4.200010000009550e+000	 1.010553501383716e+001
0	 7.399969999982151e+000	 4.266680000012267e+000	 1.010515931729779e+001
0	 7.399969999982149e+000	 4.333350000014584e+000	 1.010470233151471e+001
0	 7.399969999982148e+000	 4.400020000016401e+000	 1.010416238439292e+001
0	 7.399969999982149e+000	 4.466690000017616e+000	 1.010353780383739e+001
0	 7.399969999982149e+000	 4.533360000018132e+000	 1.010282691775311e+001
0	 7.399969999982148e+000	 4.600030000017850e+000	 1.010202805404507e+001
0	 7.399969999982151e+000	 4.666700000016666e+000	 1.010113954061824e+001
0	 7.466639999981866e+000	 4.000000000000000e+000	 1.010080029831333e+001
0	 7.466639999981867e+000	 4.066670000003319e+000	 1.010073941404648e+001
0	 7.466639999981867e+000	 4.133340000006534e+000	 1.010059981182981e+001
0	 7.466639999981865e+000	 4.200010000009550e+000	 1.010038064067047e+001
0	 7.466639999981864e+000	 4.266680000012267e+000	 1.010008104957564e+001
0	 7.466639999981867e+000	 4.333350000014584e+000	 1.009970018755248e+001
0	 7.466639999981866e+000	 4.400020000016403e+000	 1.009923720360817e+001
0	 7.466639999981864e+000	 4.466690000017618e+000	 1.009869124674985e+001
0	 7.466639999981865e+000	 4.533360000018133e+000	 1.009806146598469e+001
0	 7.466639999981865e+000	 4.600030000017849e+000	 1.009734701031986e+001
0	 7.466639999981866e+000	 4.666700000016666e+000	 1.009654702876249e+001
0	 7.533309999982381e+000	 4.000000000000000e+000	 1.009545231470229e+001
0	 7.533309999982384e+000	 4.066670000003318e+000	 1.009546223458018e+001
0	 7.533309999982381e+000	 4.133340000006534e+000	 1.009539327423262e+001
0	 7.533309999982381e+000	 4.200010000009550e+000	 1.009524525252913e+001
0	 7.533309999982384e+000	 4.266680000012267e+000	 1.009501798833924e+001
0	 7.533309999982383e+000	 4.333350000014584e+000	 1.009471130053244e+001
0	 7.533309999982381e+000	 4.400020000016403e+000	 1.009432500797826e+001
0	 7.533309999982381e+000	 4.466690000017615e+000	 1.009385892954620e+001
0	 7.533309999982384e+000	 4.533360000018134e+000	 1.009331288410581e+001
0	 7.533309999982381e+000	 4.600030000017848e+000	 1.009268669052655e+001
0	 7.533309999982381e+000	 4.666700000016665e+000	 1.009198016767798e+001
0	 7.599979999983598e+000	 4.000000000000000e+000	 1.009014581072744e+001
0	 7.599979999983598e+000	 4.066670000003316e+000	 1.009021859871535e+001
0	 7.599979999983598e+000	 4.133340000006532e+000	 1.009021424502326e+001
0	 7.599979999983599e+000	 4.200010000009550e+000	 1.009013308714319e+001
0	 7.599979999983597e+000	 4.266680000012268e+000	 1.008997546256721e+001
0	 7.599979999983598e+000	 4.333350000014583e+000	 1.008974170878730e+001
0	 7.599979999983599e+000	 4.400020000016402e+000	 1.008943216329556e+001
0	 7.599979999983598e+000	 4.466690000017616e+000	 1.008904716358400e+001
0	 7.599979999983598e+000	 4.533360000018133e+000	 1.008858704714465e+001
0	 7.599979999983600e+000	 4.600030000017852e+000	 1.008805215146956e+001
0	 7.599979999983598e+000	 4.666700000016666e+000	 1.008744281405076e+001
0	 7.666649999985416e+000	 4.000000000000000e+000	 1.008487945900613e+001
0	 7.666649999985415e+000	 4.066670000003317e+000	 1.008500941600140e+001
0	 7.666649999985415e+000	 4.133340000006534e+000	 1.008506548878866e+001
0	 7.666649999985417e+000	 4.200010000009551e+000	 1.008504838224267e+001
0	 7.666649999985416e+000	 4.266680000012268e+000	 1.008495880123814e+001
0	 7.666649999985415e+000	 4.333350000014582e+000	 1.008479745064984e+001
0	 7.666649999985417e+000	 4.400020000016401e+000	 1.008456503535246e+001
0	 7.666649999985417e+000	 4.466690000017618e+000	 1.008426226022076e+001
0	 7.666649999985414e+000	 4.533360000018133e+000	 1.008388983012944e+001
0	 7.666649999985416e+000	 4.600030000017850e+000	 1.008344844995327e+001
0	 7.666649999985415e+000	 4.666700000016665e+000	 1.008293882456695e+001
0	 7.733319999987732e+000	 4.000000000000000e+000	 1.007965193215568e+001
0	 7.733319999987733e+000	 4.066670000003318e+000	 1.007983559598767e+001
0	 7.733319999987733e+000	 4.133340000006535e+000	 1.007994977011577e+001
0	 7.733319999987731e+000	 4.200010000009550e+000	 1.007999537555758e+001
0	 7.733319999987732e+000	 4.266680000012267e+000	 1.007997333333072e+001
0	 7.733319999987731e+000	 4.333350000014582e+000	 1.007988456445276e+001
0	 7.733319999987731e+000	 4.400020000016401e+000	 1.007972998994132e+001
0	 7.733319999987733e+000	 4.466690000017618e+000	 1.007951053081400e+001
0	 7.733319999987733e+000	 4.533360000018136e+000	 1.007922710808838e+001
0	 7.733319999987732e+000	 4.600030000017851e+000	 1.007888064278206e+001
0	 7.733319999987733e+000	 4.666700000016667e+000	 1.007847205591264e+001
0	 7.799989999990450e+000	 4.000000000000001e+000	 1.007446190279343e+001
0	 7.799989999990448e+000	 4.066670000003316e+000	 1.007469804822356e+001
0	 7.799989999990448e+000	 4.133340000006534e+000	 1.007486985359152e+001
0	 7.799989999990448e+000	 4.200010000009551e+000	 1.007497830481796e+001
0	 7.799989999990448e+000	 4.266680000012268e+000	 1.007502438782352e+001
0	 7.799989999990449e+000	 4.333350000014583e+000	 1.007500908852884e+001
0	 7.799989999990447e+000	 4.400020000016400e+000	 1.007493339285454e+001
0	 7.799989999990448e+000	 4.466690000017618e+000	 1.007479828672127e+001
0	 7.799989999990446e+000	 4.533360000018133e+000	 1.007460475604965e+001
0	 7.799989999990449e+000	 4.600030000017850e+000	 1.007435378676033e+001
0	 7.799989999990448e+000	 4.666700000016666e+000	 1.007404636477392e+001
0	 7.866659999993466e+000	 4.000000000000001e+000	 1.006930804353671e+001
0	 7.866659999993463e+000	 4.066670000003317e+000	 1.006959768225844e+001
0	 7.866659999993464e+000	 4.133340000006534e+000	 1.006982850380286e+001
0	 7.866659999993464e+000	 4.200010000009551e+000	 1.007000140775383e+001
0	 7.866659999993466e+000	 4.266680000012268e+000	 1.007011729369519e+001
0	 7.866659999993464e+000	 4.333350000014585e+000	 1.007017706121080e+001
0	 7.866659999993465e+000	 4.400020000016402e+000	 1.007018160988447e+001
0	 7.866659999993463e+000	 4.466690000017616e+000	 1.007013183930008e+001
0	 7.866659999993464e+000	 4.533360000018132e+000	 1.007002864904145e+001
0	 7.866659999993463e+000	 4.600030000017849e+000	 1.006987293869243e+001
0	 7.866659999993464e+000	 4.666700000016665e+000	 1.006966560783687e+001
0	 7.933329999996681e+000	 4.000000000000000e+000	 1.006418902700286e+001
0	 7.933329999996682e+000	 4.066670000003316e+000	 1.006453540764169e+001
0	 7.933329999996681e+000	 4.133340000006535e+000	 1.006482848533673e+001
0	 7.933329999996682e+000	 4.200010000009550e+000	 1.006506892209522e+001
0	 7.933329999996682e+000	 4.266680000012268e+000	 1.006525737992434e+001
0	 7.933329999996682e+000	 4.333350000014584e+000	 1.006539452083137e+001
0	 7.933329999996682e+000	 4.400020000016402e+000	 1.006548100682350e+001
0	 7.933329999996681e+000	 4.466690000017618e+000	 1.006551749990796e+001
0	 7.933329999996680e+000	 4.533360000018133e+000	 1.006550466209198e+001
0	 7.933329999996682e+000	 4.600030000017851e+000	 1.006544315538278e+001
0	 7.933329999996681e+000	 4.666700000016665e+000	 1.006533364178758e+001
0	 8.000000000000000e+000	 4.000000000000001e+000	 1.005910352580918e+001
0	 7.999999999999999e+000	 4.066670000003318e+000	 1.005951213392269e+001
0	 8.000000000000000e+000	 4.133340000006534e+000	 1.005987256278008e+001
0	 7.999999999999998e+000	 4.200010000009550e+000	 1.006018508557212e+001
0	 8.000000000000000e+000	 4.266680000012268e+000	 1.006044997548961e+001
0	 7.999999999999998e+000	 4.333350000014583e+000	 1.006066750572331e+001
0	 8.000000000000000e+000	 4.400020000016401e+000	 1.006083794946400e+001
0	 8.000000000000000e+000	 4.466690000017618e+000	 1.006096157990245e+001
0	 8.000000000000000e+000	 4.533360000018135e+000	 1.006103867022945e+001
0	 8.000000000000000e+000	 4.600030000017850e+000	 1.006106949363575e+001
0	 7.999999999999998e+000	 4.666700000016665e+000	 1.006105432331215e+001
0	 7.333299999983333e+000	 4.666700000016665e+000	 1.010575384655912e+001
0	 7.333299999983334e+000	 4.733360000014534e+000	 1.010471982326118e+001
0	 7.333299999983334e+000	 4.800020000011600e+000	 1.010365272305078e+001
0	 7.333299999983334e+000	 4.866680000008068e+000	 1.010255158077814e+001
0	 7.333299999983335e+000	 4.933340000004134e+000	 1.010141543129346e+001
0	 7.333299999983335e+000	 4.999999999999999e+000	 1.010024330944696e+001
0	 7.333299999983336e+000	 5.066659999995867e+000	 1.009903425008884e+001
0	 7.333299999983335e+000	 5.133319999991935e+000	 1.009778728806933e+001
0	 7.333299999983335e+000	 5.199979999988400e+000	 1.009650145823864e+001
0	 7.333299999983333e+000	 5.266639999985469e+000	 1.009517579544700e+001
0	 7.333299999983334e+000	 5.333299999983333e+000	 1.009380933454461e+001
0	 7.399969999982151e+000	 4.666700000016666e+000	 1.010113954061824e+001
0	 7.399969999982150e+000	 4.733360000014534e+000	 1.010019158260609e+001
0	 7.399969999982147e+000	 4.800020000011599e+000	 1.009921423211485e+001
0	 7.399969999982149e+000	 4.866680000008066e+000	 1.009820600774066e+001
0	 7.399969999982149e+000	 4.933340000004132e+000	 1.009716542807963e+001
0	 7.399969999982149e+000	 5.000000000000001e+000	 1.009609101172791e+001
0	 7.399969999982151e+000	 5.066659999995867e+000	 1.009498127728160e+001
0	 7.399969999982150e+000	 5.133319999991935e+000	 1.009383474333688e+001
0	 7.399969999982150e+000	 5.199979999988400e+000	 1.009264992848986e+001
0	 7.399969999982148e+000	 5.266639999985467e+000	 1.009142535133667e+001
0	 7.399969999982149e+000	 5.333299999983333e+000	 1.009015953047347e+001
0	 7.466639999981866e+000	 4.666700000016666e+000	 1.009654702876249e+001
0	 7.466639999981866e+000	 4.733360000014533e+000	 1.009569100304469e+001
0	 7.466639999981867e+000	 4.800020000011599e+000	 1.009480746556380e+001
0	 7.466639999981865e+000	 4.866680000008066e+000	 1.009389452066857e+001
0	 7.466639999981868e+000	 4.933340000004134e+000	 1.009295027270777e+001
0	 7.466639999981863e+000	 4.999999999999999e+000	 1.009197282603016e+001
0	 7.466639999981866e+000	 5.066659999995866e+000	 1.009096028498449e+001
0	 7.466639999981867e+000	 5.133319999991933e+000	 1.008991075391951e+001
0	 7.466639999981867e+000	 5.199979999988400e+000	 1.008882233718402e+001
0	 7.466639999981866e+000	 5.266639999985468e+000	 1.008769313912676e+001
0	 7.466639999981864e+000	 5.333299999983334e+000	 1.008652126409650e+001
0	 7.533309999982381e+000	 4.666700000016665e+000	 1.009198016767798e+001
0	 7.533309999982383e+000	 4.733360000014533e+000	 1.009122067616195e+001
0	 7.533309999982383e+000	 4.800020000011601e+000	 1.009043400139295e+001
0	 7.533309999982384e+000	 4.866680000008067e+000	 1.008961793547907e+001
0	 7.533309999982382e+000	 4.933340000004134e+000	 1.008877027052842e+001
0	 7.533309999982381e+000	 4.999999999999998e+000	 1.008788879864908e+001
0	 7.533309999982382e+000	 5.066659999995867e+000	 1.008697131194915e+001
0	 7.533309999982384e+000	 5.133319999991936e+000	 1.008601560253676e+001
0	 7.533309999982383e+000	 5.199979999988401e+000	 1.008501946251997e+001
0	 7.533309999982383e+000	 5.266639999985468e+000	 1.008398068400692e+001
0	 7.533309999982382e+000	 5.333299999983334e+000	 1.008289705910569e+001
0	 7.599979999983598e+000	 4.666700000016666e+000	 1.008744281405076e+001
0	 7.599979999983599e+000	 4.733360000014533e+000	 1.008678319354280e+001
0	 7.599979999983599e+000	 4.800020000011600e+000	 1.008609541759760e+001
0	 7.599979999983598e+000	 4.866680000008065e+000	 1.008537706808929e+001
0	 7.599979999983598e+000	 4.933340000004134e+000	 1.008462572689205e+001
0	 7.599979999983598e+000	 5.000000000000000e+000	 1.008383897587999e+001
0	 7.599979999983598e+000	 5.066659999995866e+000	 1.008301439692730e+001
0	 7.599979999983598e+000	 5.133319999991934e+000	 1.008214957190810e+001
0	 7.599979999983598e+000	 5.199979999988399e+000	 1.008124208269653e+001
0	 7.599979999983600e+000	 5.266639999985468e+000	 1.008028951116679e+001
0	 7.599979999983598e+000	 5.333299999983333e+000	 1.007928943919298e+001
0	 7.666649999985415e+000	 4.666700000016665e+000	 1.008293882456695e+001
0	 7.666649999985417e+000	 4.733360000014534e+000	 1.008238114677220e+001
0	 7.666649999985415e+000	 4.800020000011601e+000	 1.008179329217303e+001
0	 7.666649999985417e+000	 4.866680000008066e+000	 1.008117273441639e+001
0	 7.666649999985413e+000	 4.933340000004133e+000	 1.008051694714916e+001
0	 7.666649999985414e+000	 5.000000000000001e+000	 1.007982340401825e+001
0	 7.666649999985415e+000	 5.066659999995867e+000	 1.007908957867057e+001
0	 7.666649999985415e+000	 5.133319999991935e+000	 1.007831294475304e+001
0	 7.666649999985416e+000	 5.199979999988400e+000	 1.007749097591253e+001
0	 7.666649999985416e+000	 5.266639999985467e+000	 1.007662114579600e+001
0	 7.666649999985414e+000	 5.333299999983333e+000	 1.007570092805033e+001
0	 7.733319999987733e+000	 4.666700000016667e+000	 1.007847205591264e+001
0	 7.733319999987731e+000	 4.733360000014533e+000	 1.007801712743508e+001
0	 7.733319999987731e+000	 4.800020000011599e+000	 1.007752920311458e+001
0	 7.733319999987729e+000	 4.866680000008065e+000	 1.007700575037752e+001
0	 7.733319999987732e+000	 4.933340000004131e+000	 1.007644423665027e+001
0	 7.733319999987732e+000	 5.000000000000000e+000	 1.007584212935918e+001
0	 7.733319999987733e+000	 5.066659999995868e+000	 1.007519689593067e+001
0	 7.733319999987731e+000	 5.133319999991935e+000	 1.007450600379108e+001
0	 7.733319999987732e+000	 5.199979999988402e+000	 1.007376692036680e+001
0	 7.733319999987733e+000	 5.266639999985467e+000	 1.007297711308421e+001
0	 7.733319999987731e+000	 5.333299999983334e+000	 1.007213404936969e+001
0	 7.799989999990448e+000	 4.666700000016666e+000	 1.007404636477392e+001
0	 7.799989999990449e+000	 4.733360000014533e+000	 1.007369372711642e+001
0	 7.799989999990447e+000	 4.800020000011599e+000	 1.007330472841754e+001
0	 7.799989999990449e+000	 4.866680000008068e+000	 1.007287693188984e+001
0	 7.799989999990446e+000	 4.933340000004133e+000	 1.007240790074586e+001
0	 7.799989999990446e+000	 4.999999999999999e+000	 1.007189519819814e+001
0	 7.799989999990448e+000	 5.066659999995868e+000	 1.007133638745924e+001
0	 7.799989999990449e+000	 5.133319999991935e+000	 1.007072903174174e+001
0	 7.799989999990448e+000	 5.199979999988400e+000	 1.007007069425815e+001
0	 7.799989999990449e+000	 5.266639999985468e+000	 1.006935893822106e+001
0	 7.799989999990448e+000	 5.333299999983334e+000	 1.006859132684302e+001
0	 7.866659999993464e+000	 4.666700000016665e+000	 1.006966560783687e+001
0	 7.866659999993464e+000	 4.733360000014533e+000	 1.006941353740116e+001
0	 7.866659999993465e+000	 4.800020000011601e+000	 1.006912144607722e+001
0	 7.866659999993464e+000	 4.866680000008065e+000	 1.006878709487050e+001
0	 7.866659999993466e+000	 4.933340000004133e+000	 1.006840824478643e+001
0	 7.866659999993465e+000	 5.000000000000000e+000	 1.006798265683044e+001
0	 7.866659999993466e+000	 5.066659999995866e+000	 1.006750809200798e+001
0	 7.866659999993465e+000	 5.133319999991935e+000	 1.006698231132449e+001
0	 7.866659999993464e+000	 5.199979999988399e+000	 1.006640307578541e+001
0	 7.866659999993465e+000	 5.266639999985468e+000	 1.006576814639620e+001
0	 7.866659999993464e+000	 5.333299999983334e+000	 1.006507528416229e+001
0	 7.933329999996681e+000	 4.666700000016665e+000	 1.006533364178759e+001
0	 7.933329999996682e+000	 4.733360000014533e+000	 1.006517914987424e+001
0	 7.933329999996680e+000	 4.800020000011600e+000	 1.006498093408894e+001
0	 7.933329999996682e+000	 4.866680000008067e+000	 1.006473705523667e+001
0	 7.933329999996682e+000	 4.933340000004134e+000	 1.006444557412249e+001
0	 7.933329999996682e+000	 5.000000000000000e+000	 1.006410455155143e+001
0	 7.933329999996679e+000	 5.066659999995866e+000	 1.006371204832855e+001
0	 7.933329999996681e+000	 5.133319999991934e+000	 1.006326612525885e+001
0	 7.933329999996682e+000	 5.199979999988400e+000	 1.006276484314742e+001
0	 7.933329999996682e+000	 5.266639999985468e+000	 1.006220626279926e+001
0	 7.933329999996682e+000	 5.333299999983334e+000	 1.006158844501944e+001
0	 7.999999999999998e+000	 4.666700000016665e+000	 1.006105432331215e+001
0	 8.000000000000000e+000	 4.733360000014532e+000	 1.006099315612064e+001
0	 8.000000000000000e+000	 4.800020000011601e+000	 1.006088477044796e+001
0	 8.000000000000000e+000	 4.866680000008068e+000	 1.006072762890549e+001
0	 7.999999999999998e+000	 4.933340000004133e+000	 1.006052019410453e+001
0	 7.999999999999999e+000	 5.000000000000000e+000	 1.006026092865647e+001
0	 8.000000000000000e+000	 5.066659999995867e+000	 1.005994829517261e+001
0	 8.000000000000000e+000	 5.133319999991934e+000	 1.005958075626434e+001
0	 8.000000000000000e+000	 5.199979999988400e+000	 1.005915677454299e+001
0	 8.000000000000000e+000	 5.266639999985468e+000	 1.005867481261989e+001
0	 8.000000000000000e+000	 5.333299999983333e+000	 1.005813333310643e+001
0	 7.333299999983334e+000	 5.333299999983333e+000	 1.009380933454461e+001
0	 7.333299999983335e+000	 5.399969999982150e+000	 1.009241067816994e+001
0	 7.333299999983333e+000	 5.466639999981867e+000	 1.009098787112932e+001
0	 7.333299999983334e+000	 5.533309999982385e+000	 1.008953848723054e+001
0	 7.333299999983335e+000	 5.599979999983599e+000	 1.008806010028139e+001
0	 7.333299999983334e+000	 5.666649999985417e+000	 1.008655028408963e+001
0	 7.333299999983336e+000	 5.733319999987733e+000	 1.008500661246310e+001
0	 7.333299999983334e+000	 5.799989999990449e+000	 1.008342665920958e+001
0	 7.333299999983333e+000	 5.866659999993468e+000	 1.008180799813684e+001
0	 7.333299999983334e+000	 5.933329999996684e+000	 1.008014820305268e+001
0	 7.333299999983334e+000	 6.000000000000002e+000	 1.007844484776489e+001
0	 7.399969999982149e+000	 5.333299999983333e+000	 1.009015953047347e+001
0	 7.399969999982148e+000	 5.399969999982149e+000	 1.008885912378267e+001
0	 7.399969999982151e+000	 5.466639999981865e+000	 1.008753086134731e+001
0	 7.399969999982149e+000	 5.533309999982383e+000	 1.008617279088503e+001
0	 7.399969999982151e+000	 5.599979999983600e+000	 1.008478296011342e+001
0	 7.399969999982151e+000	 5.666649999985418e+000	 1.008335941675018e+001
0	 7.399969999982151e+000	 5.733319999987733e+000	 1.008190020851287e+001
0	 7.399969999982151e+000	 5.799989999990448e+000	 1.008040338311919e+001
0	 7.399969999982150e+000	 5.866659999993467e+000	 1.007886698828676e+001
0	 7.399969999982151e+000	 5.933329999996684e+000	 1.007728907173318e+001
0	 7.399969999982151e+000	 6.000000000000000e+000	 1.007566768117611e+001
0	 7.466639999981864e+000	 5.333299999983334e+000	 1.008652126409651e+001
0	 7.466639999981866e+000	 5.399969999982150e+000	 1.008531260336586e+001
0	 7.466639999981867e+000	 5.466639999981868e+000	 1.008407363703365e+001
0	 7.466639999981864e+000	 5.533309999982382e+000	 1.008280281540381e+001
0	 7.466639999981867e+000	 5.599979999983601e+000	 1.008149858878025e+001
0	 7.466639999981866e+000	 5.666649999985418e+000	 1.008015940746690e+001
0	 7.466639999981866e+000	 5.733319999987732e+000	 1.007878372176771e+001
0	 7.466639999981867e+000	 5.799989999990450e+000	 1.007736998198662e+001
0	 7.466639999981867e+000	 5.866659999993467e+000	 1.007591663842751e+001
0	 7.466639999981867e+000	 5.933329999996684e+000	 1.007442214139432e+001
0	 7.466639999981866e+000	 6.000000000000001e+000	 1.007288494119101e+001
0	 7.533309999982382e+000	 5.333299999983334e+000	 1.008289705910569e+001
0	 7.533309999982384e+000	 5.399969999982148e+000	 1.008177467680084e+001
0	 7.533309999982382e+000	 5.466639999981865e+000	 1.008062061778438e+001
0	 7.533309999982381e+000	 5.533309999982382e+000	 1.007943366362297e+001
0	 7.533309999982381e+000	 5.599979999983599e+000	 1.007821259588328e+001
0	 7.533309999982383e+000	 5.666649999985416e+000	 1.007695619613199e+001
0	 7.533309999982381e+000	 5.733319999987733e+000	 1.007566324593579e+001
0	 7.533309999982381e+000	 5.799989999990449e+000	 1.007433252686131e+001
0	 7.533309999982383e+000	 5.866659999993466e+000	 1.007296282047527e+001
0	 7.533309999982384e+000	 5.933329999996682e+000	 1.007155290834429e+001
0	 7.533309999982382e+000	 6.000000000000000e+000	 1.007010157203507e+001
0	 7.599979999983598e+000	 5.333299999983333e+000	 1.007928943919298e+001
0	 7.599979999983598e+000	 5.399969999982149e+000	 1.007824890396895e+001
0	 7.599979999983599e+000	 5.466639999981866e+000	 1.007717622319554e+001
0	 7.599979999983599e+000	 5.533309999982384e+000	 1.007607043837858e+001
0	 7.599979999983599e+000	 5.599979999983600e+000	 1.007493059102397e+001
0	 7.599979999983598e+000	 5.666649999985417e+000	 1.007375572263758e+001
0	 7.599979999983599e+000	 5.733319999987733e+000	 1.007254487472524e+001
0	 7.599979999983598e+000	 5.799989999990449e+000	 1.007129708879282e+001
0	 7.599979999983598e+000	 5.866659999993469e+000	 1.007001140634622e+001
0	 7.599979999983599e+000	 5.933329999996683e+000	 1.006868686889126e+001
0	 7.599979999983598e+000	 6.000000000000001e+000	 1.006732251793383e+001
0	 7.666649999985414e+000	 5.333299999983333e+000	 1.007570092805033e+001
0	 7.666649999985414e+000	 5.399969999982151e+000	 1.007473884475154e+001
0	 7.666649999985415e+000	 5.466639999981864e+000	 1.007374487286316e+001
0	 7.666649999985416e+000	 5.533309999982385e+000	 1.007271824250675e+001
0	 7.666649999985417e+000	 5.599979999983601e+000	 1.007165818380377e+001
0	 7.666649999985415e+000	 5.666649999985416e+000	 1.007056392687576e+001
0	 7.666649999985416e+000	 5.733319999987733e+000	 1.006943470184421e+001
0	 7.666649999985416e+000	 5.799989999990450e+000	 1.006826973883062e+001
0	 7.666649999985416e+000	 5.866659999993467e+000	 1.006706826795653e+001
0	 7.666649999985415e+000	 5.933329999996684e+000	 1.006582951934341e+001
0	 7.666649999985416e+000	 6.000000000000000e+000	 1.006455272311278e+001
0	 7.733319999987731e+000	 5.333299999983334e+000	 1.007213404936969e+001
0	 7.733319999987731e+000	 5.399969999982149e+000	 1.007124805902992e+001
0	 7.733319999987730e+000	 5.466639999981866e+000	 1.007033098638333e+001
0	 7.733319999987733e+000	 5.533309999982385e+000	 1.006938217884353e+001
0	 7.733319999987733e+000	 5.599979999983599e+000	 1.006840098382411e+001
0	 7.733319999987731e+000	 5.666649999985415e+000	 1.006738674873868e+001
0	 7.733319999987731e+000	 5.733319999987733e+000	 1.006633882100086e+001
0	 7.733319999987732e+000	 5.799989999990450e+000	 1.006525654802421e+001
0	 7.733319999987732e+000	 5.866659999993466e+000	 1.006413927722237e+001
0	 7.733319999987732e+000	 5.933329999996685e+000	 1.006298635600889e+001
0	 7.733319999987733e+000	 6.000000000000000e+000	 1.006179713179742e+001
0	 7.799989999990448e+000	 5.333299999983334e+000	 1.006859132684302e+001
0	 7.799989999990450e+000	 5.399969999982149e+000	 1.006778010668545e+001
0	 7.799989999990448e+000	 5.466639999981866e+000	 1.006693898335206e+001
0	 7.799989999990447e+000	 5.533309999982382e+000	 1.006606735022500e+001
0	 7.799989999990447e+000	 5.599979999983600e+000	 1.006516460068645e+001
0	 7.799989999990449e+000	 5.666649999985417e+000	 1.006423012811851e+001
0	 7.799989999990448e+000	 5.733319999987732e+000	 1.006326332590336e+001
0	 7.799989999990449e+000	 5.799989999990448e+000	 1.006226358742310e+001
0	 7.799989999990447e+000	 5.866659999993467e+000	 1.006123030605991e+001
0	 7.799989999990449e+000	 5.933329999996684e+000	 1.006016287519590e+001
0	 7.799989999990450e+000	 6.000000000000001e+000	 1.005906068821324e+001
0	 7.866659999993464e+000	 5.333299999983334e+000	 1.006507528416229e+001
0	 7.866659999993464e+000	 5.399969999982150e+000	 1.006433854759944e+001
0	 7.866659999993465e+000	 5.466639999981866e+000	 1.006357328336539e+001
0	 7.866659999993464e+000	 5.533309999982383e+000	 1.006277885948727e+001
0	 7.866659999993463e+000	 5.599979999983600e+000	 1.006195464399222e+001
0	 7.866659999993463e+000	 5.666649999985416e+000	 1.006110000490735e+001
0	 7.866659999993465e+000	 5.733319999987733e+000	 1.006021431025982e+001
0	 7.866659999993464e+000	 5.799989999990450e+000	 1.005929692807676e+001
0	 7.866659999993464e+000	 5.866659999993467e+000	 1.005834722638532e+001
0	 7.866659999993464e+000	 5.933329999996685e+000	 1.005736457321260e+001
0	 7.866659999993464e+000	 6.000000000000000e+000	 1.005634833658576e+001
0	 7.933329999996682e+000	 5.333299999983334e+000	 1.006158844501944e+001
0	 7.933329999996682e+000	 5.399969999982150e+000	 1.006092694165326e+001
0	 7.933329999996680e+000	 5.466639999981867e+000	 1.006023830601938e+001
0	 7.933329999996681e+000	 5.533309999982383e+000	 1.005952180946638e+001
0	 7.933329999996682e+000	 5.599979999983599e+000	 1.005877672334285e+001
0	 7.933329999996682e+000	 5.666649999985417e+000	 1.005800231899734e+001
0	 7.933329999996680e+000	 5.733319999987732e+000	 1.005719786777843e+001
0	 7.933329999996682e+000	 5.799989999990449e+000	 1.005636264103472e+001
0	 7.933329999996682e+000	 5.866659999993467e+000	 1.005549591011477e+001
0	 7.933329999996682e+000	 5.933329999996683e+000	 1.005459694636717e+001
0	 7.933329999996681e+000	 5.999999999999999e+000	 1.005366502114048e+001
0	 8.000000000000000e+000	 5.333299999983333e+000	 1.005813333310643e+001
0	 8.000000000000000e+000	 5.399969999982149e+000	 1.005754884872823e+001
0	 8.000000000000000e+000	 5.466639999981868e+000	 1.005693847091008e+001
0	 8.000000000000000e+000	 5.533309999982382e+000	 1.005630130299845e+001
0	 8.000000000000000e+000	 5.599979999983600e+000	 1.005563644833980e+001
0	 8.000000000000000e+000	 5.666649999985416e+000	 1.005494301028060e+001
0	 7.999999999999999e+000	 5.733319999987732e+000	 1.005422009216734e+001
0	 8.000000000000000e+000	 5.799989999990449e+000	 1.005346679734647e+001
0	 7.999999999999998e+000	 5.866659999993466e+000	 1.005268222916445e+001
0	 8.000000000000000e+000	 5.933329999996682e+000	 1.005186549096778e+001
0	 8.000000000000000e+000	 6.000000000000001e+000	 1.005101568610290e+001
0	 7.333299999983334e+000	 6.000000000000002e+000	 1.007844484776489e+001
0	 7.333299999983334e+000	 6.066670000003316e+000	 1.007671992500652e+001
0	 7.333299999983332e+000	 6.133340000006531e+000	 1.007499601824747e+001
0	 7.333299999983334e+000	 6.200010000009550e+000	 1.007327158740075e+001
0	 7.333299999983334e+000	 6.266680000012268e+000	 1.007154509237939e+001
0	 7.333299999983335e+000	 6.333350000014586e+000	 1.006981499309639e+001
0	 7.333299999983336e+000	 6.400020000016400e+000	 1.006807974946479e+001
0	 7.333299999983333e+000	 6.466690000017615e+000	 1.006633782139762e+001
0	 7.333299999983334e+000	 6.533360000018135e+000	 1.006458766880788e+001
0	 7.333299999983335e+000	 6.600030000017851e+000	 1.006282775160862e+001
0	 7.333299999983333e+000	 6.666700000016665e+000	 1.006105652971283e+001
0	 7.399969999982151e+000	 6.000000000000000e+000	 1.007566768117611e+001
0	 7.399969999982151e+000	 6.066670000003316e+000	 1.007402497471360e+001
0	 7.399969999982148e+000	 6.133340000006533e+000	 1.007238326352043e+001
0	 7.399969999982151e+000	 6.200010000009551e+000	 1.007074082492933e+001
0	 7.399969999982151e+000	 6.266680000012269e+000	 1.006909593627302e+001
0	 7.399969999982151e+000	 6.333350000014585e+000	 1.006744687488423e+001
0	 7.399969999982150e+000	 6.400020000016400e+000	 1.006579191809569e+001
0	 7.399969999982149e+000	 6.466690000017618e+000	 1.006412934324012e+001
0	 7.399969999982149e+000	 6.533360000018133e+000	 1.006245742765023e+001
0	 7.399969999982149e+000	 6.600030000017851e+000	 1.006077444865876e+001
0	 7.399969999982152e+000	 6.666700000016668e+000	 1.005907868359845e+001
0	 7.466639999981866e+000	 6.000000000000001e+000	 1.007288494119101e+001
0	 7.466639999981865e+000	 6.066670000003317e+000	 1.007132666214986e+001
0	 7.466639999981867e+000	 6.133340000006534e+000	 1.006976872023796e+001
0	 7.466639999981867e+000	 6.200010000009551e+000	 1.006820925321133e+001
0	 7.466639999981864e+000	 6.266680000012266e+000	 1.006664639882604e+001
0	 7.466639999981867e+000	 6.333350000014584e+000	 1.006507829483810e+001
0	 7.466639999981866e+000	 6.400020000016401e+000	 1.006350307900355e+001
0	 7.466639999981867e+000	 6.466690000017618e+000	 1.006191888907844e+001
0	 7.466639999981866e+000	 6.533360000018133e+000	 1.006032386281881e+001
0	 7.466639999981867e+000	 6.600030000017850e+000	 1.005871613798070e+001
0	 7.466639999981867e+000	 6.666700000016668e+000	 1.005709385232012e+001
0	 7.533309999982382e+000	 6.000000000000000e+000	 1.007010157203507e+001
0	 7.533309999982384e+000	 6.066670000003317e+000	 1.006862933664507e+001
0	 7.533309999982382e+000	 6.133340000006532e+000	 1.006715623368257e+001
0	 7.533309999982381e+000	 6.200010000009550e+000	 1.006568030433054e+001
0	 7.533309999982384e+000	 6.266680000012268e+000	 1.006419958977197e+001
0	 7.533309999982381e+000	 6.333350000014584e+000	 1.006271213118980e+001
0	 7.533309999982381e+000	 6.400020000016402e+000	 1.006121596976702e+001
0	 7.533309999982381e+000	 6.466690000017616e+000	 1.005970914668656e+001
0	 7.533309999982383e+000	 6.533360000018137e+000	 1.005818970313143e+001
0	 7.533309999982382e+000	 6.600030000017848e+000	 1.005665568028457e+001
0	 7.533309999982381e+000	 6.666700000016665e+000	 1.005510511932893e+001
0	 7.599979999983598e+000	 6.000000000000001e+000	 1.006732251793383e+001
0	 7.599979999983598e+000	 6.066670000003317e+000	 1.006593734752896e+001
0	 7.599979999983597e+000	 6.133340000006532e+000	 1.006454964913677e+001
0	 7.599979999983599e+000	 6.200010000009550e+000	 1.006315741037075e+001
0	 7.599979999983598e+000	 6.266680000012266e+000	 1.006175861884440e+001
0	 7.599979999983599e+000	 6.333350000014585e+000	 1.006035126217127e+001
0	 7.599979999983599e+000	 6.400020000016399e+000	 1.005893332796480e+001
0	 7.599979999983599e+000	 6.466690000017617e+000	 1.005750280383855e+001
0	 7.599979999983598e+000	 6.533360000018133e+000	 1.005605767740597e+001
0	 7.599979999983601e+000	 6.600030000017851e+000	 1.005459593628059e+001
0	 7.599979999983599e+000	 6.666700000016667e+000	 1.005311556807590e+001
0	 7.666649999985416e+000	 6.000000000000000e+000	 1.006455272311278e+001
0	 7.666649999985414e+000	 6.066670000003318e+000	 1.006325504413131e+001
0	 7.666649999985415e+000	 6.133340000006533e+000	 1.006195281188306e+001
0	 7.666649999985415e+000	 6.200010000009550e+000	 1.006064400341573e+001
0	 7.666649999985415e+000	 6.266680000012267e+000	 1.005932659577694e+001
0	 7.666649999985416e+000	 6.333350000014584e+000	 1.005799856601433e+001
0	 7.666649999985417e+000	 6.400020000016401e+000	 1.005665789117560e+001
0	 7.666649999985417e+000	 6.466690000017619e+000	 1.005530254830835e+001
0	 7.666649999985417e+000	 6.533360000018135e+000	 1.005393051446025e+001
0	 7.666649999985414e+000	 6.600030000017851e+000	 1.005253976667896e+001
0	 7.666649999985416e+000	 6.666700000016666e+000	 1.005112828201211e+001
0	 7.733319999987733e+000	 6.000000000000000e+000	 1.006179713179742e+001
0	 7.733319999987733e+000	 6.066670000003317e+000	 1.006058677578184e+001
0	 7.733319999987733e+000	 6.133340000006533e+000	 1.005936956720400e+001
0	 7.733319999987732e+000	 6.200010000009552e+000	 1.005814351554928e+001
0	 7.733319999987732e+000	 6.266680000012268e+000	 1.005690663030312e+001
0	 7.733319999987732e+000	 6.333350000014586e+000	 1.005565692095090e+001
0	 7.733319999987733e+000	 6.400020000016401e+000	 1.005439239697807e+001
0	 7.733319999987733e+000	 6.466690000017619e+000	 1.005311106787000e+001
0	 7.733319999987731e+000	 6.533360000018133e+000	 1.005181094311214e+001
0	 7.733319999987731e+000	 6.600030000017849e+000	 1.005049003218986e+001
0	 7.733319999987732e+000	 6.666700000016666e+000	 1.004914634458860e+001
0	 7.799989999990450e+000	 6.000000000000001e+000	 1.005906068821324e+001
0	 7.799989999990448e+000	 6.066670000003319e+000	 1.005793689181034e+001
0	 7.799989999990447e+000	 6.133340000006533e+000	 1.005680376038206e+001
0	 7.799989999990450e+000	 6.200010000009552e+000	 1.005565937885520e+001
0	 7.799989999990449e+000	 6.266680000012268e+000	 1.005450183215653e+001
0	 7.799989999990449e+000	 6.333350000014584e+000	 1.005332920521284e+001
0	 7.799989999990448e+000	 6.400020000016402e+000	 1.005213958295090e+001
0	 7.799989999990448e+000	 6.466690000017616e+000	 1.005093105029753e+001
0	 7.799989999990449e+000	 6.533360000018136e+000	 1.004970169217945e+001
0	 7.799989999990449e+000	 6.600030000017850e+000	 1.004844959352349e+001
0	 7.799989999990447e+000	 6.666700000016665e+000	 1.004717283925643e+001
0	 7.866659999993464e+000	 6.000000000000000e+000	 1.005634833658576e+001
0	 7.866659999993465e+000	 6.066670000003317e+000	 1.005530974154653e+001
0	 7.866659999993463e+000	 6.133340000006531e+000	 1.005425923669978e+001
0	 7.866659999993464e+000	 6.200010000009551e+000	 1.005319502541726e+001
0	 7.866659999993466e+000	 6.266680000012268e+000	 1.005211531107075e+001
0	 7.866659999993464e+000	 6.333350000014584e+000	 1.005101829703200e+001
0	 7.866659999993464e+000	 6.400020000016402e+000	 1.004990218667279e+001
0	 7.866659999993465e+000	 6.466690000017617e+000	 1.004876518336488e+001
0	 7.866659999993464e+000	 6.533360000018133e+000	 1.004760549048004e+001
0	 7.866659999993463e+000	 6.600030000017848e+000	 1.004642131139005e+001
0	 7.866659999993463e+000	 6.666700000016666e+000	 1.004521084946664e+001
0	 7.933329999996681e+000	 5.999999999999999e+000	 1.005366502114048e+001
0	 7.933329999996682e+000	 6.066670000003318e+000	 1.005270967432019e+001
0	 7.933329999996681e+000	 6.133340000006533e+000	 1.005173984143966e+001
0	 7.933329999996682e+000	 6.200010000009551e+000	 1.005075388731926e+001
0	 7.933329999996681e+000	 6.266680000012267e+000	 1.004975017677934e+001
0	 7.933329999996682e+000	 6.333350000014584e+000	 1.004872707464028e+001
0	 7.933329999996681e+000	 6.400020000016401e+000	 1.004768294572243e+001
0	 7.933329999996681e+000	 6.466690000017616e+000	 1.004661615484613e+001
0	 7.933329999996681e+000	 6.533360000018135e+000	 1.004552506683178e+001
0	 7.933329999996682e+000	 6.600030000017850e+000	 1.004440804649970e+001
0	 7.933329999996682e+000	 6.666700000016667e+000	 1.004326345867030e+001
0	 8.000000000000000e+000	 6.000000000000001e+000	 1.005101568610290e+001
0	 8.000000000000002e+000	 6.066670000003317e+000	 1.005014103946104e+001
0	 7.999999999999999e+000	 6.133340000006534e+000	 1.004924941988423e+001
0	 7.999999999999999e+000	 6.200010000009551e+000	 1.004833939664499e+001
0	 7.999999999999997e+000	 6.266680000012266e+000	 1.004740953901590e+001
0	 7.999999999999999e+000	 6.333350000014583e+000	 1.004645841626954e+001
0	 8.000000000000000e+000	 6.400020000016401e+000	 1.004548459767847e+001
0	 8.000000000000000e+000	 6.466690000017617e+000	 1.004448665251526e+001
0	 8.000000000000000e+000	 6.533360000018136e+000	 1.004346315005247e+001
0	 7.999999999999998e+000	 6.600030000017848e+000	 1.004241265956268e+001
0	 8.000000000000000e+000	 6.666700000016668e+000	 1.004133375031845e+001
0	 7.333299999983333e+000	 6.666700000016665e+000	 1.006105652971283e+001
0	 7.333299999983335e+000	 6.733360000014533e+000	 1.005928515103235e+001
0	 7.333299999983334e+000	 6.800020000011600e+000	 1.005752405847552e+001
0	 7.333299999983332e+000	 6.866680000008064e+000	 1.005577145423455e+001
0	 7.333299999983334e+000	 6.933340000004134e+000	 1.005402554050172e+001
0	 7.333299999983332e+000	 6.999999999999998e+000	 1.005228451946921e+001
0	 7.333299999983334e+000	 7.066659999995866e+000	 1.005054659332932e+001
0	 7.333299999983333e+000	 7.133319999991934e+000	 1.004880996427424e+001
0	 7.333299999983334e+000	 7.199979999988401e+000	 1.004707283449621e+001
0	 7.333299999983335e+000	 7.266639999985467e+000	 1.004533340618747e+001
0	 7.333299999983336e+000	 7.333299999983336e+000	 1.004358988154027e+001
0	 7.399969999982152e+000	 6.666700000016668e+000	 1.005907868359845e+001
0	 7.399969999982149e+000	 6.733360000014531e+000	 1.005738079303558e+001
0	 7.399969999982147e+000	 6.800020000011596e+000	 1.005569098964028e+001
0	 7.399969999982151e+000	 6.866680000008066e+000	 1.005400764509221e+001
0	 7.399969999982150e+000	 6.933340000004133e+000	 1.005232913107105e+001
0	 7.399969999982149e+000	 6.999999999999999e+000	 1.005065381925648e+001
0	 7.399969999982151e+000	 7.066659999995867e+000	 1.004898008132813e+001
0	 7.399969999982149e+000	 7.133319999991933e+000	 1.004730628896571e+001
0	 7.399969999982150e+000	 7.199979999988400e+000	 1.004563081384886e+001
0	 7.399969999982149e+000	 7.266639999985467e+000	 1.004395202765728e+001
0	 7.399969999982149e+000	 7.333299999983334e+000	 1.004226830207059e+001
0	 7.466639999981867e+000	 6.666700000016668e+000	 1.005709385232013e+001
0	 7.466639999981863e+000	 6.733360000014532e+000	 1.005546754840576e+001
0	 7.466639999981866e+000	 6.800020000011599e+000	 1.005384753292601e+001
0	 7.466639999981866e+000	 6.866680000008068e+000	 1.005223232336396e+001
0	 7.466639999981868e+000	 6.933340000004134e+000	 1.005062043720270e+001
0	 7.466639999981863e+000	 6.999999999999998e+000	 1.004901039192531e+001
0	 7.466639999981865e+000	 7.066659999995866e+000	 1.004740070501489e+001
0	 7.466639999981865e+000	 7.133319999991935e+000	 1.004578989395452e+001
0	 7.466639999981868e+000	 7.199979999988401e+000	 1.004417647622727e+001
0	 7.466639999981866e+000	 7.266639999985468e+000	 1.004255896931625e+001
0	 7.466639999981864e+000	 7.333299999983332e+000	 1.004093589070456e+001
0	 7.533309999982381e+000	 6.666700000016665e+000	 1.005510511932893e+001
0	 7.533309999982382e+000	 6.733360000014530e+000	 1.005354874236226e+001
0	 7.533309999982383e+000	 6.800020000011599e+000	 1.005199720260714e+001
0	 7.533309999982383e+000	 6.866680000008068e+000	 1.005044913966609e+001
0	 7.533309999982382e+000	 6.933340000004133e+000	 1.004890319314158e+001
0	 7.533309999982384e+000	 7.000000000000001e+000	 1.004735800263609e+001
0	 7.533309999982381e+000	 7.066659999995867e+000	 1.004581220775213e+001
0	 7.533309999982384e+000	 7.133319999991936e+000	 1.004426444809220e+001
0	 7.533309999982383e+000	 7.199979999988400e+000	 1.004271336325876e+001
0	 7.533309999982384e+000	 7.266639999985466e+000	 1.004115759285433e+001
0	 7.533309999982382e+000	 7.333299999983334e+000	 1.003959577648139e+001
0	 7.599979999983599e+000	 6.666700000016667e+000	 1.005311556807591e+001
0	 7.599979999983599e+000	 6.733360000014532e+000	 1.005162770012441e+001
0	 7.599979999983599e+000	 6.800020000011599e+000	 1.005014351295809e+001
0	 7.599979999983598e+000	 6.866680000008066e+000	 1.004866174461485e+001
0	 7.599979999983598e+000	 6.933340000004133e+000	 1.004718113313258e+001
0	 7.599979999983597e+000	 6.999999999999998e+000	 1.004570041654912e+001
0	 7.599979999983598e+000	 7.066659999995864e+000	 1.004421833290239e+001
0	 7.599979999983599e+000	 7.133319999991936e+000	 1.004273362023027e+001
0	 7.599979999983599e+000	 7.199979999988399e+000	 1.004124501657063e+001
0	 7.599979999983599e+000	 7.266639999985468e+000	 1.003975125996136e+001
0	 7.599979999983598e+000	 7.333299999983333e+000	 1.003825108844035e+001
0	 7.666649999985416e+000	 6.666700000016666e+000	 1.005112828201211e+001
0	 7.666649999985415e+000	 6.733360000014532e+000	 1.004970774691155e+001
0	 7.666649999985415e+000	 6.800020000011600e+000	 1.004828997825327e+001
0	 7.666649999985414e+000	 6.866680000008066e+000	 1.004687378882654e+001
0	 7.666649999985412e+000	 6.933340000004129e+000	 1.004545799142061e+001
0	 7.666649999985414e+000	 6.999999999999999e+000	 1.004404139882476e+001
0	 7.666649999985414e+000	 7.066659999995866e+000	 1.004262282382823e+001
0	 7.666649999985417e+000	 7.133319999991936e+000	 1.004120107922029e+001
0	 7.666649999985416e+000	 7.199979999988400e+000	 1.003977497779022e+001
0	 7.666649999985416e+000	 7.266639999985468e+000	 1.003834333232726e+001
0	 7.666649999985414e+000	 7.333299999983332e+000	 1.003690495562065e+001
0	 7.733319999987732e+000	 6.666700000016666e+000	 1.004914634458860e+001
0	 7.733319999987732e+000	 6.733360000014532e+000	 1.004779220794302e+001
0	 7.733319999987731e+000	 6.800020000011599e+000	 1.004644011276707e+001
0	 7.733319999987731e+000	 6.866680000008067e+000	 1.004508892291740e+001
0	 7.733319999987733e+000	 6.933340000004134e+000	 1.004373750225060e+001
0	 7.733319999987732e+000	 7.000000000000000e+000	 1.004238471462333e+001
0	 7.733319999987733e+000	 7.066659999995867e+000	 1.004102942389218e+001
0	 7.733319999987730e+000	 7.133319999991934e+000	 1.003967049391382e+001
0	 7.733319999987730e+000	 7.199979999988400e+000	 1.003830678854483e+001
0	 7.733319999987732e+000	 7.266639999985467e+000	 1.003693717164186e+001
0	 7.733319999987732e+000	 7.333299999983334e+000	 1.003556050706154e+001
0	 7.799989999990447e+000	 6.666700000016665e+000	 1.004717283925643e+001
0	 7.799989999990448e+000	 6.733360000014533e+000	 1.004588440843816e+001
0	 7.799989999990447e+000	 6.800020000011601e+000	 1.004459743077392e+001
0	 7.799989999990448e+000	 6.866680000008068e+000	 1.004331079750369e+001
0	 7.799989999990447e+000	 6.933340000004134e+000	 1.004202339986744e+001
0	 7.799989999990448e+000	 7.000000000000000e+000	 1.004073412910516e+001
0	 7.799989999990447e+000	 7.066659999995868e+000	 1.003944187645680e+001
0	 7.799989999990448e+000	 7.133319999991935e+000	 1.003814553316236e+001
0	 7.799989999990447e+000	 7.199979999988400e+000	 1.003684399046180e+001
0	 7.799989999990449e+000	 7.266639999985467e+000	 1.003553613959511e+001
0	 7.799989999990448e+000	 7.333299999983335e+000	 1.003422087180225e+001
0	 7.866659999993463e+000	 6.666700000016666e+000	 1.004521084946664e+001
0	 7.866659999993466e+000	 6.733360000014533e+000	 1.004398767361631e+001
0	 7.866659999993466e+000	 6.800020000011601e+000	 1.004276544654821e+001
0	 7.866659999993463e+000	 6.866680000008066e+000	 1.004154306320169e+001
0	 7.866659999993465e+000	 6.933340000004134e+000	 1.004031941851605e+001
0	 7.866659999993464e+000	 6.999999999999999e+000	 1.003909340743058e+001
0	 7.866659999993464e+000	 7.066659999995867e+000	 1.003786392488462e+001
0	 7.866659999993463e+000	 7.133319999991933e+000	 1.003662986581748e+001
0	 7.866659999993464e+000	 7.199979999988400e+000	 1.003539012516846e+001
0	 7.866659999993463e+000	 7.266639999985466e+000	 1.003414359787686e+001
0	 7.866659999993464e+000	 7.333299999983334e+000	 1.003288917888201e+001
0	 7.933329999996682e+000	 6.666700000016667e+000	 1.004326345867030e+001
0	 7.933329999996681e+000	 6.733360000014533e+000	 1.004210532869680e+001
0	 7.933329999996680e+000	 6.800020000011600e+000	 1.004094767436438e+001
0	 7.933329999996682e+000	 6.866680000008068e+000	 1.003978937062768e+001
0	 7.933329999996681e+000	 6.933340000004133e+000	 1.003862929244131e+001
0	 7.933329999996682e+000	 7.000000000000000e+000	 1.003746631475995e+001
0	 7.933329999996681e+000	 7.066659999995865e+000	 1.003629931253819e+001
0	 7.933329999996682e+000	 7.133319999991935e+000	 1.003512716073069e+001
0	 7.933329999996681e+000	 7.199979999988401e+000	 1.003394873429208e+001
0	 7.933329999996681e+000	 7.266639999985467e+000	 1.003276290817700e+001
0	 7.933329999996682e+000	 7.333299999983334e+000	 1.003156855734009e+001
0	 8.000000000000000e+000	 6.666700000016668e+000	 1.004133375031845e+001
0	 7.999999999999999e+000	 6.733360000014532e+000	 1.004024069889899e+001
0	 8.000000000000000e+000	 6.800020000011601e+000	 1.003914762849682e+001
0	 7.999999999999999e+000	 6.866680000008068e+000	 1.003805337039790e+001
0	 8.000000000000000e+000	 6.933340000004133e+000	 1.003695675588817e+001
0	 8.000000000000000e+000	 7.000000000000000e+000	 1.003585661625357e+001
0	 7.999999999999999e+000	 7.066659999995867e+000	 1.003475178278005e+001
0	 8.000000000000000e+000	 7.133319999991934e+000	 1.003364108675356e+001
0	 8.000000000000000e+000	 7.199979999988400e+000	 1.003252335946004e+001
0	 8.000000000000000e+000	 7.266639999985467e+000	 1.003139743218542e+001
0	 8.000000000000000e+000	 7.333299999983335e+000	 1.003026213621567e+001
0	 7.333299999983336e+000	 7.333299999983336e+000	 1.004358988154027e+001
0	 7.333299999983333e+000	 7.399969999982150e+000	 1.004185722818832e+001
0	 7.333299999983334e+000	 7.466639999981866e+000	 1.004015097368063e+001
0	 7.333299999983335e+000	 7.533309999982384e+000	 1.003846937422634e+001
0	 7.333299999983334e+000	 7.599979999983599e+000	 1.003681068603459e+001
0	 7.333299999983335e+000	 7.666649999985417e+000	 1.003517316531451e+001
0	 7.333299999983335e+000	 7.733319999987733e+000	 1.003355506827521e+001
0	 7.333299999983334e+000	 7.799989999990448e+000	 1.003195465112588e+001
0	 7.333299999983332e+000	 7.866659999993465e+000	 1.003037017007562e+001
0	 7.333299999983333e+000	 7.933329999996682e+000	 1.002879988133357e+001
0	 7.333299999983335e+000	 8.000000000000000e+000	 1.002724204110888e+001
0	 7.399969999982149e+000	 7.333299999983334e+000	 1.004226830207059e+001
0	 7.399969999982149e+000	 7.399969999982149e+000	 1.004059455503522e+001
0	 7.399969999982149e+000	 7.466639999981866e+000	 1.003894611552540e+001
0	 7.399969999982149e+000	 7.533309999982385e+000	 1.003732121265456e+001
0	 7.399969999982151e+000	 7.599979999983598e+000	 1.003571807553609e+001
0	 7.399969999982151e+000	 7.666649999985417e+000	 1.003413493328343e+001
0	 7.399969999982150e+000	 7.733319999987732e+000	 1.003257001500997e+001
0	 7.399969999982150e+000	 7.799989999990451e+000	 1.003102154982912e+001
0	 7.399969999982150e+000	 7.866659999993467e+000	 1.002948776685434e+001
0	 7.399969999982151e+000	 7.933329999996683e+000	 1.002796689519899e+001
0	 7.399969999982150e+000	 8.000000000000000e+000	 1.002645716397652e+001
0	 7.466639999981864e+000	 7.333299999983332e+000	 1.004093589070456e+001
0	 7.466639999981866e+000	 7.399969999982149e+000	 1.003932191477795e+001
0	 7.466639999981866e+000	 7.466639999981866e+000	 1.003773200254059e+001
0	 7.466639999981864e+000	 7.533309999982383e+000	 1.003616436946854e+001
0	 7.466639999981866e+000	 7.599979999983601e+000	 1.003461723103780e+001
0	 7.466639999981867e+000	 7.666649999985418e+000	 1.003308880272444e+001
0	 7.466639999981866e+000	 7.733319999987733e+000	 1.003157730000449e+001
0	 7.466639999981867e+000	 7.799989999990451e+000	 1.003008093835398e+001
0	 7.466639999981867e+000	 7.866659999993466e+000	 1.002859793324896e+001
0	 7.466639999981868e+000	 7.933329999996684e+000	 1.002712650016546e+001
0	 7.466639999981866e+000	 8.000000000000000e+000	 1.002566485457953e+001
0	 7.533309999982382e+000	 7.333299999983334e+000	 1.003959577648139e+001
0	 7.533309999982382e+000	 7.399969999982148e+000	 1.003804218940332e+001
0	 7.533309999982383e+000	 7.466639999981866e+000	 1.003651129364797e+001
0	 7.533309999982382e+000	 7.533309999982384e+000	 1.003500130451239e+001
0	 7.533309999982381e+000	 7.599979999983600e+000	 1.003351043729353e+001
0	 7.533309999982382e+000	 7.666649999985416e+000	 1.003203690728845e+001
0	 7.533309999982383e+000	 7.733319999987733e+000	 1.003057892979414e+001
0	 7.533309999982382e+000	 7.799989999990448e+000	 1.002913472010763e+001
0	 7.533309999982383e+000	 7.866659999993468e+000	 1.002770249352590e+001
0	 7.533309999982383e+000	 7.933329999996684e+000	 1.002628046534599e+001
0	 7.533309999982381e+000	 8.000000000000000e+000	 1.002486685086490e+001
0	 7.599979999983598e+000	 7.333299999983333e+000	 1.003825108844035e+001
0	 7.599979999983599e+000	 7.399969999982149e+000	 1.003675826089815e+001
0	 7.599979999983599e+000	 7.466639999981867e+000	 1.003528664776932e+001
0	 7.599979999983599e+000	 7.533309999982382e+000	 1.003383447763019e+001
0	 7.599979999983599e+000	 7.599979999983599e+000	 1.003239997905709e+001
0	 7.599979999983598e+000	 7.666649999985414e+000	 1.003098138062635e+001
0	 7.599979999983599e+000	 7.733319999987732e+000	 1.002957691091429e+001
0	 7.599979999983597e+000	 7.799989999990448e+000	 1.002818479849728e+001
0	 7.599979999983597e+000	 7.866659999993466e+000	 1.002680327195160e+001
0	 7.599979999983599e+000	 7.933329999996683e+000	 1.002543055985361e+001
0	 7.599979999983599e+000	 8.000000000000002e+000	 1.002406489077965e+001
0	 7.666649999985414e+000	 7.333299999983332e+000	 1.003690495562065e+001
0	 7.666649999985414e+000	 7.399969999982150e+000	 1.003547301124926e+001
0	 7.666649999985416e+000	 7.466639999981868e+000	 1.003406072382640e+001
0	 7.666649999985416e+000	 7.533309999982385e+000	 1.003266634866607e+001
0	 7.666649999985416e+000	 7.599979999983599e+000	 1.003128814108229e+001
0	 7.666649999985414e+000	 7.666649999985416e+000	 1.002992435638904e+001
0	 7.666649999985415e+000	 7.733319999987731e+000	 1.002857324990032e+001
0	 7.666649999985415e+000	 7.799989999990449e+000	 1.002723307693014e+001
0	 7.666649999985415e+000	 7.866659999993464e+000	 1.002590209279249e+001
0	 7.666649999985415e+000	 7.933329999996682e+000	 1.002457855280137e+001
0	 7.666649999985416e+000	 8.000000000000000e+000	 1.002326071227079e+001
0	 7.733319999987732e+000	 7.333299999983334e+000	 1.003556050706154e+001
0	 7.733319999987732e+000	 7.399969999982149e+000	 1.003418932244343e+001
0	 7.733319999987731e+000	 7.466639999981865e+000	 1.003283618074096e+001
0	 7.733319999987733e+000	 7.533309999982383e+000	 1.003149937746412e+001
0	 7.733319999987733e+000	 7.599979999983600e+000	 1.003017720812292e+001
0	 7.733319999987731e+000	 7.666649999985416e+000	 1.002886796822740e+001
0	 7.733319999987733e+000	 7.733319999987733e+000	 1.002756995328756e+001
0	 7.733319999987732e+000	 7.799989999990451e+000	 1.002628145881341e+001
0	 7.733319999987731e+000	 7.866659999993465e+000	 1.002500078031498e+001
0	 7.733319999987732e+000	 7.933329999996683e+000	 1.002372621330228e+001
0	 7.733319999987733e+000	 8.000000000000000e+000	 1.002245605328531e+001
0	 7.799989999990448e+000	 7.333299999983335e+000	 1.003422087180225e+001
0	 7.799989999990448e+000	 7.399969999982151e+000	 1.003291007646750e+001
0	 7.799989999990449e+000	 7.466639999981866e+000	 1.003161567743477e+001
0	 7.799989999990447e+000	 7.533309999982383e+000	 1.003033602386842e+001
0	 7.799989999990448e+000	 7.599979999983599e+000	 1.002906946493282e+001
0	 7.799989999990450e+000	 7.666649999985416e+000	 1.002781434979235e+001
0	 7.799989999990449e+000	 7.733319999987733e+000	 1.002656902761139e+001
0	 7.799989999990450e+000	 7.799989999990451e+000	 1.002533184755432e+001
0	 7.799989999990447e+000	 7.866659999993467e+000	 1.002410115878551e+001
0	 7.799989999990449e+000	 7.933329999996683e+000	 1.002287531046937e+001
0	 7.799989999990449e+000	 8.000000000000000e+000	 1.002165265177024e+001
0	 7.866659999993464e+000	 7.333299999983334e+000	 1.003288917888201e+001
0	 7.866659999993463e+000	 7.399969999982149e+000	 1.003163815530829e+001
0	 7.866659999993464e+000	 7.466639999981867e+000	 1.003040187282962e+001
0	 7.866659999993465e+000	 7.533309999982383e+000	 1.002917874772308e+001
0	 7.866659999993463e+000	 7.599979999983600e+000	 1.002796719626576e+001
0	 7.866659999993464e+000	 7.666649999985419e+000	 1.002676563473476e+001
0	 7.866659999993466e+000	 7.733319999987733e+000	 1.002557247940717e+001
0	 7.866659999993465e+000	 7.799989999990449e+000	 1.002438614656006e+001
0	 7.866659999993465e+000	 7.866659999993468e+000	 1.002320505247053e+001
0	 7.866659999993465e+000	 7.933329999996684e+000	 1.002202761341566e+001
0	 7.866659999993464e+000	 8.000000000000000e+000	 1.002085224567256e+001
0	 7.933329999996682e+000	 7.333299999983334e+000	 1.003156855734009e+001
0	 7.933329999996682e+000	 7.399969999982150e+000	 1.003037644095258e+001
0	 7.933329999996682e+000	 7.466639999981866e+000	 1.002919742584724e+001
0	 7.933329999996681e+000	 7.533309999982383e+000	 1.002803000887220e+001
0	 7.933329999996681e+000	 7.599979999983600e+000	 1.002687268687559e+001
0	 7.933329999996682e+000	 7.666649999985416e+000	 1.002572395670557e+001
0	 7.933329999996682e+000	 7.733319999987733e+000	 1.002458231521026e+001
0	 7.933329999996682e+000	 7.799989999990450e+000	 1.002344625923784e+001
0	 7.933329999996681e+000	 7.866659999993467e+000	 1.002231428563643e+001
0	 7.933329999996682e+000	 7.933329999996685e+000	 1.002118489125420e+001
0	 7.933329999996680e+000	 8.000000000000000e+000	 1.002005657293927e+001
0	 8.000000000000000e+000	 7.333299999983335e+000	 1.003026213621567e+001
0	 8.000000000000000e+000	 7.399969999982151e+000	 1.002912781538722e+001
0	 8.000000000000000e+000	 7.466639999981867e+000	 1.002800499540943e+001
0	 8.000000000000000e+000	 7.533309999982385e+000	 1.002689226715988e+001
0	 8.000000000000000e+000	 7.599979999983599e+000	 1.002578822151609e+001
0	 7.999999999999999e+000	 7.666649999985416e+000	 1.002469144935562e+001
0	 7.999999999999999e+000	 7.733319999987732e+000	 1.002360054155603e+001
0	 7.999999999999999e+000	 7.799989999990448e+000	 1.002251408899486e+001
0	 7.999999999999998e+000	 7.866659999993465e+000	 1.002143068254966e+001
0	 8.000000000000000e+000	 7.933329999996684e+000	 1.002034891309799e+001
0	 7.999999999999999e+000	 7.999999999999999e+000	 1.001926737151740e+001
0	 7.333299999983335e+000	 8.000000000000000e+000	 1.002724204110888e+001
0	 7.333299999983335e+000	 8.066670000003317e+000	 1.002571030260561e+001
0	 7.333299999983332e+000	 8.133340000006532e+000	 1.002421810510632e+001
0	 7.333299999983334e+000	 8.200010000009550e+000	 1.002276338393794e+001
0	 7.333299999983334e+000	 8.266680000012268e+000	 1.002134407442736e+001
0	 7.333299999983335e+000	 8.333350000014585e+000	 1.001995811190147e+001
0	 7.333299999983333e+000	 8.400020000016399e+000	 1.001860343168717e+001
0	 7.333299999983334e+000	 8.466690000017620e+000	 1.001727796911140e+001
0	 7.333299999983332e+000	 8.533360000018135e+000	 1.001597965950103e+001
0	 7.333299999983335e+000	 8.600030000017853e+000	 1.001470643818299e+001
0	 7.333299999983334e+000	 8.666700000016665e+000	 1.001345624048417e+001
0	 7.399969999982150e+000	 8.000000000000000e+000	 1.002645716397652e+001
0	 7.399969999982151e+000	 8.066670000003315e+000	 1.002497210984606e+001
0	 7.399969999982150e+000	 8.133340000006532e+000	 1.002352511743404e+001
0	 7.399969999982151e+000	 8.200010000009549e+000	 1.002211418780482e+001
0	 7.399969999982152e+000	 8.266680000012268e+000	 1.002073732202277e+001
0	 7.399969999982150e+000	 8.333350000014583e+000	 1.001939252115222e+001
0	 7.399969999982150e+000	 8.400020000016399e+000	 1.001807778625756e+001
0	 7.399969999982149e+000	 8.466690000017612e+000	 1.001679111840312e+001
0	 7.399969999982150e+000	 8.533360000018133e+000	 1.001553051865328e+001
0	 7.399969999982149e+000	 8.600030000017851e+000	 1.001429398807240e+001
0	 7.399969999982150e+000	 8.666700000016668e+000	 1.001307952772483e+001
0	 7.466639999981866e+000	 8.000000000000000e+000	 1.002566485457953e+001
0	 7.466639999981865e+000	 8.066670000003317e+000	 1.002422646969985e+001
0	 7.466639999981867e+000	 8.133340000006532e+000	 1.002282471696644e+001
0	 7.466639999981867e+000	 8.200010000009552e+000	 1.002145765920220e+001
0	 7.466639999981864e+000	 8.266680000012267e+000	 1.002012335923013e+001
0	 7.466639999981866e+000	 8.333350000014583e+000	 1.001881987987313e+001
0	 7.466639999981867e+000	 8.400020000016401e+000	 1.001754528395419e+001
0	 7.466639999981865e+000	 8.466690000017618e+000	 1.001629763429626e+001
0	 7.466639999981866e+000	 8.533360000018135e+000	 1.001507499372227e+001
0	 7.466639999981865e+000	 8.600030000017849e+000	 1.001387542505519e+001
0	 7.466639999981866e+000	 8.666700000016668e+000	 1.001269699111799e+001
0	 7.533309999982381e+000	 8.000000000000000e+000	 1.002486685086490e+001
0	 7.533309999982383e+000	 8.066670000003311e+000	 1.002347509903895e+001
0	 7.533309999982381e+000	 8.133340000006529e+000	 1.002211859569490e+001
0	 7.533309999982382e+000	 8.200010000009550e+000	 1.002079546143543e+001
0	 7.533309999982383e+000	 8.266680000012267e+000	 1.001950381686324e+001
0	 7.533309999982383e+000	 8.333350000014583e+000	 1.001824178258099e+001
0	 7.533309999982381e+000	 8.400020000016401e+000	 1.001700747919139e+001
0	 7.533309999982381e+000	 8.466690000017614e+000	 1.001579902729711e+001
0	 7.533309999982384e+000	 8.533360000018137e+000	 1.001461454750084e+001
0	 7.533309999982381e+000	 8.600030000017851e+000	 1.001345216040527e+001
0	 7.533309999982382e+000	 8.666700000016668e+000	 1.001230998661310e+001
0	 7.599979999983599e+000	 8.000000000000002e+000	 1.002406489077965e+001
0	 7.599979999983598e+000	 8.066670000003315e+000	 1.002271971473525e+001
0	 7.599979999983598e+000	 8.133340000006532e+000	 1.002140844561079e+001
0	 7.599979999983599e+000	 8.200010000009552e+000	 1.002012925780982e+001
0	 7.599979999983597e+000	 8.266680000012265e+000	 1.001888032573589e+001
0	 7.599979999983600e+000	 8.333350000014585e+000	 1.001765982379258e+001
0	 7.599979999983599e+000	 8.400020000016401e+000	 1.001646592638343e+001
0	 7.599979999983598e+000	 8.466690000017614e+000	 1.001529680791199e+001
0	 7.599979999983598e+000	 8.533360000018133e+000	 1.001415064278186e+001
0	 7.599979999983599e+000	 8.600030000017849e+000	 1.001302560539654e+001
0	 7.599979999983598e+000	 8.666700000016666e+000	 1.001191987015968e+001
0	 7.666649999985416e+000	 8.000000000000000e+000	 1.002326071227079e+001
0	 7.666649999985414e+000	 8.066670000003315e+000	 1.002196203366072e+001
0	 7.666649999985416e+000	 8.133340000006538e+000	 1.002069595870550e+001
0	 7.666649999985417e+000	 8.200010000009550e+000	 1.001946071163072e+001
0	 7.666649999985415e+000	 8.266680000012270e+000	 1.001825451666191e+001
0	 7.666649999985416e+000	 8.333350000014583e+000	 1.001707559802468e+001
0	 7.666649999985417e+000	 8.400020000016403e+000	 1.001592217994461e+001
0	 7.666649999985417e+000	 8.466690000017618e+000	 1.001479248664723e+001
0	 7.666649999985415e+000	 8.533360000018135e+000	 1.001368474235817e+001
0	 7.666649999985415e+000	 8.600030000017851e+000	 1.001259717130295e+001
0	 7.666649999985416e+000	 8.666700000016666e+000	 1.001152799770719e+001
0	 7.733319999987733e+000	 8.000000000000000e+000	 1.002245605328531e+001
0	 7.733319999987732e+000	 8.066670000003317e+000	 1.002120377268726e+001
0	 7.733319999987733e+000	 8.133340000006534e+000	 1.001998282697037e+001
0	 7.733319999987732e+000	 8.200010000009552e+000	 1.001879148620340e+001
0	 7.733319999987731e+000	 8.266680000012267e+000	 1.001762802045508e+001
0	 7.733319999987732e+000	 8.333350000014585e+000	 1.001649069979411e+001
0	 7.733319999987732e+000	 8.400020000016399e+000	 1.001537779428923e+001
0	 7.733319999987732e+000	 8.466690000017616e+000	 1.001428757400917e+001
0	 7.733319999987731e+000	 8.533360000018131e+000	 1.001321830902264e+001
0	 7.733319999987731e+000	 8.600030000017851e+000	 1.001216826939835e+001
0	 7.733319999987731e+000	 8.666700000016666e+000	 1.001113572520509e+001
0	 7.799989999990449e+000	 8.000000000000000e+000	 1.002165265177024e+001
0	 7.799989999990448e+000	 8.066670000003317e+000	 1.002044664868680e+001
0	 7.799989999990447e+000	 8.133340000006534e+000	 1.001927074239680e+001
0	 7.799989999990449e+000	 8.200010000009554e+000	 1.001812324483326e+001
0	 7.799989999990448e+000	 8.266680000012267e+000	 1.001700246792919e+001
0	 7.799989999990448e+000	 8.333350000014583e+000	 1.001590672361764e+001
0	 7.799989999990448e+000	 8.400020000016403e+000	 1.001483432383159e+001
0	 7.799989999990447e+000	 8.466690000017618e+000	 1.001378358050407e+001
0	 7.799989999990449e+000	 8.533360000018135e+000	 1.001275280556810e+001
0	 7.799989999990450e+000	 8.600030000017851e+000	 1.001174031095671e+001
0	 7.799989999990448e+000	 8.666700000016668e+000	 1.001074440860290e+001
0	 7.866659999993464e+000	 8.000000000000000e+000	 1.002085224567256e+001
0	 7.866659999993463e+000	 8.066670000003315e+000	 1.001969237853128e+001
0	 7.866659999993464e+000	 8.133340000006532e+000	 1.001856139697614e+001
0	 7.866659999993466e+000	 8.200010000009550e+000	 1.001745765082558e+001
0	 7.866659999993466e+000	 8.266680000012268e+000	 1.001637948989808e+001
0	 7.866659999993464e+000	 8.333350000014585e+000	 1.001532526401206e+001
0	 7.866659999993465e+000	 8.400020000016401e+000	 1.001429332298598e+001
0	 7.866659999993463e+000	 8.466690000017618e+000	 1.001328201663829e+001
0	 7.866659999993466e+000	 8.533360000018133e+000	 1.001228969478744e+001
0	 7.866659999993464e+000	 8.600030000017851e+000	 1.001131470725188e+001
0	 7.866659999993464e+000	 8.666700000016666e+000	 1.001035540385006e+001
0	 7.933329999996680e+000	 8.000000000000000e+000	 1.002005657293927e+001
0	 7.933329999996682e+000	 8.066670000003317e+000	 1.001894267909261e+001
0	 7.933329999996682e+000	 8.133340000006534e+000	 1.001785648269976e+001
0	 7.933329999996682e+000	 8.200010000009552e+000	 1.001679636748572e+001
0	 7.933329999996682e+000	 8.266680000012268e+000	 1.001576071717551e+001
0	 7.933329999996681e+000	 8.333350000014583e+000	 1.001474791549417e+001
0	 7.933329999996680e+000	 8.400020000016399e+000	 1.001375634616669e+001
0	 7.933329999996681e+000	 8.466690000017616e+000	 1.001278439291814e+001
0	 7.933329999996680e+000	 8.533360000018133e+000	 1.001183043947351e+001
0	 7.933329999996681e+000	 8.600030000017849e+000	 1.001089286955781e+001
0	 7.933329999996682e+000	 8.666700000016668e+000	 1.000997006689611e+001
0	 7.999999999999999e+000	 7.999999999999999e+000	 1.001926737151740e+001
0	 7.999999999999998e+000	 8.066670000003319e+000	 1.001819926724276e+001
0	 8.000000000000000e+000	 8.133340000006534e+000	 1.001715769155903e+001
0	 7.999999999999999e+000	 8.200010000009550e+000	 1.001614105811897e+001
0	 7.999999999999999e+000	 8.266680000012268e+000	 1.001514778057529e+001
0	 8.000000000000000e+000	 8.333350000014585e+000	 1.001417627258074e+001
0	 7.999999999999998e+000	 8.400020000016397e+000	 1.001322494778803e+001
0	 8.000000000000000e+000	 8.466690000017618e+000	 1.001229221984994e+001
0	 7.999999999999998e+000	 8.533360000018131e+000	 1.001137650241914e+001
0	 8.000000000000000e+000	 8.600030000017851e+000	 1.001047620914841e+001
0	 8.000000000000000e+000	 8.666700000016666e+000	 1.000958975369048e+001
0	 7.333299999983334e+000	 8.666700000016665e+000	 1.001345624048417e+001
0	 7.333299999983335e+000	 8.733360002791903e+000	 1.001224770283005e+001
0	 7.333299999983333e+000	 8.800020022230555e+000	 1.001109874026195e+001
0	 7.333299999983335e+000	 8.866680074997040e+000	 1.001000676359546e+001
0	 7.333299999983334e+000	 8.933340177755779e+000	 1.000896918347886e+001
0	 7.333299999983333e+000	 9.000000347171179e+000	 1.000798341039304e+001
0	 7.333299999983335e+000	 9.066660599907667e+000	 1.000704685465150e+001
0	 7.333299999983334e+000	 9.133320952629655e+000	 1.000615692640044e+001
0	 7.333299999983333e+000	 9.199981422001558e+000	 1.000531103561864e+001
0	 7.333299999983333e+000	 9.266642024687794e+000	 1.000450659211756e+001
0	 7.333299999983334e+000	 9.333302777352781e+000	 1.000374100554125e+001
0	 7.399969999982150e+000	 8.666700000016668e+000	 1.001307952772483e+001
0	 7.399969999982152e+000	 8.733360002791905e+000	 1.001190540195405e+001
0	 7.399969999982151e+000	 8.800020022230557e+000	 1.001078916279941e+001
0	 7.399969999982150e+000	 8.866680074997044e+000	 1.000972828456120e+001
0	 7.399969999982151e+000	 8.933340177755779e+000	 1.000872024137711e+001
0	 7.399969999982149e+000	 9.000000347171181e+000	 1.000776250722218e+001
0	 7.399969999982152e+000	 9.066660599907667e+000	 1.000685255590885e+001
0	 7.399969999982149e+000	 9.133320952629655e+000	 1.000598786108689e+001
0	 7.399969999982152e+000	 9.199981422001560e+000	 1.000516589624347e+001
0	 7.399969999982149e+000	 9.266642024687798e+000	 1.000438413470315e+001
0	 7.399969999982149e+000	 9.333302777352783e+000	 1.000364004962779e+001
0	 7.466639999981866e+000	 8.666700000016668e+000	 1.001269699111798e+001
0	 7.466639999981866e+000	 8.733360002791901e+000	 1.001155756083359e+001
0	 7.466639999981867e+000	 8.800020022230555e+000	 1.001047430365119e+001
0	 7.466639999981867e+000	 8.866680074997042e+000	 1.000944475886903e+001
0	 7.466639999981868e+000	 8.933340177755783e+000	 1.000846646562744e+001
0	 7.466639999981867e+000	 9.000000347171183e+000	 1.000753696290894e+001
0	 7.466639999981866e+000	 9.066660599907666e+000	 1.000665378953821e+001
0	 7.466639999981865e+000	 9.133320952629653e+000	 1.000581448418200e+001
0	 7.466639999981867e+000	 9.199981422001560e+000	 1.000501658534930e+001
0	 7.466639999981866e+000	 9.266642024687799e+000	 1.000425763139119e+001
0	 7.466639999981866e+000	 9.333302777352785e+000	 1.000353516050094e+001
0	 7.533309999982382e+000	 8.666700000016668e+000	 1.001230998661310e+001
0	 7.533309999982383e+000	 8.733360002791901e+000	 1.001120548033851e+001
0	 7.533309999982384e+000	 8.800020022230555e+000	 1.001015541288554e+001
0	 7.533309999982383e+000	 8.866680074997040e+000	 1.000915739006357e+001
0	 7.533309999982381e+000	 8.933340177755778e+000	 1.000820901752889e+001
0	 7.533309999982383e+000	 9.000000347171184e+000	 1.000730790078483e+001
0	 7.533309999982382e+000	 9.066660599907669e+000	 1.000645164518160e+001
0	 7.533309999982384e+000	 9.133320952629660e+000	 1.000563785591642e+001
0	 7.533309999982383e+000	 9.199981422001558e+000	 1.000486413803347e+001
0	 7.533309999982383e+000	 9.266642024687794e+000	 1.000412809642386e+001
0	 7.533309999982382e+000	 9.333302777352783e+000	 1.000342733582568e+001
0	 7.599979999983598e+000	 8.666700000016666e+000	 1.001191987015968e+001
0	 7.599979999983599e+000	 8.733360002791901e+000	 1.001085046133870e+001
0	 7.599979999983599e+000	 8.800020022230555e+000	 1.000983374057069e+001
0	 7.599979999983599e+000	 8.866680074997040e+000	 1.000886738168942e+001
0	 7.599979999983599e+000	 8.933340177755781e+000	 1.000794905838049e+001
0	 7.599979999983598e+000	 9.000000347171183e+000	 1.000707644418131e+001
0	 7.599979999983599e+000	 9.066660599907667e+000	 1.000624721248108e+001
0	 7.599979999983598e+000	 9.133320952629656e+000	 1.000545903652081e+001
0	 7.599979999983598e+000	 9.199981422001558e+000	 1.000470958939334e+001
0	 7.599979999983599e+000	 9.266642024687798e+000	 1.000399654404325e+001
0	 7.599979999983600e+000	 9.333302777352783e+000	 1.000331757326700e+001
0	 7.666649999985416e+000	 8.666700000016666e+000	 1.001152799770719e+001
0	 7.666649999985416e+000	 8.733360002791903e+000	 1.001049380470404e+001
0	 7.666649999985416e+000	 8.800020022230557e+000	 1.000951053677486e+001
0	 7.666649999985414e+000	 8.866680074997042e+000	 1.000857593729118e+001
0	 7.666649999985414e+000	 8.933340177755778e+000	 1.000768774948124e+001
0	 7.666649999985416e+000	 9.000000347171184e+000	 1.000684371642988e+001
0	 7.666649999985416e+000	 9.066660599907667e+000	 1.000604158107865e+001
0	 7.666649999985417e+000	 9.133320952629656e+000	 1.000527908622582e+001
0	 7.666649999985415e+000	 9.199981422001560e+000	 1.000455397452624e+001
0	 7.666649999985415e+000	 9.266642024687796e+000	 1.000386398849152e+001
0	 7.666649999985414e+000	 9.333302777352781e+000	 1.000320687048987e+001
0	 7.733319999987731e+000	 8.666700000016666e+000	 1.001113572520509e+001
0	 7.733319999987732e+000	 8.733360002791903e+000	 1.001013681130435e+001
0	 7.733319999987732e+000	 8.800020022230553e+000	 1.000918705156628e+001
0	 7.733319999987728e+000	 8.866680074997039e+000	 1.000828426041350e+001
0	 7.733319999987732e+000	 8.933340177755776e+000	 1.000742625213016e+001
0	 7.733319999987731e+000	 9.000000347171181e+000	 1.000661084086203e+001
0	 7.733319999987733e+000	 9.066660599907671e+000	 1.000583584061640e+001
0	 7.733319999987730e+000	 9.133320952629655e+000	 1.000509906526209e+001
0	 7.733319999987730e+000	 9.199981422001558e+000	 1.000439832852957e+001
0	 7.733319999987730e+000	 9.266642024687796e+000	 1.000373144401080e+001
0	 7.733319999987732e+000	 9.333302777352783e+000	 1.000309622515925e+001
0	 7.799989999990448e+000	 8.666700000016668e+000	 1.001074440860290e+001
0	 7.799989999990449e+000	 8.733360002791901e+000	 1.000978078200955e+001
0	 7.799989999990448e+000	 8.800020022230555e+000	 1.000886453501320e+001
0	 7.799989999990448e+000	 8.866680074997042e+000	 1.000799355460095e+001
0	 7.799989999990448e+000	 8.933340177755778e+000	 1.000716572762629e+001
0	 7.799989999990448e+000	 9.000000347171177e+000	 1.000637894080927e+001
0	 7.799989999990449e+000	 9.066660599907667e+000	 1.000563108073631e+001
0	 7.799989999990448e+000	 9.133320952629656e+000	 1.000492003386032e+001
0	 7.799989999990447e+000	 9.199981422001557e+000	 1.000424368650068e+001
0	 7.799989999990448e+000	 9.266642024687796e+000	 1.000359992484319e+001
0	 7.799989999990449e+000	 9.333302777352783e+000	 1.000298663494012e+001
0	 7.866659999993464e+000	 8.666700000016666e+000	 1.001035540385006e+001
0	 7.866659999993465e+000	 8.733360002791903e+000	 1.000942701768951e+001
0	 7.866659999993463e+000	 8.800020022230555e+000	 1.000854423718388e+001
0	 7.866659999993464e+000	 8.866680074997042e+000	 1.000770502339815e+001
0	 7.866659999993463e+000	 8.933340177755778e+000	 1.000690733726866e+001
0	 7.866659999993466e+000	 9.000000347171183e+000	 1.000614913960309e+001
0	 7.866659999993466e+000	 9.066660599907667e+000	 1.000542839108044e+001
0	 7.866659999993464e+000	 9.133320952629655e+000	 1.000474305225113e+001
0	 7.866659999993464e+000	 9.199981422001558e+000	 1.000409108353690e+001
0	 7.866659999993464e+000	 9.266642024687796e+000	 1.000347044523088e+001
0	 7.866659999993464e+000	 9.333302777352783e+000	 1.000287909749750e+001
0	 7.933329999996682e+000	 8.666700000016668e+000	 1.000997006689611e+001
0	 7.933329999996679e+000	 8.733360002791898e+000	 1.000907681921405e+001
0	 7.933329999996682e+000	 8.800020022230557e+000	 1.000822740814651e+001
0	 7.933329999996681e+000	 8.866680074997040e+000	 1.000741987034974e+001
0	 7.933329999996681e+000	 8.933340177755778e+000	 1.000665224235628e+001
0	 7.933329999996682e+000	 9.000000347171183e+000	 1.000592256057496e+001
0	 7.933329999996679e+000	 9.066660599907664e+000	 1.000522886129081e+001
0	 7.933329999996680e+000	 9.133320952629655e+000	 1.000456918066520e+001
0	 7.933329999996682e+000	 9.199981422001557e+000	 1.000394155473563e+001
0	 7.933329999996682e+000	 9.266642024687796e+000	 1.000334401941598e+001
0	 7.933329999996682e+000	 9.333302777352783e+000	 1.000277461049629e+001
0	 8.000000000000000e+000	 8.666700000016666e+000	 1.000958975369048e+001
0	 8.000000000000000e+000	 8.733360002791905e+000	 1.000873148745310e+001
0	 7.999999999999999e+000	 8.800020022230555e+000	 1.000791529796933e+001
0	 8.000000000000002e+000	 8.866680074997042e+000	 1.000713929900028e+001
0	 8.000000000000002e+000	 8.933340177755778e+000	 1.000640160418818e+001
0	 8.000000000000002e+000	 9.000000347171184e+000	 1.000570032705640e+001
0	 8.000000000000000e+000	 9.066660599907667e+000	 1.000503358100950e+001
0	 8.000000000000000e+000	 9.133320952629655e+000	 1.000439947933316e+001
0	 7.999999999999999e+000	 9.199981422001558e+000	 1.000379613519421e+001
0	 8.000000000000000e+000	 9.266642024687796e+000	 1.000322166164063e+001
0	 7.999999999999999e+000	 9.333302777352781e+000	 1.000267417160155e+001
0	 7.333299999983334e+000	 9.333302777352781e+000	 1.000374100554126e+001
0	 7.333299999983336e+000	 9.399973674588173e+000	 1.000303511161325e+001
0	 7.333299999983334e+000	 9.466644621844624e+000	 1.000240973975020e+001
0	 7.333299999983333e+000	 9.533315502449998e+000	 1.000186195506749e+001
0	 7.333299999983335e+000	 9.599986199732195e+000	 1.000138882434783e+001
0	 7.333299999983334e+000	 9.666656597019097e+000	 1.000098741604109e+001
0	 7.333299999983333e+000	 9.733326577638573e+000	 1.000065480026448e+001
0	 7.333299999983335e+000	 9.799996024918523e+000	 1.000038804880253e+001
0	 7.333299999983333e+000	 9.866664822186822e+000	 1.000018423510729e+001
0	 7.333299999983333e+000	 9.933332852771354e+000	 1.000004043429854e+001
0	 7.333299999983335e+000	 1.000000000000000e+001	 9.999953723163916e+000
0	 7.399969999982149e+000	 9.333302777352783e+000	 1.000364004962779e+001
0	 7.399969999982149e+000	 9.399973674588175e+000	 1.000295398706180e+001
0	 7.399969999982151e+000	 9.466644621844621e+000	 1.000234629658687e+001
0	 7.399969999982150e+000	 9.533315502449998e+000	 1.000181413099288e+001
0	 7.399969999982151e+000	 9.599986199732200e+000	 1.000135464469208e+001
0	 7.399969999982150e+000	 9.666656597019095e+000	 1.000096499371897e+001
0	 7.399969999982149e+000	 9.733326577638572e+000	 1.000064233573050e+001
0	 7.399969999982151e+000	 9.799996024918524e+000	 1.000038383000610e+001
0	 7.399969999982151e+000	 9.866664822186824e+000	 1.000018663744778e+001
0	 7.399969999982149e+000	 9.933332852771351e+000	 1.000004792058024e+001
0	 7.399969999982150e+000	 1.000000000000000e+001	 9.999964843551274e+000
0	 7.466639999981866e+000	 9.333302777352785e+000	 1.000353516050094e+001
0	 7.466639999981864e+000	 9.399973674588175e+000	 1.000286900723011e+001
0	 7.466639999981864e+000	 9.466644621844617e+000	 1.000227901709666e+001
0	 7.466639999981866e+000	 9.533315502449998e+000	 1.000176242850342e+001
0	 7.466639999981864e+000	 9.599986199732195e+000	 1.000131648142980e+001
0	 7.466639999981867e+000	 9.666656597019093e+000	 1.000093841743187e+001
0	 7.466639999981865e+000	 9.733326577638575e+000	 1.000062547964238e+001
0	 7.466639999981867e+000	 9.799996024918523e+000	 1.000037491277090e+001
0	 7.466639999981867e+000	 9.866664822186822e+000	 1.000018396310390e+001
0	 7.466639999981866e+000	 9.933332852771354e+000	 1.000004987850489e+001
0	 7.466639999981865e+000	 1.000000000000000e+001	 9.999969908414714e+000
0	 7.533309999982382e+000	 9.333302777352783e+000	 1.000342733582568e+001
0	 7.533309999982383e+000	 9.399973674588177e+000	 1.000278116080270e+001
0	 7.533309999982384e+000	 9.466644621844623e+000	 1.000220889190340e+001
0	 7.533309999982381e+000	 9.533315502450003e+000	 1.000170785108192e+001
0	 7.533309999982382e+000	 9.599986199732195e+000	 1.000127536182268e+001
0	 7.533309999982382e+000	 9.666656597019092e+000	 1.000090874914035e+001
0	 7.533309999982382e+000	 9.733326577638575e+000	 1.000060533957997e+001
0	 7.533309999982382e+000	 9.799996024918523e+000	 1.000036246121700e+001
0	 7.533309999982383e+000	 9.866664822186824e+000	 1.000017744365753e+001
0	 7.533309999982383e+000	 9.933332852771351e+000	 1.000004761803825e+001
0	 7.533309999982381e+000	 1.000000000000000e+001	 9.999970317026920e+000
0	 7.599979999983600e+000	 9.333302777352783e+000	 1.000331757326700e+001
0	 7.599979999983598e+000	 9.399973674588177e+000	 1.000269143646415e+001
0	 7.599979999983600e+000	 9.466644621844619e+000	 1.000213691163090e+001
0	 7.599979999983599e+000	 9.533315502450002e+000	 1.000165140221118e+001
0	 7.599979999983599e+000	 9.599986199732197e+000	 1.000123231313229e+001
0	 7.599979999983598e+000	 9.666656597019093e+000	 1.000087705080487e+001
0	 7.599979999983598e+000	 9.733326577638575e+000	 1.000058302312305e+001
0	 7.599979999983598e+000	 9.799996024918524e+000	 1.000034763946453e+001
0	 7.599979999983598e+000	 9.866664822186820e+000	 1.000016831069054e+001
0	 7.599979999983598e+000	 9.933332852771352e+000	 1.000004244914623e+001
0	 7.599979999983598e+000	 1.000000000000000e+001	 9.999967468660696e+000
0	 7.666649999985414e+000	 9.333302777352781e+000	 1.000320687048987e+001
0	 7.666649999985415e+000	 9.399973674588175e+000	 1.000260082289898e+001
0	 7.666649999985416e+000	 9.466644621844621e+000	 1.000206406690297e+001
0	 7.666649999985415e+000	 9.533315502450000e+000	 1.000159408537398e+001
0	 7.666649999985416e+000	 9.599986199732197e+000	 1.000118836262024e+001
0	 7.666649999985413e+000	 9.666656597019092e+000	 1.000084438438597e+001
0	 7.666649999985415e+000	 9.733326577638577e+000	 1.000055963785157e+001
0	 7.666649999985416e+000	 9.799996024918523e+000	 1.000033161163354e+001
0	 7.666649999985416e+000	 9.866664822186825e+000	 1.000015779578473e+001
0	 7.666649999985415e+000	 9.933332852771354e+000	 1.000003568179456e+001
0	 7.666649999985414e+000	 9.999999999999998e+000	 9.999962762588872e+000
0	 7.733319999987732e+000	 9.333302777352783e+000	 1.000309622515925e+001
0	 7.733319999987731e+000	 9.399973674588173e+000	 1.000251030879176e+001
0	 7.733319999987732e+000	 9.466644621844621e+000	 1.000199134834344e+001
0	 7.733319999987730e+000	 9.533315502450000e+000	 1.000153690405316e+001
0	 7.733319999987731e+000	 9.599986199732197e+000	 1.000114453754819e+001
0	 7.733319999987732e+000	 9.666656597019093e+000	 1.000081181184420e+001
0	 7.733319999987730e+000	 9.733326577638575e+000	 1.000053629134532e+001
0	 7.733319999987732e+000	 9.799996024918523e+000	 1.000031554184420e+001
0	 7.733319999987733e+000	 9.866664822186822e+000	 1.000014713052208e+001
0	 7.733319999987733e+000	 9.933332852771356e+000	 1.000002862594906e+001
0	 7.733319999987730e+000	 9.999999999999998e+000	 9.999957598084198e+000
0	 7.799989999990449e+000	 9.333302777352783e+000	 1.000298663494012e+001
0	 7.799989999990450e+000	 9.399973674588177e+000	 1.000242088282704e+001
0	 7.799989999990447e+000	 9.466644621844619e+000	 1.000191974657612e+001
0	 7.799989999990448e+000	 9.533315502450002e+000	 1.000148086173146e+001
0	 7.799989999990447e+000	 9.599986199732198e+000	 1.000110186517769e+001
0	 7.799989999990448e+000	 9.666656597019095e+000	 1.000078039514004e+001
0	 7.799989999990448e+000	 9.733326577638575e+000	 1.000051409118420e+001
0	 7.799989999990449e+000	 9.799996024918524e+000	 1.000030059421660e+001
0	 7.799989999990447e+000	 9.866664822186824e+000	 1.000013754648440e+001
0	 7.799989999990449e+000	 9.933332852771354e+000	 1.000002259157558e+001
0	 7.799989999990447e+000	 9.999999999999998e+000	 9.999953374419510e+000
0	 7.866659999993464e+000	 9.333302777352783e+000	 1.000287909749750e+001
0	 7.866659999993463e+000	 9.399973674588175e+000	 1.000233353368938e+001
0	 7.866659999993465e+000	 9.466644621844623e+000	 1.000185025222481e+001
0	 7.866659999993464e+000	 9.533315502450002e+000	 1.000142696189168e+001
0	 7.866659999993463e+000	 9.599986199732197e+000	 1.000106137277041e+001
0	 7.866659999993463e+000	 9.666656597019093e+000	 1.000075119623398e+001
0	 7.866659999993464e+000	 9.733326577638573e+000	 1.000049414494805e+001
0	 7.866659999993464e+000	 9.799996024918523e+000	 1.000028793287084e+001
0	 7.866659999993463e+000	 9.866664822186820e+000	 1.000013027525346e+001
0	 7.866659999993463e+000	 9.933332852771352e+000	 1.000001888864000e+001
0	 7.866659999993463e+000	 1.000000000000000e+001	 9.999951490867638e+000
0	 7.933329999996682e+000	 9.333302777352783e+000	 1.000277461049629e+001
0	 7.933329999996681e+000	 9.399973674588175e+000	 1.000224925006329e+001
0	 7.933329999996682e+000	 9.466644621844621e+000	 1.000178385591336e+001
0	 7.933329999996682e+000	 9.533315502449998e+000	 1.000137620801665e+001
0	 7.933329999996682e+000	 9.599986199732197e+000	 1.000102408758793e+001
0	 7.933329999996682e+000	 9.666656597019095e+000	 1.000072527708658e+001
0	 7.933329999996682e+000	 9.733326577638577e+000	 1.000047756021665e+001
0	 7.933329999996682e+000	 9.799996024918523e+000	 1.000027872192699e+001
0	 7.933329999996681e+000	 9.866664822186824e+000	 1.000012654841129e+001
0	 7.933329999996682e+000	 9.933332852771354e+000	 1.000001882710808e+001
0	 7.933329999996681e+000	 1.000000000000000e+001	 9.999953346701329e+000
0	 7.999999999999999e+000	 9.333302777352781e+000	 1.000267417160155e+001
0	 8.000000000000000e+000	 9.399973674588175e+000	 1.000216902063334e+001
0	 8.000000000000000e+000	 9.466644621844621e+000	 1.000172154826557e+001
0	 8.000000000000000e+000	 9.533315502449998e+000	 1.000132960358915e+001
0	 8.000000000000000e+000	 9.599986199732197e+000	 1.000099103689187e+001
0	 8.000000000000000e+000	 9.666656597019093e+000	 1.000070369965832e+001
0	 8.000000000000000e+000	 9.733326577638575e+000	 1.000046544456998e+001
0	 8.000000000000000e+000	 9.799996024918524e+000	 1.000027412550527e+001
0	 7.999999999999997e+000	 9.866664822186822e+000	 1.000012759753961e+001
0	 8.000000000000000e+000	 9.933332852771352e+000	 1.000002371694568e+001
0	 8.000000000000000e+000	 1.000000000000000e+001	 9.999960341193409e+000
0	 8.000000000000000e+000	 0.000000000000000e+000	 9.994197171278893e+000
0	 8.000000000000002e+000	 6.666714722864757e-002	 9.993859220042447e+000
0	 8.000000000000000e+000	 1.333351778131789e-001	 9.993662512610744e+000
0	 8.000000000000000e+000	 2.000039750814773e-001	 9.993610059311964e+000
0	 8.000000000000002e+000	 2.666734223614256e-001	 9.993704873096597e+000
0	 8.000000000000000e+000	 3.333434029809069e-001	 9.993949969537166e+000
0	 8.000000000000000e+000	 4.000138002678044e-001	 9.994348366828021e+000
0	 8.000000000000000e+000	 4.666844975500011e-001	 9.994903085785156e+000
0	 7.999999999999999e+000	 5.333553781553803e-001	 9.995617149846149e+000
0	 8.000000000000000e+000	 6.000263254118246e-001	 9.996493585070160e+000
0	 7.999999999999999e+000	 6.666972226472177e-001	 9.997535420137957e+000
0	 8.066670000003317e+000	 0.000000000000000e+000	 9.988205782633177e+000
0	 8.066670000003313e+000	 6.666714722864754e-002	 9.987718687469080e+000
0	 8.066670000003317e+000	 1.333351778131789e-001	 9.987394867505344e+000
0	 8.066670000003317e+000	 2.000039750814772e-001	 9.987236378428854e+000
0	 8.066670000003315e+000	 2.666734223614256e-001	 9.987245278577413e+000
0	 8.066670000003319e+000	 3.333434029809069e-001	 9.987423628939496e+000
0	 8.066670000003315e+000	 4.000138002678044e-001	 9.987773493154062e+000
0	 8.066670000003317e+000	 4.666844975500010e-001	 9.988296937510292e+000
0	 8.066670000003320e+000	 5.333553781553803e-001	 9.988996030947607e+000
0	 8.066670000003317e+000	 6.000263254118247e-001	 9.989872845055633e+000
0	 8.066670000003317e+000	 6.666972226472177e-001	 9.990929454074204e+000
0	 8.133340000006534e+000	 0.000000000000000e+000	 9.981982537455568e+000
0	 8.133340000006532e+000	 6.666714722864753e-002	 9.981431838783580e+000
0	 8.133340000006534e+000	 1.333351778131789e-001	 9.981053217697244e+000
0	 8.133340000006534e+000	 2.000039750814772e-001	 9.980847919681660e+000
0	 8.133340000006530e+000	 2.666734223614255e-001	 9.980817192789642e+000
0	 8.133340000006534e+000	 3.333434029809068e-001	 9.980962287641498e+000
0	 8.133340000006532e+000	 4.000138002678044e-001	 9.981284457424815e+000
0	 8.133340000006538e+000	 4.666844975500012e-001	 9.981784957894252e+000
0	 8.133340000006534e+000	 5.333553781553803e-001	 9.982465047371534e+000
0	 8.133340000006534e+000	 6.000263254118247e-001	 9.983325986745443e+000
0	 8.133340000006532e+000	 6.666972226472178e-001	 9.984369039471796e+000
0	 8.200010000009550e+000	 0.000000000000000e+000	 9.975543817592460e+000
0	 8.200010000009552e+000	 6.666714722864757e-002	 9.975001230150378e+000
0	 8.200010000009550e+000	 1.333351778131790e-001	 9.974628530205065e+000
0	 8.200010000009550e+000	 2.000039750814773e-001	 9.974426297335443e+000
0	 8.200010000009547e+000	 2.666734223614256e-001	 9.974395113516664e+000
0	 8.200010000009549e+000	 3.333434029809069e-001	 9.974535563119824e+000
0	 8.200010000009550e+000	 4.000138002678044e-001	 9.974848232911768e+000
0	 8.200010000009549e+000	 4.666844975500011e-001	 9.975333712054974e+000
0	 8.200010000009550e+000	 5.333553781553800e-001	 9.975992592107499e+000
0	 8.200010000009549e+000	 6.000263254118246e-001	 9.976825467022954e+000
0	 8.200010000009550e+000	 6.666972226472175e-001	 9.977832933150557e+000
0	 8.266680000012267e+000	 0.000000000000000e+000	 9.968906004890226e+000
0	 8.266680000012267e+000	 6.666714722864753e-002	 9.968429417733926e+000
0	 8.266680000012268e+000	 1.333351778131790e-001	 9.968111772047429e+000
0	 8.266680000012263e+000	 2.000039750814772e-001	 9.967953125655289e+000
0	 8.266680000012267e+000	 2.666734223614256e-001	 9.967953538541867e+000
0	 8.266680000012265e+000	 3.333434029809068e-001	 9.968113072851127e+000
0	 8.266680000012265e+000	 4.000138002678043e-001	 9.968431792886415e+000
0	 8.266680000012267e+000	 4.666844975500011e-001	 9.968909765110420e+000
0	 8.266680000012268e+000	 5.333553781553803e-001	 9.969547058145055e+000
0	 8.266680000012265e+000	 6.000263254118247e-001	 9.970343742771521e+000
0	 8.266680000012265e+000	 6.666972226472178e-001	 9.971299891930325e+000
0	 8.333350000014583e+000	 0.000000000000000e+000	 9.962085481195265e+000
0	 8.333350000014583e+000	 6.666714722864756e-002	 9.961718957698670e+000
0	 8.333350000014582e+000	 1.333351778131790e-001	 9.961493910242972e+000
0	 8.333350000014582e+000	 2.000039750814773e-001	 9.961410018906236e+000
0	 8.333350000014582e+000	 2.666734223614256e-001	 9.961466965648624e+000
0	 8.333350000014585e+000	 3.333434029809069e-001	 9.961664434312070e+000
0	 8.333350000014582e+000	 4.000138002678043e-001	 9.962002110620272e+000
0	 8.333350000014582e+000	 4.666844975500012e-001	 9.962479682178538e+000
0	 8.333350000014583e+000	 5.333553781553800e-001	 9.963096838473772e+000
0	 8.333350000014582e+000	 6.000263254118247e-001	 9.963853270874497e+000
0	 8.333350000014583e+000	 6.666972226472178e-001	 9.964748672630920e+000
0	 8.400020000016399e+000	 0.000000000000000e+000	 9.955098628353962e+000
0	 8.400020000016397e+000	 6.666714722864754e-002	 9.954872406209056e+000
0	 8.400020000016399e+000	 1.333351778131789e-001	 9.954765911810306e+000
0	 8.400020000016401e+000	 2.000039750814772e-001	 9.954778591353382e+000
0	 8.400020000016401e+000	 2.666734223614255e-001	 9.954909892620302e+000
0	 8.400020000016399e+000	 3.333434029809069e-001	 9.955159264979320e+000
0	 8.400020000016399e+000	 4.000138002678044e-001	 9.955526159384814e+000
0	 8.400020000016401e+000	 4.666844975500011e-001	 9.956010028377269e+000
0	 8.400020000016399e+000	 5.333553781553803e-001	 9.956610326083206e+000
0	 8.400020000016399e+000	 6.000263254118247e-001	 9.957326508215251e+000
0	 8.400020000016399e+000	 6.666972226472177e-001	 9.958158032072175e+000
0	 8.466690000017616e+000	 0.000000000000000e+000	 9.947961828212701e+000
0	 8.466690000017616e+000	 6.666714722864756e-002	 9.947892319429494e+000
0	 8.466690000017616e+000	 1.333351778131790e-001	 9.947918743768078e+000
0	 8.466690000017616e+000	 2.000039750814772e-001	 9.948040457261772e+000
0	 8.466690000017614e+000	 2.666734223614254e-001	 9.948256817240285e+000
0	 8.466690000017616e+000	 3.333434029809069e-001	 9.948567182329528e+000
0	 8.466690000017616e+000	 4.000138002678044e-001	 9.948970912451554e+000
0	 8.466690000017616e+000	 4.666844975500011e-001	 9.949467368824577e+000
0	 8.466690000017618e+000	 5.333553781553803e-001	 9.950055913962931e+000
0	 8.466690000017618e+000	 6.000263254118248e-001	 9.950735911677127e+000
0	 8.466690000017614e+000	 6.666972226472175e-001	 9.951506727073937e+000
0	 8.533360000018131e+000	 0.000000000000000e+000	 9.940691462617876e+000
0	 8.533360000018131e+000	 6.666714722864756e-002	 9.940781253524463e+000
0	 8.533360000018131e+000	 1.333351778131789e-001	 9.940943373134889e+000
0	 8.533360000018131e+000	 2.000039750814772e-001	 9.941177230896486e+000
0	 8.533360000018131e+000	 2.666734223614256e-001	 9.941482237291963e+000
0	 8.533360000018131e+000	 3.333434029809069e-001	 9.941857803839357e+000
0	 8.533360000018135e+000	 4.000138002678044e-001	 9.942303343091988e+000
0	 8.533360000018130e+000	 4.666844975500010e-001	 9.942818268638407e+000
0	 8.533360000018131e+000	 5.333553781553803e-001	 9.943401995102510e+000
0	 8.533360000018133e+000	 6.000263254118247e-001	 9.944053938143503e+000
0	 8.533360000018133e+000	 6.666972226472177e-001	 9.944773514456003e+000
0	 8.600030000017849e+000	 0.000000000000000e+000	 9.933303913415855e+000
0	 8.600030000017847e+000	 6.666714722864754e-002	 9.933541764658386e+000
0	 8.600030000017849e+000	 1.333351778131790e-001	 9.933830766929390e+000
0	 8.600030000017851e+000	 2.000039750814772e-001	 9.934170526522584e+000
0	 8.600030000017849e+000	 2.666734223614255e-001	 9.934560650558712e+000
0	 8.600030000017849e+000	 3.333434029809069e-001	 9.935000746985489e+000
0	 8.600030000017847e+000	 4.000138002678044e-001	 9.935490424577608e+000
0	 8.600030000017851e+000	 4.666844975500012e-001	 9.936029292936714e+000
0	 8.600030000017849e+000	 5.333553781553803e-001	 9.936616962491511e+000
0	 8.600030000017849e+000	 6.000263254118248e-001	 9.937253044497725e+000
0	 8.600030000017851e+000	 6.666972226472178e-001	 9.937937151038254e+000
0	 8.666700000016666e+000	 0.000000000000000e+000	 9.925815562453041e+000
0	 8.666700000016668e+000	 6.666714722864757e-002	 9.926176408995708e+000
0	 8.666700000016665e+000	 1.333351778131789e-001	 9.926571892170200e+000
0	 8.666700000016668e+000	 2.000039750814772e-001	 9.927001958405141e+000
0	 8.666700000016666e+000	 2.666734223614256e-001	 9.927466554823903e+000
0	 8.666700000016666e+000	 3.333434029809069e-001	 9.927965629244564e+000
0	 8.666700000016668e+000	 4.000138002678044e-001	 9.928499130179919e+000
0	 8.666700000016665e+000	 4.666844975500011e-001	 9.929067006837457e+000
0	 8.666700000016666e+000	 5.333553781553801e-001	 9.929669209119503e+000
0	 8.666700000016666e+000	 6.000263254118248e-001	 9.930305687623161e+000
0	 8.666700000016668e+000	 6.666972226472177e-001	 9.930976393640473e+000
0	 7.999999999999999e+000	 6.666972226472177e-001	 9.997535420137957e+000
0	 8.000000000000000e+000	 7.333579753122049e-001	 9.998659299450349e+000
0	 8.000000000000000e+000	 8.000185779984418e-001	 9.999783229207043e+000
0	 8.000000000000000e+000	 8.666790473703454e-001	 1.000091177619715e+001
0	 8.000000000000000e+000	 9.333394000923323e-001	 1.000204950709467e+001
0	 8.000000000000000e+000	 9.999996528288189e-001	 1.000320098845852e+001
0	 8.000000000000000e+000	 1.066659822244222e+000	 1.000437078673251e+001
0	 8.000000000000000e+000	 1.133319925002959e+000	 1.000556346824539e+001
0	 8.000000000000000e+000	 1.199979977769445e+000	 1.000678359921080e+001
0	 7.999999999999999e+000	 1.266639997208097e+000	 1.000803574572730e+001
0	 8.000000000000000e+000	 1.333299999983334e+000	 1.000932447377837e+001
0	 8.066670000003317e+000	 6.666972226472177e-001	 9.990929454074204e+000
0	 8.066670000003317e+000	 7.333579753122047e-001	 9.992075196869767e+000
0	 8.066670000003317e+000	 8.000185779984416e-001	 9.993220893795824e+000
0	 8.066670000003317e+000	 8.666790473703450e-001	 9.994370327022045e+000
0	 8.066670000003317e+000	 9.333394000923323e-001	 9.995527278618013e+000
0	 8.066670000003319e+000	 9.999996528288189e-001	 9.996695530553300e+000
0	 8.066670000003317e+000	 1.066659822244222e+000	 9.997878864697368e+000
0	 8.066670000003317e+000	 1.133319925002959e+000	 9.999081062819650e+000
0	 8.066670000003317e+000	 1.199979977769445e+000	 1.000030590658955e+001
0	 8.066670000003319e+000	 1.266639997208098e+000	 1.000155717757636e+001
0	 8.066670000003317e+000	 1.333299999983334e+000	 1.000283865724940e+001
0	 8.133340000006532e+000	 6.666972226472178e-001	 9.984369039471796e+000
0	 8.133340000006532e+000	 7.333579753122046e-001	 9.985504571817518e+000
0	 8.133340000006532e+000	 8.000185779984416e-001	 9.986644505076248e+000
0	 8.133340000006536e+000	 8.666790473703453e-001	 9.987791926585663e+000
0	 8.133340000006532e+000	 9.333394000923319e-001	 9.988949923589733e+000
0	 8.133340000006534e+000	 9.999996528288190e-001	 9.990121583238839e+000
0	 8.133340000006532e+000	 1.066659822244222e+000	 9.991309992589706e+000
0	 8.133340000006532e+000	 1.133319925002959e+000	 9.992518238605461e+000
0	 8.133340000006530e+000	 1.199979977769445e+000	 9.993749408155560e+000
0	 8.133340000006534e+000	 1.266639997208098e+000	 9.995006588015881e+000
0	 8.133340000006532e+000	 1.333299999983334e+000	 9.996292864868634e+000
0	 8.200010000009550e+000	 6.666972226472175e-001	 9.977832933150559e+000
0	 8.200010000009552e+000	 7.333579753122049e-001	 9.978933106634720e+000
0	 8.200010000009550e+000	 8.000185779984418e-001	 9.980045688229758e+000
0	 8.200010000009552e+000	 8.666790473703453e-001	 9.981173160217971e+000
0	 8.200010000009550e+000	 9.333394000923322e-001	 9.982318004787340e+000
0	 8.200010000009549e+000	 9.999996528288189e-001	 9.983482704031452e+000
0	 8.200010000009549e+000	 1.066659822244222e+000	 9.984669739949597e+000
0	 8.200010000009552e+000	 1.133319925002958e+000	 9.985881594446687e+000
0	 8.200010000009550e+000	 1.199979977769445e+000	 9.987120749333331e+000
0	 8.200010000009550e+000	 1.266639997208098e+000	 9.988389686325794e+000
0	 8.200010000009549e+000	 1.333299999983334e+000	 9.989690887046001e+000
0	 8.266680000012265e+000	 6.666972226472178e-001	 9.971299891930325e+000
0	 8.266680000012268e+000	 7.333579753122048e-001	 9.972346483662516e+000
0	 8.266680000012268e+000	 8.000185779984418e-001	 9.973416068437748e+000
0	 8.266680000012265e+000	 8.666790473703452e-001	 9.974510613248949e+000
0	 8.266680000012265e+000	 9.333394000923319e-001	 9.975632084988350e+000
0	 8.266680000012267e+000	 9.999996528288188e-001	 9.976782450447443e+000
0	 8.266680000012265e+000	 1.066659822244222e+000	 9.977963676317032e+000
0	 8.266680000012265e+000	 1.133319925002959e+000	 9.979177729187192e+000
0	 8.266680000012265e+000	 1.199979977769445e+000	 9.980426575547309e+000
0	 8.266680000012268e+000	 1.266639997208098e+000	 9.981712181786055e+000
0	 8.266680000012265e+000	 1.333299999983334e+000	 9.983036514191388e+000
0	 8.333350000014583e+000	 6.666972226472178e-001	 9.964748672630920e+000
0	 8.333350000014583e+000	 7.333579753122048e-001	 9.965730385242058e+000
0	 8.333350000014583e+000	 8.000185779984418e-001	 9.966747270881658e+000
0	 8.333350000014582e+000	 8.666790473703451e-001	 9.967800871008551e+000
0	 8.333350000014582e+000	 9.333394000923323e-001	 9.968892726970275e+000
0	 8.333350000014583e+000	 9.999996528288189e-001	 9.970024380003109e+000
0	 8.333350000014583e+000	 1.066659822244222e+000	 9.971197371232064e+000
0	 8.333350000014582e+000	 1.133319925002959e+000	 9.972413241670859e+000
0	 8.333350000014583e+000	 1.199979977769445e+000	 9.973673532221975e+000
0	 8.333350000014583e+000	 1.266639997208098e+000	 9.974979783676616e+000
0	 8.333350000014585e+000	 1.333299999983334e+000	 9.976333536714716e+000
0	 8.400020000016399e+000	 6.666972226472177e-001	 9.958158032072177e+000
0	 8.400020000016401e+000	 7.333579753122049e-001	 9.959070493714455e+000
0	 8.400020000016401e+000	 8.000185779984418e-001	 9.960030920742891e+000
0	 8.400020000016399e+000	 8.666790473703454e-001	 9.961040518826732e+000
0	 8.400020000016403e+000	 9.333394000923324e-001	 9.962100493510640e+000
0	 8.400020000016401e+000	 9.999996528288190e-001	 9.963212050214768e+000
0	 8.400020000016401e+000	 1.066659822244222e+000	 9.964376394234728e+000
0	 8.400020000016401e+000	 1.133319925002959e+000	 9.965594730741552e+000
0	 8.400020000016401e+000	 1.199979977769445e+000	 9.966868264781780e+000
0	 8.400020000016397e+000	 1.266639997208098e+000	 9.968198201277419e+000
0	 8.400020000016399e+000	 1.333299999983334e+000	 9.969585745025897e+000
0	 8.466690000017614e+000	 6.666972226472175e-001	 9.951506727073937e+000
0	 8.466690000017618e+000	 7.333579753122048e-001	 9.952352491420855e+000
0	 8.466690000017614e+000	 8.000185779984416e-001	 9.953258643202876e+000
0	 8.466690000017616e+000	 8.666790473703455e-001	 9.954226142033447e+000
0	 8.466690000017614e+000	 9.333394000923322e-001	 9.955255947386952e+000
0	 8.466690000017614e+000	 9.999996528288188e-001	 9.956349018598717e+000
0	 8.466690000017614e+000	 1.066659822244222e+000	 9.957506314865029e+000
0	 8.466690000017614e+000	 1.133319925002958e+000	 9.958728795243129e+000
0	 8.466690000017616e+000	 1.199979977769445e+000	 9.960017418651209e+000
0	 8.466690000017616e+000	 1.266639997208098e+000	 9.961373143868414e+000
0	 8.466690000017614e+000	 1.333299999983334e+000	 9.962796929534841e+000
0	 8.533360000018133e+000	 6.666972226472177e-001	 9.944773514456005e+000
0	 8.533360000018130e+000	 7.333579753122048e-001	 9.945562060702400e+000
0	 8.533360000018131e+000	 8.000185779984416e-001	 9.946422063443047e+000
0	 8.533360000018131e+000	 8.666790473703453e-001	 9.947354325958690e+000
0	 8.533360000018133e+000	 9.333394000923322e-001	 9.948359651376732e+000
0	 8.533360000018130e+000	 9.999996528288189e-001	 9.949438842671258e+000
0	 8.533360000018133e+000	 1.066659822244223e+000	 9.950592702663029e+000
0	 8.533360000018133e+000	 1.133319925002959e+000	 9.951822034019475e+000
0	 8.533360000018131e+000	 1.199979977769445e+000	 9.953127639254719e+000
0	 8.533360000018130e+000	 1.266639997208098e+000	 9.954510320729554e+000
0	 8.533360000018131e+000	 1.333299999983334e+000	 9.955970880651453e+000
0	 8.600030000017851e+000	 6.666972226472178e-001	 9.937937151038252e+000
0	 8.600030000017849e+000	 7.333579753122049e-001	 9.938684883900242e+000
0	 8.600030000017851e+000	 8.000185779984420e-001	 9.939512806644823e+000
0	 8.600030000017847e+000	 8.666790473703452e-001	 9.940421655932413e+000
0	 8.600030000017847e+000	 9.333394000923322e-001	 9.941412168257500e+000
0	 8.600030000017847e+000	 9.999996528288190e-001	 9.942485079948703e+000
0	 8.600030000017847e+000	 1.066659822244222e+000	 9.943641127168744e+000
0	 8.600030000017851e+000	 1.133319925002959e+000	 9.944881045914455e+000
0	 8.600030000017846e+000	 1.199979977769445e+000	 9.946205572016790e+000
0	 8.600030000017847e+000	 1.266639997208098e+000	 9.947615441140794e+000
0	 8.600030000017849e+000	 1.333299999983334e+000	 9.949111388785653e+000
0	 8.666700000016668e+000	 6.666972226472177e-001	 9.930976393640474e+000
0	 8.666700000016666e+000	 7.333579753122049e-001	 9.931706643355499e+000
0	 8.666700000016668e+000	 8.000185779984418e-001	 9.932522497989631e+000
0	 8.666700000016666e+000	 8.666790473703454e-001	 9.933424717284581e+000
0	 8.666700000016666e+000	 9.333394000923322e-001	 9.934414060806782e+000
0	 8.666700000016665e+000	 9.999996528288188e-001	 9.935491287947365e+000
0	 8.666700000016665e+000	 1.066659822244222e+000	 9.936657157922221e+000
0	 8.666700000016668e+000	 1.133319925002959e+000	 9.937912429771949e+000
0	 8.666700000016666e+000	 1.199979977769445e+000	 9.939257862361878e+000
0	 8.666700000016666e+000	 1.266639997208098e+000	 9.940694214382088e+000
0	 8.666700000016668e+000	 1.333299999983334e+000	 9.942222244347349e+000
0	 8.000000000000000e+000	 1.333299999983334e+000	 1.000932447377837e+001
0	 8.000000000000000e+000	 1.399969999982150e+000	 1.001064115905381e+001
0	 8.000000000000000e+000	 1.466639999981866e+000	 1.001197648955163e+001
0	 8.000000000000000e+000	 1.533309999982383e+000	 1.001333458853362e+001
0	 8.000000000000000e+000	 1.599979999983599e+000	 1.001471957926157e+001
0	 8.000000000000000e+000	 1.666649999985416e+000	 1.001613558499727e+001
0	 7.999999999999999e+000	 1.733319999987733e+000	 1.001758672900249e+001
0	 8.000000000000000e+000	 1.799989999990450e+000	 1.001907713453903e+001
0	 8.000000000000000e+000	 1.866659999993466e+000	 1.002061092486868e+001
0	 8.000000000000000e+000	 1.933329999996683e+000	 1.002219222325323e+001
0	 7.999999999999999e+000	 2.000000000000000e+000	 1.002382515295446e+001
0	 8.066670000003317e+000	 1.333299999983334e+000	 1.000283865724940e+001
0	 8.066670000003317e+000	 1.399969999982150e+000	 1.000414828293014e+001
0	 8.066670000003317e+000	 1.466639999981867e+000	 1.000548327809965e+001
0	 8.066670000003315e+000	 1.533309999982383e+000	 1.000684693748002e+001
0	 8.066670000003319e+000	 1.599979999983599e+000	 1.000824255579332e+001
0	 8.066670000003319e+000	 1.666649999985416e+000	 1.000967342776163e+001
0	 8.066670000003319e+000	 1.733319999987733e+000	 1.001114284810704e+001
0	 8.066670000003317e+000	 1.799989999990450e+000	 1.001265411155160e+001
0	 8.066670000003317e+000	 1.866659999993467e+000	 1.001421051281742e+001
0	 8.066670000003317e+000	 1.933329999996683e+000	 1.001581534662657e+001
0	 8.066670000003319e+000	 2.000000000000000e+000	 1.001747190770112e+001
0	 8.133340000006532e+000	 1.333299999983334e+000	 9.996292864868634e+000
0	 8.133340000006530e+000	 1.399969999982150e+000	 9.997608942285540e+000
0	 8.133340000006534e+000	 1.466639999981866e+000	 9.998954801934417e+000
0	 8.133340000006530e+000	 1.533309999982382e+000	 1.000033303346444e+001
0	 8.133340000006530e+000	 1.599979999983599e+000	 1.000174622652480e+001
0	 8.133340000006532e+000	 1.666649999985416e+000	 1.000319697076468e+001
0	 8.133340000006534e+000	 1.733319999987733e+000	 1.000468785583327e+001
0	 8.133340000006532e+000	 1.799989999990449e+000	 1.000622147137975e+001
0	 8.133340000006536e+000	 1.866659999993467e+000	 1.000780040705332e+001
0	 8.133340000006534e+000	 1.933329999996683e+000	 1.000942725250315e+001
0	 8.133340000006532e+000	 2.000000000000000e+000	 1.001110459737846e+001
0	 8.200010000009549e+000	 1.333299999983334e+000	 9.989690887046001e+000
0	 8.200010000009549e+000	 1.399969999982150e+000	 9.991024697754998e+000
0	 8.200010000009552e+000	 1.466639999981866e+000	 9.992390753554300e+000
0	 8.200010000009550e+000	 1.533309999982383e+000	 9.993791062487029e+000
0	 8.200010000009545e+000	 1.599979999983599e+000	 9.995227632596285e+000
0	 8.200010000009549e+000	 1.666649999985416e+000	 9.996702471925186e+000
0	 8.200010000009550e+000	 1.733319999987733e+000	 9.998217588516837e+000
0	 8.200010000009552e+000	 1.799989999990450e+000	 9.999774990414350e+000
0	 8.200010000009550e+000	 1.866659999993466e+000	 1.000137668566086e+001
0	 8.200010000009549e+000	 1.933329999996683e+000	 1.000302468229945e+001
0	 8.200010000009550e+000	 2.000000000000000e+000	 1.000472098837326e+001
0	 8.266680000012265e+000	 1.333299999983334e+000	 9.983036514191388e+000
0	 8.266680000012265e+000	 1.399969999982150e+000	 9.984397109973445e+000
0	 8.266680000012263e+000	 1.466639999981866e+000	 9.985790825457663e+000
0	 8.266680000012267e+000	 1.533309999982383e+000	 9.987219210547922e+000
0	 8.266680000012265e+000	 1.599979999983599e+000	 9.988683815148070e+000
0	 8.266680000012267e+000	 1.666649999985416e+000	 9.990186189161951e+000
0	 8.266680000012267e+000	 1.733319999987733e+000	 9.991727882493423e+000
0	 8.266680000012263e+000	 1.799989999990449e+000	 9.993310445046344e+000
0	 8.266680000012267e+000	 1.866659999993466e+000	 9.994935426724563e+000
0	 8.266680000012263e+000	 1.933329999996683e+000	 9.996604377431941e+000
0	 8.266680000012267e+000	 2.000000000000000e+000	 9.998318847072341e+000
0	 8.333350000014585e+000	 1.333299999983334e+000	 9.976333536714718e+000
0	 8.333350000014582e+000	 1.399969999982150e+000	 9.977727739575830e+000
0	 8.333350000014582e+000	 1.466639999981866e+000	 9.979154710142881e+000
0	 8.333350000014585e+000	 1.533309999982383e+000	 9.980615663647280e+000
0	 8.333350000014582e+000	 1.599979999983599e+000	 9.982111815320435e+000
0	 8.333350000014583e+000	 1.666649999985416e+000	 9.983644380393765e+000
0	 8.333350000014582e+000	 1.733319999987733e+000	 9.985214574098679e+000
0	 8.333350000014582e+000	 1.799989999990450e+000	 9.986823611666592e+000
0	 8.333350000014583e+000	 1.866659999993466e+000	 9.988472708328926e+000
0	 8.333350000014585e+000	 1.933329999996683e+000	 9.990163079317089e+000
0	 8.333350000014582e+000	 2.000000000000000e+000	 9.991895939862497e+000
0	 8.400020000016399e+000	 1.333299999983334e+000	 9.969585745025897e+000
0	 8.400020000016397e+000	 1.399969999982150e+000	 9.971018147197139e+000
0	 8.400020000016401e+000	 1.466639999981866e+000	 9.972482100108321e+000
0	 8.400020000016401e+000	 1.533309999982383e+000	 9.973978607785233e+000
0	 8.400020000016399e+000	 1.599979999983599e+000	 9.975508674253664e+000
0	 8.400020000016397e+000	 1.666649999985415e+000	 9.977073303539418e+000
0	 8.400020000016401e+000	 1.733319999987733e+000	 9.978673499668272e+000
0	 8.400020000016397e+000	 1.799989999990449e+000	 9.980310266666018e+000
0	 8.400020000016395e+000	 1.866659999993466e+000	 9.981984608558447e+000
0	 8.400020000016399e+000	 1.933329999996683e+000	 9.983697529371353e+000
0	 8.400020000016399e+000	 2.000000000000000e+000	 9.985450033130533e+000
0	 8.466690000017614e+000	 1.333299999983334e+000	 9.962796929534845e+000
0	 8.466690000017616e+000	 1.399969999982150e+000	 9.964269893472300e+000
0	 8.466690000017614e+000	 1.466639999981867e+000	 9.965772687852336e+000
0	 8.466690000017618e+000	 1.533309999982383e+000	 9.967306228961929e+000
0	 8.466690000017614e+000	 1.599979999983600e+000	 9.968871433088056e+000
0	 8.466690000017616e+000	 1.666649999985416e+000	 9.970469216517710e+000
0	 8.466690000017614e+000	 1.733319999987733e+000	 9.972100495537863e+000
0	 8.466690000017614e+000	 1.799989999990450e+000	 9.973766186435514e+000
0	 8.466690000017616e+000	 1.866659999993466e+000	 9.975467205497633e+000
0	 8.466690000017614e+000	 1.933329999996683e+000	 9.977204469011220e+000
0	 8.466690000017618e+000	 2.000000000000000e+000	 9.978978893263244e+000
0	 8.533360000018131e+000	 1.333299999983334e+000	 9.955970880651455e+000
0	 8.533360000018130e+000	 1.399969999982150e+000	 9.957484539036278e+000
0	 8.533360000018131e+000	 1.466639999981867e+000	 9.959026165873313e+000
0	 8.533360000018131e+000	 1.533309999982383e+000	 9.960596713177521e+000
0	 8.533360000018133e+000	 1.599979999983599e+000	 9.962197132963887e+000
0	 8.533360000018135e+000	 1.666649999985417e+000	 9.963828377247429e+000
0	 8.533360000018133e+000	 1.733319999987733e+000	 9.965491398043126e+000
0	 8.533360000018133e+000	 1.799989999990449e+000	 9.967187147365985e+000
0	 8.533360000018131e+000	 1.866659999993466e+000	 9.968916577230994e+000
0	 8.533360000018131e+000	 1.933329999996683e+000	 9.970680639653137e+000
0	 8.533360000018131e+000	 2.000000000000000e+000	 9.972480286647441e+000
0	 8.600030000017849e+000	 1.333299999983334e+000	 9.949111388785653e+000
0	 8.600030000017846e+000	 1.399969999982150e+000	 9.950663644524058e+000
0	 8.600030000017847e+000	 1.466639999981866e+000	 9.952242226669608e+000
0	 8.600030000017849e+000	 1.533309999982383e+000	 9.953848246432136e+000
0	 8.600030000017849e+000	 1.599979999983599e+000	 9.955482815021446e+000
0	 8.600030000017847e+000	 1.666649999985416e+000	 9.957147043647366e+000
0	 8.600030000017847e+000	 1.733319999987733e+000	 9.958842043519725e+000
0	 8.600030000017847e+000	 1.799989999990449e+000	 9.960568925848323e+000
0	 8.600030000017847e+000	 1.866659999993466e+000	 9.962328801843018e+000
0	 8.600030000017847e+000	 1.933329999996683e+000	 9.964122782713611e+000
0	 8.600030000017847e+000	 2.000000000000000e+000	 9.965951979669924e+000
0	 8.666700000016668e+000	 1.333299999983334e+000	 9.942222244347349e+000
0	 8.666700000016668e+000	 1.399969999982150e+000	 9.943808770570563e+000
0	 8.666700000016666e+000	 1.466639999981866e+000	 9.945420562739606e+000
0	 8.666700000016666e+000	 1.533309999982383e+000	 9.947059014725936e+000
0	 8.666700000016665e+000	 1.599979999983599e+000	 9.948725520401018e+000
0	 8.666700000016665e+000	 1.666649999985416e+000	 9.950421473636318e+000
0	 8.666700000016666e+000	 1.733319999987733e+000	 9.952148268303315e+000
0	 8.666700000016665e+000	 1.799989999990450e+000	 9.953907298273462e+000
0	 8.666700000016666e+000	 1.866659999993466e+000	 9.955699957418220e+000
0	 8.666700000016665e+000	 1.933329999996683e+000	 9.957527639609081e+000
0	 8.666700000016668e+000	 2.000000000000000e+000	 9.959391738717493e+000
0	 7.999999999999999e+000	 2.000000000000000e+000	 1.002382515295446e+001
0	 8.000000000000000e+000	 2.066670000003318e+000	 1.002547021182884e+001
0	 8.000000000000000e+000	 2.133340000006534e+000	 1.002708599912306e+001
0	 8.000000000000000e+000	 2.200010000009551e+000	 1.002867379018426e+001
0	 8.000000000000000e+000	 2.266680000012267e+000	 1.003023486035957e+001
0	 7.999999999999999e+000	 2.333350000014584e+000	 1.003177048499614e+001
0	 8.000000000000000e+000	 2.400020000016401e+000	 1.003328193944107e+001
0	 8.000000000000000e+000	 2.466690000017617e+000	 1.003477049904154e+001
0	 8.000000000000000e+000	 2.533360000018134e+000	 1.003623743914466e+001
0	 8.000000000000000e+000	 2.600030000017851e+000	 1.003768403509754e+001
0	 7.999999999999999e+000	 2.666700000016666e+000	 1.003911156224736e+001
0	 8.066670000003319e+000	 2.000000000000000e+000	 1.001747190770112e+001
0	 8.066670000003317e+000	 2.066670000003317e+000	 1.001913862261741e+001
0	 8.066670000003317e+000	 2.133340000006534e+000	 1.002077307360574e+001
0	 8.066670000003315e+000	 2.200010000009551e+000	 1.002237728886915e+001
0	 8.066670000003319e+000	 2.266680000012268e+000	 1.002395329661070e+001
0	 8.066670000003317e+000	 2.333350000014584e+000	 1.002550312503344e+001
0	 8.066670000003317e+000	 2.400020000016401e+000	 1.002702880234041e+001
0	 8.066670000003315e+000	 2.466690000017617e+000	 1.002853235673466e+001
0	 8.066670000003319e+000	 2.533360000018134e+000	 1.003001581641924e+001
0	 8.066670000003317e+000	 2.600030000017850e+000	 1.003148120959720e+001
0	 8.066670000003315e+000	 2.666700000016666e+000	 1.003293056447158e+001
0	 8.133340000006532e+000	 2.000000000000000e+000	 1.001110459737846e+001
0	 8.133340000006536e+000	 2.066670000003317e+000	 1.001279052834826e+001
0	 8.133340000006536e+000	 2.133340000006534e+000	 1.001444316566410e+001
0	 8.133340000006532e+000	 2.200010000009550e+000	 1.001606514934892e+001
0	 8.133340000006534e+000	 2.266680000012267e+000	 1.001765911942565e+001
0	 8.133340000006532e+000	 2.333350000014585e+000	 1.001922771591721e+001
0	 8.133340000006530e+000	 2.400020000016401e+000	 1.002077357884656e+001
0	 8.133340000006532e+000	 2.466690000017616e+000	 1.002229934823661e+001
0	 8.133340000006532e+000	 2.533360000018134e+000	 1.002380766411030e+001
0	 8.133340000006534e+000	 2.600030000017851e+000	 1.002530116649055e+001
0	 8.133340000006532e+000	 2.666700000016665e+000	 1.002678249540032e+001
0	 8.200010000009550e+000	 2.000000000000000e+000	 1.000472098837326e+001
0	 8.200010000009550e+000	 2.066670000003318e+000	 1.000642477529270e+001
0	 8.200010000009549e+000	 2.133340000006534e+000	 1.000809594964400e+001
0	 8.200010000009550e+000	 2.200010000009551e+000	 1.000973762223394e+001
0	 8.200010000009549e+000	 2.266680000012268e+000	 1.001135290386930e+001
0	 8.200010000009547e+000	 2.333350000014584e+000	 1.001294490535690e+001
0	 8.200010000009549e+000	 2.400020000016401e+000	 1.001451673750350e+001
0	 8.200010000009549e+000	 2.466690000017617e+000	 1.001607151111590e+001
0	 8.200010000009550e+000	 2.533360000018134e+000	 1.001761233700089e+001
0	 8.200010000009549e+000	 2.600030000017850e+000	 1.001914232596525e+001
0	 8.200010000009549e+000	 2.666700000016666e+000	 1.002066458881576e+001
0	 8.266680000012267e+000	 2.000000000000000e+000	 9.998318847072341e+000
0	 8.266680000012265e+000	 2.066670000003317e+000	 1.000004020972207e+001
0	 8.266680000012267e+000	 2.133340000006534e+000	 1.000173109989127e+001
0	 8.266680000012265e+000	 2.200010000009550e+000	 1.000339495813457e+001
0	 8.266680000012265e+000	 2.266680000012267e+000	 1.000503522500659e+001
0	 8.266680000012263e+000	 2.333350000014583e+000	 1.000665534106194e+001
0	 8.266680000012268e+000	 2.400020000016401e+000	 1.000825874685522e+001
0	 8.266680000012265e+000	 2.466690000017617e+000	 1.000984888294107e+001
0	 8.266680000012268e+000	 2.533360000018134e+000	 1.001142918987407e+001
0	 8.266680000012267e+000	 2.600030000017851e+000	 1.001300310820888e+001
0	 8.266680000012267e+000	 2.666700000016667e+000	 1.001457407850008e+001
0	 8.333350000014582e+000	 2.000000000000000e+000	 9.991895939862497e+000
0	 8.333350000014583e+000	 2.066670000003317e+000	 9.993635677907658e+000
0	 8.333350000014583e+000	 2.133340000006534e+000	 9.995348290751752e+000
0	 8.333350000014583e+000	 2.200010000009550e+000	 9.997037407661182e+000
0	 8.333350000014582e+000	 2.266680000012267e+000	 9.998706657902389e+000
0	 8.333350000014583e+000	 2.333350000014584e+000	 1.000035967074173e+001
0	 8.333350000014583e+000	 2.400020000016401e+000	 1.000200007544568e+001
0	 8.333350000014585e+000	 2.466690000017617e+000	 1.000363150128061e+001
0	 8.333350000014583e+000	 2.533360000018133e+000	 1.000525757751294e+001
0	 8.333350000014582e+000	 2.600030000017850e+000	 1.000688193340908e+001
0	 8.333350000014583e+000	 2.666700000016667e+000	 1.000850819823546e+001
0	 8.400020000016399e+000	 2.000000000000000e+000	 9.985450033130533e+000
0	 8.400020000016397e+000	 2.066670000003317e+000	 9.987210026120808e+000
0	 8.400020000016395e+000	 2.133340000006534e+000	 9.988947196571296e+000
0	 8.400020000016399e+000	 2.200010000009550e+000	 9.990665221424159e+000
0	 8.400020000016401e+000	 2.266680000012267e+000	 9.992367777621579e+000
0	 8.400020000016399e+000	 2.333350000014584e+000	 9.994058542105751e+000
0	 8.400020000016397e+000	 2.400020000016401e+000	 9.995741191818841e+000
0	 8.400020000016401e+000	 2.466690000017617e+000	 9.997419403703045e+000
0	 8.400020000016399e+000	 2.533360000018133e+000	 9.999096854700531e+000
0	 8.400020000016399e+000	 2.600030000017851e+000	 1.000077722175348e+001
0	 8.400020000016399e+000	 2.666700000016666e+000	 1.000246418180408e+001
0	 8.466690000017618e+000	 2.000000000000000e+000	 9.978978893263244e+000
0	 8.466690000017614e+000	 2.066670000003316e+000	 9.980762100632834e+000
0	 8.466690000017614e+000	 2.133340000006533e+000	 9.982527491695727e+000
0	 8.466690000017614e+000	 2.200010000009550e+000	 9.984278650033831e+000
0	 8.466690000017616e+000	 2.266680000012267e+000	 9.986019159229084e+000
0	 8.466690000017618e+000	 2.333350000014584e+000	 9.987752602863399e+000
0	 8.466690000017618e+000	 2.400020000016401e+000	 9.989482564518694e+000
0	 8.466690000017616e+000	 2.466690000017618e+000	 9.991212627776886e+000
0	 8.466690000017616e+000	 2.533360000018133e+000	 9.992946376219900e+000
0	 8.466690000017616e+000	 2.600030000017851e+000	 9.994687393429665e+000
0	 8.466690000017618e+000	 2.666700000016667e+000	 9.996439262988089e+000
0	 8.533360000018131e+000	 2.000000000000000e+000	 9.972480286647441e+000
0	 8.533360000018131e+000	 2.066670000003317e+000	 9.974290747715051e+000
0	 8.533360000018133e+000	 2.133340000006534e+000	 9.976088850470882e+000
0	 8.533360000018131e+000	 2.200010000009550e+000	 9.977877944100595e+000
0	 8.533360000018131e+000	 2.266680000012267e+000	 9.979661377789793e+000
0	 8.533360000018131e+000	 2.333350000014584e+000	 9.981442500724119e+000
0	 8.533360000018133e+000	 2.400020000016401e+000	 9.983224662089194e+000
0	 8.533360000018131e+000	 2.466690000017617e+000	 9.985011211070667e+000
0	 8.533360000018131e+000	 2.533360000018134e+000	 9.986805496854149e+000
0	 8.533360000018133e+000	 2.600030000017850e+000	 9.988610868625280e+000
0	 8.533360000018131e+000	 2.666700000016666e+000	 9.990430675569684e+000
0	 8.600030000017847e+000	 2.000000000000000e+000	 9.965951979669924e+000
0	 8.600030000017847e+000	 2.066670000003317e+000	 9.967794813638776e+000
0	 8.600030000017849e+000	 2.133340000006534e+000	 9.969630947242624e+000
0	 8.600030000017847e+000	 2.200010000009550e+000	 9.971463354234794e+000
0	 8.600030000017847e+000	 2.266680000012267e+000	 9.973295008368604e+000
0	 8.600030000017847e+000	 2.333350000014584e+000	 9.975128883397341e+000
0	 8.600030000017847e+000	 2.400020000016401e+000	 9.976967953074334e+000
0	 8.600030000017846e+000	 2.466690000017617e+000	 9.978815191152883e+000
0	 8.600030000017849e+000	 2.533360000018134e+000	 9.980673571386316e+000
0	 8.600030000017847e+000	 2.600030000017851e+000	 9.982546067527926e+000
0	 8.600030000017849e+000	 2.666700000016666e+000	 9.984435653331044e+000
0	 8.666700000016668e+000	 2.000000000000000e+000	 9.959391738717493e+000
0	 8.666700000016665e+000	 2.066670000003317e+000	 9.961273144675328e+000
0	 8.666700000016666e+000	 2.133340000006534e+000	 9.963153456356780e+000
0	 8.666700000016666e+000	 2.200010000009550e+000	 9.965035131046816e+000
0	 8.666700000016666e+000	 2.266680000012268e+000	 9.966920626030401e+000
0	 8.666700000016665e+000	 2.333350000014584e+000	 9.968812398592489e+000
0	 8.666700000016666e+000	 2.400020000016401e+000	 9.970712906018052e+000
0	 8.666700000016666e+000	 2.466690000017618e+000	 9.972624605592056e+000
0	 8.666700000016668e+000	 2.533360000018134e+000	 9.974549954599466e+000
0	 8.666700000016666e+000	 2.600030000017850e+000	 9.976491410325231e+000
0	 8.666700000016668e+000	 2.666700000016667e+000	 9.978451430054333e+000
0	 7.999999999999999e+000	 2.666700000016666e+000	 1.003911156224736e+001
0	 8.000000000000000e+000	 2.733360000014533e+000	 1.004050652243517e+001
0	 7.999999999999998e+000	 2.800020000011599e+000	 1.004185699564365e+001
0	 7.999999999999999e+000	 2.866680000008067e+000	 1.004316598617621e+001
0	 8.000000000000000e+000	 2.933340000004133e+000	 1.004443649833625e+001
0	 8.000000000000000e+000	 3.000000000000000e+000	 1.004567153642719e+001
0	 8.000000000000000e+000	 3.066659999995867e+000	 1.004687410475244e+001
0	 7.999999999999999e+000	 3.133319999991933e+000	 1.004804720761540e+001
0	 7.999999999999999e+000	 3.199979999988401e+000	 1.004919384931951e+001
0	 8.000000000000000e+000	 3.266639999985468e+000	 1.005031703416817e+001
0	 7.999999999999999e+000	 3.333299999983334e+000	 1.005141976646478e+001
0	 8.066670000003315e+000	 2.666700000016666e+000	 1.003293056447158e+001
0	 8.066670000003320e+000	 2.733360000014534e+000	 1.003435312944915e+001
0	 8.066670000003317e+000	 2.800020000011600e+000	 1.003573870799292e+001
0	 8.066670000003319e+000	 2.866680000008066e+000	 1.003708951201745e+001
0	 8.066670000003317e+000	 2.933340000004133e+000	 1.003840775343729e+001
0	 8.066670000003319e+000	 3.000000000000000e+000	 1.003969564416701e+001
0	 8.066670000003319e+000	 3.066659999995867e+000	 1.004095539612116e+001
0	 8.066670000003319e+000	 3.133319999991933e+000	 1.004218922121430e+001
0	 8.066670000003317e+000	 3.199979999988401e+000	 1.004339933136101e+001
0	 8.066670000003320e+000	 3.266639999985468e+000	 1.004458793847583e+001
0	 8.066670000003315e+000	 3.333299999983334e+000	 1.004575725447334e+001
0	 8.133340000006532e+000	 2.666700000016665e+000	 1.002678249540032e+001
0	 8.133340000006536e+000	 2.733360000014534e+000	 1.002824202891453e+001
0	 8.133340000006530e+000	 2.800020000011600e+000	 1.002966985531399e+001
0	 8.133340000006534e+000	 2.866680000008066e+000	 1.003106751570856e+001
0	 8.133340000006534e+000	 2.933340000004133e+000	 1.003243655120815e+001
0	 8.133340000006534e+000	 3.000000000000000e+000	 1.003377850292264e+001
0	 8.133340000006532e+000	 3.066659999995867e+000	 1.003509491196196e+001
0	 8.133340000006536e+000	 3.133319999991934e+000	 1.003638731943597e+001
0	 8.133340000006532e+000	 3.199979999988401e+000	 1.003765726645456e+001
0	 8.133340000006536e+000	 3.266639999985467e+000	 1.003890629412767e+001
0	 8.133340000006532e+000	 3.333299999983333e+000	 1.004013594356517e+001
0	 8.200010000009549e+000	 2.666700000016666e+000	 1.002066458881576e+001
0	 8.200010000009550e+000	 2.733360000014532e+000	 1.002216929304694e+001
0	 8.200010000009552e+000	 2.800020000011600e+000	 1.002364564934993e+001
0	 8.200010000009550e+000	 2.866680000008066e+000	 1.002509464961415e+001
0	 8.200010000009549e+000	 2.933340000004133e+000	 1.002651728572902e+001
0	 8.200010000009550e+000	 3.000000000000000e+000	 1.002791454958393e+001
0	 8.200010000009549e+000	 3.066659999995867e+000	 1.002928743306834e+001
0	 8.200010000009550e+000	 3.133319999991933e+000	 1.003063692807164e+001
0	 8.200010000009552e+000	 3.199979999988400e+000	 1.003196402648325e+001
0	 8.200010000009550e+000	 3.266639999985467e+000	 1.003326972019259e+001
0	 8.200010000009550e+000	 3.333299999983334e+000	 1.003455500108911e+001
0	 8.266680000012267e+000	 2.666700000016667e+000	 1.001457407850008e+001
0	 8.266680000012270e+000	 2.733360000014533e+000	 1.001613099406196e+001
0	 8.266680000012265e+000	 2.800020000011599e+000	 1.001766130184384e+001
0	 8.266680000012267e+000	 2.866680000008067e+000	 1.001916556609883e+001
0	 8.266680000012263e+000	 2.933340000004133e+000	 1.002064435108007e+001
0	 8.266680000012263e+000	 2.999999999999999e+000	 1.002209822104070e+001
0	 8.266680000012265e+000	 3.066659999995866e+000	 1.002352774023383e+001
0	 8.266680000012267e+000	 3.133319999991934e+000	 1.002493347291258e+001
0	 8.266680000012265e+000	 3.199979999988401e+000	 1.002631598333011e+001
0	 8.266680000012270e+000	 3.266639999985468e+000	 1.002767583573951e+001
0	 8.266680000012265e+000	 3.333299999983333e+000	 1.002901359439395e+001
0	 8.333350000014583e+000	 2.666700000016667e+000	 1.000850819823546e+001
0	 8.333350000014583e+000	 2.733360000014533e+000	 1.001012320417519e+001
0	 8.333350000014582e+000	 2.800020000011600e+000	 1.001171202453876e+001
0	 8.333350000014583e+000	 2.866680000008067e+000	 1.001327491752720e+001
0	 8.333350000014580e+000	 2.933340000004133e+000	 1.001481214134153e+001
0	 8.333350000014582e+000	 3.000000000000000e+000	 1.001632395418277e+001
0	 8.333350000014583e+000	 3.066659999995867e+000	 1.001781061425193e+001
0	 8.333350000014583e+000	 3.133319999991935e+000	 1.001927237975006e+001
0	 8.333350000014582e+000	 3.199979999988400e+000	 1.002070950887819e+001
0	 8.333350000014585e+000	 3.266639999985468e+000	 1.002212225983732e+001
0	 8.333350000014585e+000	 3.333299999983335e+000	 1.002351089082849e+001
0	 8.400020000016399e+000	 2.666700000016666e+000	 1.000246418180408e+001
0	 8.400020000016401e+000	 2.733360000014533e+000	 1.000414199560224e+001
0	 8.400020000016399e+000	 2.800020000011600e+000	 1.000579302917780e+001
0	 8.400020000016399e+000	 2.866680000008067e+000	 1.000741735626387e+001
0	 8.400020000016401e+000	 2.933340000004133e+000	 1.000901505059355e+001
0	 8.400020000016399e+000	 2.999999999999999e+000	 1.001058618589995e+001
0	 8.400020000016403e+000	 3.066659999995867e+000	 1.001213083591618e+001
0	 8.400020000016401e+000	 3.133319999991934e+000	 1.001364907437535e+001
0	 8.400020000016397e+000	 3.199979999988401e+000	 1.001514097501056e+001
0	 8.400020000016401e+000	 3.266639999985467e+000	 1.001660661155492e+001
0	 8.400020000016399e+000	 3.333299999983334e+000	 1.001804605774156e+001
0	 8.466690000017618e+000	 2.666700000016667e+000	 9.996439262988091e+000
0	 8.466690000017618e+000	 2.733360000014533e+000	 9.998183440558691e+000
0	 8.466690000017614e+000	 2.800020000011600e+000	 9.999899527504020e+000
0	 8.466690000017616e+000	 2.866680000008066e+000	 1.000158753467345e+001
0	 8.466690000017614e+000	 2.933340000004133e+000	 1.000324747291635e+001
0	 8.466690000017616e+000	 3.000000000000000e+000	 1.000487935308209e+001
0	 8.466690000017616e+000	 3.066659999995868e+000	 1.000648318602008e+001
0	 8.466690000017612e+000	 3.133319999991933e+000	 1.000805898257967e+001
0	 8.466690000017614e+000	 3.199979999988400e+000	 1.000960675361027e+001
0	 8.466690000017618e+000	 3.266639999985468e+000	 1.001112650996124e+001
0	 8.466690000017616e+000	 3.333299999983334e+000	 1.001261826248197e+001
0	 8.533360000018131e+000	 2.666700000016666e+000	 9.990430675569684e+000
0	 8.533360000018131e+000	 2.733360000014533e+000	 9.992243611260168e+000
0	 8.533360000018131e+000	 2.800020000011600e+000	 9.994026731260497e+000
0	 8.533360000018131e+000	 2.866680000008067e+000	 9.995780105120527e+000
0	 8.533360000018130e+000	 2.933340000004133e+000	 9.997503802390099e+000
0	 8.533360000018131e+000	 3.000000000000000e+000	 9.999197892619023e+000
0	 8.533360000018131e+000	 3.066659999995867e+000	 1.000086244535715e+001
0	 8.533360000018131e+000	 3.133319999991934e+000	 1.000249753015433e+001
0	 8.533360000018130e+000	 3.199979999988400e+000	 1.000410321656038e+001
0	 8.533360000018131e+000	 3.266639999985467e+000	 1.000567957412516e+001
0	 8.533360000018131e+000	 3.333299999983334e+000	 1.000722667239851e+001
0	 8.600030000017849e+000	 2.666700000016666e+000	 9.984435653331047e+000
0	 8.600030000017851e+000	 2.733360000014533e+000	 9.986318579922248e+000
0	 8.600030000017847e+000	 2.800020000011599e+000	 9.988169852190318e+000
0	 8.600030000017847e+000	 2.866680000008066e+000	 9.989989719969737e+000
0	 8.600030000017847e+000	 2.933340000004133e+000	 9.991778433094988e+000
0	 8.600030000017849e+000	 3.000000000000000e+000	 9.993536241400552e+000
0	 8.600030000017846e+000	 3.066659999995866e+000	 9.995263394720908e+000
0	 8.600030000017849e+000	 3.133319999991933e+000	 9.996960142890544e+000
0	 8.600030000017849e+000	 3.199979999988400e+000	 9.998626735743954e+000
0	 8.600030000017847e+000	 3.266639999985467e+000	 1.000026342311560e+001
0	 8.600030000017847e+000	 3.333299999983333e+000	 1.000187045483999e+001
0	 8.666700000016668e+000	 2.666700000016667e+000	 9.978451430054333e+000
0	 8.666700000016666e+000	 2.733360000014533e+000	 9.980404418760541e+000
0	 8.666700000016668e+000	 2.800020000011600e+000	 9.982324102036543e+000
0	 8.666700000016665e+000	 2.866680000008067e+000	 9.984211031585668e+000
0	 8.666700000016665e+000	 2.933340000004133e+000	 9.986065759111218e+000
0	 8.666700000016666e+000	 3.000000000000000e+000	 9.987888836316509e+000
0	 8.666700000016666e+000	 3.066659999995867e+000	 9.989680814904864e+000
0	 8.666700000016666e+000	 3.133319999991933e+000	 9.991442246579599e+000
0	 8.666700000016668e+000	 3.199979999988400e+000	 9.993173683044024e+000
0	 8.666700000016666e+000	 3.266639999985468e+000	 9.994875676001461e+000
0	 8.666700000016668e+000	 3.333299999983334e+000	 9.996548777155230e+000
0	 7.999999999999999e+000	 3.333299999983334e+000	 1.005141976646478e+001
0	 8.000000000000000e+000	 3.399969999982150e+000	 1.005248183464700e+001
0	 8.000000000000002e+000	 3.466639999981866e+000	 1.005348028453585e+001
0	 8.000000000000000e+000	 3.533309999982383e+000	 1.005441449863736e+001
0	 8.000000000000000e+000	 3.599979999983600e+000	 1.005528385945756e+001
0	 7.999999999999999e+000	 3.666649999985416e+000	 1.005608774950249e+001
0	 7.999999999999999e+000	 3.733319999987733e+000	 1.005682555127818e+001
0	 8.000000000000000e+000	 3.799989999990450e+000	 1.005749664729067e+001
0	 7.999999999999999e+000	 3.866659999993467e+000	 1.005810042004598e+001
0	 8.000000000000000e+000	 3.933329999996683e+000	 1.005863625205014e+001
0	 8.000000000000000e+000	 4.000000000000001e+000	 1.005910352580918e+001
0	 8.066670000003315e+000	 3.333299999983334e+000	 1.004575725447334e+001
0	 8.066670000003319e+000	 3.399969999982150e+000	 1.004688478620657e+001
0	 8.066670000003319e+000	 3.466639999981866e+000	 1.004794622058478e+001
0	 8.066670000003313e+000	 3.533309999982382e+000	 1.004894156184261e+001
0	 8.066670000003319e+000	 3.599979999983600e+000	 1.004987081421461e+001
0	 8.066670000003317e+000	 3.666649999985416e+000	 1.005073398193541e+001
0	 8.066670000003317e+000	 3.733319999987733e+000	 1.005153106923960e+001
0	 8.066670000003317e+000	 3.799989999990450e+000	 1.005226208036177e+001
0	 8.066670000003319e+000	 3.866659999993467e+000	 1.005292701953653e+001
0	 8.066670000003319e+000	 3.933329999996684e+000	 1.005352589099847e+001
0	 8.066670000003319e+000	 4.000000000000001e+000	 1.005405869898216e+001
0	 8.133340000006532e+000	 3.333299999983333e+000	 1.004013594356517e+001
0	 8.133340000006532e+000	 3.399969999982150e+000	 1.004132303071257e+001
0	 8.133340000006534e+000	 3.466639999981867e+000	 1.004244332709734e+001
0	 8.133340000006530e+000	 3.533309999982381e+000	 1.004349735647061e+001
0	 8.133340000006530e+000	 3.599979999983600e+000	 1.004448564258351e+001
0	 8.133340000006532e+000	 3.666649999985416e+000	 1.004540870918715e+001
0	 8.133340000006534e+000	 3.733319999987732e+000	 1.004626708003266e+001
0	 8.133340000006536e+000	 3.799989999990451e+000	 1.004706127887114e+001
0	 8.133340000006532e+000	 3.866659999993467e+000	 1.004779182945371e+001
0	 8.133340000006534e+000	 3.933329999996684e+000	 1.004845925553151e+001
0	 8.133340000006536e+000	 4.000000000000001e+000	 1.004906408085562e+001
0	 8.200010000009550e+000	 3.333299999983334e+000	 1.003455500108911e+001
0	 8.200010000009547e+000	 3.399969999982150e+000	 1.003579729536971e+001
0	 8.200010000009552e+000	 3.466639999981867e+000	 1.003697361268234e+001
0	 8.200010000009550e+000	 3.533309999982383e+000	 1.003808489408260e+001
0	 8.200010000009549e+000	 3.599979999983601e+000	 1.003913208062608e+001
0	 8.200010000009549e+000	 3.666649999985416e+000	 1.004011611336837e+001
0	 8.200010000009552e+000	 3.733319999987733e+000	 1.004103793336508e+001
0	 8.200010000009550e+000	 3.799989999990450e+000	 1.004189848167180e+001
0	 8.200010000009550e+000	 3.866659999993467e+000	 1.004269869934412e+001
0	 8.200010000009550e+000	 3.933329999996683e+000	 1.004343952743764e+001
0	 8.200010000009550e+000	 4.000000000000000e+000	 1.004412190700795e+001
0	 8.266680000012265e+000	 3.333299999983333e+000	 1.002901359439394e+001
0	 8.266680000012265e+000	 3.399969999982150e+000	 1.003030830738272e+001
0	 8.266680000012263e+000	 3.466639999981866e+000	 1.003153908594865e+001
0	 8.266680000012267e+000	 3.533309999982382e+000	 1.003270718623977e+001
0	 8.266680000012268e+000	 3.599979999983600e+000	 1.003381386440413e+001
0	 8.266680000012265e+000	 3.666649999985416e+000	 1.003486037658973e+001
0	 8.266680000012267e+000	 3.733319999987733e+000	 1.003584797894461e+001
0	 8.266680000012265e+000	 3.799989999990450e+000	 1.003677792761679e+001
0	 8.266680000012267e+000	 3.866659999993466e+000	 1.003765147875433e+001
0	 8.266680000012265e+000	 3.933329999996684e+000	 1.003846988850521e+001
0	 8.266680000012265e+000	 3.999999999999999e+000	 1.003923441301750e+001
0	 8.333350000014585e+000	 3.333299999983335e+000	 1.002351089082849e+001
0	 8.333350000014582e+000	 3.399969999982150e+000	 1.002485679395628e+001
0	 8.333350000014582e+000	 3.466639999981866e+000	 1.002614175550508e+001
0	 8.333350000014583e+000	 3.533309999982383e+000	 1.002736724450334e+001
0	 8.333350000014582e+000	 3.599979999983599e+000	 1.002853472997945e+001
0	 8.333350000014582e+000	 3.666649999985416e+000	 1.002964568096185e+001
0	 8.333350000014583e+000	 3.733319999987733e+000	 1.003070156647894e+001
0	 8.333350000014583e+000	 3.799989999990450e+000	 1.003170385555916e+001
0	 8.333350000014583e+000	 3.866659999993467e+000	 1.003265401723090e+001
0	 8.333350000014585e+000	 3.933329999996683e+000	 1.003355352052260e+001
0	 8.333350000014582e+000	 4.000000000000000e+000	 1.003440383446266e+001
0	 8.400020000016399e+000	 3.333299999983334e+000	 1.001804605774156e+001
0	 8.400020000016397e+000	 3.399969999982150e+000	 1.001944348229511e+001
0	 8.400020000016397e+000	 3.466639999981866e+000	 1.002078362996051e+001
0	 8.400020000016401e+000	 3.533309999982383e+000	 1.002206808043450e+001
0	 8.400020000016401e+000	 3.599979999983600e+000	 1.002329841341387e+001
0	 8.400020000016397e+000	 3.666649999985415e+000	 1.002447620859540e+001
0	 8.400020000016399e+000	 3.733319999987732e+000	 1.002560304567581e+001
0	 8.400020000016399e+000	 3.799989999990450e+000	 1.002668050435190e+001
0	 8.400020000016401e+000	 3.866659999993467e+000	 1.002771016432043e+001
0	 8.400020000016399e+000	 3.933329999996684e+000	 1.002869360527815e+001
0	 8.400020000016399e+000	 4.000000000000000e+000	 1.002963240692182e+001
0	 8.466690000017616e+000	 3.333299999983334e+000	 1.001261826248197e+001
0	 8.466690000017616e+000	 3.399969999982150e+000	 1.001406909960391e+001
0	 8.466690000017614e+000	 3.466639999981867e+000	 1.001546671792372e+001
0	 8.466690000017618e+000	 3.533309999982383e+000	 1.001681270559446e+001
0	 8.466690000017614e+000	 3.599979999983599e+000	 1.001810865076921e+001
0	 8.466690000017616e+000	 3.666649999985417e+000	 1.001935614160101e+001
0	 8.466690000017616e+000	 3.733319999987733e+000	 1.002055676624295e+001
0	 8.466690000017616e+000	 3.799989999990451e+000	 1.002171211284809e+001
0	 8.466690000017616e+000	 3.866659999993467e+000	 1.002282376956948e+001
0	 8.466690000017616e+000	 3.933329999996684e+000	 1.002389332456023e+001
0	 8.466690000017618e+000	 4.000000000000001e+000	 1.002492236597334e+001
0	 8.533360000018131e+000	 3.333299999983334e+000	 1.000722667239851e+001
0	 8.533360000018130e+000	 3.399969999982149e+000	 1.000873437308739e+001
0	 8.533360000018131e+000	 3.466639999981866e+000	 1.001019302800359e+001
0	 8.533360000018131e+000	 3.533309999982382e+000	 1.001160413154443e+001
0	 8.533360000018131e+000	 3.599979999983599e+000	 1.001296917810724e+001
0	 8.533360000018133e+000	 3.666649999985417e+000	 1.001428966208934e+001
0	 8.533360000018131e+000	 3.733319999987733e+000	 1.001556707788807e+001
0	 8.533360000018133e+000	 3.799989999990450e+000	 1.001680291990073e+001
0	 8.533360000018131e+000	 3.866659999993467e+000	 1.001799868252466e+001
0	 8.533360000018131e+000	 3.933329999996683e+000	 1.001915586015718e+001
0	 8.533360000018131e+000	 4.000000000000001e+000	 1.002027594719560e+001
0	 8.600030000017847e+000	 3.333299999983333e+000	 1.000187045483999e+001
0	 8.600030000017847e+000	 3.399969999982150e+000	 1.000344002995024e+001
0	 8.600030000017847e+000	 3.466639999981866e+000	 1.000496456880895e+001
0	 8.600030000017849e+000	 3.533309999982383e+000	 1.000644536984561e+001
0	 8.600030000017847e+000	 3.599979999983600e+000	 1.000788373148980e+001
0	 8.600030000017847e+000	 3.666649999985415e+000	 1.000928095217105e+001
0	 8.600030000017846e+000	 3.733319999987732e+000	 1.001063833031888e+001
0	 8.600030000017847e+000	 3.799989999990450e+000	 1.001195716436286e+001
0	 8.600030000017849e+000	 3.866659999993467e+000	 1.001323875273251e+001
0	 8.600030000017847e+000	 3.933329999996684e+000	 1.001448439385738e+001
0	 8.600030000017846e+000	 3.999999999999999e+000	 1.001569538616698e+001
0	 8.666700000016668e+000	 3.333299999983334e+000	 9.996548777155230e+000
0	 8.666700000016665e+000	 3.399969999982149e+000	 9.998186797397191e+000
0	 8.666700000016665e+000	 3.466639999981867e+000	 9.999783348948617e+000
0	 8.666700000016666e+000	 3.533309999982384e+000	 1.000133943205921e+001
0	 8.666700000016666e+000	 3.599979999983600e+000	 1.000285604697868e+001
0	 8.666700000016665e+000	 3.666649999985415e+000	 1.000433419395675e+001
0	 8.666700000016666e+000	 3.733319999987733e+000	 1.000577487324314e+001
0	 8.666700000016665e+000	 3.799989999990450e+000	 1.000717908508752e+001
0	 8.666700000016668e+000	 3.866659999993467e+000	 1.000854782973964e+001
0	 8.666700000016666e+000	 3.933329999996683e+000	 1.000988210744918e+001
0	 8.666700000016668e+000	 4.000000000000000e+000	 1.001118291846585e+001
0	 8.000000000000000e+000	 4.000000000000001e+000	 1.005910352580918e+001
0	 7.999999999999999e+000	 4.066670000003318e+000	 1.005951213392269e+001
0	 8.000000000000000e+000	 4.133340000006534e+000	 1.005987256278008e+001
0	 7.999999999999998e+000	 4.200010000009550e+000	 1.006018508557212e+001
0	 8.000000000000000e+000	 4.266680000012268e+000	 1.006044997548961e+001
0	 7.999999999999998e+000	 4.333350000014583e+000	 1.006066750572331e+001
0	 8.000000000000000e+000	 4.400020000016401e+000	 1.006083794946400e+001
0	 8.000000000000000e+000	 4.466690000017618e+000	 1.006096157990245e+001
0	 8.000000000000000e+000	 4.533360000018135e+000	 1.006103867022945e+001
0	 8.000000000000000e+000	 4.600030000017850e+000	 1.006106949363575e+001
0	 7.999999999999998e+000	 4.666700000016665e+000	 1.006105432331215e+001
0	 8.066670000003319e+000	 4.000000000000001e+000	 1.005405869898216e+001
0	 8.066670000003319e+000	 4.066670000003319e+000	 1.005453639845822e+001
0	 8.066670000003315e+000	 4.133340000006533e+000	 1.005496984016491e+001
0	 8.066670000003313e+000	 4.200010000009549e+000	 1.005535887198840e+001
0	 8.066670000003319e+000	 4.266680000012268e+000	 1.005570334181479e+001
0	 8.066670000003317e+000	 4.333350000014583e+000	 1.005600309753023e+001
0	 8.066670000003317e+000	 4.400020000016401e+000	 1.005625798702085e+001
0	 8.066670000003313e+000	 4.466690000017617e+000	 1.005646785817280e+001
0	 8.066670000003319e+000	 4.533360000018134e+000	 1.005663255887220e+001
0	 8.066670000003317e+000	 4.600030000017849e+000	 1.005675193700518e+001
0	 8.066670000003315e+000	 4.666700000016666e+000	 1.005682584045788e+001
0	 8.133340000006536e+000	 4.000000000000001e+000	 1.004906408085562e+001
0	 8.133340000006536e+000	 4.066670000003317e+000	 1.004961697277796e+001
0	 8.133340000006534e+000	 4.133340000006534e+000	 1.005012791671293e+001
0	 8.133340000006534e+000	 4.200010000009550e+000	 1.005059641350550e+001
0	 8.133340000006534e+000	 4.266680000012268e+000	 1.005102196400058e+001
0	 8.133340000006532e+000	 4.333350000014584e+000	 1.005140406904313e+001
0	 8.133340000006532e+000	 4.400020000016403e+000	 1.005174222947807e+001
0	 8.133340000006532e+000	 4.466690000017618e+000	 1.005203594615034e+001
0	 8.133340000006532e+000	 4.533360000018134e+000	 1.005228471990489e+001
0	 8.133340000006532e+000	 4.600030000017851e+000	 1.005248805158663e+001
0	 8.133340000006534e+000	 4.666700000016668e+000	 1.005264544204051e+001
0	 8.200010000009550e+000	 4.000000000000000e+000	 1.004412190700795e+001
0	 8.200010000009550e+000	 4.066670000003317e+000	 1.004475511769059e+001
0	 8.200010000009550e+000	 4.133340000006535e+000	 1.004534729979552e+001
0	 8.200010000009550e+000	 4.200010000009550e+000	 1.004589768538990e+001
0	 8.200010000009550e+000	 4.266680000012268e+000	 1.004640550654094e+001
0	 8.200010000009547e+000	 4.333350000014582e+000	 1.004686999531581e+001
0	 8.200010000009547e+000	 4.400020000016402e+000	 1.004729038378168e+001
0	 8.200010000009550e+000	 4.466690000017619e+000	 1.004766590400573e+001
0	 8.200010000009550e+000	 4.533360000018134e+000	 1.004799578805516e+001
0	 8.200010000009549e+000	 4.600030000017851e+000	 1.004827926799711e+001
0	 8.200010000009550e+000	 4.666700000016667e+000	 1.004851557589878e+001
0	 8.266680000012265e+000	 3.999999999999999e+000	 1.003923441301750e+001
0	 8.266680000012267e+000	 4.066670000003318e+000	 1.003995209400484e+001
0	 8.266680000012268e+000	 4.133340000006534e+000	 1.004062849678408e+001
0	 8.266680000012265e+000	 4.200010000009550e+000	 1.004126266290813e+001
0	 8.266680000012265e+000	 4.266680000012268e+000	 1.004185363392986e+001
0	 8.266680000012265e+000	 4.333350000014584e+000	 1.004240045140208e+001
0	 8.266680000012267e+000	 4.400020000016401e+000	 1.004290215687773e+001
0	 8.266680000012267e+000	 4.466690000017618e+000	 1.004335779190961e+001
0	 8.266680000012265e+000	 4.533360000018133e+000	 1.004376639805061e+001
0	 8.266680000012267e+000	 4.600030000017851e+000	 1.004412701685361e+001
0	 8.266680000012267e+000	 4.666700000016667e+000	 1.004443868987145e+001
0	 8.333350000014582e+000	 4.000000000000000e+000	 1.003440383446266e+001
0	 8.333350000014583e+000	 4.066670000003319e+000	 1.003520916252937e+001
0	 8.333350000014582e+000	 4.133340000006534e+000	 1.003597201505004e+001
0	 8.333350000014583e+000	 4.200010000009550e+000	 1.003669132132666e+001
0	 8.333350000014582e+000	 4.266680000012268e+000	 1.003736601066123e+001
0	 8.333350000014583e+000	 4.333350000014584e+000	 1.003799501235576e+001
0	 8.333350000014582e+000	 4.400020000016401e+000	 1.003857725571221e+001
0	 8.333350000014585e+000	 4.466690000017616e+000	 1.003911167003259e+001
0	 8.333350000014583e+000	 4.533360000018132e+000	 1.003959718461890e+001
0	 8.333350000014582e+000	 4.600030000017849e+000	 1.004003272877312e+001
0	 8.333350000014585e+000	 4.666700000016668e+000	 1.004041723179725e+001
0	 8.400020000016399e+000	 4.000000000000000e+000	 1.002963240692182e+001
0	 8.400020000016399e+000	 4.066670000003316e+000	 1.003052758407292e+001
0	 8.400020000016397e+000	 4.133340000006535e+000	 1.003137836196479e+001
0	 8.400020000016399e+000	 4.200010000009550e+000	 1.003218363591198e+001
0	 8.400020000016401e+000	 4.266680000012267e+000	 1.003294230122907e+001
0	 8.400020000016401e+000	 4.333350000014584e+000	 1.003365325323062e+001
0	 8.400020000016397e+000	 4.400020000016402e+000	 1.003431538723118e+001
0	 8.400020000016401e+000	 4.466690000017616e+000	 1.003492759854534e+001
0	 8.400020000016395e+000	 4.533360000018133e+000	 1.003548878248764e+001
0	 8.400020000016399e+000	 4.600030000017850e+000	 1.003599783437265e+001
0	 8.400020000016399e+000	 4.666700000016666e+000	 1.003645364951493e+001
0	 8.466690000017618e+000	 4.000000000000001e+000	 1.002492236597334e+001
0	 8.466690000017614e+000	 4.066670000003316e+000	 1.002590861944419e+001
0	 8.466690000017614e+000	 4.133340000006533e+000	 1.002684804489974e+001
0	 8.466690000017614e+000	 4.200010000009550e+000	 1.002773958193059e+001
0	 8.466690000017616e+000	 4.266680000012268e+000	 1.002858217012731e+001
0	 8.466690000017616e+000	 4.333350000014582e+000	 1.002937474908049e+001
0	 8.466690000017618e+000	 4.400020000016401e+000	 1.003011625838067e+001
0	 8.466690000017618e+000	 4.466690000017619e+000	 1.003080563761848e+001
0	 8.466690000017614e+000	 4.533360000018133e+000	 1.003144182638445e+001
0	 8.466690000017618e+000	 4.600030000017850e+000	 1.003202376426918e+001
0	 8.466690000017616e+000	 4.666700000016666e+000	 1.003255039086322e+001
0	 8.533360000018131e+000	 4.000000000000001e+000	 1.002027594719560e+001
0	 8.533360000018131e+000	 4.066670000003317e+000	 1.002135352945185e+001
0	 8.533360000018133e+000	 4.133340000006534e+000	 1.002238157122631e+001
0	 8.533360000018131e+000	 4.200010000009550e+000	 1.002335913464897e+001
0	 8.533360000018131e+000	 4.266680000012268e+000	 1.002428528184992e+001
0	 8.533360000018131e+000	 4.333350000014583e+000	 1.002515907495917e+001
0	 8.533360000018131e+000	 4.400020000016402e+000	 1.002597957610673e+001
0	 8.533360000018131e+000	 4.466690000017617e+000	 1.002674584742266e+001
0	 8.533360000018133e+000	 4.533360000018134e+000	 1.002745695103697e+001
0	 8.533360000018133e+000	 4.600030000017851e+000	 1.002811194907971e+001
0	 8.533360000018131e+000	 4.666700000016666e+000	 1.002870990368088e+001
0	 8.600030000017846e+000	 3.999999999999999e+000	 1.001569538616698e+001
0	 8.600030000017849e+000	 4.066670000003319e+000	 1.001686357490463e+001
0	 8.600030000017849e+000	 4.133340000006535e+000	 1.001797944831588e+001
0	 8.600030000017847e+000	 4.200010000009550e+000	 1.001904226933363e+001
0	 8.600030000017847e+000	 4.266680000012268e+000	 1.002005130089085e+001
0	 8.600030000017847e+000	 4.333350000014583e+000	 1.002100580592045e+001
0	 8.600030000017847e+000	 4.400020000016401e+000	 1.002190504735535e+001
0	 8.600030000017846e+000	 4.466690000017617e+000	 1.002274828812850e+001
0	 8.600030000017849e+000	 4.533360000018132e+000	 1.002353479117282e+001
0	 8.600030000017849e+000	 4.600030000017850e+000	 1.002426381942122e+001
0	 8.600030000017847e+000	 4.666700000016666e+000	 1.002493463580664e+001
0	 8.666700000016668e+000	 4.000000000000000e+000	 1.001118291846585e+001
0	 8.666700000016666e+000	 4.066670000003317e+000	 1.001244001661122e+001
0	 8.666700000016666e+000	 4.133340000006535e+000	 1.001364218353987e+001
0	 8.666700000016668e+000	 4.200010000009551e+000	 1.001478896125105e+001
0	 8.666700000016666e+000	 4.266680000012268e+000	 1.001587989174406e+001
0	 8.666700000016666e+000	 4.333350000014585e+000	 1.001691451701815e+001
0	 8.666700000016666e+000	 4.400020000016401e+000	 1.001789237907260e+001
0	 8.666700000016666e+000	 4.466690000017618e+000	 1.001881301990666e+001
0	 8.666700000016668e+000	 4.533360000018134e+000	 1.001967598151962e+001
0	 8.666700000016666e+000	 4.600030000017851e+000	 1.002048080591073e+001
0	 8.666700000016668e+000	 4.666700000016666e+000	 1.002122703507926e+001
0	 7.999999999999998e+000	 4.666700000016665e+000	 1.006105432331215e+001
0	 8.000000000000000e+000	 4.733360000014532e+000	 1.006099315612064e+001
0	 8.000000000000000e+000	 4.800020000011601e+000	 1.006088477044796e+001
0	 8.000000000000000e+000	 4.866680000008068e+000	 1.006072762890549e+001
0	 7.999999999999998e+000	 4.933340000004133e+000	 1.006052019410453e+001
0	 7.999999999999999e+000	 5.000000000000000e+000	 1.006026092865647e+001
0	 8.000000000000000e+000	 5.066659999995867e+000	 1.005994829517261e+001
0	 8.000000000000000e+000	 5.133319999991934e+000	 1.005958075626434e+001
0	 8.000000000000000e+000	 5.199979999988400e+000	 1.005915677454299e+001
0	 8.000000000000000e+000	 5.266639999985468e+000	 1.005867481261989e+001
0	 8.000000000000000e+000	 5.333299999983333e+000	 1.005813333310643e+001
0	 8.066670000003315e+000	 4.666700000016666e+000	 1.005682584045788e+001
0	 8.066670000003319e+000	 4.733360000014533e+000	 1.005685236762594e+001
0	 8.066670000003313e+000	 4.800020000011598e+000	 1.005682898932907e+001
0	 8.066670000003320e+000	 4.866680000008067e+000	 1.005675458908873e+001
0	 8.066670000003319e+000	 4.933340000004134e+000	 1.005662805042638e+001
0	 8.066670000003320e+000	 5.000000000000001e+000	 1.005644825686350e+001
0	 8.066670000003319e+000	 5.066659999995867e+000	 1.005621409192156e+001
0	 8.066670000003319e+000	 5.133319999991934e+000	 1.005592443912201e+001
0	 8.066670000003317e+000	 5.199979999988400e+000	 1.005557818198634e+001
0	 8.066670000003319e+000	 5.266639999985468e+000	 1.005517420403603e+001
0	 8.066670000003313e+000	 5.333299999983333e+000	 1.005471138879254e+001
0	 8.133340000006534e+000	 4.666700000016668e+000	 1.005264544204051e+001
0	 8.133340000006536e+000	 4.733360000014532e+000	 1.005275419234788e+001
0	 8.133340000006530e+000	 4.800020000011599e+000	 1.005281147038919e+001
0	 8.133340000006534e+000	 4.866680000008065e+000	 1.005281651679692e+001
0	 8.133340000006534e+000	 4.933340000004134e+000	 1.005276857220361e+001
0	 8.133340000006536e+000	 5.000000000000002e+000	 1.005266687724175e+001
0	 8.133340000006532e+000	 5.066659999995866e+000	 1.005251067254386e+001
0	 8.133340000006536e+000	 5.133319999991933e+000	 1.005229919874246e+001
0	 8.133340000006530e+000	 5.199979999988400e+000	 1.005203169647006e+001
0	 8.133340000006534e+000	 5.266639999985468e+000	 1.005170740635918e+001
0	 8.133340000006532e+000	 5.333299999983334e+000	 1.005132556904233e+001
0	 8.200010000009550e+000	 4.666700000016667e+000	 1.004851557589879e+001
0	 8.200010000009550e+000	 4.733360000014533e+000	 1.004870211657956e+001
0	 8.200010000009554e+000	 4.800020000011601e+000	 1.004883655984694e+001
0	 8.200010000009550e+000	 4.866680000008065e+000	 1.004891843964539e+001
0	 8.200010000009550e+000	 4.933340000004133e+000	 1.004894728991939e+001
0	 8.200010000009550e+000	 5.000000000000001e+000	 1.004892264461343e+001
0	 8.200010000009549e+000	 5.066659999995867e+000	 1.004884403767196e+001
0	 8.200010000009550e+000	 5.133319999991934e+000	 1.004871100303949e+001
0	 8.200010000009552e+000	 5.199979999988400e+000	 1.004852307466048e+001
0	 8.200010000009550e+000	 5.266639999985467e+000	 1.004827978647942e+001
0	 8.200010000009550e+000	 5.333299999983333e+000	 1.004798067244080e+001
0	 8.266680000012267e+000	 4.666700000016667e+000	 1.004443868987145e+001
0	 8.266680000012268e+000	 4.733360000014534e+000	 1.004469962661407e+001
0	 8.266680000012263e+000	 4.800020000011599e+000	 1.004490860392096e+001
0	 8.266680000012265e+000	 4.866680000008066e+000	 1.004506538524943e+001
0	 8.266680000012265e+000	 4.933340000004133e+000	 1.004516973405692e+001
0	 8.266680000012265e+000	 5.000000000000000e+000	 1.004522141380074e+001
0	 8.266680000012267e+000	 5.066659999995867e+000	 1.004522018793827e+001
0	 8.266680000012267e+000	 5.133319999991935e+000	 1.004516581992687e+001
0	 8.266680000012265e+000	 5.199979999988400e+000	 1.004505807322394e+001
0	 8.266680000012268e+000	 5.266639999985468e+000	 1.004489671128680e+001
0	 8.266680000012265e+000	 5.333299999983334e+000	 1.004468149757287e+001
0	 8.333350000014585e+000	 4.666700000016668e+000	 1.004041723179725e+001
0	 8.333350000014585e+000	 4.733360000014534e+000	 1.004075020874449e+001
0	 8.333350000014580e+000	 4.800020000011601e+000	 1.004103194882981e+001
0	 8.333350000014580e+000	 4.866680000008065e+000	 1.004126238122437e+001
0	 8.333350000014578e+000	 4.933340000004132e+000	 1.004144143509933e+001
0	 8.333350000014582e+000	 4.999999999999998e+000	 1.004156903962588e+001
0	 8.333350000014582e+000	 5.066659999995868e+000	 1.004164512397519e+001
0	 8.333350000014580e+000	 5.133319999991934e+000	 1.004166961731842e+001
0	 8.333350000014580e+000	 5.199979999988400e+000	 1.004164244882677e+001
0	 8.333350000014583e+000	 5.266639999985467e+000	 1.004156354767139e+001
0	 8.333350000014585e+000	 5.333299999983336e+000	 1.004143284302349e+001
0	 8.400020000016399e+000	 4.666700000016666e+000	 1.003645364951493e+001
0	 8.400020000016401e+000	 4.733360000014534e+000	 1.003685734926393e+001
0	 8.400020000016399e+000	 4.800020000011600e+000	 1.003721094079214e+001
0	 8.400020000016399e+000	 4.866680000008065e+000	 1.003751445518548e+001
0	 8.400020000016401e+000	 4.933340000004133e+000	 1.003776792352982e+001
0	 8.400020000016401e+000	 4.999999999999999e+000	 1.003797137691108e+001
0	 8.400020000016403e+000	 5.066659999995867e+000	 1.003812484641515e+001
0	 8.400020000016399e+000	 5.133319999991934e+000	 1.003822836312793e+001
0	 8.400020000016397e+000	 5.199979999988400e+000	 1.003828195813532e+001
0	 8.400020000016401e+000	 5.266639999985468e+000	 1.003828566252325e+001
0	 8.400020000016397e+000	 5.333299999983332e+000	 1.003823950737761e+001
0	 8.466690000017616e+000	 4.666700000016666e+000	 1.003255039086322e+001
0	 8.466690000017618e+000	 4.733360000014533e+000	 1.003302453446548e+001
0	 8.466690000017614e+000	 4.800020000011601e+000	 1.003344992602658e+001
0	 8.466690000017618e+000	 4.866680000008068e+000	 1.003382663474810e+001
0	 8.466690000017616e+000	 4.933340000004134e+000	 1.003415472983155e+001
0	 8.466690000017618e+000	 5.000000000000000e+000	 1.003443428047852e+001
0	 8.466690000017614e+000	 5.066659999995866e+000	 1.003466535589053e+001
0	 8.466690000017616e+000	 5.133319999991934e+000	 1.003484802526915e+001
0	 8.466690000017612e+000	 5.199979999988399e+000	 1.003498235781593e+001
0	 8.466690000017616e+000	 5.266639999985467e+000	 1.003506842273242e+001
0	 8.466690000017618e+000	 5.333299999983334e+000	 1.003510628922019e+001
0	 8.533360000018131e+000	 4.666700000016666e+000	 1.002870990368088e+001
0	 8.533360000018130e+000	 4.733360000014534e+000	 1.002925525064222e+001
0	 8.533360000018135e+000	 4.800020000011601e+000	 1.002975325075173e+001
0	 8.533360000018131e+000	 4.866680000008066e+000	 1.003020394752752e+001
0	 8.533360000018133e+000	 4.933340000004134e+000	 1.003060738448770e+001
0	 8.533360000018133e+000	 5.000000000000001e+000	 1.003096360515042e+001
0	 8.533360000018133e+000	 5.066659999995866e+000	 1.003127265303377e+001
0	 8.533360000018131e+000	 5.133319999991934e+000	 1.003153457165590e+001
0	 8.533360000018131e+000	 5.199979999988400e+000	 1.003174940453494e+001
0	 8.533360000018133e+000	 5.266639999985468e+000	 1.003191719518898e+001
0	 8.533360000018131e+000	 5.333299999983332e+000	 1.003203798713617e+001
0	 8.600030000017847e+000	 4.666700000016666e+000	 1.002493463580664e+001
0	 8.600030000017849e+000	 4.733360000014534e+000	 1.002555298408726e+001
0	 8.600030000017849e+000	 4.800020000011600e+000	 1.002612526118620e+001
0	 8.600030000017846e+000	 4.866680000008065e+000	 1.002665142113905e+001
0	 8.600030000017846e+000	 4.933340000004134e+000	 1.002713141798144e+001
0	 8.600030000017849e+000	 4.999999999999999e+000	 1.002756520574897e+001
0	 8.600030000017847e+000	 5.066659999995866e+000	 1.002795273847728e+001
0	 8.600030000017849e+000	 5.133319999991934e+000	 1.002829397020197e+001
0	 8.600030000017849e+000	 5.199979999988401e+000	 1.002858885495867e+001
0	 8.600030000017846e+000	 5.266639999985467e+000	 1.002883734678298e+001
0	 8.600030000017849e+000	 5.333299999983334e+000	 1.002903939971052e+001
0	 8.666700000016668e+000	 4.666700000016666e+000	 1.002122703507926e+001
0	 8.666700000016666e+000	 4.733360000014534e+000	 1.002192122109369e+001
0	 8.666700000016668e+000	 4.800020000011600e+000	 1.002257030354859e+001
0	 8.666700000016665e+000	 4.866680000008067e+000	 1.002317408319800e+001
0	 8.666700000016666e+000	 4.933340000004133e+000	 1.002373236079593e+001
0	 8.666700000016666e+000	 5.000000000000000e+000	 1.002424493709641e+001
0	 8.666700000016666e+000	 5.066659999995867e+000	 1.002471161285347e+001
0	 8.666700000016666e+000	 5.133319999991934e+000	 1.002513218882115e+001
0	 8.666700000016666e+000	 5.199979999988400e+000	 1.002550646575346e+001
0	 8.666700000016666e+000	 5.266639999985468e+000	 1.002583424440446e+001
0	 8.666700000016668e+000	 5.333299999983335e+000	 1.002611532552817e+001
0	 8.000000000000000e+000	 5.333299999983333e+000	 1.005813333310643e+001
0	 8.000000000000000e+000	 5.399969999982149e+000	 1.005754884872823e+001
0	 8.000000000000000e+000	 5.466639999981868e+000	 1.005693847091008e+001
0	 8.000000000000000e+000	 5.533309999982382e+000	 1.005630130299845e+001
0	 8.000000000000000e+000	 5.599979999983600e+000	 1.005563644833980e+001
0	 8.000000000000000e+000	 5.666649999985416e+000	 1.005494301028060e+001
0	 7.999999999999999e+000	 5.733319999987732e+000	 1.005422009216734e+001
0	 8.000000000000000e+000	 5.799989999990449e+000	 1.005346679734647e+001
0	 7.999999999999998e+000	 5.866659999993466e+000	 1.005268222916445e+001
0	 8.000000000000000e+000	 5.933329999996682e+000	 1.005186549096778e+001
0	 8.000000000000000e+000	 6.000000000000001e+000	 1.005101568610290e+001
0	 8.066670000003313e+000	 5.333299999983333e+000	 1.005471138879254e+001
0	 8.066670000003319e+000	 5.399969999982149e+000	 1.005420646310095e+001
0	 8.066670000003317e+000	 5.466639999981866e+000	 1.005367632617389e+001
0	 8.066670000003315e+000	 5.533309999982384e+000	 1.005311989838913e+001
0	 8.066670000003317e+000	 5.599979999983599e+000	 1.005253610012450e+001
0	 8.066670000003319e+000	 5.666649999985415e+000	 1.005192385175779e+001
0	 8.066670000003319e+000	 5.733319999987732e+000	 1.005128207366683e+001
0	 8.066670000003315e+000	 5.799989999990451e+000	 1.005060968622943e+001
0	 8.066670000003315e+000	 5.866659999993466e+000	 1.004990560982337e+001
0	 8.066670000003317e+000	 5.933329999996684e+000	 1.004916876482650e+001
0	 8.066670000003319e+000	 5.999999999999999e+000	 1.004839807161660e+001
0	 8.133340000006532e+000	 5.333299999983334e+000	 1.005132556904233e+001
0	 8.133340000006530e+000	 5.399969999982149e+000	 1.005090240134317e+001
0	 8.133340000006532e+000	 5.466639999981865e+000	 1.005045393546825e+001
0	 8.133340000006530e+000	 5.533309999982382e+000	 1.004997895021718e+001
0	 8.133340000006532e+000	 5.599979999983600e+000	 1.004947622438954e+001
0	 8.133340000006532e+000	 5.666649999985416e+000	 1.004894453678496e+001
0	 8.133340000006534e+000	 5.733319999987733e+000	 1.004838266620299e+001
0	 8.133340000006532e+000	 5.799989999990447e+000	 1.004778939144326e+001
0	 8.133340000006534e+000	 5.866659999993466e+000	 1.004716349130538e+001
0	 8.133340000006532e+000	 5.933329999996683e+000	 1.004650374458892e+001
0	 8.133340000006532e+000	 5.999999999999998e+000	 1.004580893009348e+001
0	 8.200010000009550e+000	 5.333299999983333e+000	 1.004798067244080e+001
0	 8.200010000009547e+000	 5.399969999982151e+000	 1.004764085677890e+001
0	 8.200010000009554e+000	 5.466639999981866e+000	 1.004727499167078e+001
0	 8.200010000009550e+000	 5.533309999982383e+000	 1.004688175572826e+001
0	 8.200010000009547e+000	 5.599979999983600e+000	 1.004645982756318e+001
0	 8.200010000009547e+000	 5.666649999985416e+000	 1.004600788578737e+001
0	 8.200010000009552e+000	 5.733319999987733e+000	 1.004552460901267e+001
0	 8.200010000009550e+000	 5.799989999990449e+000	 1.004500867585088e+001
0	 8.200010000009552e+000	 5.866659999993468e+000	 1.004445876491388e+001
0	 8.200010000009550e+000	 5.933329999996684e+000	 1.004387355481347e+001
0	 8.200010000009552e+000	 6.000000000000000e+000	 1.004325172416149e+001
0	 8.266680000012265e+000	 5.333299999983334e+000	 1.004468149757287e+001
0	 8.266680000012265e+000	 5.399969999982150e+000	 1.004442602273218e+001
0	 8.266680000012265e+000	 5.466639999981866e+000	 1.004414318765907e+001
0	 8.266680000012267e+000	 5.533309999982383e+000	 1.004383161216805e+001
0	 8.266680000012270e+000	 5.599979999983600e+000	 1.004348991607362e+001
0	 8.266680000012267e+000	 5.666649999985417e+000	 1.004311671919032e+001
0	 8.266680000012268e+000	 5.733319999987733e+000	 1.004271064133265e+001
0	 8.266680000012263e+000	 5.799989999990449e+000	 1.004227030231514e+001
0	 8.266680000012267e+000	 5.866659999993467e+000	 1.004179432195228e+001
0	 8.266680000012265e+000	 5.933329999996683e+000	 1.004128132005859e+001
0	 8.266680000012267e+000	 6.000000000000001e+000	 1.004072991644858e+001
0	 8.333350000014585e+000	 5.333299999983336e+000	 1.004143284302348e+001
0	 8.333350000014583e+000	 5.399969999982149e+000	 1.004126209252702e+001
0	 8.333350000014582e+000	 5.466639999981867e+000	 1.004106221631072e+001
0	 8.333350000014583e+000	 5.533309999982384e+000	 1.004083181678219e+001
0	 8.333350000014582e+000	 5.599979999983598e+000	 1.004056949634911e+001
0	 8.333350000014583e+000	 5.666649999985417e+000	 1.004027385741910e+001
0	 8.333350000014580e+000	 5.733319999987733e+000	 1.003994350239981e+001
0	 8.333350000014582e+000	 5.799989999990449e+000	 1.003957703369888e+001
0	 8.333350000014583e+000	 5.866659999993468e+000	 1.003917305372396e+001
0	 8.333350000014585e+000	 5.933329999996683e+000	 1.003873016488268e+001
0	 8.333350000014582e+000	 6.000000000000001e+000	 1.003824696958271e+001
0	 8.400020000016397e+000	 5.333299999983332e+000	 1.003823950737761e+001
0	 8.400020000016401e+000	 5.399969999982150e+000	 1.003815325948748e+001
0	 8.400020000016399e+000	 5.466639999981866e+000	 1.003803577050334e+001
0	 8.400020000016399e+000	 5.533309999982381e+000	 1.003788566681639e+001
0	 8.400020000016399e+000	 5.599979999983600e+000	 1.003770157481786e+001
0	 8.400020000016397e+000	 5.666649999985415e+000	 1.003748212089898e+001
0	 8.400020000016401e+000	 5.733319999987732e+000	 1.003722593145094e+001
0	 8.400020000016401e+000	 5.799989999990450e+000	 1.003693163286500e+001
0	 8.400020000016399e+000	 5.866659999993468e+000	 1.003659785153235e+001
0	 8.400020000016399e+000	 5.933329999996684e+000	 1.003622321384422e+001
0	 8.400020000016399e+000	 6.000000000000001e+000	 1.003580634619183e+001
0	 8.466690000017618e+000	 5.333299999983334e+000	 1.003510628922019e+001
0	 8.466690000017616e+000	 5.399969999982151e+000	 1.003510371693756e+001
0	 8.466690000017614e+000	 5.466639999981866e+000	 1.003506754311452e+001
0	 8.466690000017616e+000	 5.533309999982383e+000	 1.003499645951629e+001
0	 8.466690000017614e+000	 5.599979999983598e+000	 1.003488915790811e+001
0	 8.466690000017616e+000	 5.666649999985417e+000	 1.003474433005523e+001
0	 8.466690000017616e+000	 5.733319999987733e+000	 1.003456066772290e+001
0	 8.466690000017616e+000	 5.799989999990450e+000	 1.003433686267636e+001
0	 8.466690000017614e+000	 5.866659999993465e+000	 1.003407160668084e+001
0	 8.466690000017614e+000	 5.933329999996682e+000	 1.003376359150160e+001
0	 8.466690000017618e+000	 6.000000000000000e+000	 1.003341150890388e+001
0	 8.533360000018131e+000	 5.333299999983332e+000	 1.003203798713617e+001
0	 8.533360000018131e+000	 5.399969999982149e+000	 1.003211765820132e+001
0	 8.533360000018131e+000	 5.466639999981866e+000	 1.003216122702187e+001
0	 8.533360000018133e+000	 5.533309999982382e+000	 1.003216749212755e+001
0	 8.533360000018131e+000	 5.599979999983598e+000	 1.003213525204807e+001
0	 8.533360000018135e+000	 5.666649999985418e+000	 1.003206330531314e+001
0	 8.533360000018131e+000	 5.733319999987733e+000	 1.003195045045249e+001
0	 8.533360000018133e+000	 5.799989999990448e+000	 1.003179548599581e+001
0	 8.533360000018131e+000	 5.866659999993468e+000	 1.003159721047283e+001
0	 8.533360000018131e+000	 5.933329999996682e+000	 1.003135442241327e+001
0	 8.533360000018130e+000	 5.999999999999998e+000	 1.003106592034681e+001
0	 8.600030000017849e+000	 5.333299999983334e+000	 1.002903939971052e+001
0	 8.600030000017846e+000	 5.399969999982150e+000	 1.002919927660276e+001
0	 8.600030000017849e+000	 5.466639999981867e+000	 1.002932051510298e+001
0	 8.600030000017849e+000	 5.533309999982384e+000	 1.002940206189586e+001
0	 8.600030000017847e+000	 5.599979999983599e+000	 1.002944286366597e+001
0	 8.600030000017847e+000	 5.666649999985416e+000	 1.002944186709798e+001
0	 8.600030000017846e+000	 5.733319999987732e+000	 1.002939801887653e+001
0	 8.600030000017849e+000	 5.799989999990449e+000	 1.002931026568624e+001
0	 8.600030000017851e+000	 5.866659999993467e+000	 1.002917755421173e+001
0	 8.600030000017847e+000	 5.933329999996682e+000	 1.002899883113764e+001
0	 8.600030000017847e+000	 6.000000000000000e+000	 1.002877304314860e+001
0	 8.666700000016668e+000	 5.333299999983335e+000	 1.002611532552817e+001
0	 8.666700000016668e+000	 5.399969999982151e+000	 1.002635276546591e+001
0	 8.666700000016668e+000	 5.466639999981867e+000	 1.002654910023546e+001
0	 8.666700000016668e+000	 5.533309999982384e+000	 1.002670346606685e+001
0	 8.666700000016668e+000	 5.599979999983600e+000	 1.002681499919005e+001
0	 8.666700000016665e+000	 5.666649999985414e+000	 1.002688283583505e+001
0	 8.666700000016666e+000	 5.733319999987733e+000	 1.002690611223187e+001
0	 8.666700000016666e+000	 5.799989999990448e+000	 1.002688396461050e+001
0	 8.666700000016665e+000	 5.866659999993467e+000	 1.002681552920093e+001
0	 8.666700000016665e+000	 5.933329999996682e+000	 1.002669994223315e+001
0	 8.666700000016666e+000	 6.000000000000001e+000	 1.002653633993717e+001
0	 8.000000000000000e+000	 6.000000000000001e+000	 1.005101568610290e+001
0	 8.000000000000002e+000	 6.066670000003317e+000	 1.005014103946104e+001
0	 7.999999999999999e+000	 6.133340000006534e+000	 1.004924941988423e+001
0	 7.999999999999999e+000	 6.200010000009551e+000	 1.004833939664499e+001
0	 7.999999999999997e+000	 6.266680000012266e+000	 1.004740953901590e+001
0	 7.999999999999999e+000	 6.333350000014583e+000	 1.004645841626954e+001
0	 8.000000000000000e+000	 6.400020000016401e+000	 1.004548459767847e+001
0	 8.000000000000000e+000	 6.466690000017617e+000	 1.004448665251526e+001
0	 8.000000000000000e+000	 6.533360000018136e+000	 1.004346315005247e+001
0	 7.999999999999998e+000	 6.600030000017848e+000	 1.004241265956268e+001
0	 8.000000000000000e+000	 6.666700000016668e+000	 1.004133375031845e+001
0	 8.066670000003319e+000	 5.999999999999999e+000	 1.004839807161660e+001
0	 8.066670000003317e+000	 6.066670000003317e+000	 1.004760094743191e+001
0	 8.066670000003315e+000	 6.133340000006531e+000	 1.004678471608487e+001
0	 8.066670000003317e+000	 6.200010000009550e+000	 1.004594815781463e+001
0	 8.066670000003317e+000	 6.266680000012268e+000	 1.004509005286035e+001
0	 8.066670000003317e+000	 6.333350000014583e+000	 1.004420918146113e+001
0	 8.066670000003317e+000	 6.400020000016400e+000	 1.004330432385617e+001
0	 8.066670000003317e+000	 6.466690000017618e+000	 1.004237426028459e+001
0	 8.066670000003315e+000	 6.533360000018133e+000	 1.004141777098553e+001
0	 8.066670000003317e+000	 6.600030000017851e+000	 1.004043363619816e+001
0	 8.066670000003315e+000	 6.666700000016666e+000	 1.003942063616159e+001
0	 8.133340000006532e+000	 5.999999999999998e+000	 1.004580893009348e+001
0	 8.133340000006532e+000	 6.066670000003315e+000	 1.004508615246478e+001
0	 8.133340000006534e+000	 6.133340000006532e+000	 1.004434263796934e+001
0	 8.133340000006532e+000	 6.200010000009550e+000	 1.004357734783805e+001
0	 8.133340000006536e+000	 6.266680000012268e+000	 1.004278924330173e+001
0	 8.133340000006532e+000	 6.333350000014582e+000	 1.004197728559125e+001
0	 8.133340000006532e+000	 6.400020000016401e+000	 1.004114043593746e+001
0	 8.133340000006532e+000	 6.466690000017616e+000	 1.004027765557121e+001
0	 8.133340000006534e+000	 6.533360000018134e+000	 1.003938790572335e+001
0	 8.133340000006534e+000	 6.600030000017848e+000	 1.003847014762473e+001
0	 8.133340000006532e+000	 6.666700000016665e+000	 1.003752334250620e+001
0	 8.200010000009552e+000	 6.000000000000000e+000	 1.004325172416149e+001
0	 8.200010000009550e+000	 6.066670000003316e+000	 1.004260046954328e+001
0	 8.200010000009550e+000	 6.133340000006533e+000	 1.004192727663473e+001
0	 8.200010000009549e+000	 6.200010000009551e+000	 1.004123125768355e+001
0	 8.200010000009552e+000	 6.266680000012268e+000	 1.004051152493743e+001
0	 8.200010000009547e+000	 6.333350000014582e+000	 1.003976719064404e+001
0	 8.200010000009549e+000	 6.400020000016402e+000	 1.003899736705109e+001
0	 8.200010000009552e+000	 6.466690000017618e+000	 1.003820116640625e+001
0	 8.200010000009552e+000	 6.533360000018135e+000	 1.003737770095722e+001
0	 8.200010000009549e+000	 6.600030000017852e+000	 1.003652608295169e+001
0	 8.200010000009550e+000	 6.666700000016667e+000	 1.003564542463734e+001
0	 8.266680000012267e+000	 6.000000000000001e+000	 1.004072991644858e+001
0	 8.266680000012267e+000	 6.066670000003319e+000	 1.004014771365103e+001
0	 8.266680000012270e+000	 6.133340000006534e+000	 1.003954272317810e+001
0	 8.266680000012265e+000	 6.200010000009550e+000	 1.003891417831946e+001
0	 8.266680000012268e+000	 6.266680000012268e+000	 1.003826131236477e+001
0	 8.266680000012265e+000	 6.333350000014584e+000	 1.003758335860366e+001
0	 8.266680000012268e+000	 6.400020000016401e+000	 1.003687955032581e+001
0	 8.266680000012265e+000	 6.466690000017615e+000	 1.003614912082087e+001
0	 8.266680000012267e+000	 6.533360000018136e+000	 1.003539130337849e+001
0	 8.266680000012265e+000	 6.600030000017849e+000	 1.003460533128835e+001
0	 8.266680000012267e+000	 6.666700000016666e+000	 1.003379043784005e+001
0	 8.333350000014582e+000	 6.000000000000001e+000	 1.003824696958271e+001
0	 8.333350000014583e+000	 6.066670000003317e+000	 1.003773169977165e+001
0	 8.333350000014583e+000	 6.133340000006533e+000	 1.003719306869652e+001
0	 8.333350000014582e+000	 6.200010000009551e+000	 1.003663040071406e+001
0	 8.333350000014580e+000	 6.266680000012267e+000	 1.003604302018106e+001
0	 8.333350000014583e+000	 6.333350000014583e+000	 1.003543025145426e+001
0	 8.333350000014583e+000	 6.400020000016401e+000	 1.003479141889039e+001
0	 8.333350000014582e+000	 6.466690000017616e+000	 1.003412584684622e+001
0	 8.333350000014583e+000	 6.533360000018131e+000	 1.003343285967850e+001
0	 8.333350000014582e+000	 6.600030000017849e+000	 1.003271178174397e+001
0	 8.333350000014585e+000	 6.666700000016668e+000	 1.003196193739939e+001
0	 8.400020000016399e+000	 6.000000000000001e+000	 1.003580634619183e+001
0	 8.400020000016399e+000	 6.066670000003318e+000	 1.003535624288872e+001
0	 8.400020000016399e+000	 6.133340000006534e+000	 1.003488240428703e+001
0	 8.400020000016401e+000	 6.200010000009551e+000	 1.003438421583567e+001
0	 8.400020000016399e+000	 6.266680000012268e+000	 1.003386106298366e+001
0	 8.400020000016399e+000	 6.333350000014584e+000	 1.003331233117996e+001
0	 8.400020000016401e+000	 6.400020000016401e+000	 1.003273740587356e+001
0	 8.400020000016401e+000	 6.466690000017617e+000	 1.003213567251342e+001
0	 8.400020000016397e+000	 6.533360000018134e+000	 1.003150651654854e+001
0	 8.400020000016399e+000	 6.600030000017850e+000	 1.003084932342789e+001
0	 8.400020000016399e+000	 6.666700000016666e+000	 1.003016347860042e+001
0	 8.466690000017618e+000	 6.000000000000000e+000	 1.003341150890388e+001
0	 8.466690000017614e+000	 6.066670000003315e+000	 1.003302515798592e+001
0	 8.466690000017616e+000	 6.133340000006535e+000	 1.003261482104671e+001
0	 8.466690000017616e+000	 6.200010000009552e+000	 1.003217991465259e+001
0	 8.466690000017618e+000	 6.266680000012268e+000	 1.003171985536989e+001
0	 8.466690000017616e+000	 6.333350000014583e+000	 1.003123405976494e+001
0	 8.466690000017616e+000	 6.400020000016399e+000	 1.003072194440408e+001
0	 8.466690000017616e+000	 6.466690000017615e+000	 1.003018292585364e+001
0	 8.466690000017616e+000	 6.533360000018133e+000	 1.002961642067996e+001
0	 8.466690000017616e+000	 6.600030000017851e+000	 1.002902184544936e+001
0	 8.466690000017614e+000	 6.666700000016665e+000	 1.002839861672819e+001
0	 8.533360000018130e+000	 5.999999999999998e+000	 1.003106592034681e+001
0	 8.533360000018131e+000	 6.066670000003316e+000	 1.003074226004680e+001
0	 8.533360000018133e+000	 6.133340000006533e+000	 1.003039441007265e+001
0	 8.533360000018131e+000	 6.200010000009550e+000	 1.003002178813313e+001
0	 8.533360000018131e+000	 6.266680000012267e+000	 1.002962381193709e+001
0	 8.533360000018133e+000	 6.333350000014584e+000	 1.002919989919334e+001
0	 8.533360000018131e+000	 6.400020000016400e+000	 1.002874946761072e+001
0	 8.533360000018130e+000	 6.466690000017616e+000	 1.002827193489802e+001
0	 8.533360000018135e+000	 6.533360000018137e+000	 1.002776671876408e+001
0	 8.533360000018133e+000	 6.600030000017853e+000	 1.002723323691771e+001
0	 8.533360000018130e+000	 6.666700000016665e+000	 1.002667090706774e+001
0	 8.600030000017847e+000	 6.000000000000000e+000	 1.002877304314860e+001
0	 8.600030000017847e+000	 6.066670000003317e+000	 1.002851136405503e+001
0	 8.600030000017847e+000	 6.133340000006535e+000	 1.002822526246187e+001
0	 8.600030000017849e+000	 6.200010000009550e+000	 1.002791412724558e+001
0	 8.600030000017849e+000	 6.266680000012268e+000	 1.002757734728258e+001
0	 8.600030000017847e+000	 6.333350000014583e+000	 1.002721431144931e+001
0	 8.600030000017847e+000	 6.400020000016401e+000	 1.002682440862221e+001
0	 8.600030000017849e+000	 6.466690000017617e+000	 1.002640702767771e+001
0	 8.600030000017849e+000	 6.533360000018135e+000	 1.002596155749224e+001
0	 8.600030000017849e+000	 6.600030000017851e+000	 1.002548738694223e+001
0	 8.600030000017847e+000	 6.666700000016666e+000	 1.002498390490413e+001
0	 8.666700000016666e+000	 6.000000000000001e+000	 1.002653633993717e+001
0	 8.666700000016666e+000	 6.066670000003318e+000	 1.002633628499418e+001
0	 8.666700000016666e+000	 6.133340000006533e+000	 1.002611146931148e+001
0	 8.666700000016666e+000	 6.200010000009550e+000	 1.002586122295826e+001
0	 8.666700000016666e+000	 6.266680000012268e+000	 1.002558487600371e+001
0	 8.666700000016666e+000	 6.333350000014585e+000	 1.002528175851700e+001
0	 8.666700000016668e+000	 6.400020000016401e+000	 1.002495120056732e+001
0	 8.666700000016668e+000	 6.466690000017617e+000	 1.002459253222383e+001
0	 8.666700000016668e+000	 6.533360000018135e+000	 1.002420508355574e+001
0	 8.666700000016666e+000	 6.600030000017850e+000	 1.002378818463220e+001
0	 8.666700000016666e+000	 6.666700000016665e+000	 1.002334116552240e+001
0	 8.000000000000000e+000	 6.666700000016668e+000	 1.004133375031845e+001
0	 7.999999999999999e+000	 6.733360000014532e+000	 1.004024069889899e+001
0	 8.000000000000000e+000	 6.800020000011601e+000	 1.003914762849682e+001
0	 7.999999999999999e+000	 6.866680000008068e+000	 1.003805337039790e+001
0	 8.000000000000000e+000	 6.933340000004133e+000	 1.003695675588817e+001
0	 8.000000000000000e+000	 7.000000000000000e+000	 1.003585661625357e+001
0	 7.999999999999999e+000	 7.066659999995867e+000	 1.003475178278005e+001
0	 8.000000000000000e+000	 7.133319999991934e+000	 1.003364108675356e+001
0	 8.000000000000000e+000	 7.199979999988400e+000	 1.003252335946004e+001
0	 8.000000000000000e+000	 7.266639999985467e+000	 1.003139743218542e+001
0	 8.000000000000000e+000	 7.333299999983335e+000	 1.003026213621567e+001
0	 8.066670000003315e+000	 6.666700000016666e+000	 1.003942063616159e+001
0	 8.066670000003317e+000	 6.733360000014533e+000	 1.003839301620336e+001
0	 8.066670000003315e+000	 6.800020000011600e+000	 1.003736471589038e+001
0	 8.066670000003320e+000	 6.866680000008067e+000	 1.003633451932544e+001
0	 8.066670000003317e+000	 6.933340000004135e+000	 1.003530121061129e+001
0	 8.066670000003319e+000	 7.000000000000001e+000	 1.003426357385074e+001
0	 8.066670000003319e+000	 7.066659999995868e+000	 1.003322039314654e+001
0	 8.066670000003320e+000	 7.133319999991935e+000	 1.003217045260144e+001
0	 8.066670000003317e+000	 7.199979999988400e+000	 1.003111253631828e+001
0	 8.066670000003319e+000	 7.266639999985467e+000	 1.003004542839979e+001
0	 8.066670000003315e+000	 7.333299999983334e+000	 1.002896791294875e+001
0	 8.133340000006532e+000	 6.666700000016665e+000	 1.003752334250620e+001
0	 8.133340000006532e+000	 6.733360000014531e+000	 1.003656143121688e+001
0	 8.133340000006530e+000	 6.800020000011598e+000	 1.003559792768043e+001
0	 8.133340000006538e+000	 6.866680000008069e+000	 1.003463158547148e+001
0	 8.133340000006532e+000	 6.933340000004131e+000	 1.003366115816470e+001
0	 8.133340000006532e+000	 6.999999999999998e+000	 1.003268539933475e+001
0	 8.133340000006534e+000	 7.066659999995868e+000	 1.003170306255628e+001
0	 8.133340000006538e+000	 7.133319999991936e+000	 1.003071290140396e+001
0	 8.133340000006530e+000	 7.199979999988400e+000	 1.002971366945246e+001
0	 8.133340000006534e+000	 7.266639999985466e+000	 1.002870412027642e+001
0	 8.133340000006534e+000	 7.333299999983332e+000	 1.002768300745052e+001
0	 8.200010000009550e+000	 6.666700000016667e+000	 1.003564542463734e+001
0	 8.200010000009550e+000	 6.733360000014532e+000	 1.003474914709864e+001
0	 8.200010000009554e+000	 6.800020000011600e+000	 1.003385015442718e+001
0	 8.200010000009550e+000	 6.866680000008068e+000	 1.003294718632449e+001
0	 8.200010000009550e+000	 6.933340000004135e+000	 1.003203898249224e+001
0	 8.200010000009550e+000	 7.000000000000001e+000	 1.003112428263201e+001
0	 8.200010000009549e+000	 7.066659999995867e+000	 1.003020182644536e+001
0	 8.200010000009550e+000	 7.133319999991934e+000	 1.002927035363395e+001
0	 8.200010000009552e+000	 7.199979999988400e+000	 1.002832860389937e+001
0	 8.200010000009549e+000	 7.266639999985465e+000	 1.002737531694319e+001
0	 8.200010000009549e+000	 7.333299999983334e+000	 1.002640923246704e+001
0	 8.266680000012267e+000	 6.666700000016666e+000	 1.003379043784005e+001
0	 8.266680000012268e+000	 6.733360000014533e+000	 1.003295936700768e+001
0	 8.266680000012263e+000	 6.800020000011598e+000	 1.003212428669079e+001
0	 8.266680000012263e+000	 6.866680000008066e+000	 1.003128393937297e+001
0	 8.266680000012267e+000	 6.933340000004133e+000	 1.003043706753780e+001
0	 8.266680000012265e+000	 6.999999999999997e+000	 1.002958241366891e+001
0	 8.266680000012263e+000	 7.066659999995864e+000	 1.002871872024988e+001
0	 8.266680000012263e+000	 7.133319999991934e+000	 1.002784472976431e+001
0	 8.266680000012263e+000	 7.199979999988400e+000	 1.002695918469581e+001
0	 8.266680000012270e+000	 7.266639999985468e+000	 1.002606082752797e+001
0	 8.266680000012265e+000	 7.333299999983333e+000	 1.002514840074439e+001
0	 8.333350000014585e+000	 6.666700000016668e+000	 1.003196193739939e+001
0	 8.333350000014583e+000	 6.733360000014532e+000	 1.003119529410306e+001
0	 8.333350000014582e+000	 6.800020000011600e+000	 1.003042321503149e+001
0	 8.333350000014582e+000	 6.866680000008068e+000	 1.002964446210534e+001
0	 8.333350000014582e+000	 6.933340000004134e+000	 1.002885779724525e+001
0	 8.333350000014582e+000	 6.999999999999999e+000	 1.002806198237189e+001
0	 8.333350000014582e+000	 7.066659999995867e+000	 1.002725577940589e+001
0	 8.333350000014580e+000	 7.133319999991932e+000	 1.002643795026791e+001
0	 8.333350000014583e+000	 7.199979999988400e+000	 1.002560725687860e+001
0	 8.333350000014583e+000	 7.266639999985467e+000	 1.002476246115863e+001
0	 8.333350000014585e+000	 7.333299999983335e+000	 1.002390232502861e+001
0	 8.400020000016399e+000	 6.666700000016666e+000	 1.003016347860042e+001
0	 8.400020000016399e+000	 6.733360000014533e+000	 1.002946013154383e+001
0	 8.400020000016399e+000	 6.800020000011600e+000	 1.002874983000947e+001
0	 8.400020000016401e+000	 6.866680000008066e+000	 1.002803137201009e+001
0	 8.400020000016403e+000	 6.933340000004135e+000	 1.002730355555847e+001
0	 8.400020000016399e+000	 6.999999999999998e+000	 1.002656517866734e+001
0	 8.400020000016399e+000	 7.066659999995868e+000	 1.002581503934947e+001
0	 8.400020000016401e+000	 7.133319999991935e+000	 1.002505193561762e+001
0	 8.400020000016399e+000	 7.199979999988401e+000	 1.002427466548456e+001
0	 8.400020000016399e+000	 7.266639999985467e+000	 1.002348202696303e+001
0	 8.400020000016397e+000	 7.333299999983333e+000	 1.002267281806579e+001
0	 8.466690000017614e+000	 6.666700000016665e+000	 1.002839861672819e+001
0	 8.466690000017618e+000	 6.733360000014533e+000	 1.002775708248906e+001
0	 8.466690000017614e+000	 6.800020000011599e+000	 1.002710702218492e+001
0	 8.466690000017616e+000	 6.866680000008067e+000	 1.002644728657570e+001
0	 8.466690000017616e+000	 6.933340000004133e+000	 1.002577672642131e+001
0	 8.466690000017614e+000	 6.999999999999999e+000	 1.002509419248166e+001
0	 8.466690000017616e+000	 7.066659999995867e+000	 1.002439853551669e+001
0	 8.466690000017616e+000	 7.133319999991935e+000	 1.002368860628633e+001
0	 8.466690000017614e+000	 7.199979999988400e+000	 1.002296325555047e+001
0	 8.466690000017618e+000	 7.266639999985467e+000	 1.002222133406906e+001
0	 8.466690000017616e+000	 7.333299999983335e+000	 1.002146169260201e+001
0	 8.533360000018130e+000	 6.666700000016665e+000	 1.002667090706774e+001
0	 8.533360000018133e+000	 6.733360000014534e+000	 1.002608935009781e+001
0	 8.533360000018133e+000	 6.800020000011600e+000	 1.002549768211805e+001
0	 8.533360000018130e+000	 6.866680000008066e+000	 1.002489482329062e+001
0	 8.533360000018131e+000	 6.933340000004133e+000	 1.002427969377765e+001
0	 8.533360000018131e+000	 6.999999999999998e+000	 1.002365121374127e+001
0	 8.533360000018133e+000	 7.066659999995868e+000	 1.002300830334364e+001
0	 8.533360000018133e+000	 7.133319999991935e+000	 1.002234988274689e+001
0	 8.533360000018130e+000	 7.199979999988400e+000	 1.002167487211315e+001
0	 8.533360000018131e+000	 7.266639999985467e+000	 1.002098219160458e+001
0	 8.533360000018133e+000	 7.333299999983334e+000	 1.002027076138331e+001
0	 8.600030000017847e+000	 6.666700000016666e+000	 1.002498390490413e+001
0	 8.600030000017849e+000	 6.733360000014533e+000	 1.002446013752912e+001
0	 8.600030000017849e+000	 6.800020000011600e+000	 1.002392470036905e+001
0	 8.600030000017847e+000	 6.866680000008065e+000	 1.002337659964332e+001
0	 8.600030000017849e+000	 6.933340000004136e+000	 1.002281484157136e+001
0	 8.600030000017849e+000	 7.000000000000001e+000	 1.002223843237257e+001
0	 8.600030000017849e+000	 7.066659999995869e+000	 1.002164637826639e+001
0	 8.600030000017849e+000	 7.133319999991936e+000	 1.002103768547219e+001
0	 8.600030000017847e+000	 7.199979999988400e+000	 1.002041136020942e+001
0	 8.600030000017849e+000	 7.266639999985468e+000	 1.001976640869747e+001
0	 8.600030000017849e+000	 7.333299999983335e+000	 1.001910183715578e+001
0	 8.666700000016666e+000	 6.666700000016665e+000	 1.002334116552240e+001
0	 8.666700000016666e+000	 6.733360000014533e+000	 1.002287264794206e+001
0	 8.666700000016668e+000	 6.800020000011599e+000	 1.002239096749810e+001
0	 8.666700000016668e+000	 6.866680000008068e+000	 1.002189523312228e+001
0	 8.666700000016666e+000	 6.933340000004133e+000	 1.002138455374632e+001
0	 8.666700000016666e+000	 7.000000000000001e+000	 1.002085803830197e+001
0	 8.666700000016665e+000	 7.066659999995867e+000	 1.002031479572099e+001
0	 8.666700000016665e+000	 7.133319999991934e+000	 1.001975393493509e+001
0	 8.666700000016668e+000	 7.199979999988400e+000	 1.001917456487605e+001
0	 8.666700000016666e+000	 7.266639999985467e+000	 1.001857579447560e+001
0	 8.666700000016665e+000	 7.333299999983335e+000	 1.001795673266547e+001
0	 8.000000000000000e+000	 7.333299999983335e+000	 1.003026213621567e+001
0	 8.000000000000000e+000	 7.399969999982151e+000	 1.002912781538722e+001
0	 8.000000000000000e+000	 7.466639999981867e+000	 1.002800499540943e+001
0	 8.000000000000000e+000	 7.533309999982385e+000	 1.002689226715988e+001
0	 8.000000000000000e+000	 7.599979999983599e+000	 1.002578822151609e+001
0	 7.999999999999999e+000	 7.666649999985416e+000	 1.002469144935562e+001
0	 7.999999999999999e+000	 7.733319999987732e+000	 1.002360054155603e+001
0	 7.999999999999999e+000	 7.799989999990448e+000	 1.002251408899486e+001
0	 7.999999999999998e+000	 7.866659999993465e+000	 1.002143068254966e+001
0	 8.000000000000000e+000	 7.933329999996684e+000	 1.002034891309799e+001
0	 7.999999999999999e+000	 7.999999999999999e+000	 1.001926737151740e+001
0	 8.066670000003315e+000	 7.333299999983334e+000	 1.002896791294875e+001
0	 8.066670000003315e+000	 7.399969999982151e+000	 1.002789007318292e+001
0	 8.066670000003315e+000	 7.466639999981865e+000	 1.002682225245927e+001
0	 8.066670000003315e+000	 7.533309999982385e+000	 1.002576313763459e+001
0	 8.066670000003319e+000	 7.599979999983599e+000	 1.002471141556564e+001
0	 8.066670000003317e+000	 7.666649999985415e+000	 1.002366577310922e+001
0	 8.066670000003319e+000	 7.733319999987733e+000	 1.002262489712213e+001
0	 8.066670000003315e+000	 7.799989999990450e+000	 1.002158747446118e+001
0	 8.066670000003317e+000	 7.866659999993467e+000	 1.002055219198309e+001
0	 8.066670000003317e+000	 7.933329999996682e+000	 1.001951773654472e+001
0	 8.066670000003319e+000	 7.999999999999998e+000	 1.001848279500284e+001
0	 8.133340000006534e+000	 7.333299999983332e+000	 1.002768300745052e+001
0	 8.133340000006532e+000	 7.399969999982148e+000	 1.002666030595055e+001
0	 8.133340000006530e+000	 7.466639999981864e+000	 1.002564631211129e+001
0	 8.133340000006532e+000	 7.533309999982381e+000	 1.002463979921009e+001
0	 8.133340000006532e+000	 7.599979999983599e+000	 1.002363954052431e+001
0	 8.133340000006532e+000	 7.666649999985415e+000	 1.002264430933128e+001
0	 8.133340000006536e+000	 7.733319999987734e+000	 1.002165287890833e+001
0	 8.133340000006532e+000	 7.799989999990449e+000	 1.002066402253285e+001
0	 8.133340000006532e+000	 7.866659999993466e+000	 1.001967651348214e+001
0	 8.133340000006532e+000	 7.933329999996682e+000	 1.001868912503357e+001
0	 8.133340000006532e+000	 7.999999999999997e+000	 1.001770063046449e+001
0	 8.200010000009549e+000	 7.333299999983334e+000	 1.002640923246704e+001
0	 8.200010000009547e+000	 7.399969999982149e+000	 1.002544034123699e+001
0	 8.200010000009552e+000	 7.466639999981867e+000	 1.002447899954443e+001
0	 8.200010000009550e+000	 7.533309999982384e+000	 1.002352405752852e+001
0	 8.200010000009549e+000	 7.599979999983600e+000	 1.002257436532852e+001
0	 8.200010000009549e+000	 7.666649999985415e+000	 1.002162877308365e+001
0	 8.200010000009552e+000	 7.733319999987732e+000	 1.002068613093313e+001
0	 8.200010000009549e+000	 7.799989999990451e+000	 1.001974528901616e+001
0	 8.200010000009550e+000	 7.866659999993467e+000	 1.001880509747200e+001
0	 8.200010000009550e+000	 7.933329999996683e+000	 1.001786440643985e+001
0	 8.200010000009550e+000	 8.000000000000002e+000	 1.001692206605895e+001
0	 8.266680000012265e+000	 7.333299999983333e+000	 1.002514840074439e+001
0	 8.266680000012265e+000	 7.399969999982149e+000	 1.002423200658918e+001
0	 8.266680000012265e+000	 7.466639999981865e+000	 1.002332213993756e+001
0	 8.266680000012267e+000	 7.533309999982384e+000	 1.002241771823190e+001
0	 8.266680000012268e+000	 7.599979999983600e+000	 1.002151765891466e+001
0	 8.266680000012265e+000	 7.666649999985415e+000	 1.002062087942821e+001
0	 8.266680000012267e+000	 7.733319999987733e+000	 1.001972629721500e+001
0	 8.266680000012263e+000	 7.799989999990447e+000	 1.001883282971743e+001
0	 8.266680000012268e+000	 7.866659999993467e+000	 1.001793939437792e+001
0	 8.266680000012265e+000	 7.933329999996682e+000	 1.001704490863889e+001
0	 8.266680000012265e+000	 8.000000000000002e+000	 1.001614828994275e+001
0	 8.333350000014585e+000	 7.333299999983335e+000	 1.002390232502861e+001
0	 8.333350000014582e+000	 7.399969999982149e+000	 1.002303712955403e+001
0	 8.333350000014583e+000	 7.466639999981867e+000	 1.002217755846965e+001
0	 8.333350000014583e+000	 7.533309999982384e+000	 1.002132258696235e+001
0	 8.333350000014582e+000	 7.599979999983598e+000	 1.002047119021911e+001
0	 8.333350000014582e+000	 7.666649999985415e+000	 1.001962234342683e+001
0	 8.333350000014582e+000	 7.733319999987732e+000	 1.001877502177245e+001
0	 8.333350000014582e+000	 7.799989999990450e+000	 1.001792820044289e+001
0	 8.333350000014583e+000	 7.866659999993467e+000	 1.001708085462508e+001
0	 8.333350000014585e+000	 7.933329999996684e+000	 1.001623195950597e+001
0	 8.333350000014580e+000	 7.999999999999999e+000	 1.001538049027248e+001
0	 8.400020000016397e+000	 7.333299999983333e+000	 1.002267281806579e+001
0	 8.400020000016397e+000	 7.399969999982148e+000	 1.002185753767846e+001
0	 8.400020000016399e+000	 7.466639999981867e+000	 1.002104708031958e+001
0	 8.400020000016399e+000	 7.533309999982381e+000	 1.002024046936194e+001
0	 8.400020000016401e+000	 7.599979999983600e+000	 1.001943672817829e+001
0	 8.400020000016397e+000	 7.666649999985414e+000	 1.001863488014137e+001
0	 8.400020000016401e+000	 7.733319999987733e+000	 1.001783394862398e+001
0	 8.400020000016399e+000	 7.799989999990449e+000	 1.001703295699884e+001
0	 8.400020000016399e+000	 7.866659999993467e+000	 1.001623092863874e+001
0	 8.400020000016397e+000	 7.933329999996681e+000	 1.001542688691642e+001
0	 8.400020000016399e+000	 7.999999999999999e+000	 1.001461985520466e+001
0	 8.466690000017616e+000	 7.333299999983335e+000	 1.002146169260201e+001
0	 8.466690000017614e+000	 7.399969999982150e+000	 1.002069505850938e+001
0	 8.466690000017614e+000	 7.466639999981866e+000	 1.001993253066633e+001
0	 8.466690000017616e+000	 7.533309999982383e+000	 1.001917317107274e+001
0	 8.466690000017614e+000	 7.599979999983599e+000	 1.001841604172858e+001
0	 8.466690000017616e+000	 7.666649999985416e+000	 1.001766020463371e+001
0	 8.466690000017614e+000	 7.733319999987732e+000	 1.001690472178807e+001
0	 8.466690000017614e+000	 7.799989999990449e+000	 1.001614865519156e+001
0	 8.466690000017616e+000	 7.866659999993467e+000	 1.001539106684408e+001
0	 8.466690000017612e+000	 7.933329999996682e+000	 1.001463101874557e+001
0	 8.466690000017618e+000	 8.000000000000000e+000	 1.001386757289590e+001
0	 8.533360000018133e+000	 7.333299999983334e+000	 1.002027076138331e+001
0	 8.533360000018130e+000	 7.399969999982149e+000	 1.001955151959370e+001
0	 8.533360000018131e+000	 7.466639999981865e+000	 1.001883573468876e+001
0	 8.533360000018133e+000	 7.533309999982383e+000	 1.001812249773686e+001
0	 8.533360000018131e+000	 7.599979999983598e+000	 1.001741089980638e+001
0	 8.533360000018133e+000	 7.666649999985419e+000	 1.001670003196572e+001
0	 8.533360000018131e+000	 7.733319999987732e+000	 1.001598898528323e+001
0	 8.533360000018135e+000	 7.799989999990450e+000	 1.001527685082732e+001
0	 8.533360000018131e+000	 7.866659999993466e+000	 1.001456271966635e+001
0	 8.533360000018131e+000	 7.933329999996683e+000	 1.001384568286869e+001
0	 8.533360000018131e+000	 8.000000000000000e+000	 1.001312483150276e+001
0	 8.600030000017849e+000	 7.333299999983335e+000	 1.001910183715578e+001
0	 8.600030000017847e+000	 7.399969999982150e+000	 1.001842874847836e+001
0	 8.600030000017847e+000	 7.466639999981864e+000	 1.001775851756582e+001
0	 8.600030000017849e+000	 7.533309999982384e+000	 1.001709025499635e+001
0	 8.600030000017847e+000	 7.599979999983599e+000	 1.001642307134812e+001
0	 8.600030000017847e+000	 7.666649999985414e+000	 1.001575607719926e+001
0	 8.600030000017847e+000	 7.733319999987733e+000	 1.001508838312796e+001
0	 8.600030000017849e+000	 7.799989999990448e+000	 1.001441909971241e+001
0	 8.600030000017851e+000	 7.866659999993467e+000	 1.001374733753073e+001
0	 8.600030000017846e+000	 7.933329999996683e+000	 1.001307220716112e+001
0	 8.600030000017847e+000	 8.000000000000000e+000	 1.001239281918175e+001
0	 8.666700000016665e+000	 7.333299999983335e+000	 1.001795673266547e+001
0	 8.666700000016666e+000	 7.399969999982151e+000	 1.001732857271025e+001
0	 8.666700000016668e+000	 7.466639999981867e+000	 1.001670270447643e+001
0	 8.666700000016668e+000	 7.533309999982383e+000	 1.001607824849330e+001
0	 8.666700000016668e+000	 7.599979999983599e+000	 1.001545432529013e+001
0	 8.666700000016666e+000	 7.666649999985415e+000	 1.001483005539619e+001
0	 8.666700000016666e+000	 7.733319999987733e+000	 1.001420455934074e+001
0	 8.666700000016666e+000	 7.799989999990450e+000	 1.001357695765309e+001
0	 8.666700000016663e+000	 7.866659999993464e+000	 1.001294637086247e+001
0	 8.666700000016666e+000	 7.933329999996683e+000	 1.001231191949818e+001
0	 8.666700000016666e+000	 7.999999999999999e+000	 1.001167272408949e+001
0	 7.999999999999999e+000	 7.999999999999999e+000	 1.001926737151740e+001
0	 7.999999999999998e+000	 8.066670000003319e+000	 1.001819926724276e+001
0	 8.000000000000000e+000	 8.133340000006534e+000	 1.001715769155903e+001
0	 7.999999999999999e+000	 8.200010000009550e+000	 1.001614105811897e+001
0	 7.999999999999999e+000	 8.266680000012268e+000	 1.001514778057529e+001
0	 8.000000000000000e+000	 8.333350000014585e+000	 1.001417627258074e+001
0	 7.999999999999998e+000	 8.400020000016397e+000	 1.001322494778803e+001
0	 8.000000000000000e+000	 8.466690000017618e+000	 1.001229221984994e+001
0	 7.999999999999998e+000	 8.533360000018131e+000	 1.001137650241914e+001
0	 8.000000000000000e+000	 8.600030000017851e+000	 1.001047620914841e+001
0	 8.000000000000000e+000	 8.666700000016666e+000	 1.000958975369048e+001
0	 8.066670000003319e+000	 7.999999999999998e+000	 1.001848279500284e+001
0	 8.066670000003319e+000	 8.066670000003319e+000	 1.001746036193050e+001
0	 8.066670000003315e+000	 8.133340000006532e+000	 1.001646326985207e+001
0	 8.066670000003317e+000	 8.200010000009550e+000	 1.001548996255114e+001
0	 8.066670000003317e+000	 8.266680000012270e+000	 1.001453888381138e+001
0	 8.066670000003315e+000	 8.333350000014583e+000	 1.001360847741642e+001
0	 8.066670000003317e+000	 8.400020000016401e+000	 1.001269718714994e+001
0	 8.066670000003317e+000	 8.466690000017618e+000	 1.001180345679553e+001
0	 8.066670000003317e+000	 8.533360000018133e+000	 1.001092573013686e+001
0	 8.066670000003315e+000	 8.600030000017851e+000	 1.001006245095759e+001
0	 8.066670000003313e+000	 8.666700000016666e+000	 1.000921206304134e+001
0	 8.133340000006532e+000	 7.999999999999997e+000	 1.001770063046449e+001
0	 8.133340000006532e+000	 8.066670000003315e+000	 1.001672373565624e+001
0	 8.133340000006534e+000	 8.133340000006534e+000	 1.001577094983842e+001
0	 8.133340000006532e+000	 8.200010000009549e+000	 1.001484075131090e+001
0	 8.133340000006534e+000	 8.266680000012267e+000	 1.001393161837346e+001
0	 8.133340000006532e+000	 8.333350000014583e+000	 1.001304202932590e+001
0	 8.133340000006530e+000	 8.400020000016401e+000	 1.001217046246806e+001
0	 8.133340000006534e+000	 8.466690000017616e+000	 1.001131539609975e+001
0	 8.133340000006534e+000	 8.533360000018135e+000	 1.001047530852078e+001
0	 8.133340000006534e+000	 8.600030000017849e+000	 1.000964867803097e+001
0	 8.133340000006532e+000	 8.666700000016665e+000	 1.000883398293013e+001
0	 8.200010000009550e+000	 8.000000000000002e+000	 1.001692206605895e+001
0	 8.200010000009550e+000	 8.066670000003319e+000	 1.001599043561917e+001
0	 8.200010000009549e+000	 8.133340000006534e+000	 1.001508165245173e+001
0	 8.200010000009552e+000	 8.200010000009552e+000	 1.001419423375789e+001
0	 8.200010000009552e+000	 8.266680000012267e+000	 1.001332669673890e+001
0	 8.200010000009547e+000	 8.333350000014583e+000	 1.001247755859598e+001
0	 8.200010000009549e+000	 8.400020000016403e+000	 1.001164533653042e+001
0	 8.200010000009550e+000	 8.466690000017618e+000	 1.001082854774340e+001
0	 8.200010000009552e+000	 8.533360000018137e+000	 1.001002570943621e+001
0	 8.200010000009549e+000	 8.600030000017851e+000	 1.000923533881009e+001
0	 8.200010000009550e+000	 8.666700000016666e+000	 1.000845595306626e+001
0	 8.266680000012265e+000	 8.000000000000002e+000	 1.001614828994275e+001
0	 8.266680000012267e+000	 8.066670000003317e+000	 1.001526150901852e+001
0	 8.266680000012267e+000	 8.133340000006534e+000	 1.001439629862555e+001
0	 8.266680000012267e+000	 8.200010000009550e+000	 1.001355121925178e+001
0	 8.266680000012267e+000	 8.266680000012268e+000	 1.001272483138512e+001
0	 8.266680000012265e+000	 8.333350000014582e+000	 1.001191569551355e+001
0	 8.266680000012267e+000	 8.400020000016401e+000	 1.001112237212495e+001
0	 8.266680000012267e+000	 8.466690000017616e+000	 1.001034342170728e+001
0	 8.266680000012263e+000	 8.533360000018133e+000	 1.000957740474846e+001
0	 8.266680000012267e+000	 8.600030000017851e+000	 1.000882288173645e+001
0	 8.266680000012265e+000	 8.666700000016668e+000	 1.000807841315914e+001
0	 8.333350000014580e+000	 7.999999999999999e+000	 1.001538049027248e+001
0	 8.333350000014583e+000	 8.066670000003319e+000	 1.001453800305357e+001
0	 8.333350000014583e+000	 8.133340000006534e+000	 1.001371580929352e+001
0	 8.333350000014582e+000	 8.200010000009552e+000	 1.001291251715221e+001
0	 8.333350000014583e+000	 8.266680000012270e+000	 1.001212673478956e+001
0	 8.333350000014583e+000	 8.333350000014583e+000	 1.001135707036540e+001
0	 8.333350000014582e+000	 8.400020000016397e+000	 1.001060213203965e+001
0	 8.333350000014585e+000	 8.466690000017618e+000	 1.000986052797214e+001
0	 8.333350000014583e+000	 8.533360000018133e+000	 1.000913086632282e+001
0	 8.333350000014580e+000	 8.600030000017851e+000	 1.000841175525152e+001
0	 8.333350000014583e+000	 8.666700000016668e+000	 1.000770180291815e+001
0	 8.400020000016399e+000	 7.999999999999999e+000	 1.001461985520466e+001
0	 8.400020000016397e+000	 8.066670000003317e+000	 1.001382096492351e+001
0	 8.400020000016397e+000	 8.133340000006532e+000	 1.001304110538921e+001
0	 8.400020000016401e+000	 8.200010000009552e+000	 1.001227893681888e+001
0	 8.400020000016399e+000	 8.266680000012267e+000	 1.001153311942958e+001
0	 8.400020000016399e+000	 8.333350000014582e+000	 1.001080231343842e+001
0	 8.400020000016397e+000	 8.400020000016399e+000	 1.001008517906246e+001
0	 8.400020000016403e+000	 8.466690000017620e+000	 1.000938037651883e+001
0	 8.400020000016397e+000	 8.533360000018133e+000	 1.000868656602459e+001
0	 8.400020000016403e+000	 8.600030000017851e+000	 1.000800240779684e+001
0	 8.400020000016401e+000	 8.666700000016666e+000	 1.000732656205268e+001
0	 8.466690000017618e+000	 8.000000000000000e+000	 1.001386757289590e+001
0	 8.466690000017614e+000	 8.066670000003317e+000	 1.001311144182760e+001
0	 8.466690000017618e+000	 8.133340000006536e+000	 1.001237310784625e+001
0	 8.466690000017616e+000	 8.200010000009552e+000	 1.001165128761140e+001
0	 8.466690000017616e+000	 8.266680000012268e+000	 1.001094469778260e+001
0	 8.466690000017618e+000	 8.333350000014585e+000	 1.001025205501942e+001
0	 8.466690000017616e+000	 8.400020000016401e+000	 1.000957207598139e+001
0	 8.466690000017616e+000	 8.466690000017618e+000	 1.000890347732809e+001
0	 8.466690000017614e+000	 8.533360000018133e+000	 1.000824497571909e+001
0	 8.466690000017614e+000	 8.600030000017849e+000	 1.000759528781391e+001
0	 8.466690000017616e+000	 8.666700000016668e+000	 1.000695313027214e+001
0	 8.533360000018131e+000	 8.000000000000000e+000	 1.001312483150276e+001
0	 8.533360000018131e+000	 8.066670000003317e+000	 1.001241048096509e+001
0	 8.533360000018133e+000	 8.133340000006532e+000	 1.001171273759823e+001
0	 8.533360000018130e+000	 8.200010000009549e+000	 1.001103037888945e+001
0	 8.533360000018130e+000	 8.266680000012267e+000	 1.001036218232601e+001
0	 8.533360000018133e+000	 8.333350000014585e+000	 1.000970692539524e+001
0	 8.533360000018131e+000	 8.400020000016403e+000	 1.000906338558437e+001
0	 8.533360000018131e+000	 8.466690000017616e+000	 1.000843034038074e+001
0	 8.533360000018131e+000	 8.533360000018131e+000	 1.000780656727159e+001
0	 8.533360000018133e+000	 8.600030000017849e+000	 1.000719084374423e+001
0	 8.533360000018131e+000	 8.666700000016665e+000	 1.000658194728593e+001
0	 8.600030000017847e+000	 8.000000000000000e+000	 1.001239281918175e+001
0	 8.600030000017847e+000	 8.066670000003315e+000	 1.001171912953519e+001
0	 8.600030000017847e+000	 8.133340000006534e+000	 1.001106091557874e+001
0	 8.600030000017847e+000	 8.200010000009550e+000	 1.001041702001267e+001
0	 8.600030000017851e+000	 8.266680000012268e+000	 1.000978628553725e+001
0	 8.600030000017847e+000	 8.333350000014583e+000	 1.000916755485274e+001
0	 8.600030000017847e+000	 8.400020000016399e+000	 1.000855967065941e+001
0	 8.600030000017851e+000	 8.466690000017620e+000	 1.000796147565755e+001
0	 8.600030000017847e+000	 8.533360000018135e+000	 1.000737181254744e+001
0	 8.600030000017847e+000	 8.600030000017847e+000	 1.000678952402930e+001
0	 8.600030000017847e+000	 8.666700000016668e+000	 1.000621345280344e+001
0	 8.666700000016666e+000	 7.999999999999999e+000	 1.001167272408949e+001
0	 8.666700000016666e+000	 8.066670000003317e+000	 1.001103843473715e+001
0	 8.666700000016666e+000	 8.133340000006534e+000	 1.001041856272138e+001
0	 8.666700000016666e+000	 8.200010000009550e+000	 1.000981202034072e+001
0	 8.666700000016666e+000	 8.266680000012268e+000	 1.000921771989367e+001
0	 8.666700000016666e+000	 8.333350000014585e+000	 1.000863457367875e+001
0	 8.666700000016668e+000	 8.400020000016401e+000	 1.000806149399447e+001
0	 8.666700000016666e+000	 8.466690000017618e+000	 1.000749739313935e+001
0	 8.666700000016665e+000	 8.533360000018133e+000	 1.000694118341189e+001
0	 8.666700000016666e+000	 8.600030000017851e+000	 1.000639177711063e+001
0	 8.666700000016666e+000	 8.666700000016666e+000	 1.000584808653408e+001
0	 8.000000000000000e+000	 8.666700000016666e+000	 1.000958975369048e+001
0	 8.000000000000000e+000	 8.733360002791905e+000	 1.000873148745310e+001
0	 7.999999999999999e+000	 8.800020022230555e+000	 1.000791529796933e+001
0	 8.000000000000002e+000	 8.866680074997042e+000	 1.000713929900028e+001
0	 8.000000000000002e+000	 8.933340177755778e+000	 1.000640160418818e+001
0	 8.000000000000002e+000	 9.000000347171184e+000	 1.000570032705640e+001
0	 8.000000000000000e+000	 9.066660599907667e+000	 1.000503358100950e+001
0	 8.000000000000000e+000	 9.133320952629655e+000	 1.000439947933316e+001
0	 7.999999999999999e+000	 9.199981422001558e+000	 1.000379613519421e+001
0	 8.000000000000000e+000	 9.266642024687796e+000	 1.000322166164063e+001
0	 7.999999999999999e+000	 9.333302777352781e+000	 1.000267417160155e+001
0	 8.066670000003313e+000	 8.666700000016666e+000	 1.000921206304134e+001
0	 8.066670000003317e+000	 8.733360002791903e+000	 1.000838849659199e+001
0	 8.066670000003317e+000	 8.800020022230557e+000	 1.000760526005519e+001
0	 8.066670000003317e+000	 8.866680074997042e+000	 1.000686054448022e+001
0	 8.066670000003317e+000	 8.933340177755778e+000	 1.000615254080240e+001
0	 8.066670000003319e+000	 9.000000347171184e+000	 1.000547943984304e+001
0	 8.066670000003317e+000	 9.066660599907669e+000	 1.000483943230949e+001
0	 8.066670000003319e+000	 9.133320952629656e+000	 1.000423070879515e+001
0	 8.066670000003319e+000	 9.199981422001562e+000	 1.000365145977941e+001
0	 8.066670000003317e+000	 9.266642024687796e+000	 1.000309987562772e+001
0	 8.066670000003317e+000	 9.333302777352781e+000	 1.000257414659148e+001
0	 8.133340000006532e+000	 8.666700000016665e+000	 1.000883398293013e+001
0	 8.133340000006532e+000	 8.733360002791903e+000	 1.000804474828104e+001
0	 8.133340000006530e+000	 8.800020022230552e+000	 1.000729411570337e+001
0	 8.133340000006534e+000	 8.866680074997040e+000	 1.000658035238786e+001
0	 8.133340000006534e+000	 8.933340177755776e+000	 1.000590172541612e+001
0	 8.133340000006534e+000	 9.000000347171183e+000	 1.000525650176064e+001
0	 8.133340000006534e+000	 9.066660599907667e+000	 1.000464294828475e+001
0	 8.133340000006534e+000	 9.133320952629655e+000	 1.000405933174267e+001
0	 8.133340000006532e+000	 9.199981422001560e+000	 1.000350391877957e+001
0	 8.133340000006534e+000	 9.266642024687798e+000	 1.000297497593136e+001
0	 8.133340000006532e+000	 9.333302777352783e+000	 1.000247076962492e+001
0	 8.200010000009550e+000	 8.666700000016666e+000	 1.000845595306626e+001
0	 8.200010000009549e+000	 8.733360002791905e+000	 1.000770068458751e+001
0	 8.200010000009549e+000	 8.800020022230557e+000	 1.000698231682681e+001
0	 8.200010000009554e+000	 8.866680074997042e+000	 1.000629919196963e+001
0	 8.200010000009552e+000	 8.933340177755779e+000	 1.000564965209705e+001
0	 8.200010000009550e+000	 9.000000347171181e+000	 1.000503203918590e+001
0	 8.200010000009549e+000	 9.066660599907669e+000	 1.000444469510865e+001
0	 8.200010000009550e+000	 9.133320952629656e+000	 1.000388596163348e+001
0	 8.200010000009552e+000	 9.199981422001558e+000	 1.000335418042426e+001
0	 8.200010000009547e+000	 9.266642024687796e+000	 1.000284769304053e+001
0	 8.200010000009550e+000	 9.333302777352781e+000	 1.000236484093754e+001
0	 8.266680000012265e+000	 8.666700000016668e+000	 1.000807841315914e+001
0	 8.266680000012267e+000	 8.733360002791901e+000	 1.000735674757866e+001
0	 8.266680000012267e+000	 8.800020022230553e+000	 1.000667031533846e+001
0	 8.266680000012267e+000	 8.866680074997042e+000	 1.000601753247194e+001
0	 8.266680000012268e+000	 8.933340177755783e+000	 1.000539681491288e+001
0	 8.266680000012267e+000	 9.000000347171183e+000	 1.000480657849555e+001
0	 8.266680000012265e+000	 9.066660599907666e+000	 1.000424523895462e+001
0	 8.266680000012265e+000	 9.133320952629655e+000	 1.000371121192526e+001
0	 8.266680000012265e+000	 9.199981422001560e+000	 1.000320291294311e+001
0	 8.266680000012268e+000	 9.266642024687798e+000	 1.000271875744419e+001
0	 8.266680000012265e+000	 9.333302777352779e+000	 1.000225716076506e+001
0	 8.333350000014583e+000	 8.666700000016668e+000	 1.000770180291815e+001
0	 8.333350000014583e+000	 8.733360002791903e+000	 1.000701337932170e+001
0	 8.333350000014585e+000	 8.800020022230557e+000	 1.000635856315125e+001
0	 8.333350000014580e+000	 8.866680074997040e+000	 1.000573584314125e+001
0	 8.333350000014582e+000	 8.933340177755781e+000	 1.000514370793131e+001
0	 8.333350000014582e+000	 9.000000347171181e+000	 1.000458064606625e+001
0	 8.333350000014582e+000	 9.066660599907667e+000	 1.000404514599603e+001
0	 8.333350000014585e+000	 9.133320952629660e+000	 1.000353569607577e+001
0	 8.333350000014582e+000	 9.199981422001557e+000	 1.000305078456573e+001
0	 8.333350000014585e+000	 9.266642024687798e+000	 1.000258889963134e+001
0	 8.333350000014583e+000	 9.333302777352783e+000	 1.000214852934321e+001
0	 8.400020000016401e+000	 8.666700000016666e+000	 1.000732656205268e+001
0	 8.400020000016397e+000	 8.733360002791903e+000	 1.000667102188398e+001
0	 8.400020000016401e+000	 8.800020022230555e+000	 1.000604751217814e+001
0	 8.400020000016399e+000	 8.866680074997042e+000	 1.000545459322393e+001
0	 8.400020000016401e+000	 8.933340177755779e+000	 1.000489082522001e+001
0	 8.400020000016399e+000	 9.000000347171179e+000	 1.000435476827471e+001
0	 8.400020000016401e+000	 9.066660599907667e+000	 1.000384498240630e+001
0	 8.400020000016401e+000	 9.133320952629656e+000	 1.000336002754270e+001
0	 8.400020000016401e+000	 9.199981422001558e+000	 1.000289846352173e+001
0	 8.400020000016401e+000	 9.266642024687794e+000	 1.000245885009093e+001
0	 8.400020000016401e+000	 9.333302777352785e+000	 1.000203974690770e+001
0	 8.466690000017616e+000	 8.666700000016668e+000	 1.000695313027214e+001
0	 8.466690000017616e+000	 8.733360002791903e+000	 1.000633011733269e+001
0	 8.466690000017616e+000	 8.800020022230559e+000	 1.000573761433203e+001
0	 8.466690000017618e+000	 8.866680074997040e+000	 1.000517425196647e+001
0	 8.466690000017618e+000	 8.933340177755779e+000	 1.000463866084668e+001
0	 8.466690000017614e+000	 9.000000347171177e+000	 1.000412947149767e+001
0	 8.466690000017618e+000	 9.066660599907669e+000	 1.000364531435880e+001
0	 8.466690000017616e+000	 9.133320952629656e+000	 1.000318481978380e+001
0	 8.466690000017616e+000	 9.199981422001557e+000	 1.000274661804070e+001
0	 8.466690000017616e+000	 9.266642024687799e+000	 1.000232933931192e+001
0	 8.466690000017616e+000	 9.333302777352785e+000	 1.000193161369421e+001
0	 8.533360000018131e+000	 8.666700000016665e+000	 1.000658194728593e+001
0	 8.533360000018131e+000	 8.733360002791899e+000	 1.000599110773511e+001
0	 8.533360000018131e+000	 8.800020022230557e+000	 1.000542932152590e+001
0	 8.533360000018133e+000	 8.866680074997042e+000	 1.000489528861526e+001
0	 8.533360000018133e+000	 8.933340177755781e+000	 1.000438770887902e+001
0	 8.533360000018131e+000	 9.000000347171181e+000	 1.000390528211178e+001
0	 8.533360000018131e+000	 9.066660599907666e+000	 1.000344670802698e+001
0	 8.533360000018131e+000	 9.133320952629658e+000	 1.000301068625679e+001
0	 8.533360000018131e+000	 9.199981422001558e+000	 1.000259591635230e+001
0	 8.533360000018131e+000	 9.266642024687798e+000	 1.000220109778332e+001
0	 8.533360000018133e+000	 9.333302777352781e+000	 1.000182492993850e+001
0	 8.600030000017847e+000	 8.666700000016668e+000	 1.000621345280344e+001
0	 8.600030000017851e+000	 8.733360002791905e+000	 1.000565443515850e+001
0	 8.600030000017849e+000	 8.800020022230555e+000	 1.000512308567267e+001
0	 8.600030000017849e+000	 8.866680074997042e+000	 1.000461817241673e+001
0	 8.600030000017849e+000	 8.933340177755779e+000	 1.000413846338473e+001
0	 8.600030000017847e+000	 9.000000347171183e+000	 1.000368272649377e+001
0	 8.600030000017846e+000	 9.066660599907667e+000	 1.000324972958416e+001
0	 8.600030000017849e+000	 9.133320952629656e+000	 1.000283824041941e+001
0	 8.600030000017847e+000	 9.199981422001558e+000	 1.000244702668611e+001
0	 8.600030000017847e+000	 9.266642024687796e+000	 1.000207485599407e+001
0	 8.600030000017849e+000	 9.333302777352783e+000	 1.000172049587625e+001
0	 8.666700000016666e+000	 8.666700000016666e+000	 1.000584808653408e+001
0	 8.666700000016666e+000	 8.733360002791901e+000	 1.000532054167010e+001
0	 8.666700000016665e+000	 8.800020022230553e+000	 1.000481935868527e+001
0	 8.666700000016666e+000	 8.866680074997039e+000	 1.000434337261734e+001
0	 8.666700000016665e+000	 8.933340177755778e+000	 1.000389141843149e+001
0	 8.666700000016665e+000	 9.000000347171181e+000	 1.000346233102032e+001
0	 8.666700000016666e+000	 9.066660599907667e+000	 1.000305494520381e+001
0	 8.666700000016666e+000	 9.133320952629655e+000	 1.000266809572934e+001
0	 8.666700000016668e+000	 9.199981422001558e+000	 1.000230061727174e+001
0	 8.666700000016668e+000	 9.266642024687798e+000	 1.000195134443315e+001
0	 8.666700000016666e+000	 9.333302777352783e+000	 1.000161911174321e+001
0	 7.999999999999999e+000	 9.333302777352781e+000	 1.000267417160155e+001
0	 8.000000000000000e+000	 9.399973674588175e+000	 1.000216902063334e+001
0	 8.000000000000000e+000	 9.466644621844621e+000	 1.000172154826557e+001
0	 8.000000000000000e+000	 9.533315502449998e+000	 1.000132960358915e+001
0	 8.000000000000000e+000	 9.599986199732197e+000	 1.000099103689187e+001
0	 8.000000000000000e+000	 9.666656597019093e+000	 1.000070369965832e+001
0	 8.000000000000000e+000	 9.733326577638575e+000	 1.000046544456998e+001
0	 8.000000000000000e+000	 9.799996024918524e+000	 1.000027412550527e+001
0	 7.999999999999997e+000	 9.866664822186822e+000	 1.000012759753961e+001
0	 8.000000000000000e+000	 9.933332852771352e+000	 1.000002371694568e+001
0	 8.000000000000000e+000	 1.000000000000000e+001	 9.999960341193409e+000
0	 8.066670000003317e+000	 9.333302777352781e+000	 1.000257414659148e+001
0	 8.066670000003319e+000	 9.399973674588175e+000	 1.000208906746660e+001
0	 8.066670000003319e+000	 9.466644621844621e+000	 1.000165940612216e+001
0	 8.066670000003317e+000	 9.533315502449998e+000	 1.000128308214082e+001
0	 8.066670000003317e+000	 9.599986199732198e+000	 1.000095801625444e+001
0	 8.066670000003319e+000	 9.666656597019097e+000	 1.000068213034412e+001
0	 8.066670000003315e+000	 9.733326577638573e+000	 1.000045334744023e+001
0	 8.066670000003319e+000	 9.799996024918523e+000	 1.000026959172254e+001
0	 8.066670000003315e+000	 9.866664822186820e+000	 1.000012878852023e+001
0	 8.066670000003313e+000	 9.933332852771352e+000	 1.000002886431214e+001
0	 8.066670000003317e+000	 1.000000000000000e+001	 9.999967746726808e+000
0	 8.133340000006532e+000	 9.333302777352783e+000	 1.000247076962491e+001
0	 8.133340000006536e+000	 9.399973674588177e+000	 1.000200553379953e+001
0	 8.133340000006532e+000	 9.466644621844621e+000	 1.000159346860490e+001
0	 8.133340000006538e+000	 9.533315502450003e+000	 1.000123256891871e+001
0	 8.133340000006530e+000	 9.599986199732193e+000	 1.000092083072042e+001
0	 8.133340000006530e+000	 9.666656597019093e+000	 1.000065625109144e+001
0	 8.133340000006530e+000	 9.733326577638573e+000	 1.000043682821502e+001
0	 8.133340000006532e+000	 9.799996024918523e+000	 1.000026056137633e+001
0	 8.133340000006532e+000	 9.866664822186820e+000	 1.000012545096261e+001
0	 8.133340000006532e+000	 9.933332852771351e+000	 1.000002949846334e+001
0	 8.133340000006534e+000	 1.000000000000000e+001	 9.999970706470132e+000
0	 8.200010000009550e+000	 9.333302777352781e+000	 1.000236484093754e+001
0	 8.200010000009549e+000	 9.399973674588175e+000	 1.000191929007096e+001
0	 8.200010000009550e+000	 9.466644621844621e+000	 1.000152466975919e+001
0	 8.200010000009550e+000	 9.533315502450000e+000	 1.000117905497866e+001
0	 8.200010000009550e+000	 9.599986199732198e+000	 1.000088052176036e+001
0	 8.200010000009549e+000	 9.666656597019093e+000	 1.000062714718982e+001
0	 8.200010000009550e+000	 9.733326577638573e+000	 1.000041700940724e+001
0	 8.200010000009550e+000	 9.799996024918524e+000	 1.000024818760742e+001
0	 8.200010000009550e+000	 9.866664822186824e+000	 1.000011876203994e+001
0	 8.200010000009549e+000	 9.933332852771352e+000	 1.000002681400916e+001
0	 8.200010000009550e+000	 1.000000000000000e+001	 9.999970425874640e+000
0	 8.266680000012265e+000	 9.333302777352779e+000	 1.000225716076506e+001
0	 8.266680000012265e+000	 9.399973674588175e+000	 1.000183120671966e+001
0	 8.266680000012270e+000	 9.466644621844624e+000	 1.000145394363042e+001
0	 8.266680000012268e+000	 9.533315502450002e+000	 1.000112353137659e+001
0	 8.266680000012268e+000	 9.599986199732197e+000	 1.000083813084475e+001
0	 8.266680000012265e+000	 9.666656597019090e+000	 1.000059590392877e+001
0	 8.266680000012267e+000	 9.733326577638577e+000	 1.000039501352985e+001
0	 8.266680000012265e+000	 9.799996024918521e+000	 1.000023362355665e+001
0	 8.266680000012267e+000	 9.866664822186824e+000	 1.000010989892540e+001
0	 8.266680000012268e+000	 9.933332852771356e+000	 1.000002200555979e+001
0	 8.266680000012267e+000	 1.000000000000000e+001	 9.999968110391436e+000
0	 8.333350000014583e+000	 9.333302777352783e+000	 1.000214852934321e+001
0	 8.333350000014582e+000	 9.399973674588175e+000	 1.000174215418442e+001
0	 8.333350000014582e+000	 9.466644621844619e+000	 1.000138222426400e+001
0	 8.333350000014583e+000	 9.533315502449998e+000	 1.000106698916839e+001
0	 8.333350000014582e+000	 9.599986199732195e+000	 1.000079469944413e+001
0	 8.333350000014585e+000	 9.666656597019093e+000	 1.000056360659770e+001
0	 8.333350000014582e+000	 9.733326577638572e+000	 1.000037196309571e+001
0	 8.333350000014583e+000	 9.799996024918523e+000	 1.000021802236495e+001
0	 8.333350000014582e+000	 9.866664822186824e+000	 1.000010003879243e+001
0	 8.333350000014583e+000	 9.933332852771356e+000	 1.000001626772543e+001
0	 8.333350000014583e+000	 1.000000000000000e+001	 9.999964965471783e+000
0	 8.400020000016401e+000	 9.333302777352785e+000	 1.000203974690769e+001
0	 8.400020000016401e+000	 9.399973674588177e+000	 1.000165300290399e+001
0	 8.400020000016399e+000	 9.466644621844623e+000	 1.000131044570530e+001
0	 8.400020000016401e+000	 9.533315502450000e+000	 1.000101041940998e+001
0	 8.400020000016397e+000	 9.599986199732197e+000	 1.000075126902901e+001
0	 8.400020000016401e+000	 9.666656597019093e+000	 1.000053134048613e+001
0	 8.400020000016399e+000	 9.733326577638575e+000	 1.000034898061774e+001
0	 8.400020000016401e+000	 9.799996024918524e+000	 1.000020253717308e+001
0	 8.400020000016399e+000	 9.866664822186820e+000	 1.000009035881418e+001
0	 8.400020000016399e+000	 9.933332852771351e+000	 1.000001079511609e+001
0	 8.400020000016399e+000	 1.000000000000000e+001	 9.999962196566903e+000
0	 8.466690000017616e+000	 9.333302777352785e+000	 1.000193161369421e+001
0	 8.466690000017620e+000	 9.399973674588177e+000	 1.000156462331717e+001
0	 8.466690000017616e+000	 9.466644621844623e+000	 1.000123954199973e+001
0	 8.466690000017614e+000	 9.533315502450002e+000	 1.000095481315713e+001
0	 8.466690000017612e+000	 9.599986199732195e+000	 1.000070888106990e+001
0	 8.466690000017614e+000	 9.666656597019093e+000	 1.000050019088353e+001
0	 8.466690000017616e+000	 9.733326577638575e+000	 1.000032718860885e+001
0	 8.466690000017616e+000	 9.799996024918524e+000	 1.000018832112189e+001
0	 8.466690000017612e+000	 9.866664822186820e+000	 1.000008203616400e+001
0	 8.466690000017616e+000	 9.933332852771352e+000	 1.000000678234186e+001
0	 8.466690000017616e+000	 1.000000000000000e+001	 9.999961009127903e+000
0	 8.533360000018133e+000	 9.333302777352781e+000	 1.000182492993850e+001
0	 8.533360000018131e+000	 9.399973674588177e+000	 1.000147788586275e+001
0	 8.533360000018131e+000	 9.466644621844617e+000	 1.000117044719268e+001
0	 8.533360000018131e+000	 9.533315502450000e+000	 1.000090116146586e+001
0	 8.533360000018131e+000	 9.599986199732197e+000	 1.000066857703732e+001
0	 8.533360000018131e+000	 9.666656597019093e+000	 1.000047124307941e+001
0	 8.533360000018135e+000	 9.733326577638573e+000	 1.000030770958195e+001
0	 8.533360000018133e+000	 9.799996024918524e+000	 1.000017652735220e+001
0	 8.533360000018130e+000	 9.866664822186822e+000	 1.000007624801508e+001
0	 8.533360000018131e+000	 9.933332852771356e+000	 1.000000542401299e+001
0	 8.533360000018131e+000	 1.000000000000000e+001	 9.999962608606142e+000
0	 8.600030000017849e+000	 9.333302777352783e+000	 1.000172049587625e+001
0	 8.600030000017847e+000	 9.399973674588178e+000	 1.000139366097950e+001
0	 8.600030000017849e+000	 9.466644621844621e+000	 1.000110409532955e+001
0	 8.600030000017849e+000	 9.533315502450003e+000	 1.000085045539199e+001
0	 8.600030000017849e+000	 9.599986199732197e+000	 1.000063139840182e+001
0	 8.600030000017847e+000	 9.666656597019093e+000	 1.000044558236325e+001
0	 8.600030000017847e+000	 9.733326577638575e+000	 1.000029166604993e+001
0	 8.600030000017849e+000	 9.799996024918521e+000	 1.000016830900492e+001
0	 8.600030000017849e+000	 9.866664822186822e+000	 1.000007417154070e+001
0	 8.600030000017846e+000	 9.933332852771352e+000	 1.000000791473944e+001
0	 8.600030000017849e+000	 1.000000000000000e+001	 9.999968200452797e+000
0	 8.666700000016666e+000	 9.333302777352783e+000	 1.000161911174322e+001
0	 8.666700000016668e+000	 9.399973674588178e+000	 1.000131281910621e+001
0	 8.666700000016666e+000	 9.466644621844619e+000	 1.000104142045574e+001
0	 8.666700000016668e+000	 9.533315502450000e+000	 1.000080368599144e+001
0	 8.666700000016665e+000	 9.599986199732197e+000	 1.000059838663388e+001
0	 8.666700000016666e+000	 9.666656597019095e+000	 1.000042429402452e+001
0	 8.666700000016668e+000	 9.733326577638577e+000	 1.000028018052572e+001
0	 8.666700000016668e+000	 9.799996024918521e+000	 1.000016481922082e+001
0	 8.666700000016666e+000	 9.866664822186822e+000	 1.000007698391421e+001
0	 8.666700000016666e+000	 9.933332852771352e+000	 1.000001544913134e+001
0	 8.666700000016666e+000	 1.000000000000000e+001	 9.999978990118956e+000
0	 8.666700000016666e+000	 0.000000000000000e+000	 9.925815562453041e+000
0	 8.666700000016668e+000	 6.666714722864757e-002	 9.926176408995708e+000
0	 8.666700000016665e+000	 1.333351778131789e-001	 9.926571892170200e+000
0	 8.666700000016668e+000	 2.000039750814772e-001	 9.927001958405141e+000
0	 8.666700000016666e+000	 2.666734223614256e-001	 9.927466554823903e+000
0	 8.666700000016666e+000	 3.333434029809069e-001	 9.927965629244564e+000
0	 8.666700000016668e+000	 4.000138002678044e-001	 9.928499130179919e+000
0	 8.666700000016665e+000	 4.666844975500011e-001	 9.929067006837459e+000
0	 8.666700000016666e+000	 5.333553781553801e-001	 9.929669209119503e+000
0	 8.666700000016666e+000	 6.000263254118248e-001	 9.930305687623161e+000
0	 8.666700000016668e+000	 6.666972226472177e-001	 9.930976393640473e+000
0	 8.733360002791903e+000	 0.000000000000000e+000	 9.918312056178383e+000
0	 8.733360002791903e+000	 6.666714722864754e-002	 9.918745638640054e+000
0	 8.733360002791905e+000	 1.333351778131790e-001	 9.919205345656977e+000
0	 8.733360002791903e+000	 2.000039750814772e-001	 9.919691500470439e+000
0	 8.733360002791899e+000	 2.666734223614254e-001	 9.920204426976920e+000
0	 8.733360002791903e+000	 3.333434029809069e-001	 9.920744449728085e+000
0	 8.733360002791901e+000	 4.000138002678044e-001	 9.921311893930762e+000
0	 8.733360002791903e+000	 4.666844975500011e-001	 9.921907085447007e+000
0	 8.733360002791903e+000	 5.333553781553803e-001	 9.922530350794114e+000
0	 8.733360002791903e+000	 6.000263254118247e-001	 9.923182017144670e+000
0	 8.733360002791901e+000	 6.666972226472175e-001	 9.923862412326688e+000
0	 8.800020022230555e+000	 0.000000000000000e+000	 9.910839531762946e+000
0	 8.800020022230559e+000	 6.666714722864756e-002	 9.911287232185307e+000
0	 8.800020022230555e+000	 1.333351778131790e-001	 9.911761289185209e+000
0	 8.800020022230553e+000	 2.000039750814773e-001	 9.912262333177765e+000
0	 8.800020022230553e+000	 2.666734223614256e-001	 9.912790995275913e+000
0	 8.800020022230555e+000	 3.333434029809069e-001	 9.913347907290396e+000
0	 8.800020022230555e+000	 4.000138002678044e-001	 9.913933701729755e+000
0	 8.800020022230553e+000	 4.666844975500011e-001	 9.914549011800361e+000
0	 8.800020022230555e+000	 5.333553781553803e-001	 9.915194471406444e+000
0	 8.800020022230557e+000	 6.000263254118248e-001	 9.915870715150151e+000
0	 8.800020022230555e+000	 6.666972226472178e-001	 9.916578378331616e+000
0	 8.866680074997039e+000	 0.000000000000000e+000	 9.903358496802207e+000
0	 8.866680074997042e+000	 6.666714722864756e-002	 9.903773077576233e+000
0	 8.866680074997039e+000	 1.333351778131790e-001	 9.904221337736571e+000
0	 8.866680074997039e+000	 2.000039750814772e-001	 9.904704145345606e+000
0	 8.866680074997042e+000	 2.666734223614256e-001	 9.905222369271028e+000
0	 8.866680074997037e+000	 3.333434029809068e-001	 9.905776879185737e+000
0	 8.866680074997040e+000	 4.000138002678043e-001	 9.906368545567851e+000
0	 8.866680074997037e+000	 4.666844975500011e-001	 9.906998239700680e+000
0	 8.866680074997040e+000	 5.333553781553804e-001	 9.907666833672829e+000
0	 8.866680074997040e+000	 6.000263254118248e-001	 9.908375200378185e+000
0	 8.866680074997040e+000	 6.666972226472177e-001	 9.909124213516000e+000
0	 8.933340177755776e+000	 0.000000000000000e+000	 9.895829458697476e+000
0	 8.933340177755774e+000	 6.666714722864754e-002	 9.896175062578086e+000
0	 8.933340177755776e+000	 1.333351778131789e-001	 9.896567106126486e+000
0	 8.933340177755778e+000	 2.000039750814772e-001	 9.897006625638227e+000
0	 8.933340177755778e+000	 2.666734223614256e-001	 9.897494658369041e+000
0	 8.933340177755776e+000	 3.333434029809069e-001	 9.898032242534727e+000
0	 8.933340177755779e+000	 4.000138002678044e-001	 9.898620417311141e+000
0	 8.933340177755776e+000	 4.666844975500011e-001	 9.899260222834183e+000
0	 8.933340177755774e+000	 5.333553781553801e-001	 9.899952700199821e+000
0	 8.933340177755778e+000	 6.000263254118247e-001	 9.900698891464110e+000
0	 8.933340177755774e+000	 6.666972226472175e-001	 9.901499839643323e+000
0	 9.000000347171181e+000	 0.000000000000000e+000	 9.888212924655885e+000
0	 9.000000347171181e+000	 6.666714722864757e-002	 9.888465074776596e+000
0	 9.000000347171179e+000	 1.333351778131790e-001	 9.888780209004146e+000
0	 9.000000347171177e+000	 2.000039750814772e-001	 9.889159462565637e+000
0	 9.000000347171177e+000	 2.666734223614256e-001	 9.889603971833287e+000
0	 9.000000347171181e+000	 3.333434029809069e-001	 9.890114874324308e+000
0	 9.000000347171177e+000	 4.000138002678043e-001	 9.890693308700893e+000
0	 9.000000347171177e+000	 4.666844975500010e-001	 9.891340414770163e+000
0	 9.000000347171181e+000	 5.333553781553801e-001	 9.892057333484198e+000
0	 9.000000347171179e+000	 6.000263254118249e-001	 9.892845206940043e+000
0	 9.000000347171181e+000	 6.666972226472179e-001	 9.893705178379806e+000
0	 9.066660599907666e+000	 0.000000000000000e+000	 9.880469401690423e+000
0	 9.066660599907666e+000	 6.666714722864754e-002	 9.880615001577992e+000
0	 9.066660599907666e+000	 1.333351778131789e-001	 9.880842260852518e+000
0	 9.066660599907667e+000	 2.000039750814773e-001	 9.881152344483624e+000
0	 9.066660599907667e+000	 2.666734223614256e-001	 9.881546418783699e+000
0	 9.066660599907666e+000	 3.333434029809069e-001	 9.882025651407769e+000
0	 9.066660599907666e+000	 4.000138002678044e-001	 9.882591211353464e+000
0	 9.066660599907666e+000	 4.666844975500011e-001	 9.883244268960977e+000
0	 9.066660599907666e+000	 5.333553781553800e-001	 9.883985995913005e+000
0	 9.066660599907667e+000	 6.000263254118249e-001	 9.884817565234824e+000
0	 9.066660599907666e+000	 6.666972226472179e-001	 9.885740151294343e+000
0	 9.133320952629653e+000	 0.000000000000000e+000	 9.872559396619897e+000
0	 9.133320952629653e+000	 6.666714722864756e-002	 9.872596730208983e+000
0	 9.133320952629653e+000	 1.333351778131790e-001	 9.872734875988337e+000
0	 9.133320952629653e+000	 2.000039750814772e-001	 9.872974959593751e+000
0	 9.133320952629651e+000	 2.666734223614255e-001	 9.873318108196804e+000
0	 9.133320952629653e+000	 3.333434029809069e-001	 9.873765450504756e+000
0	 9.133320952629655e+000	 4.000138002678045e-001	 9.874318116760399e+000
0	 9.133320952629655e+000	 4.666844975500011e-001	 9.874977238742059e+000
0	 9.133320952629653e+000	 5.333553781553803e-001	 9.875743949763519e+000
0	 9.133320952629653e+000	 6.000263254118247e-001	 9.876619384674079e+000
0	 9.133320952629653e+000	 6.666972226472175e-001	 9.877604679858612e+000
0	 9.199981422001557e+000	 0.000000000000000e+000	 9.864443416068983e+000
0	 9.199981422001557e+000	 6.666714722864754e-002	 9.864382147716812e+000
0	 9.199981422001555e+000	 1.333351778131789e-001	 9.864439668562111e+000
0	 9.199981422001557e+000	 2.000039750814773e-001	 9.864616995943329e+000
0	 9.199981422001557e+000	 2.666734223614256e-001	 9.864915148905743e+000
0	 9.199981422001553e+000	 3.333434029809068e-001	 9.865335148201261e+000
0	 9.199981422001555e+000	 4.000138002678044e-001	 9.865878016288352e+000
0	 9.199981422001553e+000	 4.666844975500012e-001	 9.866544777331901e+000
0	 9.199981422001557e+000	 5.333553781553803e-001	 9.867336457203255e+000
0	 9.199981422001553e+000	 6.000263254118247e-001	 9.868254083480196e+000
0	 9.199981422001555e+000	 6.666972226472177e-001	 9.869298685446983e+000
0	 9.266642024687792e+000	 0.000000000000000e+000	 9.856081966468185e+000
0	 9.266642024687792e+000	 6.666714722864757e-002	 9.855943140969202e+000
0	 9.266642024687791e+000	 1.333351778131789e-001	 9.855938252558126e+000
0	 9.266642024687792e+000	 2.000039750814772e-001	 9.856068141425471e+000
0	 9.266642024687792e+000	 2.666734223614256e-001	 9.856333649600225e+000
0	 9.266642024687791e+000	 3.333434029809069e-001	 9.856735620949657e+000
0	 9.266642024687792e+000	 4.000138002678044e-001	 9.857274901179139e+000
0	 9.266642024687792e+000	 4.666844975500012e-001	 9.857952337832106e+000
0	 9.266642024687791e+000	 5.333553781553803e-001	 9.858768780289999e+000
0	 9.266642024687792e+000	 6.000263254118247e-001	 9.859725079772312e+000
0	 9.266642024687791e+000	 6.666972226472177e-001	 9.860822089336583e+000
0	 9.333302777352781e+000	 0.000000000000000e+000	 9.847435554053879e+000
0	 9.333302777352785e+000	 6.666714722864757e-002	 9.847251596654402e+000
0	 9.333302777352785e+000	 1.333351778131789e-001	 9.847212241794443e+000
0	 9.333302777352783e+000	 2.000039750814772e-001	 9.847318083779053e+000
0	 9.333302777352779e+000	 2.666734223614256e-001	 9.847569718826613e+000
0	 9.333302777352783e+000	 3.333434029809070e-001	 9.847967745068653e+000
0	 9.333302777352783e+000	 4.000138002678045e-001	 9.848512762549731e+000
0	 9.333302777352783e+000	 4.666844975500011e-001	 9.849205373227324e+000
0	 9.333302777352781e+000	 5.333553781553801e-001	 9.850046180971773e+000
0	 9.333302777352785e+000	 6.000263254118248e-001	 9.851035791566353e+000
0	 9.333302777352783e+000	 6.666972226472177e-001	 9.852174812707265e+000
0	 8.666700000016668e+000	 6.666972226472177e-001	 9.930976393640474e+000
0	 8.666700000016666e+000	 7.333579753122049e-001	 9.931706643355499e+000
0	 8.666700000016668e+000	 8.000185779984418e-001	 9.932522497989631e+000
0	 8.666700000016666e+000	 8.666790473703454e-001	 9.933424717284581e+000
0	 8.666700000016666e+000	 9.333394000923322e-001	 9.934414060806782e+000
0	 8.666700000016665e+000	 9.999996528288188e-001	 9.935491287947365e+000
0	 8.666700000016665e+000	 1.066659822244222e+000	 9.936657157922221e+000
0	 8.666700000016668e+000	 1.133319925002959e+000	 9.937912429771950e+000
0	 8.666700000016666e+000	 1.199979977769445e+000	 9.939257862361878e+000
0	 8.666700000016666e+000	 1.266639997208098e+000	 9.940694214382088e+000
0	 8.666700000016668e+000	 1.333299999983334e+000	 9.942222244347351e+000
0	 8.733360002791901e+000	 6.666972226472175e-001	 9.923862412326690e+000
0	 8.733360002791901e+000	 7.333579753122047e-001	 9.924600764180712e+000
0	 8.733360002791903e+000	 8.000185779984418e-001	 9.925426839541714e+000
0	 8.733360002791901e+000	 8.666790473703453e-001	 9.926341462410191e+000
0	 8.733360002791901e+000	 9.333394000923322e-001	 9.927345456606243e+000
0	 8.733360002791901e+000	 9.999996528288190e-001	 9.928439645769606e+000
0	 8.733360002791901e+000	 1.066659822244222e+000	 9.929624853359584e+000
0	 8.733360002791899e+000	 1.133319925002958e+000	 9.930901902655126e+000
0	 8.733360002791903e+000	 1.199979977769445e+000	 9.932271616754772e+000
0	 8.733360002791901e+000	 1.266639997208098e+000	 9.933734818576701e+000
0	 8.733360002791901e+000	 1.333299999983334e+000	 9.935292330858660e+000
0	 8.800020022230555e+000	 6.666972226472178e-001	 9.916578378331618e+000
0	 8.800020022230553e+000	 7.333579753122048e-001	 9.917345367613001e+000
0	 8.800020022230557e+000	 8.000185779984420e-001	 9.918199970225722e+000
0	 8.800020022230553e+000	 8.666790473703454e-001	 9.919143067114133e+000
0	 8.800020022230559e+000	 9.333394000923323e-001	 9.920175539040860e+000
0	 8.800020022230557e+000	 9.999996528288190e-001	 9.921298266586810e+000
0	 8.800020022230553e+000	 1.066659822244222e+000	 9.922512130151162e+000
0	 8.800020022230553e+000	 1.133319925002959e+000	 9.923818009951365e+000
0	 8.800020022230555e+000	 1.199979977769445e+000	 9.925216786023135e+000
0	 8.800020022230555e+000	 1.266639997208098e+000	 9.926709338220462e+000
0	 8.800020022230553e+000	 1.333299999983334e+000	 9.928296546215600e+000
0	 8.866680074997040e+000	 6.666972226472177e-001	 9.909124213516000e+000
0	 8.866680074997040e+000	 7.333579753122049e-001	 9.909936345048463e+000
0	 8.866680074997040e+000	 8.000185779984416e-001	 9.910834335422107e+000
0	 8.866680074997040e+000	 8.666790473703453e-001	 9.911819115216503e+000
0	 8.866680074997044e+000	 9.333394000923324e-001	 9.912891614831029e+000
0	 8.866680074997040e+000	 9.999996528288191e-001	 9.914052764484913e+000
0	 8.866680074997039e+000	 1.066659822244222e+000	 9.915303494217236e+000
0	 8.866680074997040e+000	 1.133319925002959e+000	 9.916644733886900e+000
0	 8.866680074997040e+000	 1.199979977769445e+000	 9.918077413172634e+000
0	 8.866680074997040e+000	 1.266639997208098e+000	 9.919602461573017e+000
0	 8.866680074997042e+000	 1.333299999983334e+000	 9.921220808406472e+000
0	 8.933340177755774e+000	 6.666972226472175e-001	 9.901499839643325e+000
0	 8.933340177755776e+000	 7.333579753122049e-001	 9.902369587791455e+000
0	 8.933340177755776e+000	 8.000185779984416e-001	 9.903322380424671e+000
0	 8.933340177755776e+000	 8.666790473703450e-001	 9.904359190455365e+000
0	 8.933340177755776e+000	 9.333394000923323e-001	 9.905480990619340e+000
0	 8.933340177755774e+000	 9.999996528288190e-001	 9.906688753475832e+000
0	 8.933340177755778e+000	 1.066659822244222e+000	 9.907983451407496e+000
0	 8.933340177755778e+000	 1.133319925002959e+000	 9.909366056620433e+000
0	 8.933340177755776e+000	 1.199979977769445e+000	 9.910837541144129e+000
0	 8.933340177755778e+000	 1.266639997208098e+000	 9.912398876831531e+000
0	 8.933340177755778e+000	 1.333299999983334e+000	 9.914051035359032e+000
0	 9.000000347171181e+000	 6.666972226472179e-001	 9.893705178379806e+000
0	 9.000000347171177e+000	 7.333579753122046e-001	 9.894640987054538e+000
0	 9.000000347171181e+000	 8.000185779984416e-001	 9.895656550440471e+000
0	 9.000000347171179e+000	 8.666790473703456e-001	 9.896752876486699e+000
0	 9.000000347171177e+000	 9.333394000923322e-001	 9.897930972970556e+000
0	 9.000000347171179e+000	 9.999996528288189e-001	 9.899191847497468e+000
0	 9.000000347171179e+000	 1.066659822244222e+000	 9.900536507501073e+000
0	 9.000000347171181e+000	 1.133319925002959e+000	 9.901965960243137e+000
0	 9.000000347171175e+000	 1.199979977769445e+000	 9.903481212813619e+000
0	 9.000000347171181e+000	 1.266639997208098e+000	 9.905083272130639e+000
0	 9.000000347171179e+000	 1.333299999983334e+000	 9.906773144940472e+000
0	 9.066660599907666e+000	 6.666972226472179e-001	 9.885740151294344e+000
0	 9.066660599907667e+000	 7.333579753122049e-001	 9.886746433958530e+000
0	 9.066660599907667e+000	 8.000185779984419e-001	 9.887829290589860e+000
0	 9.066660599907667e+000	 8.666790473703456e-001	 9.888989756884454e+000
0	 9.066660599907664e+000	 9.333394000923322e-001	 9.890228868371597e+000
0	 9.066660599907666e+000	 9.999996528288190e-001	 9.891547660413739e+000
0	 9.066660599907667e+000	 1.066659822244222e+000	 9.892947168206504e+000
0	 9.066660599907664e+000	 1.133319925002959e+000	 9.894428426778685e+000
0	 9.066660599907667e+000	 1.199979977769445e+000	 9.895992470992285e+000
0	 9.066660599907666e+000	 1.266639997208098e+000	 9.897640335542434e+000
0	 9.066660599907666e+000	 1.333299999983334e+000	 9.899373054957486e+000
0	 9.133320952629653e+000	 6.666972226472175e-001	 9.877604679858612e+000
0	 9.133320952629651e+000	 7.333579753122048e-001	 9.878681819532432e+000
0	 9.133320952629651e+000	 8.000185779984417e-001	 9.879833045906505e+000
0	 9.133320952629649e+000	 8.666790473703453e-001	 9.881059415140484e+000
0	 9.133320952629655e+000	 9.333394000923322e-001	 9.882361983231560e+000
0	 9.133320952629653e+000	 9.999996528288191e-001	 9.883741806014534e+000
0	 9.133320952629649e+000	 1.066659822244222e+000	 9.885199939161776e+000
0	 9.133320952629653e+000	 1.133319925002959e+000	 9.886737438183239e+000
0	 9.133320952629651e+000	 1.199979977769445e+000	 9.888355358426450e+000
0	 9.133320952629651e+000	 1.266639997208098e+000	 9.890054755076532e+000
0	 9.133320952629653e+000	 1.333299999983334e+000	 9.891836683156198e+000
0	 9.199981422001555e+000	 6.666972226472177e-001	 9.869298685446983e+000
0	 9.199981422001560e+000	 7.333579753122049e-001	 9.870443034713524e+000
0	 9.199981422001557e+000	 8.000185779984418e-001	 9.871660261337386e+000
0	 9.199981422001553e+000	 8.666790473703452e-001	 9.872951434664602e+000
0	 9.199981422001557e+000	 9.333394000923324e-001	 9.874317623881716e+000
0	 9.199981422001555e+000	 9.999996528288189e-001	 9.875759898015765e+000
0	 9.199981422001555e+000	 1.066659822244222e+000	 9.877279325934319e+000
0	 9.199981422001557e+000	 1.133319925002959e+000	 9.878876976345413e+000
0	 9.199981422001557e+000	 1.199979977769445e+000	 9.880553917797625e+000
0	 9.199981422001553e+000	 1.266639997208097e+000	 9.882311218680041e+000
0	 9.199981422001555e+000	 1.333299999983334e+000	 9.884149947222227e+000
0	 9.266642024687791e+000	 6.666972226472177e-001	 9.860822089336585e+000
0	 9.266642024687791e+000	 7.333579753122047e-001	 9.862025970347318e+000
0	 9.266642024687792e+000	 8.000185779984417e-001	 9.863303381742758e+000
0	 9.266642024687791e+000	 8.666790473703453e-001	 9.864655398784569e+000
0	 9.266642024687792e+000	 9.333394000923320e-001	 9.866083096575485e+000
0	 9.266642024687792e+000	 9.999996528288190e-001	 9.867587550059334e+000
0	 9.266642024687794e+000	 1.066659822244222e+000	 9.869169834020958e+000
0	 9.266642024687789e+000	 1.133319925002959e+000	 9.870831023086334e+000
0	 9.266642024687791e+000	 1.199979977769445e+000	 9.872572191722481e+000
0	 9.266642024687794e+000	 1.266639997208098e+000	 9.874394414237520e+000
0	 9.266642024687792e+000	 1.333299999983334e+000	 9.876298764780630e+000
0	 9.333302777352783e+000	 6.666972226472177e-001	 9.852174812707265e+000
0	 9.333302777352783e+000	 7.333579753122046e-001	 9.853426517187536e+000
0	 9.333302777352783e+000	 8.000185779984417e-001	 9.854754851896196e+000
0	 9.333302777352781e+000	 8.666790473703453e-001	 9.856160890746107e+000
0	 9.333302777352781e+000	 9.333394000923320e-001	 9.857645707488530e+000
0	 9.333302777352783e+000	 9.999996528288190e-001	 9.859210375713142e+000
0	 9.333302777352785e+000	 1.066659822244222e+000	 9.860855968848007e+000
0	 9.333302777352785e+000	 1.133319925002959e+000	 9.862583560159633e+000
0	 9.333302777352785e+000	 1.199979977769445e+000	 9.864394222752887e+000
0	 9.333302777352785e+000	 1.266639997208098e+000	 9.866289029571087e+000
0	 9.333302777352785e+000	 1.333299999983334e+000	 9.868269053395949e+000
0	 8.666700000016668e+000	 1.333299999983334e+000	 9.942222244347351e+000
0	 8.666700000016668e+000	 1.399969999982150e+000	 9.943808770570563e+000
0	 8.666700000016666e+000	 1.466639999981866e+000	 9.945420562739606e+000
0	 8.666700000016666e+000	 1.533309999982383e+000	 9.947059014725936e+000
0	 8.666700000016665e+000	 1.599979999983599e+000	 9.948725520401018e+000
0	 8.666700000016665e+000	 1.666649999985416e+000	 9.950421473636318e+000
0	 8.666700000016666e+000	 1.733319999987733e+000	 9.952148268303315e+000
0	 8.666700000016665e+000	 1.799989999990450e+000	 9.953907298273462e+000
0	 8.666700000016666e+000	 1.866659999993466e+000	 9.955699957418220e+000
0	 8.666700000016665e+000	 1.933329999996683e+000	 9.957527639609081e+000
0	 8.666700000016668e+000	 2.000000000000000e+000	 9.959391738717493e+000
0	 8.733360002791901e+000	 1.333299999983334e+000	 9.935292330858664e+000
0	 8.733360002791901e+000	 1.399969999982150e+000	 9.936909579934984e+000
0	 8.733360002791901e+000	 1.466639999981867e+000	 9.938552097720303e+000
0	 8.733360002791901e+000	 1.533309999982383e+000	 9.940221587483626e+000
0	 8.733360002791901e+000	 1.599979999983600e+000	 9.941919752493963e+000
0	 8.733360002791905e+000	 1.666649999985416e+000	 9.943648296020317e+000
0	 8.733360002791901e+000	 1.733319999987733e+000	 9.945408921331698e+000
0	 8.733360002791905e+000	 1.799989999990450e+000	 9.947203331697127e+000
0	 8.733360002791903e+000	 1.866659999993466e+000	 9.949033230385581e+000
0	 8.733360002791903e+000	 1.933329999996684e+000	 9.950900320666099e+000
0	 8.733360002791905e+000	 2.000000000000000e+000	 9.952806305807675e+000
0	 8.800020022230553e+000	 1.333299999983334e+000	 9.928296546215604e+000
0	 8.800020022230555e+000	 1.399969999982150e+000	 9.929944200584485e+000
0	 8.800020022230555e+000	 1.466639999981866e+000	 9.931618310231013e+000
0	 8.800020022230555e+000	 1.533309999982383e+000	 9.933320817929925e+000
0	 8.800020022230557e+000	 1.599979999983600e+000	 9.935053666455930e+000
0	 8.800020022230555e+000	 1.666649999985416e+000	 9.936818798583754e+000
0	 8.800020022230557e+000	 1.733319999987733e+000	 9.938618157088115e+000
0	 8.800020022230553e+000	 1.799989999990450e+000	 9.940453684743739e+000
0	 8.800020022230553e+000	 1.866659999993466e+000	 9.942327324325325e+000
0	 8.800020022230555e+000	 1.933329999996683e+000	 9.944241018607618e+000
0	 8.800020022230555e+000	 2.000000000000000e+000	 9.946196710365324e+000
0	 8.866680074997042e+000	 1.333299999983334e+000	 9.921220808406474e+000
0	 8.866680074997042e+000	 1.399969999982150e+000	 9.922899982871785e+000
0	 8.866680074997040e+000	 1.466639999981867e+000	 9.924607803329492e+000
0	 8.866680074997040e+000	 1.533309999982383e+000	 9.926346382168099e+000
0	 8.866680074997042e+000	 1.599979999983599e+000	 9.928117831776092e+000
0	 8.866680074997040e+000	 1.666649999985416e+000	 9.929924264541986e+000
0	 8.866680074997042e+000	 1.733319999987733e+000	 9.931767792854274e+000
0	 8.866680074997044e+000	 1.799989999990450e+000	 9.933650529101465e+000
0	 8.866680074997042e+000	 1.866659999993466e+000	 9.935574585672047e+000
0	 8.866680074997040e+000	 1.933329999996683e+000	 9.937542074954537e+000
0	 8.866680074997044e+000	 2.000000000000000e+000	 9.939555109337421e+000
0	 8.933340177755778e+000	 1.333299999983334e+000	 9.914051035359032e+000
0	 8.933340177755774e+000	 1.399969999982150e+000	 9.915764277090743e+000
0	 8.933340177755776e+000	 1.466639999981867e+000	 9.917509180016024e+000
0	 8.933340177755776e+000	 1.533309999982383e+000	 9.919287956245224e+000
0	 8.933340177755778e+000	 1.599979999983600e+000	 9.921102817888693e+000
0	 8.933340177755778e+000	 1.666649999985416e+000	 9.922955977056789e+000
0	 8.933340177755776e+000	 1.733319999987733e+000	 9.924849645859863e+000
0	 8.933340177755776e+000	 1.799989999990450e+000	 9.926786036408272e+000
0	 8.933340177755772e+000	 1.866659999993466e+000	 9.928767360812369e+000
0	 8.933340177755774e+000	 1.933329999996683e+000	 9.930795831182515e+000
0	 8.933340177755776e+000	 2.000000000000000e+000	 9.932873659629074e+000
0	 9.000000347171179e+000	 1.333299999983334e+000	 9.906773144940472e+000
0	 9.000000347171181e+000	 1.399969999982150e+000	 9.908524433476311e+000
0	 9.000000347171179e+000	 1.466639999981866e+000	 9.910311043233428e+000
0	 9.000000347171181e+000	 1.533309999982383e+000	 9.912135216152231e+000
0	 9.000000347171179e+000	 1.599979999983600e+000	 9.913999194173087e+000
0	 9.000000347171175e+000	 1.666649999985416e+000	 9.915905219236398e+000
0	 9.000000347171181e+000	 1.733319999987733e+000	 9.917855533282545e+000
0	 9.000000347171177e+000	 1.799989999990449e+000	 9.919852378251939e+000
0	 9.000000347171177e+000	 1.866659999993466e+000	 9.921897996084940e+000
0	 9.000000347171179e+000	 1.933329999996683e+000	 9.923994628721983e+000
0	 9.000000347171177e+000	 2.000000000000000e+000	 9.926144518103422e+000
0	 9.066660599907666e+000	 1.333299999983334e+000	 9.899373054957486e+000
0	 9.066660599907664e+000	 1.399969999982150e+000	 9.901167802204553e+000
0	 9.066660599907664e+000	 1.466639999981866e+000	 9.903001995867067e+000
0	 9.066660599907667e+000	 1.533309999982383e+000	 9.904877837823843e+000
0	 9.066660599907664e+000	 1.599979999983599e+000	 9.906797529953707e+000
0	 9.066660599907666e+000	 1.666649999985416e+000	 9.908763274135477e+000
0	 9.066660599907666e+000	 1.733319999987733e+000	 9.910777272247982e+000
0	 9.066660599907666e+000	 1.799989999990450e+000	 9.912841726170043e+000
0	 9.066660599907667e+000	 1.866659999993466e+000	 9.914958837780471e+000
0	 9.066660599907666e+000	 1.933329999996683e+000	 9.917130808958104e+000
0	 9.066660599907667e+000	 2.000000000000000e+000	 9.919359841581759e+000
0	 9.133320952629653e+000	 1.333299999983334e+000	 9.891836683156198e+000
0	 9.133320952629651e+000	 1.399969999982150e+000	 9.893681733392659e+000
0	 9.133320952629651e+000	 1.466639999981867e+000	 9.895570640744811e+000
0	 9.133320952629653e+000	 1.533309999982383e+000	 9.897505497138647e+000
0	 9.133320952629655e+000	 1.599979999983600e+000	 9.899488394500109e+000
0	 9.133320952629651e+000	 1.666649999985416e+000	 9.901521424755172e+000
0	 9.133320952629655e+000	 1.733319999987733e+000	 9.903606679829810e+000
0	 9.133320952629651e+000	 1.799989999990450e+000	 9.905746251649985e+000
0	 9.133320952629655e+000	 1.866659999993466e+000	 9.907942232141672e+000
0	 9.133320952629653e+000	 1.933329999996683e+000	 9.910196713230832e+000
0	 9.133320952629653e+000	 2.000000000000000e+000	 9.912511786843435e+000
0	 9.199981422001555e+000	 1.333299999983334e+000	 9.884149947222227e+000
0	 9.199981422001555e+000	 1.399969999982150e+000	 9.886053577098917e+000
0	 9.199981422001557e+000	 1.466639999981867e+000	 9.888005580637101e+000
0	 9.199981422001555e+000	 1.533309999982383e+000	 9.890007869919016e+000
0	 9.199981422001557e+000	 1.599979999983600e+000	 9.892062357026910e+000
0	 9.199981422001553e+000	 1.666649999985416e+000	 9.894170954043046e+000
0	 9.199981422001557e+000	 1.733319999987733e+000	 9.896335573049653e+000
0	 9.199981422001558e+000	 1.799989999990450e+000	 9.898558126129004e+000
0	 9.199981422001555e+000	 1.866659999993466e+000	 9.900840525363325e+000
0	 9.199981422001555e+000	 1.933329999996683e+000	 9.903184682834882e+000
0	 9.199981422001553e+000	 2.000000000000000e+000	 9.905592510625931e+000
0	 9.266642024687792e+000	 1.333299999983334e+000	 9.876298764780630e+000
0	 9.266642024687792e+000	 1.399969999982150e+000	 9.878270683322766e+000
0	 9.266642024687792e+000	 1.466639999981866e+000	 9.880295418256903e+000
0	 9.266642024687791e+000	 1.533309999982383e+000	 9.882374631931205e+000
0	 9.266642024687794e+000	 1.599979999983600e+000	 9.884509986693880e+000
0	 9.266642024687791e+000	 1.666649999985416e+000	 9.886703144893135e+000
0	 9.266642024687792e+000	 1.733319999987733e+000	 9.888955768877139e+000
0	 9.266642024687789e+000	 1.799989999990449e+000	 9.891269520994117e+000
0	 9.266642024687792e+000	 1.866659999993466e+000	 9.893646063592255e+000
0	 9.266642024687789e+000	 1.933329999996683e+000	 9.896087059019747e+000
0	 9.266642024687794e+000	 2.000000000000000e+000	 9.898594169624804e+000
0	 9.333302777352785e+000	 1.333299999983334e+000	 9.868269053395952e+000
0	 9.333302777352783e+000	 1.399969999982150e+000	 9.870320402004756e+000
0	 9.333302777352785e+000	 1.466639999981866e+000	 9.872428756259710e+000
0	 9.333302777352783e+000	 1.533309999982383e+000	 9.874595458885271e+000
0	 9.333302777352783e+000	 1.599979999983600e+000	 9.876821852605854e+000
0	 9.333302777352783e+000	 1.666649999985416e+000	 9.879109280145910e+000
0	 9.333302777352783e+000	 1.733319999987733e+000	 9.881459084229874e+000
0	 9.333302777352781e+000	 1.799989999990450e+000	 9.883872607582196e+000
0	 9.333302777352783e+000	 1.866659999993466e+000	 9.886351192927329e+000
0	 9.333302777352783e+000	 1.933329999996683e+000	 9.888896182989688e+000
0	 9.333302777352783e+000	 2.000000000000000e+000	 9.891508920493742e+000
0	 8.666700000016668e+000	 2.000000000000000e+000	 9.959391738717493e+000
0	 8.666700000016665e+000	 2.066670000003317e+000	 9.961273144675328e+000
0	 8.666700000016666e+000	 2.133340000006534e+000	 9.963153456356780e+000
0	 8.666700000016666e+000	 2.200010000009550e+000	 9.965035131046816e+000
0	 8.666700000016666e+000	 2.266680000012268e+000	 9.966920626030401e+000
0	 8.666700000016665e+000	 2.333350000014584e+000	 9.968812398592489e+000
0	 8.666700000016666e+000	 2.400020000016401e+000	 9.970712906018052e+000
0	 8.666700000016666e+000	 2.466690000017618e+000	 9.972624605592054e+000
0	 8.666700000016668e+000	 2.533360000018134e+000	 9.974549954599468e+000
0	 8.666700000016666e+000	 2.600030000017850e+000	 9.976491410325231e+000
0	 8.666700000016668e+000	 2.666700000016667e+000	 9.978451430054333e+000
0	 8.733360002791905e+000	 2.000000000000000e+000	 9.952806305807675e+000
0	 8.733360002791903e+000	 2.066670000003317e+000	 9.954733533896386e+000
0	 8.733360002791901e+000	 2.133340000006534e+000	 9.956664493406295e+000
0	 8.733360002791905e+000	 2.200010000009550e+000	 9.958601098188423e+000
0	 8.733360002791901e+000	 2.266680000012268e+000	 9.960545262093811e+000
0	 8.733360002791905e+000	 2.333350000014584e+000	 9.962498898973450e+000
0	 8.733360002791901e+000	 2.400020000016400e+000	 9.964463922678382e+000
0	 8.733360002791899e+000	 2.466690000017616e+000	 9.966442247059614e+000
0	 8.733360002791898e+000	 2.533360000018133e+000	 9.968435785968172e+000
0	 8.733360002791901e+000	 2.600030000017850e+000	 9.970446453255068e+000
0	 8.733360002791903e+000	 2.666700000016666e+000	 9.972476162771333e+000
0	 8.800020022230555e+000	 2.000000000000000e+000	 9.946196710365324e+000
0	 8.800020022230557e+000	 2.066670000003317e+000	 9.948177227149028e+000
0	 8.800020022230552e+000	 2.133340000006534e+000	 9.950165072890183e+000
0	 8.800020022230553e+000	 2.200010000009550e+000	 9.952161704934873e+000
0	 8.800020022230557e+000	 2.266680000012268e+000	 9.954168580629126e+000
0	 8.800020022230552e+000	 2.333350000014584e+000	 9.956187157319002e+000
0	 8.800020022230557e+000	 2.400020000016401e+000	 9.958218892350571e+000
0	 8.800020022230553e+000	 2.466690000017618e+000	 9.960265243069856e+000
0	 8.800020022230553e+000	 2.533360000018134e+000	 9.962327666822949e+000
0	 8.800020022230555e+000	 2.600030000017851e+000	 9.964407620955868e+000
0	 8.800020022230557e+000	 2.666700000016667e+000	 9.966506562814699e+000
0	 8.866680074997044e+000	 2.000000000000000e+000	 9.939555109337421e+000
0	 8.866680074997042e+000	 2.066670000003318e+000	 9.941596190406671e+000
0	 8.866680074997042e+000	 2.133340000006534e+000	 9.943647136669437e+000
0	 8.866680074997042e+000	 2.200010000009551e+000	 9.945709035896021e+000
0	 8.866680074997042e+000	 2.266680000012267e+000	 9.947782975856757e+000
0	 8.866680074997039e+000	 2.333350000014582e+000	 9.949870044321925e+000
0	 8.866680074997042e+000	 2.400020000016402e+000	 9.951971329061859e+000
0	 8.866680074997040e+000	 2.466690000017617e+000	 9.954087917846877e+000
0	 8.866680074997039e+000	 2.533360000018133e+000	 9.956220898447272e+000
0	 8.866680074997040e+000	 2.600030000017850e+000	 9.958371358633357e+000
0	 8.866680074997040e+000	 2.666700000016667e+000	 9.960540386175454e+000
0	 8.933340177755776e+000	 2.000000000000000e+000	 9.932873659629074e+000
0	 8.933340177755776e+000	 2.066670000003317e+000	 9.934982389604832e+000
0	 8.933340177755774e+000	 2.133340000006533e+000	 9.937102626571670e+000
0	 8.933340177755774e+000	 2.200010000009550e+000	 9.939235175653469e+000
0	 8.933340177755776e+000	 2.266680000012267e+000	 9.941380841974139e+000
0	 8.933340177755779e+000	 2.333350000014585e+000	 9.943540430657601e+000
0	 8.933340177755778e+000	 2.400020000016401e+000	 9.945714746827736e+000
0	 8.933340177755776e+000	 2.466690000017617e+000	 9.947904595608465e+000
0	 8.933340177755774e+000	 2.533360000018134e+000	 9.950110782123687e+000
0	 8.933340177755774e+000	 2.600030000017850e+000	 9.952334111497322e+000
0	 8.933340177755776e+000	 2.666700000016666e+000	 9.954575388853256e+000
0	 9.000000347171177e+000	 2.000000000000000e+000	 9.926144518103422e+000
0	 9.000000347171179e+000	 2.066670000003316e+000	 9.928327790641125e+000
0	 9.000000347171177e+000	 2.133340000006534e+000	 9.930523484391211e+000
0	 9.000000347171179e+000	 2.200010000009550e+000	 9.932732208760520e+000
0	 9.000000347171179e+000	 2.266680000012268e+000	 9.934954573155837e+000
0	 9.000000347171175e+000	 2.333350000014584e+000	 9.937191186984014e+000
0	 9.000000347171179e+000	 2.400020000016401e+000	 9.939442659651855e+000
0	 9.000000347171181e+000	 2.466690000017618e+000	 9.941709600566181e+000
0	 9.000000347171179e+000	 2.533360000018133e+000	 9.943992619133832e+000
0	 9.000000347171181e+000	 2.600030000017850e+000	 9.946292324761597e+000
0	 9.000000347171183e+000	 2.666700000016666e+000	 9.948609326856319e+000
0	 9.066660599907667e+000	 2.000000000000000e+000	 9.919359841581759e+000
0	 9.066660599907666e+000	 2.066670000003317e+000	 9.921624359375242e+000
0	 9.066660599907667e+000	 2.133340000006534e+000	 9.923901651889070e+000
0	 9.066660599907666e+000	 2.200010000009551e+000	 9.926192219742164e+000
0	 9.066660599907666e+000	 2.266680000012267e+000	 9.928496563553434e+000
0	 9.066660599907667e+000	 2.333350000014585e+000	 9.930815183941773e+000
0	 9.066660599907664e+000	 2.400020000016400e+000	 9.933148581526094e+000
0	 9.066660599907667e+000	 2.466690000017617e+000	 9.935497256925327e+000
0	 9.066660599907666e+000	 2.533360000018133e+000	 9.937861710758355e+000
0	 9.066660599907666e+000	 2.600030000017851e+000	 9.940242443644094e+000
0	 9.066660599907666e+000	 2.666700000016667e+000	 9.942639956201466e+000
0	 9.133320952629653e+000	 2.000000000000000e+000	 9.912511786843435e+000
0	 9.133320952629653e+000	 2.066670000003317e+000	 9.914864061628986e+000
0	 9.133320952629653e+000	 2.133340000006534e+000	 9.917229070792942e+000
0	 9.133320952629653e+000	 2.200010000009550e+000	 9.919607293095172e+000
0	 9.133320952629653e+000	 2.266680000012268e+000	 9.921999207295592e+000
0	 9.133320952629651e+000	 2.333350000014584e+000	 9.924405292154091e+000
0	 9.133320952629655e+000	 2.400020000016400e+000	 9.926826026430570e+000
0	 9.133320952629653e+000	 2.466690000017617e+000	 9.929261888884915e+000
0	 9.133320952629651e+000	 2.533360000018134e+000	 9.931713358277028e+000
0	 9.133320952629651e+000	 2.600030000017851e+000	 9.934180913366799e+000
0	 9.133320952629653e+000	 2.666700000016667e+000	 9.936665032914135e+000
0	 9.199981422001553e+000	 2.000000000000000e+000	 9.905592510625931e+000
0	 9.199981422001553e+000	 2.066670000003317e+000	 9.908038863186279e+000
0	 9.199981422001557e+000	 2.133340000006534e+000	 9.910497682797173e+000
0	 9.199981422001555e+000	 2.200010000009551e+000	 9.912969513287980e+000
0	 9.199981422001557e+000	 2.266680000012267e+000	 9.915454898488072e+000
0	 9.199981422001555e+000	 2.333350000014584e+000	 9.917954382226816e+000
0	 9.199981422001557e+000	 2.400020000016401e+000	 9.920468508333583e+000
0	 9.199981422001553e+000	 2.466690000017617e+000	 9.922997820637741e+000
0	 9.199981422001557e+000	 2.533360000018134e+000	 9.925542862968680e+000
0	 9.199981422001558e+000	 2.600030000017851e+000	 9.928104179155755e+000
0	 9.199981422001555e+000	 2.666700000016667e+000	 9.930682313028342e+000
0	 9.266642024687794e+000	 2.000000000000000e+000	 9.898594169624804e+000
0	 9.266642024687792e+000	 2.066670000003317e+000	 9.901140729793132e+000
0	 9.266642024687791e+000	 2.133340000006534e+000	 9.903699429562863e+000
0	 9.266642024687792e+000	 2.200010000009550e+000	 9.906270964760779e+000
0	 9.266642024687792e+000	 2.266680000012267e+000	 9.908856031213681e+000
0	 9.266642024687791e+000	 2.333350000014584e+000	 9.911455324748395e+000
0	 9.266642024687792e+000	 2.400020000016401e+000	 9.914069541191671e+000
0	 9.266642024687792e+000	 2.466690000017618e+000	 9.916699376370344e+000
0	 9.266642024687791e+000	 2.533360000018133e+000	 9.919345526111218e+000
0	 9.266642024687791e+000	 2.600030000017850e+000	 9.922008686241068e+000
0	 9.266642024687791e+000	 2.666700000016666e+000	 9.924689552586713e+000
0	 9.333302777352783e+000	 2.000000000000000e+000	 9.891508920493742e+000
0	 9.333302777352783e+000	 2.066670000003318e+000	 9.894161627157676e+000
0	 9.333302777352783e+000	 2.133340000006534e+000	 9.896826252717748e+000
0	 9.333302777352785e+000	 2.200010000009550e+000	 9.899503731925469e+000
0	 9.333302777352781e+000	 2.266680000012267e+000	 9.902194999532336e+000
0	 9.333302777352783e+000	 2.333350000014584e+000	 9.904900990289887e+000
0	 9.333302777352781e+000	 2.400020000016401e+000	 9.907622638949594e+000
0	 9.333302777352785e+000	 2.466690000017617e+000	 9.910360880263008e+000
0	 9.333302777352781e+000	 2.533360000018134e+000	 9.913116648981623e+000
0	 9.333302777352783e+000	 2.600030000017850e+000	 9.915890879856949e+000
0	 9.333302777352785e+000	 2.666700000016666e+000	 9.918684507640499e+000
0	 8.666700000016668e+000	 2.666700000016667e+000	 9.978451430054333e+000
0	 8.666700000016666e+000	 2.733360000014533e+000	 9.980404418760541e+000
0	 8.666700000016668e+000	 2.800020000011600e+000	 9.982324102036543e+000
0	 8.666700000016665e+000	 2.866680000008067e+000	 9.984211031585668e+000
0	 8.666700000016665e+000	 2.933340000004133e+000	 9.986065759111218e+000
0	 8.666700000016666e+000	 3.000000000000000e+000	 9.987888836316509e+000
0	 8.666700000016666e+000	 3.066659999995867e+000	 9.989680814904864e+000
0	 8.666700000016666e+000	 3.133319999991933e+000	 9.991442246579599e+000
0	 8.666700000016668e+000	 3.199979999988400e+000	 9.993173683044024e+000
0	 8.666700000016666e+000	 3.266639999985468e+000	 9.994875676001463e+000
0	 8.666700000016668e+000	 3.333299999983334e+000	 9.996548777155230e+000
0	 8.733360002791903e+000	 2.666700000016666e+000	 9.972476162771333e+000
0	 8.733360002791901e+000	 2.733360000014534e+000	 9.974498349212125e+000
0	 8.733360002791905e+000	 2.800020000011600e+000	 9.976486372407974e+000
0	 8.733360002791901e+000	 2.866680000008066e+000	 9.978441116018109e+000
0	 8.733360002791903e+000	 2.933340000004133e+000	 9.980363463701700e+000
0	 8.733360002791905e+000	 3.000000000000001e+000	 9.982254299117946e+000
0	 8.733360002791901e+000	 3.066659999995867e+000	 9.984114505926042e+000
0	 8.733360002791905e+000	 3.133319999991934e+000	 9.985944967785184e+000
0	 8.733360002791903e+000	 3.199979999988400e+000	 9.987746568354549e+000
0	 8.733360002791903e+000	 3.266639999985467e+000	 9.989520191293350e+000
0	 8.733360002791901e+000	 3.333299999983334e+000	 9.991266720260775e+000
0	 8.800020022230557e+000	 2.666700000016667e+000	 9.966506562814699e+000
0	 8.800020022230552e+000	 2.733360000014533e+000	 9.968597804340723e+000
0	 8.800020022230555e+000	 2.800020000011599e+000	 9.970655088098441e+000
0	 8.800020022230553e+000	 2.866680000008067e+000	 9.972679568401489e+000
0	 8.800020022230557e+000	 2.933340000004133e+000	 9.974672399563495e+000
0	 8.800020022230557e+000	 3.000000000000000e+000	 9.976634735898070e+000
0	 8.800020022230557e+000	 3.066659999995867e+000	 9.978567731718847e+000
0	 8.800020022230552e+000	 3.133319999991933e+000	 9.980472541339466e+000
0	 8.800020022230555e+000	 3.199979999988401e+000	 9.982350319073545e+000
0	 8.800020022230555e+000	 3.266639999985467e+000	 9.984202219234719e+000
0	 8.800020022230555e+000	 3.333299999983333e+000	 9.986029396136607e+000
0	 8.866680074997040e+000	 2.666700000016667e+000	 9.960540386175451e+000
0	 8.866680074997040e+000	 2.733360000014533e+000	 9.962701833194332e+000
0	 8.866680074997040e+000	 2.800020000011600e+000	 9.964830389311006e+000
0	 8.866680074997039e+000	 2.866680000008066e+000	 9.966927418191952e+000
0	 8.866680074997040e+000	 2.933340000004133e+000	 9.968994283503672e+000
0	 8.866680074997040e+000	 3.000000000000000e+000	 9.971032348912642e+000
0	 8.866680074997042e+000	 3.066659999995867e+000	 9.973042978085353e+000
0	 8.866680074997040e+000	 3.133319999991934e+000	 9.975027534688293e+000
0	 8.866680074997039e+000	 3.199979999988400e+000	 9.976987382387945e+000
0	 8.866680074997042e+000	 3.266639999985468e+000	 9.978923884850820e+000
0	 8.866680074997040e+000	 3.333299999983334e+000	 9.980838405743381e+000
0	 8.933340177755776e+000	 2.666700000016666e+000	 9.954575388853256e+000
0	 8.933340177755778e+000	 2.733360000014533e+000	 9.956809484833498e+000
0	 8.933340177755778e+000	 2.800020000011599e+000	 9.959012416264743e+000
0	 8.933340177755778e+000	 2.866680000008067e+000	 9.961185694864735e+000
0	 8.933340177755776e+000	 2.933340000004133e+000	 9.963330832351183e+000
0	 8.933340177755774e+000	 3.000000000000000e+000	 9.965449340441818e+000
0	 8.933340177755778e+000	 3.066659999995867e+000	 9.967542730854397e+000
0	 8.933340177755776e+000	 3.133319999991933e+000	 9.969612515306620e+000
0	 8.933340177755778e+000	 3.199979999988401e+000	 9.971660205516219e+000
0	 8.933340177755776e+000	 3.266639999985468e+000	 9.973687313200969e+000
0	 8.933340177755778e+000	 3.333299999983335e+000	 9.975695350078560e+000
0	 9.000000347171183e+000	 2.666700000016666e+000	 9.948609326856319e+000
0	 9.000000347171181e+000	 2.733360000014533e+000	 9.950919808331310e+000
0	 9.000000347171177e+000	 2.800020000011600e+000	 9.953201309194801e+000
0	 9.000000347171179e+000	 2.866680000008067e+000	 9.955455427914158e+000
0	 9.000000347171177e+000	 2.933340000004133e+000	 9.957683762956817e+000
0	 9.000000347171177e+000	 3.000000000000000e+000	 9.959887912790155e+000
0	 9.000000347171179e+000	 3.066659999995866e+000	 9.962069475881588e+000
0	 9.000000347171179e+000	 3.133319999991934e+000	 9.964230050698538e+000
0	 9.000000347171179e+000	 3.199979999988401e+000	 9.966371235708383e+000
0	 9.000000347171181e+000	 3.266639999985467e+000	 9.968494629378547e+000
0	 9.000000347171181e+000	 3.333299999983333e+000	 9.970601830176452e+000
0	 9.066660599907666e+000	 2.666700000016667e+000	 9.942639956201466e+000
0	 9.066660599907667e+000	 2.733360000014533e+000	 9.945031852773493e+000
0	 9.066660599907666e+000	 2.800020000011601e+000	 9.947397208352346e+000
0	 9.066660599907667e+000	 2.866680000008067e+000	 9.949737646853706e+000
0	 9.066660599907666e+000	 2.933340000004133e+000	 9.952054792193225e+000
0	 9.066660599907669e+000	 3.000000000000000e+000	 9.954350268286541e+000
0	 9.066660599907664e+000	 3.066659999995866e+000	 9.956625699049338e+000
0	 9.066660599907667e+000	 3.133319999991934e+000	 9.958882708397233e+000
0	 9.066660599907667e+000	 3.199979999988401e+000	 9.961122920245909e+000
0	 9.066660599907667e+000	 3.266639999985468e+000	 9.963347958511010e+000
0	 9.066660599907666e+000	 3.333299999983334e+000	 9.965559447108204e+000
0	 9.133320952629653e+000	 2.666700000016667e+000	 9.936665032914133e+000
0	 9.133320952629653e+000	 2.733360000014534e+000	 9.939144667258248e+000
0	 9.133320952629651e+000	 2.800020000011600e+000	 9.941600254004623e+000
0	 9.133320952629651e+000	 2.866680000008067e+000	 9.944033381215942e+000
0	 9.133320952629653e+000	 2.933340000004133e+000	 9.946445636954937e+000
0	 9.133320952629651e+000	 2.999999999999999e+000	 9.948838609284312e+000
0	 9.133320952629653e+000	 3.066659999995867e+000	 9.951213886266787e+000
0	 9.133320952629651e+000	 3.133319999991934e+000	 9.953573055965050e+000
0	 9.133320952629651e+000	 3.199979999988401e+000	 9.955917706441836e+000
0	 9.133320952629651e+000	 3.266639999985467e+000	 9.958249425759865e+000
0	 9.133320952629651e+000	 3.333299999983334e+000	 9.960569801981819e+000
0	 9.199981422001555e+000	 2.666700000016667e+000	 9.930682313028342e+000
0	 9.199981422001558e+000	 2.733360000014533e+000	 9.933257300896464e+000
0	 9.199981422001555e+000	 2.800020000011599e+000	 9.935810586434902e+000
0	 9.199981422001555e+000	 2.866680000008067e+000	 9.938343660552571e+000
0	 9.199981422001555e+000	 2.933340000004133e+000	 9.940858014158348e+000
0	 9.199981422001553e+000	 3.000000000000000e+000	 9.943355138161163e+000
0	 9.199981422001555e+000	 3.066659999995866e+000	 9.945836523469888e+000
0	 9.199981422001553e+000	 3.133319999991933e+000	 9.948303660993448e+000
0	 9.199981422001553e+000	 3.199979999988400e+000	 9.950758041640748e+000
0	 9.199981422001557e+000	 3.266639999985467e+000	 9.953201156320681e+000
0	 9.199981422001555e+000	 3.333299999983333e+000	 9.955634495942153e+000
0	 9.266642024687791e+000	 2.666700000016666e+000	 9.924689552586713e+000
0	 9.266642024687791e+000	 2.733360000014533e+000	 9.927368802811531e+000
0	 9.266642024687791e+000	 2.800020000011599e+000	 9.930028345942548e+000
0	 9.266642024687789e+000	 2.866680000008066e+000	 9.932669514434389e+000
0	 9.266642024687792e+000	 2.933340000004134e+000	 9.935293640741719e+000
0	 9.266642024687791e+000	 3.000000000000000e+000	 9.937902057319162e+000
0	 9.266642024687792e+000	 3.066659999995866e+000	 9.940496096621382e+000
0	 9.266642024687794e+000	 3.133319999991934e+000	 9.943077091103005e+000
0	 9.266642024687794e+000	 3.199979999988401e+000	 9.945646373218718e+000
0	 9.266642024687792e+000	 3.266639999985467e+000	 9.948205275423117e+000
0	 9.266642024687794e+000	 3.333299999983335e+000	 9.950755130170874e+000
0	 9.333302777352785e+000	 2.666700000016666e+000	 9.918684507640498e+000
0	 9.333302777352783e+000	 2.733360000014533e+000	 9.921478222139465e+000
0	 9.333302777352781e+000	 2.800020000011600e+000	 9.924253672842925e+000
0	 9.333302777352783e+000	 2.866680000008067e+000	 9.927011972451339e+000
0	 9.333302777352781e+000	 2.933340000004133e+000	 9.929754233665156e+000
0	 9.333302777352785e+000	 3.000000000000000e+000	 9.932481569184809e+000
0	 9.333302777352783e+000	 3.066659999995867e+000	 9.935195091710776e+000
0	 9.333302777352781e+000	 3.133319999991933e+000	 9.937895913943471e+000
0	 9.333302777352783e+000	 3.199979999988400e+000	 9.940585148583363e+000
0	 9.333302777352783e+000	 3.266639999985467e+000	 9.943263908330897e+000
0	 9.333302777352785e+000	 3.333299999983334e+000	 9.945933305886527e+000
0	 8.666700000016668e+000	 3.333299999983334e+000	 9.996548777155230e+000
0	 8.666700000016665e+000	 3.399969999982149e+000	 9.998186797397191e+000
0	 8.666700000016665e+000	 3.466639999981867e+000	 9.999783348948617e+000
0	 8.666700000016666e+000	 3.533309999982384e+000	 1.000133943205921e+001
0	 8.666700000016666e+000	 3.599979999983600e+000	 1.000285604697868e+001
0	 8.666700000016665e+000	 3.666649999985415e+000	 1.000433419395675e+001
0	 8.666700000016666e+000	 3.733319999987733e+000	 1.000577487324314e+001
0	 8.666700000016665e+000	 3.799989999990450e+000	 1.000717908508752e+001
0	 8.666700000016668e+000	 3.866659999993467e+000	 1.000854782973964e+001
0	 8.666700000016666e+000	 3.933329999996683e+000	 1.000988210744918e+001
0	 8.666700000016668e+000	 4.000000000000000e+000	 1.001118291846585e+001
0	 8.733360002791901e+000	 3.333299999983334e+000	 9.991266720260773e+000
0	 8.733360002791899e+000	 3.399969999982150e+000	 9.992980579546385e+000
0	 8.733360002791901e+000	 3.466639999981867e+000	 9.994655537618705e+000
0	 8.733360002791901e+000	 3.533309999982384e+000	 9.996292274457817e+000
0	 8.733360002791901e+000	 3.599979999983600e+000	 9.997891470043790e+000
0	 8.733360002791905e+000	 3.666649999985417e+000	 9.999453804356683e+000
0	 8.733360002791899e+000	 3.733319999987733e+000	 1.000097995737657e+001
0	 8.733360002791901e+000	 3.799989999990450e+000	 1.000247060908351e+001
0	 8.733360002791905e+000	 3.866659999993467e+000	 1.000392643945761e+001
0	 8.733360002791903e+000	 3.933329999996684e+000	 1.000534812847891e+001
0	 8.733360002791901e+000	 4.000000000000000e+000	 1.000673635612747e+001
0	 8.800020022230555e+000	 3.333299999983333e+000	 9.986029396136610e+000
0	 8.800020022230555e+000	 3.399969999982150e+000	 9.987825934279972e+000
0	 8.800020022230555e+000	 3.466639999981866e+000	 9.989584882434123e+000
0	 8.800020022230557e+000	 3.533309999982383e+000	 9.991306658237271e+000
0	 8.800020022230557e+000	 3.599979999983600e+000	 9.992991679327604e+000
0	 8.800020022230553e+000	 3.666649999985417e+000	 9.994640363343351e+000
0	 8.800020022230553e+000	 3.733319999987733e+000	 9.996253127922721e+000
0	 8.800020022230553e+000	 3.799989999990449e+000	 9.997830390703884e+000
0	 8.800020022230552e+000	 3.866659999993466e+000	 9.999372569325086e+000
0	 8.800020022230555e+000	 3.933329999996684e+000	 1.000088008142451e+001
0	 8.800020022230553e+000	 4.000000000000000e+000	 1.000235334464036e+001
0	 8.866680074997040e+000	 3.333299999983334e+000	 9.980838405743379e+000
0	 8.866680074997044e+000	 3.399969999982150e+000	 9.982723923956504e+000
0	 8.866680074997040e+000	 3.466639999981867e+000	 9.984572080167025e+000
0	 8.866680074997039e+000	 3.533309999982382e+000	 9.986383087599185e+000
0	 8.866680074997042e+000	 3.599979999983600e+000	 9.988157159477245e+000
0	 8.866680074997044e+000	 3.666649999985417e+000	 9.989894509025442e+000
0	 8.866680074997042e+000	 3.733319999987733e+000	 9.991595349468025e+000
0	 8.866680074997044e+000	 3.799989999990451e+000	 9.993259894029240e+000
0	 8.866680074997042e+000	 3.866659999993467e+000	 9.994888355933339e+000
0	 8.866680074997039e+000	 3.933329999996683e+000	 9.996480948404566e+000
0	 8.866680074997040e+000	 4.000000000000000e+000	 9.998037884667157e+000
0	 8.933340177755778e+000	 3.333299999983335e+000	 9.975695350078560e+000
0	 8.933340177755774e+000	 3.399969999982150e+000	 9.977675610974439e+000
0	 8.933340177755778e+000	 3.466639999981867e+000	 9.979617827632815e+000
0	 8.933340177755776e+000	 3.533309999982384e+000	 9.981522066791944e+000
0	 8.933340177755774e+000	 3.599979999983600e+000	 9.983388395190030e+000
0	 8.933340177755779e+000	 3.666649999985416e+000	 9.985216879565321e+000
0	 8.933340177755778e+000	 3.733319999987733e+000	 9.987007586656079e+000
0	 8.933340177755778e+000	 3.799989999990450e+000	 9.988760583200524e+000
0	 8.933340177755774e+000	 3.866659999993466e+000	 9.990475935936903e+000
0	 8.933340177755776e+000	 3.933329999996685e+000	 9.992153711603443e+000
0	 8.933340177755772e+000	 4.000000000000000e+000	 9.993793976938386e+000
0	 9.000000347171181e+000	 3.333299999983333e+000	 9.970601830176451e+000
0	 9.000000347171179e+000	 3.399969999982150e+000	 9.972682057772163e+000
0	 9.000000347171179e+000	 3.466639999981867e+000	 9.974722821690149e+000
0	 9.000000347171179e+000	 3.533309999982383e+000	 9.976724100110548e+000
0	 9.000000347171177e+000	 3.599979999983600e+000	 9.978685871213505e+000
0	 9.000000347171177e+000	 3.666649999985416e+000	 9.980608113179143e+000
0	 9.000000347171177e+000	 3.733319999987732e+000	 9.982490804187609e+000
0	 9.000000347171177e+000	 3.799989999990450e+000	 9.984333922419040e+000
0	 9.000000347171179e+000	 3.866659999993467e+000	 9.986137446053593e+000
0	 9.000000347171177e+000	 3.933329999996683e+000	 9.987901353271379e+000
0	 9.000000347171179e+000	 4.000000000000000e+000	 9.989625622252559e+000
0	 9.066660599907666e+000	 3.333299999983334e+000	 9.965559447108204e+000
0	 9.066660599907666e+000	 3.399969999982150e+000	 9.967744326827962e+000
0	 9.066660599907666e+000	 3.466639999981866e+000	 9.969887759240875e+000
0	 9.066660599907666e+000	 3.533309999982382e+000	 9.971989691896761e+000
0	 9.066660599907667e+000	 3.599979999983600e+000	 9.974050072345454e+000
0	 9.066660599907666e+000	 3.666649999985416e+000	 9.976068848136737e+000
0	 9.066660599907664e+000	 3.733319999987733e+000	 9.978045966820469e+000
0	 9.066660599907664e+000	 3.799989999990450e+000	 9.979981375946457e+000
0	 9.066660599907667e+000	 3.866659999993467e+000	 9.981875023064506e+000
0	 9.066660599907664e+000	 3.933329999996684e+000	 9.983726855724443e+000
0	 9.066660599907666e+000	 4.000000000000001e+000	 9.985536821476089e+000
0	 9.133320952629651e+000	 3.333299999983334e+000	 9.960569801981819e+000
0	 9.133320952629649e+000	 3.399969999982149e+000	 9.962863480660047e+000
0	 9.133320952629653e+000	 3.466639999981867e+000	 9.965113337230092e+000
0	 9.133320952629653e+000	 3.533309999982383e+000	 9.967319346539009e+000
0	 9.133320952629648e+000	 3.599979999983599e+000	 9.969481483433869e+000
0	 9.133320952629651e+000	 3.666649999985416e+000	 9.971599722761738e+000
0	 9.133320952629653e+000	 3.733319999987732e+000	 9.973674039369676e+000
0	 9.133320952629651e+000	 3.799989999990450e+000	 9.975704408104743e+000
0	 9.133320952629653e+000	 3.866659999993467e+000	 9.977690803814005e+000
0	 9.133320952629651e+000	 3.933329999996683e+000	 9.979633201344532e+000
0	 9.133320952629651e+000	 3.999999999999999e+000	 9.981531575543356e+000
0	 9.199981422001555e+000	 3.333299999983333e+000	 9.955634495942155e+000
0	 9.199981422001557e+000	 3.399969999982150e+000	 9.958040581826548e+000
0	 9.199981422001555e+000	 3.466639999981866e+000	 9.960400252646124e+000
0	 9.199981422001557e+000	 3.533309999982383e+000	 9.962713568472415e+000
0	 9.199981422001553e+000	 3.599979999983600e+000	 9.964980589377008e+000
0	 9.199981422001555e+000	 3.666649999985417e+000	 9.967201375431474e+000
0	 9.199981422001555e+000	 3.733319999987733e+000	 9.969375986707380e+000
0	 9.199981422001557e+000	 3.799989999990451e+000	 9.971504483276288e+000
0	 9.199981422001555e+000	 3.866659999993466e+000	 9.973586925209750e+000
0	 9.199981422001557e+000	 3.933329999996684e+000	 9.975623372579358e+000
0	 9.199981422001557e+000	 4.000000000000000e+000	 9.977613885456675e+000
0	 9.266642024687794e+000	 3.333299999983335e+000	 9.950755130170876e+000
0	 9.266642024687792e+000	 3.399969999982150e+000	 9.953276692925520e+000
0	 9.266642024687791e+000	 3.466639999981866e+000	 9.955749202520511e+000
0	 9.266642024687789e+000	 3.533309999982383e+000	 9.958172862178804e+000
0	 9.266642024687792e+000	 3.599979999983601e+000	 9.960547875123327e+000
0	 9.266642024687792e+000	 3.666649999985417e+000	 9.962874444577036e+000
0	 9.266642024687791e+000	 3.733319999987733e+000	 9.965152773762867e+000
0	 9.266642024687791e+000	 3.799989999990450e+000	 9.967383065903764e+000
0	 9.266642024687794e+000	 3.866659999993467e+000	 9.969565524222681e+000
0	 9.266642024687791e+000	 3.933329999996684e+000	 9.971700351942527e+000
0	 9.266642024687791e+000	 4.000000000000000e+000	 9.973787752286279e+000
0	 9.333302777352785e+000	 3.333299999983334e+000	 9.945933305886531e+000
0	 9.333302777352781e+000	 3.399969999982149e+000	 9.948572876594918e+000
0	 9.333302777352785e+000	 3.466639999981867e+000	 9.951160883928070e+000
0	 9.333302777352783e+000	 3.533309999982383e+000	 9.953697732186702e+000
0	 9.333302777352785e+000	 3.599979999983600e+000	 9.956183825671527e+000
0	 9.333302777352783e+000	 3.666649999985417e+000	 9.958619568683266e+000
0	 9.333302777352783e+000	 3.733319999987733e+000	 9.961005365522601e+000
0	 9.333302777352783e+000	 3.799989999990450e+000	 9.963341620490283e+000
0	 9.333302777352783e+000	 3.866659999993466e+000	 9.965628737886986e+000
0	 9.333302777352783e+000	 3.933329999996683e+000	 9.967867122013445e+000
0	 9.333302777352785e+000	 4.000000000000000e+000	 9.970057177170373e+000
0	 8.666700000016668e+000	 4.000000000000000e+000	 1.001118291846585e+001
0	 8.666700000016666e+000	 4.066670000003317e+000	 1.001244001661122e+001
0	 8.666700000016666e+000	 4.133340000006535e+000	 1.001364218353987e+001
0	 8.666700000016668e+000	 4.200010000009551e+000	 1.001478896125105e+001
0	 8.666700000016666e+000	 4.266680000012268e+000	 1.001587989174406e+001
0	 8.666700000016666e+000	 4.333350000014585e+000	 1.001691451701815e+001
0	 8.666700000016666e+000	 4.400020000016401e+000	 1.001789237907260e+001
0	 8.666700000016666e+000	 4.466690000017618e+000	 1.001881301990666e+001
0	 8.666700000016668e+000	 4.533360000018134e+000	 1.001967598151962e+001
0	 8.666700000016666e+000	 4.600030000017851e+000	 1.002048080591073e+001
0	 8.666700000016668e+000	 4.666700000016666e+000	 1.002122703507926e+001
0	 8.733360002791901e+000	 4.000000000000000e+000	 1.000673635612747e+001
0	 8.733360002791905e+000	 4.066670000003317e+000	 1.000807966969208e+001
0	 8.733360002791903e+000	 4.133340000006535e+000	 1.000936605358073e+001
0	 8.733360002791907e+000	 4.200010000009552e+000	 1.001059534345239e+001
0	 8.733360002791901e+000	 4.266680000012268e+000	 1.001176737496604e+001
0	 8.733360002791903e+000	 4.333350000014583e+000	 1.001288198378061e+001
0	 8.733360002791901e+000	 4.400020000016400e+000	 1.001393900555507e+001
0	 8.733360002791903e+000	 4.466690000017617e+000	 1.001493827594838e+001
0	 8.733360002791899e+000	 4.533360000018133e+000	 1.001587963061950e+001
0	 8.733360002791901e+000	 4.600030000017850e+000	 1.001676290522738e+001
0	 8.733360002791901e+000	 4.666700000016666e+000	 1.001758793543096e+001
0	 8.800020022230553e+000	 4.000000000000000e+000	 1.000235334464036e+001
0	 8.800020022230557e+000	 4.066670000003318e+000	 1.000378053834271e+001
0	 8.800020022230555e+000	 4.133340000006535e+000	 1.000514961703431e+001
0	 8.800020022230555e+000	 4.200010000009550e+000	 1.000646066105238e+001
0	 8.800020022230557e+000	 4.266680000012268e+000	 1.000771375073419e+001
0	 8.800020022230550e+000	 4.333350000014582e+000	 1.000890896641696e+001
0	 8.800020022230557e+000	 4.400020000016401e+000	 1.001004638843794e+001
0	 8.800020022230557e+000	 4.466690000017618e+000	 1.001112609713435e+001
0	 8.800020022230553e+000	 4.533360000018134e+000	 1.001214817284345e+001
0	 8.800020022230555e+000	 4.600030000017849e+000	 1.001311269590246e+001
0	 8.800020022230555e+000	 4.666700000016666e+000	 1.001401974664862e+001
0	 8.866680074997040e+000	 4.000000000000000e+000	 9.998037884667156e+000
0	 8.866680074997040e+000	 4.066670000003317e+000	 9.999547642410743e+000
0	 8.866680074997040e+000	 4.133340000006534e+000	 1.000099874119815e+001
0	 8.866680074997042e+000	 4.200010000009551e+000	 1.000239145706334e+001
0	 8.866680074997044e+000	 4.266680000012267e+000	 1.000372606604030e+001
0	 8.866680074997040e+000	 4.333350000014582e+000	 1.000500284416298e+001
0	 8.866680074997044e+000	 4.400020000016403e+000	 1.000622206746541e+001
0	 8.866680074997040e+000	 4.466690000017617e+000	 1.000738401198155e+001
0	 8.866680074997040e+000	 4.533360000018134e+000	 1.000848895374537e+001
0	 8.866680074997039e+000	 4.600030000017850e+000	 1.000953716879086e+001
0	 8.866680074997040e+000	 4.666700000016667e+000	 1.001052893315199e+001
0	 8.933340177755772e+000	 4.000000000000000e+000	 9.993793976938386e+000
0	 8.933340177755776e+000	 4.066670000003318e+000	 9.995386001813332e+000
0	 8.933340177755774e+000	 4.133340000006534e+000	 9.996919293440460e+000
0	 8.933340177755776e+000	 4.200010000009550e+000	 9.998394274568943e+000
0	 8.933340177755778e+000	 4.266680000012268e+000	 9.999811367947867e+000
0	 8.933340177755778e+000	 4.333350000014584e+000	 1.000117099632640e+001
0	 8.933340177755778e+000	 4.400020000016402e+000	 1.000247358245364e+001
0	 8.933340177755778e+000	 4.466690000017618e+000	 1.000371954907873e+001
0	 8.933340177755778e+000	 4.533360000018132e+000	 1.000490931895079e+001
0	 8.933340177755774e+000	 4.600030000017851e+000	 1.000604331481896e+001
0	 8.933340177755776e+000	 4.666700000016665e+000	 1.000712195943237e+001
0	 9.000000347171179e+000	 4.000000000000000e+000	 9.989625622252559e+000
0	 9.000000347171181e+000	 4.066670000003316e+000	 9.991300636537121e+000
0	 9.000000347171177e+000	 4.133340000006533e+000	 9.992917141200110e+000
0	 9.000000347171179e+000	 4.200010000009550e+000	 9.994475656724266e+000
0	 9.000000347171179e+000	 4.266680000012268e+000	 9.995976703592255e+000
0	 9.000000347171177e+000	 4.333350000014584e+000	 9.997420802286804e+000
0	 9.000000347171177e+000	 4.400020000016402e+000	 9.998808473290628e+000
0	 9.000000347171179e+000	 4.466690000017617e+000	 1.000014023708641e+001
0	 9.000000347171177e+000	 4.533360000018133e+000	 1.000141661415685e+001
0	 9.000000347171181e+000	 4.600030000017850e+000	 1.000263812498466e+001
0	 9.000000347171181e+000	 4.666700000016666e+000	 1.000380529005255e+001
0	 9.066660599907666e+000	 4.000000000000001e+000	 9.985536821476089e+000
0	 9.066660599907666e+000	 4.066670000003317e+000	 9.987296566638307e+000
0	 9.066660599907666e+000	 4.133340000006535e+000	 9.988998151986568e+000
0	 9.066660599907667e+000	 4.200010000009551e+000	 9.990642146755707e+000
0	 9.066660599907664e+000	 4.266680000012268e+000	 9.992229120180511e+000
0	 9.066660599907666e+000	 4.333350000014584e+000	 9.993759641495783e+000
0	 9.066660599907667e+000	 4.400020000016403e+000	 9.995234279936296e+000
0	 9.066660599907669e+000	 4.466690000017618e+000	 9.996653604736883e+000
0	 9.066660599907664e+000	 4.533360000018132e+000	 9.998018185132308e+000
0	 9.066660599907666e+000	 4.600030000017850e+000	 9.999328590357376e+000
0	 9.066660599907664e+000	 4.666700000016666e+000	 1.000058538964688e+001
0	 9.133320952629651e+000	 3.999999999999999e+000	 9.981531575543356e+000
0	 9.133320952629653e+000	 4.066670000003317e+000	 9.983378812242588e+000
0	 9.133320952629656e+000	 4.133340000006536e+000	 9.985168193379971e+000
0	 9.133320952629653e+000	 4.200010000009550e+000	 9.986900287961085e+000
0	 9.133320952629653e+000	 4.266680000012268e+000	 9.988575664991490e+000
0	 9.133320952629653e+000	 4.333350000014585e+000	 9.990194893476769e+000
0	 9.133320952629653e+000	 4.400020000016401e+000	 9.991758542422501e+000
0	 9.133320952629651e+000	 4.466690000017618e+000	 9.993267180834236e+000
0	 9.133320952629653e+000	 4.533360000018133e+000	 9.994721377717557e+000
0	 9.133320952629651e+000	 4.600030000017850e+000	 9.996121702078044e+000
0	 9.133320952629655e+000	 4.666700000016668e+000	 9.997468722921250e+000
0	 9.199981422001557e+000	 4.000000000000000e+000	 9.977613885456675e+000
0	 9.199981422001555e+000	 4.066670000003317e+000	 9.979552393545236e+000
0	 9.199981422001555e+000	 4.133340000006534e+000	 9.981433133031105e+000
0	 9.199981422001555e+000	 4.200010000009550e+000	 9.983256623709547e+000
0	 9.199981422001557e+000	 4.266680000012267e+000	 9.985023385375811e+000
0	 9.199981422001553e+000	 4.333350000014583e+000	 9.986733937825195e+000
0	 9.199981422001553e+000	 4.400020000016400e+000	 9.988388800852940e+000
0	 9.199981422001553e+000	 4.466690000017617e+000	 9.989988494254328e+000
0	 9.199981422001555e+000	 4.533360000018133e+000	 9.991533537824640e+000
0	 9.199981422001555e+000	 4.600030000017850e+000	 9.993024451359133e+000
0	 9.199981422001555e+000	 4.666700000016666e+000	 9.994461754653067e+000
0	 9.266642024687791e+000	 4.000000000000000e+000	 9.973787752286279e+000
0	 9.266642024687791e+000	 4.066670000003318e+000	 9.975822330811024e+000
0	 9.266642024687791e+000	 4.133340000006534e+000	 9.977798838661398e+000
0	 9.266642024687794e+000	 4.200010000009551e+000	 9.979717697441618e+000
0	 9.266642024687791e+000	 4.266680000012268e+000	 9.981579328755855e+000
0	 9.266642024687792e+000	 4.333350000014584e+000	 9.983384154208345e+000
0	 9.266642024687792e+000	 4.400020000016402e+000	 9.985132595403265e+000
0	 9.266642024687794e+000	 4.466690000017618e+000	 9.986825073944814e+000
0	 9.266642024687791e+000	 4.533360000018134e+000	 9.988462011437200e+000
0	 9.266642024687794e+000	 4.600030000017851e+000	 9.990043829484627e+000
0	 9.266642024687791e+000	 4.666700000016667e+000	 9.991570949691274e+000
0	 9.333302777352785e+000	 4.000000000000000e+000	 9.970057177170371e+000
0	 9.333302777352783e+000	 4.066670000003317e+000	 9.972193644374260e+000
0	 9.333302777352783e+000	 4.133340000006534e+000	 9.974271178062955e+000
0	 9.333302777352783e+000	 4.200010000009550e+000	 9.976290052669222e+000
0	 9.333302777352779e+000	 4.266680000012268e+000	 9.978250542625819e+000
0	 9.333302777352783e+000	 4.333350000014584e+000	 9.980152922365498e+000
0	 9.333302777352783e+000	 4.400020000016402e+000	 9.981997466321008e+000
0	 9.333302777352783e+000	 4.466690000017617e+000	 9.983784448925098e+000
0	 9.333302777352785e+000	 4.533360000018134e+000	 9.985514144610526e+000
0	 9.333302777352783e+000	 4.600030000017850e+000	 9.987186827810044e+000
0	 9.333302777352785e+000	 4.666700000016667e+000	 9.988802772956381e+000
0	 8.666700000016668e+000	 4.666700000016666e+000	 1.002122703507926e+001
0	 8.666700000016666e+000	 4.733360000014534e+000	 1.002192122109369e+001
0	 8.666700000016668e+000	 4.800020000011600e+000	 1.002257030354859e+001
0	 8.666700000016665e+000	 4.866680000008067e+000	 1.002317408319800e+001
0	 8.666700000016666e+000	 4.933340000004133e+000	 1.002373236079593e+001
0	 8.666700000016666e+000	 5.000000000000000e+000	 1.002424493709641e+001
0	 8.666700000016666e+000	 5.066659999995867e+000	 1.002471161285347e+001
0	 8.666700000016666e+000	 5.133319999991934e+000	 1.002513218882115e+001
0	 8.666700000016666e+000	 5.199979999988400e+000	 1.002550646575346e+001
0	 8.666700000016666e+000	 5.266639999985468e+000	 1.002583424440446e+001
0	 8.666700000016668e+000	 5.333299999983335e+000	 1.002611532552817e+001
0	 8.733360002791901e+000	 4.666700000016666e+000	 1.001758793543096e+001
0	 8.733360002791903e+000	 4.733360000014534e+000	 1.001836139388800e+001
0	 8.733360002791905e+000	 4.800020000011601e+000	 1.001909005738666e+001
0	 8.733360002791903e+000	 4.866680000008066e+000	 1.001977355966551e+001
0	 8.733360002791901e+000	 4.933340000004134e+000	 1.002041153446310e+001
0	 8.733360002791905e+000	 5.000000000000000e+000	 1.002100361551806e+001
0	 8.733360002791901e+000	 5.066659999995867e+000	 1.002154943656891e+001
0	 8.733360002791903e+000	 5.133319999991935e+000	 1.002204863135426e+001
0	 8.733360002791903e+000	 5.199979999988400e+000	 1.002250083361267e+001
0	 8.733360002791903e+000	 5.266639999985468e+000	 1.002290567708272e+001
0	 8.733360002791903e+000	 5.333299999983334e+000	 1.002326279550301e+001
0	 8.800020022230555e+000	 4.666700000016666e+000	 1.001401974664862e+001
0	 8.800020022230553e+000	 4.733360000014534e+000	 1.001487546915560e+001
0	 8.800020022230553e+000	 4.800020000011600e+000	 1.001568588609410e+001
0	 8.800020022230553e+000	 4.866680000008068e+000	 1.001645050046313e+001
0	 8.800020022230557e+000	 4.933340000004133e+000	 1.001716881526165e+001
0	 8.800020022230559e+000	 5.000000000000000e+000	 1.001784033348863e+001
0	 8.800020022230557e+000	 5.066659999995866e+000	 1.001846455814305e+001
0	 8.800020022230553e+000	 5.133319999991935e+000	 1.001904099222390e+001
0	 8.800020022230555e+000	 5.199979999988400e+000	 1.001956913873015e+001
0	 8.800020022230553e+000	 5.266639999985467e+000	 1.002004850066079e+001
0	 8.800020022230555e+000	 5.333299999983335e+000	 1.002047858101480e+001
0	 8.866680074997040e+000	 4.666700000016667e+000	 1.001052893315200e+001
0	 8.866680074997039e+000	 4.733360000014534e+000	 1.001146935275796e+001
0	 8.866680074997042e+000	 4.800020000011601e+000	 1.001236324428033e+001
0	 8.866680074997039e+000	 4.866680000008067e+000	 1.001321001625439e+001
0	 8.866680074997044e+000	 4.933340000004133e+000	 1.001400907721545e+001
0	 8.866680074997039e+000	 5.000000000000000e+000	 1.001475983569880e+001
0	 8.866680074997042e+000	 5.066659999995866e+000	 1.001546170023975e+001
0	 8.866680074997039e+000	 5.133319999991935e+000	 1.001611407937357e+001
0	 8.866680074997039e+000	 5.199979999988399e+000	 1.001671638163559e+001
0	 8.866680074997042e+000	 5.266639999985469e+000	 1.001726801556108e+001
0	 8.866680074997040e+000	 5.333299999983334e+000	 1.001776838968536e+001
0	 8.933340177755776e+000	 4.666700000016665e+000	 1.000712195943237e+001
0	 8.933340177755778e+000	 4.733360000014533e+000	 1.000814895062825e+001
0	 8.933340177755776e+000	 4.800020000011599e+000	 1.000912758662668e+001
0	 8.933340177755778e+000	 4.866680000008067e+000	 1.001005721777520e+001
0	 8.933340177755776e+000	 4.933340000004134e+000	 1.001093719442131e+001
0	 8.933340177755776e+000	 5.000000000000001e+000	 1.001176686691255e+001
0	 8.933340177755778e+000	 5.066659999995866e+000	 1.001254558559646e+001
0	 8.933340177755778e+000	 5.133319999991936e+000	 1.001327270082058e+001
0	 8.933340177755779e+000	 5.199979999988400e+000	 1.001394756293243e+001
0	 8.933340177755778e+000	 5.266639999985468e+000	 1.001456952227957e+001
0	 8.933340177755776e+000	 5.333299999983334e+000	 1.001513792920951e+001
0	 9.000000347171181e+000	 4.666700000016666e+000	 1.000380529005255e+001
0	 9.000000347171181e+000	 4.733360000014534e+000	 1.000492016877139e+001
0	 9.000000347171179e+000	 4.800020000011601e+000	 1.000598436788665e+001
0	 9.000000347171181e+000	 4.866680000008067e+000	 1.000699721583392e+001
0	 9.000000347171179e+000	 4.933340000004135e+000	 1.000795804104887e+001
0	 9.000000347171175e+000	 5.000000000000000e+000	 1.000886617196711e+001
0	 9.000000347171179e+000	 5.066659999995867e+000	 1.000972093702429e+001
0	 9.000000347171181e+000	 5.133319999991935e+000	 1.001052166465605e+001
0	 9.000000347171179e+000	 5.199979999988401e+000	 1.001126768329801e+001
0	 9.000000347171183e+000	 5.266639999985468e+000	 1.001195832138581e+001
0	 9.000000347171179e+000	 5.333299999983334e+000	 1.001259290735510e+001
0	 9.066660599907664e+000	 4.666700000016666e+000	 1.000058538964688e+001
0	 9.066660599907667e+000	 4.733360000014533e+000	 1.000178891326398e+001
0	 9.066660599907667e+000	 4.800020000011600e+000	 1.000293904288566e+001
0	 9.066660599907666e+000	 4.866680000008067e+000	 1.000403512131139e+001
0	 9.066660599907666e+000	 4.933340000004132e+000	 1.000507649134068e+001
0	 9.066660599907669e+000	 5.000000000000001e+000	 1.000606249577303e+001
0	 9.066660599907664e+000	 5.066659999995865e+000	 1.000699247740794e+001
0	 9.066660599907666e+000	 5.133319999991935e+000	 1.000786577904490e+001
0	 9.066660599907667e+000	 5.199979999988401e+000	 1.000868174348341e+001
0	 9.066660599907664e+000	 5.266639999985467e+000	 1.000943971352297e+001
0	 9.066660599907666e+000	 5.333299999983335e+000	 1.001013903196310e+001
0	 9.133320952629655e+000	 4.666700000016668e+000	 9.997468722921250e+000
0	 9.133320952629653e+000	 4.733360000014533e+000	 9.998761090254345e+000
0	 9.133320952629649e+000	 4.800020000011599e+000	 9.999997066521216e+000
0	 9.133320952629651e+000	 4.866680000008066e+000	 1.000117604516084e+001
0	 9.133320952629653e+000	 4.933340000004134e+000	 1.000229741961215e+001
0	 9.133320952629651e+000	 4.999999999999999e+000	 1.000336058331413e+001
0	 9.133320952629651e+000	 5.066659999995867e+000	 1.000436492970572e+001
0	 9.133320952629653e+000	 5.133319999991934e+000	 1.000530985222590e+001
0	 9.133320952629653e+000	 5.199979999988401e+000	 1.000619474431360e+001
0	 9.133320952629651e+000	 5.266639999985467e+000	 1.000701899940780e+001
0	 9.133320952629653e+000	 5.333299999983335e+000	 1.000778201094748e+001
0	 9.199981422001555e+000	 4.666700000016666e+000	 9.994461754653068e+000
0	 9.199981422001557e+000	 4.733360000014533e+000	 9.995842605962526e+000
0	 9.199981422001553e+000	 4.800020000011599e+000	 9.997163893762904e+000
0	 9.199981422001557e+000	 4.866680000008066e+000	 9.998425098407989e+000
0	 9.199981422001553e+000	 4.933340000004133e+000	 9.999625700251603e+000
0	 9.199981422001555e+000	 4.999999999999999e+000	 1.000076517964753e+001
0	 9.199981422001558e+000	 5.066659999995867e+000	 1.000184301694959e+001
0	 9.199981422001557e+000	 5.133319999991934e+000	 1.000285869251158e+001
0	 9.199981422001555e+000	 5.199979999988400e+000	 1.000381168668731e+001
0	 9.199981422001555e+000	 5.266639999985469e+000	 1.000470147983060e+001
0	 9.199981422001555e+000	 5.333299999983333e+000	 1.000552755229526e+001
0	 9.266642024687791e+000	 4.666700000016667e+000	 9.991570949691274e+000
0	 9.266642024687792e+000	 4.733360000014534e+000	 9.993039366680304e+000
0	 9.266642024687791e+000	 4.800020000011601e+000	 9.994444979652300e+000
0	 9.266642024687791e+000	 4.866680000008067e+000	 9.995787392151007e+000
0	 9.266642024687792e+000	 4.933340000004133e+000	 9.997066207720199e+000
0	 9.266642024687791e+000	 4.999999999999999e+000	 9.998281029903637e+000
0	 9.266642024687792e+000	 5.066659999995867e+000	 9.999431462245095e+000
0	 9.266642024687791e+000	 5.133319999991934e+000	 1.000051710828834e+001
0	 9.266642024687792e+000	 5.199979999988401e+000	 1.000153757157715e+001
0	 9.266642024687792e+000	 5.266639999985468e+000	 1.000249245565529e+001
0	 9.266642024687792e+000	 5.333299999983334e+000	 1.000338136406655e+001
0	 9.333302777352785e+000	 4.666700000016667e+000	 9.988802772956381e+000
0	 9.333302777352783e+000	 4.733360000014533e+000	 9.990357278771183e+000
0	 9.333302777352783e+000	 4.800020000011600e+000	 9.991845779303036e+000
0	 9.333302777352781e+000	 4.866680000008067e+000	 9.993268037560481e+000
0	 9.333302777352781e+000	 4.933340000004134e+000	 9.994623816552011e+000
0	 9.333302777352783e+000	 5.000000000000000e+000	 9.995912879286152e+000
0	 9.333302777352785e+000	 5.066659999995867e+000	 9.997134988771441e+000
0	 9.333302777352783e+000	 5.133319999991935e+000	 9.998289908016385e+000
0	 9.333302777352783e+000	 5.199979999988400e+000	 9.999377400029523e+000
0	 9.333302777352781e+000	 5.266639999985467e+000	 1.000039722781938e+001
0	 9.333302777352785e+000	 5.333299999983335e+000	 1.000134915439449e+001
0	 8.666700000016668e+000	 5.333299999983335e+000	 1.002611532552817e+001
0	 8.666700000016668e+000	 5.399969999982151e+000	 1.002635276546591e+001
0	 8.666700000016668e+000	 5.466639999981867e+000	 1.002654910023546e+001
0	 8.666700000016668e+000	 5.533309999982384e+000	 1.002670346606685e+001
0	 8.666700000016668e+000	 5.599979999983600e+000	 1.002681499919005e+001
0	 8.666700000016665e+000	 5.666649999985414e+000	 1.002688283583505e+001
0	 8.666700000016666e+000	 5.733319999987733e+000	 1.002690611223187e+001
0	 8.666700000016666e+000	 5.799989999990448e+000	 1.002688396461050e+001
0	 8.666700000016665e+000	 5.866659999993467e+000	 1.002681552920093e+001
0	 8.666700000016665e+000	 5.933329999996682e+000	 1.002669994223315e+001
0	 8.666700000016666e+000	 6.000000000000001e+000	 1.002653633993717e+001
0	 8.733360002791903e+000	 5.333299999983334e+000	 1.002326279550301e+001
0	 8.733360002791901e+000	 5.399969999982150e+000	 1.002357458379941e+001
0	 8.733360002791901e+000	 5.466639999981867e+000	 1.002384313485552e+001
0	 8.733360002791898e+000	 5.533309999982383e+000	 1.002406777927157e+001
0	 8.733360002791901e+000	 5.599979999983601e+000	 1.002424784764781e+001
0	 8.733360002791905e+000	 5.666649999985417e+000	 1.002438267058454e+001
0	 8.733360002791901e+000	 5.733319999987733e+000	 1.002447157868197e+001
0	 8.733360002791903e+000	 5.799989999990450e+000	 1.002451390254042e+001
0	 8.733360002791903e+000	 5.866659999993467e+000	 1.002450897276008e+001
0	 8.733360002791903e+000	 5.933329999996683e+000	 1.002445611994127e+001
0	 8.733360002791903e+000	 6.000000000000001e+000	 1.002435467468421e+001
0	 8.800020022230555e+000	 5.333299999983335e+000	 1.002047858101480e+001
0	 8.800020022230553e+000	 5.399969999982150e+000	 1.002086163248801e+001
0	 8.800020022230555e+000	 5.466639999981866e+000	 1.002119977971115e+001
0	 8.800020022230555e+000	 5.533309999982383e+000	 1.002149251597708e+001
0	 8.800020022230557e+000	 5.599979999983599e+000	 1.002173933457866e+001
0	 8.800020022230553e+000	 5.666649999985416e+000	 1.002193972880875e+001
0	 8.800020022230555e+000	 5.733319999987733e+000	 1.002209319196020e+001
0	 8.800020022230555e+000	 5.799989999990449e+000	 1.002219921732586e+001
0	 8.800020022230557e+000	 5.866659999993468e+000	 1.002225729819859e+001
0	 8.800020022230553e+000	 5.933329999996682e+000	 1.002226692787125e+001
0	 8.800020022230555e+000	 6.000000000000001e+000	 1.002222759963669e+001
0	 8.866680074997040e+000	 5.333299999983334e+000	 1.001776838968536e+001
0	 8.866680074997042e+000	 5.399969999982152e+000	 1.001822003179098e+001
0	 8.866680074997039e+000	 5.466639999981867e+000	 1.001862547113039e+001
0	 8.866680074997040e+000	 5.533309999982382e+000	 1.001898433201127e+001
0	 8.866680074997042e+000	 5.599979999983600e+000	 1.001929623874135e+001
0	 8.866680074997042e+000	 5.666649999985416e+000	 1.001956081562832e+001
0	 8.866680074997044e+000	 5.733319999987733e+000	 1.001977768697988e+001
0	 8.866680074997042e+000	 5.799989999990451e+000	 1.001994647710374e+001
0	 8.866680074997042e+000	 5.866659999993469e+000	 1.002006681030761e+001
0	 8.866680074997040e+000	 5.933329999996684e+000	 1.002013831089916e+001
0	 8.866680074997040e+000	 6.000000000000000e+000	 1.002016060318610e+001
0	 8.933340177755776e+000	 5.333299999983334e+000	 1.001513792920951e+001
0	 8.933340177755772e+000	 5.399969999982149e+000	 1.001565590203977e+001
0	 8.933340177755778e+000	 5.466639999981867e+000	 1.001612664551220e+001
0	 8.933340177755776e+000	 5.533309999982383e+000	 1.001654988327155e+001
0	 8.933340177755778e+000	 5.599979999983600e+000	 1.001692533896257e+001
0	 8.933340177755778e+000	 5.666649999985417e+000	 1.001725273623001e+001
0	 8.933340177755774e+000	 5.733319999987733e+000	 1.001753179871866e+001
0	 8.933340177755778e+000	 5.799989999990450e+000	 1.001776225007325e+001
0	 8.933340177755774e+000	 5.866659999993467e+000	 1.001794381393855e+001
0	 8.933340177755778e+000	 5.933329999996684e+000	 1.001807621395929e+001
0	 8.933340177755772e+000	 6.000000000000000e+000	 1.001815917378025e+001
0	 9.000000347171179e+000	 5.333299999983334e+000	 1.001259290735510e+001
0	 9.000000347171179e+000	 5.399969999982150e+000	 1.001317536363802e+001
0	 9.000000347171177e+000	 5.466639999981867e+000	 1.001370973932662e+001
0	 9.000000347171179e+000	 5.533309999982383e+000	 1.001419582572491e+001
0	 9.000000347171177e+000	 5.599979999983599e+000	 1.001463341413695e+001
0	 9.000000347171175e+000	 5.666649999985416e+000	 1.001502229586676e+001
0	 9.000000347171181e+000	 5.733319999987733e+000	 1.001536226221835e+001
0	 9.000000347171177e+000	 5.799989999990448e+000	 1.001565310449579e+001
0	 9.000000347171179e+000	 5.866659999993467e+000	 1.001589461400308e+001
0	 9.000000347171179e+000	 5.933329999996683e+000	 1.001608658204426e+001
0	 9.000000347171179e+000	 6.000000000000002e+000	 1.001622879992337e+001
0	 9.066660599907666e+000	 5.333299999983335e+000	 1.001013903196310e+001
0	 9.066660599907666e+000	 5.399969999982150e+000	 1.001078453706155e+001
0	 9.066660599907669e+000	 5.466639999981866e+000	 1.001138118911464e+001
0	 9.066660599907667e+000	 5.533309999982383e+000	 1.001192881540795e+001
0	 9.066660599907667e+000	 5.599979999983600e+000	 1.001242724322706e+001
0	 9.066660599907667e+000	 5.666649999985417e+000	 1.001287629985756e+001
0	 9.066660599907666e+000	 5.733319999987734e+000	 1.001327581258502e+001
0	 9.066660599907667e+000	 5.799989999990450e+000	 1.001362560869501e+001
0	 9.066660599907666e+000	 5.866659999993467e+000	 1.001392551547313e+001
0	 9.066660599907664e+000	 5.933329999996684e+000	 1.001417536020493e+001
0	 9.066660599907664e+000	 5.999999999999998e+000	 1.001437497017600e+001
0	 9.133320952629653e+000	 5.333299999983335e+000	 1.000778201094748e+001
0	 9.133320952629651e+000	 5.399969999982150e+000	 1.000848954285835e+001
0	 9.133320952629651e+000	 5.466639999981865e+000	 1.000914743148831e+001
0	 9.133320952629653e+000	 5.533309999982384e+000	 1.000975550842683e+001
0	 9.133320952629649e+000	 5.599979999983599e+000	 1.001031360526344e+001
0	 9.133320952629653e+000	 5.666649999985417e+000	 1.001082155358765e+001
0	 9.133320952629653e+000	 5.733319999987733e+000	 1.001127918498894e+001
0	 9.133320952629651e+000	 5.799989999990450e+000	 1.001168633105683e+001
0	 9.133320952629653e+000	 5.866659999993467e+000	 1.001204282338083e+001
0	 9.133320952629651e+000	 5.933329999996684e+000	 1.001234849355043e+001
0	 9.133320952629653e+000	 5.999999999999999e+000	 1.001260317315512e+001
0	 9.199981422001555e+000	 5.333299999983333e+000	 1.000552755229526e+001
0	 9.199981422001557e+000	 5.399969999982150e+000	 1.000629650164863e+001
0	 9.199981422001555e+000	 5.466639999981865e+000	 1.000701490313065e+001
0	 9.199981422001553e+000	 5.533309999982383e+000	 1.000768256095731e+001
0	 9.199981422001553e+000	 5.599979999983601e+000	 1.000829927934454e+001
0	 9.199981422001555e+000	 5.666649999985418e+000	 1.000886486250833e+001
0	 9.199981422001557e+000	 5.733319999987733e+000	 1.000937911466463e+001
0	 9.199981422001555e+000	 5.799989999990449e+000	 1.000984184002938e+001
0	 9.199981422001553e+000	 5.866659999993467e+000	 1.001025284281857e+001
0	 9.199981422001557e+000	 5.933329999996684e+000	 1.001061192724815e+001
0	 9.199981422001555e+000	 6.000000000000000e+000	 1.001091889753406e+001
0	 9.266642024687792e+000	 5.333299999983334e+000	 1.000338136406655e+001
0	 9.266642024687794e+000	 5.399969999982150e+000	 1.000421153412474e+001
0	 9.266642024687791e+000	 5.466639999981865e+000	 1.000499004079574e+001
0	 9.266642024687789e+000	 5.533309999982384e+000	 1.000571662924470e+001
0	 9.266642024687789e+000	 5.599979999983599e+000	 1.000639104463677e+001
0	 9.266642024687791e+000	 5.666649999985417e+000	 1.000701303213710e+001
0	 9.266642024687792e+000	 5.733319999987733e+000	 1.000758233691082e+001
0	 9.266642024687791e+000	 5.799989999990449e+000	 1.000809870412308e+001
0	 9.266642024687794e+000	 5.866659999993468e+000	 1.000856187893902e+001
0	 9.266642024687791e+000	 5.933329999996684e+000	 1.000897160652379e+001
0	 9.266642024687791e+000	 6.000000000000000e+000	 1.000932763204252e+001
0	 9.333302777352785e+000	 5.333299999983335e+000	 1.000134915439449e+001
0	 9.333302777352783e+000	 5.399969999982150e+000	 1.000224076105125e+001
0	 9.333302777352785e+000	 5.466639999981866e+000	 1.000307928130864e+001
0	 9.333302777352781e+000	 5.533309999982382e+000	 1.000386436960394e+001
0	 9.333302777352783e+000	 5.599979999983600e+000	 1.000459568037449e+001
0	 9.333302777352781e+000	 5.666649999985415e+000	 1.000527286805758e+001
0	 9.333302777352783e+000	 5.733319999987732e+000	 1.000589558709049e+001
0	 9.333302777352783e+000	 5.799989999990450e+000	 1.000646349191055e+001
0	 9.333302777352781e+000	 5.866659999993467e+000	 1.000697623695505e+001
0	 9.333302777352783e+000	 5.933329999996682e+000	 1.000743347666129e+001
0	 9.333302777352785e+000	 6.000000000000001e+000	 1.000783486546657e+001
0	 8.666700000016666e+000	 6.000000000000001e+000	 1.002653633993717e+001
0	 8.666700000016666e+000	 6.066670000003318e+000	 1.002633628499418e+001
0	 8.666700000016666e+000	 6.133340000006533e+000	 1.002611146931148e+001
0	 8.666700000016666e+000	 6.200010000009550e+000	 1.002586122295826e+001
0	 8.666700000016666e+000	 6.266680000012268e+000	 1.002558487600371e+001
0	 8.666700000016666e+000	 6.333350000014585e+000	 1.002528175851700e+001
0	 8.666700000016668e+000	 6.400020000016401e+000	 1.002495120056732e+001
0	 8.666700000016668e+000	 6.466690000017617e+000	 1.002459253222383e+001
0	 8.666700000016668e+000	 6.533360000018135e+000	 1.002420508355574e+001
0	 8.666700000016666e+000	 6.600030000017850e+000	 1.002378818463220e+001
0	 8.666700000016666e+000	 6.666700000016665e+000	 1.002334116552240e+001
0	 8.733360002791903e+000	 6.000000000000001e+000	 1.002435467468421e+001
0	 8.733360002791901e+000	 6.066670000003316e+000	 1.002421626971726e+001
0	 8.733360002791903e+000	 6.133340000006531e+000	 1.002405249393575e+001
0	 8.733360002791905e+000	 6.200010000009552e+000	 1.002386261219036e+001
0	 8.733360002791899e+000	 6.266680000012267e+000	 1.002364588933180e+001
0	 8.733360002791903e+000	 6.333350000014586e+000	 1.002340159021077e+001
0	 8.733360002791901e+000	 6.400020000016400e+000	 1.002312897967798e+001
0	 8.733360002791901e+000	 6.466690000017617e+000	 1.002282732258409e+001
0	 8.733360002791899e+000	 6.533360000018134e+000	 1.002249588377982e+001
0	 8.733360002791899e+000	 6.600030000017851e+000	 1.002213392811586e+001
0	 8.733360002791901e+000	 6.666700000016667e+000	 1.002174072044292e+001
0	 8.800020022230555e+000	 6.000000000000001e+000	 1.002222759963669e+001
0	 8.800020022230555e+000	 6.066670000003318e+000	 1.002215071736230e+001
0	 8.800020022230555e+000	 6.133340000006534e+000	 1.002204750056190e+001
0	 8.800020022230553e+000	 6.200010000009550e+000	 1.002191716599800e+001
0	 8.800020022230555e+000	 6.266680000012268e+000	 1.002175893043310e+001
0	 8.800020022230553e+000	 6.333350000014582e+000	 1.002157201062976e+001
0	 8.800020022230555e+000	 6.400020000016401e+000	 1.002135562335044e+001
0	 8.800020022230553e+000	 6.466690000017617e+000	 1.002110898535767e+001
0	 8.800020022230553e+000	 6.533360000018133e+000	 1.002083131341397e+001
0	 8.800020022230557e+000	 6.600030000017851e+000	 1.002052182428184e+001
0	 8.800020022230555e+000	 6.666700000016666e+000	 1.002017973472381e+001
0	 8.866680074997040e+000	 6.000000000000000e+000	 1.002016060318610e+001
0	 8.866680074997040e+000	 6.066670000003319e+000	 1.002014463698767e+001
0	 8.866680074997040e+000	 6.133340000006534e+000	 1.002010106978772e+001
0	 8.866680074997042e+000	 6.200010000009552e+000	 1.002002908739088e+001
0	 8.866680074997046e+000	 6.266680000012268e+000	 1.001992787560181e+001
0	 8.866680074997040e+000	 6.333350000014583e+000	 1.001979662022516e+001
0	 8.866680074997042e+000	 6.400020000016400e+000	 1.001963450706557e+001
0	 8.866680074997040e+000	 6.466690000017616e+000	 1.001944072192766e+001
0	 8.866680074997039e+000	 6.533360000018133e+000	 1.001921445061609e+001
0	 8.866680074997042e+000	 6.600030000017850e+000	 1.001895487893548e+001
0	 8.866680074997042e+000	 6.666700000016669e+000	 1.001866119269051e+001
0	 8.933340177755772e+000	 6.000000000000000e+000	 1.001815917378025e+001
0	 8.933340177755776e+000	 6.066670000003318e+000	 1.001820303770630e+001
0	 8.933340177755774e+000	 6.133340000006532e+000	 1.001821778226385e+001
0	 8.933340177755776e+000	 6.200010000009550e+000	 1.001820257943000e+001
0	 8.933340177755774e+000	 6.266680000012266e+000	 1.001815660118181e+001
0	 8.933340177755778e+000	 6.333350000014584e+000	 1.001807901949638e+001
0	 8.933340177755774e+000	 6.400020000016401e+000	 1.001796900635079e+001
0	 8.933340177755779e+000	 6.466690000017618e+000	 1.001782573372210e+001
0	 8.933340177755774e+000	 6.533360000018132e+000	 1.001764837358740e+001
0	 8.933340177755776e+000	 6.600030000017850e+000	 1.001743609792378e+001
0	 8.933340177755774e+000	 6.666700000016665e+000	 1.001718807870832e+001
0	 9.000000347171179e+000	 6.000000000000002e+000	 1.001622879992337e+001
0	 9.000000347171181e+000	 6.066670000003318e+000	 1.001633092868572e+001
0	 9.000000347171177e+000	 6.133340000006533e+000	 1.001640221869388e+001
0	 9.000000347171174e+000	 6.200010000009550e+000	 1.001644184522760e+001
0	 9.000000347171179e+000	 6.266680000012268e+000	 1.001644898356669e+001
0	 9.000000347171175e+000	 6.333350000014583e+000	 1.001642280899095e+001
0	 9.000000347171177e+000	 6.400020000016401e+000	 1.001636249678016e+001
0	 9.000000347171179e+000	 6.466690000017616e+000	 1.001626722221412e+001
0	 9.000000347171179e+000	 6.533360000018135e+000	 1.001613616057260e+001
0	 9.000000347171179e+000	 6.600030000017849e+000	 1.001596848713541e+001
0	 9.000000347171181e+000	 6.666700000016665e+000	 1.001576337718232e+001
0	 9.066660599907664e+000	 5.999999999999998e+000	 1.001437497017600e+001
0	 9.066660599907664e+000	 6.066670000003315e+000	 1.001453331914806e+001
0	 9.066660599907666e+000	 6.133340000006532e+000	 1.001465895983423e+001
0	 9.066660599907667e+000	 6.200010000009553e+000	 1.001475108794723e+001
0	 9.066660599907666e+000	 6.266680000012268e+000	 1.001480889919979e+001
0	 9.066660599907664e+000	 6.333350000014582e+000	 1.001483158930459e+001
0	 9.066660599907666e+000	 6.400020000016402e+000	 1.001481835397437e+001
0	 9.066660599907666e+000	 6.466690000017617e+000	 1.001476838892184e+001
0	 9.066660599907666e+000	 6.533360000018134e+000	 1.001468088985969e+001
0	 9.066660599907666e+000	 6.600030000017851e+000	 1.001455505250066e+001
0	 9.066660599907664e+000	 6.666700000016666e+000	 1.001439007255743e+001
0	 9.133320952629653e+000	 5.999999999999999e+000	 1.001260317315512e+001
0	 9.133320952629651e+000	 6.066670000003315e+000	 1.001281521837001e+001
0	 9.133320952629651e+000	 6.133340000006532e+000	 1.001299258649428e+001
0	 9.133320952629651e+000	 6.200010000009550e+000	 1.001313451080373e+001
0	 9.133320952629655e+000	 6.266680000012268e+000	 1.001324022457411e+001
0	 9.133320952629651e+000	 6.333350000014585e+000	 1.001330896108116e+001
0	 9.133320952629649e+000	 6.400020000016400e+000	 1.001333995360069e+001
0	 9.133320952629655e+000	 6.466690000017618e+000	 1.001333243540840e+001
0	 9.133320952629653e+000	 6.533360000018135e+000	 1.001328563978008e+001
0	 9.133320952629649e+000	 6.600030000017851e+000	 1.001319879999151e+001
0	 9.133320952629653e+000	 6.666700000016665e+000	 1.001307114931841e+001
0	 9.199981422001555e+000	 6.000000000000000e+000	 1.001091889753406e+001
0	 9.199981422001555e+000	 6.066670000003318e+000	 1.001118163568284e+001
0	 9.199981422001551e+000	 6.133340000006533e+000	 1.001140767953629e+001
0	 9.199981422001557e+000	 6.200010000009553e+000	 1.001159631706320e+001
0	 9.199981422001557e+000	 6.266680000012268e+000	 1.001174683623240e+001
0	 9.199981422001555e+000	 6.333350000014585e+000	 1.001185852501272e+001
0	 9.199981422001558e+000	 6.400020000016402e+000	 1.001193067137297e+001
0	 9.199981422001555e+000	 6.466690000017617e+000	 1.001196256328199e+001
0	 9.199981422001555e+000	 6.533360000018134e+000	 1.001195348870858e+001
0	 9.199981422001555e+000	 6.600030000017848e+000	 1.001190273562160e+001
0	 9.199981422001555e+000	 6.666700000016665e+000	 1.001180959198981e+001
0	 9.266642024687791e+000	 6.000000000000000e+000	 1.000932763204252e+001
0	 9.266642024687792e+000	 6.066670000003316e+000	 1.000963758047249e+001
0	 9.266642024687792e+000	 6.133340000006531e+000	 1.000990881987542e+001
0	 9.266642024687791e+000	 6.200010000009550e+000	 1.001014071004304e+001
0	 9.266642024687789e+000	 6.266680000012267e+000	 1.001033261076712e+001
0	 9.266642024687792e+000	 6.333350000014586e+000	 1.001048388183944e+001
0	 9.266642024687791e+000	 6.400020000016402e+000	 1.001059388305173e+001
0	 9.266642024687791e+000	 6.466690000017617e+000	 1.001066197419579e+001
0	 9.266642024687791e+000	 6.533360000018133e+000	 1.001068751506334e+001
0	 9.266642024687796e+000	 6.600030000017851e+000	 1.001066986544616e+001
0	 9.266642024687791e+000	 6.666700000016667e+000	 1.001060838513600e+001
0	 9.333302777352785e+000	 6.000000000000001e+000	 1.000783486546657e+001
0	 9.333302777352781e+000	 6.066670000003315e+000	 1.000818806217940e+001
0	 9.333302777352783e+000	 6.133340000006534e+000	 1.000850058847973e+001
0	 9.333302777352783e+000	 6.200010000009552e+000	 1.000877189311194e+001
0	 9.333302777352781e+000	 6.266680000012266e+000	 1.000900142482045e+001
0	 9.333302777352783e+000	 6.333350000014586e+000	 1.000918863234970e+001
0	 9.333302777352783e+000	 6.400020000016400e+000	 1.000933296444407e+001
0	 9.333302777352783e+000	 6.466690000017617e+000	 1.000943386984802e+001
0	 9.333302777352785e+000	 6.533360000018136e+000	 1.000949079730591e+001
0	 9.333302777352783e+000	 6.600030000017850e+000	 1.000950319556218e+001
0	 9.333302777352783e+000	 6.666700000016666e+000	 1.000947051336124e+001
0	 8.666700000016666e+000	 6.666700000016665e+000	 1.002334116552240e+001
0	 8.666700000016666e+000	 6.733360000014533e+000	 1.002287264794206e+001
0	 8.666700000016668e+000	 6.800020000011599e+000	 1.002239096749810e+001
0	 8.666700000016668e+000	 6.866680000008068e+000	 1.002189523312228e+001
0	 8.666700000016666e+000	 6.933340000004133e+000	 1.002138455374632e+001
0	 8.666700000016666e+000	 7.000000000000001e+000	 1.002085803830197e+001
0	 8.666700000016665e+000	 7.066659999995867e+000	 1.002031479572099e+001
0	 8.666700000016665e+000	 7.133319999991934e+000	 1.001975393493509e+001
0	 8.666700000016668e+000	 7.199979999988400e+000	 1.001917456487605e+001
0	 8.666700000016666e+000	 7.266639999985467e+000	 1.001857579447560e+001
0	 8.666700000016665e+000	 7.333299999983335e+000	 1.001795673266547e+001
0	 8.733360002791901e+000	 6.666700000016667e+000	 1.002174072044293e+001
0	 8.733360002791903e+000	 6.733360000014534e+000	 1.002132472632858e+001
0	 8.733360002791905e+000	 6.800020000011600e+000	 1.002089425345647e+001
0	 8.733360002791903e+000	 6.866680000008067e+000	 1.002044851392755e+001
0	 8.733360002791901e+000	 6.933340000004133e+000	 1.001998671984279e+001
0	 8.733360002791903e+000	 6.999999999999999e+000	 1.001950808330314e+001
0	 8.733360002791899e+000	 7.066659999995866e+000	 1.001901181640957e+001
0	 8.733360002791905e+000	 7.133319999991935e+000	 1.001849713126306e+001
0	 8.733360002791905e+000	 7.199979999988400e+000	 1.001796323996455e+001
0	 8.733360002791901e+000	 7.266639999985468e+000	 1.001740935461500e+001
0	 8.733360002791903e+000	 7.333299999983335e+000	 1.001683468731541e+001
0	 8.800020022230555e+000	 6.666700000016666e+000	 1.002017973472381e+001
0	 8.800020022230555e+000	 6.733360000014533e+000	 1.001981359291909e+001
0	 8.800020022230555e+000	 6.800020000011600e+000	 1.001943189465685e+001
0	 8.800020022230553e+000	 6.866680000008066e+000	 1.001903393949927e+001
0	 8.800020022230559e+000	 6.933340000004135e+000	 1.001861902700849e+001
0	 8.800020022230557e+000	 7.000000000000001e+000	 1.001818645674672e+001
0	 8.800020022230557e+000	 7.066659999995866e+000	 1.001773552827614e+001
0	 8.800020022230553e+000	 7.133319999991935e+000	 1.001726554115891e+001
0	 8.800020022230555e+000	 7.199979999988401e+000	 1.001677579495719e+001
0	 8.800020022230553e+000	 7.266639999985467e+000	 1.001626558923319e+001
0	 8.800020022230557e+000	 7.333299999983335e+000	 1.001573422354907e+001
0	 8.866680074997042e+000	 6.666700000016669e+000	 1.001866119269051e+001
0	 8.866680074997040e+000	 6.733360000014534e+000	 1.001834221822574e+001
0	 8.866680074997042e+000	 6.800020000011601e+000	 1.001800681225973e+001
0	 8.866680074997040e+000	 6.866680000008069e+000	 1.001765434610781e+001
0	 8.866680074997044e+000	 6.933340000004134e+000	 1.001728419108531e+001
0	 8.866680074997042e+000	 7.000000000000002e+000	 1.001689571850758e+001
0	 8.866680074997042e+000	 7.066659999995867e+000	 1.001648829968993e+001
0	 8.866680074997042e+000	 7.133319999991934e+000	 1.001606130594771e+001
0	 8.866680074997042e+000	 7.199979999988402e+000	 1.001561410859624e+001
0	 8.866680074997042e+000	 7.266639999985468e+000	 1.001514607895087e+001
0	 8.866680074997042e+000	 7.333299999983335e+000	 1.001465658832693e+001
0	 8.933340177755774e+000	 6.666700000016665e+000	 1.001718807870832e+001
0	 8.933340177755776e+000	 6.733360000014533e+000	 1.001691357279851e+001
0	 8.933340177755774e+000	 6.800020000011598e+000	 1.001662192746134e+001
0	 8.933340177755776e+000	 6.866680000008067e+000	 1.001631257005720e+001
0	 8.933340177755776e+000	 6.933340000004134e+000	 1.001598492794650e+001
0	 8.933340177755774e+000	 6.999999999999998e+000	 1.001563842848965e+001
0	 8.933340177755776e+000	 7.066659999995867e+000	 1.001527249904708e+001
0	 8.933340177755778e+000	 7.133319999991936e+000	 1.001488656697917e+001
0	 8.933340177755778e+000	 7.199979999988400e+000	 1.001448005964635e+001
0	 8.933340177755778e+000	 7.266639999985468e+000	 1.001405240440903e+001
0	 8.933340177755776e+000	 7.333299999983334e+000	 1.001360302862762e+001
0	 9.000000347171181e+000	 6.666700000016665e+000	 1.001576337718232e+001
0	 9.000000347171183e+000	 6.733360000014532e+000	 1.001553062722528e+001
0	 9.000000347171177e+000	 6.800020000011598e+000	 1.001528016149374e+001
0	 9.000000347171177e+000	 6.866680000008066e+000	 1.001501144768509e+001
0	 9.000000347171181e+000	 6.933340000004135e+000	 1.001472395349675e+001
0	 9.000000347171177e+000	 6.999999999999999e+000	 1.001441714662611e+001
0	 9.000000347171181e+000	 7.066659999995868e+000	 1.001409049477060e+001
0	 9.000000347171181e+000	 7.133319999991935e+000	 1.001374346562762e+001
0	 9.000000347171179e+000	 7.199979999988400e+000	 1.001337552689455e+001
0	 9.000000347171183e+000	 7.266639999985467e+000	 1.001298614626884e+001
0	 9.000000347171181e+000	 7.333299999983333e+000	 1.001257479144788e+001
0	 9.066660599907664e+000	 6.666700000016666e+000	 1.001439007255743e+001
0	 9.066660599907666e+000	 6.733360000014534e+000	 1.001419635213176e+001
0	 9.066660599907667e+000	 6.800020000011601e+000	 1.001398443562477e+001
0	 9.066660599907666e+000	 6.866680000008066e+000	 1.001375381536278e+001
0	 9.066660599907666e+000	 6.933340000004134e+000	 1.001350398367217e+001
0	 9.066660599907669e+000	 6.999999999999999e+000	 1.001323443287927e+001
0	 9.066660599907667e+000	 7.066659999995868e+000	 1.001294465531044e+001
0	 9.066660599907666e+000	 7.133319999991934e+000	 1.001263414329200e+001
0	 9.066660599907667e+000	 7.199979999988400e+000	 1.001230238915030e+001
0	 9.066660599907666e+000	 7.266639999985467e+000	 1.001194888521170e+001
0	 9.066660599907664e+000	 7.333299999983335e+000	 1.001157312380258e+001
0	 9.133320952629653e+000	 6.666700000016665e+000	 1.001307114931841e+001
0	 9.133320952629653e+000	 6.733360000014534e+000	 1.001291371818155e+001
0	 9.133320952629649e+000	 6.800020000011600e+000	 1.001273767115806e+001
0	 9.133320952629653e+000	 6.866680000008066e+000	 1.001254250949522e+001
0	 9.133320952629651e+000	 6.933340000004134e+000	 1.001232773444031e+001
0	 9.133320952629651e+000	 6.999999999999999e+000	 1.001209284724061e+001
0	 9.133320952629651e+000	 7.066659999995866e+000	 1.001183734914338e+001
0	 9.133320952629653e+000	 7.133319999991934e+000	 1.001156074139588e+001
0	 9.133320952629651e+000	 7.199979999988401e+000	 1.001126252524543e+001
0	 9.133320952629653e+000	 7.266639999985467e+000	 1.001094220193926e+001
0	 9.133320952629655e+000	 7.333299999983335e+000	 1.001059927272466e+001
0	 9.199981422001555e+000	 6.666700000016665e+000	 1.001180959198981e+001
0	 9.199981422001558e+000	 6.733360000014534e+000	 1.001168569607608e+001
0	 9.199981422001553e+000	 6.800020000011599e+000	 1.001154278943305e+001
0	 9.199981422001555e+000	 6.866680000008067e+000	 1.001138036652100e+001
0	 9.199981422001555e+000	 6.933340000004133e+000	 1.001119792180017e+001
0	 9.199981422001555e+000	 7.000000000000000e+000	 1.001099494973080e+001
0	 9.199981422001557e+000	 7.066659999995869e+000	 1.001077094477317e+001
0	 9.199981422001555e+000	 7.133319999991935e+000	 1.001052540138753e+001
0	 9.199981422001553e+000	 7.199979999988400e+000	 1.001025781403417e+001
0	 9.199981422001555e+000	 7.266639999985466e+000	 1.000996767717332e+001
0	 9.199981422001555e+000	 7.333299999983335e+000	 1.000965448526525e+001
0	 9.266642024687791e+000	 6.666700000016667e+000	 1.001060838513600e+001
0	 9.266642024687791e+000	 6.733360000014530e+000	 1.001051525655469e+001
0	 9.266642024687791e+000	 6.800020000011600e+000	 1.001040271182503e+001
0	 9.266642024687794e+000	 6.866680000008067e+000	 1.001027022291234e+001
0	 9.266642024687794e+000	 6.933340000004134e+000	 1.001011726178208e+001
0	 9.266642024687789e+000	 6.999999999999998e+000	 1.000994330039964e+001
0	 9.266642024687792e+000	 7.066659999995867e+000	 1.000974781073042e+001
0	 9.266642024687794e+000	 7.133319999991936e+000	 1.000953026473979e+001
0	 9.266642024687792e+000	 7.199979999988400e+000	 1.000929013439316e+001
0	 9.266642024687792e+000	 7.266639999985467e+000	 1.000902689165594e+001
0	 9.266642024687791e+000	 7.333299999983332e+000	 1.000874000849354e+001
0	 9.333302777352783e+000	 6.666700000016666e+000	 1.000947051336124e+001
0	 9.333302777352783e+000	 6.733360000014532e+000	 1.000940537039458e+001
0	 9.333302777352783e+000	 6.800020000011600e+000	 1.000932035974494e+001
0	 9.333302777352783e+000	 6.866680000008068e+000	 1.000921491517513e+001
0	 9.333302777352781e+000	 6.933340000004135e+000	 1.000908847044792e+001
0	 9.333302777352781e+000	 6.999999999999999e+000	 1.000894045932615e+001
0	 9.333302777352783e+000	 7.066659999995867e+000	 1.000877031557262e+001
0	 9.333302777352783e+000	 7.133319999991934e+000	 1.000857747295011e+001
0	 9.333302777352783e+000	 7.199979999988400e+000	 1.000836136522145e+001
0	 9.333302777352783e+000	 7.266639999985467e+000	 1.000812142614944e+001
0	 9.333302777352785e+000	 7.333299999983335e+000	 1.000785708949687e+001
0	 8.666700000016665e+000	 7.333299999983335e+000	 1.001795673266547e+001
0	 8.666700000016666e+000	 7.399969999982151e+000	 1.001732857271025e+001
0	 8.666700000016668e+000	 7.466639999981867e+000	 1.001670270447644e+001
0	 8.666700000016668e+000	 7.533309999982383e+000	 1.001607824849330e+001
0	 8.666700000016668e+000	 7.599979999983599e+000	 1.001545432529013e+001
0	 8.666700000016666e+000	 7.666649999985415e+000	 1.001483005539619e+001
0	 8.666700000016666e+000	 7.733319999987733e+000	 1.001420455934074e+001
0	 8.666700000016666e+000	 7.799989999990450e+000	 1.001357695765309e+001
0	 8.666700000016663e+000	 7.866659999993464e+000	 1.001294637086247e+001
0	 8.666700000016666e+000	 7.933329999996683e+000	 1.001231191949818e+001
0	 8.666700000016666e+000	 7.999999999999999e+000	 1.001167272408949e+001
0	 8.733360002791903e+000	 7.333299999983335e+000	 1.001683468731541e+001
0	 8.733360002791899e+000	 7.399969999982149e+000	 1.001625041683801e+001
0	 8.733360002791899e+000	 7.466639999981866e+000	 1.001566784165742e+001
0	 8.733360002791898e+000	 7.533309999982383e+000	 1.001508609000747e+001
0	 8.733360002791901e+000	 7.599979999983598e+000	 1.001450429012199e+001
0	 8.733360002791905e+000	 7.666649999985416e+000	 1.001392157023478e+001
0	 8.733360002791901e+000	 7.733319999987733e+000	 1.001333705857963e+001
0	 8.733360002791905e+000	 7.799989999990449e+000	 1.001274988339038e+001
0	 8.733360002791903e+000	 7.866659999993466e+000	 1.001215917290083e+001
0	 8.733360002791903e+000	 7.933329999996683e+000	 1.001156405534480e+001
0	 8.733360002791903e+000	 7.999999999999999e+000	 1.001096365895610e+001
0	 8.800020022230557e+000	 7.333299999983335e+000	 1.001573422354907e+001
0	 8.800020022230555e+000	 7.399969999982151e+000	 1.001519276719234e+001
0	 8.800020022230555e+000	 7.466639999981867e+000	 1.001465234641607e+001
0	 8.800020022230553e+000	 7.533309999982382e+000	 1.001411210222571e+001
0	 8.800020022230557e+000	 7.599979999983601e+000	 1.001357117562668e+001
0	 8.800020022230553e+000	 7.666649999985416e+000	 1.001302870762442e+001
0	 8.800020022230555e+000	 7.733319999987734e+000	 1.001248383922439e+001
0	 8.800020022230555e+000	 7.799989999990451e+000	 1.001193571143200e+001
0	 8.800020022230555e+000	 7.866659999993468e+000	 1.001138346525275e+001
0	 8.800020022230555e+000	 7.933329999996682e+000	 1.001082624169204e+001
0	 8.800020022230557e+000	 8.000000000000004e+000	 1.001026318175531e+001
0	 8.866680074997042e+000	 7.333299999983335e+000	 1.001465658832693e+001
0	 8.866680074997042e+000	 7.399969999982151e+000	 1.001415653370200e+001
0	 8.866680074997040e+000	 7.466639999981867e+000	 1.001365682055045e+001
0	 8.866680074997039e+000	 7.533309999982383e+000	 1.001315660771641e+001
0	 8.866680074997040e+000	 7.599979999983600e+000	 1.001265505404404e+001
0	 8.866680074997044e+000	 7.666649999985416e+000	 1.001215131837750e+001
0	 8.866680074997044e+000	 7.733319999987732e+000	 1.001164455956091e+001
0	 8.866680074997042e+000	 7.799989999990450e+000	 1.001113393643845e+001
0	 8.866680074997040e+000	 7.866659999993467e+000	 1.001061860785425e+001
0	 8.866680074997039e+000	 7.933329999996683e+000	 1.001009773265246e+001
0	 8.866680074997044e+000	 8.000000000000002e+000	 1.000957046967726e+001
0	 8.933340177755776e+000	 7.333299999983334e+000	 1.001360302862761e+001
0	 8.933340177755774e+000	 7.399969999982150e+000	 1.001314262631178e+001
0	 8.933340177755778e+000	 7.466639999981866e+000	 1.001268186587271e+001
0	 8.933340177755778e+000	 7.533309999982384e+000	 1.001221992906036e+001
0	 8.933340177755774e+000	 7.599979999983599e+000	 1.001175599762458e+001
0	 8.933340177755779e+000	 7.666649999985416e+000	 1.001128925331532e+001
0	 8.933340177755776e+000	 7.733319999987733e+000	 1.001081887788247e+001
0	 8.933340177755778e+000	 7.799989999990448e+000	 1.001034405307597e+001
0	 8.933340177755774e+000	 7.866659999993465e+000	 1.000986396064570e+001
0	 8.933340177755776e+000	 7.933329999996684e+000	 1.000937778234156e+001
0	 8.933340177755776e+000	 8.000000000000000e+000	 1.000888469991347e+001
0	 9.000000347171181e+000	 7.333299999983333e+000	 1.001257479144788e+001
0	 9.000000347171177e+000	 7.399969999982148e+000	 1.001215195498262e+001
0	 9.000000347171181e+000	 7.466639999981867e+000	 1.001172808420932e+001
0	 9.000000347171183e+000	 7.533309999982383e+000	 1.001130238885069e+001
0	 9.000000347171179e+000	 7.599979999983600e+000	 1.001087407862943e+001
0	 9.000000347171175e+000	 7.666649999985415e+000	 1.001044236326819e+001
0	 9.000000347171179e+000	 7.733319999987732e+000	 1.001000645248970e+001
0	 9.000000347171177e+000	 7.799989999990450e+000	 1.000956555601664e+001
0	 9.000000347171179e+000	 7.866659999993466e+000	 1.000911888357170e+001
0	 9.000000347171179e+000	 7.933329999996682e+000	 1.000866564487758e+001
0	 9.000000347171179e+000	 8.000000000000000e+000	 1.000820504965695e+001
0	 9.066660599907664e+000	 7.333299999983335e+000	 1.001157312380258e+001
0	 9.066660599907664e+000	 7.399969999982150e+000	 1.001118542969156e+001
0	 9.066660599907667e+000	 7.466639999981867e+000	 1.001079607740088e+001
0	 9.066660599907667e+000	 7.533309999982382e+000	 1.001040430969298e+001
0	 9.066660599907667e+000	 7.599979999983600e+000	 1.001000936933032e+001
0	 9.066660599907666e+000	 7.666649999985417e+000	 1.000961049907535e+001
0	 9.066660599907666e+000	 7.733319999987734e+000	 1.000920694169054e+001
0	 9.066660599907667e+000	 7.799989999990448e+000	 1.000879793993835e+001
0	 9.066660599907666e+000	 7.866659999993467e+000	 1.000838273658123e+001
0	 9.066660599907664e+000	 7.933329999996683e+000	 1.000796057438165e+001
0	 9.066660599907669e+000	 8.000000000000000e+000	 1.000753069610208e+001
0	 9.133320952629655e+000	 7.333299999983335e+000	 1.001059927272466e+001
0	 9.133320952629649e+000	 7.399969999982150e+000	 1.001024396043179e+001
0	 9.133320952629649e+000	 7.466639999981865e+000	 1.000988644730223e+001
0	 9.133320952629655e+000	 7.533309999982383e+000	 1.000952601420514e+001
0	 9.133320952629649e+000	 7.599979999983599e+000	 1.000916194200968e+001
0	 9.133320952629653e+000	 7.666649999985417e+000	 1.000879351158504e+001
0	 9.133320952629653e+000	 7.733319999987733e+000	 1.000842000380036e+001
0	 9.133320952629651e+000	 7.799989999990449e+000	 1.000804069952481e+001
0	 9.133320952629653e+000	 7.866659999993467e+000	 1.000765487962757e+001
0	 9.133320952629651e+000	 7.933329999996684e+000	 1.000726182497780e+001
0	 9.133320952629651e+000	 8.000000000000000e+000	 1.000686081644465e+001
0	 9.199981422001555e+000	 7.333299999983335e+000	 1.000965448526525e+001
0	 9.199981422001557e+000	 7.399969999982152e+000	 1.000932845721257e+001
0	 9.199981422001555e+000	 7.466639999981866e+000	 1.000899979578242e+001
0	 9.199981422001555e+000	 7.533309999982385e+000	 1.000866782501748e+001
0	 9.199981422001553e+000	 7.599979999983598e+000	 1.000833186896059e+001
0	 9.199981422001555e+000	 7.666649999985417e+000	 1.000799125165446e+001
0	 9.199981422001555e+000	 7.733319999987733e+000	 1.000764529714184e+001
0	 9.199981422001555e+000	 7.799989999990450e+000	 1.000729332946554e+001
0	 9.199981422001553e+000	 7.866659999993467e+000	 1.000693467266826e+001
0	 9.199981422001555e+000	 7.933329999996682e+000	 1.000656865079279e+001
0	 9.199981422001553e+000	 8.000000000000000e+000	 1.000619458788189e+001
0	 9.266642024687791e+000	 7.333299999983332e+000	 1.000874000849354e+001
0	 9.266642024687792e+000	 7.399969999982150e+000	 1.000843983005932e+001
0	 9.266642024687791e+000	 7.466639999981865e+000	 1.000813672472466e+001
0	 9.266642024687791e+000	 7.533309999982384e+000	 1.000783006477272e+001
0	 9.266642024687792e+000	 7.599979999983600e+000	 1.000751922248671e+001
0	 9.266642024687794e+000	 7.666649999985417e+000	 1.000720357014976e+001
0	 9.266642024687791e+000	 7.733319999987732e+000	 1.000688248004507e+001
0	 9.266642024687792e+000	 7.799989999990449e+000	 1.000655532445583e+001
0	 9.266642024687792e+000	 7.866659999993466e+000	 1.000622147566518e+001
0	 9.266642024687792e+000	 7.933329999996682e+000	 1.000588030595634e+001
0	 9.266642024687792e+000	 8.000000000000000e+000	 1.000553118761244e+001
0	 9.333302777352785e+000	 7.333299999983335e+000	 1.000785708949687e+001
0	 9.333302777352781e+000	 7.399969999982150e+000	 1.000757898901352e+001
0	 9.333302777352783e+000	 7.466639999981866e+000	 1.000729783602643e+001
0	 9.333302777352783e+000	 7.533309999982383e+000	 1.000701305612592e+001
0	 9.333302777352785e+000	 7.599979999983600e+000	 1.000672407490235e+001
0	 9.333302777352783e+000	 7.666649999985418e+000	 1.000643031794607e+001
0	 9.333302777352783e+000	 7.733319999987732e+000	 1.000613121084744e+001
0	 9.333302777352783e+000	 7.799989999990449e+000	 1.000582617919682e+001
0	 9.333302777352781e+000	 7.866659999993466e+000	 1.000551464858451e+001
0	 9.333302777352781e+000	 7.933329999996683e+000	 1.000519604460091e+001
0	 9.333302777352783e+000	 8.000000000000000e+000	 1.000486979283635e+001
0	 8.666700000016666e+000	 7.999999999999999e+000	 1.001167272408949e+001
0	 8.666700000016666e+000	 8.066670000003317e+000	 1.001103843473715e+001
0	 8.666700000016666e+000	 8.133340000006534e+000	 1.001041856272138e+001
0	 8.666700000016666e+000	 8.200010000009550e+000	 1.000981202034072e+001
0	 8.666700000016666e+000	 8.266680000012268e+000	 1.000921771989367e+001
0	 8.666700000016666e+000	 8.333350000014585e+000	 1.000863457367875e+001
0	 8.666700000016668e+000	 8.400020000016401e+000	 1.000806149399447e+001
0	 8.666700000016666e+000	 8.466690000017618e+000	 1.000749739313935e+001
0	 8.666700000016665e+000	 8.533360000018133e+000	 1.000694118341189e+001
0	 8.666700000016666e+000	 8.600030000017851e+000	 1.000639177711063e+001
0	 8.666700000016666e+000	 8.666700000016666e+000	 1.000584808653408e+001
0	 8.733360002791903e+000	 7.999999999999999e+000	 1.001096365895610e+001
0	 8.733360002791899e+000	 8.066670000003315e+000	 1.001036739858231e+001
0	 8.733360002791903e+000	 8.133340000006530e+000	 1.000978459207329e+001
0	 8.733360002791903e+000	 8.200010000009552e+000	 1.000921422216627e+001
0	 8.733360002791901e+000	 8.266680000012267e+000	 1.000865527159846e+001
0	 8.733360002791903e+000	 8.333350000014583e+000	 1.000810672310706e+001
0	 8.733360002791901e+000	 8.400020000016399e+000	 1.000756755942935e+001
0	 8.733360002791901e+000	 8.466690000017618e+000	 1.000703676330250e+001
0	 8.733360002791899e+000	 8.533360000018131e+000	 1.000651331746376e+001
0	 8.733360002791899e+000	 8.600030000017851e+000	 1.000599620465032e+001
0	 8.733360002791903e+000	 8.666700000016666e+000	 1.000548440759944e+001
0	 8.800020022230557e+000	 8.000000000000004e+000	 1.001026318175531e+001
0	 8.800020022230557e+000	 8.066670000003315e+000	 1.000970353456648e+001
0	 8.800020022230555e+000	 8.133340000006536e+000	 1.000915648890787e+001
0	 8.800020022230553e+000	 8.200010000009547e+000	 1.000862109527257e+001
0	 8.800020022230555e+000	 8.266680000012268e+000	 1.000809640415367e+001
0	 8.800020022230552e+000	 8.333350000014582e+000	 1.000758146604430e+001
0	 8.800020022230555e+000	 8.400020000016401e+000	 1.000707533143750e+001
0	 8.800020022230557e+000	 8.466690000017618e+000	 1.000657705082641e+001
0	 8.800020022230557e+000	 8.533360000018135e+000	 1.000608567470408e+001
0	 8.800020022230553e+000	 8.600030000017849e+000	 1.000560025356363e+001
0	 8.800020022230553e+000	 8.666700000016666e+000	 1.000511983789815e+001
0	 8.866680074997044e+000	 8.000000000000002e+000	 1.000957046967726e+001
0	 8.866680074997039e+000	 8.066670000003317e+000	 1.000904596085819e+001
0	 8.866680074997042e+000	 8.133340000006534e+000	 1.000853331927286e+001
0	 8.866680074997040e+000	 8.200010000009550e+000	 1.000803166048733e+001
0	 8.866680074997044e+000	 8.266680000012270e+000	 1.000754010006768e+001
0	 8.866680074997039e+000	 8.333350000014582e+000	 1.000705775358000e+001
0	 8.866680074997040e+000	 8.400020000016401e+000	 1.000658373659037e+001
0	 8.866680074997040e+000	 8.466690000017618e+000	 1.000611716466485e+001
0	 8.866680074997037e+000	 8.533360000018131e+000	 1.000565715336956e+001
0	 8.866680074997040e+000	 8.600030000017851e+000	 1.000520281827055e+001
0	 8.866680074997042e+000	 8.666700000016670e+000	 1.000475327493391e+001
0	 8.933340177755776e+000	 8.000000000000000e+000	 1.000888469991347e+001
0	 8.933340177755778e+000	 8.066670000003319e+000	 1.000839379562604e+001
0	 8.933340177755774e+000	 8.133340000006532e+000	 1.000791414921471e+001
0	 8.933340177755778e+000	 8.200010000009550e+000	 1.000744493863557e+001
0	 8.933340177755776e+000	 8.266680000012267e+000	 1.000698534184481e+001
0	 8.933340177755778e+000	 8.333350000014585e+000	 1.000653453679854e+001
0	 8.933340177755776e+000	 8.400020000016403e+000	 1.000609170145290e+001
0	 8.933340177755778e+000	 8.466690000017618e+000	 1.000565601376406e+001
0	 8.933340177755776e+000	 8.533360000018133e+000	 1.000522665168816e+001
0	 8.933340177755774e+000	 8.600030000017849e+000	 1.000480279318130e+001
0	 8.933340177755776e+000	 8.666700000016665e+000	 1.000438361619967e+001
0	 9.000000347171179e+000	 8.000000000000000e+000	 1.000820504965695e+001
0	 9.000000347171179e+000	 8.066670000003315e+000	 1.000774615703863e+001
0	 9.000000347171179e+000	 8.133340000006534e+000	 1.000729804477845e+001
0	 9.000000347171175e+000	 8.200010000009549e+000	 1.000685995053961e+001
0	 9.000000347171179e+000	 8.266680000012267e+000	 1.000643111198538e+001
0	 9.000000347171175e+000	 8.333350000014583e+000	 1.000601076677897e+001
0	 9.000000347171175e+000	 8.400020000016401e+000	 1.000559815258364e+001
0	 9.000000347171181e+000	 8.466690000017618e+000	 1.000519250706260e+001
0	 9.000000347171177e+000	 8.533360000018133e+000	 1.000479306787911e+001
0	 9.000000347171179e+000	 8.600030000017851e+000	 1.000439907269639e+001
0	 9.000000347171181e+000	 8.666700000016665e+000	 1.000400975917769e+001
0	 9.066660599907669e+000	 8.000000000000000e+000	 1.000753069610208e+001
0	 9.066660599907666e+000	 8.066670000003315e+000	 1.000710216326458e+001
0	 9.066660599907667e+000	 8.133340000006534e+000	 1.000668407200780e+001
0	 9.066660599907667e+000	 8.200010000009552e+000	 1.000627571701910e+001
0	 9.066660599907666e+000	 8.266680000012268e+000	 1.000587639298578e+001
0	 9.066660599907667e+000	 8.333350000014585e+000	 1.000548539459516e+001
0	 9.066660599907667e+000	 8.400020000016399e+000	 1.000510201653462e+001
0	 9.066660599907666e+000	 8.466690000017618e+000	 1.000472555349144e+001
0	 9.066660599907667e+000	 8.533360000018135e+000	 1.000435530015295e+001
0	 9.066660599907664e+000	 8.600030000017849e+000	 1.000399055120651e+001
0	 9.066660599907666e+000	 8.666700000016668e+000	 1.000363060133943e+001
0	 9.133320952629651e+000	 8.000000000000000e+000	 1.000686081644465e+001
0	 9.133320952629651e+000	 8.066670000003317e+000	 1.000646093247249e+001
0	 9.133320952629653e+000	 8.133340000006532e+000	 1.000607129694512e+001
0	 9.133320952629651e+000	 8.200010000009550e+000	 1.000569125889096e+001
0	 9.133320952629653e+000	 8.266680000012268e+000	 1.000532016733837e+001
0	 9.133320952629649e+000	 8.333350000014585e+000	 1.000495737131576e+001
0	 9.133320952629651e+000	 8.400020000016401e+000	 1.000460221985148e+001
0	 9.133320952629653e+000	 8.466690000017618e+000	 1.000425406197394e+001
0	 9.133320952629653e+000	 8.533360000018137e+000	 1.000391224671153e+001
0	 9.133320952629651e+000	 8.600030000017849e+000	 1.000357612309261e+001
0	 9.133320952629653e+000	 8.666700000016666e+000	 1.000324504014561e+001
0	 9.199981422001553e+000	 8.000000000000000e+000	 1.000619458788189e+001
0	 9.199981422001555e+000	 8.066670000003317e+000	 1.000582158283102e+001
0	 9.199981422001555e+000	 8.133340000006532e+000	 1.000545878563143e+001
0	 9.199981422001555e+000	 8.200010000009550e+000	 1.000510559696950e+001
0	 9.199981422001557e+000	 8.266680000012268e+000	 1.000476141753158e+001
0	 9.199981422001553e+000	 8.333350000014583e+000	 1.000442564800409e+001
0	 9.199981422001555e+000	 8.400020000016399e+000	 1.000409768907339e+001
0	 9.199981422001553e+000	 8.466690000017616e+000	 1.000377694142587e+001
0	 9.199981422001555e+000	 8.533360000018135e+000	 1.000346280574792e+001
0	 9.199981422001555e+000	 8.600030000017849e+000	 1.000315468272591e+001
0	 9.199981422001557e+000	 8.666700000016666e+000	 1.000285197304623e+001
0	 9.266642024687792e+000	 8.000000000000000e+000	 1.000553118761244e+001
0	 9.266642024687792e+000	 8.066670000003317e+000	 1.000518323250886e+001
0	 9.266642024687792e+000	 8.133340000006534e+000	 1.000484560410638e+001
0	 9.266642024687791e+000	 8.200010000009550e+000	 1.000451775206626e+001
0	 9.266642024687791e+000	 8.266680000012267e+000	 1.000419912604981e+001
0	 9.266642024687792e+000	 8.333350000014583e+000	 1.000388917571832e+001
0	 9.266642024687794e+000	 8.400020000016403e+000	 1.000358735073309e+001
0	 9.266642024687792e+000	 8.466690000017616e+000	 1.000329310075539e+001
0	 9.266642024687791e+000	 8.533360000018131e+000	 1.000300587544654e+001
0	 9.266642024687791e+000	 8.600030000017851e+000	 1.000272512446782e+001
0	 9.266642024687794e+000	 8.666700000016668e+000	 1.000245029748053e+001
0	 9.333302777352783e+000	 8.000000000000000e+000	 1.000486979283635e+001
0	 9.333302777352783e+000	 8.066670000003319e+000	 1.000454499967469e+001
0	 9.333302777352783e+000	 8.133340000006532e+000	 1.000423081840826e+001
0	 9.333302777352783e+000	 8.200010000009552e+000	 1.000392674499015e+001
0	 9.333302777352783e+000	 8.266680000012267e+000	 1.000363227537348e+001
0	 9.333302777352783e+000	 8.333350000014585e+000	 1.000334690551135e+001
0	 9.333302777352785e+000	 8.400020000016403e+000	 1.000307013135682e+001
0	 9.333302777352785e+000	 8.466690000017618e+000	 1.000280144886303e+001
0	 9.333302777352783e+000	 8.533360000018135e+000	 1.000254035398308e+001
0	 9.333302777352783e+000	 8.600030000017849e+000	 1.000228634267003e+001
0	 9.333302777352783e+000	 8.666700000016666e+000	 1.000203891087702e+001
0	 8.666700000016666e+000	 8.666700000016666e+000	 1.000584808653408e+001
0	 8.666700000016666e+000	 8.733360002791901e+000	 1.000532054167010e+001
0	 8.666700000016665e+000	 8.800020022230553e+000	 1.000481935868527e+001
0	 8.666700000016666e+000	 8.866680074997039e+000	 1.000434337261734e+001
0	 8.666700000016665e+000	 8.933340177755778e+000	 1.000389141843149e+001
0	 8.666700000016665e+000	 9.000000347171181e+000	 1.000346233102032e+001
0	 8.666700000016666e+000	 9.066660599907667e+000	 1.000305494520381e+001
0	 8.666700000016666e+000	 9.133320952629655e+000	 1.000266809572934e+001
0	 8.666700000016668e+000	 9.199981422001558e+000	 1.000230061727174e+001
0	 8.666700000016668e+000	 9.266642024687798e+000	 1.000195134443315e+001
0	 8.666700000016666e+000	 9.333302777352783e+000	 1.000161911174321e+001
0	 8.733360002791903e+000	 8.666700000016666e+000	 1.000548440759944e+001
0	 8.733360002791903e+000	 8.733360002791901e+000	 1.000498793162773e+001
0	 8.733360002791905e+000	 8.800020022230559e+000	 1.000451657460364e+001
0	 8.733360002791901e+000	 8.866680074997040e+000	 1.000406923729462e+001
0	 8.733360002791903e+000	 8.933340177755776e+000	 1.000364482039956e+001
0	 8.733360002791903e+000	 9.000000347171183e+000	 1.000324222454892e+001
0	 8.733360002791901e+000	 9.066660599907667e+000	 1.000286035030461e+001
0	 8.733360002791901e+000	 9.133320952629655e+000	 1.000249809816014e+001
0	 8.733360002791901e+000	 9.199981422001557e+000	 1.000215436854046e+001
0	 8.733360002791901e+000	 9.266642024687796e+000	 1.000182806180208e+001
0	 8.733360002791899e+000	 9.333302777352781e+000	 1.000151807823305e+001
0	 8.800020022230553e+000	 8.666700000016666e+000	 1.000511983789814e+001
0	 8.800020022230555e+000	 8.733360002791903e+000	 1.000465398770179e+001
0	 8.800020022230553e+000	 8.800020022230553e+000	 1.000421206267003e+001
0	 8.800020022230553e+000	 8.866680074997040e+000	 1.000379302799194e+001
0	 8.800020022230552e+000	 8.933340177755778e+000	 1.000339584879218e+001
0	 8.800020022230555e+000	 9.000000347171181e+000	 1.000301949013080e+001
0	 8.800020022230557e+000	 9.066660599907671e+000	 1.000266291700338e+001
0	 8.800020022230553e+000	 9.133320952629656e+000	 1.000232509434101e+001
0	 8.800020022230555e+000	 9.199981422001558e+000	 1.000200498701021e+001
0	 8.800020022230553e+000	 9.266642024687796e+000	 1.000170155981301e+001
0	 8.800020022230553e+000	 9.333302777352781e+000	 1.000141377748694e+001
0	 8.866680074997042e+000	 8.666700000016670e+000	 1.000475327493391e+001
0	 8.866680074997039e+000	 8.733360002791899e+000	 1.000431761897285e+001
0	 8.866680074997040e+000	 8.800020022230555e+000	 1.000390475362949e+001
0	 8.866680074997040e+000	 8.866680074997044e+000	 1.000351370720669e+001
0	 8.866680074997042e+000	 8.933340177755781e+000	 1.000314350794655e+001
0	 8.866680074997039e+000	 9.000000347171181e+000	 1.000279318403054e+001
0	 8.866680074997040e+000	 9.066660599907667e+000	 1.000246176357941e+001
0	 8.866680074997039e+000	 9.133320952629656e+000	 1.000214827465317e+001
0	 8.866680074997039e+000	 9.199981422001557e+000	 1.000185174525115e+001
0	 8.866680074997040e+000	 9.266642024687794e+000	 1.000157120331204e+001
0	 8.866680074997042e+000	 9.333302777352785e+000	 1.000130567671371e+001
0	 8.933340177755776e+000	 8.666700000016665e+000	 1.000438361619967e+001
0	 8.933340177755778e+000	 8.733360002791903e+000	 1.000397773450975e+001
0	 8.933340177755774e+000	 8.800020022230553e+000	 1.000359357821466e+001
0	 8.933340177755778e+000	 8.866680074997044e+000	 1.000323023742288e+001
0	 8.933340177755776e+000	 8.933340177755779e+000	 1.000288680218589e+001
0	 8.933340177755774e+000	 9.000000347171181e+000	 1.000256236249807e+001
0	 8.933340177755778e+000	 9.066660599907667e+000	 1.000225600829670e+001
0	 8.933340177755778e+000	 9.133320952629656e+000	 1.000196682946210e+001
0	 8.933340177755779e+000	 9.199981422001560e+000	 1.000169391581744e+001
0	 8.933340177755776e+000	 9.266642024687796e+000	 1.000143635712889e+001
0	 8.933340177755776e+000	 9.333302777352781e+000	 1.000119324310552e+001
0	 9.000000347171181e+000	 8.666700000016665e+000	 1.000400975917768e+001
0	 9.000000347171183e+000	 8.733360002791901e+000	 1.000363324336971e+001
0	 9.000000347171177e+000	 8.800020022230553e+000	 1.000327746714558e+001
0	 9.000000347171183e+000	 8.866680074997042e+000	 1.000294158111134e+001
0	 9.000000347171181e+000	 8.933340177755779e+000	 1.000262473581940e+001
0	 9.000000347171177e+000	 9.000000347171183e+000	 1.000232608176860e+001
0	 9.000000347171179e+000	 9.066660599907666e+000	 1.000204476940415e+001
0	 9.000000347171181e+000	 9.133320952629653e+000	 1.000177994911765e+001
0	 9.000000347171181e+000	 9.199981422001560e+000	 1.000153077124712e+001
0	 9.000000347171181e+000	 9.266642024687796e+000	 1.000129638607695e+001
0	 9.000000347171181e+000	 9.333302777352785e+000	 1.000107594383794e+001
0	 9.066660599907666e+000	 8.666700000016668e+000	 1.000363060133943e+001
0	 9.066660599907666e+000	 8.733360002791903e+000	 1.000328305459826e+001
0	 9.066660599907667e+000	 8.800020022230555e+000	 1.000295535112981e+001
0	 9.066660599907664e+000	 8.866680074997044e+000	 1.000264670072949e+001
0	 9.066660599907666e+000	 8.933340177755779e+000	 1.000235631314226e+001
0	 9.066660599907667e+000	 9.000000347171183e+000	 1.000208339806279e+001
0	 9.066660599907664e+000	 9.066660599907666e+000	 1.000182716513537e+001
0	 9.066660599907666e+000	 9.133320952629656e+000	 1.000158682395398e+001
0	 9.066660599907666e+000	 9.199981422001558e+000	 1.000136158406217e+001
0	 9.066660599907664e+000	 9.266642024687794e+000	 1.000115065495317e+001
0	 9.066660599907667e+000	 9.333302777352783e+000	 1.000095324606987e+001
0	 9.133320952629653e+000	 8.666700000016666e+000	 1.000324504014561e+001
0	 9.133320952629651e+000	 8.733360002791903e+000	 1.000292607722926e+001
0	 9.133320952629653e+000	 8.800020022230555e+000	 1.000262616086244e+001
0	 9.133320952629653e+000	 8.866680074997042e+000	 1.000234455872153e+001
0	 9.133320952629653e+000	 8.933340177755779e+000	 1.000208053843568e+001
0	 9.133320952629655e+000	 9.000000347171181e+000	 1.000183336758666e+001
0	 9.133320952629653e+000	 9.066660599907671e+000	 1.000160231370892e+001
0	 9.133320952629651e+000	 9.133320952629655e+000	 1.000138664428956e+001
0	 9.133320952629651e+000	 9.199981422001560e+000	 1.000118562676848e+001
0	 9.133320952629653e+000	 9.266642024687796e+000	 1.000099852853812e+001
0	 9.133320952629651e+000	 9.333302777352785e+000	 1.000082461694367e+001
0	 9.199981422001557e+000	 8.666700000016666e+000	 1.000285197304623e+001
0	 9.199981422001553e+000	 8.733360002791901e+000	 1.000256122028495e+001
0	 9.199981422001553e+000	 8.800020022230555e+000	 1.000228882702595e+001
0	 9.199981422001555e+000	 8.866680074997040e+000	 1.000203411751838e+001
0	 9.199981422001558e+000	 8.933340177755781e+000	 1.000179641596688e+001
0	 9.199981422001557e+000	 9.000000347171183e+000	 1.000157504653155e+001
0	 9.199981422001555e+000	 9.066660599907667e+000	 1.000136933332797e+001
0	 9.199981422001557e+000	 9.133320952629653e+000	 1.000117860042724e+001
0	 9.199981422001557e+000	 9.199981422001558e+000	 1.000100217185589e+001
0	 9.199981422001555e+000	 9.266642024687798e+000	 1.000083937159597e+001
0	 9.199981422001553e+000	 9.333302777352779e+000	 1.000068952358498e+001
0	 9.266642024687794e+000	 8.666700000016668e+000	 1.000245029748053e+001
0	 9.266642024687791e+000	 8.733360002791901e+000	 1.000218739277588e+001
0	 9.266642024687791e+000	 8.800020022230555e+000	 1.000194228029041e+001
0	 9.266642024687791e+000	 8.866680074997042e+000	 1.000171433953762e+001
0	 9.266642024687791e+000	 8.933340177755778e+000	 1.000150294998903e+001
0	 9.266642024687792e+000	 9.000000347171181e+000	 1.000130749107419e+001
0	 9.266642024687794e+000	 9.066660599907669e+000	 1.000112734218069e+001
0	 9.266642024687792e+000	 9.133320952629655e+000	 1.000096188265413e+001
0	 9.266642024687794e+000	 9.199981422001558e+000	 1.000081049179820e+001
0	 9.266642024687794e+000	 9.266642024687798e+000	 1.000067254887453e+001
0	 9.266642024687792e+000	 9.333302777352785e+000	 1.000054743310290e+001
0	 9.333302777352783e+000	 8.666700000016666e+000	 1.000203891087702e+001
0	 9.333302777352781e+000	 8.733360002791901e+000	 1.000180350370092e+001
0	 9.333302777352783e+000	 8.800020022230557e+000	 1.000158545131332e+001
0	 9.333302777352781e+000	 8.866680074997039e+000	 1.000138418718356e+001
0	 9.333302777352781e+000	 8.933340177755778e+000	 1.000119914474135e+001
0	 9.333302777352783e+000	 9.000000347171181e+000	 1.000102975737669e+001
0	 9.333302777352785e+000	 9.066660599907667e+000	 1.000087545843994e+001
0	 9.333302777352781e+000	 9.133320952629655e+000	 1.000073568124172e+001
0	 9.333302777352781e+000	 9.199981422001558e+000	 1.000060985905304e+001
0	 9.333302777352781e+000	 9.266642024687794e+000	 1.000049742510520e+001
0	 9.333302777352785e+000	 9.333302777352785e+000	 1.000039781258982e+001
0	 8.666700000016666e+000	 9.333302777352783e+000	 1.000161911174322e+001
0	 8.666700000016668e+000	 9.399973674588178e+000	 1.000131281910621e+001
0	 8.666700000016666e+000	 9.466644621844619e+000	 1.000104142045574e+001
0	 8.666700000016668e+000	 9.533315502450000e+000	 1.000080368599144e+001
0	 8.666700000016665e+000	 9.599986199732197e+000	 1.000059838663388e+001
0	 8.666700000016666e+000	 9.666656597019095e+000	 1.000042429402452e+001
0	 8.666700000016668e+000	 9.733326577638577e+000	 1.000028018052572e+001
0	 8.666700000016668e+000	 9.799996024918521e+000	 1.000016481922082e+001
0	 8.666700000016666e+000	 9.866664822186822e+000	 1.000007698391421e+001
0	 8.666700000016666e+000	 9.933332852771352e+000	 1.000001544913134e+001
0	 8.666700000016666e+000	 1.000000000000000e+001	 9.999978990118956e+000
0	 8.733360002791899e+000	 9.333302777352781e+000	 1.000151807823305e+001
0	 8.733360002791905e+000	 9.399973674588177e+000	 1.000123244255272e+001
0	 8.733360002791903e+000	 9.466644621844621e+000	 1.000097926707355e+001
0	 8.733360002791903e+000	 9.533315502450002e+000	 1.000075744792732e+001
0	 8.733360002791901e+000	 9.599986199732197e+000	 1.000056588191792e+001
0	 8.733360002791905e+000	 9.666656597019095e+000	 1.000040346652130e+001
0	 8.733360002791899e+000	 9.733326577638575e+000	 1.000026909988548e+001
0	 8.733360002791905e+000	 9.799996024918524e+000	 1.000016168083059e+001
0	 8.733360002791903e+000	 9.866664822186824e+000	 1.000008010884899e+001
0	 8.733360002791903e+000	 9.933332852771354e+000	 1.000002328410539e+001
0	 8.733360002791903e+000	 1.000000000000000e+001	 9.999990107436679e+000
0	 8.800020022230553e+000	 9.333302777352781e+000	 1.000141377748694e+001
0	 8.800020022230555e+000	 9.399973674588175e+000	 1.000114873147271e+001
0	 8.800020022230555e+000	 9.466644621844623e+000	 1.000091364833271e+001
0	 8.800020022230553e+000	 9.533315502450000e+000	 1.000070756975611e+001
0	 8.800020022230555e+000	 9.599986199732195e+000	 1.000052953805493e+001
0	 8.800020022230557e+000	 9.666656597019097e+000	 1.000037859616425e+001
0	 8.800020022230552e+000	 9.733326577638577e+000	 1.000025378764209e+001
0	 8.800020022230553e+000	 9.799996024918524e+000	 1.000015415666950e+001
0	 8.800020022230555e+000	 9.866664822186822e+000	 1.000007874805058e+001
0	 8.800020022230557e+000	 9.933332852771356e+000	 1.000002660721274e+001
0	 8.800020022230555e+000	 1.000000000000000e+001	 9.999996780206319e+000
0	 8.866680074997042e+000	 9.333302777352785e+000	 1.000130567671371e+001
0	 8.866680074997042e+000	 9.399973674588178e+000	 1.000106126854344e+001
0	 8.866680074997039e+000	 9.466644621844617e+000	 1.000084427847207e+001
0	 8.866680074997039e+000	 9.533315502449998e+000	 1.000065391337171e+001
0	 8.866680074997042e+000	 9.599986199732197e+000	 1.000048938068834e+001
0	 8.866680074997037e+000	 9.666656597019092e+000	 1.000034988844157e+001
0	 8.866680074997040e+000	 9.733326577638575e+000	 1.000023464522486e+001
0	 8.866680074997037e+000	 9.799996024918519e+000	 1.000014286020550e+001
0	 8.866680074997039e+000	 9.866664822186820e+000	 1.000007374312455e+001
0	 8.866680074997040e+000	 9.933332852771352e+000	 1.000002650429720e+001
0	 8.866680074997039e+000	 1.000000000000000e+001	 1.000000035461249e+001
0	 8.933340177755776e+000	 9.333302777352781e+000	 1.000119324310552e+001
0	 8.933340177755778e+000	 9.399973674588175e+000	 1.000096963642545e+001
0	 8.933340177755776e+000	 9.466644621844619e+000	 1.000077087171351e+001
0	 8.933340177755778e+000	 9.533315502450002e+000	 1.000059634065121e+001
0	 8.933340177755779e+000	 9.599986199732198e+000	 1.000044543544461e+001
0	 8.933340177755776e+000	 9.666656597019092e+000	 1.000031754882437e+001
0	 8.933340177755776e+000	 9.733326577638570e+000	 1.000021207404585e+001
0	 8.933340177755778e+000	 9.799996024918524e+000	 1.000012840488907e+001
0	 8.933340177755776e+000	 9.866664822186822e+000	 1.000006593565869e+001
0	 8.933340177755778e+000	 9.933332852771354e+000	 1.000002406118427e+001
0	 8.933340177755776e+000	 1.000000000000000e+001	 1.000000217682019e+001
0	 9.000000347171181e+000	 9.333302777352785e+000	 1.000107594383794e+001
0	 9.000000347171181e+000	 9.399973674588178e+000	 1.000087341776240e+001
0	 9.000000347171179e+000	 9.466644621844619e+000	 1.000069314226211e+001
0	 9.000000347171179e+000	 9.533315502450000e+000	 1.000053471345462e+001
0	 9.000000347171181e+000	 9.599986199732200e+000	 1.000039772793313e+001
0	 9.000000347171179e+000	 9.666656597019093e+000	 1.000028178276661e+001
0	 9.000000347171181e+000	 9.733326577638575e+000	 1.000018647549978e+001
0	 9.000000347171177e+000	 9.799996024918521e+000	 1.000011140415304e+001
0	 9.000000347171179e+000	 9.866664822186824e+000	 1.000005616722272e+001
0	 9.000000347171181e+000	 9.933332852771352e+000	 1.000002036368084e+001
0	 9.000000347171181e+000	 1.000000000000000e+001	 1.000000359297563e+001
0	 9.066660599907667e+000	 9.333302777352783e+000	 1.000095324606987e+001
0	 9.066660599907666e+000	 9.399973674588175e+000	 1.000077219518128e+001
0	 9.066660599907666e+000	 9.466644621844619e+000	 1.000061080430605e+001
0	 9.066660599907664e+000	 9.533315502449998e+000	 1.000046889362504e+001
0	 9.066660599907666e+000	 9.599986199732195e+000	 1.000034628374633e+001
0	 9.066660599907664e+000	 9.666656597019095e+000	 1.000024279570517e+001
0	 9.066660599907666e+000	 9.733326577638577e+000	 1.000015825096409e+001
0	 9.066660599907664e+000	 9.799996024918521e+000	 1.000009247141285e+001
0	 9.066660599907666e+000	 9.866664822186824e+000	 1.000004527936855e+001
0	 9.066660599907662e+000	 9.933332852771352e+000	 1.000001649757557e+001
0	 9.066660599907666e+000	 1.000000000000000e+001	 1.000000594920575e+001
0	 9.133320952629651e+000	 9.333302777352785e+000	 1.000082461694367e+001
0	 9.133320952629649e+000	 9.399973674588173e+000	 1.000066555129226e+001
0	 9.133320952629653e+000	 9.466644621844623e+000	 1.000052357201664e+001
0	 9.133320952629651e+000	 9.533315502450002e+000	 1.000039874298870e+001
0	 9.133320952629653e+000	 9.599986199732197e+000	 1.000029112845959e+001
0	 9.133320952629653e+000	 9.666656597019093e+000	 1.000020079305978e+001
0	 9.133320952629653e+000	 9.733326577638573e+000	 1.000012780179898e+001
0	 9.133320952629651e+000	 9.799996024918526e+000	 1.000007222006632e+001
0	 9.133320952629651e+000	 9.866664822186822e+000	 1.000003411363018e+001
0	 9.133320952629649e+000	 9.933332852771351e+000	 1.000001354863840e+001
0	 9.133320952629653e+000	 1.000000000000000e+001	 1.000001059161836e+001
0	 9.199981422001553e+000	 9.333302777352779e+000	 1.000068952358498e+001
0	 9.199981422001555e+000	 9.399973674588175e+000	 1.000055306868871e+001
0	 9.199981422001555e+000	 9.466644621844619e+000	 1.000043115954831e+001
0	 9.199981422001555e+000	 9.533315502450002e+000	 1.000032412335480e+001
0	 9.199981422001555e+000	 9.599986199732198e+000	 1.000023228763132e+001
0	 9.199981422001555e+000	 9.666656597019095e+000	 1.000015598023307e+001
0	 9.199981422001557e+000	 9.733326577638577e+000	 1.000009552934737e+001
0	 9.199981422001555e+000	 9.799996024918524e+000	 1.000005126349366e+001
0	 9.199981422001551e+000	 9.866664822186820e+000	 1.000002351152364e+001
0	 9.199981422001555e+000	 9.933332852771352e+000	 1.000001260262105e+001
0	 9.199981422001557e+000	 1.000000000000000e+001	 1.000001886630207e+001
0	 9.266642024687792e+000	 9.333302777352785e+000	 1.000054743310290e+001
0	 9.266642024687792e+000	 9.399973674588177e+000	 1.000043432994724e+001
0	 9.266642024687792e+000	 9.466644621844623e+000	 1.000033328103861e+001
0	 9.266642024687791e+000	 9.533315502450000e+000	 1.000024489651566e+001
0	 9.266642024687792e+000	 9.599986199732195e+000	 1.000016978680285e+001
0	 9.266642024687792e+000	 9.666656597019093e+000	 1.000010856261051e+001
0	 9.266642024687792e+000	 9.733326577638575e+000	 1.000006183493481e+001
0	 9.266642024687794e+000	 9.799996024918526e+000	 1.000003021505765e+001
0	 9.266642024687792e+000	 9.866664822186820e+000	 1.000001431454706e+001
0	 9.266642024687791e+000	 9.933332852771352e+000	 1.000001474525672e+001
0	 9.266642024687792e+000	 1.000000000000000e+001	 1.000003211932643e+001
0	 9.333302777352785e+000	 9.333302777352785e+000	 1.000039781258982e+001
0	 9.333302777352781e+000	 9.399973674588177e+000	 1.000030891762772e+001
0	 9.333302777352785e+000	 9.466644621844621e+000	 1.000022965060825e+001
0	 9.333302777352783e+000	 9.533315502450002e+000	 1.000016092424662e+001
0	 9.333302777352783e+000	 9.599986199732197e+000	 1.000010365149857e+001
0	 9.333302777352781e+000	 9.666656597019095e+000	 1.000005874556057e+001
0	 9.333302777352783e+000	 9.733326577638573e+000	 1.000002711986964e+001
0	 9.333302777352779e+000	 9.799996024918521e+000	 1.000000968810353e+001
0	 9.333302777352783e+000	 9.866664822186822e+000	 1.000000736418068e+001
0	 9.333302777352783e+000	 9.933332852771356e+000	 1.000002106226014e+001
0	 9.333302777352781e+000	 9.999999999999998e+000	 1.000005169674178e+001
0	 9.333302777352781e+000	 0.000000000000000e+000	 9.847435554053879e+000
0	 9.333302777352785e+000	 6.666714722864757e-002	 9.847251596654404e+000
0	 9.333302777352785e+000	 1.333351778131789e-001	 9.847212241794441e+000
0	 9.333302777352783e+000	 2.000039750814772e-001	 9.847318083779053e+000
0	 9.333302777352779e+000	 2.666734223614256e-001	 9.847569718826613e+000
0	 9.333302777352783e+000	 3.333434029809070e-001	 9.847967745068653e+000
0	 9.333302777352783e+000	 4.000138002678045e-001	 9.848512762549730e+000
0	 9.333302777352783e+000	 4.666844975500011e-001	 9.849205373227324e+000
0	 9.333302777352781e+000	 5.333553781553801e-001	 9.850046180971773e+000
0	 9.333302777352785e+000	 6.000263254118248e-001	 9.851035791566353e+000
0	 9.333302777352783e+000	 6.666972226472177e-001	 9.852174812707263e+000
0	 9.399973674588175e+000	 0.000000000000000e+000	 9.838460545735558e+000
0	 9.399973674588173e+000	 6.666714722864754e-002	 9.838278466929900e+000
0	 9.399973674588175e+000	 1.333351778131789e-001	 9.838245300163059e+000
0	 9.399973674588175e+000	 2.000039750814772e-001	 9.838361382890831e+000
0	 9.399973674588175e+000	 2.666734223614256e-001	 9.838627054489846e+000
0	 9.399973674588173e+000	 3.333434029809069e-001	 9.839042656257478e+000
0	 9.399973674588177e+000	 4.000138002678044e-001	 9.839608531411605e+000
0	 9.399973674588175e+000	 4.666844975500012e-001	 9.840325025090587e+000
0	 9.399973674588175e+000	 5.333553781553803e-001	 9.841192484353243e+000
0	 9.399973674588177e+000	 6.000263254118246e-001	 9.842211258178798e+000
0	 9.399973674588177e+000	 6.666972226472175e-001	 9.843381697467031e+000
0	 9.466644621844621e+000	 0.000000000000000e+000	 9.829157076892129e+000
0	 9.466644621844621e+000	 6.666714722864757e-002	 9.829020615776289e+000
0	 9.466644621844623e+000	 1.333351778131789e-001	 9.829031716091299e+000
0	 9.466644621844623e+000	 2.000039750814773e-001	 9.829190505160614e+000
0	 9.466644621844619e+000	 2.666734223614255e-001	 9.829497112185097e+000
0	 9.466644621844621e+000	 3.333434029809069e-001	 9.829951668242918e+000
0	 9.466644621844621e+000	 4.000138002678044e-001	 9.830554306289359e+000
0	 9.466644621844617e+000	 4.666844975500012e-001	 9.831305161156745e+000
0	 9.466644621844623e+000	 5.333553781553805e-001	 9.832204369554466e+000
0	 9.466644621844621e+000	 6.000263254118248e-001	 9.833252070068918e+000
0	 9.466644621844619e+000	 6.666972226472178e-001	 9.834448403163634e+000
0	 9.533315502450000e+000	 0.000000000000000e+000	 9.819547345810138e+000
0	 9.533315502450000e+000	 6.666714722864757e-002	 9.819484825709592e+000
0	 9.533315502450002e+000	 1.333351778131790e-001	 9.819565060576309e+000
0	 9.533315502449998e+000	 2.000039750814772e-001	 9.819788014166088e+000
0	 9.533315502450002e+000	 2.666734223614256e-001	 9.820153652040869e+000
0	 9.533315502449995e+000	 3.333434029809068e-001	 9.820661941568636e+000
0	 9.533315502449998e+000	 4.000138002678043e-001	 9.821312851923269e+000
0	 9.533315502449998e+000	 4.666844975500012e-001	 9.822106354084424e+000
0	 9.533315502450000e+000	 5.333553781553803e-001	 9.823042420837632e+000
0	 9.533315502449996e+000	 6.000263254118247e-001	 9.824121026774213e+000
0	 9.533315502449996e+000	 6.666972226472177e-001	 9.825342148291401e+000
0	 9.599986199732195e+000	 0.000000000000000e+000	 9.809653551861779e+000
0	 9.599986199732195e+000	 6.666714722864756e-002	 9.809677880389826e+000
0	 9.599986199732193e+000	 1.333351778131789e-001	 9.809838905809196e+000
0	 9.599986199732197e+000	 2.000039750814773e-001	 9.810136474720876e+000
0	 9.599986199732198e+000	 2.666734223614256e-001	 9.810570435456086e+000
0	 9.599986199732195e+000	 3.333434029809068e-001	 9.811140638076161e+000
0	 9.599986199732197e+000	 4.000138002678044e-001	 9.811846934372356e+000
0	 9.599986199732197e+000	 4.666844975500011e-001	 9.812689177865927e+000
0	 9.599986199732195e+000	 5.333553781553804e-001	 9.813667223807977e+000
0	 9.599986199732197e+000	 6.000263254118247e-001	 9.814780929179566e+000
0	 9.599986199732195e+000	 6.666972226472177e-001	 9.816030152691800e+000
0	 9.666656597019093e+000	 0.000000000000000e+000	 9.799497895505001e+000
0	 9.666656597019095e+000	 6.666714722864757e-002	 9.799606564621202e+000
0	 9.666656597019090e+000	 1.333351778131789e-001	 9.799846825175152e+000
0	 9.666656597019093e+000	 2.000039750814772e-001	 9.800218452874667e+000
0	 9.666656597019093e+000	 2.666734223614256e-001	 9.800721225100229e+000
0	 9.666656597019093e+000	 3.333434029809069e-001	 9.801354920905007e+000
0	 9.666656597019092e+000	 4.000138002678044e-001	 9.802119321014708e+000
0	 9.666656597019092e+000	 4.666844975500011e-001	 9.803014207827474e+000
0	 9.666656597019092e+000	 5.333553781553803e-001	 9.804039365413971e+000
0	 9.666656597019092e+000	 6.000263254118247e-001	 9.805194579517401e+000
0	 9.666656597019092e+000	 6.666972226472177e-001	 9.806479637553569e+000
0	 9.733326577638573e+000	 0.000000000000000e+000	 9.789102578283783e+000
0	 9.733326577638575e+000	 6.666714722864754e-002	 9.789277664352346e+000
0	 9.733326577638575e+000	 1.333351778131790e-001	 9.789582393253827e+000
0	 9.733326577638575e+000	 2.000039750814773e-001	 9.790016515913479e+000
0	 9.733326577638573e+000	 2.666734223614256e-001	 9.790579784913547e+000
0	 9.733326577638572e+000	 3.333434029809069e-001	 9.791271954492975e+000
0	 9.733326577638573e+000	 4.000138002678044e-001	 9.792092780547460e+000
0	 9.733326577638575e+000	 4.666844975500012e-001	 9.793042020629324e+000
0	 9.733326577638572e+000	 5.333553781553801e-001	 9.794119433947564e+000
0	 9.733326577638575e+000	 6.000263254118249e-001	 9.795324781367935e+000
0	 9.733326577638573e+000	 6.666972226472175e-001	 9.796657825412904e+000
0	 9.799996024918521e+000	 0.000000000000000e+000	 9.778489802828299e+000
0	 9.799996024918521e+000	 6.666714722864756e-002	 9.778697966676516e+000
0	 9.799996024918524e+000	 1.333351778131790e-001	 9.779039185819322e+000
0	 9.799996024918523e+000	 2.000039750814772e-001	 9.779513232359895e+000
0	 9.799996024918521e+000	 2.666734223614255e-001	 9.780119880107298e+000
0	 9.799996024918521e+000	 3.333434029809069e-001	 9.780858904576290e+000
0	 9.799996024918524e+000	 4.000138002678044e-001	 9.781730082987238e+000
0	 9.799996024918521e+000	 4.666844975500012e-001	 9.782733194266083e+000
0	 9.799996024918523e+000	 5.333553781553803e-001	 9.783868019044371e+000
0	 9.799996024918523e+000	 6.000263254118248e-001	 9.785134339659294e+000
0	 9.799996024918523e+000	 6.666972226472177e-001	 9.786531940153761e+000
0	 9.866664822186820e+000	 0.000000000000000e+000	 9.767681772855175e+000
0	 9.866664822186818e+000	 6.666714722864756e-002	 9.767874259831839e+000
0	 9.866664822186818e+000	 1.333351778131789e-001	 9.768210779840629e+000
0	 9.866664822186818e+000	 2.000039750814772e-001	 9.768691171973218e+000
0	 9.866664822186822e+000	 2.666734223614256e-001	 9.769315277164017e+000
0	 9.866664822186820e+000	 3.333434029809069e-001	 9.770082938189926e+000
0	 9.866664822186818e+000	 4.000138002678044e-001	 9.770993999670301e+000
0	 9.866664822186820e+000	 4.666844975500011e-001	 9.772048308066937e+000
0	 9.866664822186820e+000	 5.333553781553803e-001	 9.773245711683931e+000
0	 9.866664822186818e+000	 6.000263254118247e-001	 9.774586060667911e+000
0	 9.866664822186820e+000	 6.666972226472175e-001	 9.776069207008025e+000
0	 9.933332852771351e+000	 0.000000000000000e+000	 9.756700693167829e+000
0	 9.933332852771354e+000	 6.666714722864757e-002	 9.756813333201635e+000
0	 9.933332852771352e+000	 1.333351778131790e-001	 9.757090753481856e+000
0	 9.933332852771351e+000	 2.000039750814772e-001	 9.757532905749910e+000
0	 9.933332852771351e+000	 2.666734223614256e-001	 9.758139743837786e+000
0	 9.933332852771352e+000	 3.333434029809069e-001	 9.758911223667889e+000
0	 9.933332852771351e+000	 4.000138002678044e-001	 9.759847303252956e+000
0	 9.933332852771352e+000	 4.666844975500012e-001	 9.760947942695958e+000
0	 9.933332852771351e+000	 5.333553781553803e-001	 9.762213104190057e+000
0	 9.933332852771352e+000	 6.000263254118247e-001	 9.763642752018749e+000
0	 9.933332852771351e+000	 6.666972226472177e-001	 9.765236852555905e+000
0	 1.000000000000000e+001	 0.000000000000000e+000	 9.745568769656710e+000
0	 1.000000000000000e+001	 6.666714722864756e-002	 9.745521977314677e+000
0	 9.999999999999998e+000	 1.333351778131789e-001	 9.745672686102548e+000
0	 1.000000000000000e+001	 2.000039750814772e-001	 9.746021005923828e+000
0	 1.000000000000000e+001	 2.666734223614256e-001	 9.746567049154585e+000
0	 1.000000000000000e+001	 3.333434029809069e-001	 9.747310930643559e+000
0	 1.000000000000000e+001	 4.000138002678044e-001	 9.748252767711746e+000
0	 1.000000000000000e+001	 4.666844975500011e-001	 9.749392680152441e+000
0	 1.000000000000000e+001	 5.333553781553803e-001	 9.750730790231188e+000
0	 1.000000000000000e+001	 6.000263254118248e-001	 9.752267222685727e+000
0	 1.000000000000000e+001	 6.666972226472175e-001	 9.754002104726204e+000
0	 9.333302777352783e+000	 6.666972226472177e-001	 9.852174812707263e+000
0	 9.333302777352783e+000	 7.333579753122046e-001	 9.853426517187536e+000
0	 9.333302777352783e+000	 8.000185779984417e-001	 9.854754851896198e+000
0	 9.333302777352781e+000	 8.666790473703453e-001	 9.856160890746107e+000
0	 9.333302777352781e+000	 9.333394000923320e-001	 9.857645707488530e+000
0	 9.333302777352783e+000	 9.999996528288190e-001	 9.859210375713142e+000
0	 9.333302777352785e+000	 1.066659822244222e+000	 9.860855968848007e+000
0	 9.333302777352785e+000	 1.133319925002959e+000	 9.862583560159633e+000
0	 9.333302777352785e+000	 1.199979977769445e+000	 9.864394222752887e+000
0	 9.333302777352785e+000	 1.266639997208098e+000	 9.866289029571087e+000
0	 9.333302777352785e+000	 1.333299999983334e+000	 9.868269053395949e+000
0	 9.399973674588177e+000	 6.666972226472175e-001	 9.843381697467031e+000
0	 9.399973674588173e+000	 7.333579753122048e-001	 9.844668653114828e+000
0	 9.399973674588175e+000	 8.000185779984415e-001	 9.846037824104069e+000
0	 9.399973674588178e+000	 8.666790473703453e-001	 9.847490273929154e+000
0	 9.399973674588178e+000	 9.333394000923323e-001	 9.849027065916413e+000
0	 9.399973674588178e+000	 9.999996528288191e-001	 9.850649263224110e+000
0	 9.399973674588173e+000	 1.066659822244222e+000	 9.852357928842430e+000
0	 9.399973674588177e+000	 1.133319925002959e+000	 9.854154125593501e+000
0	 9.399973674588177e+000	 1.199979977769445e+000	 9.856038916131373e+000
0	 9.399973674588173e+000	 1.266639997208098e+000	 9.858013362942034e+000
0	 9.399973674588177e+000	 1.333299999983334e+000	 9.860078528343410e+000
0	 9.466644621844619e+000	 6.666972226472178e-001	 9.834448403163634e+000
0	 9.466644621844619e+000	 7.333579753122046e-001	 9.835763319501611e+000
0	 9.466644621844621e+000	 8.000185779984417e-001	 9.837167751239285e+000
0	 9.466644621844619e+000	 8.666790473703452e-001	 9.838662740569975e+000
0	 9.466644621844619e+000	 9.333394000923322e-001	 9.840249329509318e+000
0	 9.466644621844619e+000	 9.999996528288189e-001	 9.841928559895203e+000
0	 9.466644621844621e+000	 1.066659822244223e+000	 9.843701473387799e+000
0	 9.466644621844621e+000	 1.133319925002958e+000	 9.845569111469590e+000
0	 9.466644621844619e+000	 1.199979977769445e+000	 9.847532515445320e+000
0	 9.466644621844623e+000	 1.266639997208098e+000	 9.849592726442022e+000
0	 9.466644621844617e+000	 1.333299999983334e+000	 9.851750785409021e+000
0	 9.533315502449996e+000	 6.666972226472177e-001	 9.825342148291403e+000
0	 9.533315502450000e+000	 7.333579753122048e-001	 9.826682941478451e+000
0	 9.533315502450002e+000	 8.000185779984417e-001	 9.828121638378507e+000
0	 9.533315502450002e+000	 8.666790473703454e-001	 9.829659248993680e+000
0	 9.533315502450000e+000	 9.333394000923322e-001	 9.831296783136502e+000
0	 9.533315502449998e+000	 9.999996528288190e-001	 9.833035250429894e+000
0	 9.533315502449996e+000	 1.066659822244222e+000	 9.834875660307191e+000
0	 9.533315502450000e+000	 1.133319925002959e+000	 9.836819022012101e+000
0	 9.533315502449998e+000	 1.199979977769445e+000	 9.838866344598772e+000
0	 9.533315502450000e+000	 1.266639997208098e+000	 9.841018636931734e+000
0	 9.533315502450002e+000	 1.333299999983334e+000	 9.843276907685919e+000
0	 9.599986199732195e+000	 6.666972226472177e-001	 9.816030152691804e+000
0	 9.599986199732195e+000	 7.333579753122048e-001	 9.817399945518563e+000
0	 9.599986199732195e+000	 8.000185779984415e-001	 9.818876491932405e+000
0	 9.599986199732195e+000	 8.666790473703452e-001	 9.820460758846417e+000
0	 9.599986199732197e+000	 9.333394000923321e-001	 9.822153712970904e+000
0	 9.599986199732195e+000	 9.999996528288190e-001	 9.823956320813448e+000
0	 9.599986199732195e+000	 1.066659822244222e+000	 9.825869548678806e+000
0	 9.599986199732193e+000	 1.133319925002958e+000	 9.827894362668987e+000
0	 9.599986199732197e+000	 1.199979977769445e+000	 9.830031728683252e+000
0	 9.599986199732195e+000	 1.266639997208098e+000	 9.832282612418052e+000
0	 9.599986199732197e+000	 1.333299999983334e+000	 9.834647979367116e+000
0	 9.666656597019092e+000	 6.666972226472177e-001	 9.806479637553569e+000
0	 9.666656597019092e+000	 7.333579753122046e-001	 9.807886759438025e+000
0	 9.666656597019092e+000	 8.000185779984415e-001	 9.809409319645853e+000
0	 9.666656597019095e+000	 8.666790473703454e-001	 9.811048231095535e+000
0	 9.666656597019093e+000	 9.333394000923323e-001	 9.812804406489278e+000
0	 9.666656597019088e+000	 9.999996528288189e-001	 9.814678758312947e+000
0	 9.666656597019093e+000	 1.066659822244222e+000	 9.816672198836145e+000
0	 9.666656597019093e+000	 1.133319925002959e+000	 9.818785640112159e+000
0	 9.666656597019093e+000	 1.199979977769445e+000	 9.821019993977995e+000
0	 9.666656597019092e+000	 1.266639997208098e+000	 9.823376172054379e+000
0	 9.666656597019092e+000	 1.333299999983334e+000	 9.825855085745740e+000
0	 9.733326577638573e+000	 6.666972226472175e-001	 9.796657825412904e+000
0	 9.733326577638575e+000	 7.333579753122048e-001	 9.798115812395883e+000
0	 9.733326577638575e+000	 8.000185779984417e-001	 9.799697130598032e+000
0	 9.733326577638573e+000	 8.666790473703451e-001	 9.801402628029829e+000
0	 9.733326577638575e+000	 9.333394000923323e-001	 9.803233152472355e+000
0	 9.733326577638573e+000	 9.999996528288189e-001	 9.805189551477570e+000
0	 9.733326577638573e+000	 1.066659822244222e+000	 9.807272672368177e+000
0	 9.733326577638572e+000	 1.133319925002959e+000	 9.809483362237598e+000
0	 9.733326577638573e+000	 1.199979977769445e+000	 9.811822467950115e+000
0	 9.733326577638575e+000	 1.266639997208098e+000	 9.814290836140701e+000
0	 9.733326577638575e+000	 1.333299999983334e+000	 9.816889313215144e+000
0	 9.799996024918523e+000	 6.666972226472177e-001	 9.786531940153761e+000
0	 9.799996024918521e+000	 7.333579753122048e-001	 9.788059534894476e+000
0	 9.799996024918521e+000	 8.000185779984413e-001	 9.789716935202828e+000
0	 9.799996024918523e+000	 8.666790473703451e-001	 9.791504913259661e+000
0	 9.799996024918521e+000	 9.333394000923320e-001	 9.793424241005136e+000
0	 9.799996024918523e+000	 9.999996528288189e-001	 9.795475690138808e+000
0	 9.799996024918521e+000	 1.066659822244222e+000	 9.797660032119575e+000
0	 9.799996024918519e+000	 1.133319925002958e+000	 9.799978038165683e+000
0	 9.799996024918523e+000	 1.199979977769445e+000	 9.802430479254761e+000
0	 9.799996024918523e+000	 1.266639997208098e+000	 9.805018126123795e+000
0	 9.799996024918523e+000	 1.333299999983334e+000	 9.807741749269118e+000
0	 9.866664822186820e+000	 6.666972226472175e-001	 9.776069207008025e+000
0	 9.866664822186820e+000	 7.333579753122048e-001	 9.777690358779685e+000
0	 9.866664822186820e+000	 8.000185779984417e-001	 9.779445745208886e+000
0	 9.866664822186818e+000	 8.666790473703451e-001	 9.781336051717368e+000
0	 9.866664822186818e+000	 9.333394000923320e-001	 9.783361963477148e+000
0	 9.866664822186820e+000	 9.999996528288190e-001	 9.785524165410699e+000
0	 9.866664822186820e+000	 1.066659822244222e+000	 9.787823342191006e+000
0	 9.866664822186820e+000	 1.133319925002959e+000	 9.790260178241345e+000
0	 9.866664822186820e+000	 1.199979977769445e+000	 9.792835357735502e+000
0	 9.866664822186820e+000	 1.266639997208098e+000	 9.795549564597593e+000
0	 9.866664822186818e+000	 1.333299999983334e+000	 9.798403482502243e+000
0	 9.933332852771351e+000	 6.666972226472177e-001	 9.765236852555905e+000
0	 9.933332852771352e+000	 7.333579753122047e-001	 9.766980717241163e+000
0	 9.933332852771351e+000	 8.000185779984418e-001	 9.768860573700124e+000
0	 9.933332852771352e+000	 8.666790473703454e-001	 9.770877009657442e+000
0	 9.933332852771352e+000	 9.333394000923323e-001	 9.773030612582646e+000
0	 9.933332852771351e+000	 9.999996528288190e-001	 9.775321969690197e+000
0	 9.933332852771349e+000	 1.066659822244222e+000	 9.777751667939407e+000
0	 9.933332852771351e+000	 1.133319925002958e+000	 9.780320294034443e+000
0	 9.933332852771352e+000	 1.199979977769445e+000	 9.783028434424423e+000
0	 9.933332852771352e+000	 1.266639997208098e+000	 9.785876675303339e+000
0	 9.933332852771351e+000	 1.333299999983334e+000	 9.788865602610009e+000
0	 1.000000000000000e+001	 6.666972226472175e-001	 9.754002104726204e+000
0	 1.000000000000000e+001	 7.333579753122049e-001	 9.755903044812831e+000
0	 1.000000000000000e+001	 8.000185779984417e-001	 9.757938435095900e+000
0	 1.000000000000000e+001	 8.666790473703454e-001	 9.760108754656965e+000
0	 1.000000000000000e+001	 9.333394000923322e-001	 9.762414482321145e+000
0	 1.000000000000000e+001	 9.999996528288191e-001	 9.764856096657381e+000
0	 1.000000000000000e+001	 1.066659822244222e+000	 9.767434075978247e+000
0	 1.000000000000000e+001	 1.133319925002959e+000	 9.770148898340011e+000
0	 1.000000000000000e+001	 1.199979977769445e+000	 9.773001041542692e+000
0	 1.000000000000000e+001	 1.266639997208098e+000	 9.775990983129963e+000
0	 1.000000000000000e+001	 1.333299999983334e+000	 9.779119200389228e+000
0	 9.333302777352785e+000	 1.333299999983334e+000	 9.868269053395951e+000
0	 9.333302777352783e+000	 1.399969999982150e+000	 9.870320402004756e+000
0	 9.333302777352785e+000	 1.466639999981866e+000	 9.872428756259710e+000
0	 9.333302777352783e+000	 1.533309999982383e+000	 9.874595458885271e+000
0	 9.333302777352783e+000	 1.599979999983600e+000	 9.876821852605854e+000
0	 9.333302777352783e+000	 1.666649999985416e+000	 9.879109280145910e+000
0	 9.333302777352783e+000	 1.733319999987733e+000	 9.881459084229874e+000
0	 9.333302777352781e+000	 1.799989999990450e+000	 9.883872607582196e+000
0	 9.333302777352783e+000	 1.866659999993466e+000	 9.886351192927329e+000
0	 9.333302777352783e+000	 1.933329999996683e+000	 9.888896182989686e+000
0	 9.333302777352783e+000	 2.000000000000000e+000	 9.891508920493742e+000
0	 9.399973674588177e+000	 1.333299999983334e+000	 9.860078528343410e+000
0	 9.399973674588177e+000	 1.399969999982150e+000	 9.862219654177475e+000
0	 9.399973674588177e+000	 1.466639999981866e+000	 9.864421329359784e+000
0	 9.399973674588177e+000	 1.533309999982383e+000	 9.866684586683061e+000
0	 9.399973674588175e+000	 1.599979999983600e+000	 9.869010458940048e+000
0	 9.399973674588175e+000	 1.666649999985416e+000	 9.871399978923476e+000
0	 9.399973674588175e+000	 1.733319999987733e+000	 9.873854179426079e+000
0	 9.399973674588180e+000	 1.799989999990450e+000	 9.876374093240585e+000
0	 9.399973674588175e+000	 1.866659999993466e+000	 9.878960753159733e+000
0	 9.399973674588180e+000	 1.933329999996684e+000	 9.881615191976264e+000
0	 9.399973674588177e+000	 2.000000000000000e+000	 9.884338442482894e+000
0	 9.466644621844617e+000	 1.333299999983334e+000	 9.851750785409021e+000
0	 9.466644621844623e+000	 1.399969999982150e+000	 9.853989840896814e+000
0	 9.466644621844619e+000	 1.466639999981867e+000	 9.856292226806318e+000
0	 9.466644621844623e+000	 1.533309999982383e+000	 9.858658755377036e+000
0	 9.466644621844619e+000	 1.599979999983599e+000	 9.861090238848492e+000
0	 9.466644621844619e+000	 1.666649999985416e+000	 9.863587489460189e+000
0	 9.466644621844621e+000	 1.733319999987733e+000	 9.866151319451626e+000
0	 9.466644621844621e+000	 1.799989999990450e+000	 9.868782541062354e+000
0	 9.466644621844621e+000	 1.866659999993466e+000	 9.871481966531835e+000
0	 9.466644621844621e+000	 1.933329999996683e+000	 9.874250408099623e+000
0	 9.466644621844623e+000	 2.000000000000000e+000	 9.877088678005194e+000
0	 9.533315502450002e+000	 1.333299999983334e+000	 9.843276907685919e+000
0	 9.533315502449998e+000	 1.399969999982150e+000	 9.845621415332358e+000
0	 9.533315502449996e+000	 1.466639999981866e+000	 9.848031506481096e+000
0	 9.533315502450002e+000	 1.533309999982383e+000	 9.850507862195810e+000
0	 9.533315502450000e+000	 1.599979999983600e+000	 9.853051163540123e+000
0	 9.533315502449998e+000	 1.666649999985416e+000	 9.855662091577671e+000
0	 9.533315502449998e+000	 1.733319999987733e+000	 9.858341327372123e+000
0	 9.533315502450000e+000	 1.799989999990450e+000	 9.861089551987130e+000
0	 9.533315502450000e+000	 1.866659999993466e+000	 9.863907446486333e+000
0	 9.533315502449998e+000	 1.933329999996683e+000	 9.866795691933371e+000
0	 9.533315502450000e+000	 2.000000000000000e+000	 9.869754969391918e+000
0	 9.599986199732197e+000	 1.333299999983334e+000	 9.834647979367116e+000
0	 9.599986199732193e+000	 1.399969999982150e+000	 9.837104831702181e+000
0	 9.599986199732198e+000	 1.466639999981867e+000	 9.839629227258735e+000
0	 9.599986199732198e+000	 1.533309999982383e+000	 9.842221805301708e+000
0	 9.599986199732193e+000	 1.599979999983599e+000	 9.844883205096084e+000
0	 9.599986199732195e+000	 1.666649999985416e+000	 9.847614065906821e+000
0	 9.599986199732197e+000	 1.733319999987733e+000	 9.850415026998862e+000
0	 9.599986199732195e+000	 1.799989999990449e+000	 9.853286727637192e+000
0	 9.599986199732197e+000	 1.866659999993466e+000	 9.856229807086770e+000
0	 9.599986199732197e+000	 1.933329999996683e+000	 9.859244904612538e+000
0	 9.599986199732198e+000	 2.000000000000000e+000	 9.862332659479494e+000
0	 9.666656597019092e+000	 1.333299999983334e+000	 9.825855085745740e+000
0	 9.666656597019092e+000	 1.399969999982150e+000	 9.828430545273008e+000
0	 9.666656597019093e+000	 1.466639999981867e+000	 9.831075449006681e+000
0	 9.666656597019090e+000	 1.533309999982383e+000	 9.833790483790910e+000
0	 9.666656597019095e+000	 1.599979999983600e+000	 9.836576336469916e+000
0	 9.666656597019092e+000	 1.666649999985416e+000	 9.839433693887909e+000
0	 9.666656597019092e+000	 1.733319999987733e+000	 9.842363242889091e+000
0	 9.666656597019092e+000	 1.799989999990450e+000	 9.845365670317660e+000
0	 9.666656597019095e+000	 1.866659999993466e+000	 9.848441663017802e+000
0	 9.666656597019093e+000	 1.933329999996684e+000	 9.851591907833750e+000
0	 9.666656597019092e+000	 2.000000000000000e+000	 9.854817091609680e+000
0	 9.733326577638575e+000	 1.333299999983334e+000	 9.816889313215146e+000
0	 9.733326577638570e+000	 1.399969999982150e+000	 9.819589012360391e+000
0	 9.733326577638575e+000	 1.466639999981866e+000	 9.822360232585522e+000
0	 9.733326577638572e+000	 1.533309999982383e+000	 9.825203797693614e+000
0	 9.733326577638573e+000	 1.599979999983599e+000	 9.828120531487709e+000
0	 9.733326577638573e+000	 1.666649999985416e+000	 9.831111257770857e+000
0	 9.733326577638575e+000	 1.733319999987733e+000	 9.834176800346148e+000
0	 9.733326577638572e+000	 1.799989999990450e+000	 9.837317983016595e+000
0	 9.733326577638573e+000	 1.866659999993466e+000	 9.840535629585308e+000
0	 9.733326577638572e+000	 1.933329999996683e+000	 9.843830563855295e+000
0	 9.733326577638573e+000	 2.000000000000000e+000	 9.847203609629654e+000
0	 9.799996024918523e+000	 1.333299999983334e+000	 9.807741749269122e+000
0	 9.799996024918524e+000	 1.399969999982150e+000	 9.810570690328888e+000
0	 9.799996024918519e+000	 1.466639999981866e+000	 9.813473639849228e+000
0	 9.799996024918523e+000	 1.533309999982383e+000	 9.816451647974295e+000
0	 9.799996024918521e+000	 1.599979999983599e+000	 9.819505764848275e+000
0	 9.799996024918521e+000	 1.666649999985416e+000	 9.822637040615321e+000
0	 9.799996024918523e+000	 1.733319999987733e+000	 9.825846525419589e+000
0	 9.799996024918523e+000	 1.799989999990450e+000	 9.829135269405258e+000
0	 9.799996024918519e+000	 1.866659999993466e+000	 9.832504322716483e+000
0	 9.799996024918521e+000	 1.933329999996683e+000	 9.835954735497436e+000
0	 9.799996024918524e+000	 2.000000000000000e+000	 9.839487557892280e+000
0	 9.866664822186818e+000	 1.333299999983334e+000	 9.798403482502247e+000
0	 9.866664822186822e+000	 1.399969999982150e+000	 9.801366037592381e+000
0	 9.866664822186817e+000	 1.466639999981866e+000	 9.804405733645231e+000
0	 9.866664822186820e+000	 1.533309999982383e+000	 9.807523936531883e+000
0	 9.866664822186818e+000	 1.599979999983599e+000	 9.810722012123424e+000
0	 9.866664822186820e+000	 1.666649999985416e+000	 9.814001326290944e+000
0	 9.866664822186820e+000	 1.733319999987733e+000	 9.817363244905518e+000
0	 9.866664822186820e+000	 1.799989999990450e+000	 9.820809133838250e+000
0	 9.866664822186820e+000	 1.866659999993466e+000	 9.824340358960173e+000
0	 9.866664822186820e+000	 1.933329999996683e+000	 9.827958286142462e+000
0	 9.866664822186820e+000	 2.000000000000000e+000	 9.831664281256142e+000
0	 9.933332852771351e+000	 1.333299999983334e+000	 9.788865602610009e+000
0	 9.933332852771351e+000	 1.399969999982150e+000	 9.791965513614255e+000
0	 9.933332852771351e+000	 1.466639999981866e+000	 9.795146577814782e+000
0	 9.933332852771352e+000	 1.533309999982383e+000	 9.798410566199969e+000
0	 9.933332852771351e+000	 1.599979999983599e+000	 9.801759249758122e+000
0	 9.933332852771351e+000	 1.666649999985416e+000	 9.805194399477584e+000
0	 9.933332852771352e+000	 1.733319999987733e+000	 9.808717786346685e+000
0	 9.933332852771351e+000	 1.799989999990450e+000	 9.812331181353715e+000
0	 9.933332852771351e+000	 1.866659999993466e+000	 9.816036355487039e+000
0	 9.933332852771351e+000	 1.933329999996683e+000	 9.819835079735000e+000
0	 9.933332852771352e+000	 2.000000000000000e+000	 9.823729125085908e+000
0	 1.000000000000000e+001	 1.333299999983334e+000	 9.779119200389230e+000
0	 1.000000000000000e+001	 1.399969999982150e+000	 9.782359578907739e+000
0	 1.000000000000000e+001	 1.466639999981866e+000	 9.785686237193273e+000
0	 1.000000000000000e+001	 1.533309999982383e+000	 9.789101440747224e+000
0	 9.999999999999998e+000	 1.599979999983599e+000	 9.792607455070893e+000
0	 1.000000000000000e+001	 1.666649999985416e+000	 9.796206545665628e+000
0	 1.000000000000000e+001	 1.733319999987733e+000	 9.799900978032770e+000
0	 1.000000000000000e+001	 1.799989999990450e+000	 9.803693017673712e+000
0	 1.000000000000000e+001	 1.866659999993466e+000	 9.807584930089684e+000
0	 1.000000000000000e+001	 1.933329999996683e+000	 9.811578980782150e+000
0	 1.000000000000000e+001	 2.000000000000000e+000	 9.815677435252376e+000
0	 9.333302777352783e+000	 2.000000000000000e+000	 9.891508920493742e+000
0	 9.333302777352783e+000	 2.066670000003318e+000	 9.894161627157676e+000
0	 9.333302777352783e+000	 2.133340000006534e+000	 9.896826252717748e+000
0	 9.333302777352785e+000	 2.200010000009550e+000	 9.899503731925469e+000
0	 9.333302777352781e+000	 2.266680000012267e+000	 9.902194999532338e+000
0	 9.333302777352783e+000	 2.333350000014584e+000	 9.904900990289887e+000
0	 9.333302777352781e+000	 2.400020000016401e+000	 9.907622638949592e+000
0	 9.333302777352785e+000	 2.466690000017617e+000	 9.910360880263008e+000
0	 9.333302777352781e+000	 2.533360000018134e+000	 9.913116648981623e+000
0	 9.333302777352783e+000	 2.600030000017850e+000	 9.915890879856949e+000
0	 9.333302777352785e+000	 2.666700000016666e+000	 9.918684507640499e+000
0	 9.399973674588177e+000	 2.000000000000000e+000	 9.884338442482894e+000
0	 9.399973674588180e+000	 2.066670000003318e+000	 9.887102182203188e+000
0	 9.399973674588177e+000	 2.133340000006534e+000	 9.889878191020161e+000
0	 9.399973674588177e+000	 2.200010000009550e+000	 9.892667655265816e+000
0	 9.399973674588177e+000	 2.266680000012267e+000	 9.895471761272123e+000
0	 9.399973674588173e+000	 2.333350000014584e+000	 9.898291695371089e+000
0	 9.399973674588173e+000	 2.400020000016400e+000	 9.901128643894673e+000
0	 9.399973674588175e+000	 2.466690000017618e+000	 9.903983793174858e+000
0	 9.399973674588178e+000	 2.533360000018134e+000	 9.906858329543647e+000
0	 9.399973674588177e+000	 2.600030000017851e+000	 9.909753439333008e+000
0	 9.399973674588178e+000	 2.666700000016666e+000	 9.912670308874954e+000
0	 9.466644621844623e+000	 2.000000000000000e+000	 9.877088678005194e+000
0	 9.466644621844621e+000	 2.066670000003317e+000	 9.879968374872316e+000
0	 9.466644621844621e+000	 2.133340000006534e+000	 9.882861473307337e+000
0	 9.466644621844621e+000	 2.200010000009550e+000	 9.885769349523706e+000
0	 9.466644621844621e+000	 2.266680000012267e+000	 9.888693379734908e+000
0	 9.466644621844621e+000	 2.333350000014584e+000	 9.891634940154368e+000
0	 9.466644621844621e+000	 2.400020000016400e+000	 9.894595406995551e+000
0	 9.466644621844621e+000	 2.466690000017617e+000	 9.897576156471912e+000
0	 9.466644621844619e+000	 2.533360000018134e+000	 9.900578564796895e+000
0	 9.466644621844621e+000	 2.600030000017851e+000	 9.903604008183988e+000
0	 9.466644621844617e+000	 2.666700000016666e+000	 9.906653862846605e+000
0	 9.533315502450000e+000	 2.000000000000000e+000	 9.869754969391918e+000
0	 9.533315502450000e+000	 2.066670000003318e+000	 9.872757040377875e+000
0	 9.533315502450002e+000	 2.133340000006534e+000	 9.875774215295941e+000
0	 9.533315502449998e+000	 2.200010000009550e+000	 9.878807998543037e+000
0	 9.533315502450000e+000	 2.266680000012267e+000	 9.881859894516058e+000
0	 9.533315502449998e+000	 2.333350000014585e+000	 9.884931407611886e+000
0	 9.533315502450000e+000	 2.400020000016401e+000	 9.888024042227418e+000
0	 9.533315502450002e+000	 2.466690000017618e+000	 9.891139302759569e+000
0	 9.533315502449998e+000	 2.533360000018134e+000	 9.894278693605230e+000
0	 9.533315502449998e+000	 2.600030000017851e+000	 9.897443719161295e+000
0	 9.533315502450000e+000	 2.666700000016667e+000	 9.900635883824636e+000
0	 9.599986199732198e+000	 2.000000000000000e+000	 9.862332659479494e+000
0	 9.599986199732198e+000	 2.066670000003318e+000	 9.865465014385418e+000
0	 9.599986199732197e+000	 2.133340000006534e+000	 9.868614533106577e+000
0	 9.599986199732197e+000	 2.200010000009550e+000	 9.871782786525564e+000
0	 9.599986199732197e+000	 2.266680000012267e+000	 9.874971345525054e+000
0	 9.599986199732195e+000	 2.333350000014584e+000	 9.878181780987660e+000
0	 9.599986199732193e+000	 2.400020000016400e+000	 9.881415663796030e+000
0	 9.599986199732195e+000	 2.466690000017617e+000	 9.884674564832773e+000
0	 9.599986199732197e+000	 2.533360000018134e+000	 9.887960054980548e+000
0	 9.599986199732195e+000	 2.600030000017850e+000	 9.891273705121975e+000
0	 9.599986199732198e+000	 2.666700000016667e+000	 9.894617086139713e+000
0	 9.666656597019092e+000	 2.000000000000000e+000	 9.854817091609680e+000
0	 9.666656597019093e+000	 2.066670000003317e+000	 9.858089133013511e+000
0	 9.666656597019093e+000	 2.133340000006534e+000	 9.861380543263859e+000
0	 9.666656597019090e+000	 2.200010000009550e+000	 9.864692898031150e+000
0	 9.666656597019093e+000	 2.266680000012267e+000	 9.868027772985629e+000
0	 9.666656597019092e+000	 2.333350000014585e+000	 9.871386743797716e+000
0	 9.666656597019092e+000	 2.400020000016401e+000	 9.874771386137725e+000
0	 9.666656597019092e+000	 2.466690000017617e+000	 9.878183275676001e+000
0	 9.666656597019092e+000	 2.533360000018133e+000	 9.881623988082923e+000
0	 9.666656597019090e+000	 2.600030000017851e+000	 9.885095099028789e+000
0	 9.666656597019093e+000	 2.666700000016666e+000	 9.888598184184001e+000
0	 9.733326577638573e+000	 2.000000000000000e+000	 9.847203609629654e+000
0	 9.733326577638577e+000	 2.066670000003318e+000	 9.850626232833701e+000
0	 9.733326577638575e+000	 2.133340000006534e+000	 9.854070362696707e+000
0	 9.733326577638575e+000	 2.200010000009550e+000	 9.857537517977741e+000
0	 9.733326577638573e+000	 2.266680000012267e+000	 9.861029217435887e+000
0	 9.733326577638575e+000	 2.333350000014584e+000	 9.864546979830189e+000
0	 9.733326577638575e+000	 2.400020000016401e+000	 9.868092323919715e+000
0	 9.733326577638575e+000	 2.466690000017617e+000	 9.871666768463543e+000
0	 9.733326577638573e+000	 2.533360000018134e+000	 9.875271832220717e+000
0	 9.733326577638577e+000	 2.600030000017851e+000	 9.878909033950308e+000
0	 9.733326577638575e+000	 2.666700000016667e+000	 9.882579892411405e+000
0	 9.799996024918524e+000	 2.000000000000000e+000	 9.839487557892280e+000
0	 9.799996024918519e+000	 2.066670000003317e+000	 9.843073150870833e+000
0	 9.799996024918524e+000	 2.133340000006534e+000	 9.846682108738296e+000
0	 9.799996024918524e+000	 2.200010000009551e+000	 9.850315831641757e+000
0	 9.799996024918521e+000	 2.266680000012267e+000	 9.853975719728464e+000
0	 9.799996024918523e+000	 2.333350000014584e+000	 9.857663173145536e+000
0	 9.799996024918521e+000	 2.400020000016401e+000	 9.861379592040168e+000
0	 9.799996024918523e+000	 2.466690000017617e+000	 9.865126376559523e+000
0	 9.799996024918523e+000	 2.533360000018134e+000	 9.868904926850780e+000
0	 9.799996024918523e+000	 2.600030000017850e+000	 9.872716643061080e+000
0	 9.799996024918523e+000	 2.666700000016667e+000	 9.876562925337625e+000
0	 9.866664822186820e+000	 2.000000000000000e+000	 9.831664281256142e+000
0	 9.866664822186820e+000	 2.066670000003317e+000	 9.835426724603153e+000
0	 9.866664822186820e+000	 2.133340000006534e+000	 9.839213899126325e+000
0	 9.866664822186820e+000	 2.200010000009550e+000	 9.843027024658026e+000
0	 9.866664822186822e+000	 2.266680000012267e+000	 9.846867321030651e+000
0	 9.866664822186820e+000	 2.333350000014584e+000	 9.850736008076620e+000
0	 9.866664822186820e+000	 2.400020000016400e+000	 9.854634305628327e+000
0	 9.866664822186820e+000	 2.466690000017617e+000	 9.858563433518134e+000
0	 9.866664822186822e+000	 2.533360000018134e+000	 9.862524611578468e+000
0	 9.866664822186820e+000	 2.600030000017851e+000	 9.866519059641735e+000
0	 9.866664822186820e+000	 2.666700000016666e+000	 9.870547997540315e+000
0	 9.933332852771352e+000	 2.000000000000000e+000	 9.823729125085908e+000
0	 9.933332852771352e+000	 2.066670000003317e+000	 9.827683791962530e+000
0	 9.933332852771351e+000	 2.133340000006534e+000	 9.831663852003283e+000
0	 9.933332852771351e+000	 2.200010000009550e+000	 9.835670283020079e+000
0	 9.933332852771349e+000	 2.266680000012267e+000	 9.839704062824676e+000
0	 9.933332852771351e+000	 2.333350000014584e+000	 9.843766169228909e+000
0	 9.933332852771351e+000	 2.400020000016401e+000	 9.847857580044666e+000
0	 9.933332852771351e+000	 2.466690000017617e+000	 9.851979273083726e+000
0	 9.933332852771352e+000	 2.533360000018134e+000	 9.856132226157957e+000
0	 9.933332852771351e+000	 2.600030000017851e+000	 9.860317417079184e+000
0	 9.933332852771352e+000	 2.666700000016666e+000	 9.864535823659224e+000
0	 1.000000000000000e+001	 2.000000000000000e+000	 9.815677435252376e+000
0	 9.999999999999998e+000	 2.066670000003316e+000	 9.819841191334577e+000
0	 1.000000000000000e+001	 2.133340000006534e+000	 9.824030085916551e+000
0	 9.999999999999998e+000	 2.200010000009550e+000	 9.828244793080300e+000
0	 1.000000000000000e+001	 2.266680000012268e+000	 9.832485986907708e+000
0	 1.000000000000000e+001	 2.333350000014584e+000	 9.836754341480678e+000
0	 1.000000000000000e+001	 2.400020000016401e+000	 9.841050530881155e+000
0	 1.000000000000000e+001	 2.466690000017617e+000	 9.845375229191012e+000
0	 1.000000000000000e+001	 2.533360000018134e+000	 9.849729110492216e+000
0	 1.000000000000000e+001	 2.600030000017850e+000	 9.854112848866663e+000
0	 1.000000000000000e+001	 2.666700000016666e+000	 9.858527118396284e+000
0	 9.333302777352785e+000	 2.666700000016666e+000	 9.918684507640498e+000
0	 9.333302777352783e+000	 2.733360000014533e+000	 9.921478222139465e+000
0	 9.333302777352781e+000	 2.800020000011600e+000	 9.924253672842925e+000
0	 9.333302777352783e+000	 2.866680000008067e+000	 9.927011972451338e+000
0	 9.333302777352781e+000	 2.933340000004133e+000	 9.929754233665154e+000
0	 9.333302777352785e+000	 3.000000000000000e+000	 9.932481569184809e+000
0	 9.333302777352783e+000	 3.066659999995867e+000	 9.935195091710776e+000
0	 9.333302777352781e+000	 3.133319999991933e+000	 9.937895913943471e+000
0	 9.333302777352783e+000	 3.199979999988400e+000	 9.940585148583363e+000
0	 9.333302777352783e+000	 3.266639999985467e+000	 9.943263908330899e+000
0	 9.333302777352785e+000	 3.333299999983334e+000	 9.945933305886527e+000
0	 9.399973674588178e+000	 2.666700000016666e+000	 9.912670308874953e+000
0	 9.399973674588177e+000	 2.733360000014532e+000	 9.915588841020556e+000
0	 9.399973674588175e+000	 2.800020000011600e+000	 9.918489621831949e+000
0	 9.399973674588178e+000	 2.866680000008067e+000	 9.921373544858398e+000
0	 9.399973674588180e+000	 2.933340000004134e+000	 9.924241503649171e+000
0	 9.399973674588180e+000	 3.000000000000000e+000	 9.927094391753521e+000
0	 9.399973674588178e+000	 3.066659999995867e+000	 9.929933102720703e+000
0	 9.399973674588177e+000	 3.133319999991933e+000	 9.932758530099989e+000
0	 9.399973674588175e+000	 3.199979999988400e+000	 9.935571567440629e+000
0	 9.399973674588175e+000	 3.266639999985467e+000	 9.938373108291902e+000
0	 9.399973674588178e+000	 3.333299999983334e+000	 9.941164046203049e+000
0	 9.466644621844617e+000	 2.666700000016666e+000	 9.906653862846609e+000
0	 9.466644621844617e+000	 2.733360000014533e+000	 9.909706541143937e+000
0	 9.466644621844617e+000	 2.800020000011600e+000	 9.912740947987913e+000
0	 9.466644621844621e+000	 2.866680000008067e+000	 9.915757820356419e+000
0	 9.466644621844617e+000	 2.933340000004133e+000	 9.918757895227378e+000
0	 9.466644621844623e+000	 3.000000000000000e+000	 9.921741909578689e+000
0	 9.466644621844621e+000	 3.066659999995868e+000	 9.924710600388265e+000
0	 9.466644621844619e+000	 3.133319999991933e+000	 9.927664704634033e+000
0	 9.466644621844621e+000	 3.199979999988400e+000	 9.930604959293902e+000
0	 9.466644621844619e+000	 3.266639999985467e+000	 9.933532101345771e+000
0	 9.466644621844619e+000	 3.333299999983334e+000	 9.936446867767540e+000
0	 9.533315502450000e+000	 2.666700000016667e+000	 9.900635883824636e+000
0	 9.533315502450000e+000	 2.733360000014533e+000	 9.903831619351980e+000
0	 9.533315502449998e+000	 2.800020000011599e+000	 9.907007745048388e+000
0	 9.533315502450002e+000	 2.866680000008067e+000	 9.910164903899473e+000
0	 9.533315502450000e+000	 2.933340000004133e+000	 9.913303738890820e+000
0	 9.533315502449998e+000	 3.000000000000000e+000	 9.916424893008063e+000
0	 9.533315502449996e+000	 3.066659999995867e+000	 9.919529009236776e+000
0	 9.533315502450000e+000	 3.133319999991933e+000	 9.922616730562577e+000
0	 9.533315502450000e+000	 3.199979999988401e+000	 9.925688699971062e+000
0	 9.533315502449998e+000	 3.266639999985467e+000	 9.928745560447835e+000
0	 9.533315502450000e+000	 3.333299999983334e+000	 9.931787954978486e+000
0	 9.599986199732198e+000	 2.666700000016667e+000	 9.894617086139713e+000
0	 9.599986199732197e+000	 2.733360000014533e+000	 9.897964372502182e+000
0	 9.599986199732195e+000	 2.800020000011600e+000	 9.901290106718207e+000
0	 9.599986199732197e+000	 2.866680000008067e+000	 9.904594900359992e+000
0	 9.599986199732195e+000	 2.933340000004133e+000	 9.907879364999690e+000
0	 9.599986199732195e+000	 3.000000000000000e+000	 9.911144112209525e+000
0	 9.599986199732195e+000	 3.066659999995868e+000	 9.914389753561681e+000
0	 9.599986199732193e+000	 3.133319999991933e+000	 9.917616900628330e+000
0	 9.599986199732193e+000	 3.199979999988400e+000	 9.920826164981680e+000
0	 9.599986199732193e+000	 3.266639999985467e+000	 9.924018158193912e+000
0	 9.599986199732197e+000	 3.333299999983334e+000	 9.927193491837224e+000
0	 9.666656597019093e+000	 2.666700000016666e+000	 9.888598184184001e+000
0	 9.666656597019093e+000	 2.733360000014534e+000	 9.892105097467418e+000
0	 9.666656597019090e+000	 2.800020000011600e+000	 9.895588126669654e+000
0	 9.666656597019093e+000	 2.866680000008067e+000	 9.899047914528920e+000
0	 9.666656597019092e+000	 2.933340000004133e+000	 9.902485103783372e+000
0	 9.666656597019093e+000	 3.000000000000000e+000	 9.905900337171229e+000
0	 9.666656597019095e+000	 3.066659999995866e+000	 9.909294257430663e+000
0	 9.666656597019093e+000	 3.133319999991933e+000	 9.912667507299863e+000
0	 9.666656597019092e+000	 3.199979999988400e+000	 9.916020729517051e+000
0	 9.666656597019093e+000	 3.266639999985468e+000	 9.919354566820415e+000
0	 9.666656597019092e+000	 3.333299999983333e+000	 9.922669661948111e+000
0	 9.733326577638575e+000	 2.666700000016667e+000	 9.882579892411401e+000
0	 9.733326577638575e+000	 2.733360000014533e+000	 9.886254091135989e+000
0	 9.733326577638575e+000	 2.800020000011600e+000	 9.889901898542531e+000
0	 9.733326577638572e+000	 2.866680000008066e+000	 9.893524051115803e+000
0	 9.733326577638575e+000	 2.933340000004133e+000	 9.897121285340569e+000
0	 9.733326577638577e+000	 3.000000000000000e+000	 9.900694337701641e+000
0	 9.733326577638575e+000	 3.066659999995866e+000	 9.904243944683765e+000
0	 9.733326577638572e+000	 3.133319999991933e+000	 9.907770842771750e+000
0	 9.733326577638575e+000	 3.199979999988400e+000	 9.911275768450347e+000
0	 9.733326577638573e+000	 3.266639999985468e+000	 9.914759458204390e+000
0	 9.733326577638575e+000	 3.333299999983335e+000	 9.918222648518613e+000
0	 9.799996024918523e+000	 2.666700000016667e+000	 9.876562925337625e+000
0	 9.799996024918521e+000	 2.733360000014533e+000	 9.880411650411778e+000
0	 9.799996024918521e+000	 2.800020000011599e+000	 9.884231515944276e+000
0	 9.799996024918521e+000	 2.866680000008066e+000	 9.888023414748909e+000
0	 9.799996024918523e+000	 2.933340000004133e+000	 9.891788239639471e+000
0	 9.799996024918519e+000	 3.000000000000000e+000	 9.895526883429747e+000
0	 9.799996024918523e+000	 3.066659999995867e+000	 9.899240238933519e+000
0	 9.799996024918521e+000	 3.133319999991933e+000	 9.902929198964568e+000
0	 9.799996024918524e+000	 3.199979999988401e+000	 9.906594656336701e+000
0	 9.799996024918521e+000	 3.266639999985468e+000	 9.910237503863703e+000
0	 9.799996024918523e+000	 3.333299999983334e+000	 9.913858634359348e+000
0	 9.866664822186820e+000	 2.666700000016666e+000	 9.870547997540317e+000
0	 9.866664822186820e+000	 2.733360000014533e+000	 9.874578072214316e+000
0	 9.866664822186818e+000	 2.800020000011599e+000	 9.878577072450071e+000
0	 9.866664822186820e+000	 2.866680000008067e+000	 9.882546109975356e+000
0	 9.866664822186820e+000	 2.933340000004133e+000	 9.886486296517784e+000
0	 9.866664822186818e+000	 2.999999999999999e+000	 9.890398743805100e+000
0	 9.866664822186820e+000	 3.066659999995868e+000	 9.894284563564989e+000
0	 9.866664822186822e+000	 3.133319999991933e+000	 9.898144867525149e+000
0	 9.866664822186820e+000	 3.199979999988400e+000	 9.901980767413271e+000
0	 9.866664822186818e+000	 3.266639999985467e+000	 9.905793374957050e+000
0	 9.866664822186818e+000	 3.333299999983333e+000	 9.909583801884185e+000
0	 9.933332852771352e+000	 2.666700000016666e+000	 9.864535823659224e+000
0	 9.933332852771352e+000	 2.733360000014533e+000	 9.868753653478979e+000
0	 9.933332852771349e+000	 2.800020000011600e+000	 9.872938661603063e+000
0	 9.933332852771352e+000	 2.866680000008067e+000	 9.877092241261142e+000
0	 9.933332852771352e+000	 2.933340000004133e+000	 9.881215785682866e+000
0	 9.933332852771349e+000	 2.999999999999999e+000	 9.885310688097903e+000
0	 9.933332852771351e+000	 3.066659999995866e+000	 9.889378341735867e+000
0	 9.933332852771351e+000	 3.133319999991934e+000	 9.893420139826466e+000
0	 9.933332852771352e+000	 3.199979999988400e+000	 9.897437475599277e+000
0	 9.933332852771351e+000	 3.266639999985467e+000	 9.901431742284013e+000
0	 9.933332852771351e+000	 3.333299999983334e+000	 9.905404333110306e+000
0	 1.000000000000000e+001	 2.666700000016666e+000	 9.858527118396284e+000
0	 1.000000000000000e+001	 2.733360000014533e+000	 9.862938691157078e+000
0	 1.000000000000000e+001	 2.800020000011600e+000	 9.867316376914321e+000
0	 1.000000000000000e+001	 2.866680000008067e+000	 9.871661912991430e+000
0	 1.000000000000000e+001	 2.933340000004133e+000	 9.875977036711896e+000
0	 1.000000000000000e+001	 3.000000000000000e+000	 9.880263485399153e+000
0	 1.000000000000000e+001	 3.066659999995867e+000	 9.884522996376623e+000
0	 9.999999999999998e+000	 3.133319999991933e+000	 9.888757306967836e+000
0	 1.000000000000000e+001	 3.199979999988401e+000	 9.892968154496197e+000
0	 1.000000000000000e+001	 3.266639999985467e+000	 9.897157276285217e+000
0	 1.000000000000000e+001	 3.333299999983334e+000	 9.901326409658280e+000
0	 9.333302777352785e+000	 3.333299999983334e+000	 9.945933305886529e+000
0	 9.333302777352781e+000	 3.399969999982149e+000	 9.948572876594918e+000
0	 9.333302777352785e+000	 3.466639999981867e+000	 9.951160883928070e+000
0	 9.333302777352783e+000	 3.533309999982383e+000	 9.953697732186702e+000
0	 9.333302777352785e+000	 3.599979999983600e+000	 9.956183825671527e+000
0	 9.333302777352783e+000	 3.666649999985417e+000	 9.958619568683266e+000
0	 9.333302777352783e+000	 3.733319999987733e+000	 9.961005365522601e+000
0	 9.333302777352783e+000	 3.799989999990450e+000	 9.963341620490285e+000
0	 9.333302777352783e+000	 3.866659999993466e+000	 9.965628737886986e+000
0	 9.333302777352783e+000	 3.933329999996683e+000	 9.967867122013445e+000
0	 9.333302777352785e+000	 4.000000000000000e+000	 9.970057177170375e+000
0	 9.399973674588178e+000	 3.333299999983334e+000	 9.941164046203049e+000
0	 9.399973674588177e+000	 3.399969999982150e+000	 9.943923402828405e+000
0	 9.399973674588177e+000	 3.466639999981866e+000	 9.946629174689726e+000
0	 9.399973674588178e+000	 3.533309999982383e+000	 9.949281971433337e+000
0	 9.399973674588175e+000	 3.599979999983600e+000	 9.951882402705511e+000
0	 9.399973674588175e+000	 3.666649999985416e+000	 9.954431078152544e+000
0	 9.399973674588175e+000	 3.733319999987732e+000	 9.956928607420712e+000
0	 9.399973674588178e+000	 3.799989999990450e+000	 9.959375600156315e+000
0	 9.399973674588177e+000	 3.866659999993467e+000	 9.961772666005640e+000
0	 9.399973674588177e+000	 3.933329999996684e+000	 9.964120414614968e+000
0	 9.399973674588175e+000	 4.000000000000000e+000	 9.966419455630598e+000
0	 9.466644621844619e+000	 3.333299999983334e+000	 9.936446867767540e+000
0	 9.466644621844623e+000	 3.399969999982150e+000	 9.939328356839344e+000
0	 9.466644621844619e+000	 3.466639999981867e+000	 9.942154813143564e+000
0	 9.466644621844623e+000	 3.533309999982383e+000	 9.944927002213447e+000
0	 9.466644621844617e+000	 3.599979999983598e+000	 9.947645689582203e+000
0	 9.466644621844619e+000	 3.666649999985417e+000	 9.950311640783047e+000
0	 9.466644621844621e+000	 3.733319999987733e+000	 9.952925621349218e+000
0	 9.466644621844621e+000	 3.799989999990450e+000	 9.955488396813911e+000
0	 9.466644621844621e+000	 3.866659999993467e+000	 9.958000732710376e+000
0	 9.466644621844619e+000	 3.933329999996684e+000	 9.960463394571823e+000
0	 9.466644621844621e+000	 4.000000000000000e+000	 9.962877147931440e+000
0	 9.533315502450000e+000	 3.333299999983334e+000	 9.931787954978486e+000
0	 9.533315502449996e+000	 3.399969999982150e+000	 9.934795420550303e+000
0	 9.533315502449998e+000	 3.466639999981866e+000	 9.937746736097857e+000
0	 9.533315502450003e+000	 3.533309999982384e+000	 9.940642773583489e+000
0	 9.533315502450002e+000	 3.599979999983600e+000	 9.943484404969482e+000
0	 9.533315502450000e+000	 3.666649999985416e+000	 9.946272502218150e+000
0	 9.533315502450000e+000	 3.733319999987733e+000	 9.949007937291793e+000
0	 9.533315502449996e+000	 3.799989999990449e+000	 9.951691582152730e+000
0	 9.533315502449998e+000	 3.866659999993467e+000	 9.954324308763283e+000
0	 9.533315502449998e+000	 3.933329999996684e+000	 9.956906989085725e+000
0	 9.533315502450000e+000	 4.000000000000001e+000	 9.959440495082397e+000
0	 9.599986199732197e+000	 3.333299999983334e+000	 9.927193491837224e+000
0	 9.599986199732195e+000	 3.399969999982149e+000	 9.930332275453175e+000
0	 9.599986199732195e+000	 3.466639999981866e+000	 9.933413879900451e+000
0	 9.599986199732198e+000	 3.533309999982384e+000	 9.936439234112873e+000
0	 9.599986199732193e+000	 3.599979999983599e+000	 9.939409267024269e+000
0	 9.599986199732195e+000	 3.666649999985415e+000	 9.942324907568494e+000
0	 9.599986199732195e+000	 3.733319999987732e+000	 9.945187084679350e+000
0	 9.599986199732197e+000	 3.799989999990450e+000	 9.947996727290683e+000
0	 9.599986199732197e+000	 3.866659999993467e+000	 9.950754764336338e+000
0	 9.599986199732197e+000	 3.933329999996684e+000	 9.953462124750136e+000
0	 9.599986199732198e+000	 4.000000000000001e+000	 9.956119737465903e+000
0	 9.666656597019092e+000	 3.333299999983333e+000	 9.922669661948115e+000
0	 9.666656597019092e+000	 3.399969999982151e+000	 9.925946602609340e+000
0	 9.666656597019093e+000	 3.466639999981867e+000	 9.929165180438796e+000
0	 9.666656597019092e+000	 3.533309999982383e+000	 9.932326331884049e+000
0	 9.666656597019095e+000	 3.599979999983600e+000	 9.935430993392659e+000
0	 9.666656597019088e+000	 3.666649999985415e+000	 9.938480101412162e+000
0	 9.666656597019093e+000	 3.733319999987733e+000	 9.941474592390115e+000
0	 9.666656597019090e+000	 3.799989999990450e+000	 9.944415402774098e+000
0	 9.666656597019092e+000	 3.866659999993467e+000	 9.947303469011617e+000
0	 9.666656597019093e+000	 3.933329999996684e+000	 9.950139727550249e+000
0	 9.666656597019092e+000	 4.000000000000001e+000	 9.952925114837575e+000
0	 9.733326577638575e+000	 3.333299999983335e+000	 9.918222648518613e+000
0	 9.733326577638575e+000	 3.399969999982150e+000	 9.921646082649694e+000
0	 9.733326577638575e+000	 3.466639999981867e+000	 9.925009573140125e+000
0	 9.733326577638575e+000	 3.533309999982383e+000	 9.928314014492617e+000
0	 9.733326577638573e+000	 3.599979999983600e+000	 9.931560301209917e+000
0	 9.733326577638573e+000	 3.666649999985416e+000	 9.934749327794709e+000
0	 9.733326577638573e+000	 3.733319999987732e+000	 9.937881988749716e+000
0	 9.733326577638573e+000	 3.799989999990450e+000	 9.940959178577661e+000
0	 9.733326577638575e+000	 3.866659999993467e+000	 9.943981791781237e+000
0	 9.733326577638573e+000	 3.933329999996684e+000	 9.946950722863168e+000
0	 9.733326577638573e+000	 4.000000000000000e+000	 9.949866866326172e+000
0	 9.799996024918523e+000	 3.333299999983334e+000	 9.913858634359348e+000
0	 9.799996024918521e+000	 3.399969999982150e+000	 9.917438395774783e+000
0	 9.799996024918519e+000	 3.466639999981865e+000	 9.920955992971454e+000
0	 9.799996024918519e+000	 3.533309999982382e+000	 9.924412229047395e+000
0	 9.799996024918523e+000	 3.599979999983601e+000	 9.927807907100650e+000
0	 9.799996024918521e+000	 3.666649999985417e+000	 9.931143830229257e+000
0	 9.799996024918524e+000	 3.733319999987733e+000	 9.934420801531251e+000
0	 9.799996024918523e+000	 3.799989999990450e+000	 9.937639624104643e+000
0	 9.799996024918523e+000	 3.866659999993467e+000	 9.940801101047503e+000
0	 9.799996024918523e+000	 3.933329999996684e+000	 9.943906035457863e+000
0	 9.799996024918521e+000	 4.000000000000000e+000	 9.946955230433730e+000
0	 9.866664822186818e+000	 3.333299999983333e+000	 9.909583801884185e+000
0	 9.866664822186820e+000	 3.399969999982150e+000	 9.913331221754874e+000
0	 9.866664822186818e+000	 3.466639999981866e+000	 9.917013374439708e+000
0	 9.866664822186822e+000	 3.533309999982383e+000	 9.920630922170448e+000
0	 9.866664822186820e+000	 3.599979999983600e+000	 9.924184527178797e+000
0	 9.866664822186822e+000	 3.666649999985416e+000	 9.927674851696516e+000
0	 9.866664822186820e+000	 3.733319999987733e+000	 9.931102557955274e+000
0	 9.866664822186818e+000	 3.799989999990450e+000	 9.934468308186840e+000
0	 9.866664822186820e+000	 3.866659999993466e+000	 9.937772764622899e+000
0	 9.866664822186818e+000	 3.933329999996683e+000	 9.941016589495240e+000
0	 9.866664822186820e+000	 4.000000000000001e+000	 9.944200445035500e+000
0	 9.933332852771351e+000	 3.333299999983334e+000	 9.905404333110306e+000
0	 9.933332852771354e+000	 3.399969999982150e+000	 9.909332239929924e+000
0	 9.933332852771351e+000	 3.466639999981867e+000	 9.913190651591719e+000
0	 9.933332852771352e+000	 3.533309999982383e+000	 9.916980039997132e+000
0	 9.933332852771352e+000	 3.599979999983600e+000	 9.920700877047681e+000
0	 9.933332852771352e+000	 3.666649999985416e+000	 9.924353634644810e+000
0	 9.933332852771349e+000	 3.733319999987733e+000	 9.927938784689932e+000
0	 9.933332852771351e+000	 3.799989999990450e+000	 9.931456799084613e+000
0	 9.933332852771351e+000	 3.866659999993466e+000	 9.934908149730191e+000
0	 9.933332852771351e+000	 3.933329999996684e+000	 9.938293308528182e+000
0	 9.933332852771351e+000	 4.000000000000000e+000	 9.941612747380088e+000
0	 1.000000000000000e+001	 3.333299999983334e+000	 9.901326409658280e+000
0	 1.000000000000000e+001	 3.399969999982150e+000	 9.905449129209757e+000
0	 1.000000000000000e+001	 3.466639999981866e+000	 9.909496758014274e+000
0	 1.000000000000000e+001	 3.533309999982383e+000	 9.913469528176245e+000
0	 1.000000000000000e+001	 3.599979999983600e+000	 9.917367671800077e+000
0	 1.000000000000000e+001	 3.666649999985416e+000	 9.921191420990187e+000
0	 1.000000000000000e+001	 3.733319999987733e+000	 9.924941007850983e+000
0	 1.000000000000000e+001	 3.799989999990449e+000	 9.928616664486878e+000
0	 1.000000000000000e+001	 3.866659999993467e+000	 9.932218623002299e+000
0	 1.000000000000000e+001	 3.933329999996684e+000	 9.935747115501611e+000
0	 1.000000000000000e+001	 4.000000000000000e+000	 9.939202374089275e+000
0	 9.333302777352785e+000	 4.000000000000000e+000	 9.970057177170371e+000
0	 9.333302777352783e+000	 4.066670000003317e+000	 9.972193644374260e+000
0	 9.333302777352783e+000	 4.133340000006534e+000	 9.974271178062955e+000
0	 9.333302777352783e+000	 4.200010000009550e+000	 9.976290052669222e+000
0	 9.333302777352779e+000	 4.266680000012268e+000	 9.978250542625819e+000
0	 9.333302777352783e+000	 4.333350000014584e+000	 9.980152922365498e+000
0	 9.333302777352783e+000	 4.400020000016402e+000	 9.981997466321008e+000
0	 9.333302777352783e+000	 4.466690000017617e+000	 9.983784448925098e+000
0	 9.333302777352785e+000	 4.533360000018134e+000	 9.985514144610526e+000
0	 9.333302777352783e+000	 4.600030000017850e+000	 9.987186827810044e+000
0	 9.333302777352785e+000	 4.666700000016667e+000	 9.988802772956381e+000
0	 9.399973674588175e+000	 4.000000000000000e+000	 9.966419455630598e+000
0	 9.399973674588178e+000	 4.066670000003318e+000	 9.968663978547367e+000
0	 9.399973674588177e+000	 4.133340000006535e+000	 9.970847849784395e+000
0	 9.399973674588177e+000	 4.200010000009550e+000	 9.972971194374356e+000
0	 9.399973674588177e+000	 4.266680000012267e+000	 9.975034137349924e+000
0	 9.399973674588175e+000	 4.333350000014584e+000	 9.977036803743776e+000
0	 9.399973674588175e+000	 4.400020000016400e+000	 9.978979318588575e+000
0	 9.399973674588177e+000	 4.466690000017619e+000	 9.980861806917021e+000
0	 9.399973674588178e+000	 4.533360000018135e+000	 9.982684393761748e+000
0	 9.399973674588177e+000	 4.600030000017850e+000	 9.984447204155464e+000
0	 9.399973674588175e+000	 4.666700000016666e+000	 9.986150363130815e+000
0	 9.466644621844621e+000	 4.000000000000000e+000	 9.962877147931444e+000
0	 9.466644621844621e+000	 4.066670000003317e+000	 9.965235048768415e+000
0	 9.466644621844621e+000	 4.133340000006535e+000	 9.967529656177280e+000
0	 9.466644621844621e+000	 4.200010000009550e+000	 9.969760990364351e+000
0	 9.466644621844621e+000	 4.266680000012267e+000	 9.971929071536000e+000
0	 9.466644621844619e+000	 4.333350000014583e+000	 9.974033919898524e+000
0	 9.466644621844621e+000	 4.400020000016401e+000	 9.976075555658291e+000
0	 9.466644621844623e+000	 4.466690000017619e+000	 9.978053999021613e+000
0	 9.466644621844619e+000	 4.533360000018133e+000	 9.979969270194824e+000
0	 9.466644621844623e+000	 4.600030000017850e+000	 9.981821389384288e+000
0	 9.466644621844619e+000	 4.666700000016665e+000	 9.983610376796293e+000
0	 9.533315502450000e+000	 4.000000000000001e+000	 9.959440495082397e+000
0	 9.533315502450000e+000	 4.066670000003318e+000	 9.961916372120317e+000
0	 9.533315502450002e+000	 4.133340000006534e+000	 9.964325557560432e+000
0	 9.533315502449998e+000	 4.200010000009551e+000	 9.966668011355981e+000
0	 9.533315502449998e+000	 4.266680000012266e+000	 9.968943693460156e+000
0	 9.533315502449996e+000	 4.333350000014584e+000	 9.971152563826157e+000
0	 9.533315502450000e+000	 4.400020000016401e+000	 9.973294582407183e+000
0	 9.533315502450000e+000	 4.466690000017619e+000	 9.975369709156432e+000
0	 9.533315502450000e+000	 4.533360000018133e+000	 9.977377904027106e+000
0	 9.533315502449996e+000	 4.600030000017851e+000	 9.979319126972413e+000
0	 9.533315502450000e+000	 4.666700000016667e+000	 9.981193337945548e+000
0	 9.599986199732198e+000	 4.000000000000001e+000	 9.956119737465905e+000
0	 9.599986199732198e+000	 4.066670000003319e+000	 9.958717465039493e+000
0	 9.599986199732193e+000	 4.133340000006534e+000	 9.961244513586381e+000
0	 9.599986199732198e+000	 4.200010000009551e+000	 9.963700827379745e+000
0	 9.599986199732197e+000	 4.266680000012268e+000	 9.966086350692812e+000
0	 9.599986199732197e+000	 4.333350000014584e+000	 9.968401027798787e+000
0	 9.599986199732197e+000	 4.400020000016402e+000	 9.970644802970888e+000
0	 9.599986199732197e+000	 4.466690000017617e+000	 9.972817620482308e+000
0	 9.599986199732198e+000	 4.533360000018133e+000	 9.974919424606263e+000
0	 9.599986199732197e+000	 4.600030000017851e+000	 9.976950159615978e+000
0	 9.599986199732193e+000	 4.666700000016665e+000	 9.978909769784623e+000
0	 9.666656597019092e+000	 4.000000000000001e+000	 9.952925114837575e+000
0	 9.666656597019095e+000	 4.066670000003319e+000	 9.955647843316127e+000
0	 9.666656597019092e+000	 4.133340000006534e+000	 9.958295483241319e+000
0	 9.666656597019092e+000	 4.200010000009552e+000	 9.960868007779920e+000
0	 9.666656597019093e+000	 4.266680000012268e+000	 9.963365390098648e+000
0	 9.666656597019090e+000	 4.333350000014583e+000	 9.965787603364316e+000
0	 9.666656597019093e+000	 4.400020000016402e+000	 9.968134620743651e+000
0	 9.666656597019090e+000	 4.466690000017617e+000	 9.970406415403424e+000
0	 9.666656597019092e+000	 4.533360000018133e+000	 9.972602960510386e+000
0	 9.666656597019092e+000	 4.600030000017851e+000	 9.974724229231281e+000
0	 9.666656597019092e+000	 4.666700000016665e+000	 9.976770194732884e+000
0	 9.733326577638573e+000	 4.000000000000000e+000	 9.949866866326172e+000
0	 9.733326577638577e+000	 4.066670000003318e+000	 9.952717022094058e+000
0	 9.733326577638575e+000	 4.133340000006535e+000	 9.955487424845302e+000
0	 9.733326577638575e+000	 4.200010000009550e+000	 9.958178121214647e+000
0	 9.733326577638575e+000	 4.266680000012268e+000	 9.960789157836782e+000
0	 9.733326577638573e+000	 4.333350000014585e+000	 9.963320581346466e+000
0	 9.733326577638573e+000	 4.400020000016402e+000	 9.965772438378409e+000
0	 9.733326577638575e+000	 4.466690000017617e+000	 9.968144775567314e+000
0	 9.733326577638573e+000	 4.533360000018134e+000	 9.970437639547928e+000
0	 9.733326577638577e+000	 4.600030000017851e+000	 9.972651076954946e+000
0	 9.733326577638575e+000	 4.666700000016666e+000	 9.974785134423108e+000
0	 9.799996024918521e+000	 4.000000000000000e+000	 9.946955230433730e+000
0	 9.799996024918523e+000	 4.066670000003319e+000	 9.949934515870927e+000
0	 9.799996024918523e+000	 4.133340000006534e+000	 9.952829296052219e+000
0	 9.799996024918523e+000	 4.200010000009551e+000	 9.955639735656003e+000
0	 9.799996024918521e+000	 4.266680000012268e+000	 9.958365999360741e+000
0	 9.799996024918521e+000	 4.333350000014583e+000	 9.961008251844861e+000
0	 9.799996024918523e+000	 4.400020000016402e+000	 9.963566657786801e+000
0	 9.799996024918523e+000	 4.466690000017618e+000	 9.966041381864994e+000
0	 9.799996024918523e+000	 4.533360000018134e+000	 9.968432588757896e+000
0	 9.799996024918523e+000	 4.600030000017851e+000	 9.970740443143889e+000
0	 9.799996024918523e+000	 4.666700000016666e+000	 9.972965109701434e+000
0	 9.866664822186820e+000	 4.000000000000001e+000	 9.944200445035500e+000
0	 9.866664822186820e+000	 4.066670000003317e+000	 9.947309838498217e+000
0	 9.866664822186820e+000	 4.133340000006534e+000	 9.950330053849795e+000
0	 9.866664822186818e+000	 4.200010000009550e+000	 9.953261418390005e+000
0	 9.866664822186822e+000	 4.266680000012268e+000	 9.956104259418472e+000
0	 9.866664822186818e+000	 4.333350000014583e+000	 9.958858904234980e+000
0	 9.866664822186818e+000	 4.400020000016401e+000	 9.961525680139209e+000
0	 9.866664822186820e+000	 4.466690000017617e+000	 9.964104914430898e+000
0	 9.866664822186820e+000	 4.533360000018134e+000	 9.966596934409678e+000
0	 9.866664822186818e+000	 4.600030000017850e+000	 9.969002067375319e+000
0	 9.866664822186822e+000	 4.666700000016667e+000	 9.971320640627484e+000
0	 9.933332852771351e+000	 4.000000000000000e+000	 9.941612747380088e+000
0	 9.933332852771352e+000	 4.066670000003317e+000	 9.944852503181146e+000
0	 9.933332852771352e+000	 4.133340000006534e+000	 9.947998654559676e+000
0	 9.933332852771349e+000	 4.200010000009551e+000	 9.951051736016520e+000
0	 9.933332852771349e+000	 4.266680000012266e+000	 9.954012282052434e+000
0	 9.933332852771351e+000	 4.333350000014583e+000	 9.956880827168241e+000
0	 9.933332852771351e+000	 4.400020000016402e+000	 9.959657905864768e+000
0	 9.933332852771351e+000	 4.466690000017617e+000	 9.962344052642823e+000
0	 9.933332852771351e+000	 4.533360000018134e+000	 9.964939802003199e+000
0	 9.933332852771351e+000	 4.600030000017850e+000	 9.967445688446746e+000
0	 9.933332852771351e+000	 4.666700000016666e+000	 9.969862246474229e+000
0	 1.000000000000000e+001	 4.000000000000000e+000	 9.939202374089275e+000
0	 1.000000000000000e+001	 4.066670000003317e+000	 9.942572022478869e+000
0	 1.000000000000000e+001	 4.133340000006535e+000	 9.945844053837437e+000
0	 9.999999999999998e+000	 4.200010000009550e+000	 9.949019254449469e+000
0	 1.000000000000000e+001	 4.266680000012268e+000	 9.952098410599447e+000
0	 1.000000000000000e+001	 4.333350000014584e+000	 9.955082308571859e+000
0	 1.000000000000000e+001	 4.400020000016401e+000	 9.957971734651245e+000
0	 1.000000000000000e+001	 4.466690000017617e+000	 9.960767475122058e+000
0	 1.000000000000000e+001	 4.533360000018134e+000	 9.963470316268777e+000
0	 9.999999999999998e+000	 4.600030000017850e+000	 9.966081044375910e+000
0	 1.000000000000000e+001	 4.666700000016666e+000	 9.968600445727974e+000
0	 9.333302777352785e+000	 4.666700000016667e+000	 9.988802772956381e+000
0	 9.333302777352783e+000	 4.733360000014533e+000	 9.990357278771183e+000
0	 9.333302777352783e+000	 4.800020000011600e+000	 9.991845779303036e+000
0	 9.333302777352781e+000	 4.866680000008067e+000	 9.993268037560481e+000
0	 9.333302777352781e+000	 4.933340000004134e+000	 9.994623816552011e+000
0	 9.333302777352783e+000	 5.000000000000000e+000	 9.995912879286152e+000
0	 9.333302777352785e+000	 5.066659999995867e+000	 9.997134988771441e+000
0	 9.333302777352783e+000	 5.133319999991935e+000	 9.998289908016385e+000
0	 9.333302777352783e+000	 5.199979999988400e+000	 9.999377400029523e+000
0	 9.333302777352781e+000	 5.266639999985467e+000	 1.000039722781938e+001
0	 9.333302777352785e+000	 5.333299999983335e+000	 1.000134915439449e+001
0	 9.399973674588175e+000	 4.666700000016666e+000	 9.986150363130816e+000
0	 9.399973674588171e+000	 4.733360000014533e+000	 9.987789061849387e+000
0	 9.399973674588175e+000	 4.800020000011601e+000	 9.989358856569730e+000
0	 9.399973674588180e+000	 4.866680000008066e+000	 9.990859666988966e+000
0	 9.399973674588180e+000	 4.933340000004133e+000	 9.992291412804201e+000
0	 9.399973674588180e+000	 5.000000000000001e+000	 9.993654013712535e+000
0	 9.399973674588178e+000	 5.066659999995868e+000	 9.994947389411072e+000
0	 9.399973674588178e+000	 5.133319999991933e+000	 9.996171459596937e+000
0	 9.399973674588175e+000	 5.199979999988400e+000	 9.997326143967241e+000
0	 9.399973674588177e+000	 5.266639999985467e+000	 9.998411362219100e+000
0	 9.399973674588177e+000	 5.333299999983334e+000	 9.999427034049612e+000
0	 9.466644621844619e+000	 4.666700000016665e+000	 9.983610376796293e+000
0	 9.466644621844619e+000	 4.733360000014534e+000	 9.985331819105930e+000
0	 9.466644621844617e+000	 4.800020000011598e+000	 9.986981839723576e+000
0	 9.466644621844619e+000	 4.866680000008067e+000	 9.988560473155374e+000
0	 9.466644621844619e+000	 4.933340000004132e+000	 9.990067753907436e+000
0	 9.466644621844621e+000	 5.000000000000000e+000	 9.991503716485919e+000
0	 9.466644621844621e+000	 5.066659999995867e+000	 9.992868395396956e+000
0	 9.466644621844621e+000	 5.133319999991936e+000	 9.994161825146687e+000
0	 9.466644621844619e+000	 5.199979999988400e+000	 9.995384040241245e+000
0	 9.466644621844619e+000	 5.266639999985467e+000	 9.996535075186772e+000
0	 9.466644621844617e+000	 5.333299999983333e+000	 9.997614964489427e+000
0	 9.533315502450000e+000	 4.666700000016667e+000	 9.981193337945548e+000
0	 9.533315502449998e+000	 4.733360000014534e+000	 9.982996852818239e+000
0	 9.533315502450000e+000	 4.800020000011601e+000	 9.984726637964071e+000
0	 9.533315502450000e+000	 4.866680000008066e+000	 9.986382800819243e+000
0	 9.533315502449998e+000	 4.933340000004134e+000	 9.987965448819956e+000
0	 9.533315502449998e+000	 5.000000000000000e+000	 9.989474689402384e+000
0	 9.533315502449996e+000	 5.066659999995867e+000	 9.990910630002730e+000
0	 9.533315502450003e+000	 5.133319999991934e+000	 9.992273378057202e+000
0	 9.533315502450000e+000	 5.199979999988401e+000	 9.993563041001970e+000
0	 9.533315502450002e+000	 5.266639999985467e+000	 9.994779726273272e+000
0	 9.533315502450000e+000	 5.333299999983334e+000	 9.995923541307281e+000
0	 9.599986199732193e+000	 4.666700000016665e+000	 9.978909769784623e+000
0	 9.599986199732197e+000	 4.733360000014533e+000	 9.980795464473680e+000
0	 9.599986199732197e+000	 4.800020000011600e+000	 9.982605159700661e+000
0	 9.599986199732197e+000	 4.866680000008067e+000	 9.984338993952964e+000
0	 9.599986199732195e+000	 4.933340000004134e+000	 9.985997105718026e+000
0	 9.599986199732195e+000	 5.000000000000000e+000	 9.987579633483286e+000
0	 9.599986199732193e+000	 5.066659999995867e+000	 9.989086715736153e+000
0	 9.599986199732195e+000	 5.133319999991934e+000	 9.990518490964048e+000
0	 9.599986199732195e+000	 5.199979999988400e+000	 9.991875097654418e+000
0	 9.599986199732197e+000	 5.266639999985468e+000	 9.993156674294687e+000
0	 9.599986199732197e+000	 5.333299999983335e+000	 9.994363359372292e+000
0	 9.666656597019092e+000	 4.666700000016665e+000	 9.976770194732888e+000
0	 9.666656597019093e+000	 4.733360000014534e+000	 9.978738954769723e+000
0	 9.666656597019092e+000	 4.800020000011599e+000	 9.980629312552837e+000
0	 9.666656597019092e+000	 4.866680000008065e+000	 9.982441395741805e+000
0	 9.666656597019093e+000	 4.933340000004134e+000	 9.984175331996138e+000
0	 9.666656597019095e+000	 5.000000000000001e+000	 9.985831248975389e+000
0	 9.666656597019095e+000	 5.066659999995866e+000	 9.987409274339077e+000
0	 9.666656597019093e+000	 5.133319999991934e+000	 9.988909535746785e+000
0	 9.666656597019092e+000	 5.199979999988400e+000	 9.990332160858049e+000
0	 9.666656597019093e+000	 5.266639999985467e+000	 9.991677277332405e+000
0	 9.666656597019092e+000	 5.333299999983335e+000	 9.992945012829399e+000
0	 9.733326577638575e+000	 4.666700000016666e+000	 9.974785134423108e+000
0	 9.733326577638575e+000	 4.733360000014533e+000	 9.976838623613842e+000
0	 9.733326577638573e+000	 4.800020000011599e+000	 9.978811003350170e+000
0	 9.733326577638573e+000	 4.866680000008066e+000	 9.980702348583929e+000
0	 9.733326577638575e+000	 4.933340000004135e+000	 9.982512734266885e+000
0	 9.733326577638573e+000	 5.000000000000000e+000	 9.984242235350859e+000
0	 9.733326577638575e+000	 5.066659999995866e+000	 9.985890926787654e+000
0	 9.733326577638572e+000	 5.133319999991933e+000	 9.987458883529092e+000
0	 9.733326577638575e+000	 5.199979999988400e+000	 9.988946180526975e+000
0	 9.733326577638575e+000	 5.266639999985469e+000	 9.990352892733135e+000
0	 9.733326577638575e+000	 5.333299999983334e+000	 9.991679095099373e+000
0	 9.799996024918523e+000	 4.666700000016666e+000	 9.972965109701436e+000
0	 9.799996024918519e+000	 4.733360000014532e+000	 9.975105770123696e+000
0	 9.799996024918521e+000	 4.800020000011600e+000	 9.977162138132336e+000
0	 9.799996024918523e+000	 4.866680000008067e+000	 9.979134194090451e+000
0	 9.799996024918521e+000	 4.933340000004134e+000	 9.981021918361082e+000
0	 9.799996024918521e+000	 5.000000000000000e+000	 9.982825291307295e+000
0	 9.799996024918523e+000	 5.066659999995867e+000	 9.984544293292107e+000
0	 9.799996024918523e+000	 5.133319999991935e+000	 9.986178904678601e+000
0	 9.799996024918523e+000	 5.199979999988400e+000	 9.987729105829855e+000
0	 9.799996024918523e+000	 5.266639999985467e+000	 9.989194877108897e+000
0	 9.799996024918523e+000	 5.333299999983334e+000	 9.990576198878806e+000
0	 9.866664822186822e+000	 4.666700000016667e+000	 9.971320640627482e+000
0	 9.866664822186822e+000	 4.733360000014533e+000	 9.973551692626938e+000
0	 9.866664822186822e+000	 4.800020000011601e+000	 9.975694622149044e+000
0	 9.866664822186820e+000	 4.866680000008067e+000	 9.977749273085410e+000
0	 9.866664822186818e+000	 4.933340000004133e+000	 9.979715489327754e+000
0	 9.866664822186820e+000	 4.999999999999999e+000	 9.981593114767671e+000
0	 9.866664822186820e+000	 5.066659999995866e+000	 9.983381993296915e+000
0	 9.866664822186820e+000	 5.133319999991935e+000	 9.985081968807098e+000
0	 9.866664822186822e+000	 5.199979999988400e+000	 9.986692885189925e+000
0	 9.866664822186822e+000	 5.266639999985468e+000	 9.988214586337071e+000
0	 9.866664822186820e+000	 5.333299999983334e+000	 9.989646916140186e+000
0	 9.933332852771351e+000	 4.666700000016666e+000	 9.969862246474230e+000
0	 9.933332852771351e+000	 4.733360000014533e+000	 9.972187688661443e+000
0	 9.933332852771349e+000	 4.800020000011599e+000	 9.974420359860080e+000
0	 9.933332852771352e+000	 4.866680000008067e+000	 9.976559925605752e+000
0	 9.933332852771351e+000	 4.933340000004133e+000	 9.978606051434008e+000
0	 9.933332852771351e+000	 5.000000000000000e+000	 9.980558402880451e+000
0	 9.933332852771351e+000	 5.066659999995868e+000	 9.982416645480736e+000
0	 9.933332852771352e+000	 5.133319999991934e+000	 9.984180444770384e+000
0	 9.933332852771351e+000	 5.199979999988401e+000	 9.985849466285018e+000
0	 9.933332852771351e+000	 5.266639999985467e+000	 9.987423375560265e+000
0	 9.933332852771351e+000	 5.333299999983335e+000	 9.988901838131776e+000
0	 1.000000000000000e+001	 4.666700000016666e+000	 9.968600445727976e+000
0	 1.000000000000000e+001	 4.733360000014534e+000	 9.971025054975041e+000
0	 1.000000000000000e+001	 4.800020000011600e+000	 9.973351254935352e+000
0	 1.000000000000000e+001	 4.866680000008066e+000	 9.975578490901290e+000
0	 1.000000000000000e+001	 4.933340000004134e+000	 9.977706208165174e+000
0	 1.000000000000000e+001	 5.000000000000000e+000	 9.979733852019384e+000
0	 1.000000000000000e+001	 5.066659999995866e+000	 9.981660867756270e+000
0	 9.999999999999998e+000	 5.133319999991934e+000	 9.983486700668161e+000
0	 1.000000000000000e+001	 5.199979999988400e+000	 9.985210796047438e+000
0	 1.000000000000000e+001	 5.266639999985467e+000	 9.986832599186474e+000
0	 1.000000000000000e+001	 5.333299999983334e+000	 9.988351555377610e+000
0	 9.333302777352785e+000	 5.333299999983335e+000	 1.000134915439449e+001
0	 9.333302777352783e+000	 5.399969999982150e+000	 1.000224076105125e+001
0	 9.333302777352785e+000	 5.466639999981866e+000	 1.000307928130864e+001
0	 9.333302777352781e+000	 5.533309999982382e+000	 1.000386436960394e+001
0	 9.333302777352783e+000	 5.599979999983600e+000	 1.000459568037449e+001
0	 9.333302777352781e+000	 5.666649999985415e+000	 1.000527286805758e+001
0	 9.333302777352783e+000	 5.733319999987732e+000	 1.000589558709049e+001
0	 9.333302777352783e+000	 5.799989999990450e+000	 1.000646349191055e+001
0	 9.333302777352781e+000	 5.866659999993467e+000	 1.000697623695505e+001
0	 9.333302777352783e+000	 5.933329999996682e+000	 1.000743347666129e+001
0	 9.333302777352785e+000	 6.000000000000001e+000	 1.000783486546657e+001
0	 9.399973674588177e+000	 5.333299999983334e+000	 9.999427034049610e+000
0	 9.399973674588177e+000	 5.399969999982148e+000	 1.000038069896680e+001
0	 9.399973674588177e+000	 5.466639999981865e+000	 1.000127936306102e+001
0	 9.399973674588175e+000	 5.533309999982382e+000	 1.000212258733937e+001
0	 9.399973674588175e+000	 5.599979999983599e+000	 1.000290993280899e+001
0	 9.399973674588175e+000	 5.666649999985416e+000	 1.000364096047701e+001
0	 9.399973674588175e+000	 5.733319999987733e+000	 1.000431523135052e+001
0	 9.399973674588177e+000	 5.799989999990449e+000	 1.000493230643666e+001
0	 9.399973674588175e+000	 5.866659999993465e+000	 1.000549174674254e+001
0	 9.399973674588177e+000	 5.933329999996684e+000	 1.000599311327529e+001
0	 9.399973674588177e+000	 6.000000000000002e+000	 1.000643596704199e+001
0	 9.466644621844617e+000	 5.333299999983333e+000	 9.997614964489426e+000
0	 9.466644621844621e+000	 5.399969999982151e+000	 9.998630888512494e+000
0	 9.466644621844619e+000	 5.466639999981867e+000	 9.999589353872617e+000
0	 9.466644621844621e+000	 5.533309999982384e+000	 1.000048985445051e+001
0	 9.466644621844619e+000	 5.599979999983598e+000	 1.000133188412682e+001
0	 9.466644621844623e+000	 5.666649999985418e+000	 1.000211493678228e+001
0	 9.466644621844619e+000	 5.733319999987733e+000	 1.000283850629759e+001
0	 9.466644621844621e+000	 5.799989999990449e+000	 1.000350208655342e+001
0	 9.466644621844619e+000	 5.866659999993467e+000	 1.000410517143047e+001
0	 9.466644621844617e+000	 5.933329999996683e+000	 1.000464725480947e+001
0	 9.466644621844619e+000	 5.999999999999998e+000	 1.000512783057108e+001
0	 9.533315502450000e+000	 5.333299999983334e+000	 9.995923541307279e+000
0	 9.533315502449996e+000	 5.399969999982149e+000	 9.997001125802933e+000
0	 9.533315502449998e+000	 5.466639999981865e+000	 9.998018350948900e+000
0	 9.533315502450003e+000	 5.533309999982383e+000	 9.998974669802863e+000
0	 9.533315502450000e+000	 5.599979999983599e+000	 9.999869535422539e+000
0	 9.533315502449998e+000	 5.666649999985416e+000	 1.000070240086560e+001
0	 9.533315502449998e+000	 5.733319999987733e+000	 1.000147271918976e+001
0	 9.533315502450002e+000	 5.799989999990449e+000	 1.000217994345270e+001
0	 9.533315502450002e+000	 5.866659999993469e+000	 1.000282352671210e+001
0	 9.533315502449998e+000	 5.933329999996682e+000	 1.000340292202569e+001
0	 9.533315502450000e+000	 6.000000000000000e+000	 1.000391758245114e+001
0	 9.599986199732197e+000	 5.333299999983335e+000	 9.994363359372292e+000
0	 9.599986199732195e+000	 5.399969999982151e+000	 9.995501206238410e+000
0	 9.599986199732197e+000	 5.466639999981865e+000	 9.996575450790548e+000
0	 9.599986199732197e+000	 5.533309999982383e+000	 9.997585531566799e+000
0	 9.599986199732193e+000	 5.599979999983598e+000	 9.998530887105178e+000
0	 9.599986199732195e+000	 5.666649999985415e+000	 9.999410955943739e+000
0	 9.599986199732195e+000	 5.733319999987731e+000	 1.000022517662053e+001
0	 9.599986199732198e+000	 5.799989999990449e+000	 1.000097298767359e+001
0	 9.599986199732195e+000	 5.866659999993466e+000	 1.000165382764093e+001
0	 9.599986199732195e+000	 5.933329999996682e+000	 1.000226713506065e+001
0	 9.599986199732197e+000	 5.999999999999998e+000	 1.000281234847076e+001
0	 9.666656597019092e+000	 5.333299999983335e+000	 9.992945012829399e+000
0	 9.666656597019093e+000	 5.399969999982152e+000	 9.994140924505023e+000
0	 9.666656597019095e+000	 5.466639999981866e+000	 9.995269749193744e+000
0	 9.666656597019093e+000	 5.533309999982384e+000	 9.996330937217529e+000
0	 9.666656597019095e+000	 5.599979999983598e+000	 9.997323938898324e+000
0	 9.666656597019090e+000	 5.666649999985415e+000	 9.998248204558085e+000
0	 9.666656597019093e+000	 5.733319999987732e+000	 9.999103184518765e+000
0	 9.666656597019092e+000	 5.799989999990450e+000	 9.999888329102333e+000
0	 9.666656597019095e+000	 5.866659999993467e+000	 1.000060308863074e+001
0	 9.666656597019093e+000	 5.933329999996684e+000	 1.000124691342593e+001
0	 9.666656597019092e+000	 6.000000000000001e+000	 1.000181925380986e+001
0	 9.733326577638575e+000	 5.333299999983334e+000	 9.991679095099373e+000
0	 9.733326577638577e+000	 5.399969999982150e+000	 9.992930074574714e+000
0	 9.733326577638575e+000	 5.466639999981868e+000	 9.994110341250009e+000
0	 9.733326577638575e+000	 5.533309999982384e+000	 9.995219383535130e+000
0	 9.733326577638572e+000	 5.599979999983598e+000	 9.996256689840035e+000
0	 9.733326577638573e+000	 5.666649999985416e+000	 9.997221748574589e+000
0	 9.733326577638575e+000	 5.733319999987732e+000	 9.998114048148779e+000
0	 9.733326577638572e+000	 5.799989999990449e+000	 9.998933076972469e+000
0	 9.733326577638573e+000	 5.866659999993466e+000	 9.999678323455582e+000
0	 9.733326577638573e+000	 5.933329999996683e+000	 1.000034927600804e+001
0	 9.733326577638575e+000	 6.000000000000001e+000	 1.000094542303978e+001
0	 9.799996024918523e+000	 5.333299999983334e+000	 9.990576198878804e+000
0	 9.799996024918523e+000	 5.399969999982150e+000	 9.991878449705233e+000
0	 9.799996024918519e+000	 5.466639999981864e+000	 9.993106321346268e+000
0	 9.799996024918521e+000	 5.533309999982383e+000	 9.994259366604606e+000
0	 9.799996024918523e+000	 5.599979999983600e+000	 9.995337138282920e+000
0	 9.799996024918521e+000	 5.666649999985416e+000	 9.996339189183932e+000
0	 9.799996024918521e+000	 5.733319999987734e+000	 9.997265072110269e+000
0	 9.799996024918523e+000	 5.799989999990450e+000	 9.998114339864705e+000
0	 9.799996024918523e+000	 5.866659999993468e+000	 9.998886545249864e+000
0	 9.799996024918521e+000	 5.933329999996682e+000	 9.999581241068459e+000
0	 9.799996024918521e+000	 6.000000000000000e+000	 1.000019798012316e+001
0	 9.866664822186820e+000	 5.333299999983334e+000	 9.989646916140186e+000
0	 9.866664822186820e+000	 5.399969999982150e+000	 9.990995842440121e+000
0	 9.866664822186822e+000	 5.466639999981866e+000	 9.992266783164922e+000
0	 9.866664822186820e+000	 5.533309999982383e+000	 9.993459381815793e+000
0	 9.866664822186820e+000	 5.599979999983600e+000	 9.994573281894164e+000
0	 9.866664822186822e+000	 5.666649999985417e+000	 9.995608126901269e+000
0	 9.866664822186820e+000	 5.733319999987732e+000	 9.996563560338458e+000
0	 9.866664822186820e+000	 5.799989999990449e+000	 9.997439225706993e+000
0	 9.866664822186820e+000	 5.866659999993466e+000	 9.998234766508229e+000
0	 9.866664822186822e+000	 5.933329999996684e+000	 9.998949826243461e+000
0	 9.866664822186820e+000	 5.999999999999998e+000	 9.999584048413983e+000
0	 9.933332852771351e+000	 5.333299999983335e+000	 9.988901838131776e+000
0	 9.933332852771351e+000	 5.399969999982150e+000	 9.990292044608772e+000
0	 9.933332852771351e+000	 5.466639999981866e+000	 9.991600819683617e+000
0	 9.933332852771351e+000	 5.533309999982383e+000	 9.992827923863480e+000
0	 9.933332852771351e+000	 5.599979999983599e+000	 9.993973117655420e+000
0	 9.933332852771352e+000	 5.666649999985417e+000	 9.995036161566469e+000
0	 9.933332852771351e+000	 5.733319999987733e+000	 9.996016816103795e+000
0	 9.933332852771352e+000	 5.799989999990449e+000	 9.996914841774494e+000
0	 9.933332852771351e+000	 5.866659999993467e+000	 9.997729999085653e+000
0	 9.933332852771352e+000	 5.933329999996684e+000	 9.998462048544289e+000
0	 9.933332852771349e+000	 5.999999999999998e+000	 9.999110750657595e+000
0	 1.000000000000000e+001	 5.333299999983334e+000	 9.988351555377609e+000
0	 1.000000000000000e+001	 5.399969999982149e+000	 9.989776847326224e+000
0	 1.000000000000000e+001	 5.466639999981866e+000	 9.991117523175516e+000
0	 9.999999999999998e+000	 5.533309999982383e+000	 9.992373486747146e+000
0	 1.000000000000000e+001	 5.599979999983600e+000	 9.993544641862714e+000
0	 1.000000000000000e+001	 5.666649999985417e+000	 9.994630892343885e+000
0	 1.000000000000000e+001	 5.733319999987733e+000	 9.995632142012264e+000
0	 1.000000000000000e+001	 5.799989999990450e+000	 9.996548294689493e+000
0	 1.000000000000000e+001	 5.866659999993467e+000	 9.997379254197192e+000
0	 1.000000000000000e+001	 5.933329999996683e+000	 9.998124924357009e+000
0	 1.000000000000000e+001	 6.000000000000000e+000	 9.998785208990572e+000
0	 9.333302777352785e+000	 6.000000000000001e+000	 1.000783486546657e+001
0	 9.333302777352781e+000	 6.066670000003315e+000	 1.000818806217940e+001
0	 9.333302777352783e+000	 6.133340000006534e+000	 1.000850058847973e+001
0	 9.333302777352783e+000	 6.200010000009552e+000	 1.000877189311194e+001
0	 9.333302777352781e+000	 6.266680000012266e+000	 1.000900142482045e+001
0	 9.333302777352783e+000	 6.333350000014586e+000	 1.000918863234970e+001
0	 9.333302777352783e+000	 6.400020000016400e+000	 1.000933296444407e+001
0	 9.333302777352783e+000	 6.466690000017617e+000	 1.000943386984802e+001
0	 9.333302777352785e+000	 6.533360000018136e+000	 1.000949079730591e+001
0	 9.333302777352783e+000	 6.600030000017850e+000	 1.000950319556218e+001
0	 9.333302777352783e+000	 6.666700000016666e+000	 1.000947051336124e+001
0	 9.399973674588177e+000	 6.000000000000002e+000	 1.000643596704199e+001
0	 9.399973674588178e+000	 6.066670000003318e+000	 1.000682835763928e+001
0	 9.399973674588177e+000	 6.133340000006533e+000	 1.000717831578907e+001
0	 9.399973674588177e+000	 6.200010000009551e+000	 1.000748537418645e+001
0	 9.399973674588175e+000	 6.266680000012268e+000	 1.000774906552659e+001
0	 9.399973674588173e+000	 6.333350000014582e+000	 1.000796892250455e+001
0	 9.399973674588175e+000	 6.400020000016401e+000	 1.000814447781547e+001
0	 9.399973674588178e+000	 6.466690000017617e+000	 1.000827526415444e+001
0	 9.399973674588177e+000	 6.533360000018133e+000	 1.000836081421659e+001
0	 9.399973674588177e+000	 6.600030000017849e+000	 1.000840066069702e+001
0	 9.399973674588177e+000	 6.666700000016666e+000	 1.000839433629083e+001
0	 9.466644621844619e+000	 5.999999999999998e+000	 1.000512783057108e+001
0	 9.466644621844619e+000	 6.066670000003318e+000	 1.000555564936643e+001
0	 9.466644621844621e+000	 6.133340000006534e+000	 1.000593952558175e+001
0	 9.466644621844621e+000	 6.200010000009551e+000	 1.000627904870042e+001
0	 9.466644621844619e+000	 6.266680000012267e+000	 1.000657380820585e+001
0	 9.466644621844621e+000	 6.333350000014584e+000	 1.000682339358138e+001
0	 9.466644621844619e+000	 6.400020000016399e+000	 1.000702739431045e+001
0	 9.466644621844623e+000	 6.466690000017619e+000	 1.000718539987640e+001
0	 9.466644621844619e+000	 6.533360000018135e+000	 1.000729699976263e+001
0	 9.466644621844621e+000	 6.600030000017852e+000	 1.000736178345250e+001
0	 9.466644621844617e+000	 6.666700000016665e+000	 1.000737934042943e+001
0	 9.533315502450000e+000	 6.000000000000000e+000	 1.000391758245114e+001
0	 9.533315502449998e+000	 6.066670000003316e+000	 1.000437717459342e+001
0	 9.533315502450003e+000	 6.133340000006533e+000	 1.000479147575876e+001
0	 9.533315502449998e+000	 6.200010000009551e+000	 1.000516010505667e+001
0	 9.533315502450000e+000	 6.266680000012266e+000	 1.000548268159666e+001
0	 9.533315502449996e+000	 6.333350000014583e+000	 1.000575882448826e+001
0	 9.533315502450000e+000	 6.400020000016399e+000	 1.000598815284100e+001
0	 9.533315502450002e+000	 6.466690000017616e+000	 1.000617028576437e+001
0	 9.533315502450000e+000	 6.533360000018135e+000	 1.000630484236790e+001
0	 9.533315502449998e+000	 6.600030000017851e+000	 1.000639144176113e+001
0	 9.533315502449998e+000	 6.666700000016666e+000	 1.000642970305354e+001
0	 9.599986199732197e+000	 5.999999999999998e+000	 1.000281234847076e+001
0	 9.599986199732195e+000	 6.066670000003315e+000	 1.000330016996257e+001
0	 9.599986199732193e+000	 6.133340000006532e+000	 1.000374142365111e+001
0	 9.599986199732197e+000	 6.200010000009550e+000	 1.000413573110985e+001
0	 9.599986199732195e+000	 6.266680000012268e+000	 1.000448271391233e+001
0	 9.599986199732195e+000	 6.333350000014583e+000	 1.000478199363207e+001
0	 9.599986199732195e+000	 6.400020000016402e+000	 1.000503319184259e+001
0	 9.599986199732195e+000	 6.466690000017614e+000	 1.000523593011740e+001
0	 9.599986199732197e+000	 6.533360000018133e+000	 1.000538983003003e+001
0	 9.599986199732195e+000	 6.600030000017851e+000	 1.000549451315397e+001
0	 9.599986199732197e+000	 6.666700000016666e+000	 1.000554960106278e+001
0	 9.666656597019092e+000	 6.000000000000001e+000	 1.000181925380986e+001
0	 9.666656597019092e+000	 6.066670000003316e+000	 1.000233187152599e+001
0	 9.666656597019093e+000	 6.133340000006532e+000	 1.000279662601981e+001
0	 9.666656597019092e+000	 6.200010000009553e+000	 1.000321311416645e+001
0	 9.666656597019093e+000	 6.266680000012268e+000	 1.000358093284097e+001
0	 9.666656597019092e+000	 6.333350000014583e+000	 1.000389967891853e+001
0	 9.666656597019092e+000	 6.400020000016398e+000	 1.000416894927419e+001
0	 9.666656597019093e+000	 6.466690000017618e+000	 1.000438834078307e+001
0	 9.666656597019095e+000	 6.533360000018133e+000	 1.000455745032027e+001
0	 9.666656597019092e+000	 6.600030000017852e+000	 1.000467587476089e+001
0	 9.666656597019092e+000	 6.666700000016666e+000	 1.000474321098002e+001
0	 9.733326577638575e+000	 6.000000000000001e+000	 1.000094542303978e+001
0	 9.733326577638573e+000	 6.066670000003315e+000	 1.000147951474555e+001
0	 9.733326577638573e+000	 6.133340000006532e+000	 1.000196433905599e+001
0	 9.733326577638573e+000	 6.200010000009551e+000	 1.000239944098477e+001
0	 9.733326577638575e+000	 6.266680000012268e+000	 1.000278436554563e+001
0	 9.733326577638573e+000	 6.333350000014583e+000	 1.000311865775227e+001
0	 9.733326577638575e+000	 6.400020000016400e+000	 1.000340186261836e+001
0	 9.733326577638572e+000	 6.466690000017618e+000	 1.000363352515762e+001
0	 9.733326577638573e+000	 6.533360000018132e+000	 1.000381319038373e+001
0	 9.733326577638573e+000	 6.600030000017850e+000	 1.000394040331041e+001
0	 9.733326577638573e+000	 6.666700000016666e+000	 1.000401470895136e+001
0	 9.799996024918521e+000	 6.000000000000000e+000	 1.000019798012316e+001
0	 9.799996024918521e+000	 6.066670000003315e+000	 1.000075033449298e+001
0	 9.799996024918523e+000	 6.133340000006534e+000	 1.000125181838081e+001
0	 9.799996024918523e+000	 6.200010000009552e+000	 1.000170189777504e+001
0	 9.799996024918523e+000	 6.266680000012268e+000	 1.000210003866422e+001
0	 9.799996024918523e+000	 6.333350000014585e+000	 1.000244570703676e+001
0	 9.799996024918524e+000	 6.400020000016402e+000	 1.000273836888114e+001
0	 9.799996024918524e+000	 6.466690000017619e+000	 1.000297749018580e+001
0	 9.799996024918521e+000	 6.533360000018133e+000	 1.000316253693919e+001
0	 9.799996024918523e+000	 6.600030000017851e+000	 1.000329297512981e+001
0	 9.799996024918523e+000	 6.666700000016667e+000	 1.000336827074608e+001
0	 9.866664822186820e+000	 5.999999999999998e+000	 9.999584048413983e+000
0	 9.866664822186820e+000	 6.066670000003317e+000	 1.000015156504978e+001
0	 9.866664822186820e+000	 6.133340000006533e+000	 1.000066631904549e+001
0	 9.866664822186820e+000	 6.200010000009551e+000	 1.000112767019932e+001
0	 9.866664822186818e+000	 6.266680000012266e+000	 1.000153497830955e+001
0	 9.866664822186822e+000	 6.333350000014584e+000	 1.000188760317438e+001
0	 9.866664822186820e+000	 6.400020000016402e+000	 1.000218490459213e+001
0	 9.866664822186820e+000	 6.466690000017616e+000	 1.000242624236098e+001
0	 9.866664822186822e+000	 6.533360000018135e+000	 1.000261097627919e+001
0	 9.866664822186818e+000	 6.600030000017849e+000	 1.000273846614503e+001
0	 9.866664822186820e+000	 6.666700000016667e+000	 1.000280807175671e+001
0	 9.933332852771349e+000	 5.999999999999998e+000	 9.999110750657595e+000
0	 9.933332852771352e+000	 6.066670000003317e+000	 9.999690440107219e+000
0	 9.933332852771352e+000	 6.133340000006535e+000	 1.000021509553130e+001
0	 9.933332852771351e+000	 6.200010000009550e+000	 1.000068394337140e+001
0	 9.933332852771351e+000	 6.266680000012268e+000	 1.000109621006922e+001
0	 9.933332852771351e+000	 6.333350000014584e+000	 1.000145112206636e+001
0	 9.933332852771352e+000	 6.400020000016401e+000	 1.000174790580446e+001
0	 9.933332852771352e+000	 6.466690000017617e+000	 1.000198578772514e+001
0	 9.933332852771351e+000	 6.533360000018134e+000	 1.000216399427004e+001
0	 9.933332852771352e+000	 6.600030000017851e+000	 1.000228175188077e+001
0	 9.933332852771351e+000	 6.666700000016665e+000	 1.000233828699897e+001
0	 1.000000000000000e+001	 6.000000000000000e+000	 9.998785208990572e+000
0	 1.000000000000000e+001	 6.066670000003317e+000	 9.999374192766297e+000
0	 1.000000000000000e+001	 6.133340000006534e+000	 9.999905401749444e+000
0	 1.000000000000000e+001	 6.200010000009551e+000	 1.000037790185699e+001
0	 1.000000000000000e+001	 6.266680000012268e+000	 1.000079075900575e+001
0	 1.000000000000000e+001	 6.333350000014584e+000	 1.000114303911269e+001
0	 1.000000000000000e+001	 6.400020000016401e+000	 1.000143380809474e+001
0	 1.000000000000000e+001	 6.466690000017618e+000	 1.000166213186876e+001
0	 1.000000000000000e+001	 6.533360000018134e+000	 1.000182707635170e+001
0	 1.000000000000000e+001	 6.600030000017850e+000	 1.000192770746040e+001
0	 1.000000000000000e+001	 6.666700000016666e+000	 1.000196309111183e+001
0	 9.333302777352783e+000	 6.666700000016666e+000	 1.000947051336124e+001
0	 9.333302777352783e+000	 6.733360000014532e+000	 1.000940537039458e+001
0	 9.333302777352783e+000	 6.800020000011600e+000	 1.000932035974494e+001
0	 9.333302777352783e+000	 6.866680000008068e+000	 1.000921491517513e+001
0	 9.333302777352781e+000	 6.933340000004135e+000	 1.000908847044792e+001
0	 9.333302777352781e+000	 6.999999999999999e+000	 1.000894045932615e+001
0	 9.333302777352783e+000	 7.066659999995867e+000	 1.000877031557262e+001
0	 9.333302777352783e+000	 7.133319999991934e+000	 1.000857747295011e+001
0	 9.333302777352783e+000	 7.199979999988400e+000	 1.000836136522145e+001
0	 9.333302777352783e+000	 7.266639999985467e+000	 1.000812142614944e+001
0	 9.333302777352785e+000	 7.333299999983335e+000	 1.000785708949687e+001
0	 9.399973674588177e+000	 6.666700000016666e+000	 1.000839433629083e+001
0	 9.399973674588177e+000	 6.733360000014532e+000	 1.000835475086924e+001
0	 9.399973674588175e+000	 6.800020000011598e+000	 1.000829471215215e+001
0	 9.399973674588178e+000	 6.866680000008066e+000	 1.000821361291158e+001
0	 9.399973674588177e+000	 6.933340000004134e+000	 1.000811084591955e+001
0	 9.399973674588178e+000	 6.999999999999999e+000	 1.000798580394809e+001
0	 9.399973674588177e+000	 7.066659999995868e+000	 1.000783787976922e+001
0	 9.399973674588178e+000	 7.133319999991935e+000	 1.000766646615497e+001
0	 9.399973674588175e+000	 7.199979999988399e+000	 1.000747095587735e+001
0	 9.399973674588177e+000	 7.266639999985468e+000	 1.000725074170841e+001
0	 9.399973674588177e+000	 7.333299999983336e+000	 1.000700521642015e+001
0	 9.466644621844617e+000	 6.666700000016665e+000	 1.000737934042943e+001
0	 9.466644621844619e+000	 6.733360000014531e+000	 1.000736276070689e+001
0	 9.466644621844617e+000	 6.800020000011599e+000	 1.000732498073572e+001
0	 9.466644621844619e+000	 6.866680000008065e+000	 1.000726536244211e+001
0	 9.466644621844621e+000	 6.933340000004134e+000	 1.000718326775218e+001
0	 9.466644621844623e+000	 7.000000000000001e+000	 1.000707805859213e+001
0	 9.466644621844619e+000	 7.066659999995867e+000	 1.000694909688811e+001
0	 9.466644621844619e+000	 7.133319999991933e+000	 1.000679574456634e+001
0	 9.466644621844617e+000	 7.199979999988400e+000	 1.000661736355295e+001
0	 9.466644621844619e+000	 7.266639999985466e+000	 1.000641331577413e+001
0	 9.466644621844619e+000	 7.333299999983332e+000	 1.000618296315604e+001
0	 9.533315502449998e+000	 6.666700000016666e+000	 1.000642970305354e+001
0	 9.533315502450000e+000	 6.733360000014534e+000	 1.000643285920327e+001
0	 9.533315502449998e+000	 6.800020000011600e+000	 1.000641396210153e+001
0	 9.533315502449998e+000	 6.866680000008068e+000	 1.000637235297345e+001
0	 9.533315502450000e+000	 6.933340000004133e+000	 1.000630737304408e+001
0	 9.533315502450000e+000	 7.000000000000000e+000	 1.000621836353850e+001
0	 9.533315502449995e+000	 7.066659999995866e+000	 1.000610466568184e+001
0	 9.533315502450002e+000	 7.133319999991934e+000	 1.000596562069916e+001
0	 9.533315502450000e+000	 7.199979999988401e+000	 1.000580056981554e+001
0	 9.533315502449998e+000	 7.266639999985468e+000	 1.000560885425611e+001
0	 9.533315502450000e+000	 7.333299999983334e+000	 1.000538981524591e+001
0	 9.599986199732197e+000	 6.666700000016666e+000	 1.000554960106278e+001
0	 9.599986199732198e+000	 6.733360000014532e+000	 1.000556850530102e+001
0	 9.599986199732197e+000	 6.800020000011600e+000	 1.000556445252558e+001
0	 9.599986199732197e+000	 6.866680000008067e+000	 1.000553677340517e+001
0	 9.599986199732195e+000	 6.933340000004133e+000	 1.000548479860852e+001
0	 9.599986199732197e+000	 7.000000000000000e+000	 1.000540785880436e+001
0	 9.599986199732198e+000	 7.066659999995867e+000	 1.000530528466140e+001
0	 9.599986199732197e+000	 7.133319999991935e+000	 1.000517640684837e+001
0	 9.599986199732198e+000	 7.199979999988402e+000	 1.000502055603401e+001
0	 9.599986199732195e+000	 7.266639999985467e+000	 1.000483706288702e+001
0	 9.599986199732195e+000	 7.333299999983333e+000	 1.000462525807615e+001
0	 9.666656597019092e+000	 6.666700000016666e+000	 1.000474321098002e+001
0	 9.666656597019092e+000	 6.733360000014531e+000	 1.000477315758988e+001
0	 9.666656597019090e+000	 6.800020000011601e+000	 1.000477924795404e+001
0	 9.666656597019090e+000	 6.866680000008066e+000	 1.000476081232964e+001
0	 9.666656597019095e+000	 6.933340000004134e+000	 1.000471718097381e+001
0	 9.666656597019093e+000	 6.999999999999998e+000	 1.000464768414368e+001
0	 9.666656597019093e+000	 7.066659999995867e+000	 1.000455165209637e+001
0	 9.666656597019095e+000	 7.133319999991933e+000	 1.000442841508900e+001
0	 9.666656597019092e+000	 7.199979999988401e+000	 1.000427730337878e+001
0	 9.666656597019093e+000	 7.266639999985467e+000	 1.000409764722279e+001
0	 9.666656597019093e+000	 7.333299999983336e+000	 1.000388877687814e+001
0	 9.733326577638573e+000	 6.666700000016666e+000	 1.000401470895136e+001
0	 9.733326577638575e+000	 6.733360000014534e+000	 1.000405027430658e+001
0	 9.733326577638575e+000	 6.800020000011601e+000	 1.000406114400330e+001
0	 9.733326577638570e+000	 6.866680000008064e+000	 1.000404665803200e+001
0	 9.733326577638573e+000	 6.933340000004133e+000	 1.000400615638316e+001
0	 9.733326577638573e+000	 6.999999999999998e+000	 1.000393897904727e+001
0	 9.733326577638573e+000	 7.066659999995866e+000	 1.000384446601478e+001
0	 9.733326577638573e+000	 7.133319999991934e+000	 1.000372195727616e+001
0	 9.733326577638573e+000	 7.199979999988399e+000	 1.000357079282190e+001
0	 9.733326577638577e+000	 7.266639999985469e+000	 1.000339031264247e+001
0	 9.733326577638575e+000	 7.333299999983334e+000	 1.000317985672837e+001
0	 9.799996024918523e+000	 6.666700000016667e+000	 1.000336827074608e+001
0	 9.799996024918523e+000	 6.733360000014534e+000	 1.000340331333489e+001
0	 9.799996024918523e+000	 6.800020000011600e+000	 1.000341293595995e+001
0	 9.799996024918523e+000	 6.866680000008066e+000	 1.000339649849029e+001
0	 9.799996024918523e+000	 6.933340000004132e+000	 1.000335336079495e+001
0	 9.799996024918523e+000	 7.000000000000001e+000	 1.000328288274291e+001
0	 9.799996024918523e+000	 7.066659999995867e+000	 1.000318442420324e+001
0	 9.799996024918523e+000	 7.133319999991935e+000	 1.000305734504491e+001
0	 9.799996024918521e+000	 7.199979999988400e+000	 1.000290100513698e+001
0	 9.799996024918523e+000	 7.266639999985467e+000	 1.000271476434844e+001
0	 9.799996024918523e+000	 7.333299999983336e+000	 1.000249798254834e+001
0	 9.866664822186820e+000	 6.666700000016667e+000	 1.000280807175671e+001
0	 9.866664822186822e+000	 6.733360000014534e+000	 1.000283573220561e+001
0	 9.866664822186818e+000	 6.800020000011598e+000	 1.000283741878077e+001
0	 9.866664822186818e+000	 6.866680000008067e+000	 1.000281252137536e+001
0	 9.866664822186820e+000	 6.933340000004133e+000	 1.000276042988248e+001
0	 9.866664822186822e+000	 7.000000000000000e+000	 1.000268053419528e+001
0	 9.866664822186818e+000	 7.066659999995866e+000	 1.000257222420694e+001
0	 9.866664822186818e+000	 7.133319999991934e+000	 1.000243488981053e+001
0	 9.866664822186820e+000	 7.199979999988400e+000	 1.000226792089926e+001
0	 9.866664822186818e+000	 7.266639999985466e+000	 1.000207070736624e+001
0	 9.866664822186820e+000	 7.333299999983333e+000	 1.000184263910462e+001
0	 9.933332852771351e+000	 6.666700000016665e+000	 1.000233828699897e+001
0	 9.933332852771351e+000	 6.733360000014533e+000	 1.000235098809661e+001
0	 9.933332852771349e+000	 6.800020000011599e+000	 1.000233738709278e+001
0	 9.933332852771351e+000	 6.866680000008066e+000	 1.000229691405087e+001
0	 9.933332852771351e+000	 6.933340000004132e+000	 1.000222899903410e+001
0	 9.933332852771351e+000	 6.999999999999998e+000	 1.000213307210589e+001
0	 9.933332852771351e+000	 7.066659999995867e+000	 1.000200856332952e+001
0	 9.933332852771351e+000	 7.133319999991935e+000	 1.000185490276831e+001
0	 9.933332852771352e+000	 7.199979999988401e+000	 1.000167152048557e+001
0	 9.933332852771352e+000	 7.266639999985467e+000	 1.000145784654465e+001
0	 9.933332852771352e+000	 7.333299999983335e+000	 1.000121331100889e+001
0	 1.000000000000000e+001	 6.666700000016666e+000	 1.000196309111183e+001
0	 1.000000000000000e+001	 6.733360000014533e+000	 1.000195253783272e+001
0	 1.000000000000000e+001	 6.800020000011600e+000	 1.000191563519315e+001
0	 9.999999999999998e+000	 6.866680000008066e+000	 1.000185186357325e+001
0	 1.000000000000000e+001	 6.933340000004133e+000	 1.000176070335322e+001
0	 1.000000000000000e+001	 7.000000000000000e+000	 1.000164163491315e+001
0	 9.999999999999998e+000	 7.066659999995865e+000	 1.000149413863325e+001
0	 9.999999999999998e+000	 7.133319999991934e+000	 1.000131769489359e+001
0	 1.000000000000000e+001	 7.199979999988400e+000	 1.000111178407438e+001
0	 1.000000000000000e+001	 7.266639999985467e+000	 1.000087588655574e+001
0	 1.000000000000000e+001	 7.333299999983335e+000	 1.000060948271783e+001
0	 9.333302777352785e+000	 7.333299999983335e+000	 1.000785708949687e+001
0	 9.333302777352781e+000	 7.399969999982150e+000	 1.000757898901352e+001
0	 9.333302777352783e+000	 7.466639999981866e+000	 1.000729783602643e+001
0	 9.333302777352783e+000	 7.533309999982383e+000	 1.000701305612592e+001
0	 9.333302777352785e+000	 7.599979999983600e+000	 1.000672407490235e+001
0	 9.333302777352783e+000	 7.666649999985418e+000	 1.000643031794607e+001
0	 9.333302777352783e+000	 7.733319999987732e+000	 1.000613121084744e+001
0	 9.333302777352783e+000	 7.799989999990449e+000	 1.000582617919682e+001
0	 9.333302777352781e+000	 7.866659999993466e+000	 1.000551464858451e+001
0	 9.333302777352781e+000	 7.933329999996683e+000	 1.000519604460092e+001
0	 9.333302777352783e+000	 8.000000000000000e+000	 1.000486979283635e+001
0	 9.399973674588177e+000	 7.333299999983336e+000	 1.000700521642015e+001
0	 9.399973674588177e+000	 7.399969999982148e+000	 1.000674549337203e+001
0	 9.399973674588177e+000	 7.466639999981865e+000	 1.000648281726517e+001
0	 9.399973674588177e+000	 7.533309999982385e+000	 1.000621666160008e+001
0	 9.399973674588175e+000	 7.599979999983599e+000	 1.000594649987722e+001
0	 9.399973674588175e+000	 7.666649999985417e+000	 1.000567180559706e+001
0	 9.399973674588175e+000	 7.733319999987731e+000	 1.000539205226010e+001
0	 9.399973674588177e+000	 7.799989999990449e+000	 1.000510671336681e+001
0	 9.399973674588173e+000	 7.866659999993465e+000	 1.000481526241766e+001
0	 9.399973674588178e+000	 7.933329999996685e+000	 1.000451717291315e+001
0	 9.399973674588175e+000	 8.000000000000000e+000	 1.000421191835375e+001
0	 9.466644621844619e+000	 7.333299999983332e+000	 1.000618296315603e+001
0	 9.466644621844623e+000	 7.399969999982151e+000	 1.000593806753080e+001
0	 9.466644621844619e+000	 7.466639999981865e+000	 1.000569055959122e+001
0	 9.466644621844624e+000	 7.533309999982385e+000	 1.000543994487052e+001
0	 9.466644621844619e+000	 7.599979999983599e+000	 1.000518572890196e+001
0	 9.466644621844619e+000	 7.666649999985416e+000	 1.000492741721880e+001
0	 9.466644621844619e+000	 7.733319999987729e+000	 1.000466451535429e+001
0	 9.466644621844621e+000	 7.799989999990450e+000	 1.000439652884166e+001
0	 9.466644621844619e+000	 7.866659999993466e+000	 1.000412296321418e+001
0	 9.466644621844617e+000	 7.933329999996682e+000	 1.000384332400511e+001
0	 9.466644621844623e+000	 8.000000000000000e+000	 1.000355711674767e+001
0	 9.533315502450000e+000	 7.333299999983334e+000	 1.000538981524591e+001
0	 9.533315502449995e+000	 7.399969999982148e+000	 1.000515598806439e+001
0	 9.533315502449998e+000	 7.466639999981865e+000	 1.000492009818317e+001
0	 9.533315502450000e+000	 7.533309999982383e+000	 1.000468166729109e+001
0	 9.533315502450002e+000	 7.599979999983598e+000	 1.000444021707697e+001
0	 9.533315502450000e+000	 7.666649999985416e+000	 1.000419526922964e+001
0	 9.533315502449998e+000	 7.733319999987731e+000	 1.000394634543790e+001
0	 9.533315502449998e+000	 7.799989999990450e+000	 1.000369296739062e+001
0	 9.533315502450000e+000	 7.866659999993467e+000	 1.000343465677657e+001
0	 9.533315502449998e+000	 7.933329999996683e+000	 1.000317093528460e+001
0	 9.533315502450000e+000	 8.000000000000000e+000	 1.000290132460354e+001
0	 9.599986199732195e+000	 7.333299999983333e+000	 1.000462525807614e+001
0	 9.599986199732195e+000	 7.399969999982148e+000	 1.000439853141440e+001
0	 9.599986199732195e+000	 7.466639999981865e+000	 1.000417046810902e+001
0	 9.599986199732198e+000	 7.533309999982382e+000	 1.000394059012724e+001
0	 9.599986199732193e+000	 7.599979999983598e+000	 1.000370841943622e+001
0	 9.599986199732195e+000	 7.666649999985415e+000	 1.000347347800319e+001
0	 9.599986199732195e+000	 7.733319999987733e+000	 1.000323528779531e+001
0	 9.599986199732198e+000	 7.799989999990449e+000	 1.000299337077979e+001
0	 9.599986199732195e+000	 7.866659999993467e+000	 1.000274724892384e+001
0	 9.599986199732197e+000	 7.933329999996682e+000	 1.000249644419466e+001
0	 9.599986199732198e+000	 8.000000000000000e+000	 1.000224047855942e+001
0	 9.666656597019093e+000	 7.333299999983336e+000	 1.000388877687814e+001
0	 9.666656597019092e+000	 7.399969999982150e+000	 1.000366497388959e+001
0	 9.666656597019093e+000	 7.466639999981865e+000	 1.000344070432616e+001
0	 9.666656597019092e+000	 7.533309999982384e+000	 1.000321547455600e+001
0	 9.666656597019095e+000	 7.599979999983599e+000	 1.000298879094736e+001
0	 9.666656597019088e+000	 7.666649999985415e+000	 1.000276015986840e+001
0	 9.666656597019092e+000	 7.733319999987733e+000	 1.000252908768732e+001
0	 9.666656597019093e+000	 7.799989999990451e+000	 1.000229508077235e+001
0	 9.666656597019095e+000	 7.866659999993466e+000	 1.000205764549167e+001
0	 9.666656597019093e+000	 7.933329999996684e+000	 1.000181628821348e+001
0	 9.666656597019092e+000	 8.000000000000002e+000	 1.000157051530596e+001
0	 9.733326577638575e+000	 7.333299999983334e+000	 1.000317985672837e+001
0	 9.733326577638573e+000	 7.399969999982149e+000	 1.000295459166589e+001
0	 9.733326577638573e+000	 7.466639999981865e+000	 1.000272984168130e+001
0	 9.733326577638573e+000	 7.533309999982383e+000	 1.000250508166606e+001
0	 9.733326577638573e+000	 7.599979999983600e+000	 1.000227978651166e+001
0	 9.733326577638573e+000	 7.666649999985415e+000	 1.000205343110958e+001
0	 9.733326577638573e+000	 7.733319999987731e+000	 1.000182549035136e+001
0	 9.733326577638572e+000	 7.799989999990449e+000	 1.000159543912842e+001
0	 9.733326577638573e+000	 7.866659999993466e+000	 1.000136275233230e+001
0	 9.733326577638575e+000	 7.933329999996683e+000	 1.000112690485446e+001
0	 9.733326577638573e+000	 8.000000000000000e+000	 1.000088737158641e+001
0	 9.799996024918523e+000	 7.333299999983336e+000	 1.000249798254834e+001
0	 9.799996024918523e+000	 7.399969999982151e+000	 1.000226666078638e+001
0	 9.799996024918521e+000	 7.466639999981865e+000	 1.000203691491064e+001
0	 9.799996024918524e+000	 7.533309999982384e+000	 1.000180817245770e+001
0	 9.799996024918523e+000	 7.599979999983601e+000	 1.000157986096411e+001
0	 9.799996024918521e+000	 7.666649999985417e+000	 1.000135140796644e+001
0	 9.799996024918521e+000	 7.733319999987733e+000	 1.000112224100125e+001
0	 9.799996024918524e+000	 7.799989999990450e+000	 1.000089178760511e+001
0	 9.799996024918523e+000	 7.866659999993467e+000	 1.000065947531459e+001
0	 9.799996024918523e+000	 7.933329999996683e+000	 1.000042473166625e+001
0	 9.799996024918521e+000	 8.000000000000002e+000	 1.000018698419667e+001
0	 9.866664822186820e+000	 7.333299999983333e+000	 1.000184263910462e+001
0	 9.866664822186818e+000	 7.399969999982149e+000	 1.000160045716128e+001
0	 9.866664822186822e+000	 7.466639999981867e+000	 1.000136095863980e+001
0	 9.866664822186818e+000	 7.533309999982384e+000	 1.000112350784288e+001
0	 9.866664822186820e+000	 7.599979999983600e+000	 1.000088746907337e+001
0	 9.866664822186820e+000	 7.666649999985417e+000	 1.000065220663398e+001
0	 9.866664822186820e+000	 7.733319999987733e+000	 1.000041708482745e+001
0	 9.866664822186820e+000	 7.799989999990449e+000	 1.000018146795659e+001
0	 9.866664822186818e+000	 7.866659999993466e+000	 9.999944720324075e+000
0	 9.866664822186820e+000	 7.933329999996683e+000	 9.999706206232714e+000
0	 9.866664822186820e+000	 8.000000000000000e+000	 9.999465289985242e+000
0	 9.933332852771352e+000	 7.333299999983335e+000	 1.000121331100889e+001
0	 9.933332852771352e+000	 7.399969999982150e+000	 1.000095525656802e+001
0	 9.933332852771351e+000	 7.466639999981866e+000	 1.000070100738370e+001
0	 9.933332852771352e+000	 7.533309999982384e+000	 1.000044984864522e+001
0	 9.933332852771352e+000	 7.599979999983600e+000	 1.000020106554179e+001
0	 9.933332852771352e+000	 7.666649999985416e+000	 9.999953943262621e+000
0	 9.933332852771349e+000	 7.733319999987732e+000	 9.999707766996931e+000
0	 9.933332852771351e+000	 7.799989999990449e+000	 9.999461821933952e+000
0	 9.933332852771351e+000	 7.866659999993466e+000	 9.999215393262860e+000
0	 9.933332852771352e+000	 7.933329999996684e+000	 9.998967766172969e+000
0	 9.933332852771352e+000	 8.000000000000000e+000	 9.998718225853386e+000
0	 1.000000000000000e+001	 7.333299999983335e+000	 1.000060948271782e+001
0	 1.000000000000000e+001	 7.399969999982150e+000	 1.000033033465112e+001
0	 1.000000000000000e+001	 7.466639999981865e+000	 1.000005609554685e+001
0	 1.000000000000000e+001	 7.533309999982385e+000	 9.999785955599956e+000
0	 1.000000000000000e+001	 7.599979999983599e+000	 9.999519105005426e+000
0	 1.000000000000000e+001	 7.666649999985417e+000	 9.999254733958187e+000
0	 1.000000000000000e+001	 7.733319999987733e+000	 9.998992032653193e+000
0	 1.000000000000000e+001	 7.799989999990449e+000	 9.998730191285414e+000
0	 1.000000000000000e+001	 7.866659999993465e+000	 9.998468400049841e+000
0	 1.000000000000000e+001	 7.933329999996683e+000	 9.998205849141355e+000
0	 1.000000000000000e+001	 8.000000000000000e+000	 9.997941728755015e+000
0	 9.333302777352783e+000	 8.000000000000000e+000	 1.000486979283635e+001
0	 9.333302777352783e+000	 8.066670000003319e+000	 1.000454499967469e+001
0	 9.333302777352783e+000	 8.133340000006532e+000	 1.000423081840826e+001
0	 9.333302777352783e+000	 8.200010000009552e+000	 1.000392674499015e+001
0	 9.333302777352783e+000	 8.266680000012267e+000	 1.000363227537348e+001
0	 9.333302777352783e+000	 8.333350000014585e+000	 1.000334690551135e+001
0	 9.333302777352785e+000	 8.400020000016403e+000	 1.000307013135682e+001
0	 9.333302777352785e+000	 8.466690000017618e+000	 1.000280144886303e+001
0	 9.333302777352783e+000	 8.533360000018135e+000	 1.000254035398308e+001
0	 9.333302777352783e+000	 8.600030000017849e+000	 1.000228634267003e+001
0	 9.333302777352783e+000	 8.666700000016666e+000	 1.000203891087702e+001
0	 9.399973674588175e+000	 8.000000000000000e+000	 1.000421191835375e+001
0	 9.399973674588177e+000	 8.066670000003319e+000	 1.000390857160300e+001
0	 9.399973674588177e+000	 8.133340000006538e+000	 1.000361624933552e+001
0	 9.399973674588178e+000	 8.200010000009552e+000	 1.000333449076842e+001
0	 9.399973674588175e+000	 8.266680000012267e+000	 1.000306283511873e+001
0	 9.399973674588173e+000	 8.333350000014583e+000	 1.000280082160358e+001
0	 9.399973674588175e+000	 8.400020000016399e+000	 1.000254798944000e+001
0	 9.399973674588177e+000	 8.466690000017618e+000	 1.000230387784511e+001
0	 9.399973674588178e+000	 8.533360000018137e+000	 1.000206802603599e+001
0	 9.399973674588175e+000	 8.600030000017849e+000	 1.000183997322970e+001
0	 9.399973674588177e+000	 8.666700000016668e+000	 1.000161925864332e+001
0	 9.466644621844623e+000	 8.000000000000000e+000	 1.000355711674767e+001
0	 9.466644621844619e+000	 8.066670000003317e+000	 1.000327338414788e+001
0	 9.466644621844621e+000	 8.133340000006532e+000	 1.000300121795306e+001
0	 9.466644621844623e+000	 8.200010000009552e+000	 1.000274019725842e+001
0	 9.466644621844619e+000	 8.266680000012267e+000	 1.000248990115914e+001
0	 9.466644621844621e+000	 8.333350000014585e+000	 1.000224990875048e+001
0	 9.466644621844621e+000	 8.400020000016399e+000	 1.000201979912757e+001
0	 9.466644621844623e+000	 8.466690000017621e+000	 1.000179915138564e+001
0	 9.466644621844619e+000	 8.533360000018133e+000	 1.000158754461990e+001
0	 9.466644621844621e+000	 8.600030000017851e+000	 1.000138455792554e+001
0	 9.466644621844619e+000	 8.666700000016665e+000	 1.000118977039777e+001
0	 9.533315502450000e+000	 8.000000000000000e+000	 1.000290132460354e+001
0	 9.533315502450000e+000	 8.066670000003319e+000	 1.000263489105953e+001
0	 9.533315502450000e+000	 8.133340000006532e+000	 1.000238076357797e+001
0	 9.533315502450000e+000	 8.200010000009550e+000	 1.000213855774652e+001
0	 9.533315502450002e+000	 8.266680000012268e+000	 1.000190788915283e+001
0	 9.533315502449996e+000	 8.333350000014583e+000	 1.000168837338459e+001
0	 9.533315502450000e+000	 8.400020000016399e+000	 1.000147962602949e+001
0	 9.533315502450000e+000	 8.466690000017618e+000	 1.000128126267518e+001
0	 9.533315502450000e+000	 8.533360000018135e+000	 1.000109289890930e+001
0	 9.533315502449998e+000	 8.600030000017849e+000	 1.000091415031956e+001
0	 9.533315502450000e+000	 8.666700000016666e+000	 1.000074463249360e+001
0	 9.599986199732198e+000	 8.000000000000000e+000	 1.000224047855942e+001
0	 9.599986199732197e+000	 8.066670000003315e+000	 1.000198854615688e+001
0	 9.599986199732193e+000	 8.133340000006532e+000	 1.000174992561076e+001
0	 9.599986199732197e+000	 8.200010000009549e+000	 1.000152426561565e+001
0	 9.599986199732197e+000	 8.266680000012270e+000	 1.000131121486629e+001
0	 9.599986199732195e+000	 8.333350000014583e+000	 1.000111042205727e+001
0	 9.599986199732195e+000	 8.400020000016399e+000	 1.000092153588328e+001
0	 9.599986199732200e+000	 8.466690000017618e+000	 1.000074420503898e+001
0	 9.599986199732197e+000	 8.533360000018133e+000	 1.000057807821901e+001
0	 9.599986199732195e+000	 8.600030000017851e+000	 1.000042280411804e+001
0	 9.599986199732197e+000	 8.666700000016666e+000	 1.000027803143071e+001
0	 9.666656597019092e+000	 8.000000000000002e+000	 1.000157051530596e+001
0	 9.666656597019093e+000	 8.066670000003317e+000	 1.000132980332752e+001
0	 9.666656597019092e+000	 8.133340000006532e+000	 1.000110374353523e+001
0	 9.666656597019092e+000	 8.200010000009550e+000	 1.000089201434544e+001
0	 9.666656597019092e+000	 8.266680000012268e+000	 1.000069429417443e+001
0	 9.666656597019095e+000	 8.333350000014587e+000	 1.000051026143849e+001
0	 9.666656597019093e+000	 8.400020000016399e+000	 1.000033959455393e+001
0	 9.666656597019092e+000	 8.466690000017614e+000	 1.000018197193704e+001
0	 9.666656597019093e+000	 8.533360000018135e+000	 1.000003707200413e+001
0	 9.666656597019090e+000	 8.600030000017849e+000	 9.999904573171508e+000
0	 9.666656597019093e+000	 8.666700000016666e+000	 9.999784153855487e+000
0	 9.733326577638573e+000	 8.000000000000000e+000	 1.000088737158641e+001
0	 9.733326577638575e+000	 8.066670000003320e+000	 1.000065411652770e+001
0	 9.733326577638573e+000	 8.133340000006532e+000	 1.000043725691870e+001
0	 9.733326577638573e+000	 8.200010000009552e+000	 1.000023649751214e+001
0	 9.733326577638575e+000	 8.266680000012270e+000	 1.000005154306069e+001
0	 9.733326577638575e+000	 8.333350000014583e+000	 9.999882098317068e+000
0	 9.733326577638573e+000	 8.400020000016403e+000	 9.999727868033983e+000
0	 9.733326577638575e+000	 8.466690000017620e+000	 9.999588556964133e+000
0	 9.733326577638573e+000	 8.533360000018135e+000	 9.999463869860199e+000
0	 9.733326577638573e+000	 8.600030000017851e+000	 9.999353511474912e+000
0	 9.733326577638575e+000	 8.666700000016668e+000	 9.999257186560959e+000
0	 9.799996024918521e+000	 8.000000000000002e+000	 1.000018698419667e+001
0	 9.799996024918523e+000	 8.066670000003319e+000	 9.999956939782422e+000
0	 9.799996024918523e+000	 8.133340000006532e+000	 9.999745505411795e+000
0	 9.799996024918523e+000	 8.200010000009552e+000	 9.999552408788636e+000
0	 9.799996024918523e+000	 8.266680000012268e+000	 9.999377377616948e+000
0	 9.799996024918524e+000	 8.333350000014585e+000	 9.999220139600585e+000
0	 9.799996024918524e+000	 8.400020000016403e+000	 9.999080422443539e+000
0	 9.799996024918524e+000	 8.466690000017616e+000	 9.998957953849697e+000
0	 9.799996024918521e+000	 8.533360000018133e+000	 9.998852461522999e+000
0	 9.799996024918521e+000	 8.600030000017851e+000	 9.998763673167382e+000
0	 9.799996024918521e+000	 8.666700000016666e+000	 9.998691316486768e+000
0	 9.866664822186820e+000	 8.000000000000000e+000	 9.999465289985242e+000
0	 9.866664822186818e+000	 8.066670000003315e+000	 9.999233727185466e+000
0	 9.866664822186820e+000	 8.133340000006532e+000	 9.999023528748555e+000
0	 9.866664822186818e+000	 8.200010000009552e+000	 9.998834441944590e+000
0	 9.866664822186820e+000	 8.266680000012270e+000	 9.998666214043521e+000
0	 9.866664822186820e+000	 8.333350000014583e+000	 9.998518592315403e+000
0	 9.866664822186818e+000	 8.400020000016401e+000	 9.998391324030234e+000
0	 9.866664822186818e+000	 8.466690000017616e+000	 9.998284156458016e+000
0	 9.866664822186822e+000	 8.533360000018133e+000	 9.998196836868765e+000
0	 9.866664822186820e+000	 8.600030000017849e+000	 9.998129112532473e+000
0	 9.866664822186818e+000	 8.666700000016666e+000	 9.998080730719147e+000
0	 9.933332852771352e+000	 8.000000000000000e+000	 9.998718225853386e+000
0	 9.933332852771351e+000	 8.066670000003317e+000	 9.998479932899187e+000
0	 9.933332852771351e+000	 8.133340000006532e+000	 9.998266366746504e+000
0	 9.933332852771351e+000	 8.200010000009550e+000	 9.998077290846222e+000
0	 9.933332852771352e+000	 8.266680000012267e+000	 9.997912468649323e+000
0	 9.933332852771349e+000	 8.333350000014582e+000	 9.997771663606709e+000
0	 9.933332852771352e+000	 8.400020000016401e+000	 9.997654639169324e+000
0	 9.933332852771351e+000	 8.466690000017616e+000	 9.997561158788136e+000
0	 9.933332852771351e+000	 8.533360000018135e+000	 9.997490985914068e+000
0	 9.933332852771351e+000	 8.600030000017849e+000	 9.997443883998018e+000
0	 9.933332852771352e+000	 8.666700000016668e+000	 9.997419616490996e+000
0	 1.000000000000000e+001	 8.000000000000000e+000	 9.997941728755015e+000
0	 1.000000000000000e+001	 8.066670000003317e+000	 9.997691011154958e+000
0	 1.000000000000000e+001	 8.133340000006534e+000	 9.997469059306592e+000
0	 9.999999999999998e+000	 8.200010000009550e+000	 9.997275649456611e+000
0	 1.000000000000000e+001	 8.266680000012267e+000	 9.997110557851672e+000
0	 1.000000000000000e+001	 8.333350000014583e+000	 9.996973560738503e+000
0	 1.000000000000000e+001	 8.400020000016401e+000	 9.996864434363662e+000
0	 1.000000000000000e+001	 8.466690000017616e+000	 9.996782954973924e+000
0	 1.000000000000000e+001	 8.533360000018133e+000	 9.996728898815908e+000
0	 1.000000000000000e+001	 8.600030000017851e+000	 9.996702042136334e+000
0	 1.000000000000000e+001	 8.666700000016666e+000	 9.996702161181824e+000
0	 9.333302777352783e+000	 8.666700000016666e+000	 1.000203891087702e+001
0	 9.333302777352781e+000	 8.733360002791901e+000	 1.000180350370092e+001
0	 9.333302777352783e+000	 8.800020022230557e+000	 1.000158545131332e+001
0	 9.333302777352781e+000	 8.866680074997039e+000	 1.000138418718356e+001
0	 9.333302777352781e+000	 8.933340177755778e+000	 1.000119914474135e+001
0	 9.333302777352783e+000	 9.000000347171181e+000	 1.000102975737669e+001
0	 9.333302777352785e+000	 9.066660599907667e+000	 1.000087545843994e+001
0	 9.333302777352781e+000	 9.133320952629655e+000	 1.000073568124172e+001
0	 9.333302777352781e+000	 9.199981422001558e+000	 1.000060985905304e+001
0	 9.333302777352781e+000	 9.266642024687794e+000	 1.000049742510520e+001
0	 9.333302777352785e+000	 9.333302777352785e+000	 1.000039781258982e+001
0	 9.399973674588177e+000	 8.666700000016668e+000	 1.000161925864332e+001
0	 9.399973674588177e+000	 8.733360002791901e+000	 1.000141076889724e+001
0	 9.399973674588175e+000	 8.800020022230557e+000	 1.000121929241646e+001
0	 9.399973674588177e+000	 8.866680074997040e+000	 1.000104431883141e+001
0	 9.399973674588175e+000	 8.933340177755779e+000	 1.000088533773490e+001
0	 9.399973674588177e+000	 9.000000347171181e+000	 1.000074183868201e+001
0	 9.399973674588178e+000	 9.066660599907671e+000	 1.000061331119014e+001
0	 9.399973674588180e+000	 9.133320952629655e+000	 1.000049924473904e+001
0	 9.399973674588173e+000	 9.199981422001558e+000	 1.000039912877073e+001
0	 9.399973674588177e+000	 9.266642024687796e+000	 1.000031245268960e+001
0	 9.399973674588175e+000	 9.333302777352783e+000	 1.000023870586235e+001
0	 9.466644621844619e+000	 8.666700000016665e+000	 1.000118977039777e+001
0	 9.466644621844621e+000	 8.733360002791905e+000	 1.000100751081638e+001
0	 9.466644621844621e+000	 8.800020022230555e+000	 1.000084203233313e+001
0	 9.466644621844623e+000	 8.866680074997044e+000	 1.000069288644248e+001
0	 9.466644621844619e+000	 8.933340177755778e+000	 1.000055962460279e+001
0	 9.466644621844617e+000	 9.000000347171179e+000	 1.000044179823636e+001
0	 9.466644621844624e+000	 9.066660599907671e+000	 1.000033895872940e+001
0	 9.466644621844621e+000	 9.133320952629656e+000	 1.000025065743202e+001
0	 9.466644621844623e+000	 9.199981422001560e+000	 1.000017644565824e+001
0	 9.466644621844619e+000	 9.266642024687794e+000	 1.000011587468600e+001
0	 9.466644621844619e+000	 9.333302777352785e+000	 1.000006849575716e+001
0	 9.533315502450000e+000	 8.666700000016666e+000	 1.000074463249360e+001
0	 9.533315502449998e+000	 8.733360002791905e+000	 1.000058812328527e+001
0	 9.533315502449995e+000	 8.800020022230552e+000	 1.000044835337500e+001
0	 9.533315502450002e+000	 8.866680074997042e+000	 1.000032494182420e+001
0	 9.533315502449996e+000	 8.933340177755778e+000	 1.000021750765922e+001
0	 9.533315502450000e+000	 9.000000347171184e+000	 1.000012566987149e+001
0	 9.533315502450000e+000	 9.066660599907667e+000	 1.000004904741734e+001
0	 9.533315502450000e+000	 9.133320952629653e+000	 9.999987259218131e+000
0	 9.533315502450003e+000	 9.199981422001562e+000	 9.999939924160179e+000
0	 9.533315502450000e+000	 9.266642024687792e+000	 9.999906661094803e+000
0	 9.533315502449996e+000	 9.333302777352783e+000	 9.999887088838333e+000
0	 9.599986199732197e+000	 8.666700000016666e+000	 1.000027803143071e+001
0	 9.599986199732195e+000	 8.733360002791901e+000	 1.000014700027806e+001
0	 9.599986199732197e+000	 8.800020022230557e+000	 1.000003293799988e+001
0	 9.599986199732195e+000	 8.866680074997042e+000	 9.999935536927518e+000
0	 9.599986199732197e+000	 8.933340177755779e+000	 9.999854489357775e+000
0	 9.599986199732195e+000	 9.000000347171181e+000	 9.999789487552809e+000
0	 9.599986199732197e+000	 9.066660599907669e+000	 9.999740223740210e+000
0	 9.599986199732195e+000	 9.133320952629655e+000	 9.999706390113047e+000
0	 9.599986199732197e+000	 9.199981422001558e+000	 9.999687678829709e+000
0	 9.599986199732198e+000	 9.266642024687798e+000	 9.999683782014072e+000
0	 9.599986199732197e+000	 9.333302777352785e+000	 9.999694391755412e+000
0	 9.666656597019093e+000	 8.666700000016666e+000	 9.999784153855487e+000
0	 9.666656597019092e+000	 8.733360002791903e+000	 9.999678535916001e+000
0	 9.666656597019093e+000	 8.800020022230557e+000	 9.999590468811656e+000
0	 9.666656597019093e+000	 8.866680074997042e+000	 9.999519723846893e+000
0	 9.666656597019095e+000	 8.933340177755779e+000	 9.999466072291245e+000
0	 9.666656597019092e+000	 9.000000347171181e+000	 9.999429285379328e+000
0	 9.666656597019092e+000	 9.066660599907666e+000	 9.999409134310856e+000
0	 9.666656597019093e+000	 9.133320952629655e+000	 9.999405390250617e+000
0	 9.666656597019093e+000	 9.199981422001558e+000	 9.999417824328466e+000
0	 9.666656597019093e+000	 9.266642024687798e+000	 9.999446207639418e+000
0	 9.666656597019093e+000	 9.333302777352783e+000	 9.999490311243429e+000
0	 9.733326577638575e+000	 8.666700000016668e+000	 9.999257186560961e+000
0	 9.733326577638573e+000	 8.733360002791901e+000	 9.999177124467636e+000
0	 9.733326577638575e+000	 8.800020022230557e+000	 9.999115628560396e+000
0	 9.733326577638573e+000	 8.866680074997039e+000	 9.999072554820204e+000
0	 9.733326577638575e+000	 8.933340177755778e+000	 9.999047759191782e+000
0	 9.733326577638575e+000	 9.000000347171183e+000	 9.999041097583801e+000
0	 9.733326577638573e+000	 9.066660599907667e+000	 9.999052425868705e+000
0	 9.733326577638575e+000	 9.133320952629655e+000	 9.999081599882915e+000
0	 9.733326577638575e+000	 9.199981422001558e+000	 9.999128475426634e+000
0	 9.733326577638573e+000	 9.266642024687796e+000	 9.999192908263963e+000
0	 9.733326577638575e+000	 9.333302777352783e+000	 9.999274754122865e+000
0	 9.799996024918521e+000	 8.666700000016666e+000	 9.998691316486767e+000
0	 9.799996024918524e+000	 8.733360002791903e+000	 9.998637160348602e+000
0	 9.799996024918523e+000	 8.800020022230555e+000	 9.998603100142297e+000
0	 9.799996024918521e+000	 8.866680074997040e+000	 9.998589082228847e+000
0	 9.799996024918521e+000	 8.933340177755776e+000	 9.998595052930847e+000
0	 9.799996024918521e+000	 9.000000347171181e+000	 9.998620958532557e+000
0	 9.799996024918523e+000	 9.066660599907667e+000	 9.998666745279845e+000
0	 9.799996024918524e+000	 9.133320952629655e+000	 9.998732359380218e+000
0	 9.799996024918521e+000	 9.199981422001557e+000	 9.998817747002857e+000
0	 9.799996024918523e+000	 9.266642024687798e+000	 9.998922854278550e+000
0	 9.799996024918519e+000	 9.333302777352781e+000	 9.999047627299738e+000
0	 9.866664822186818e+000	 8.666700000016666e+000	 9.998080730719144e+000
0	 9.866664822186818e+000	 8.733360002791901e+000	 9.998053038121798e+000
0	 9.866664822186818e+000	 8.800020022230555e+000	 9.998047566599672e+000
0	 9.866664822186820e+000	 8.866680074997040e+000	 9.998064358597757e+000
0	 9.866664822186820e+000	 8.933340177755779e+000	 9.998103456519267e+000
0	 9.866664822186820e+000	 9.000000347171183e+000	 9.998164902725740e+000
0	 9.866664822186820e+000	 9.066660599907667e+000	 9.998248739536933e+000
0	 9.866664822186822e+000	 9.133320952629656e+000	 9.998355009231000e+000
0	 9.866664822186820e+000	 9.199981422001558e+000	 9.998483754044337e+000
0	 9.866664822186818e+000	 9.266642024687796e+000	 9.998635016171541e+000
0	 9.866664822186820e+000	 9.333302777352781e+000	 9.998808837765576e+000
0	 9.933332852771352e+000	 8.666700000016668e+000	 9.997419616490999e+000
0	 9.933332852771351e+000	 8.733360002791903e+000	 9.997419152497354e+000
0	 9.933332852771352e+000	 8.800020022230555e+000	 9.997443711121088e+000
0	 9.933332852771351e+000	 8.866680074997040e+000	 9.997493436595359e+000
0	 9.933332852771351e+000	 8.933340177755778e+000	 9.997568473107167e+000
0	 9.933332852771349e+000	 9.000000347171179e+000	 9.997668964797068e+000
0	 9.933332852771351e+000	 9.066660599907667e+000	 9.997795055759399e+000
0	 9.933332852771351e+000	 9.133320952629656e+000	 9.997946890042083e+000
0	 9.933332852771352e+000	 9.199981422001558e+000	 9.998124611646826e+000
0	 9.933332852771352e+000	 9.266642024687798e+000	 9.998328364528923e+000
0	 9.933332852771351e+000	 9.333302777352783e+000	 9.998558292597366e+000
0	 1.000000000000000e+001	 8.666700000016666e+000	 9.996702161181823e+000
0	 1.000000000000000e+001	 8.733360002791903e+000	 9.996729898332703e+000
0	 1.000000000000000e+001	 8.800020022230555e+000	 9.996786217041207e+000
0	 1.000000000000000e+001	 8.866680074997042e+000	 9.996871369033652e+000
0	 1.000000000000000e+001	 8.933340177755779e+000	 9.996985605984074e+000
0	 1.000000000000000e+001	 9.000000347171183e+000	 9.997129179514088e+000
0	 1.000000000000000e+001	 9.066660599907667e+000	 9.997302341193212e+000
0	 1.000000000000000e+001	 9.133320952629655e+000	 9.997505342538423e+000
0	 1.000000000000000e+001	 9.199981422001557e+000	 9.997738435014622e+000
0	 1.000000000000000e+001	 9.266642024687796e+000	 9.998001870034305e+000
0	 9.999999999999998e+000	 9.333302777352781e+000	 9.998295898957698e+000
0	 9.333302777352785e+000	 9.333302777352785e+000	 1.000039781258982e+001
0	 9.333302777352781e+000	 9.399973674588177e+000	 1.000030891762772e+001
0	 9.333302777352785e+000	 9.466644621844621e+000	 1.000022965060825e+001
0	 9.333302777352783e+000	 9.533315502450002e+000	 1.000016092424662e+001
0	 9.333302777352783e+000	 9.599986199732197e+000	 1.000010365149857e+001
0	 9.333302777352781e+000	 9.666656597019095e+000	 1.000005874556057e+001
0	 9.333302777352783e+000	 9.733326577638573e+000	 1.000002711986964e+001
0	 9.333302777352779e+000	 9.799996024918521e+000	 1.000000968810353e+001
0	 9.333302777352783e+000	 9.866664822186822e+000	 1.000000736418068e+001
0	 9.333302777352783e+000	 9.933332852771356e+000	 1.000002106226014e+001
0	 9.333302777352781e+000	 9.999999999999998e+000	 1.000005169674178e+001
0	 9.399973674588175e+000	 9.333302777352783e+000	 1.000023870586235e+001
0	 9.399973674588175e+000	 9.399973674588173e+000	 1.000017444884334e+001
0	 9.399973674588175e+000	 9.466644621844619e+000	 1.000011740981094e+001
0	 9.399973674588177e+000	 9.533315502450002e+000	 1.000006879933025e+001
0	 9.399973674588177e+000	 9.599986199732197e+000	 1.000002982816285e+001
0	 9.399973674588175e+000	 9.666656597019095e+000	 1.000000170726690e+001
0	 9.399973674588175e+000	 9.733326577638572e+000	 9.999985647796958e+000
0	 9.399973674588177e+000	 9.799996024918524e+000	 9.999982861104288e+000
0	 9.399973674588175e+000	 9.866664822186820e+000	 9.999994558736489e+000
0	 9.399973674588177e+000	 9.933332852771354e+000	 1.000002195243797e+001
0	 9.399973674588175e+000	 1.000000000000000e+001	 1.000006625414963e+001
0	 9.466644621844619e+000	 9.333302777352785e+000	 1.000006849575716e+001
0	 9.466644621844623e+000	 9.399973674588175e+000	 1.000002942034407e+001
0	 9.466644621844623e+000	 9.466644621844624e+000	 9.999995057475944e+000
0	 9.466644621844617e+000	 9.533315502449998e+000	 9.999966886395812e+000
0	 9.466644621844617e+000	 9.599986199732193e+000	 9.999946386499680e+000
0	 9.466644621844621e+000	 9.666656597019093e+000	 9.999935037336204e+000
0	 9.466644621844619e+000	 9.733326577638573e+000	 9.999934318606943e+000
0	 9.466644621844623e+000	 9.799996024918524e+000	 9.999945710166262e+000
0	 9.466644621844621e+000	 9.866664822186822e+000	 9.999970692021403e+000
0	 9.466644621844621e+000	 9.933332852771354e+000	 1.000001074433245e+001
0	 9.466644621844621e+000	 1.000000000000000e+001	 1.000006734741237e+001
0	 9.533315502449996e+000	 9.333302777352783e+000	 9.999887088838332e+000
0	 9.533315502449995e+000	 9.399973674588173e+000	 9.999874676181060e+000
0	 9.533315502449998e+000	 9.466644621844617e+000	 9.999864295692239e+000
0	 9.533315502449996e+000	 9.533315502449998e+000	 9.999857666126944e+000
0	 9.533315502450000e+000	 9.599986199732197e+000	 9.999856506348969e+000
0	 9.533315502450000e+000	 9.666656597019095e+000	 9.999862535330797e+000
0	 9.533315502450000e+000	 9.733326577638573e+000	 9.999877472153578e+000
0	 9.533315502450000e+000	 9.799996024918524e+000	 9.999903036007181e+000
0	 9.533315502450002e+000	 9.866664822186822e+000	 9.999940946190176e+000
0	 9.533315502449998e+000	 9.933332852771352e+000	 9.999992922109952e+000
0	 9.533315502450000e+000	 1.000000000000000e+001	 1.000006068328247e+001
0	 9.599986199732197e+000	 9.333302777352785e+000	 9.999694391755414e+000
0	 9.599986199732197e+000	 9.399973674588175e+000	 9.999711060477589e+000
0	 9.599986199732197e+000	 9.466644621844623e+000	 9.999726826606349e+000
0	 9.599986199732197e+000	 9.533315502449998e+000	 9.999743619248296e+000
0	 9.599986199732198e+000	 9.599986199732198e+000	 9.999763367573408e+000
0	 9.599986199732195e+000	 9.666656597019093e+000	 9.999788000814929e+000
0	 9.599986199732198e+000	 9.733326577638577e+000	 9.999819448269356e+000
0	 9.599986199732197e+000	 9.799996024918521e+000	 9.999859639296632e+000
0	 9.599986199732193e+000	 9.866664822186822e+000	 9.999910503319990e+000
0	 9.599986199732197e+000	 9.933332852771352e+000	 9.999973969826035e+000
0	 9.599986199732195e+000	 1.000000000000000e+001	 1.000005196836468e+001
0	 9.666656597019093e+000	 9.333302777352783e+000	 9.999490311243429e+000
0	 9.666656597019092e+000	 9.399973674588175e+000	 9.999539417429178e+000
0	 9.666656597019093e+000	 9.466644621844621e+000	 9.999584352422307e+000
0	 9.666656597019090e+000	 9.533315502449998e+000	 9.999627226525741e+000
0	 9.666656597019093e+000	 9.599986199732198e+000	 9.999670150058330e+000
0	 9.666656597019093e+000	 9.666656597019092e+000	 9.999715233354680e+000
0	 9.666656597019092e+000	 9.733326577638577e+000	 9.999764586765297e+000
0	 9.666656597019090e+000	 9.799996024918519e+000	 9.999820320656536e+000
0	 9.666656597019093e+000	 9.866664822186822e+000	 9.999884545410630e+000
0	 9.666656597019095e+000	 9.933332852771356e+000	 9.999959371425726e+000
0	 9.666656597019093e+000	 1.000000000000000e+001	 1.000004690911579e+001
0	 9.733326577638575e+000	 9.333302777352783e+000	 9.999274754122869e+000
0	 9.733326577638575e+000	 9.399973674588177e+000	 9.999360591303573e+000
0	 9.733326577638573e+000	 9.466644621844621e+000	 9.999438575401671e+000
0	 9.733326577638577e+000	 9.533315502450002e+000	 9.999510968766236e+000
0	 9.733326577638575e+000	 9.599986199732197e+000	 9.999580033711728e+000
0	 9.733326577638575e+000	 9.666656597019095e+000	 9.999648032518110e+000
0	 9.733326577638573e+000	 9.733326577638575e+000	 9.999717227430811e+000
0	 9.733326577638573e+000	 9.799996024918523e+000	 9.999789880660746e+000
0	 9.733326577638573e+000	 9.866664822186822e+000	 9.999868254384253e+000
0	 9.733326577638573e+000	 9.933332852771352e+000	 9.999954610743219e+000
0	 9.733326577638573e+000	 1.000000000000000e+001	 1.000005121184508e+001
0	 9.799996024918519e+000	 9.333302777352781e+000	 9.999047627299738e+000
0	 9.799996024918519e+000	 9.399973674588173e+000	 9.999175426440726e+000
0	 9.799996024918519e+000	 9.466644621844617e+000	 9.999291197863553e+000
0	 9.799996024918523e+000	 9.533315502450002e+000	 9.999397326817821e+000
0	 9.799996024918524e+000	 9.599986199732198e+000	 9.999496198464293e+000
0	 9.799996024918523e+000	 9.666656597019093e+000	 9.999590197875170e+000
0	 9.799996024918523e+000	 9.733326577638575e+000	 9.999681710033897e+000
0	 9.799996024918521e+000	 9.799996024918523e+000	 9.999773119835309e+000
0	 9.799996024918521e+000	 9.866664822186822e+000	 9.999866812085548e+000
0	 9.799996024918521e+000	 9.933332852771352e+000	 9.999965171502172e+000
0	 9.799996024918521e+000	 1.000000000000000e+001	 1.000007058271403e+001
0	 9.866664822186820e+000	 9.333302777352781e+000	 9.998808837765580e+000
0	 9.866664822186818e+000	 9.399973674588175e+000	 9.998984767252829e+000
0	 9.866664822186818e+000	 9.466644621844619e+000	 9.999143922184643e+000
0	 9.866664822186820e+000	 9.533315502450000e+000	 9.999288781569756e+000
0	 9.866664822186818e+000	 9.599986199732195e+000	 9.999421824269447e+000
0	 9.866664822186820e+000	 9.666656597019093e+000	 9.999545528997681e+000
0	 9.866664822186820e+000	 9.733326577638575e+000	 9.999662374320950e+000
0	 9.866664822186820e+000	 9.799996024918524e+000	 9.999774838658420e+000
0	 9.866664822186820e+000	 9.866664822186822e+000	 9.999885400281739e+000
0	 9.866664822186820e+000	 9.933332852771354e+000	 9.999996537315365e+000
0	 9.866664822186820e+000	 1.000000000000000e+001	 1.000011072773614e+001
0	 9.933332852771351e+000	 9.333302777352783e+000	 9.998558292597370e+000
0	 9.933332852771349e+000	 9.399973674588175e+000	 9.998789458224353e+000
0	 9.933332852771351e+000	 9.466644621844619e+000	 9.998998450799078e+000
0	 9.933332852771352e+000	 9.533315502450000e+000	 9.999187813952300e+000
0	 9.933332852771351e+000	 9.599986199732197e+000	 9.999360091103251e+000
0	 9.933332852771351e+000	 9.666656597019093e+000	 9.999517825459416e+000
0	 9.933332852771349e+000	 9.733326577638573e+000	 9.999663560016955e+000
0	 9.933332852771351e+000	 9.799996024918523e+000	 9.999799837560365e+000
0	 9.933332852771351e+000	 9.866664822186822e+000	 9.999929200662539e+000
0	 9.933332852771352e+000	 9.933332852771354e+000	 1.000005419168502e+001
0	 9.933332852771351e+000	 1.000000000000000e+001	 1.000017735277755e+001
0	 9.999999999999998e+000	 9.333302777352781e+000	 9.998295898957700e+000
0	 1.000000000000000e+001	 9.399973674588175e+000	 9.998590343911964e+000
0	 1.000000000000000e+001	 9.466644621844621e+000	 9.998856486198653e+000
0	 1.000000000000000e+001	 9.533315502450000e+000	 9.999096904937062e+000
0	 1.000000000000000e+001	 9.599986199732198e+000	 9.999314178964458e+000
0	 1.000000000000000e+001	 9.666656597019093e+000	 9.999510886836092e+000
0	 1.000000000000000e+001	 9.733326577638575e+000	 9.999689606825314e+000
0	 1.000000000000000e+001	 9.799996024918523e+000	 9.999852916923546e+000
0	 1.000000000000000e+001	 9.866664822186824e+000	 1.000000339484014e+001
0	 1.000000000000000e+001	 9.933332852771354e+000	 1.000014361800258e+001
0	 1.000000000000000e+001	 1.000000000000000e+001	 1.000027616355635e+001
1	 1.000000000000000e+000	 0.000000000000000e+000	 2.802864592575130e+001
1	 9.999553790721549e-001	 9.446392261750536e-003	 2.807739450776537e+001
1	 9.998208276644109e-001	 1.892867080636967e-002	 2.811164828397352e+001
1	 9.995953221430520e-001	 2.844573836262591e-002	 2.813058961203065e+001
1	 9.992778519071311e-001	 3.799646941872217e-002	 2.813341450362122e+001
1	 9.988674201817245e-001	 4.757971027342477e-002	 2.811933396386946e+001
1	 9.983630448185402e-001	 5.719427911104237e-002	 2.808757534792665e+001
1	 9.977637591031844e-001	 6.683896610081597e-002	 2.803738373291294e+001
1	 9.970686125683426e-001	 7.651253352126189e-002	 2.796802330329490e+001
1	 9.962766718121099e-001	 8.621371590998764e-002	 2.787877874768125e+001
1	 9.953870213206724e-001	 9.594122023947824e-002	 2.776895666492215e+001
1	 1.006666714718147e+000	 0.000000000000000e+000	 2.780890928064825e+001
1	 1.006621796315063e+000	 9.509368658941884e-003	 2.784288135091262e+001
1	 1.006486347890802e+000	 1.905486284632304e-002	 2.786301809261983e+001
1	 1.006259338987468e+000	 2.863537797544583e-002	 2.786848741998088e+001
1	 1.005939752266822e+000	 3.824978103077062e-002	 2.785847143754501e+001
1	 1.005526584308822e+000	 4.789691061938552e-002	 2.783216781894277e+001
1	 1.005018846417574e+000	 5.757557704648521e-002	 2.778879120294314e+001
1	 1.004415565433973e+000	 6.728456241542383e-002	 2.772757460493240e+001
1	 1.003715784554311e+000	 7.702262075288682e-002	 2.764777084182001e+001
1	 1.002918564154065e+000	 8.678847815970558e-002	 2.754865396827517e+001
1	 1.002022982616054e+000	 9.658083298781608e-002	 2.742952072210028e+001
1	 1.013333517774178e+000	 0.000000000000000e+000	 2.760428042789360e+001
1	 1.013288301891951e+000	 9.572345891894315e-003	 2.762316129979597e+001
1	 1.013151956439392e+000	 1.918105656049421e-002	 2.762886572274915e+001
1	 1.012923444134316e+000	 2.882502010360371e-002	 2.762054838594320e+001
1	 1.012601740901085e+000	 3.850309600190692e-002	 2.759737868390219e+001
1	 1.012185836674435e+000	 4.821411517077869e-002	 2.755854213234698e+001
1	 1.011674736210762e+000	 5.795688003626346e-002	 2.750324180148239e+001
1	 1.011067459906151e+000	 6.773016463579061e-002	 2.743069976474695e+001
1	 1.010363044620398e+000	 7.753271474417553e-002	 2.734015856095846e+001
1	 1.009560544506255e+000	 8.736324802543302e-002	 2.723088266768543e+001
1	 1.008659031843079e+000	 9.722045421090780e-002	 2.710215998357284e+001
1	 1.020000397500475e+000	 0.000000000000000e+000	 2.741384805920371e+001
1	 1.019954884135722e+000	 9.635323850220517e-003	 2.741734377558869e+001
1	 1.019817641644647e+000	 1.930725172774984e-002	 2.740832045024380e+001
1	 1.019587625920686e+000	 2.901466441486622e-002	 2.738592074217398e+001
1	 1.019263806150706e+000	 3.875641388844888e-002	 2.734930250976120e+001
1	 1.018845165624130e+000	 4.853132337212968e-002	 2.729764026156256e+001
1	 1.018330702549552e+000	 5.833818741277172e-002	 2.723012662461554e+001
1	 1.017719430878155e+000	 6.817577198184759e-002	 2.714597382822152e+001
1	 1.017010381133149e+000	 7.804281460226907e-002	 2.704441520107194e+001
1	 1.016202601244475e+000	 8.793802450119986e-002	 2.692470667947680e+001
1	 1.015295157387938e+000	 9.786008278935780e-002	 2.678612832435064e+001
1	 1.026667342229423e+000	 0.000000000000000e+000	 2.723672449032293e+001
1	 1.026621531379276e+000	 9.698302423533175e-003	 2.722456128506114e+001
1	 1.026483391841034e+000	 1.943344812695657e-002	 2.720053412076213e+001
1	 1.026251872683667e+000	 2.920431057700003e-002	 2.716377479811310e+001
1	 1.025925936356472e+000	 3.900973424671438e-002	 2.711343079061910e+001
1	 1.025504559503475e+000	 4.884853466796383e-002	 2.704866672818054e+001
1	 1.024986733785391e+000	 5.871949850840467e-002	 2.696866589823160e+001
1	 1.024371466708420e+000	 6.862138367352595e-002	 2.687263176234826e+001
1	 1.023657782459113e+000	 7.855291943430853e-002	 2.675978948612467e+001
1	 1.022844722744521e+000	 8.851280658103622e-002	 2.662938748000913e+001
1	 1.021931347636820e+000	 9.849971760377023e-002	 2.648069894868665e+001
1	 1.033334340293404e+000	 0.000000000000000e+000	 2.707204489994026e+001
1	 1.033288231955517e+000	 9.761281501444974e-003	 2.704396867683095e+001
1	 1.033149195363019e+000	 1.955964553698102e-002	 2.700468042258972e+001
1	 1.032916172760352e+000	 2.939395825777185e-002	 2.695330222908393e+001
1	 1.032588119859170e+000	 3.926305663302126e-002	 2.688897231417946e+001
1	 1.032164006658038e+000	 4.916574850280653e-002	 2.681084653596793e+001
1	 1.031642818269726e+000	 5.910081265555693e-002	 2.671809992458113e+001
1	 1.031023555755385e+000	 6.906699893075709e-002	 2.660992822944147e+001
1	 1.030305236964838e+000	 7.906302834743491e-002	 2.648554947968456e+001
1	 1.029486897382186e+000	 8.908759325897196e-002	 2.634420555538225e+001
1	 1.028567590975912e+000	 9.913935753474935e-002	 2.618516376708497e+001
1	 1.040001380024802e+000	 0.000000000000000e+000	 2.691896659766039e+001
1	 1.039954974197345e+000	 9.824260973568614e-003	 2.687474242600565e+001
1	 1.039815040545070e+000	 1.968584373668984e-002	 2.681995418724936e+001
1	 1.039580514487830e+000	 2.958360712494832e-002	 2.675371539214736e+001
1	 1.039250344999587e+000	 3.951638060368735e-002	 2.667515611070819e+001
1	 1.038823495433387e+000	 4.948296432118314e-002	 2.658342451496570e+001
1	 1.038298944354002e+000	 5.948212918662312e-002	 2.647768843933864e+001
1	 1.037675686377483e+000	 6.951261697347216e-002	 2.635713695636791e+001
1	 1.036952733016872e+000	 7.957314044878933e-002	 2.622098196550918e+001
1	 1.036129113533266e+000	 8.966238352903715e-002	 2.606845979254785e+001
1	 1.035203875791404e+000	 9.977900146289946e-002	 2.589883279709260e+001
1	 1.046668449755999e+000	 0.000000000000000e+000	 2.677666831974299e+001
1	 1.046621746437663e+000	 9.887240729516774e-003	 2.671607994596162e+001
1	 1.046480915721652e+000	 1.981204250494965e-002	 2.664557071664146e+001
1	 1.046244886203193e+000	 2.977325684629616e-002	 2.656424666790831e+001
1	 1.045912600118508e+000	 3.976970571503054e-002	 2.647123080879230e+001
1	 1.045483014175089e+000	 4.980018156761900e-002	 2.636566469046805e+001
1	 1.044955100389667e+000	 5.986344743399788e-002	 2.624670999305361e+001
1	 1.044327846933152e+000	 6.995823702160246e-002	 2.611355012770510e+001
1	 1.043600258981764e+000	 8.008325484551283e-002	 2.596539185162864e+001
1	 1.042771359573555e+000	 9.023717638526170e-002	 2.580146689351889e+001
1	 1.041840190469484e+000	 1.004186482688248e-001	 2.562103358682165e+001
1	 1.053335537819379e+000	 0.000000000000000e+000	 2.664434955138907e+001
1	 1.053288537009373e+000	 9.950220658902142e-003	 2.656719892606529e+001
1	 1.053146809227233e+000	 1.993824162062711e-002	 2.648076513554828e+001
1	 1.052909276243529e+000	 2.996290708958202e-002	 2.638414782713259e+001
1	 1.052574873556721e+000	 4.002303152336866e-002	 2.627646401538294e+001
1	 1.052142551228714e+000	 5.011739968663951e-002	 2.615684967578805e+001
1	 1.051611274728169e+000	 6.024476673007589e-002	 2.602446135591860e+001
1	 1.050980025780828e+000	 7.040385829507928e-002	 2.587847780177457e+001
1	 1.050247803226061e+000	 8.059337064474641e-002	 2.571810159689170e+001
1	 1.049413623878850e+000	 9.081197082167569e-002	 2.554256081166072e+001
1	 1.048476523396341e+000	 1.010582968331297e-001	 2.535111066020176e+001
1	 1.060002632547326e+000	 0.000000000000000e+000	 2.652122987441440e+001
1	 1.059955334245377e+000	 1.001320065133741e-002	 2.642733669420339e+001
1	 1.059812709396278e+000	 2.006444086258883e-002	 2.632479176839305e+001
1	 1.059573672945931e+000	 3.015255752257260e-002	 2.621268942109084e+001
1	 1.059237153655013e+000	 4.027635758501955e-002	 2.609014171906258e+001
1	 1.058802094939828e+000	 5.043461812277002e-002	 2.595628008777064e+001
1	 1.058267455720954e+000	 6.062608640725171e-002	 2.581025694483430e+001
1	 1.057632211278946e+000	 7.084948001383387e-002	 2.565124734855051e+001
1	 1.056895354116312e+000	 8.110348695363115e-002	 2.547845065899373e+001
1	 1.056055894824945e+000	 9.138676583230908e-002	 2.529109220909848e+001
1	 1.055112862958165e+000	 1.016979460364183e-001	 2.508842498301354e+001
1	 1.066669722272222e+000	 0.000000000000000e+000	 2.640654833920707e+001
1	 1.066622126478576e+000	 1.007618059643527e-002	 2.629574960304442e+001
1	 1.066478604563255e+000	 2.019064000970146e-002	 2.617692353920095e+001
1	 1.066238064647488e+000	 3.034220781303457e-002	 2.604916019459797e+001
1	 1.065899428754169e+000	 4.052968345630110e-002	 2.591156771552679e+001
1	 1.065461633653999e+000	 5.075183632053588e-002	 2.576327398406434e+001
1	 1.064923631719468e+000	 6.100740579792002e-002	 2.560342827180416e+001
1	 1.064284391785943e+000	 7.129510139779750e-002	 2.543120290849397e+001
1	 1.063542900019065e+000	 8.161360287930811e-002	 2.524579496305304e+001
1	 1.062698160787635e+000	 9.196156041119183e-002	 2.504642793432418e+001
1	 1.061749197541144e+000	 1.023375947592949e-001	 2.483235344880024e+001
1	 9.953870213206724e-001	 9.594122023947824e-002	 2.776895666492215e+001
1	 9.943989199946589e-001	 1.056922649420928e-001	 2.764214406956496e+001
1	 9.933113650226917e-001	 1.154669775827053e-001	 2.750194480596246e+001
1	 9.921235000424145e-001	 1.252640057452699e-001	 2.734779078761662e+001
1	 9.908344898374512e-001	 1.350819710464206e-001	 2.717915350328239e+001
1	 9.894435211587168e-001	 1.449194694473043e-001	 2.699554573634921e+001
1	 9.879498035443918e-001	 1.547750715930050e-001	 2.679652326398056e+001
1	 9.863525701375676e-001	 1.646473231798204e-001	 2.658168653219407e+001
1	 9.846510785005697e-001	 1.745347453506194e-001	 2.635068230299304e+001
1	 9.828446114249161e-001	 1.844358351184653e-001	 2.610320526960535e+001
1	 9.809324777358747e-001	 1.943490658186562e-001	 2.583899963583458e+001
1	 1.002022982616054e+000	 9.658083298781608e-002	 2.742952072210028e+001
1	 1.001028293900284e+000	 1.063968851254138e-001	 2.729406623597077e+001
1	 9.999334885098822e-001	 1.162367629878134e-001	 2.714600178568371e+001
1	 9.987377043732976e-001	 1.260991051428620e-001	 2.698475243151260e+001
1	 9.974401007059353e-001	 1.359825240179707e-001	 2.680978196300379e+001
1	 9.960398588369379e-001	 1.458856062140271e-001	 2.662059461206224e+001
1	 9.945361830346290e-001	 1.558069128470813e-001	 2.641673674680557e+001
1	 9.929283013296116e-001	 1.657449799180722e-001	 2.619779854240204e+001
1	 9.912154663345143e-001	 1.756983187108201e-001	 2.596341562504064e+001
1	 9.893969560593560e-001	 1.856654162184739e-001	 2.571327068511886e+001
1	 9.874720747214626e-001	 1.956447355985657e-001	 2.544709505568548e+001
1	 1.008659031843079e+000	 9.722045421090780e-002	 2.710215998357284e+001
1	 1.007657755650177e+000	 1.071015146444449e-001	 2.695778041952529e+001
1	 1.006555699745095e+000	 1.170065585918117e-001	 2.680154890197773e+001
1	 1.005351996347030e+000	 1.269342156046145e-001	 2.663288414630372e+001
1	 1.004045799103106e+000	 1.368830889209057e-001	 2.645124282166885e+001
1	 1.002636283920639e+000	 1.468517557811748e-001	 2.625612125881365e+001
1	 1.001122649798042e+000	 1.568387677722974e-001	 2.604705713953014e+001
1	 9.995041196533726e-001	 1.668426511997103e-001	 2.582363116407928e+001
1	 9.977799411495166e-001	 1.768619074880391e-001	 2.558546869272650e+001
1	 9.959493875149438e-001	 1.868950136103707e-001	 2.533224135751065e+001
1	 9.940117583589938e-001	 1.969404225463201e-001	 2.506366864030966e+001
1	 1.015295157387938e+000	 9.786008278935780e-002	 2.678612832435064e+001
1	 1.014287293642074e+000	 1.078061522660752e-001	 2.663255254113555e+001
1	 1.013177987138785e+000	 1.177763630475826e-001	 2.646786519664910e+001
1	 1.011966364387960e+000	 1.277693356691293e-001	 2.629147916530099e+001
1	 1.010651573468392e+000	 1.377836641792906e-001	 2.610284456938571e+001
1	 1.009232784865521e+000	 1.478179164580372e-001	 2.590145048254141e+001
1	 1.007709192307800e+000	 1.578706345629476e-001	 2.568682661574584e+001
1	 1.006080013600701e+000	 1.679403351038314e-001	 2.545854498212089e+001
1	 1.004344491457322e+000	 1.780255096459928e-001	 2.521622153675104e+001
1	 1.002501894324542e+000	 1.881246251423275e-001	 2.495951778765509e+001
1	 1.000551517203678e+000	 1.982361243944031e-001	 2.468814237399724e+001
1	 1.021931347636820e+000	 9.849971760377023e-002	 2.648069894868665e+001
1	 1.020916896273717e+000	 1.085107967571939e-001	 2.631766753723430e+001
1	 1.019800339101411e+000	 1.185461750080089e-001	 2.614424838535631e+001
1	 1.018580796920438e+000	 1.286044638750086e-001	 2.595984902615824e+001
1	 1.017257412241222e+000	 1.386842482171906e-001	 2.576391360339575e+001
1	 1.015829350127281e+000	 1.487840865539039e-001	 2.555592457157607e+001
1	 1.014295799037075e+000	 1.589025114133256e-001	 2.533540437935527e+001
1	 1.012655971663448e+000	 1.690380297095317e-001	 2.510191713252803e+001
1	 1.010909105769675e+000	 1.791891231483971e-001	 2.485507023283529e+001
1	 1.009054465021016e+000	 1.893542486625163e-001	 2.459451598875012e+001
1	 1.007091339810726e+000	 1.995318388752979e-001	 2.431995319434791e+001
1	 1.028567590975912e+000	 9.913935753474935e-002	 2.618516376708497e+001
1	 1.027546551942844e+000	 1.092154468846899e-001	 2.601242874685644e+001
1	 1.026422744043427e+000	 1.193159931259729e-001	 2.583001425565217e+001
1	 1.025195282368815e+000	 1.294395987608545e-001	 2.563732298077041e+001
1	 1.023863303861022e+000	 1.395848394586707e-001	 2.543379365072034e+001
1	 1.022425968161620e+000	 1.497502643780647e-001	 2.521890273291865e+001
1	 1.020882458459035e+000	 1.599343965177254e-001	 2.499216611536014e+001
1	 1.019231982333462e+000	 1.701357330959077e-001	 2.475314076857800e+001
1	 1.017473772598322e+000	 1.803527459589680e-001	 2.450142638413653e+001
1	 1.015607088137226e+000	 1.905838820191090e-001	 2.423666698583372e+001
1	 1.013631214735347e+000	 2.008275637214883e-001	 2.395855250973581e+001
1	 1.035203875791404e+000	 9.977900146289946e-002	 2.589883279709260e+001
1	 1.034176249047193e+000	 1.099201014154522e-001	 2.571615732211334e+001
1	 1.033045190375292e+000	 1.200858160543573e-001	 2.552449608800431e+001
1	 1.031809809157440e+000	 1.302747388652690e-001	 2.532324742769981e+001
1	 1.030469236767222e+000	 1.404854363277962e-001	 2.511184521284720e+001
1	 1.029022627424234e+000	 1.507164482398093e-001	 2.488976055003897e+001
1	 1.027469159046853e+000	 1.609662880704411e-001	 2.465650346161593e+001
1	 1.025808034102595e+000	 1.712334433420562e-001	 2.441162454737295e+001
1	 1.024038480455009e+000	 1.815163760414218e-001	 2.415471662342239e+001
1	 1.022159752206037e+000	 1.918135230602776e-001	 2.388541633440687e+001
1	 1.020171130532752e+000	 2.021232966654573e-001	 2.360340573519443e+001
1	 1.041840190469484e+000	 1.004186482688248e-001	 2.562103358682166e+001
1	 1.040805975984504e+000	 1.106247591163699e-001	 2.542819166103032e+001
1	 1.039667666507461e+000	 1.208556424460447e-001	 2.522704409877813e+001
1	 1.038424365710664e+000	 1.311098827268542e-001	 2.501698536613165e+001
1	 1.037075199399251e+000	 1.413860372486323e-001	 2.479744503148218e+001
1	 1.035619316370825e+000	 1.516826364484275e-001	 2.456788946124104e+001
1	 1.034055889273698e+000	 1.619981842657667e-001	 2.432782350062389e+001
1	 1.032384115462696e+000	 1.723311585270733e-001	 2.407679213586522e+001
1	 1.030603217851480e+000	 1.826800113594744e-001	 2.381438213412903e+001
1	 1.028712445760311e+000	 1.930431696341938e-001	 2.354022365731576e+001
1	 1.026711075758151e+000	 2.034190354396886e-001	 2.325399184590661e+001
1	 1.048476523396341e+000	 1.010582968331297e-001	 2.535111066020176e+001
1	 1.047435721152516e+000	 1.113294187543320e-001	 2.514788686176342e+001
1	 1.046290160850391e+000	 1.216254709539176e-001	 2.493702490421694e+001
1	 1.045038940452837e+000	 1.319450288842121e-001	 2.471791587041339e+001
1	 1.043681180196535e+000	 1.422866406452441e-001	 2.448998557443942e+001
1	 1.042216023457091e+000	 1.526488273132089e-001	 2.425269625769194e+001
1	 1.040642637612742e+000	 1.630300832979962e-001	 2.400554827048025e+001
1	 1.038960214905615e+000	 1.734288767300559e-001	 2.374808173550310e+001
1	 1.037167973299481e+000	 1.838436498768420e-001	 2.347987818947272e+001
1	 1.035265157332913e+000	 1.942728195890297e-001	 2.320056219909134e+001
1	 1.033251038966754e+000	 2.047147777766657e-001	 2.290980294752560e+001
1	 1.055112862958165e+000	 1.016979460364183e-001	 2.508842498301354e+001
1	 1.054065472948968e+000	 1.120340790962277e-001	 2.487461419726105e+001
1	 1.052912661814538e+000	 1.223953002308586e-001	 2.465382100450098e+001
1	 1.051653521808309e+000	 1.327801758759450e-001	 2.442543358427717e+001
1	 1.050287167598504e+000	 1.431872449416968e-001	 2.418887454078964e+001
1	 1.048812737138730e+000	 1.536150191434434e-001	 2.394360260025359e+001
1	 1.047229392537153e+000	 1.640619833614233e-001	 2.368911429414483e+001
1	 1.045536320923203e+000	 1.745265960301002e-001	 2.342494562468291e+001
1	 1.043732735310758e+000	 1.850072895572407e-001	 2.315067370882578e+001
1	 1.041817875456705e+000	 1.955024707729572e-001	 2.286591839698253e+001
1	 1.039791008713771e+000	 2.060105214088719e-001	 2.257034386259097e+001
1	 1.061749197541144e+000	 1.023375947592949e-001	 2.483235344880024e+001
1	 1.060695219771598e+000	 1.127387389089459e-001	 2.460776060948260e+001
1	 1.059535157810359e+000	 1.231651289297503e-001	 2.437683028701366e+001
1	 1.058268098201429e+000	 1.336153222406547e-001	 2.413894823389107e+001
1	 1.056893150044585e+000	 1.440878485620556e-001	 2.389353438443055e+001
1	 1.055409445871443e+000	 1.545812102484205e-001	 2.364004455430179e+001
1	 1.053816142520104e+000	 1.650938826503425e-001	 2.337797212623313e+001
1	 1.052112422007309e+000	 1.756243145063028e-001	 2.310684971823381e+001
1	 1.050297492397054e+000	 1.861709283643864e-001	 2.282625083060712e+001
1	 1.048370588664549e+000	 1.967321210341483e-001	 2.253579146795842e+001
1	 1.046330973554413e+000	 2.073062640687906e-001	 2.223513173234088e+001
1	 9.809324777358747e-001	 1.943490658186562e-001	 2.583899963583457e+001
1	 9.789137024229728e-001	 2.042743766435053e-001	 2.555962534343979e+001
1	 9.767879280981021e-001	 2.142087061355223e-001	 2.526674990900730e+001
1	 9.745545470450379e-001	 2.241504565049763e-001	 2.496022876759683e+001
1	 9.722129807570792e-001	 2.340980083161345e-001	 2.463996441281814e+001
1	 9.697626806991601e-001	 2.440497210832210e-001	 2.430590766628485e+001
1	 9.672031290579123e-001	 2.540039338948809e-001	 2.395805889854427e+001
1	 9.645338394785437e-001	 2.639589660669880e-001	 2.359646919782671e+001
1	 9.617543577873684e-001	 2.739131178235835e-001	 2.322124148298233e+001
1	 9.588642626988490e-001	 2.838646710056856e-001	 2.283253155699969e+001
1	 9.558631665059840e-001	 2.938118898076575e-001	 2.243054909754979e+001
1	 9.874720747214626e-001	 1.956447355985657e-001	 2.544709505568548e+001
1	 9.854398408101847e-001	 2.056362156380845e-001	 2.516639304914405e+001
1	 9.832998945548197e-001	 2.156367744697044e-001	 2.487278594864097e+001
1	 9.810516241876994e-001	 2.256448036517056e-001	 2.456612964073882e+001
1	 9.786944473454123e-001	 2.356586729520586e-001	 2.424632789774653e+001
1	 9.762278118359934e-001	 2.456767309483562e-001	 2.391333366200735e+001
1	 9.736511963939907e-001	 2.556973056564411e-001	 2.356715028032216e+001
1	 9.709641114222510e-001	 2.657187051875656e-001	 2.320783268479032e+001
1	 9.681660997192730e-001	 2.757392184338694e-001	 2.283548851637035e+001
1	 9.652567371909584e-001	 2.857571157819153e-001	 2.245027918749698e+001
1	 9.622356335456043e-001	 2.957706498539660e-001	 2.205242088013539e+001
1	 9.940117583589938e-001	 1.969404225463201e-001	 2.506366864030966e+001
1	 9.919660656707667e-001	 2.069980726775335e-001	 2.478121150246892e+001
1	 9.898119472969315e-001	 2.170648617265721e-001	 2.448645670308131e+001
1	 9.875487874183183e-001	 2.271391705995806e-001	 2.417926052949439e+001
1	 9.851759998147479e-001	 2.372193582680847e-001	 2.385952787558077e+001
1	 9.826930286373037e-001	 2.473037623728963e-001	 2.352721353903512e+001
1	 9.800993491683967e-001	 2.573906998569036e-001	 2.318232346760889e+001
1	 9.773944685684665e-001	 2.674784676265835e-001	 2.282491595050771e+001
1	 9.745779266081486e-001	 2.775653432420189e-001	 2.245510275119710e+001
1	 9.716492963847405e-001	 2.876495856351601e-001	 2.207305017789862e+001
1	 9.686081850217988e-001	 2.977294358560106e-001	 2.167898008810416e+001
1	 1.000551517203678e+000	 1.982361243944031e-001	 2.468814237399723e+001
1	 9.984923655835141e-001	 2.083599453785053e-001	 2.440352377964181e+001
1	 9.963240749280635e-001	 2.184929654068420e-001	 2.410722454662193e+001
1	 9.940460253666025e-001	 2.286335547332959e-001	 2.379910131497770e+001
1	 9.916576268221343e-001	 2.387800615328193e-001	 2.347905994714587e+001
1	 9.891583197887445e-001	 2.489308125093127e-001	 2.314705683646272e+001
1	 9.865475760966603e-001	 2.590841135325783e-001	 2.280310016354940e+001
1	 9.838248996638738e-001	 2.692382503041847e-001	 2.244725109674988e+001
1	 9.809898272331150e-001	 2.793914890520229e-001	 2.207962493281970e+001
1	 9.780419290930430e-001	 2.895420772532947e-001	 2.170039217409838e+001
1	 9.749808097824353e-001	 2.996882443856060e-001	 2.130977953844886e+001
1	 1.007091339810726e+000	 1.995318388752979e-001	 2.431995319434791e+001
1	 1.005018729127225e+000	 2.097218313576529e-001	 2.403278736135660e+001
1	 1.002836266051844e+000	 2.199210830112311e-001	 2.373456575577164e+001
1	 1.000543326662260e+000	 2.301279534375461e-001	 2.342514532479116e+001
1	 9.981393170246207e-001	 2.403407800148683e-001	 2.310443275044295e+001
1	 9.956236739759681e-001	 2.505578785100767e-001	 2.277238576751536e+001
1	 9.929958658943127e-001	 2.607775437197760e-001	 2.242901442844973e+001
1	 9.902553934551569e-001	 2.709980501405126e-001	 2.207438231132308e+001
1	 9.874017903732961e-001	 2.812176526678726e-001	 2.170860766707449e+001
1	 9.844346241287140e-001	 2.914345873241931e-001	 2.133186450216738e+001
1	 9.813534966753822e-001	 3.016470720145669e-001	 2.094438359293044e+001
1	 1.013631214735347e+000	 2.008275637214883e-001	 2.395855250973581e+001
1	 1.011545144880695e+000	 2.110837282316288e-001	 2.366847366785747e+001
1	 1.009348509271898e+000	 2.213492120404561e-001	 2.336797006045707e+001
1	 1.007040679935001e+000	 2.316223640970262e-001	 2.305689889884645e+001
1	 1.004621059079254e+000	 2.419015109828384e-001	 2.273516753959468e+001
1	 1.002089079884629e+000	 2.521849575276599e-001	 2.240273481012684e+001
1	 9.994442072768819e-001	 2.624709874548062e-001	 2.205961228050282e+001
1	 9.966859386889999e-001	 2.727578640557103e-001	 2.170586547746531e+001
1	 9.938138048078121e-001	 2.830438308935586e-001	 2.134161503687611e+001
1	 9.908273703046020e-001	 2.933271125357299e-001	 2.096703779069584e+001
1	 9.877262345485073e-001	 3.036059153147078e-001	 2.058236778471699e+001
1	 1.020171130532752e+000	 2.021232966654573e-001	 2.360340573519443e+001
1	 1.018071601422721e+000	 2.124456336170861e-001	 2.331006761177057e+001
1	 1.015860793191854e+000	 2.227773499952338e-001	 2.300694021235664e+001
1	 1.013538073814532e+000	 2.331167840964309e-001	 2.269388097176055e+001
1	 1.011102841643083e+000	 2.434622517053356e-001	 2.237079777986304e+001
1	 1.008554526200379e+000	 2.538120467145333e-001	 2.203765031314649e+001
1	 1.005892588959899e+000	 2.641644417739796e-001	 2.169445131175633e+001
1	 1.003116524112088e+000	 2.745176889699211e-001	 2.134126779815442e+001
1	 1.000225859315786e+000	 2.848700205330724e-001	 2.097822223345234e+001
1	 9.972201564335541e-001	 2.952196495757795e-001	 2.060549360755213e+001
1	 9.940990122496792e-001	 3.055647708578432e-001	 2.022331845927424e+001
1	 1.026711075758151e+000	 2.034190354396886e-001	 2.325399184590661e+001
1	 1.024598087332100e+000	 2.138075451306776e-001	 2.295706716789784e+001
1	 1.022373106415339e+000	 2.242054943762812e-001	 2.265099156960923e+001
1	 1.020035496930563e+000	 2.346112108204547e-001	 2.233562267109154e+001
1	 1.017584653373157e+000	 2.450229994509663e-001	 2.201086875802974e+001
1	 1.015020001608872e+000	 2.554391432231687e-001	 2.167669011748357e+001
1	 1.012340999658894e+000	 2.658579037136064e-001	 2.133310031864748e+001
1	 1.009547138471104e+000	 2.762775218032881e-001	 2.098016743466571e+001
1	 1.006637942676339e+000	 2.866962183904045e-001	 2.061801520156638e+001
1	 1.003612971328419e+000	 2.971121951322163e-001	 2.024682411041960e+001
1	 1.000471818626765e+000	 3.075236352157878e-001	 1.986683242887758e+001
1	 1.033251038966754e+000	 2.047147777766657e-001	 2.290980294752560e+001
1	 1.031124591187629e+000	 2.151694603890563e-001	 2.260898295922708e+001
1	 1.028885437545980e+000	 2.256336426843151e-001	 2.229965169717664e+001
1	 1.026532937912801e+000	 2.361056416537927e-001	 2.198166693071867e+001
1	 1.024066482926523e+000	 2.465837514883368e-001	 2.165493720746183e+001
1	 1.021485494795763e+000	 2.570662442060374e-001	 2.131942319153175e+001
1	 1.018789428089395e+000	 2.675513703099967e-001	 2.097513894646408e+001
1	 1.015977770512732e+000	 2.780373594759547e-001	 2.062215315875427e+001
1	 1.013050043668591e+000	 2.885224212695462e-001	 2.026059029811169e+001
1	 1.010005803802045e+000	 2.990047458929148e-001	 1.989063171050573e+001
1	 1.006844642527633e+000	 3.094825049603561e-001	 1.951251664014657e+001
1	 1.039791008713771e+000	 2.060105214088719e-001	 2.257034386259097e+001
1	 1.037651101568104e+000	 2.165313770088748e-001	 2.226533785844937e+001
1	 1.035397775187402e+000	 2.270617924200521e-001	 2.195245998217565e+001
1	 1.033030385390956e+000	 2.376000739811393e-001	 2.163156811870480e+001
1	 1.030548318960230e+000	 2.481445050860533e-001	 2.130257094722229e+001
1	 1.027950994446703e+000	 2.586933468156106e-001	 2.096542928024996e+001
1	 1.025237862966934e+000	 2.692448385994607e-001	 2.062015734712307e+001
1	 1.022408408983657e+000	 2.797971989080638e-001	 2.026682401786519e+001
1	 1.019462151071667e+000	 2.903486259744882e-001	 1.990555396349555e+001
1	 1.016398642667280e+000	 3.008972985457494e-001	 1.953652874884795e+001
1	 1.013217472800151e+000	 3.114413766633629e-001	 1.915998785403275e+001
1	 1.046330973554413e+000	 2.073062640687906e-001	 2.223513173234087e+001
1	 1.044177607052323e+000	 2.178932926067863e-001	 2.192566660431033e+001
1	 1.041910107943235e+000	 2.284899410842093e-001	 2.160896726352992e+001
1	 1.039527827994735e+000	 2.390945051871895e-001	 2.128489167901114e+001
1	 1.037030150131326e+000	 2.497052575127223e-001	 2.095334853461453e+001
1	 1.034416489247346e+000	 2.603204482043598e-001	 2.061429856730615e+001
1	 1.031686293007040e+000	 2.709383056183087e-001	 2.026775584968875e+001
1	 1.028839042630563e+000	 2.815570370197589e-001	 1.991378901280632e+001
1	 1.025874253664687e+000	 2.921748293092218e-001	 1.955252240525442e+001
1	 1.022791476736971e+000	 3.027898497785945e-001	 1.918413718466836e+001
1	 1.019590298292188e+000	 3.134002468966224e-001	 1.880887233771904e+001
1	 9.558631665059840e-001	 2.938118898076575e-001	 2.243054909754979e+001
1	 9.527507155138414e-001	 3.037530213952426e-001	 2.201458917287235e+001
1	 9.495265899749483e-001	 3.136862962449286e-001	 2.158392016490130e+001
1	 9.461905054388915e-001	 3.236099293720238e-001	 2.113878732368179e+001
1	 9.427422136050960e-001	 3.335221213151299e-001	 2.067948263508317e+001
1	 9.391815029145866e-001	 3.434210590039753e-001	 2.020634546528349e+001
1	 9.355081991183116e-001	 3.533049166519174e-001	 1.971976314159106e+001
1	 9.317221658209343e-001	 3.631718566724364e-001	 1.922017146701642e+001
1	 9.278233049990163e-001	 3.730200306188906e-001	 1.870805516610578e+001
1	 9.238115574925392e-001	 3.828475801467559e-001	 1.818394825965161e+001
1	 9.196869034687286e-001	 3.926526379975133e-001	 1.764843436601339e+001
1	 9.622356335456043e-001	 2.957706498539660e-001	 2.205242088013539e+001
1	 9.591024327303189e-001	 3.057780561301271e-001	 2.164112408294324e+001
1	 9.558568128659656e-001	 3.157775532899376e-001	 2.121555435158937e+001
1	 9.524984876057723e-001	 3.257673444486690e-001	 2.077593533477586e+001
1	 9.490272069938092e-001	 3.357456181483736e-001	 2.032253553718427e+001
1	 9.454427580606901e-001	 3.457105492315030e-001	 1.985566896747217e+001
1	 9.417449653956882e-001	 3.556602997393610e-001	 1.937569572576624e+001
1	 9.379336916941496e-001	 3.655930198347079e-001	 1.888302252811666e+001
1	 9.340088382791362e-001	 3.755068487477795e-001	 1.837810316547039e+001
1	 9.299703455962171e-001	 3.853999157449426e-001	 1.786143889481722e+001
1	 9.258181936803928e-001	 3.952703411191423e-001	 1.733357876027654e+001
1	 9.686081850217988e-001	 2.977294358560106e-001	 2.167898008810416e+001
1	 9.654542341084373e-001	 3.078031176988808e-001	 2.127199999080104e+001
1	 9.621871196338280e-001	 3.178688380462120e-001	 2.085115648354825e+001
1	 9.588065533548229e-001	 3.279247881130916e-001	 2.041665426361417e+001
1	 9.553122836601184e-001	 3.379691444448736e-001	 1.996874122173884e+001
1	 9.517040961699055e-001	 3.480000697965839e-001	 1.950770909302981e+001
1	 9.479818143117708e-001	 3.580157140373226e-001	 1.903389405013213e+001
1	 9.441452998717375e-001	 3.680142150789771e-001	 1.854767723618722e+001
1	 9.401944535193617e-001	 3.779936998285092e-001	 1.804948523517501e+001
1	 9.361292153058038e-001	 3.879522851630236e-001	 1.753979047733063e+001
1	 9.319495651338405e-001	 3.978880789267743e-001	 1.701911157743028e+001
1	 9.749808097824353e-001	 2.996882443856060e-001	 2.130977953844886e+001
1	 9.718061085323820e-001	 3.098282025573360e-001	 2.090677554462811e+001
1	 9.685174992003410e-001	 3.199601468536991e-001	 2.049029405243340e+001
1	 9.651146916467712e-001	 3.300822565894713e-001	 2.006052341416350e+001
1	 9.615974326049813e-001	 3.401926963131793e-001	 1.961769372738583e+001
1	 9.579655062847260e-001	 3.502896166922934e-001	 1.916207748811823e+001
1	 9.542187349518960e-001	 3.603711554235786e-001	 1.869399018869009e+001
1	 9.503569794831879e-001	 3.704354381679196e-001	 1.821379085783346e+001
1	 9.463801398946493e-001	 3.804805795088713e-001	 1.772188254063901e+001
1	 9.422881558430289e-001	 3.905046839341429e-001	 1.721871271609413e+001
1	 9.380810070988840e-001	 4.005058468391652e-001	 1.670477365002583e+001
1	 9.813534966753822e-001	 3.016470720145669e-001	 2.094438359293044e+001
1	 9.781580448863387e-001	 3.118533071613252e-001	 2.054502078479269e+001
1	 9.748479404873103e-001	 3.220514760523472e-001	 2.013254571124861e+001
1	 9.714228914423455e-001	 3.322397461019881e-001	 1.970713294379375e+001
1	 9.678826428293532e-001	 3.424162698618393e-001	 1.926899756234192e+001
1	 9.642269774476433e-001	 3.525791859117053e-001	 1.881839581008285e+001
1	 9.604557164014028e-001	 3.627266197759061e-001	 1.835562569504922e+001
1	 9.565687196579936e-001	 3.728566848642112e-001	 1.788102753598152e+001
1	 9.525658865799538e-001	 3.829674834366572e-001	 1.739498445015222e+001
1	 9.484471564296216e-001	 3.930571075914456e-001	 1.689792278089572e+001
1	 9.442125088453363e-001	 4.031236402750706e-001	 1.639031246268613e+001
1	 9.877262345485073e-001	 3.036059153147078e-001	 2.058236778471699e+001
1	 9.845100320544938e-001	 3.138784279666811e-001	 2.018631677533528e+001
1	 9.811784324165394e-001	 3.241428219821035e-001	 1.977750091319838e+001
1	 9.777311417022726e-001	 3.343972528748221e-001	 1.935608351197966e+001
1	 9.741679033341915e-001	 3.446398611994029e-001	 1.892226736539932e+001
1	 9.704884987011498e-001	 3.548687734478948e-001	 1.847629540314721e+001
1	 9.666927477456269e-001	 3.650821029720818e-001	 1.801845129517864e+001
1	 9.627805095256464e-001	 3.752779509305276e-001	 1.754906000200010e+001
1	 9.587516827502318e-001	 3.854544072596586e-001	 1.706848826863142e+001
1	 9.546062062873116e-001	 3.956095516680766e-001	 1.657714506001315e+001
1	 9.503440596430083e-001	 4.057414546532461e-001	 1.607548193571761e+001
1	 9.940990122496792e-001	 3.055647708578432e-001	 2.022331845927424e+001
1	 9.908620589210329e-001	 3.159035614292358e-001	 1.983025524952148e+001
1	 9.875089639098348e-001	 3.262341809829162e-001	 1.942475956432666e+001
1	 9.840394313872813e-001	 3.365547731321533e-001	 1.900698594241387e+001
1	 9.804532031204518e-001	 3.468634664344191e-001	 1.857712757986262e+001
1	 9.767500590877388e-001	 3.571583752939361e-001	 1.813541698648696e+001
1	 9.729298180699066e-001	 3.674376008898821e-001	 1.768212659188681e+001
1	 9.689923382156371e-001	 3.776992321295443e-001	 1.721756929881134e+001
1	 9.649375175804382e-001	 3.879413466256668e-001	 1.674209898154023e+001
1	 9.607652946378278e-001	 3.981620116971803e-001	 1.625611092707051e+001
1	 9.564756487617137e-001	 4.083592853924475e-001	 1.576004221698070e+001
1	 1.000471818626765e+000	 3.075236352157878e-001	 1.986683242887758e+001
1	 9.972141143701416e-001	 3.179287040048216e-001	 1.947643826883962e+001
1	 9.938395238890007e-001	 3.283255493947325e-001	 1.907393168933120e+001
1	 9.903477494580995e-001	 3.387123030981618e-001	 1.865946089793554e+001
1	 9.867385311890909e-001	 3.490870816754367e-001	 1.823321213985424e+001
1	 9.830116476499022e-001	 3.594479874429040e-001	 1.779541035413510e+001
1	 9.791669164595792e-001	 3.697931094070844e-001	 1.734631978051062e+001
1	 9.752041948574574e-001	 3.801205242239372e-001	 1.688624451450320e+001
1	 9.711233802455291e-001	 3.904282971824736e-001	 1.641552900852024e+001
1	 9.669244107029007e-001	 4.007144832119016e-001	 1.593455851673734e+001
1	 9.626072654712645e-001	 4.109771279114304e-001	 1.544375948165429e+001
1	 1.006844642527633e+000	 3.094825049603561e-001	 1.951251664014657e+001
1	 1.003566187286006e+000	 3.199538521492713e-001	 1.912447789485146e+001
1	 1.000170101275842e+000	 3.304169235575005e-001	 1.872463710997416e+001
1	 9.966560848754543e-001	 3.408698389970276e-001	 1.831313856771185e+001
1	 9.930238765410655e-001	 3.513107030310049e-001	 1.789016416844347e+001
1	 9.892732534301330e-001	 3.617376058878730e-001	 1.745593408619869e+001
1	 9.854040319999809e-001	 3.721486244014648e-001	 1.701070737531992e+001
1	 9.814160685805994e-001	 3.825418229763818e-001	 1.655478252598267e+001
1	 9.773092599204598e-001	 3.929152545778704e-001	 1.608849796630910e+001
1	 9.730835437042585e-001	 4.032669617453852e-001	 1.561223250888113e+001
1	 9.687388990414729e-001	 4.135949776289505e-001	 1.512640573954647e+001
1	 1.013217472800151e+000	 3.114413766633629e-001	 1.915998785403275e+001
1	 1.009918266552814e+000	 3.219790023184175e-001	 1.877399587333493e+001
1	 1.006500684992165e+000	 3.325082998111676e-001	 1.837650513553831e+001
1	 1.002964426600074e+000	 3.430273770529304e-001	 1.796765836613654e+001
1	 9.993092281773319e-001	 3.535343266096725e-001	 1.754763568708217e+001
1	 9.955348654709232e-001	 3.640272266219177e-001	 1.711665527089155e+001
1	 9.916411537764502e-001	 3.745041417508007e-001	 1.667497394617014e+001
1	 9.876279485145537e-001	 3.849631241495538e-001	 1.622288775222995e+001
1	 9.834951457801870e-001	 3.954022144596490e-001	 1.576073244053722e+001
1	 9.792426828636313e-001	 4.058194428307757e-001	 1.528888392080448e+001
1	 9.748705387421515e-001	 4.162128299637636e-001	 1.480775864962218e+001
1	 1.019590298292188e+000	 3.134002468966224e-001	 1.880887233771904e+001
1	 1.016270341054748e+000	 3.240041509680922e-001	 1.842462333018329e+001
1	 1.012831263959774e+000	 3.345996744956820e-001	 1.802917426480566e+001
1	 1.009272763592686e+000	 3.451849134900504e-001	 1.762266864293644e+001
1	 1.005594575098846e+000	 3.557579485199885e-001	 1.720528733585655e+001
1	 1.001796472814765e+000	 3.663168456381125e-001	 1.677724923691400e+001
1	 9.978782708743237e-001	 3.768596573328684e-001	 1.633881186495713e+001
1	 9.938398237888124e-001	 3.873844235061286e-001	 1.589027191673729e+001
1	 9.896810269996652e-001	 3.978891724756004e-001	 1.543196576601936e+001
1	 9.854018174027490e-001	 4.083719220012180e-001	 1.496426990721461e+001
1	 9.810021738431126e-001	 4.188306803346251e-001	 1.448760134143303e+001
1	 9.196869034687286e-001	 3.926526379975133e-001	 1.764843436601339e+001
1	 9.154500070382964e-001	 4.024318639757796e-001	 1.709821425626944e+001
1	 9.111003186645378e-001	 4.121848497096857e-001	 1.652982019598190e+001
1	 9.066379396471510e-001	 4.219097086716465e-001	 1.594389255939071e+001
1	 9.020630121438826e-001	 4.316045495771123e-001	 1.534110998972430e+001
1	 8.973757194803052e-001	 4.412674774614075e-001	 1.472218930245406e+001
1	 8.925762864264074e-001	 4.508965947721493e-001	 1.408788532877832e+001
1	 8.876649794392210e-001	 4.604900024760815e-001	 1.343899069853540e+001
1	 8.826421068707412e-001	 4.700458011791232e-001	 1.277633556187093e+001
1	 8.775080191404553e-001	 4.795620922583880e-001	 1.210078724911411e+001
1	 8.722631088718381e-001	 4.890369790048946e-001	 1.141324986845652e+001
1	 9.258181936803928e-001	 3.952703411191423e-001	 1.733357876027654e+001
1	 9.215530510698096e-001	 4.051147624068305e-001	 1.679109798938520e+001
1	 9.171743645641777e-001	 4.149327685136948e-001	 1.623044005215093e+001
1	 9.126822361385569e-001	 4.247224603352865e-001	 1.565226224959823e+001
1	 9.080768088984456e-001	 4.344819339784805e-001	 1.505726175143764e+001
1	 9.033582673916205e-001	 4.442092818454914e-001	 1.444617548047798e+001
1	 8.985268378865744e-001	 4.539025937335760e-001	 1.381977993404273e+001
1	 8.935827886167579e-001	 4.635599579492457e-001	 1.317889094158904e+001
1	 8.885264299898883e-001	 4.731794624357821e-001	 1.252436335785225e+001
1	 8.833581147616244e-001	 4.827591959128024e-001	 1.185709069098805e+001
1	 8.780782381729780e-001	 4.922972490265903e-001	 1.117800466532379e+001
1	 9.319495651338405e-001	 3.978880789267743e-001	 1.701911157743028e+001
1	 9.276561759691135e-001	 4.077976963877616e-001	 1.648392087750386e+001
1	 9.232484909476880e-001	 4.176807237291812e-001	 1.593058966879573e+001
1	 9.187266127199797e-001	 4.275352492695397e-001	 1.535978733435817e+001
1	 9.140906853392351e-001	 4.373593565069526e-001	 1.477222433652294e+001
1	 9.093408945754364e-001	 4.471511252103419e-001	 1.416865208633906e+001
1	 9.044774681955854e-001	 4.569086325264201e-001	 1.354986274753143e+001
1	 8.995006762095589e-001	 4.666299541012819e-001	 1.291668897416983e+001
1	 8.944108310808061e-001	 4.763131652153874e-001	 1.227000358138306e+001
1	 8.892082879011765e-001	 4.859563419306749e-001	 1.161071914859464e+001
1	 8.838934445292345e-001	 4.955575622485071e-001	 1.093978755491277e+001
1	 9.380810070988840e-001	 4.005058468391652e-001	 1.670477365002583e+001
1	 9.337593710554044e-001	 4.104806612232351e-001	 1.617645349503225e+001
1	 9.293226871849585e-001	 4.204287105470165e-001	 1.563006413380806e+001
1	 9.247710588133131e-001	 4.303480705518117e-001	 1.506628228244751e+001
1	 9.201046309414599e-001	 4.402368121268190e-001	 1.448582656309802e+001
1	 9.153235905615894e-001	 4.500930024075074e-001	 1.388945736225368e+001
1	 9.104281669392149e-001	 4.599147058898858e-001	 1.327797662181327e+001
1	 9.054186318606474e-001	 4.696999855594728e-001	 1.265222756209507e+001
1	 9.002952998450807e-001	 4.794469040337470e-001	 1.201309433614283e+001
1	 8.950585283205648e-001	 4.891535247168061e-001	 1.136150161481502e+001
1	 8.897087177632357e-001	 4.988179129649336e-001	 1.069841410229853e+001
1	 9.442125088453363e-001	 4.031236402750706e-001	 1.639031246268613e+001
1	 9.398626256478790e-001	 4.131636522179138e-001	 1.586847229572785e+001
1	 9.353969426458797e-001	 4.231767241580723e-001	 1.532866377767981e+001
1	 9.308155638404507e-001	 4.331609192595093e-001	 1.477156630193419e+001
1	 9.261186351803299e-001	 4.431142958023703e-001	 1.419790161603591e+001
1	 9.213063448799165e-001	 4.530349082885372e-001	 1.360843367262155e+001
1	 9.163789237032390e-001	 4.629208085631790e-001	 1.300396841208985e+001
1	 9.113366452130506e-001	 4.727700469511017e-001	 1.238535347619855e+001
1	 9.061798259842969e-001	 4.825806734066670e-001	 1.175347785192841e+001
1	 9.009088257812431e-001	 4.923507386759969e-001	 1.110927144511325e+001
1	 8.955240476976102e-001	 5.020782954701593e-001	 1.045370458349015e+001
1	 9.503440596430083e-001	 4.057414546532461e-001	 1.607548193571761e+001
1	 9.459659290657336e-001	 4.158466646764603e-001	 1.555975942116217e+001
1	 9.414712467003406e-001	 4.259247597532196e-001	 1.502619400244271e+001
1	 9.368601172232867e-001	 4.359737904700382e-001	 1.447546318529928e+001
1	 9.321326875310547e-001	 4.459918024978973e-001	 1.390828690405966e+001
1	 9.272891470602537e-001	 4.559768377049800e-001	 1.332542736897385e+001
1	 9.223297280734327e-001	 4.659269352855038e-001	 1.272768884496481e+001
1	 9.172547059097932e-001	 4.758401329034516e-001	 1.211591736099223e+001
1	 9.120643992000406e-001	 4.857144678499548e-001	 1.149100034937890e+001
1	 9.067591700446656e-001	 4.955479782130488e-001	 1.085386621460329e+001
1	 9.013394241549871e-001	 5.053387040584731e-001	 1.020548383122254e+001
1	 9.564756487617137e-001	 4.083592853924475e-001	 1.576004221698070e+001
1	 9.520692706281645e-001	 4.185296939035369e-001	 1.525010251649391e+001
1	 9.475455887182311e-001	 4.286728125233301e-001	 1.472246511713720e+001
1	 9.429047083837147e-001	 4.387866792608043e-001	 1.417780116047172e+001
1	 9.381467774688427e-001	 4.488693271776905e-001	 1.361682392229273e+001
1	 9.332719866324373e-001	 4.589187855083843e-001	 1.304028866007468e+001
1	 9.282805696355722e-001	 4.689330807960657e-001	 1.244899239222358e+001
1	 9.231728035939003e-001	 4.789102380438052e-001	 1.184377360834252e+001
1	 9.179490091938974e-001	 4.888482818794177e-001	 1.122551190986557e+001
1	 9.126095508722855e-001	 4.987452377327623e-001	 1.059512758056989e+001
1	 9.071548369579945e-001	 5.085991330241642e-001	 9.953581086634575e+000
1	 9.626072654712645e-001	 4.109771279114304e-001	 1.544375948165429e+001
1	 9.581726396543679e-001	 4.212127352038064e-001	 1.493929455322964e+001
1	 9.536199580694413e-001	 4.314208776592749e-001	 1.441729217952149e+001
1	 9.489493267436280e-001	 4.415995807092140e-001	 1.387841274751079e+001
1	 9.441608944689036e-001	 4.517468648060403e-001	 1.332335812002068e+001
1	 9.392548531263044e-001	 4.618607465502997e-001	 1.275287148694808e+001
1	 9.342314379754318e-001	 4.719392398340696e-001	 1.216773714939820e+001
1	 9.290909279083981e-001	 4.819803569994457e-001	 1.156878023593558e+001
1	 9.238336456674515e-001	 4.919821100108620e-001	 1.095686635031453e+001
1	 9.184599580255566e-001	 5.019425116399385e-001	 1.033290115020281e+001
1	 9.129702759292612e-001	 5.118595766615219e-001	 9.697829856571163e+000
1	 9.687388990414729e-001	 4.135949776289505e-001	 1.512640573954648e+001
1	 9.642760254635409e-001	 4.238957838819312e-001	 1.462713365866338e+001
1	 9.596943441238608e-001	 4.341689503519257e-001	 1.411049484374493e+001
1	 9.549939617249218e-001	 4.444124898926737e-001	 1.357713462069078e+001
1	 9.501750280064466e-001	 4.546244103472374e-001	 1.302773877343645e+001
1	 9.452377360716914e-001	 4.648027156822747e-001	 1.246303340261474e+001
1	 9.401823226787878e-001	 4.749454071387204e-001	 1.188378471890857e+001
1	 9.350090684963112e-001	 4.850504843976559e-001	 1.129079877032314e+001
1	 9.297182983222886e-001	 4.951159467600947e-001	 1.068492110274650e+001
1	 9.243103812659330e-001	 5.051397943393786e-001	 1.006703635331640e+001
1	 9.187857308914157e-001	 5.151200292648354e-001	 9.438067776264020e+000
1	 9.748705387421515e-001	 4.162128299637636e-001	 1.480775864962218e+001
1	 9.703794173748791e-001	 4.265788352425738e-001	 1.431342295170443e+001
1	 9.657687362513791e-001	 4.369170257921535e-001	 1.380189721372692e+001
1	 9.610386027494882e-001	 4.472254018885887e-001	 1.327380747574900e+001
1	 9.561891675566809e-001	 4.575019587655727e-001	 1.272981886315105e+001
1	 9.512206249984339e-001	 4.677446877558579e-001	 1.217063545633237e+001
1	 9.461332133314153e-001	 4.779515774492232e-001	 1.159700009757956e+001
1	 9.409272150006648e-001	 4.881206148657190e-001	 1.100969413434721e+001
1	 9.356029568599945e-001	 4.982497866429231e-001	 1.040953709832817e+001
1	 9.301608103548680e-001	 5.083370802358833e-001	 9.797386319834340e+000
1	 9.246011916670868e-001	 5.183804851283934e-001	 9.174136477153116e+000
1	 9.810021738431126e-001	 4.188306803346251e-001	 1.448760134143303e+001
1	 9.764828047075795e-001	 4.292618845903969e-001	 1.399797038481465e+001
1	 9.718431238218865e-001	 4.396650991708302e-001	 1.349132770199146e+001
1	 9.670832392392218e-001	 4.500383117743657e-001	 1.296827590207488e+001
1	 9.622033025948158e-001	 4.603795050253364e-001	 1.242945495626186e+001
1	 9.572035094363700e-001	 4.706866576225989e-001	 1.187554208214312e+001
1	 9.520840995190897e-001	 4.809577455047829e-001	 1.130725156834374e+001
1	 9.468453570644847e-001	 4.911907430309179e-001	 1.072533453875387e+001
1	 9.414876109821542e-001	 5.013836241751539e-001	 1.013057865573661e+001
1	 9.360112350538159e-001	 5.115343637342538e-001	 9.523807761833735e+000
1	 9.304166480789026e-001	 5.216409385464856e-001	 8.905881459628505e+000
1	 8.722631088718381e-001	 4.890369790048946e-001	 1.141324986845652e+001
1	 8.669069994773564e-001	 4.984699794031350e-001	 1.071223143963937e+001
1	 8.614409475685219e-001	 5.078577791162043e-001	 9.996060964368724e+000
1	 8.558654737743154e-001	 5.171984938406529e-001	 9.265078137081970e+000
1	 8.501811411206635e-001	 5.264902458615942e-001	 8.519607629839463e+000
1	 8.443885549780590e-001	 5.357311652289508e-001	 7.759959038481166e+000
1	 8.384883629704415e-001	 5.449193909360232e-001	 6.986426864714708e+000
1	 8.324812548450976e-001	 5.540530720989082e-001	 6.199290534349794e+000
1	 8.263679623034136e-001	 5.631303691352767e-001	 5.398814451801020e+000
1	 8.201492587923700e-001	 5.721494549410070e-001	 4.585248090867661e+000
1	 8.138259592567364e-001	 5.811085160631598e-001	 3.758826121718985e+000
1	 8.780782381729780e-001	 4.922972490265903e-001	 1.117800466532380e+001
1	 8.726864211258274e-001	 5.017931365482344e-001	 1.048525979339871e+001
1	 8.671839286091180e-001	 5.112435220450455e-001	 9.776764769140684e+000
1	 8.615712847226640e-001	 5.206465086513883e-001	 9.052788447381611e+000
1	 8.558490562458758e-001	 5.300002061341147e-001	 8.313580516554085e+000
1	 8.500178525850264e-001	 5.393027320766500e-001	 7.559371536020178e+000
1	 8.440783256815294e-001	 5.485522130654223e-001	 6.790373017900294e+000
1	 8.380311698809672e-001	 5.577467858771381e-001	 6.006777553508523e+000
1	 8.318771217627186e-001	 5.668845986654242e-001	 5.208758984377548e+000
1	 8.256169599300632e-001	 5.759638121453027e-001	 4.396472617735196e+000
1	 8.192515047607230e-001	 5.849826007739867e-001	 3.570055486168767e+000
1	 8.838934445292345e-001	 4.955575622485071e-001	 1.093978755491277e+001
1	 8.784659193562274e-001	 5.051163377265163e-001	 1.025497288449322e+001
1	 8.729269857486570e-001	 5.146293098359489e-001	 9.553739727134269e+000
1	 8.672771712772374e-001	 5.240945691488353e-001	 8.836298502398732e+000
1	 8.615170464749264e-001	 5.335102129136186e-001	 8.102837077033939e+000
1	 8.556472247838540e-001	 5.428743462470813e-001	 7.353520878291469e+000
1	 8.496683624629794e-001	 5.521850833286301e-001	 6.588493058832758e+000
1	 8.435811584562621e-001	 5.614405485954395e-001	 5.807874713238262e+000
1	 8.373863542211578e-001	 5.706388779369471e-001	 5.011765145986199e+000
1	 8.310847335173305e-001	 5.797782198871765e-001	 4.200242190640186e+000
1	 8.246771221555452e-001	 5.888567368133510e-001	 3.373362579824646e+000
1	 8.897087177632357e-001	 4.988179129649336e-001	 1.069841410229853e+001
1	 8.842454840536721e-001	 5.084395771222589e-001	 1.002117582520512e+001
1	 8.786701089360395e-001	 5.180151365637197e-001	 9.326790527733500e+000
1	 8.729831234520048e-001	 5.275426692988843e-001	 8.615422363204104e+000
1	 8.671851018881376e-001	 5.370202600576582e-001	 7.887210292885682e+000
1	 8.612766617224811e-001	 5.464460014900537e-001	 7.142268260289971e+000
1	 8.552584635316092e-001	 5.558179953683310e-001	 6.380685422671159e+000
1	 8.491312108579270e-001	 5.651343537900048e-001	 5.602526439675804e+000
1	 8.428956500370379e-001	 5.743932003802005e-001	 4.807831818920615e+000
1	 8.365525699850671e-001	 5.835926714918182e-001	 3.996618318129753e+000
1	 8.301028019459008e-001	 5.927309174019697e-001	 3.168879403293100e+000
1	 8.955240476976102e-001	 5.020782954701593e-001	 1.045370458349015e+001
1	 8.900251051032770e-001	 5.117628489197402e-001	 9.783678709529587e+000
1	 8.844132881201637e-001	 5.214009963031629e-001	 9.095726852055405e+000
1	 8.786891312609382e-001	 5.309908030674250e-001	 8.389978838070967e+000
1	 8.728532125658290e-001	 5.405303414237858e-001	 7.666537400325264e+000
1	 8.669061535488470e-001	 5.500176915553779e-001	 6.925478397724024e+000
1	 8.608486191042365e-001	 5.594509428272086e-001	 6.166851097116525e+000
1	 8.546813173729051e-001	 5.688281949970272e-001	 5.390678516345059e+000
1	 8.484049995686658e-001	 5.781475594255391e-001	 4.596957828268931e+000
1	 8.420204597641682e-001	 5.874071602844178e-001	 3.785660825312360e+000
1	 8.355285346364872e-001	 5.966051357605590e-001	 2.956734443909395e+000
1	 9.013394241549871e-001	 5.053387040584731e-001	 1.020548383122255e+001
1	 8.958047723901594e-001	 5.150861473032389e-001	 9.542296450182642e+000
1	 8.901565132499305e-001	 5.247868831290851e-001	 8.860363209566017e+000
1	 8.843951847180088e-001	 5.344389644203480e-001	 8.159791326898677e+000
1	 8.785213685883219e-001	 5.440404508695520e-001	 7.440659750402134e+000
1	 8.725356904108920e-001	 5.535894101928635e-001	 6.703019410819475e+000
1	 8.664388193976783e-001	 5.630839193479467e-001	 5.946893537353921e+000
1	 8.602314682881397e-001	 5.725220657526985e-001	 5.172278037561748e+000
1	 8.539143931743478e-001	 5.819019485033186e-001	 4.379141940869947e+000
1	 8.474883932855289e-001	 5.912216795901660e-001	 3.567427905208585e+000
1	 8.409543107320018e-001	 6.004793851098359e-001	 2.737052786075791e+000
1	 9.071548369579945e-001	 5.085991330241642e-001	 9.953581086634577e+000
1	 9.015844757994344e-001	 5.184094664570330e-001	 9.296848621829831e+000
1	 8.958997742742388e-001	 5.281727911162905e-001	 8.620518780934152e+000
1	 8.901012738371871e-001	 5.378871473235432e-001	 7.924687671575619e+000
1	 8.841895600359369e-001	 5.475505822525097e-001	 7.209422674558453e+000
1	 8.781652624565559e-001	 5.571611511523207e-001	 6.474762712557710e+000
1	 8.720290546287524e-001	 5.667169185732297e-001	 5.720718584237906e+000
1	 8.657816538905742e-001	 5.762159595932119e-001	 4.947273363615303e+000
1	 8.594238212123907e-001	 5.856563610438935e-001	 4.154382864309269e+000
1	 8.529563609800457e-001	 5.950362227342529e-001	 3.341976168144405e+000
1	 8.463801207371424e-001	 6.043536586705171e-001	 2.509956217385436e+000
1	 9.129702759292612e-001	 5.118595766615219e-001	 9.697829856571165e+000
1	 9.073642052162175e-001	 5.217328005654008e-001	 9.047159310259394e+000
1	 9.016430611419890e-001	 5.315587143395855e-001	 8.376017266843290e+000
1	 8.958073886324436e-001	 5.413353457429005e-001	 7.684500012015008e+000
1	 8.898577769889952e-001	 5.510607294302107e-001	 6.972675355286032e+000
1	 8.837948598337780e-001	 5.607329081835595e-001	 6.240582901151796e+000
1	 8.776193150142760e-001	 5.703499341457411e-001	 5.488234385580893e+000
1	 8.713318644671524e-001	 5.799098700547596e-001	 4.715614077648530e+000
1	 8.649332740411011e-001	 5.894107904776190e-001	 3.922679245951447e+000
1	 8.584243532786128e-001	 5.988507830418685e-001	 3.109360689265226e+000
1	 8.518059551566063e-001	 6.082279496633187e-001	 2.275563330718824e+000
1	 9.187857308914157e-001	 5.151200292648354e-001	 9.438067776264020e+000
1	 9.131439505256258e-001	 5.250561438126209e-001	 8.793056967240315e+000
1	 9.073863638020802e-001	 5.349446468737750e-001	 8.126686742501711e+000
1	 9.015135191177502e-001	 5.447835536443103e-001	 7.439064647617052e+000
1	 8.955260095278167e-001	 5.545708862602062e-001	 6.730270701657395e+000
1	 8.894244726904979e-001	 5.643046750363900e-001	 6.000357656573521e+000
1	 8.832095907710671e-001	 5.739829597081649e-001	 5.249351320406031e+000
1	 8.768820903048176e-001	 5.836037906735344e-001	 4.477250944161086e+000
1	 8.704427420187855e-001	 5.931652302348501e-001	 3.684029672005091e+000
1	 8.638923606121264e-001	 6.026653538382029e-001	 2.869635054258198e+000
1	 8.572318044950911e-001	 6.121022513089577e-001	 2.033989622488591e+000
1	 9.246011916670868e-001	 5.183804851283934e-001	 9.174136477153116e+000
1	 9.189237016127740e-001	 5.283794903829712e-001	 8.534374270814995e+000
1	 9.131296722034114e-001	 5.383305827936643e-001	 7.872359517600238e+000
1	 9.072196553070769e-001	 5.482317649936626e-001	 7.188221903918751e+000
1	 9.011942477327234e-001	 5.580810466000489e-001	 6.482065229517469e+000
1	 8.950540911746555e-001	 5.678764454606223e-001	 5.753967640954829e+000
1	 8.887998721159427e-001	 5.776159889031850e-001	 5.003981926035356e+000
1	 8.824323216905130e-001	 5.872977149857288e-001	 4.232135869065463e+000
1	 8.759522155037509e-001	 5.969196737459424e-001	 3.438432666622203e+000
1	 8.693603734114814e-001	 6.064799284484465e-001	 2.622851403359277e+000
1	 8.626576592572942e-001	 6.159765568281508e-001	 1.785347587202492e+000
1	 9.304166480789026e-001	 5.216409385464856e-001	 8.905881459628505e+000
1	 9.247034483627793e-001	 5.317028344607302e-001	 8.270947990791573e+000
1	 9.188729762948830e-001	 5.417165161740593e-001	 7.612872001482091e+000
1	 9.129257872143954e-001	 5.516799737568476e-001	 6.931816004205498e+000
1	 9.068624816840354e-001	 5.615912043072900e-001	 6.227918946133138e+000
1	 9.006837054341905e-001	 5.714482132060662e-001	 5.501296402695011e+000
1	 8.943901492657200e-001	 5.812490153734854e-001	 4.752040827890721e+000
1	 8.879825489111826e-001	 5.909916365275353e-001	 3.980221861226654e+000
1	 8.814616848543042e-001	 6.006741144412503e-001	 3.185886691028392e+000
1	 8.748283821075730e-001	 6.102945001977893e-001	 2.369060473719574e+000
1	 8.680835099479130e-001	 6.198508594416141e-001	 1.529746808503175e+000
1	 8.138259592567364e-001	 5.811085160631598e-001	 3.758826121718983e+000
1	 8.073989196223579e-001	 5.900057536711100e-001	 2.919622761009352e+000
1	 8.008690357874088e-001	 5.988393841156299e-001	 2.068474333804829e+000
1	 7.942372439580684e-001	 6.076076406512598e-001	 1.206783802130566e+000
1	 7.875045204774031e-001	 6.163087747742401e-001	 3.360009972305245e-001
1	 7.806718813845675e-001	 6.249410573556360e-001	-5.423790976887263e-001
1	 7.737403819358265e-001	 6.335027797617577e-001	-1.426818151314897e+000
1	 7.667111160878265e-001	 6.419922549603809e-001	-2.315736371661440e+000
1	 7.595852159436007e-001	 6.504078186112841e-001	-3.207514473791927e+000
1	 7.523638511618763e-001	 6.587478301396494e-001	-4.100495724357818e+000
1	 7.450482283302942e-001	 6.670106737908847e-001	-4.992988059247066e+000
1	 8.192515047607230e-001	 5.849826007739867e-001	 3.570055486168763e+000
1	 8.127816178867238e-001	 5.939391537284960e-001	 2.729967977010104e+000
1	 8.062082011789851e-001	 6.028316754685040e-001	 1.877581677556566e+000
1	 7.995321970851740e-001	 6.116583874701552e-001	 1.014428365983630e+000
1	 7.927545884574261e-001	 6.204175295729068e-001	 1.420936278356531e-001
1	 7.858763981086077e-001	 6.291073611202075e-001	-7.377850938263643e-001
1	 7.788986883301446e-001	 6.377261620873864e-001	-1.623520548593646e+000
1	 7.718225603718486e-001	 6.462722341952493e-001	-2.513377825700203e+000
1	 7.646491538842304e-001	 6.547439020078860e-001	-3.405576594083906e+000
1	 7.573796463238672e-001	 6.631395140132278e-001	-4.298293431506045e+000
1	 7.500152523224444e-001	 6.714574436849000e-001	-5.189664238478404e+000
1	 8.246771221555452e-001	 5.888567368133510e-001	 3.373362579824646e+000
1	 8.181643874740975e-001	 5.978726058999938e-001	 2.532047390882783e+000
1	 8.115474373167191e-001	 6.068240197155238e-001	 1.678256279316688e+000
1	 8.048272203726287e-001	 6.157091879575350e-001	 8.136343815615248e-001
1	 7.980047260030980e-001	 6.245263388085474e-001	-6.011332910962617e-002
1	 7.910809837947762e-001	 6.332737200842387e-001	-9.412242012661222e-001
1	 7.840570630743251e-001	 6.419496003688086e-001	-1.827880176323368e+000
1	 7.769340723847995e-001	 6.505522701359425e-001	-2.718210167974373e+000
1	 7.697131589242690e-001	 6.590800428538964e-001	-3.610292545853927e+000
1	 7.623955079472442e-001	 6.675312560732037e-001	-4.502157718958193e+000
1	 7.549823421295439e-001	 6.759042724955662e-001	-5.391790814061095e+000
1	 8.301028019459008e-001	 5.927309174019697e-001	 3.168879403293099e+000
1	 8.235472189641807e-001	 6.018061033025565e-001	 2.326061023918662e+000
1	 8.168867348565085e-001	 6.108164098706105e-001	 1.470753787562082e+000
1	 8.101223045537096e-001	 6.197600350250394e-001	 6.047010519397366e-001
1	 8.032549239262515e-001	 6.286351952912920e-001	-2.702888553078454e-001
1	 7.962856293346265e-001	 6.374401269571446e-001	-1.152344980635136e+000
1	 7.892154971407974e-001	 6.461730872155351e-001	-2.039536211267559e+000
1	 7.820456431811288e-001	 6.548323552929016e-001	-2.929873860265693e+000
1	 7.747772222013190e-001	 6.634162335615358e-001	-3.821314365399793e+000
1	 7.674114272538861e-001	 6.719230486344507e-001	-4.711762096934314e+000
1	 7.599494890588572e-001	 6.803511524413004e-001	-5.599072269124080e+000
1	 8.355285346364872e-001	 5.966051357605590e-001	 2.956734443909396e+000
1	 8.289301029366748e-001	 6.057396390531373e-001	 2.112203619318517e+000
1	 8.222260844542511e-001	 6.148088389476848e-001	 1.255323130536435e+000
1	 8.154174403616957e-001	 6.238109215843080e-001	 3.879197320570671e-001
1	 8.085051730387201e-001	 6.327440918312718e-001	-4.881106030244002e-001
1	 8.014903256197122e-001	 6.416065744483401e-001	-1.370805189164994e+000
1	 7.943739815019897e-001	 6.503966152370774e-001	-2.258137265841558e+000
1	 7.871572638152846e-001	 6.591124821765653e-001	-3.148018761759257e+000
1	 7.798413348529827e-001	 6.677524665430258e-001	-4.038303180866519e+000
1	 7.724273954656712e-001	 6.763148840118431e-001	-4.926788604918326e+000
1	 7.649166844176492e-001	 6.847980757405193e-001	-5.811220806993747e+000
1	 8.409543107320018e-001	 6.004793851098359e-001	 2.737052786075787e+000
1	 8.343130299712810e-001	 6.096732062686902e-001	 1.890664809455120e+000
1	 8.275654767658445e-001	 6.188012999606668e-001	 1.032206730075478e+000
1	 8.207126185298644e-001	 6.278618405469804e-001	 1.635741790103272e-001
1	 8.137554641523362e-001	 6.368530212386180e-001	-7.132646181479860e-001
1	 8.066950635415870e-001	 6.457730552672397e-001	-1.596271486629174e+000
1	 7.995325071303310e-001	 6.546201770429464e-001	-2.483341086160766e+000
1	 7.922689253417158e-001	 6.633926432973745e-001	-3.372303828127100e+000
1	 7.849054880168624e-001	 6.720887342105870e-001	-4.260928920979040e+000
1	 7.774434038044777e-001	 6.807067545202551e-001	-5.146927538319160e+000
1	 7.698839195131854e-001	 6.892450346116411e-001	-6.027956103735510e+000
1	 8.463801207371424e-001	 6.043536586705171e-001	 2.509956217385436e+000
1	 8.396959906477002e-001	 6.136067980661675e-001	 1.661629276748310e+000
1	 8.329049024471865e-001	 6.227937859234779e-001	 8.016407072690904e-001
1	 8.260078297914940e-001	 6.319127848246963e-001	-6.805920721041947e-002
1	 8.190057880789340e-001	 6.409619763234614e-001	-9.454450738194213e-001
1	 8.118998339918037e-001	 6.499395621232577e-001	-1.828419152506551e+000
1	 8.046910649982507e-001	 6.588437652426532e-001	-2.714814261616983e+000
1	 7.973806188148718e-001	 6.676728311657690e-001	-3.602396822103200e+000
1	 7.899696728305611e-001	 6.764250289764414e-001	-4.488870034893130e+000
1	 7.824594434921843e-001	 6.850986524745598e-001	-5.371877185566899e+000
1	 7.748511856527302e-001	 6.936920212730822e-001	-6.249005070144198e+000
1	 8.518059551566063e-001	 6.082279496633187e-001	 2.275563330718823e+000
1	 8.450789755456339e-001	 6.175404075625227e-001	 1.425276908437157e+000
1	 8.382443521541747e-001	 6.267862898500387e-001	 5.638550803172129e-001
1	 8.313030648798628e-001	 6.359637473290957e-001	-3.067111521199208e-001
1	 8.242561356303462e-001	 6.450709498959332e-001	-1.184354014170002e+000
1	 8.171046278619158e-001	 6.541060877258093e-001	-2.066931813877417e+000
1	 8.098496460781764e-001	 6.630673724457090e-001	-2.952231945475092e+000
1	 8.024923352892005e-001	 6.719530382921890e-001	-3.837974035038747e+000
1	 7.950338804316810e-001	 6.807613432528102e-001	-4.721813222676127e+000
1	 7.874755057506695e-001	 6.894905701896319e-001	-5.601343575186777e+000
1	 7.798184741435482e-001	 6.981390279432600e-001	-6.474101622764466e+000
1	 8.572318044950911e-001	 6.121022513089577e-001	 2.033989622488590e+000
1	 8.504619752447837e-001	 6.214740278747093e-001	 1.181782945513515e+000
1	 8.435838165427069e-001	 6.307788047542697e-001	 3.190739549265392e-001
1	 8.365983145282484e-001	 6.400147209718181e-001	-5.521192838686387e-001
1	 8.295064976184053e-001	 6.491799347661639e-001	-1.429701107721858e+000
1	 8.223094360434770e-001	 6.582726247843088e-001	-2.311501183577797e+000
1	 8.150082413425385e-001	 6.672909912616248e-001	-3.195277586002998e+000
1	 8.076040658191516e-001	 6.762332571870745e-001	-4.078720018954571e+000
1	 8.000981019578242e-001	 6.850976694519142e-001	-4.959453175950211e+000
1	 7.924915818018116e-001	 6.938824999803447e-001	-5.835040232405516e+000
1	 7.847857762929047e-001	 7.025860468405919e-001	-6.702986463542970e+000
1	 8.626576592572942e-001	 6.159765568281508e-001	 1.785347587202494e+000
1	 8.558449803248511e-001	 6.254076521196812e-001	 9.313181260753208e-001
1	 8.489232862686810e-001	 6.347713236500919e-001	 6.751570757240952e-002
1	 8.418935694699284e-001	 6.440656986645033e-001	-8.040279187237109e-001
1	 8.347568648549454e-001	 6.532889237442848e-001	-1.681203410027367e+000
1	 8.275142494280406e-001	 6.624391660081712e-001	-2.561826808165098e+000
1	 8.201668417637648e-001	 6.715146142999121e-001	-3.443642667675544e+000
1	 8.127158014591731e-001	 6.805134803608659e-001	-4.324327328634866e+000
1	 8.051623285465938e-001	 6.894339999859750e-001	-5.201492328251027e+000
1	 7.975076628674882e-001	 6.982744341615723e-001	-6.072687944879393e+000
1	 7.897530834080641e-001	 7.070330701834948e-001	-6.935406867737481e+000
1	 8.680835099479130e-001	 6.198508594416141e-001	 1.529746808503175e+000
1	 8.612279813655368e-001	 6.293412734143905e-001	 6.740488233404653e-001
1	 8.542627519879941e-001	 6.387638395514256e-001	-1.906068380652551e-001
1	 8.471888204381821e-001	 6.481166733187914e-001	-1.062187854541523e+000
1	 8.400072281517993e-001	 6.573979096404267e-001	-1.938585135148289e+000
1	 8.327190589071605e-001	 6.666057041068111e-001	-2.817615825268912e+000
1	 8.253254383142842e-001	 6.757382341700818e-001	-3.697026462015882e+000
1	 8.178275332637144e-001	 6.847937003240027e-001	-4.574496273321837e+000
1	 8.102265513355921e-001	 6.937703272672137e-001	-5.447640614683609e+000
1	 8.025237401695791e-001	 7.026663650481889e-001	-6.314014537143642e+000
1	 7.947203867962918e-001	 7.114800901903866e-001	-7.171116479722429e+000
1	 7.450482283302942e-001	 6.670106737908847e-001	-4.992988059247070e+000
1	 7.376407085647760e-001	 6.751935382033578e-001	-5.870758949309836e+000
1	 7.301414800067997e-001	 6.832961067697868e-001	-6.720365865380080e+000
1	 7.225518559652614e-001	 6.913168456532408e-001	-7.540882299400338e+000
1	 7.148731837902085e-001	 6.992542498395045e-001	-8.331392335616183e+000
1	 7.071068440770070e-001	 7.071068440770069e-001	-9.090992248189252e+000
1	 6.992542498395046e-001	 7.148731837902086e-001	-9.818792089722530e+000
1	 6.913168456532407e-001	 7.225518559652614e-001	-1.051391726732495e+001
1	 6.832961067697868e-001	 7.301414800067997e-001	-1.117551010288625e+001
1	 6.751935382033579e-001	 7.376407085647760e-001	-1.180273137424423e+001
1	 6.670106737908847e-001	 7.450482283302943e-001	-1.239476183397552e+001
1	 7.500152523224444e-001	 6.714574436849000e-001	-5.189664238478405e+000
1	 7.425583487368150e-001	 6.796948609187311e-001	-6.065530583010980e+000
1	 7.350091249626953e-001	 6.878514469967676e-001	-6.912715162009131e+000
1	 7.273689030643643e-001	 6.959256578564965e-001	-7.730405953550705e+000
1	 7.196390393741970e-001	 7.039159784502747e-001	-8.517805274566927e+000
1	 7.118209236915217e-001	 7.118209236915217e-001	-9.274131171232254e+000
1	 7.039159784502745e-001	 7.196390393741969e-001	-9.998618793693277e+000
1	 6.959256578564965e-001	 7.273689030643643e-001	-1.069052175222064e+001
1	 6.878514469967673e-001	 7.350091249626949e-001	-1.134911345190844e+001
1	 6.796948609187310e-001	 7.425583487368149e-001	-1.197368840308820e+001
1	 6.714574436848999e-001	 7.500152523224445e-001	-1.256356350467663e+001
1	 7.549823421295439e-001	 6.759042724955662e-001	-5.391790814061095e+000
1	 7.474760540691479e-001	 6.841962432740210e-001	-6.265179767725225e+000
1	 7.398768344160392e-001	 6.924068475798988e-001	-7.109466800585190e+000
1	 7.321860139900158e-001	 7.005345311249522e-001	-7.923949302322258e+000
1	 7.244049581059168e-001	 7.085777688279572e-001	-8.707942498085370e+000
1	 7.165350657671743e-001	 7.165350657671743e-001	-9.460780640318147e+000
1	 7.085777688279572e-001	 7.244049581059169e-001	-1.018181817877062e+001
1	 7.005345311249522e-001	 7.321860139900160e-001	-1.087043090620922e+001
1	 6.924068475798989e-001	 7.398768344160395e-001	-1.152601707738849e+001
1	 6.841962432740211e-001	 7.474760540691480e-001	-1.214799849892333e+001
1	 6.759042724955661e-001	 7.549823421295439e-001	-1.273582158773518e+001
1	 7.599494890588572e-001	 6.803511524413004e-001	-5.599072269124079e+000
1	 7.523938159555098e-001	 6.886976773921116e-001	-6.469444684603645e+000
1	 7.447445998481189e-001	 6.969623005474628e-001	-7.310388971290633e+000
1	 7.370031803121179e-001	 7.051434573932359e-001	-8.121306974241895e+000
1	 7.291709316449299e-001	 7.132396128144953e-001	-8.901621624056631e+000
1	 7.212492620542139e-001	 7.212492620542138e-001	-9.650777938680275e+000
1	 7.132396128144953e-001	 7.291709316449299e-001	-1.036824399764798e+001
1	 7.051434573932358e-001	 7.370031803121178e-001	-1.105351188669171e+001
1	 6.969623005474627e-001	 7.447445998481187e-001	-1.170609861071010e+001
1	 6.886976773921116e-001	 7.523938159555098e-001	-1.232554697315633e+001
1	 6.803511524413002e-001	 7.599494890588570e-001	-1.291142641999243e+001
1	 7.649166844176492e-001	 6.847980757405193e-001	-5.811220806993743e+000
1	 7.573116257896370e-001	 6.931991553958878e-001	-6.678070355513965e+000
1	 7.496124127402216e-001	 7.015177979277401e-001	-7.515255921739466e+000
1	 7.418203936005725e-001	 7.097524285959757e-001	-8.322278965095050e+000
1	 7.339369516507991e-001	 7.179015022518339e-001	-9.098665037388734e+000
1	 7.259635043028904e-001	 7.259635043028903e-001	-9.843964603013035e+000
1	 7.179015022518338e-001	 7.339369516507991e-001	-1.055775382624591e+001
1	 7.097524285959757e-001	 7.418203936005726e-001	-1.123963532397557e+001
1	 7.015177979277402e-001	 7.496124127402213e-001	-1.188923888224503e+001
1	 6.931991553958877e-001	 7.573116257896371e-001	-1.250622213509990e+001
1	 6.847980757405193e-001	 7.649166844176492e-001	-1.309027120430501e+001
1	 7.698839195131854e-001	 6.892450346116411e-001	-6.027956103735507e+000
1	 7.622294749652648e-001	 6.977006694082336e-001	-6.890808423749531e+000
1	 7.544802645736347e-001	 7.060733317490129e-001	-7.723847762773149e+000
1	 7.466376454252821e-001	 7.143614366677993e-001	-8.526670465825932e+000
1	 7.387030097830855e-001	 7.225634289819166e-001	-9.298899737136104e+000
1	 7.306777842634514e-001	 7.306777842634512e-001	-1.004018628704376e+001
1	 7.225634289819166e-001	 7.387030097830855e-001	-1.075020894106899e+001
1	 7.143614366677991e-001	 7.466376454252820e-001	-1.142867520984412e+001
1	 7.060733317490127e-001	 7.544802645736344e-001	-1.207532181869370e+001
1	 6.977006694082334e-001	 7.622294749652647e-001	-1.268991519574297e+001
1	 6.892450346116412e-001	 7.698839195131856e-001	-1.327225191752663e+001
1	 7.748511856527302e-001	 6.936920212730822e-001	-6.249005070144200e+000
1	 7.671473548761287e-001	 7.022022115520339e-001	-7.107416943108312e+000
1	 7.593481468296452e-001	 7.106288940395611e-001	-7.935950281669491e+000
1	 7.514549273561479e-001	 7.189704735433338e-001	-8.734291697009338e+000
1	 7.434690977013519e-001	 7.272253848466873e-001	-9.502157189463501e+000
1	 7.353920936861466e-001	 7.353920936861461e-001	-1.023929263031848e+001
1	 7.272253848466873e-001	 7.434690977013521e-001	-1.094547420123988e+001
1	 7.189704735433342e-001	 7.514549273561483e-001	-1.162050879038304e+001
1	 7.106288940395612e-001	 7.593481468296451e-001	-1.226423434434242e+001
1	 7.022022115520336e-001	 7.671473548761286e-001	-1.287652017519651e+001
1	 6.936920212730819e-001	 7.748511856527302e-001	-1.345726722200512e+001
1	 7.798184741435482e-001	 6.981390279432600e-001	-6.474101622764464e+000
1	 7.720652569159653e-001	 7.067037739501728e-001	-7.327660174977938e+000
1	 7.642160509895408e-001	 7.151844768276672e-001	-8.151354762439395e+000
1	 7.562722309630735e-001	 7.235795311572085e-001	-8.944957749601334e+000
1	 7.482352070651606e-001	 7.318873616880898e-001	-9.708273186185979e+000
1	 7.401064243212243e-001	 7.401064243212244e-001	-1.044113713196250e+001
1	 7.318873616880895e-001	 7.482352070651605e-001	-1.114341793501168e+001
1	 7.235795311572083e-001	 7.562722309630734e-001	-1.181501646287195e+001
1	 7.151844768276674e-001	 7.642160509895410e-001	-1.245586628606958e+001
1	 7.067037739501727e-001	 7.720652569159652e-001	-1.306593381365030e+001
1	 6.981390279432600e-001	 7.798184741435483e-001	-1.364521838043530e+001
1	 7.847857762929047e-001	 7.025860468405919e-001	-6.702986463542969e+000
1	 7.769831724785091e-001	 7.112053487255350e-001	-7.551308393067198e+000
1	 7.690839685346087e-001	 7.197400721416120e-001	-8.369857812898729e+000
1	 7.610895478159594e-001	 7.281886014440498e-001	-9.158488431694330e+000
1	 7.530013295340728e-001	 7.365493513480671e-001	-9.917087708642969e+000
1	 7.448207679189339e-001	 7.448207679189339e-001	-1.064557702920024e+001
1	 7.365493513480673e-001	 7.530013295340731e-001	-1.134391183055720e+001
1	 7.281886014440500e-001	 7.610895478159596e-001	-1.201208167656344e+001
1	 7.197400721416120e-001	 7.690839685346088e-001	-1.265011028193134e+001
1	 7.112053487255350e-001	 7.769831724785092e-001	-1.325805548568570e+001
1	 7.025860468405920e-001	 7.847857762929047e-001	-1.383600917392323e+001
1	 7.897530834080641e-001	 7.070330701834948e-001	-6.935406867737481e+000
1	 7.819010929574963e-001	 7.157069280010050e-001	-7.778137695456737e+000
1	 7.739518909461362e-001	 7.242956720096766e-001	-8.591261198218346e+000
1	 7.659068694847088e-001	 7.327976763384864e-001	-9.374708121014251e+000
1	 7.577674567676516e-001	 7.412113456685648e-001	-1.012844479667339e+001
1	 7.495351162295243e-001	 7.495351162295242e-001	-1.085247318042885e+001
1	 7.412113456685647e-001	 7.577674567676513e-001	-1.154683083085205e+001
1	 7.327976763384864e-001	 7.659068694847089e-001	-1.221159083717921e+001
1	 7.242956720096769e-001	 7.739518909461362e-001	-1.284686169317343e+001
1	 7.157069280010052e-001	 7.819010929574967e-001	-1.345278711780074e+001
1	 7.070330701834953e-001	 7.897530834080643e-001	-1.402954582311913e+001
1	 7.947203867962918e-001	 7.114800901903866e-001	-7.171116479722427e+000
1	 7.868190097466631e-001	 7.202085038994671e-001	-8.007929823646261e+000
1	 7.788198097054105e-001	 7.288512684601431e-001	-8.815371680673239e+000
1	 7.707241875392233e-001	 7.374067477751456e-001	-9.593445622908915e+000
1	 7.625335804254584e-001	 7.458733364915255e-001	-1.034219242246773e+001
1	 7.542494610032443e-001	 7.542494610032443e-001	-1.106168995264408e+001
1	 7.458733364915253e-001	 7.625335804254582e-001	-1.175205303246954e+001
1	 7.374067477751457e-001	 7.707241875392235e-001	-1.241343321496298e+001
1	 7.288512684601429e-001	 7.788198097054103e-001	-1.304601851951838e+001
1	 7.202085038994671e-001	 7.868190097466631e-001	-1.365003310900498e+001
1	 7.114800901903867e-001	 7.947203867962918e-001	-1.422573691228806e+001
1	 6.670106737908847e-001	 7.450482283302943e-001	-1.239476183397552e+001
1	 6.587478301396494e-001	 7.523638511618765e-001	-1.294829498911475e+001
1	 6.504078186112842e-001	 7.595852159436007e-001	-1.346042951708152e+001
1	 6.419922549603809e-001	 7.667111160878266e-001	-1.393126155048532e+001
1	 6.335027797617576e-001	 7.737403819358266e-001	-1.436093152460994e+001
1	 6.249410573556360e-001	 7.806718813845673e-001	-1.474962392950569e+001
1	 6.163087747742402e-001	 7.875045204774029e-001	-1.509756699835901e+001
1	 6.076076406512597e-001	 7.942372439580682e-001	-1.540503233297543e+001
1	 5.988393841156297e-001	 8.008690357874089e-001	-1.567233446733498e+001
1	 5.900057536711102e-001	 8.073989196223580e-001	-1.589983037033647e+001
1	 5.811085160631598e-001	 8.138259592567366e-001	-1.608791888897033e+001
1	 6.714574436848999e-001	 7.500152523224445e-001	-1.256356350467663e+001
1	 6.631395140132276e-001	 7.573796463238672e-001	-1.311565679487406e+001
1	 6.547439020078864e-001	 7.646491538842305e-001	-1.362714864807478e+001
1	 6.462722341952490e-001	 7.718225603718485e-001	-1.409805656222313e+001
1	 6.377261620873863e-001	 7.788986883301445e-001	-1.452844064763120e+001
1	 6.291073611202073e-001	 7.858763981086074e-001	-1.491840353117103e+001
1	 6.204175295729066e-001	 7.927545884574260e-001	-1.526809019871936e+001
1	 6.116583874701552e-001	 7.995321970851738e-001	-1.557768777635809e+001
1	 6.028316754685039e-001	 8.062082011789852e-001	-1.584742525095118e+001
1	 5.939391537284960e-001	 8.127816178867238e-001	-1.607757313087675e+001
1	 5.849826007739867e-001	 8.192515047607228e-001	-1.626844304781283e+001
1	 6.759042724955661e-001	 7.549823421295439e-001	-1.273582158773518e+001
1	 6.675312560732037e-001	 7.623955079472441e-001	-1.328659531738583e+001
1	 6.590800428538963e-001	 7.697131589242686e-001	-1.379755365969252e+001
1	 6.505522701359425e-001	 7.769340723847997e-001	-1.426863691342485e+001
1	 6.419496003688086e-001	 7.840570630743252e-001	-1.469982616585159e+001
1	 6.332737200842384e-001	 7.910809837947759e-001	-1.509114334863410e+001
1	 6.245263388085474e-001	 7.980047260030978e-001	-1.544265123420220e+001
1	 6.157091879575354e-001	 8.048272203726286e-001	-1.575445337276767e+001
1	 6.068240197155237e-001	 8.115474373167191e-001	-1.602669397026907e+001
1	 5.978726058999935e-001	 8.181643874740976e-001	-1.625955770767521e+001
1	 5.888567368133509e-001	 8.246771221555452e-001	-1.645326950221079e+001
1	 6.803511524413002e-001	 7.599494890588570e-001	-1.291142641999243e+001
1	 6.719230486344507e-001	 7.674114272538863e-001	-1.346100388221927e+001
1	 6.634162335615358e-001	 7.747772222013188e-001	-1.397153933599303e+001
1	 6.548323552929011e-001	 7.820456431811288e-001	-1.444289729333192e+001
1	 6.461730872155351e-001	 7.892154971407974e-001	-1.487498109884247e+001
1	 6.374401269571447e-001	 7.962856293346265e-001	-1.526773313693786e+001
1	 6.286351952912920e-001	 8.032549239262516e-001	-1.562113498200865e+001
1	 6.197600350250395e-001	 8.101223045537095e-001	-1.593520749136865e+001
1	 6.108164098706105e-001	 8.168867348565088e-001	-1.621001084091918e+001
1	 6.018061033025566e-001	 8.235472189641807e-001	-1.644564450361854e+001
1	 5.927309174019697e-001	 8.301028019459008e-001	-1.664224717097846e+001
1	 6.847980757405193e-001	 7.649166844176492e-001	-1.309027120430500e+001
1	 6.763148840118433e-001	 7.724273954656711e-001	-1.363877860220558e+001
1	 6.677524665430258e-001	 7.798413348529821e-001	-1.414900320953117e+001
1	 6.591124821765653e-001	 7.871572638152848e-001	-1.462073514148976e+001
1	 6.503966152370773e-001	 7.943739815019895e-001	-1.505380125940509e+001
1	 6.416065744483402e-001	 8.014903256197123e-001	-1.544806552889910e+001
1	 6.327440918312718e-001	 8.085051730387199e-001	-1.580342932374415e+001
1	 6.238109215843082e-001	 8.154174403616956e-001	-1.611983167486231e+001
1	 6.148088389476848e-001	 8.222260844542513e-001	-1.639724946407793e+001
1	 6.057396390531372e-001	 8.289301029366746e-001	-1.663569756235987e+001
1	 5.966051357605590e-001	 8.355285346364872e-001	-1.683522891242512e+001
1	 6.892450346116412e-001	 7.698839195131856e-001	-1.327225191752663e+001
1	 6.807067545202548e-001	 7.774434038044776e-001	-1.381981828792646e+001
1	 6.720887342105870e-001	 7.849054880168623e-001	-1.432984547306370e+001
1	 6.633926432973741e-001	 7.922689253417159e-001	-1.480205055936421e+001
1	 6.546201770429464e-001	 7.995325071303310e-001	-1.523618516377470e+001
1	 6.457730552672396e-001	 8.066950635415869e-001	-1.563203594256700e+001
1	 6.368530212386180e-001	 8.137554641523362e-001	-1.598942504876973e+001
1	 6.278618405469804e-001	 8.207126185298643e-001	-1.630821053736247e+001
1	 6.188012999606667e-001	 8.275654767658446e-001	-1.658828671749298e+001
1	 6.096732062686899e-001	 8.343130299712809e-001	-1.682958445110443e+001
1	 6.004793851098360e-001	 8.409543107320019e-001	-1.703207139749206e+001
1	 6.936920212730819e-001	 7.748511856527302e-001	-1.345726722200512e+001
1	 6.850986524745599e-001	 7.824594434921843e-001	-1.400402436161764e+001
1	 6.764250289764416e-001	 7.899696728305611e-001	-1.451396889462411e+001
1	 6.676728311657691e-001	 7.973806188148717e-001	-1.498674622533194e+001
1	 6.588437652426532e-001	 8.046910649982508e-001	-1.542203394525354e+001
1	 6.499395621232578e-001	 8.118998339918039e-001	-1.581954249220653e+001
1	 6.409619763234614e-001	 8.190057880789339e-001	-1.617901576124006e+001
1	 6.319127848246962e-001	 8.260078297914941e-001	-1.650023166617391e+001
1	 6.227937859234779e-001	 8.329049024471866e-001	-1.678300265066979e+001
1	 6.136067980661671e-001	 8.396959906477001e-001	-1.702717614786544e+001
1	 6.043536586705171e-001	 8.463801207371422e-001	-1.723263498773660e+001
1	 6.981390279432600e-001	 7.798184741435483e-001	-1.364521838043530e+001
1	 6.894905701896319e-001	 7.874755057506694e-001	-1.419130077433982e+001
1	 6.807613432528102e-001	 7.950338804316809e-001	-1.470127873582012e+001
1	 6.719530382921890e-001	 8.024923352892006e-001	-1.517472731289603e+001
1	 6.630673724457090e-001	 8.098496460781767e-001	-1.561125127112044e+001
1	 6.541060877258093e-001	 8.171046278619158e-001	-1.601048590266596e+001
1	 6.450709498959331e-001	 8.242561356303459e-001	-1.637209779067135e+001
1	 6.359637473290956e-001	 8.313030648798628e-001	-1.669578552729425e+001
1	 6.267862898500388e-001	 8.382443521541750e-001	-1.698128038403332e+001
1	 6.175404075625226e-001	 8.450789755456339e-001	-1.722834693299972e+001
1	 6.082279496633188e-001	 8.518059551566065e-001	-1.743678361794286e+001
1	 7.025860468405920e-001	 7.847857762929047e-001	-1.383600917392323e+001
1	 6.938824999803446e-001	 7.924915818018115e-001	-1.438155392627233e+001
1	 6.850976694519144e-001	 8.000981019578244e-001	-1.489168267321044e+001
1	 6.762332571870746e-001	 8.076040658191518e-001	-1.536590141198478e+001
1	 6.672909912616249e-001	 8.150082413425387e-001	-1.580374326267429e+001
1	 6.582726247843088e-001	 8.223094360434772e-001	-1.620476942696858e+001
1	 6.491799347661639e-001	 8.295064976184055e-001	-1.656857010587953e+001
1	 6.400147209718181e-001	 8.365983145282481e-001	-1.689476537448095e+001
1	 6.307788047542696e-001	 8.435838165427070e-001	-1.718300601189360e+001
1	 6.214740278747095e-001	 8.504619752447837e-001	-1.743297428483190e+001
1	 6.121022513089578e-001	 8.572318044950912e-001	-1.764438468315910e+001
1	 7.070330701834953e-001	 7.897530834080643e-001	-1.402954582311913e+001
1	 6.982744341615721e-001	 7.975076628674882e-001	-1.457469258999211e+001
1	 6.894339999859754e-001	 8.051623285465941e-001	-1.508509072262791e+001
1	 6.805134803608659e-001	 8.127158014591731e-001	-1.556017845319905e+001
1	 6.715146142999120e-001	 8.201668417637646e-001	-1.599941841827028e+001
1	 6.624391660081714e-001	 8.275142494280411e-001	-1.640229876699451e+001
1	 6.532889237442850e-001	 8.347568648549454e-001	-1.676833423214248e+001
1	 6.440656986645036e-001	 8.418935694699287e-001	-1.709706716172273e+001
1	 6.347713236500917e-001	 8.489232862686806e-001	-1.738806850904473e+001
1	 6.254076521196810e-001	 8.558449803248510e-001	-1.764093877918955e+001
1	 6.159765568281506e-001	 8.626576592572943e-001	-1.785530892996643e+001
1	 7.114800901903867e-001	 7.947203867962918e-001	-1.422573691228806e+001
1	 7.026663650481888e-001	 8.025237401695792e-001	-1.477062783661040e+001
1	 6.937703272672139e-001	 8.102265513355922e-001	-1.528141516632081e+001
1	 6.847937003240027e-001	 8.178275332637143e-001	-1.575747063488021e+001
1	 6.757382341700814e-001	 8.253254383142840e-001	-1.619818753922483e+001
1	 6.666057041068113e-001	 8.327190589071603e-001	-1.660298199711339e+001
1	 6.573979096404270e-001	 8.400072281517993e-001	-1.697129417144821e+001
1	 6.481166733187913e-001	 8.471888204381821e-001	-1.730258945897176e+001
1	 6.387638395514258e-001	 8.542627519879944e-001	-1.759635964084108e+001
1	 6.293412734143902e-001	 8.612279813655365e-001	-1.785212399267694e+001
1	 6.198508594416140e-001	 8.680835099479131e-001	-1.806943035179694e+001
1	 5.811085160631598e-001	 8.138259592567366e-001	-1.608791888897033e+001
1	 5.721494549410069e-001	 8.201492587923700e-001	-1.624067405878138e+001
1	 5.631303691352768e-001	 8.263679623034137e-001	-1.636177822774171e+001
1	 5.540530720989082e-001	 8.324812548450976e-001	-1.645109930503489e+001
1	 5.449193909360233e-001	 8.384883629704416e-001	-1.650853929252125e+001
1	 5.357311652289508e-001	 8.443885549780590e-001	-1.653403427792121e+001
1	 5.264902458615941e-001	 8.501811411206632e-001	-1.652755437770871e+001
1	 5.171984938406530e-001	 8.558654737743153e-001	-1.648910363021026e+001
1	 5.078577791162044e-001	 8.614409475685220e-001	-1.641871983952412e+001
1	 4.984699794031350e-001	 8.669069994773565e-001	-1.631647437095856e+001
1	 4.890369790048946e-001	 8.722631088718381e-001	-1.618247189883373e+001
1	 5.849826007739867e-001	 8.192515047607228e-001	-1.626844304781283e+001
1	 5.759638121453027e-001	 8.256169599300633e-001	-1.642400027440330e+001
1	 5.668845986654242e-001	 8.318771217627184e-001	-1.654787927641322e+001
1	 5.577467858771380e-001	 8.380311698809669e-001	-1.663995076718816e+001
1	 5.485522130654222e-001	 8.440783256815294e-001	-1.670011844744145e+001
1	 5.393027320766501e-001	 8.500178525850265e-001	-1.672831900312967e+001
1	 5.300002061341147e-001	 8.558490562458756e-001	-1.672452205498880e+001
1	 5.206465086513883e-001	 8.615712847226639e-001	-1.668873006019439e+001
1	 5.112435220450454e-001	 8.671839286091179e-001	-1.662097816671217e+001
1	 5.017931365482345e-001	 8.726864211258275e-001	-1.652133402102027e+001
1	 4.922972490265902e-001	 8.780782381729779e-001	-1.638989752997403e+001
1	 5.888567368133509e-001	 8.246771221555452e-001	-1.645326950221079e+001
1	 5.797782198871765e-001	 8.310847335173304e-001	-1.661168444511595e+001
1	 5.706388779369471e-001	 8.373863542211578e-001	-1.673838665713385e+001
1	 5.614405485954396e-001	 8.435811584562625e-001	-1.683324857145225e+001
1	 5.521850833286301e-001	 8.496683624629792e-001	-1.689617461049999e+001
1	 5.428743462470814e-001	 8.556472247838542e-001	-1.692710118920936e+001
1	 5.335102129136188e-001	 8.615170464749266e-001	-1.692599667169484e+001
1	 5.240945691488355e-001	 8.672771712772370e-001	-1.689286128177375e+001
1	 5.146293098359489e-001	 8.729269857486570e-001	-1.682772696787112e+001
1	 5.051163377265164e-001	 8.784659193562274e-001	-1.673065722293483e+001
1	 4.955575622485071e-001	 8.838934445292345e-001	-1.660174686010831e+001
1	 5.927309174019697e-001	 8.301028019459008e-001	-1.664224717097846e+001
1	 5.835926714918183e-001	 8.365525699850670e-001	-1.680356390417296e+001
1	 5.743932003802006e-001	 8.428956500370379e-001	-1.693312760460322e+001
1	 5.651343537900048e-001	 8.491312108579269e-001	-1.703081135690179e+001
1	 5.558179953683311e-001	 8.552584635316093e-001	-1.709651934245501e+001
1	 5.464460014900537e-001	 8.612766617224811e-001	-1.713018684874226e+001
1	 5.370202600576584e-001	 8.671851018881377e-001	-1.713178023364962e+001
1	 5.275426692988844e-001	 8.729831234520049e-001	-1.710129684516168e+001
1	 5.180151365637197e-001	 8.786701089360396e-001	-1.703876489692557e+001
1	 5.084395771222590e-001	 8.842454840536720e-001	-1.694424330029496e+001
1	 4.988179129649336e-001	 8.897087177632357e-001	-1.681782145353890e+001
1	 5.966051357605590e-001	 8.355285346364872e-001	-1.683522891242512e+001
1	 5.874071602844180e-001	 8.420204597641681e-001	-1.699948022575160e+001
1	 5.781475594255391e-001	 8.484049995686656e-001	-1.713193385730137e+001
1	 5.688281949970270e-001	 8.546813173729051e-001	-1.723246249025375e+001
1	 5.594509428272085e-001	 8.608486191042365e-001	-1.730096911619056e+001
1	 5.500176915553778e-001	 8.669061535488472e-001	-1.733738705119765e+001
1	 5.405303414237858e-001	 8.728532125658290e-001	-1.734167990830883e+001
1	 5.309908030674251e-001	 8.786891312609383e-001	-1.731384152666479e+001
1	 5.214009963031628e-001	 8.844132881201636e-001	-1.725389585786235e+001
1	 5.117628489197403e-001	 8.900251051032773e-001	-1.716189681004489e+001
1	 5.020782954701594e-001	 8.955240476976104e-001	-1.703792805039915e+001
1	 6.004793851098360e-001	 8.409543107320019e-001	-1.703207139749206e+001
1	 5.912216795901660e-001	 8.474883932855289e-001	-1.719927908836120e+001
1	 5.819019485033184e-001	 8.539143931743477e-001	-1.733464151241310e+001
1	 5.725220657526984e-001	 8.602314682881397e-001	-1.743802991356348e+001
1	 5.630839193479468e-001	 8.664388193976782e-001	-1.750934515845595e+001
1	 5.535894101928633e-001	 8.725356904108920e-001	-1.754851775999998e+001
1	 5.440404508695519e-001	 8.785213685883219e-001	-1.755550785843795e+001
1	 5.344389644203482e-001	 8.843951847180088e-001	-1.753030516027799e+001
1	 5.247868831290850e-001	 8.901565132499307e-001	-1.747292883553678e+001
1	 5.150861473032390e-001	 8.958047723901597e-001	-1.738342737381569e+001
1	 5.053387040584731e-001	 9.013394241549870e-001	-1.726187839983059e+001
1	 6.043536586705171e-001	 8.463801207371422e-001	-1.723263498773660e+001
1	 5.950362227342531e-001	 8.529563609800457e-001	-1.740281014346886e+001
1	 5.856563610438934e-001	 8.594238212123906e-001	-1.754109088629181e+001
1	 5.762159595932116e-001	 8.657816538905742e-001	-1.764734599774010e+001
1	 5.667169185732297e-001	 8.720290546287525e-001	-1.772147329764969e+001
1	 5.571611511523206e-001	 8.781652624565558e-001	-1.776339967581105e+001
1	 5.475505822525099e-001	 8.841895600359370e-001	-1.777308108214274e+001
1	 5.378871473235433e-001	 8.901012738371870e-001	-1.775050247570234e+001
1	 5.281727911162906e-001	 8.958997742742390e-001	-1.769567773294161e+001
1	 5.184094664570329e-001	 9.015844757994342e-001	-1.760864951570156e+001
1	 5.085991330241642e-001	 9.071548369579943e-001	-1.748948909953127e+001
1	 6.082279496633188e-001	 8.518059551566065e-001	-1.743678361794286e+001
1	 5.988507830418682e-001	 8.584243532786130e-001	-1.760992688910768e+001
1	 5.894107904776190e-001	 8.649332740411009e-001	-1.775112638021792e+001
1	 5.799098700547595e-001	 8.713318644671525e-001	-1.786024740161535e+001
1	 5.703499341457410e-001	 8.776193150142760e-001	-1.793718381737972e+001
1	 5.607329081835595e-001	 8.837948598337780e-001	-1.798185808576481e+001
1	 5.510607294302107e-001	 8.898577769889952e-001	-1.799422125896670e+001
1	 5.413353457429005e-001	 8.958073886324438e-001	-1.797425294251268e+001
1	 5.315587143395855e-001	 9.016430611419892e-001	-1.792196121464877e+001
1	 5.217328005654008e-001	 9.073642052162174e-001	-1.783738250619049e+001
1	 5.118595766615219e-001	 9.129702759292612e-001	-1.772058144139040e+001
1	 6.121022513089578e-001	 8.572318044950912e-001	-1.764438468315910e+001
1	 6.026653538382030e-001	 8.638923606121265e-001	-1.782048654825110e+001
1	 5.931652302348504e-001	 8.704427420187856e-001	-1.796459635121726e+001
1	 5.836037906735343e-001	 8.768820903048177e-001	-1.807657493632852e+001
1	 5.739829597081649e-001	 8.832095907710672e-001	-1.815631131554101e+001
1	 5.643046750363899e-001	 8.894244726904979e-001	-1.820372271838124e+001
1	 5.545708862602061e-001	 8.955260095278166e-001	-1.821875460179187e+001
1	 5.447835536443102e-001	 9.015135191177501e-001	-1.820138062019955e+001
1	 5.349446468737750e-001	 9.073863638020803e-001	-1.815160255615366e+001
1	 5.250561438126208e-001	 9.131439505256256e-001	-1.806945021197670e+001
1	 5.151200292648354e-001	 9.187857308914156e-001	-1.795498126294342e+001
1	 6.159765568281506e-001	 8.626576592572943e-001	-1.785530892996643e+001
1	 6.064799284484463e-001	 8.693603734114813e-001	-1.803434995174326e+001
1	 5.969196737459425e-001	 8.759522155037509e-001	-1.818135298771987e+001
1	 5.872977149857287e-001	 8.824323216905132e-001	-1.829617343479074e+001
1	 5.776159889031851e-001	 8.887998721159425e-001	-1.837869456867600e+001
1	 5.678764454606222e-001	 8.950540911746555e-001	-1.842882760391867e+001
1	 5.580810466000488e-001	 9.011942477327233e-001	-1.844651171428816e+001
1	 5.482317649936626e-001	 9.072196553070767e-001	-1.843171401382643e+001
1	 5.383305827936644e-001	 9.131296722034117e-001	-1.838442949886256e+001
1	 5.283794903829712e-001	 9.189237016127739e-001	-1.830468095140263e+001
1	 5.183804851283935e-001	 9.246011916670867e-001	-1.819251880439207e+001
1	 6.198508594416140e-001	 8.680835099479131e-001	-1.806943035179694e+001
1	 6.102945001977892e-001	 8.748283821075730e-001	-1.825138142558767e+001
1	 6.006741144412503e-001	 8.814616848543038e-001	-1.840125218984770e+001
1	 5.909916365275354e-001	 8.879825489111826e-001	-1.851889162600929e+001
1	 5.812490153734854e-001	 8.943901492657203e-001	-1.860417640138299e+001
1	 5.714482132060661e-001	 9.006837054341905e-001	-1.865701093992330e+001
1	 5.615912043072900e-001	 9.068624816840354e-001	-1.867732745366846e+001
1	 5.516799737568477e-001	 9.129257872143953e-001	-1.866508593506565e+001
1	 5.417165161740594e-001	 9.188729762948832e-001	-1.862027411048171e+001
1	 5.317028344607302e-001	 9.247034483627792e-001	-1.854290735528199e+001
1	 5.216409385464856e-001	 9.304166480789027e-001	-1.843302857094802e+001
1	 4.890369790048946e-001	 8.722631088718381e-001	-1.618247189883373e+001
1	 4.795620922583881e-001	 8.775080191404551e-001	-1.602309576291675e+001
1	 4.700458011791232e-001	 8.826421068707412e-001	-1.584506110300823e+001
1	 4.604900024760815e-001	 8.876649794392211e-001	-1.564909326932637e+001
1	 4.508965947721494e-001	 8.925762864264075e-001	-1.543595689349332e+001
1	 4.412674774614076e-001	 8.973757194803049e-001	-1.520645371935325e+001
1	 4.316045495771122e-001	 9.020630121438827e-001	-1.496142040339649e+001
1	 4.219097086716463e-001	 9.066379396471509e-001	-1.470172628987769e+001
1	 4.121848497096857e-001	 9.111003186645378e-001	-1.442827116565171e+001
1	 4.024318639757797e-001	 9.154500070382965e-001	-1.414198299972494e+001
1	 3.926526379975132e-001	 9.196869034687285e-001	-1.384381567246333e+001
1	 4.922972490265902e-001	 8.780782381729779e-001	-1.638989752997403e+001
1	 4.827591959128025e-001	 8.833581147616243e-001	-1.623318894693743e+001
1	 4.731794624357821e-001	 8.885264299898883e-001	-1.605803759640875e+001
1	 4.635599579492457e-001	 8.935827886167581e-001	-1.586512814019662e+001
1	 4.539025937335760e-001	 8.985268378865744e-001	-1.565518468823626e+001
1	 4.442092818454916e-001	 9.033582673916204e-001	-1.542896867802933e+001
1	 4.344819339784806e-001	 9.080768088984459e-001	-1.518727672271658e+001
1	 4.247224603352865e-001	 9.126822361385573e-001	-1.493093843277298e+001
1	 4.149327685136948e-001	 9.171743645641776e-001	-1.466081421629205e+001
1	 4.051147624068305e-001	 9.215530510698091e-001	-1.437779306278585e+001
1	 3.952703411191423e-001	 9.258181936803929e-001	-1.408279031537682e+001
1	 4.955575622485071e-001	 8.838934445292345e-001	-1.660174686010831e+001
1	 4.859563419306749e-001	 8.892082879011765e-001	-1.644765889571084e+001
1	 4.763131652153874e-001	 8.944108310808059e-001	-1.627534362724842e+001
1	 4.666299541012818e-001	 8.995006762095590e-001	-1.608544618161934e+001
1	 4.569086325264199e-001	 9.044774681955849e-001	-1.587865125889778e+001
1	 4.471511252103419e-001	 9.093408945754362e-001	-1.565568105942535e+001
1	 4.373593565069525e-001	 9.140906853392351e-001	-1.541729317864222e+001
1	 4.275352492695396e-001	 9.187266127199799e-001	-1.516427847456489e+001
1	 4.176807237291812e-001	 9.232484909476880e-001	-1.489745891280759e+001
1	 4.077976963877617e-001	 9.276561759691135e-001	-1.461768539400387e+001
1	 3.978880789267743e-001	 9.319495651338405e-001	-1.432583556844205e+001
1	 4.988179129649336e-001	 8.897087177632357e-001	-1.681782145353890e+001
1	 4.891535247168062e-001	 8.950585283205647e-001	-1.666630997890167e+001
1	 4.794469040337467e-001	 9.002952998450805e-001	-1.649678591293522e+001
1	 4.696999855594727e-001	 9.054186318606475e-001	-1.630985598028437e+001
1	 4.599147058898860e-001	 9.104281669392148e-001	-1.610616656267613e+001
1	 4.500930024075077e-001	 9.153235905615896e-001	-1.588640167271397e+001
1	 4.402368121268189e-001	 9.201046309414599e-001	-1.565128089459484e+001
1	 4.303480705518117e-001	 9.247710588133132e-001	-1.540155729658518e+001
1	 4.204287105470165e-001	 9.293226871849586e-001	-1.513801532007799e+001
1	 4.104806612232351e-001	 9.337593710554043e-001	-1.486146865002188e+001
1	 4.005058468391652e-001	 9.380810070988839e-001	-1.457275807147472e+001
1	 5.020782954701594e-001	 8.955240476976104e-001	-1.703792805039915e+001
1	 4.923507386759972e-001	 9.009088257812433e-001	-1.688895166981418e+001
1	 4.825806734066672e-001	 9.061798259842970e-001	-1.672217621421814e+001
1	 4.727700469511016e-001	 9.113366452130507e-001	-1.653817111835383e+001
1	 4.629208085631789e-001	 9.163789237032390e-001	-1.633754551733562e+001
1	 4.530349082885371e-001	 9.213063448799161e-001	-1.612094626620615e+001
1	 4.431142958023703e-001	 9.261186351803302e-001	-1.588905592568324e+001
1	 4.331609192595093e-001	 9.308155638404513e-001	-1.564259071885987e+001
1	 4.231767241580722e-001	 9.353969426458795e-001	-1.538229846361073e+001
1	 4.131636522179139e-001	 9.398626256478790e-001	-1.510895648542676e+001
1	 4.031236402750705e-001	 9.442125088453360e-001	-1.482336951536316e+001
1	 5.053387040584731e-001	 9.013394241549870e-001	-1.726187839983059e+001
1	 4.955479782130489e-001	 9.067591700446656e-001	-1.711539838088546e+001
1	 4.857144678499549e-001	 9.120643992000406e-001	-1.695133117261098e+001
1	 4.758401329034515e-001	 9.172547059097932e-001	-1.677021001242026e+001
1	 4.659269352855038e-001	 9.223297280734328e-001	-1.657260784128157e+001
1	 4.559768377049800e-001	 9.272891470602538e-001	-1.635913536810839e+001
1	 4.459918024978971e-001	 9.321326875310545e-001	-1.613043909969176e+001
1	 4.359737904700380e-001	 9.368601172232868e-001	-1.588719934086644e+001
1	 4.259247597532195e-001	 9.414712467003407e-001	-1.563012816959041e+001
1	 4.158466646764604e-001	 9.459659290657336e-001	-1.535996739159262e+001
1	 4.057414546532461e-001	 9.503440596430081e-001	-1.507748647920428e+001
1	 5.085991330241642e-001	 9.071548369579943e-001	-1.748948909953127e+001
1	 4.987452377327623e-001	 9.126095508722854e-001	-1.734546930546095e+001
1	 4.888482818794178e-001	 9.179490091938971e-001	-1.718407215402538e+001
1	 4.789102380438053e-001	 9.231728035939005e-001	-1.700579575861397e+001
1	 4.689330807960657e-001	 9.282805696355722e-001	-1.681117789974226e+001
1	 4.589187855083844e-001	 9.332719866324375e-001	-1.660079413336045e+001
1	 4.488693271776904e-001	 9.381467774688427e-001	-1.637525586414368e+001
1	 4.387866792608043e-001	 9.429047083837145e-001	-1.613520838837617e+001
1	 4.286728125233300e-001	 9.475455887182309e-001	-1.588132891103810e+001
1	 4.185296939035370e-001	 9.520692706281645e-001	-1.561432454168300e+001
1	 4.083592853924475e-001	 9.564756487617137e-001	-1.533493027365790e+001
1	 5.118595766615219e-001	 9.129702759292612e-001	-1.772058144139040e+001
1	 5.019425116399385e-001	 9.184599580255562e-001	-1.757898826557092e+001
1	 4.919821100108620e-001	 9.238336456674511e-001	-1.742022509833717e+001
1	 4.819803569994456e-001	 9.290909279083980e-001	-1.724475598358762e+001
1	 4.719392398340696e-001	 9.342314379754317e-001	-1.705308455678372e+001
1	 4.618607465502998e-001	 9.392548531263044e-001	-1.684575219628291e+001
1	 4.517468648060402e-001	 9.441608944689036e-001	-1.662333613916607e+001
1	 4.415995807092140e-001	 9.489493267436284e-001	-1.638644756610515e+001
1	 4.314208776592748e-001	 9.536199580694414e-001	-1.613572965980362e+001
1	 4.212127352038066e-001	 9.581726396543681e-001	-1.587185564153105e+001
1	 4.109771279114304e-001	 9.626072654712644e-001	-1.559552679024240e+001
1	 5.151200292648354e-001	 9.187857308914156e-001	-1.795498126294342e+001
1	 5.051397943393787e-001	 9.243103812659328e-001	-1.781578356544731e+001
1	 4.951159467600947e-001	 9.297182983222888e-001	-1.765962037462486e+001
1	 4.850504843976560e-001	 9.350090684963112e-001	-1.748692270111764e+001
1	 4.749454071387204e-001	 9.401823226787877e-001	-1.729816103290684e+001
1	 4.648027156822748e-001	 9.452377360716912e-001	-1.709384352878171e+001
1	 4.546244103472374e-001	 9.501750280064465e-001	-1.687451417590143e+001
1	 4.444124898926736e-001	 9.549939617249218e-001	-1.664075091592061e+001
1	 4.341689503519256e-001	 9.596943441238608e-001	-1.639316374414048e+001
1	 4.238957838819312e-001	 9.642760254635410e-001	-1.613239278614150e+001
1	 4.135949776289506e-001	 9.687388990414730e-001	-1.585910635631501e+001
1	 5.183804851283935e-001	 9.246011916670867e-001	-1.819251880439207e+001
1	 5.083370802358834e-001	 9.301608103548681e-001	-1.805568785052870e+001
1	 4.982497866429231e-001	 9.356029568599945e-001	-1.790209264182873e+001
1	 4.881206148657190e-001	 9.409272150006649e-001	-1.773213217407968e+001
1	 4.779515774492233e-001	 9.461332133314151e-001	-1.754624476797804e+001
1	 4.677446877558582e-001	 9.512206249984340e-001	-1.734490630386433e+001
1	 4.575019587655727e-001	 9.561891675566812e-001	-1.712862842022462e+001
1	 4.472254018885886e-001	 9.610386027494881e-001	-1.689795668036018e+001
1	 4.369170257921534e-001	 9.657687362513792e-001	-1.665346871161889e+001
1	 4.265788352425740e-001	 9.703794173748794e-001	-1.639577232157083e+001
1	 4.162128299637635e-001	 9.748705387421515e-001	-1.612550359548411e+001
1	 5.216409385464856e-001	 9.304166480789027e-001	-1.843302857094802e+001
1	 5.115343637342540e-001	 9.360112350538160e-001	-1.829853797171379e+001
1	 5.013836241751540e-001	 9.414876109821543e-001	-1.814748071460164e+001
1	 4.911907430309177e-001	 9.468453570644847e-001	-1.798022478156148e+001
1	 4.809577455047829e-001	 9.520840995190897e-001	-1.779717728926400e+001
1	 4.706866576225989e-001	 9.572035094363699e-001	-1.759878276423827e+001
1	 4.603795050253364e-001	 9.622033025948157e-001	-1.738552138153403e+001
1	 4.500383117743657e-001	 9.670832392392221e-001	-1.715790717123262e+001
1	 4.396650991708301e-001	 9.718431238218864e-001	-1.691648619713752e+001
1	 4.292618845903969e-001	 9.764828047075796e-001	-1.666183471194870e+001
1	 4.188306803346252e-001	 9.810021738431126e-001	-1.639455729321847e+001
1	 3.926526379975132e-001	 9.196869034687285e-001	-1.384381567246332e+001
1	 3.828475801467559e-001	 9.238115574925391e-001	-1.353778926731928e+001
1	 3.730200306188907e-001	 9.278233049990166e-001	-1.322808660172297e+001
1	 3.631718566724362e-001	 9.317221658209343e-001	-1.291580745375414e+001
1	 3.533049166519174e-001	 9.355081991183117e-001	-1.260207648672221e+001
1	 3.434210590039752e-001	 9.391815029145867e-001	-1.228804029158662e+001
1	 3.335221213151299e-001	 9.427422136050959e-001	-1.197486444705330e+001
1	 3.236099293720238e-001	 9.461905054388913e-001	-1.166373060316470e+001
1	 3.136862962449284e-001	 9.495265899749484e-001	-1.135583359397544e+001
1	 3.037530213952426e-001	 9.527507155138413e-001	-1.105237858472891e+001
1	 2.938118898076575e-001	 9.558631665059840e-001	-1.075457825874022e+001
1	 3.952703411191423e-001	 9.258181936803929e-001	-1.408279031537682e+001
1	 3.853999157449427e-001	 9.299703455962171e-001	-1.377989146256934e+001
1	 3.755068487477795e-001	 9.340088382791361e-001	-1.347336247839847e+001
1	 3.655930198347078e-001	 9.379336916941498e-001	-1.316429290431669e+001
1	 3.556602997393610e-001	 9.417449653956880e-001	-1.285379705629867e+001
1	 3.457105492315029e-001	 9.454427580606899e-001	-1.254301106084060e+001
1	 3.357456181483737e-001	 9.490272069938094e-001	-1.223308990909372e+001
1	 3.257673444486692e-001	 9.524984876057723e-001	-1.192520453496185e+001
1	 3.157775532899376e-001	 9.558568128659655e-001	-1.162053892275851e+001
1	 3.057780561301270e-001	 9.591024327303190e-001	-1.132028724986031e+001
1	 2.957706498539659e-001	 9.622356335456042e-001	-1.102565106955619e+001
1	 3.978880789267743e-001	 9.319495651338405e-001	-1.432583556844205e+001
1	 3.879522851630236e-001	 9.361292153058038e-001	-1.402605840657454e+001
1	 3.779936998285092e-001	 9.401944535193617e-001	-1.372270024408471e+001
1	 3.680142150789770e-001	 9.441452998717373e-001	-1.341683990975536e+001
1	 3.580157140373226e-001	 9.479818143117705e-001	-1.310958093051702e+001
1	 3.480000697965839e-001	 9.517040961699057e-001	-1.280204856114991e+001
1	 3.379691444448735e-001	 9.553122836601184e-001	-1.249538683251964e+001
1	 3.279247881130917e-001	 9.588065533548228e-001	-1.219075562417598e+001
1	 3.178688380462120e-001	 9.621871196338281e-001	-1.188932776694327e+001
1	 3.078031176988808e-001	 9.654542341084373e-001	-1.159228618093042e+001
1	 2.977294358560106e-001	 9.686081850217986e-001	-1.130082105417698e+001
1	 4.005058468391652e-001	 9.380810070988839e-001	-1.457275807147472e+001
1	 3.905046839341429e-001	 9.422881558430289e-001	-1.427609462911795e+001
1	 3.804805795088713e-001	 9.463801398946492e-001	-1.397590275732129e+001
1	 3.704354381679195e-001	 9.503569794831879e-001	-1.367325010329447e+001
1	 3.603711554235785e-001	 9.542187349518962e-001	-1.336922896985496e+001
1	 3.502896166922933e-001	 9.579655062847261e-001	-1.306495333895212e+001
1	 3.401926963131793e-001	 9.615974326049814e-001	-1.276155591406654e+001
1	 3.300822565894714e-001	 9.651146916467712e-001	-1.246018518731920e+001
1	 3.199601468536990e-001	 9.685174992003410e-001	-1.216200253693188e+001
1	 3.098282025573360e-001	 9.718061085323820e-001	-1.186817936048675e+001
1	 2.996882443856060e-001	 9.749808097824353e-001	-1.157989424919987e+001
1	 4.031236402750705e-001	 9.442125088453360e-001	-1.482336951536316e+001
1	 3.930571075914455e-001	 9.484471564296215e-001	-1.452980976662012e+001
1	 3.829674834366572e-001	 9.525658865799537e-001	-1.423277802746491e+001
1	 3.728566848642111e-001	 9.565687196579940e-001	-1.393333030158654e+001
1	 3.627266197759061e-001	 9.604557164014029e-001	-1.363254723908147e+001
1	 3.525791859117053e-001	 9.642269774476432e-001	-1.333153115393010e+001
1	 3.424162698618394e-001	 9.678826428293534e-001	-1.303140306061858e+001
1	 3.322397461019883e-001	 9.714228914423454e-001	-1.273329973576118e+001
1	 3.220514760523470e-001	 9.748479404873101e-001	-1.243837081038264e+001
1	 3.118533071613252e-001	 9.781580448863387e-001	-1.214777589831027e+001
1	 3.016470720145669e-001	 9.813534966753823e-001	-1.186268176591541e+001
1	 4.057414546532461e-001	 9.503440596430081e-001	-1.507748647920428e+001
1	 3.956095516680765e-001	 9.546062062873115e-001	-1.478701839748522e+001
1	 3.854544072596587e-001	 9.587516827502316e-001	-1.449313904861944e+001
1	 3.752779509305275e-001	 9.627805095256463e-001	-1.419689233759491e+001
1	 3.650821029720817e-001	 9.666927477456272e-001	-1.389934683947677e+001
1	 3.548687734478946e-001	 9.704884987011498e-001	-1.360159281095652e+001
1	 3.446398611994030e-001	 9.741679033341915e-001	-1.330473922125940e+001
1	 3.343972528748223e-001	 9.777311417022727e-001	-1.300991080828756e+001
1	 3.241428219821034e-001	 9.811784324165394e-001	-1.271824516566869e+001
1	 3.138784279666810e-001	 9.845100320544937e-001	-1.243088986617751e+001
1	 3.036059153147077e-001	 9.877262345485073e-001	-1.214899962677955e+001
1	 4.083592853924475e-001	 9.564756487617137e-001	-1.533493027365790e+001
1	 3.981620116971802e-001	 9.607652946378276e-001	-1.504753988373737e+001
1	 3.879413466256668e-001	 9.649375175804381e-001	-1.475680363990472e+001
1	 3.776992321295443e-001	 9.689923382156370e-001	-1.446375289986063e+001
1	 3.674376008898820e-001	 9.729298180699069e-001	-1.416944374745924e+001
1	 3.571583752939361e-001	 9.767500590877388e-001	-1.387495399845000e+001
1	 3.468634664344191e-001	 9.804532031204520e-001	-1.358138022573680e+001
1	 3.365547731321534e-001	 9.840394313872817e-001	-1.328983481004724e+001
1	 3.262341809829161e-001	 9.875089639098348e-001	-1.300144302169630e+001
1	 3.159035614292355e-001	 9.908620589210325e-001	-1.271734013893314e+001
1	 3.055647708578432e-001	 9.940990122496792e-001	-1.243866860812730e+001
1	 4.109771279114304e-001	 9.626072654712644e-001	-1.559552679024240e+001
1	 4.007144832119015e-001	 9.669244107029007e-001	-1.531119821866238e+001
1	 3.904282971824738e-001	 9.711233802455289e-001	-1.502359429178650e+001
1	 3.801205242239372e-001	 9.752041948574575e-001	-1.473373337786511e+001
1	 3.697931094070843e-001	 9.791669164595790e-001	-1.444265865933278e+001
1	 3.594479874429040e-001	 9.830116476499022e-001	-1.415143513286566e+001
1	 3.490870816754368e-001	 9.867385311890911e-001	-1.386114662905575e+001
1	 3.387123030981619e-001	 9.903477494580995e-001	-1.357289285761326e+001
1	 3.283255493947325e-001	 9.938395238890009e-001	-1.328778648379923e+001
1	 3.179287040048215e-001	 9.972141143701416e-001	-1.300695024159094e+001
1	 3.075236352157878e-001	 1.000471818626765e+000	-1.273151408885679e+001
1	 4.135949776289506e-001	 9.687388990414730e-001	-1.585910635631501e+001
1	 4.032669617453852e-001	 9.730835437042587e-001	-1.557782188019568e+001
1	 3.929152545778705e-001	 9.773092599204601e-001	-1.529333801820071e+001
1	 3.825418229763816e-001	 9.814160685805988e-001	-1.500665971322426e+001
1	 3.721486244014648e-001	 9.854040319999809e-001	-1.471881684189095e+001
1	 3.617376058878729e-001	 9.892732534301327e-001	-1.443086120904983e+001
1	 3.513107030310049e-001	 9.930238765410654e-001	-1.414386356193055e+001
1	 3.408698389970276e-001	 9.966560848754543e-001	-1.385891062988584e+001
1	 3.304169235575002e-001	 1.000170101275843e+000	-1.357710219544562e+001
1	 3.199538521492713e-001	 1.003566187286006e+000	-1.329954820220166e+001
1	 3.094825049603561e-001	 1.006844642527633e+000	-1.302736590481510e+001
1	 4.162128299637635e-001	 9.748705387421515e-001	-1.612550359548411e+001
1	 4.058194428307755e-001	 9.792426828636313e-001	-1.584724368980237e+001
1	 3.954022144596490e-001	 9.834951457801872e-001	-1.556586621421727e+001
1	 3.849631241495536e-001	 9.876279485145534e-001	-1.528236225645748e+001
1	 3.745041417508007e-001	 9.916411537764501e-001	-1.499774798861506e+001
1	 3.640272266219177e-001	 9.955348654709233e-001	-1.471306165619965e+001
1	 3.535343266096725e-001	 9.993092281773317e-001	-1.442936058684009e+001
1	 3.430273770529304e-001	 1.002964426600074e+000	-1.414771822457842e+001
1	 3.325082998111676e-001	 1.006500684992165e+000	-1.386922119549873e+001
1	 3.219790023184175e-001	 1.009918266552814e+000	-1.359496641023165e+001
1	 3.114413766633628e-001	 1.013217472800151e+000	-1.332605820864407e+001
1	 4.188306803346252e-001	 9.810021738431126e-001	-1.639455729321847e+001
1	 4.083719220012180e-001	 9.854018174027490e-001	-1.611930067661138e+001
1	 3.978891724756005e-001	 9.896810269996651e-001	-1.584101451900450e+001
1	 3.873844235061284e-001	 9.938398237888120e-001	-1.556067562909069e+001
1	 3.768596573328685e-001	 9.978782708743236e-001	-1.527928608123050e+001
1	 3.663168456381126e-001	 1.001796472814765e+000	-1.499787019918788e+001
1	 3.557579485199885e-001	 1.005594575098846e+000	-1.471747155944441e+001
1	 3.451849134900506e-001	 1.009272763592686e+000	-1.443915002005202e+001
1	 3.345996744956820e-001	 1.012831263959774e+000	-1.416397878079507e+001
1	 3.240041509680921e-001	 1.016270341054748e+000	-1.389304148021651e+001
1	 3.134002468966224e-001	 1.019590298292188e+000	-1.362742933484084e+001
1	 2.938118898076575e-001	 9.558631665059840e-001	-1.075457825874022e+001
1	 2.838646710056857e-001	 9.588642626988490e-001	-1.046474645777583e+001
1	 2.739131178235836e-001	 9.617543577873683e-001	-1.018522620945208e+001
1	 2.639589660669879e-001	 9.645338394785438e-001	-9.917275481135564e+000
1	 2.540039338948808e-001	 9.672031290579124e-001	-9.662146720478580e+000
1	 2.440497210832210e-001	 9.697626806991601e-001	-9.421084127493701e+000
1	 2.340980083161345e-001	 9.722129807570793e-001	-9.195321001298577e+000
1	 2.241504565049763e-001	 9.745545470450379e-001	-8.986077165230547e+000
1	 2.142087061355221e-001	 9.767879280981019e-001	-8.794556473749895e+000
1	 2.042743766435053e-001	 9.789137024229727e-001	-8.621944404250199e+000
1	 1.943490658186562e-001	 9.809324777358748e-001	-8.469405736612945e+000
1	 2.957706498539659e-001	 9.622356335456042e-001	-1.102565106955619e+001
1	 2.857571157819154e-001	 9.652567371909585e-001	-1.073893523693584e+001
1	 2.757392184338695e-001	 9.681660997192729e-001	-1.046247532609767e+001
1	 2.657187051875654e-001	 9.709641114222508e-001	-1.019752075597897e+001
1	 2.556973056564410e-001	 9.736511963939908e-001	-9.945315928326963e+000
1	 2.456767309483562e-001	 9.762278118359934e-001	-9.707097476750352e+000
1	 2.356586729520586e-001	 9.786944473454122e-001	-9.484091590345980e+000
1	 2.256448036517056e-001	 9.810516241876995e-001	-9.277511415666670e+000
1	 2.156367744697043e-001	 9.832998945548199e-001	-9.088554540488602e+000
1	 2.056362156380844e-001	 9.854398408101844e-001	-8.918400562557942e+000
1	 1.956447355985657e-001	 9.874720747214627e-001	-8.768208746205419e+000
1	 2.977294358560106e-001	 9.686081850217986e-001	-1.130082105417698e+001
1	 2.876495856351602e-001	 9.716492963847403e-001	-1.101723299903277e+001
1	 2.775653432420190e-001	 9.745779266081482e-001	-1.074385372332288e+001
1	 2.674784676265833e-001	 9.773944685684661e-001	-1.048192213518061e+001
1	 2.573906998569036e-001	 9.800993491683967e-001	-1.023267260757297e+001
1	 2.473037623728963e-001	 9.826930286373037e-001	-9.997332208021453e+000
1	 2.372193582680847e-001	 9.851759998147480e-001	-9.777118002754390e+000
1	 2.271391705995806e-001	 9.875487874183182e-001	-9.573234439105297e+000
1	 2.170648617265720e-001	 9.898119472969311e-001	-9.386870809668027e+000
1	 2.069980726775334e-001	 9.919660656707664e-001	-9.219198801428053e+000
1	 1.969404225463201e-001	 9.940117583589936e-001	-9.071370132810882e+000
1	 2.996882443856060e-001	 9.749808097824353e-001	-1.157989424919987e+001
1	 2.895420772532948e-001	 9.780419290930430e-001	-1.129944769193719e+001
1	 2.793914890520229e-001	 9.809898272331150e-001	-1.102917051736172e+001
1	 2.692382503041846e-001	 9.838248996638738e-001	-1.077028920072396e+001
1	 2.590841135325783e-001	 9.865475760966606e-001	-1.052402614386062e+001
1	 2.489308125093126e-001	 9.891583197887439e-001	-1.029159688923144e+001
1	 2.387800615328193e-001	 9.916576268221344e-001	-1.007420740819819e+001
1	 2.286335547332959e-001	 9.940460253666024e-001	-9.873051467396055e+000
1	 2.184929654068420e-001	 9.963240749280637e-001	-9.689308076753228e+000
1	 2.083599453785053e-001	 9.984923655835142e-001	-9.524139022422309e+000
1	 1.982361243944031e-001	 1.000551517203678e+000	-9.378686487596511e+000
1	 3.016470720145669e-001	 9.813534966753823e-001	-1.186268176591541e+001
1	 2.914345873241932e-001	 9.844346241287142e-001	-1.158539228937846e+001
1	 2.812176526678725e-001	 9.874017903732959e-001	-1.131823982075082e+001
1	 2.709980501405125e-001	 9.902553934551568e-001	-1.106243651955681e+001
1	 2.607775437197758e-001	 9.929958658943122e-001	-1.081919091360590e+001
1	 2.505578785100766e-001	 9.956236739759679e-001	-1.058970510095673e+001
1	 2.403407800148684e-001	 9.981393170246208e-001	-1.037517202588099e+001
1	 2.301279534375462e-001	 1.000543326662260e+000	-1.017677283270980e+001
1	 2.199210830112309e-001	 1.002836266051843e+000	-9.995674301160049e+000
1	 2.097218313576528e-001	 1.005018729127225e+000	-9.833026366436501e+000
1	 1.995318388752979e-001	 1.007091339810725e+000	-9.689959727116715e+000
1	 3.036059153147077e-001	 9.877262345485073e-001	-1.214899962677955e+001
1	 2.933271125357299e-001	 9.908273703046017e-001	-1.187488462900677e+001
1	 2.830438308935587e-001	 9.938138048078122e-001	-1.161088058136159e+001
1	 2.727578640557102e-001	 9.966859386890001e-001	-1.135818348300407e+001
1	 2.624709874548061e-001	 9.994442072768820e-001	-1.111798612323988e+001
1	 2.521849575276598e-001	 1.002089079884629e+000	-1.089147527498159e+001
1	 2.419015109828384e-001	 1.004621059079254e+000	-1.067982896191788e+001
1	 2.316223640970263e-001	 1.007040679935001e+000	-1.048421380329913e+001
1	 2.213492120404560e-001	 1.009348509271898e+000	-1.030578243997312e+001
1	 2.110837282316287e-001	 1.011545144880695e+000	-1.014567104499272e+001
1	 2.008275637214882e-001	 1.013631214735347e+000	-1.000499692183399e+001
1	 3.055647708578432e-001	 9.940990122496792e-001	-1.243866860812730e+001
1	 2.952196495757796e-001	 9.972201564335543e-001	-1.216774725663670e+001
1	 2.848700205330725e-001	 1.000225859315786e+000	-1.190691642757657e+001
1	 2.745176889699210e-001	 1.003116524112087e+000	-1.165735415231382e+001
1	 2.641644417739796e-001	 1.005892588959899e+000	-1.142023565458953e+001
1	 2.538120467145333e-001	 1.008554526200379e+000	-1.119673053901528e+001
1	 2.434622517053356e-001	 1.011102841643083e+000	-1.098800005292312e+001
1	 2.331167840964309e-001	 1.013538073814532e+000	-1.079519442552363e+001
1	 2.227773499952337e-001	 1.015860793191854e+000	-1.061945028801000e+001
1	 2.124456336170860e-001	 1.018071601422721e+000	-1.046188817797443e+001
1	 2.021232966654573e-001	 1.020171130532752e+000	-1.032361013118737e+001
1	 3.075236352157878e-001	 1.000471818626765e+000	-1.273151408885679e+001
1	 2.971121951322163e-001	 1.003612971328419e+000	-1.246380727640134e+001
1	 2.866962183904045e-001	 1.006637942676338e+000	-1.220617551934100e+001
1	 2.762775218032881e-001	 1.009547138471104e+000	-1.195977711006085e+001
1	 2.658579037136064e-001	 1.012340999658894e+000	-1.172576791612704e+001
1	 2.554391432231687e-001	 1.015020001608872e+000	-1.150529856730386e+001
1	 2.450229994509663e-001	 1.017584653373157e+000	-1.129951171553864e+001
1	 2.346112108204548e-001	 1.020035496930563e+000	-1.110953937187328e+001
1	 2.242054943762811e-001	 1.022373106415339e+000	-1.093650032395442e+001
1	 2.138075451306775e-001	 1.024598087332100e+000	-1.078149763751672e+001
1	 2.034190354396886e-001	 1.026711075758151e+000	-1.064561624492036e+001
1	 3.094825049603561e-001	 1.006844642527633e+000	-1.302736590481510e+001
1	 2.990047458929149e-001	 1.010005803802045e+000	-1.276289620655590e+001
1	 2.885224212695463e-001	 1.013050043668592e+000	-1.250849040482790e+001
1	 2.780373594759547e-001	 1.015977770512732e+000	-1.226528531715690e+001
1	 2.675513703099966e-001	 1.018789428089395e+000	-1.203441569982518e+001
1	 2.570662442060374e-001	 1.021485494795763e+000	-1.181701143687419e+001
1	 2.465837514883368e-001	 1.024066482926523e+000	-1.161419480162869e+001
1	 2.361056416537927e-001	 1.026532937912801e+000	-1.142707779471932e+001
1	 2.256336426843149e-001	 1.028885437545979e+000	-1.125675956229075e+001
1	 2.151694603890562e-001	 1.031124591187629e+000	-1.110432389778347e+001
1	 2.047147777766657e-001	 1.033251038966754e+000	-1.097083683038897e+001
1	 3.114413766633628e-001	 1.013217472800151e+000	-1.332605820864407e+001
1	 3.008972985457494e-001	 1.016398642667280e+000	-1.306484984068377e+001
1	 2.903486259744884e-001	 1.019462151071667e+000	-1.281369788247851e+001
1	 2.797971989080638e-001	 1.022408408983658e+000	-1.257371597521505e+001
1	 2.692448385994606e-001	 1.025237862966934e+000	-1.234601604337848e+001
1	 2.586933468156106e-001	 1.027950994446703e+000	-1.213170548916272e+001
1	 2.481445050860534e-001	 1.030548318960231e+000	-1.193188445890623e+001
1	 2.376000739811394e-001	 1.033030385390956e+000	-1.174764318554659e+001
1	 2.270617924200520e-001	 1.035397775187402e+000	-1.158005941078668e+001
1	 2.165313770088748e-001	 1.037651101568105e+000	-1.143019589037330e+001
1	 2.060105214088719e-001	 1.039791008713771e+000	-1.129909798559338e+001
1	 3.134002468966224e-001	 1.019590298292188e+000	-1.362742933484084e+001
1	 3.027898497785945e-001	 1.022791476736971e+000	-1.336950811407128e+001
1	 2.921748293092217e-001	 1.025874253664687e+000	-1.312163886817492e+001
1	 2.815570370197590e-001	 1.028839042630564e+000	-1.288491039404101e+001
1	 2.709383056183087e-001	 1.031686293007040e+000	-1.266041009755457e+001
1	 2.603204482043598e-001	 1.034416489247346e+000	-1.244922119679876e+001
1	 2.497052575127223e-001	 1.037030150131326e+000	-1.225241999674567e+001
1	 2.390945051871896e-001	 1.039527827994735e+000	-1.207107323942634e+001
1	 2.284899410842091e-001	 1.041910107943235e+000	-1.190623553328362e+001
1	 2.178932926067863e-001	 1.044177607052323e+000	-1.175894686510929e+001
1	 2.073062640687906e-001	 1.046330973554413e+000	-1.163023019768048e+001
1	 1.943490658186562e-001	 9.809324777358748e-001	-8.469405736612945e+000
1	 1.844358351184653e-001	 9.828446114249160e-001	-8.337463572751156e+000
1	 1.745347453506193e-001	 9.846510785005697e-001	-8.226615829411871e+000
1	 1.646473231798204e-001	 9.863525701375676e-001	-8.138018308767782e+000
1	 1.547750715930049e-001	 9.879498035443917e-001	-8.072800879627549e+000
1	 1.449194694473043e-001	 9.894435211587169e-001	-8.032065604090860e+000
1	 1.350819710464206e-001	 9.908344898374509e-001	-8.016884957221958e+000
1	 1.252640057452698e-001	 9.921235000424143e-001	-8.028300140808060e+000
1	 1.154669775827054e-001	 9.933113650226918e-001	-8.067319492003787e+000
1	 1.056922649420928e-001	 9.943989199946589e-001	-8.134916987427793e+000
1	 9.594122023947826e-002	 9.953870213206723e-001	-8.232030843018316e+000
1	 1.956447355985657e-001	 9.874720747214627e-001	-8.768208746205419e+000
1	 1.856654162184739e-001	 9.893969560593556e-001	-8.638518948568628e+000
1	 1.756983187108200e-001	 9.912154663345144e-001	-8.529848405473452e+000
1	 1.657449799180722e-001	 9.929283013296114e-001	-8.443350395030160e+000
1	 1.558069128470812e-001	 9.945361830346293e-001	-8.380152138659430e+000
1	 1.458856062140271e-001	 9.960398588369379e-001	-8.341352913341741e+000
1	 1.359825240179708e-001	 9.974401007059351e-001	-8.328022257702074e+000
1	 1.260991051428619e-001	 9.987377043732978e-001	-8.341198272991672e+000
1	 1.162367629878135e-001	 9.999334885098822e-001	-8.381886019778470e+000
1	 1.063968851254137e-001	 1.001028293900284e+000	-8.451056010914014e+000
1	 9.658083298781611e-002	 1.002022982616054e+000	-8.549642801089798e+000
1	 1.969404225463201e-001	 9.940117583589936e-001	-9.071370132810882e+000
1	 1.868950136103707e-001	 9.959493875149437e-001	-8.943936735067910e+000
1	 1.768619074880390e-001	 9.977799411495164e-001	-8.837431646740589e+000
1	 1.668426511997103e-001	 9.995041196533726e-001	-8.753005351992723e+000
1	 1.568387677722974e-001	 1.001122649798042e+000	-8.691782176376464e+000
1	 1.468517557811748e-001	 1.002636283920640e+000	-8.654858384567234e+000
1	 1.368830889209058e-001	 1.004045799103106e+000	-8.643300372712321e+000
1	 1.269342156046144e-001	 1.005351996347030e+000	-8.658142956467813e+000
1	 1.170065585918118e-001	 1.006555699745095e+000	-8.700387755543364e+000
1	 1.071015146444448e-001	 1.007657755650177e+000	-8.771001675317232e+000
1	 9.722045421090786e-002	 1.008659031843079e+000	-8.870915485852811e+000
1	 1.982361243944031e-001	 1.000551517203678e+000	-9.378686487596511e+000
1	 1.881246251423275e-001	 1.002501894324542e+000	-9.253510134296080e+000
1	 1.780255096459927e-001	 1.004344491457321e+000	-9.149155600438022e+000
1	 1.679403351038314e-001	 1.006080013600702e+000	-9.066770311633121e+000
1	 1.578706345629475e-001	 1.007709192307800e+000	-9.007475454131114e+000
1	 1.478179164580372e-001	 1.009232784865521e+000	-8.972364057924240e+000
1	 1.377836641792907e-001	 1.010651573468392e+000	-8.962499175217968e+000
1	 1.277693356691293e-001	 1.011966364387960e+000	-8.978912155354090e+000
1	 1.177763630475827e-001	 1.013177987138785e+000	-9.022601017012949e+000
1	 1.078061522660752e-001	 1.014287293642074e+000	-9.094528918265519e+000
1	 9.786008278935783e-002	 1.015295157387938e+000	-9.195622724801860e+000
1	 1.995318388752979e-001	 1.007091339810725e+000	-9.689959727116715e+000
1	 1.893542486625164e-001	 1.009054465021015e+000	-9.567037761626871e+000
1	 1.791891231483970e-001	 1.010909105769675e+000	-9.464815808812334e+000
1	 1.690380297095316e-001	 1.012655971663448e+000	-9.384437976268481e+000
1	 1.589025114133255e-001	 1.014295799037075e+000	-9.327022072424247e+000
1	 1.487840865539039e-001	 1.015829350127281e+000	-9.293657674896593e+000
1	 1.386842482171906e-001	 1.017257412241222e+000	-9.285404294940641e+000
1	 1.286044638750086e-001	 1.018580796920438e+000	-9.303289639092627e+000
1	 1.185461750080089e-001	 1.019800339101411e+000	-9.348307968834767e+000
1	 1.085107967571939e-001	 1.020916896273717e+000	-9.421418558865288e+000
1	 9.849971760377026e-002	 1.021931347636820e+000	-9.523544254301834e+000
1	 2.008275637214882e-001	 1.013631214735347e+000	-1.000499692183399e+001
1	 1.905838820191091e-001	 1.015607088137226e+000	-9.884323471444022e+000
1	 1.803527459589679e-001	 1.017473772598322e+000	-9.784213132175170e+000
1	 1.701357330959078e-001	 1.019231982333462e+000	-9.705806439158447e+000
1	 1.599343965177253e-001	 1.020882458459035e+000	-9.650217589271488e+000
1	 1.497502643780647e-001	 1.022425968161619e+000	-9.618532494630484e+000
1	 1.395848394586707e-001	 1.023863303861022e+000	-9.611806932878281e+000
1	 1.294395987608545e-001	 1.025195282368815e+000	-9.631064795372904e+000
1	 1.193159931259730e-001	 1.026422744043428e+000	-9.677296434127214e+000
1	 1.092154468846898e-001	 1.027546551942844e+000	-9.751457108079313e+000
1	 9.913935753474938e-002	 1.028567590975912e+000	-9.854465529031435e+000
1	 2.021232966654573e-001	 1.020171130532752e+000	-1.032361013118737e+001
1	 1.918135230602776e-001	 1.022159752206037e+000	-1.020517618948245e+001
1	 1.815163760414217e-001	 1.024038480455009e+000	-1.010715357870524e+001
1	 1.712334433420562e-001	 1.025808034102595e+000	-1.003067901195673e+001
1	 1.609662880704411e-001	 1.027469159046853e+000	-9.976862845503254e+000
1	 1.507164482398093e-001	 1.029022627424234e+000	-9.946787117287402e+000
1	 1.404854363277963e-001	 1.030469236767222e+000	-9.941503682908371e+000
1	 1.302747388652690e-001	 1.031809809157441e+000	-9.962032450193362e+000
1	 1.200858160543574e-001	 1.033045190375292e+000	-1.000935971321492e+001
1	 1.099201014154522e-001	 1.034176249047193e+000	-1.008443658634693e+001
1	 9.977900146289952e-002	 1.035203875791404e+000	-1.018817753870223e+001
1	 2.034190354396886e-001	 1.026711075758151e+000	-1.064561624492036e+001
1	 1.930431696341939e-001	 1.028712445760311e+000	-1.052940975152993e+001
1	 1.826800113594743e-001	 1.030603217851480e+000	-1.043344814070347e+001
1	 1.723311585270733e-001	 1.032384115462696e+000	-1.035886405871007e+001
1	 1.619981842657667e-001	 1.034055889273698e+000	-1.030676379669573e+001
1	 1.516826364484275e-001	 1.035619316370825e+000	-1.027822531409481e+001
1	 1.413860372486324e-001	 1.037075199399251e+000	-1.027429636016121e+001
1	 1.311098827268542e-001	 1.038424365710664e+000	-1.029599269475375e+001
1	 1.208556424460448e-001	 1.039667666507461e+000	-1.034429640923950e+001
1	 1.106247591163698e-001	 1.040805975984504e+000	-1.042015434812086e+001
1	 1.004186482688248e-001	 1.041840190469484e+000	-1.052447663173197e+001
1	 2.047147777766657e-001	 1.033251038966754e+000	-1.097083683038897e+001
1	 1.942728195890298e-001	 1.035265157332913e+000	-1.085684274820921e+001
1	 1.838436498768419e-001	 1.037167973299481e+000	-1.076291263702630e+001
1	 1.734288767300559e-001	 1.038960214905615e+000	-1.069017483611780e+001
1	 1.630300832979960e-001	 1.040642637612742e+000	-1.063973135143676e+001
1	 1.526488273132089e-001	 1.042216023457091e+000	-1.061265586380684e+001
1	 1.422866406452442e-001	 1.043681180196535e+000	-1.060999183586075e+001
1	 1.319450288842121e-001	 1.045038940452837e+000	-1.063275071887095e+001
1	 1.216254709539177e-001	 1.046290160850391e+000	-1.068191026034741e+001
1	 1.113294187543320e-001	 1.047435721152516e+000	-1.075841291302099e+001
1	 1.010582968331297e-001	 1.048476523396341e+000	-1.086316434556528e+001
1	 2.060105214088719e-001	 1.039791008713771e+000	-1.129909798559338e+001
1	 1.955024707729572e-001	 1.041817875456704e+000	-1.118729837557874e+001
1	 1.850072895572406e-001	 1.043732735310757e+000	-1.109536756142047e+001
1	 1.745265960301002e-001	 1.045536320923203e+000	-1.102442933977329e+001
1	 1.640619833614233e-001	 1.047229392537153e+000	-1.097558121565176e+001
1	 1.536150191434434e-001	 1.048812737138731e+000	-1.094989239529287e+001
1	 1.431872449416969e-001	 1.050287167598504e+000	-1.094840187835772e+001
1	 1.327801758759449e-001	 1.051653521808309e+000	-1.097211665063869e+001
1	 1.223953002308587e-001	 1.052912661814538e+000	-1.102200997816293e+001
1	 1.120340790962277e-001	 1.054065472948967e+000	-1.109901980331579e+001
1	 1.016979460364183e-001	 1.055112862958165e+000	-1.120404724335248e+001
1	 2.073062640687906e-001	 1.046330973554413e+000	-1.163023019768048e+001
1	 1.967321210341483e-001	 1.048370588664549e+000	-1.152060429129361e+001
1	 1.861709283643863e-001	 1.050297492397054e+000	-1.143063793650639e+001
1	 1.756243145063029e-001	 1.052112422007309e+000	-1.136145015613360e+001
1	 1.650938826503424e-001	 1.053816142520104e+000	-1.131413374272739e+001
1	 1.545812102484206e-001	 1.055409445871443e+000	-1.128975323598610e+001
1	 1.440878485620557e-001	 1.056893150044585e+000	-1.128934300007790e+001
1	 1.336153222406547e-001	 1.058268098201429e+000	-1.131390540205638e+001
1	 1.231651289297503e-001	 1.059535157810359e+000	-1.136440909227758e+001
1	 1.127387389089458e-001	 1.060695219771598e+000	-1.144178738745152e+001
1	 1.023375947592949e-001	 1.061749197541143e+000	-1.154693675670950e+001
1	 9.594122023947826e-002	 9.953870213206723e-001	-8.232030843018316e+000
1	 8.621371590998771e-002	 9.962766718121099e-001	-8.359060073465924e+000
1	 7.651253352126196e-002	 9.970686125683425e-001	-8.516291618067802e+000
1	 6.683896610081594e-002	 9.977637591031844e-001	-8.704488908984342e+000
1	 5.719427911104236e-002	 9.983630448185401e-001	-8.924375512681802e+000
1	 4.757971027342479e-002	 9.988674201817246e-001	-9.176634599265251e+000
1	 3.799646941872222e-002	 9.992778519071311e-001	-9.461908488280571e+000
1	 2.844573836262598e-002	 9.995953221430518e-001	-9.780798269589932e+000
1	 1.892867080636962e-002	 9.998208276644112e-001	-1.013386349780360e+001
1	 9.446392261750505e-003	 9.999553790721549e-001	-1.052162195864145e+001
1	 0.000000000000000e+000	 1.000000000000000e+000	-1.094454950549588e+001
1	 9.658083298781611e-002	 1.002022982616054e+000	-8.549642801089799e+000
1	 8.678847815970567e-002	 1.002918564154065e+000	-8.678026787249856e+000
1	 7.702262075288691e-002	 1.003715784554311e+000	-8.836496853935007e+000
1	 6.728456241542379e-002	 1.004415565433972e+000	-9.025843796151895e+000
1	 5.757557704648520e-002	 1.005018846417574e+000	-9.246818096304960e+000
1	 4.789691061938552e-002	 1.005526584308822e+000	-9.500129347507803e+000
1	 3.824978103077066e-002	 1.005939752266822e+000	-9.786445755639710e+000
1	 2.863537797544591e-002	 1.006259338987468e+000	-1.010639371876531e+001
1	 1.905486284632297e-002	 1.006486347890802e+000	-1.046055748240165e+001
1	 9.509368658941853e-003	 1.006621796315063e+000	-1.084947886900872e+001
1	 0.000000000000000e+000	 1.006666714718147e+000	-1.127365707997113e+001
1	 9.722045421090786e-002	 1.008659031843079e+000	-8.870915485852811e+000
1	 8.736324802543309e-002	 1.009560544506255e+000	-9.000493110546843e+000
1	 7.753271474417561e-002	 1.010363044620398e+000	-9.160026526185236e+000
1	 6.773016463579058e-002	 1.011067459906151e+000	-9.350332239408768e+000
1	 5.795688003626343e-002	 1.011674736210762e+000	-9.572186028542335e+000
1	 4.821411517077870e-002	 1.012185836674435e+000	-9.826322322324812e+000
1	 3.850309600190694e-002	 1.012601740901085e+000	-1.011343365958630e+001
1	 2.882502010360377e-002	 1.012923444134316e+000	-1.043417022848926e+001
1	 1.918105656049415e-002	 1.013151956439392e+000	-1.078913948382662e+001
1	 9.572345891894282e-003	 1.013288301891951e+000	-1.117890584074869e+001
1	 0.000000000000000e+000	 1.013333517774178e+000	-1.160399044317880e+001
1	 9.786008278935783e-002	 1.015295157387938e+000	-9.195622724801860e+000
1	 8.793802450119995e-002	 1.016202601244475e+000	-9.326231913529716e+000
1	 7.804281460226917e-002	 1.017010381133149e+000	-9.486652604684879e+000
1	 6.817577198184753e-002	 1.017719430878154e+000	-9.677725400063968e+000
1	 5.833818741277171e-002	 1.018330702549552e+000	-9.900249788166454e+000
1	 4.853132337212969e-002	 1.018845165624130e+000	-1.015498347977888e+001
1	 3.875641388844892e-002	 1.019263806150706e+000	-1.044264182661492e+001
1	 2.901466441486628e-002	 1.019587625920686e+000	-1.076389732163858e+001
1	 1.930725172774978e-002	 1.019817641644647e+000	-1.111937917956706e+001
1	 9.635323850220484e-003	 1.019954884135722e+000	-1.150967299592532e+001
1	 0.000000000000000e+000	 1.020000397500475e+000	-1.193532048290912e+001
1	 9.849971760377026e-002	 1.021931347636820e+000	-9.523544254301834e+000
1	 8.851280658103630e-002	 1.022844722744521e+000	-9.655021998519146e+000
1	 7.855291943430862e-002	 1.023657782459112e+000	-9.816153013101751e+000
1	 6.862138367352591e-002	 1.024371466708420e+000	-1.000780041234324e+001
1	 5.871949850840465e-002	 1.024986733785391e+000	-1.023078584255617e+001
1	 4.884853466796384e-002	 1.025504559503475e+000	-1.048588877592209e+001
1	 3.900973424671441e-002	 1.025925936356472e+000	-1.077384588941682e+001
1	 2.920431057700011e-002	 1.026251872683667e+000	-1.109535052746035e+001
1	 1.943344812695650e-002	 1.026483391841034e+000	-1.145105224678138e+001
1	 9.698302423533143e-003	 1.026621531379276e+000	-1.184155644187774e+001
1	 0.000000000000000e+000	 1.026667342229423e+000	-1.226742404931571e+001
1	 9.913935753474938e-002	 1.028567590975912e+000	-9.854465529031435e+000
1	 8.908759325897205e-002	 1.029486897382186e+000	-9.986647908621896e+000
1	 7.906302834743502e-002	 1.030305236964838e+000	-1.014831143677945e+001
1	 6.906699893075705e-002	 1.031023555755385e+000	-1.034034019058099e+001
1	 5.910081265555691e-002	 1.031642818269725e+000	-1.056357645430978e+001
1	 4.916574850280654e-002	 1.032164006658038e+000	-1.081881997295861e+001
1	 3.926305663302130e-002	 1.032588119859170e+000	-1.110682729275153e+001
1	 2.939395825777192e-002	 1.032916172760352e+000	-1.142831118734167e+001
1	 1.955964553698095e-002	 1.033149195363019e+000	-1.178394016818291e+001
1	 9.761281501444945e-003	 1.033288231955517e+000	-1.217433807745252e+001
1	 0.000000000000000e+000	 1.033334340293404e+000	-1.260008376177215e+001
1	 9.977900146289952e-002	 1.035203875791404e+000	-1.018817753870223e+001
1	 8.966238352903722e-002	 1.036129113533266e+000	-1.032089974367294e+001
1	 7.957314044878942e-002	 1.036952733016872e+000	-1.048291713794814e+001
1	 6.951261697347209e-002	 1.037675686377483e+000	-1.067513324377216e+001
1	 5.948212918662311e-002	 1.038298944354002e+000	-1.089840949523599e+001
1	 4.948296432118315e-002	 1.038823495433387e+000	-1.115356445280558e+001
1	 3.951638060368740e-002	 1.039250344999587e+000	-1.144137310673109e+001
1	 2.958360712494840e-002	 1.039580514487830e+000	-1.176256626799851e+001
1	 1.968584373668977e-002	 1.039815040545070e+000	-1.211783004533502e+001
1	 9.824260973568581e-003	 1.039954974197345e+000	-1.250780540664296e+001
1	 0.000000000000000e+000	 1.040001380024802e+000	-1.293308782310066e+001
1	 1.004186482688248e-001	 1.041840190469484e+000	-1.052447663173197e+001
1	 9.023717638526180e-002	 1.042771359573556e+000	-1.065757298315971e+001
1	 8.008325484551290e-002	 1.043600258981764e+000	-1.081976477794585e+001
1	 6.995823702160242e-002	 1.044327846933152e+000	-1.101197349715907e+001
1	 5.986344743399787e-002	 1.044955100389668e+000	-1.123507826740458e+001
1	 4.980018156761901e-002	 1.045483014175090e+000	-1.148991503772908e+001
1	 3.976970571503059e-002	 1.045912600118508e+000	-1.177727584718870e+001
1	 2.977325684629623e-002	 1.046244886203193e+000	-1.209790818174826e+001
1	 1.981204250494958e-002	 1.046480915721652e+000	-1.245251441903077e+001
1	 9.887240729516742e-003	 1.046621746437664e+000	-1.284175135928981e+001
1	 0.000000000000000e+000	 1.046668449755999e+000	-1.326622984084942e+001
1	 1.010582968331297e-001	 1.048476523396341e+000	-1.086316434556528e+001
1	 9.081197082167578e-002	 1.049413623878850e+000	-1.099646831582491e+001
1	 8.059337064474650e-002	 1.050247803226061e+000	-1.115865424614197e+001
1	 7.040385829507924e-002	 1.050980025780828e+000	-1.135066012054575e+001
1	 6.024476673007587e-002	 1.051611274728169e+000	-1.157338133094368e+001
1	 5.011739968663952e-002	 1.052142551228714e+000	-1.182766981774042e+001
1	 4.002303152336871e-002	 1.052574873556721e+000	-1.211433330281846e+001
1	 2.996290708958209e-002	 1.052909276243529e+000	-1.243413461356092e+001
1	 1.993824162062704e-002	 1.053146809227233e+000	-1.278779109643974e+001
1	 9.950220658902111e-003	 1.053288537009374e+000	-1.317597411854695e+001
1	 0.000000000000000e+000	 1.053335537819379e+000	-1.359930865530740e+001
1	 1.016979460364183e-001	 1.055112862958165e+000	-1.120404724335248e+001
1	 9.138676583230913e-002	 1.056055894824945e+000	-1.133739147565208e+001
1	 8.110348695363123e-002	 1.056895354116312e+000	-1.149939049527201e+001
1	 7.084948001383383e-002	 1.057632211278946e+000	-1.169099736304421e+001
1	 6.062608640725169e-002	 1.058267455720954e+000	-1.191312233828834e+001
1	 5.043461812277002e-002	 1.058802094939827e+000	-1.216663198446157e+001
1	 4.027635758501962e-002	 1.059237153655013e+000	-1.245234836879289e+001
1	 3.015255752257267e-002	 1.059573672945931e+000	-1.277104835458789e+001
1	 2.006444086258876e-002	 1.059812709396278e+000	-1.312346298473710e+001
1	 1.001320065133738e-002	 1.059955334245377e+000	-1.351027695480887e+001
1	 0.000000000000000e+000	 1.060002632547326e+000	-1.393212817396148e+001
1	 1.023375947592949e-001	 1.061749197541143e+000	-1.154693675670950e+001
1	 9.196156041119188e-002	 1.062698160787635e+000	-1.168015308395781e+001
1	 8.161360287930819e-002	 1.063542900019065e+000	-1.184178338290158e+001
1	 7.129510139779745e-002	 1.064284391785943e+000	-1.203279439397429e+001
1	 6.100740579791999e-002	 1.064923631719467e+000	-1.225410987459961e+001
1	 5.075183632053588e-002	 1.065461633653999e+000	-1.250660967117383e+001
1	 4.052968345630113e-002	 1.065899428754169e+000	-1.279112888657360e+001
1	 3.034220781303463e-002	 1.066238064647488e+000	-1.310845714188948e+001
1	 2.019064000970140e-002	 1.066478604563256e+000	-1.345933793092140e+001
1	 1.007618059643524e-002	 1.066622126478576e+000	-1.384446806582094e+001
1	 0.000000000000000e+000	 1.066669722272222e+000	-1.426449721211760e+001
1	 1.066669722272222e+000	 0.000000000000000e+000	 2.640654833920707e+001
1	 1.066622126478576e+000	 1.007618059643527e-002	 2.629574960304442e+001
1	 1.066478604563255e+000	 2.019064000970146e-002	 2.617692353920095e+001
1	 1.066238064647488e+000	 3.034220781303457e-002	 2.604916019459797e+001
1	 1.065899428754169e+000	 4.052968345630110e-002	 2.591156771552679e+001
1	 1.065461633653999e+000	 5.075183632053588e-002	 2.576327398406434e+001
1	 1.064923631719468e+000	 6.100740579792002e-002	 2.560342827180416e+001
1	 1.064284391785943e+000	 7.129510139779750e-002	 2.543120290849397e+001
1	 1.063542900019065e+000	 8.161360287930811e-002	 2.524579496305304e+001
1	 1.062698160787635e+000	 9.196156041119183e-002	 2.504642793432418e+001
1	 1.061749197541144e+000	 1.023375947592949e-001	 2.483235344880024e+001
1	 1.073335797538833e+000	 0.000000000000000e+000	 2.630059141448452e+001
1	 1.073287904298776e+000	 1.013915095835200e-002	 2.617273512871329e+001
1	 1.073143485453786e+000	 2.031681995409998e-002	 2.603747087405467e+001
1	 1.072901442301451e+000	 3.053182924600520e-002	 2.589388507974785e+001
1	 1.072560690127902e+000	 4.078297078120603e-002	 2.574108260594894e+001
1	 1.072120159059240e+000	 5.106900625009653e-002	 2.557818839898676e+001
1	 1.071578794920858e+000	 6.138866716680425e-002	 2.540434916382423e+001
1	 1.070935560103909e+000	 7.174065497586930e-002	 2.521873505127410e+001
1	 1.070189434438125e+000	 8.212364118570634e-002	 2.502054135739837e+001
1	 1.069339416070155e+000	 9.253626752940733e-002	 2.480899023240085e+001
1	 1.068384522346582e+000	 1.029771461534198e-001	 2.458333239620733e+001
1	 1.080001857806444e+000	 0.000000000000000e+000	 2.620368864750187e+001
1	 1.079953667120661e+000	 1.020212117838585e-002	 2.605862964222442e+001
1	 1.079808351348064e+000	 2.044299961424785e-002	 2.590677908778644e+001
1	 1.079564804962612e+000	 3.072145025188314e-002	 2.574722007824306e+001
1	 1.079221936513682e+000	 4.103625753571282e-002	 2.557905443868960e+001
1	 1.078778669482785e+000	 5.138617546550140e-002	 2.540140439828744e+001
1	 1.078233943148229e+000	 6.176992767733444e-002	 2.521341428040763e+001
1	 1.077586713456961e+000	 7.218620755096013e-002	 2.501425220740142e+001
1	 1.076835953902812e+000	 8.263367834407996e-002	 2.480311181738533e+001
1	 1.075980656410289e+000	 9.311097335415063e-002	 2.457921399030863e+001
1	 1.075019832223076e+000	 1.036166961082335e-001	 2.434180858045372e+001
1	 1.086667904741722e+000	 0.000000000000000e+000	 2.611521939907888e+001
1	 1.086619416610818e+000	 1.026509127233136e-002	 2.595283051037055e+001
1	 1.086473203912440e+000	 2.056917902178213e-002	 2.578426283626385e+001
1	 1.086228154296925e+000	 3.091107087819520e-002	 2.560859641485004e+001
1	 1.085883169576908e+000	 4.128954378328465e-002	 2.542493028443237e+001
1	 1.085437166589321e+000	 5.170334404619591e-002	 2.523238417326483e+001
1	 1.084889078065393e+000	 6.215118742498332e-002	 2.503010020634271e+001
1	 1.084237853507879e+000	 7.263175923461419e-002	 2.481724462671661e+001
1	 1.083482460074717e+000	 8.314371448208835e-002	 2.459300952867970e+001
1	 1.082621883468280e+000	 9.368567802923872e-002	 2.435661460005561e+001
1	 1.081655128829361e+000	 1.042562447837526e-001	 2.410730887069781e+001
1	 1.093333940011333e+000	 0.000000000000000e+000	 2.603457816976120e+001
1	 1.093285154435836e+000	 1.032806125598307e-002	 2.585474980057589e+001
1	 1.093138044813263e+000	 2.069535820833983e-002	 2.566935105438546e+001
1	 1.092891491970343e+000	 3.110069117246819e-002	 2.547745918933955e+001
1	 1.092544390982978e+000	 4.154282958738464e-002	 2.527817070248078e+001
1	 1.092095652043531e+000	 5.202051207162540e-002	 2.507060303515177e+001
1	 1.091544201336163e+000	 6.253244650522354e-002	 2.485389629540973e+001
1	 1.090888981919444e+000	 7.307731013837575e-002	 2.462721499488534e+001
1	 1.090128954615429e+000	 8.365374972739088e-002	 2.438974979739981e+001
1	 1.089263098904368e+000	 9.426038169848881e-002	 2.414071927653114e+001
1	 1.088290413824173e+000	 1.048957923399939e-001	 2.387937167920178e+001
1	 1.099999965281944e+000	 0.000000000000000e+000	 2.596117414098960e+001
1	 1.099950882262301e+000	 1.039103114513552e-002	 2.576381383537282e+001
1	 1.099802875716884e+000	 2.082153720555801e-002	 2.556148652333534e+001
1	 1.099554819648821e+000	 3.129031118222894e-002	 2.535326695598682e+001
1	 1.099205602397292e+000	 4.179611501147604e-002	 2.513824933196961e+001
1	 1.098754127510101e+000	 5.233767962123527e-002	 2.491554901750192e+001
1	 1.098199314624351e+000	 6.291370501352776e-002	 2.468430428340544e+001
1	 1.097540100354437e+000	 7.352286037378919e-002	 2.444367805652219e+001
1	 1.096775439186540e+000	 8.416378420764692e-002	 2.419285968280120e+001
1	 1.095904304378798e+000	 9.483508450571800e-002	 2.393106669921171e+001
1	 1.094925688866247e+000	 1.055353389369740e-001	 2.365754661152018e+001
1	 1.106665982220223e+000	 0.000000000000000e+000	 2.589443073287214e+001
1	 1.106616601756801e+000	 1.045400095558323e-002	 2.567946276300016e+001
1	 1.106467698289651e+000	 2.094771604507368e-002	 2.546012545349660e+001
1	 1.106218138998312e+000	 3.147993095500426e-002	 2.523549131828743e+001
1	 1.105866805485248e+000	 4.204940011902197e-002	 2.500465249786842e+001
1	 1.105412594653715e+000	 5.265484677447090e-002	 2.476672249296424e+001
1	 1.104854419593770e+000	 6.329496304536868e-002	 2.452083791517030e+001
1	 1.104191210475639e+000	 7.396841005239865e-002	 2.426616025195209e+001
1	 1.103421915449642e+000	 8.467381805051580e-002	 2.400187764325256e+001
1	 1.102545501551810e+000	 9.540978659474335e-002	 2.372720666683213e+001
1	 1.101560955614317e+000	 1.061748847347095e-001	 2.344139412934663e+001
1	 1.113331992492834e+000	 0.000000000000000e+000	 2.583378517786288e+001
1	 1.113282314585924e+000	 1.051697070312077e-002	 2.560115014344648e+001
1	 1.113132514197916e+000	 2.107389475852392e-002	 2.536473708236721e+001
1	 1.112881451684768e+000	 3.166955053832096e-002	 2.512361653825114e+001
1	 1.112528001912243e+000	 4.230268497348567e-002	 2.487687883115666e+001
1	 1.112071055139059e+000	 5.297201361077765e-002	 2.462363580384150e+001
1	 1.111509517908231e+000	 6.367622069621895e-002	 2.436302258503115e+001
1	 1.110842313945830e+000	 7.441395928574848e-002	 2.409419936703690e+001
1	 1.110068385066324e+000	 8.518385138365692e-002	 2.381635319494563e+001
1	 1.109186692083648e+000	 9.598448810938200e-002	 2.352869976447765e+001
1	 1.108196215727121e+000	 1.068144298932171e-001	 2.323048522548749e+001
1	 1.119997997766445e+000	 0.000000000000000e+000	 2.577868810968332e+001
1	 1.119948022416257e+000	 1.057994040354264e-002	 2.552834254929410e+001
1	 1.119797325108027e+000	 2.120007337754572e-002	 2.527480328685197e+001
1	 1.119544759374145e+000	 3.185916997970588e-002	 2.501713915966480e+001
1	 1.119189193343679e+000	 4.255596963833025e-002	 2.475443890257906e+001
1	 1.118729510630817e+000	 5.328918020960095e-002	 2.448581290585788e+001
1	 1.118164611231547e+000	 6.405747806155128e-002	 2.421039499009972e+001
1	 1.117493412427794e+000	 7.485950818538292e-002	 2.392734419552219e+001
1	 1.116714849698179e+000	 8.569388433472962e-002	 2.363584658280744e+001
1	 1.115827877634553e+000	 9.655918919345111e-002	 2.333511704257875e+001
1	 1.114831470863391e+000	 1.074539745725134e-001	 2.302440111045652e+001
1	 1.126663999707723e+000	 0.000000000000000e+000	 2.572860316685472e+001
1	 1.126613726914387e+000	 1.064291007264340e-002	 2.546051918075021e+001
1	 1.126462132686335e+000	 2.132625193377614e-002	 2.518981820933448e+001
1	 1.126208063732395e+000	 3.204878932668583e-002	 2.491556764474558e+001
1	 1.125850381444952e+000	 4.280925417701895e-002	 2.463685486941841e+001
1	 1.125387962793674e+000	 5.360634665038612e-002	 2.435278902458796e+001
1	 1.124819701227530e+000	 6.443873523683831e-002	 2.406250279589328e+001
1	 1.124144507584308e+000	 7.530505686284626e-002	 2.376515421338500e+001
1	 1.123361311006796e+000	 8.620391703139331e-002	 2.345992846310935e+001
1	 1.122469059864767e+000	 9.713388999076773e-002	 2.314603970731551e+001
1	 1.121466722681864e+000	 1.080935189326152e-001	 2.282273291020878e+001
1	 1.133329999983334e+000	 0.000000000000000e+000	 2.568300661023891e+001
1	 1.133279429746903e+000	 1.070587972621758e-002	 2.539717149428025e+001
1	 1.133126938599190e+000	 2.145243045885220e-002	 2.510928789696151e+001
1	 1.132871366425473e+000	 3.223840862678761e-002	 2.481842202363252e+001
1	 1.132511567881462e+000	 4.306253865301489e-002	 2.452366013474883e+001
1	 1.132046413292315e+000	 5.392351301257858e-002	 2.422411032402519e+001
1	 1.131474789559993e+000	 6.481999231755271e-002	 2.391890431377066e+001
1	 1.130795601078155e+000	 7.575060542968279e-002	 2.360719926468802e+001
1	 1.130007770653767e+000	 8.671394960130725e-002	 2.328817959729039e+001
1	 1.129110240434534e+000	 9.770859064514900e-002	 2.296105882196074e+001
1	 1.128101972841275e+000	 1.087330631335390e-001	 2.262508137455455e+001
1	 1.061749197541144e+000	 1.023375947592949e-001	 2.483235344880024e+001
1	 1.060695219771598e+000	 1.127387389089459e-001	 2.460776060948260e+001
1	 1.059535157810359e+000	 1.231651289297503e-001	 2.437683028701366e+001
1	 1.058268098201429e+000	 1.336153222406547e-001	 2.413894823389107e+001
1	 1.056893150044585e+000	 1.440878485620556e-001	 2.389353438443055e+001
1	 1.055409445871443e+000	 1.545812102484205e-001	 2.364004455430179e+001
1	 1.053816142520104e+000	 1.650938826503425e-001	 2.337797212623313e+001
1	 1.052112422007309e+000	 1.756243145063028e-001	 2.310684971823380e+001
1	 1.050297492397054e+000	 1.861709283643864e-001	 2.282625083060712e+001
1	 1.048370588664549e+000	 1.967321210341483e-001	 2.253579146795842e+001
1	 1.046330973554413e+000	 2.073062640687906e-001	 2.223513173234088e+001
1	 1.068384522346582e+000	 1.029771461534198e-001	 2.458333239620733e+001
1	 1.067323957819170e+000	 1.134432915009483e-001	 2.434777576724353e+001
1	 1.066156646134477e+000	 1.239348404919512e-001	 2.410651602352166e+001
1	 1.064881668127946e+000	 1.344503415300592e-001	 2.385893727825138e+001
1	 1.063498127331754e+000	 1.449883151472519e-001	 2.360445764172967e+001
1	 1.062005150856359e+000	 1.555472543385594e-001	 2.334253092331658e+001
1	 1.060401890270602e+000	 1.661256249263772e-001	 2.307264831977609e+001
1	 1.058687522479315e+000	 1.767218659546793e-001	 2.279434008632796e+001
1	 1.056861250597369e+000	 1.873343901133681e-001	 2.250717718667903e+001
1	 1.054922304819027e+000	 1.979615841929645e-001	 2.221077291823273e+001
1	 1.052869943281504e+000	 2.086018095697990e-001	 2.190478450861486e+001
1	 1.075019832223076e+000	 1.036166961082335e-001	 2.434180858045372e+001
1	 1.073952680952703e+000	 1.141478425074454e-001	 2.409511765998634e+001
1	 1.072778119560937e+000	 1.247045503220942e-001	 2.384334769582741e+001
1	 1.071495223174678e+000	 1.352853589405142e-001	 2.358588225281941e+001
1	 1.070103089758523e+000	 1.458887797062889e-001	 2.332213876065593e+001
1	 1.068600841001780e+000	 1.565132962550305e-001	 2.305157021793774e+001
1	 1.066987623204044e+000	 1.671573648809591e-001	 2.277366688269970e+001
1	 1.065262608158258e+000	 1.778194149335622e-001	 2.248795794574841e+001
1	 1.063424994030176e+000	 1.884978492445813e-001	 2.219401318307266e+001
1	 1.061474006233129e+000	 1.991910445855254e-001	 2.189144458351927e+001
1	 1.059408898296942e+000	 2.098973521558755e-001	 2.157990794786567e+001
1	 1.081655128829361e+000	 1.042562447837526e-001	 2.410730887069781e+001
1	 1.080581390829266e+000	 1.148523921046916e-001	 2.384932455267289e+001
1	 1.079399579744983e+000	 1.254742586127104e-001	 2.358687552448913e+001
1	 1.078108764994883e+000	 1.361203746808647e-001	 2.331934587872759e+001
1	 1.076708038975992e+000	 1.467892424643597e-001	 2.304615349246125e+001
1	 1.075196517956486e+000	 1.574793362394091e-001	 2.276675173303441e+001
1	 1.073573342966726e+000	 1.681891027720756e-001	 2.248063115032766e+001
1	 1.071837680687771e+000	 1.789169617173799e-001	 2.218732115184065e+001
1	 1.069988724336277e+000	 1.896613060489216e-001	 2.188639165684721e+001
1	 1.068025694544651e+000	 2.004205025192179e-001	 2.157745472580739e+001
1	 1.065947840235338e+000	 2.111928921509209e-001	 2.126016616115921e+001
1	 1.088290413824173e+000	 1.048957923399939e-001	 2.387937167920178e+001
1	 1.087210089105928e+000	 1.155569404689416e-001	 2.360994597558523e+001
1	 1.086021028341859e+000	 1.262439655563311e-001	 2.333666070395805e+001
1	 1.084722295241816e+000	 1.369553889599556e-001	 2.305890154629032e+001
1	 1.083312976635267e+000	 1.476897036466583e-001	 2.277608793995999e+001
1	 1.081792183369263e+000	 1.584453745332703e-001	 2.248767478489997e+001
1	 1.080159051204942e+000	 1.692208388577142e-001	 2.219315413715556e+001
1	 1.078412741711491e+000	 1.800145065805603e-001	 2.189205688517532e+001
1	 1.076552443156474e+000	 1.908247608172845e-001	 2.158395440508028e+001
1	 1.074577371391386e+000	 2.016499583014293e-001	 2.126846019108674e+001
1	 1.072486770731300e+000	 2.124884298788353e-001	 2.094523145719585e+001
1	 1.094925688866247e+000	 1.055353389369740e-001	 2.365754661152018e+001
1	 1.093838777439760e+000	 1.162614877764497e-001	 2.337654238293674e+001
1	 1.092642467006809e+000	 1.270136713454877e-001	 2.309227507002590e+001
1	 1.091335815568734e+000	 1.377904019866320e-001	 2.280413299169102e+001
1	 1.089917904387451e+000	 1.485901634783783e-001	 2.251153824384678e+001
1	 1.088387838888894e+000	 1.594114113781895e-001	 2.221394840758008e+001
1	 1.086744749564987e+000	 1.702525733958623e-001	 2.191085824355672e+001
1	 1.084987792873053e+000	 1.811120497975321e-001	 2.160180136898647e+001
1	 1.083116152131570e+000	 1.919882138405656e-001	 2.128635191337973e+001
1	 1.081129038411128e+000	 2.028794122395463e-001	 2.096412614926052e+001
1	 1.079025691419437e+000	 2.137839656635191e-001	 2.063478409393817e+001
1	 1.101560955614317e+000	 1.061748847347095e-001	 2.344139412934663e+001
1	 1.100467457487831e+000	 1.169660342034704e-001	 2.314868482383664e+001
1	 1.099263897395078e+000	 1.277833761727112e-001	 2.285330077930608e+001
1	 1.097949327628892e+000	 1.386254139697389e-001	 2.255463398536814e+001
1	 1.096522823883646e+000	 1.494906221847133e-001	 2.225211028036492e+001
1	 1.094983486164163e+000	 1.603774470157416e-001	 2.194519106018946e+001
1	 1.093330439693156e+000	 1.712843066445071e-001	 2.163337497310128e+001
1	 1.091562835816092e+000	 1.822095916427233e-001	 2.131619959683450e+001
1	 1.089679852902367e+000	 1.931516654096603e-001	 2.099324309421938e+001
1	 1.087680697241672e+000	 2.041088646409560e-001	 2.066412584346974e+001
1	 1.085564603934357e+000	 2.150794998288730e-001	 2.032851203922618e+001
1	 1.108196215727121e+000	 1.068144298932171e-001	 2.323048522548749e+001
1	 1.107096130907212e+000	 1.176705799262584e-001	 2.292595462508938e+001
1	 1.105885321161910e+000	 1.285530802305332e-001	 2.261933000024340e+001
1	 1.104562833075548e+000	 1.394604251181213e-001	 2.231000803160978e+001
1	 1.103127736774956e+000	 1.503910799908570e-001	 2.199741936984931e+001
1	 1.101579126843853e+000	 1.613434816875018e-001	 2.168103034475596e+001
1	 1.099916123235745e+000	 1.723160388616364e-001	 2.136034466004265e+001
1	 1.098137872184243e+000	 1.833071323905622e-001	 2.103490507006443e+001
1	 1.096243547109668e+000	 1.943151158154643e-001	 2.070429503468649e+001
1	 1.094232349520812e+000	 2.053383158130456e-001	 2.036814034843421e+001
1	 1.092103509910670e+000	 2.163750326987972e-001	 2.002611074000317e+001
1	 1.114831470863391e+000	 1.074539745725134e-001	 2.302440111045652e+001
1	 1.113724799354973e+000	 1.183751251210680e-001	 2.270794308533530e+001
1	 1.112506739962550e+000	 1.293227837114847e-001	 2.238996461517156e+001
1	 1.111176333561957e+000	 1.402954356406242e-001	 2.206986807888871e+001
1	 1.109732644712486e+000	 1.512915371220031e-001	 2.174708999569015e+001
1	 1.108174762576749e+000	 1.623095156350454e-001	 2.142110273415296e+001
1	 1.106501801839048e+000	 1.733477703052374e-001	 2.109141620654756e+001
1	 1.104712903621141e+000	 1.844046723154772e-001	 2.075757954465153e+001
1	 1.102807236394275e+000	 1.954785653488730e-001	 2.041918275324835e+001
1	 1.100783996886342e+000	 2.065677660632019e-001	 2.007585833743373e+001
1	 1.098642410982984e+000	 2.176705645971922e-001	 1.972728289979226e+001
1	 1.121466722681864e+000	 1.080935189326152e-001	 2.282273291020879e+001
1	 1.120353464488183e+000	 1.190796699641537e-001	 2.249425118006233e+001
1	 1.119128155452241e+000	 1.300924868080971e-001	 2.216481593296011e+001
1	 1.117789830741375e+000	 1.411304457460927e-001	 2.183383624049310e+001
1	 1.116337549347337e+000	 1.521919938033452e-001	 2.150075553328550e+001
1	 1.114770395011633e+000	 1.632755490999475e-001	 2.116505330970161e+001
1	 1.113087477149361e+000	 1.743795012332977e-001	 2.082624682926575e+001
1	 1.111287931770423e+000	 1.855022116918965e-001	 2.048389278704430e+001
1	 1.109370922396989e+000	 1.966420143007822e-001	 2.013758896516383e+001
1	 1.107335640976057e+000	 2.077972156988120e-001	 1.978697585757124e+001
1	 1.105181308785909e+000	 2.189660958479585e-001	 1.943173826408231e+001
1	 1.128101972841275e+000	 1.087330631335390e-001	 2.262508137455455e+001
1	 1.126982127963913e+000	 1.197842146317701e-001	 2.228448927704051e+001
1	 1.125749569286228e+000	 1.308621897129018e-001	 2.194350441181476e+001
1	 1.124403326267059e+000	 1.419654556433717e-001	 2.160154352502813e+001
1	 1.122942452330613e+000	 1.530924502600770e-001	 2.125805798857044e+001
1	 1.121366025797290e+000	 1.642415823237833e-001	 2.091253550804447e+001
1	 1.119673150812978e+000	 1.754112319038044e-001	 2.056450181485386e+001
1	 1.117862958275722e+000	 1.865997507942483e-001	 2.021352233863444e+001
1	 1.115934606758614e+000	 1.978054629620873e-001	 1.985920385618382e+001
1	 1.113887283427750e+000	 2.090266650272629e-001	 1.950119611297686e+001
1	 1.111720204954052e+000	 2.202616267749964e-001	 1.913919341329666e+001
1	 1.046330973554413e+000	 2.073062640687906e-001	 2.223513173234088e+001
1	 1.044177607052323e+000	 2.178932926067863e-001	 2.192566660431033e+001
1	 1.041910107943235e+000	 2.284899410842093e-001	 2.160896726352992e+001
1	 1.039527827994735e+000	 2.390945051871895e-001	 2.128489167901114e+001
1	 1.037030150131326e+000	 2.497052575127223e-001	 2.095334853461453e+001
1	 1.034416489247346e+000	 2.603204482043598e-001	 2.061429856730615e+001
1	 1.031686293007040e+000	 2.709383056183087e-001	 2.026775584968875e+001
1	 1.028839042630563e+000	 2.815570370197589e-001	 1.991378901280632e+001
1	 1.025874253664687e+000	 2.921748293092218e-001	 1.955252240525442e+001
1	 1.022791476736971e+000	 3.027898497785945e-001	 1.918413718466836e+001
1	 1.019590298292188e+000	 3.134002468966224e-001	 1.880887233771904e+001
1	 1.052869943281504e+000	 2.086018095697990e-001	 2.190478450861486e+001
1	 1.050703119470998e+000	 2.192550009769878e-001	 2.159061526609970e+001
1	 1.048421449790088e+000	 2.299178724427004e-001	 2.126984825269786e+001
1	 1.046024281955267e+000	 2.405887090020831e-001	 2.094234138593865e+001
1	 1.043510995034660e+000	 2.512657724568544e-001	 2.060800312874768e+001
1	 1.040881000266023e+000	 2.619473020149687e-001	 2.026679382550692e+001
1	 1.038133741861805e+000	 2.726315149608756e-001	 1.991872698239786e+001
1	 1.035268697800079e+000	 2.833166073562020e-001	 1.956387048802922e+001
1	 1.032285380600047e+000	 2.940007547706283e-001	 1.920234777038077e+001
1	 1.029183338080940e+000	 3.046821130426786e-001	 1.883433888613782e+001
1	 1.025962154103039e+000	 3.153588190700910e-001	 1.846008153854549e+001
1	 1.059408898296942e+000	 2.098973521558755e-001	 2.157990794786567e+001
1	 1.057228617208352e+000	 2.206167062833925e-001	 2.126081531913053e+001
1	 1.054932776987560e+000	 2.313458005883875e-001	 2.093576100951923e+001
1	 1.052520721299978e+000	 2.420829094550495e-001	 2.060460264849474e+001
1	 1.049991825357360e+000	 2.528262838898459e-001	 2.026724815660928e+001
1	 1.047345496740881e+000	 2.635741521651587e-001	 1.992365707828672e+001
1	 1.044581176211209e+000	 2.743247204937079e-001	 1.957384185902272e+001
1	 1.041698338504331e+000	 2.850761737335841e-001	 1.921786906300982e+001
1	 1.038696493111893e+000	 2.958266761236637e-001	 1.885586052722491e+001
1	 1.035575185044799e+000	 3.065743720491249e-001	 1.848799444805875e+001
1	 1.032333995578839e+000	 3.173173868367261e-001	 1.811450639662296e+001
1	 1.065947840235338e+000	 2.111928921509209e-001	 2.126016616115921e+001
1	 1.063754101895628e+000	 2.219784088664360e-001	 2.093594631898019e+001
1	 1.061444091163351e+000	 2.327737258782584e-001	 2.060639931282405e+001
1	 1.059017147652842e+000	 2.435771069196422e-001	 2.027138225402779e+001
1	 1.056472642719491e+000	 2.543867922018260e-001	 1.993080220691215e+001
1	 1.053809980287900e+000	 2.652009990616432e-001	 1.958461751721676e+001
1	 1.051028597666957e+000	 2.760179226401070e-001	 1.923283908521167e+001
1	 1.048127966350573e+000	 2.868357365917952e-001	 1.887553157950311e+001
1	 1.045107592802839e+000	 2.976525938248044e-001	 1.851281458758187e+001
1	 1.041967019226337e+000	 3.084666272709911e-001	 1.814486369920391e+001
1	 1.038705824312371e+000	 3.192759506861582e-001	 1.777191151874887e+001
1	 1.072486770731300e+000	 2.124884298788353e-001	 2.094523145719585e+001
1	 1.070279575164070e+000	 2.233401090665541e-001	 2.061569564235555e+001
1	 1.067955393945159e+000	 2.342016486693012e-001	 2.028146441584437e+001
1	 1.065513562637833e+000	 2.450713017694148e-001	 1.994239414717997e+001
1	 1.062953448741119e+000	 2.559472977829249e-001	 1.959839073798970e+001
1	 1.060274452523056e+000	 2.668278431111357e-001	 1.924941094504008e+001
1	 1.057476007840754e+000	 2.777111218233742e-001	 1.889546364832388e+001
1	 1.054557582946055e+000	 2.885952963707256e-001	 1.853661106023874e+001
1	 1.051518681275496e+000	 2.994785083305274e-001	 1.817296987192105e+001
1	 1.048358842223344e+000	 3.103588791813349e-001	 1.780471233283983e+001
1	 1.045077641896419e+000	 3.212345111080174e-001	 1.743206725981042e+001
1	 1.079025691419437e+000	 2.137839656635191e-001	 2.063478409393817e+001
1	 1.076805038644923e+000	 2.247018072241827e-001	 2.029975825013622e+001
1	 1.074466686960685e+000	 2.356295693185038e-001	 1.996066481977145e+001
1	 1.072009967878922e+000	 2.465654943779209e-001	 1.961735921306044e+001
1	 1.069434245042312e+000	 2.575078010232722e-001	 1.926974586969262e+001
1	 1.066738915062326e+000	 2.684546847203496e-001	 1.891777957540601e+001
1	 1.063923408344307e+000	 2.794043184668105e-001	 1.856146672412338e+001
1	 1.060987189898027e+000	 2.903548535102650e-001	 1.820086652170451e+001
1	 1.057929760132478e+000	 3.013044200973088e-001	 1.783609212739735e+001
1	 1.054750655633610e+000	 3.122511282532140e-001	 1.746731172911329e+001
1	 1.051449449923766e+000	 3.231930685919333e-001	 1.709474954870480e+001
1	 1.085564603934357e+000	 2.150794998288730e-001	 2.032851203922618e+001
1	 1.083330493969430e+000	 2.260635036797578e-001	 1.998783645899290e+001
1	 1.080977971837627e+000	 2.370574881828541e-001	 1.964371605550670e+001
1	 1.078506365000086e+000	 2.480596851187143e-001	 1.929600506826398e+001
1	 1.075915033243134e+000	 2.590683023129977e-001	 1.894460618281580e+001
1	 1.073203369521688e+000	 2.700815242959982e-001	 1.858947183985174e+001
1	 1.070370800789320e+000	 2.810975129937173e-001	 1.823060549046858e+001
1	 1.067416788813741e+000	 2.921144084503037e-001	 1.786806279370455e+001
1	 1.064340830976396e+000	 3.031303295816257e-001	 1.750195275244738e+001
1	 1.061142461054927e+000	 3.141433749596863e-001	 1.713243878386465e+001
1	 1.057821249987196e+000	 3.251516236275364e-001	 1.675973972055865e+001
1	 1.092103509910670e+000	 2.163750326987972e-001	 2.002611074000317e+001
1	 1.089855942768836e+000	 2.274251987737151e-001	 1.967963972122000e+001
1	 1.087489250203683e+000	 2.384854056193400e-001	 1.933034047326280e+001
1	 1.085002755625295e+000	 2.495538743653484e-001	 1.897806585940677e+001
1	 1.082395814963654e+000	 2.606288020422316e-001	 1.862271652573957e+001
1	 1.079667817517119e+000	 2.717083622447951e-001	 1.826424220172620e+001
1	 1.076818186787501e+000	 2.827907058273957e-001	 1.790264294770240e+001
1	 1.073846381300447e+000	 2.938739616307315e-001	 1.753797034540751e+001
1	 1.070751895409864e+000	 3.049562372399547e-001	 1.717032862769517e+001
1	 1.067534260085082e+000	 3.160356197738095e-001	 1.679987574359890e+001
1	 1.064193043679492e+000	 3.271101767044565e-001	 1.642682435498227e+001
1	 1.098642410982984e+000	 2.176705645971922e-001	 1.972728289979227e+001
1	 1.096381386674383e+000	 2.287868928464906e-001	 1.937488441244001e+001
1	 1.094000523686553e+000	 2.399133219849495e-001	 1.902026703968762e+001
1	 1.091499141378525e+000	 2.510480624913769e-001	 1.866328206886508e+001
1	 1.088876591823937e+000	 2.621893006011032e-001	 1.830382782798426e+001
1	 1.086132260664596e+000	 2.733351989734535e-001	 1.794185097676716e+001
1	 1.083265567950552e+000	 2.844838973911467e-001	 1.757734774546495e+001
1	 1.080275968965396e+000	 2.956335134914386e-001	 1.721036511761417e+001
1	 1.077162955035492e+000	 3.067821435287720e-001	 1.684100195290287e+001
1	 1.073926054321867e+000	 3.179278631686413e-001	 1.646941004635676e+001
1	 1.070564832593438e+000	 3.290687283123238e-001	 1.609579512010705e+001
1	 1.105181308785909e+000	 2.189660958479585e-001	 1.943173826408231e+001
1	 1.102906827317317e+000	 2.301485862385200e-001	 1.907329362685383e+001
1	 1.100511793913937e+000	 2.413412376366705e-001	 1.871323114219868e+001
1	 1.097995523883749e+000	 2.525422498703536e-001	 1.835140032741865e+001
1	 1.095357365444049e+000	 2.637497983797427e-001	 1.798769692039162e+001
1	 1.092596700580097e+000	 2.749620348886868e-001	 1.762206416005519e+001
1	 1.089712945890182e+000	 2.861770881082720e-001	 1.725449401566106e+001
1	 1.086705553415838e+000	 2.973930644723152e-001	 1.688502836098702e+001
1	 1.083574011455895e+000	 3.086080489045548e-001	 1.651376008971752e+001
1	 1.080317845363071e+000	 3.198201056172396e-001	 1.614083416824180e+001
1	 1.076936618321817e+000	 3.310272789407683e-001	 1.576644862216599e+001
1	 1.111720204954052e+000	 2.202616267749964e-001	 1.913919341329667e+001
1	 1.109432266328881e+000	 2.315102792902392e-001	 1.877459697972499e+001
1	 1.107023062513533e+000	 2.427691529314909e-001	 1.840897440023097e+001
1	 1.104491904764940e+000	 2.540364368758318e-001	 1.804217323351383e+001
1	 1.101838137444058e+000	 2.653102957682796e-001	 1.767408636165968e+001
1	 1.099061138879598e+000	 2.765888703972085e-001	 1.730465325908205e+001
1	 1.096160322218095e+000	 2.878702784020723e-001	 1.693386121133004e+001
1	 1.093135136259025e+000	 2.991526150132511e-001	 1.656174647999527e+001
1	 1.089985066273683e+000	 3.104339538237795e-001	 1.618839540997348e+001
1	 1.086709634806486e+000	 3.217123475926619e-001	 1.581394547537036e+001
1	 1.083308402457412e+000	 3.329858290794202e-001	 1.543858626038914e+001
1	 1.019590298292188e+000	 3.134002468966224e-001	 1.880887233771904e+001
1	 1.016270341054748e+000	 3.240041509680922e-001	 1.842462333018329e+001
1	 1.012831263959774e+000	 3.345996744956820e-001	 1.802917426480565e+001
1	 1.009272763592686e+000	 3.451849134900504e-001	 1.762266864293644e+001
1	 1.005594575098846e+000	 3.557579485199885e-001	 1.720528733585655e+001
1	 1.001796472814765e+000	 3.663168456381125e-001	 1.677724923691400e+001
1	 9.978782708743237e-001	 3.768596573328684e-001	 1.633881186495713e+001
1	 9.938398237888124e-001	 3.873844235061286e-001	 1.589027191673729e+001
1	 9.896810269996652e-001	 3.978891724756004e-001	 1.543196576601936e+001
1	 9.854018174027490e-001	 4.083719220012180e-001	 1.496426990721461e+001
1	 9.810021738431126e-001	 4.188306803346251e-001	 1.448760134143303e+001
1	 1.025962154103039e+000	 3.153588190700910e-001	 1.846008153854549e+001
1	 1.022621449032989e+000	 3.260289914731288e-001	 1.807730291764088e+001
1	 1.019160879674458e+000	 3.366907309586894e-001	 1.768362156877157e+001
1	 1.015580140716707e+000	 3.473421216385829e-001	 1.727918374643435e+001
1	 1.011878965649917e+000	 3.579812320862496e-001	 1.686417320276804e+001
1	 1.008057127400339e+000	 3.686061162682363e-001	 1.643881183700684e+001
1	 1.004114438940307e+000	 3.792148145021522e-001	 1.600336029582607e+001
1	 1.000050753871896e+000	 3.898053544403731e-001	 1.555811852224757e+001
1	 9.958659669831210e-001	 4.003757520787162e-001	 1.510342625084163e+001
1	 9.915600147754914e-001	 4.109240127892444e-001	 1.463966344703662e+001
1	 9.871328759618585e-001	 4.214481323763099e-001	 1.416725068843384e+001
1	 1.032333995578839e+000	 3.173173868367261e-001	 1.811450639662296e+001
1	 1.028972542722899e+000	 3.280538274222357e-001	 1.773295741076470e+001
1	 1.025490481149196e+000	 3.387817827167959e-001	 1.734080424171173e+001
1	 1.021887503650834e+000	 3.494993249333950e-001	 1.693819752668217e+001
1	 1.018163342062814e+000	 3.602045106501481e-001	 1.652532564224303e+001
1	 1.014317767901132e+000	 3.708953817475604e-001	 1.610241535025966e+001
1	 1.010350592976570e+000	 3.815699663724302e-001	 1.566973239411721e+001
1	 1.006261669981995e+000	 3.922262799276644e-001	 1.522758204287654e+001
1	 1.002050893051997e+000	 4.028623260872160e-001	 1.477630958109481e+001
1	 9.977181982937291e-001	 4.134760978353049e-001	 1.431630074211960e+001
1	 9.932635642878445e-001	 4.240655785290188e-001	 1.384798208275189e+001
1	 1.038705824312371e+000	 3.192759506861582e-001	 1.777191151874887e+001
1	 1.035323623712072e+000	 3.300786593216034e-001	 1.739135631936827e+001
1	 1.031820069966206e+000	 3.408728302927376e-001	 1.700049805980029e+001
1	 1.028194853971724e+000	 3.516565239137509e-001	 1.659949336505397e+001
1	 1.024447705908449e+000	 3.624277847674573e-001	 1.618853695378173e+001
1	 1.020578395882120e+000	 3.731846426483437e-001	 1.576786227990757e+001
1	 1.016586734541975e+000	 3.839251135324219e-001	 1.533774212369566e+001
1	 1.012472573671668e+000	 3.946472005731540e-001	 1.489848912991170e+001
1	 1.008235806752366e+000	 4.053488951226541e-001	 1.445045629080085e+001
1	 1.003876369496865e+000	 4.160281777773232e-001	 1.399403737168669e+001
1	 9.993942403536174e-001	 4.266830194470083e-001	 1.352966727708168e+001
1	 1.045077641896419e+000	 3.212345111080174e-001	 1.743206725981042e+001
1	 1.041674693588099e+000	 3.321034876774224e-001	 1.705227478190455e+001
1	 1.038149647707703e+000	 3.429638742092506e-001	 1.666248427515268e+001
1	 1.034502193256031e+000	 3.538137191189148e-001	 1.626285993351495e+001
1	 1.030732058757729e+000	 3.646510549939495e-001	 1.585360451010207e+001
1	 1.026839012908283e+000	 3.754738995428443e-001	 1.543495995367112e+001
1	 1.022822865195384e+000	 3.862802565708465e-001	 1.500720799351744e+001
1	 1.018683466493476e+000	 3.970681169819943e-001	 1.457067067040609e+001
1	 1.014420709630302e+000	 4.078354598065851e-001	 1.412571081125607e+001
1	 1.010034529924301e+000	 4.185802532532225e-001	 1.367273244537504e+001
1	 1.005524905691725e+000	 4.293004557845356e-001	 1.321218116013336e+001
1	 1.051449449923766e+000	 3.231930685919333e-001	 1.709474954870480e+001
1	 1.048025753938572e+000	 3.341283129958826e-001	 1.671549339501216e+001
1	 1.044479215955903e+000	 3.450549149890706e-001	 1.632654945000607e+001
1	 1.040809523080410e+000	 3.559709110881510e-001	 1.592809103442476e+001
1	 1.037016402181564e+000	 3.668743218853973e-001	 1.552033060353704e+001
1	 1.033099620544599e+000	 3.777631530033208e-001	 1.510352037769663e+001
1	 1.029058986495659e+000	 3.886353960764227e-001	 1.467795292004228e+001
1	 1.024894349999979e+000	 3.994890297593372e-001	 1.424396165897048e+001
1	 1.020605603231880e+000	 4.103220207605629e-001	 1.380192135308477e+001
1	 1.016192681115441e+000	 4.211323249009262e-001	 1.335224849641142e+001
1	 1.011655561834714e+000	 4.319178881958571e-001	 1.289540166176373e+001
1	 1.057821249987196e+000	 3.251516236275364e-001	 1.675973972055865e+001
1	 1.054376806351084e+000	 3.361531357831747e-001	 1.638079804923024e+001
1	 1.050808776293023e+000	 3.471459531549336e-001	 1.599248529689978e+001
1	 1.047116845021517e+000	 3.581281003607237e-001	 1.559498544613809e+001
1	 1.043300737750864e+000	 3.690975859975734e-001	 1.518852229798948e+001
1	 1.039360220356044e+000	 3.800524036020316e-001	 1.477336009578207e+001
1	 1.035295100001661e+000	 3.909905326378698e-001	 1.434980409462527e+001
1	 1.031105225743738e+000	 4.019099395103344e-001	 1.391820107420390e+001
1	 1.026790489103172e+000	 4.128085786061421e-001	 1.347893979256169e+001
1	 1.022350824609688e+000	 4.236843933583578e-001	 1.303245137865289e+001
1	 1.017786210315132e+000	 4.345353173352295e-001	 1.257920966153952e+001
1	 1.064193043679492e+000	 3.271101767044565e-001	 1.642682435498227e+001
1	 1.060727852413227e+000	 3.381779565454890e-001	 1.604797977062176e+001
1	 1.057138330301280e+000	 3.492369892295757e-001	 1.566008852460443e+001
1	 1.053424160656007e+000	 3.602852874758972e-001	 1.526334677415814e+001
1	 1.049585067036537e+000	 3.713208478862503e-001	 1.485799128621235e+001
1	 1.045620813907598e+000	 3.823416519112352e-001	 1.444430005366618e+001
1	 1.041531207272252e+000	 3.933456668439073e-001	 1.402259285567794e+001
1	 1.037316095277311e+000	 4.043308468401382e-001	 1.359323175956976e+001
1	 1.032975368790253e+000	 4.152951339648769e-001	 1.315662156202251e+001
1	 1.028508961946442e+000	 4.262364592634404e-001	 1.271321016733107e+001
1	 1.023916852665525e+000	 4.371527438569092e-001	 1.226348890058919e+001
1	 1.070564832593438e+000	 3.290687283123238e-001	 1.609579512010705e+001
1	 1.067078893712593e+000	 3.402027757890157e-001	 1.571683456805973e+001
1	 1.063467879562889e+000	 3.513280237357326e-001	 1.532916068955963e+001
1	 1.059731471560536e+000	 3.624424729729358e-001	 1.493298330761241e+001
1	 1.055869391609492e+000	 3.735441081072007e-001	 1.452855375219173e+001
1	 1.051881402764239e+000	 3.846308985031900e-001	 1.411616546816956e+001
1	 1.047767309866292e+000	 3.957007992832538e-001	 1.369615456540027e+001
1	 1.043526960153260e+000	 4.067517523539003e-001	 1.326890030853028e+001
1	 1.039160243839196e+000	 4.177816874583215e-001	 1.283482554419292e+001
1	 1.034667094665108e+000	 4.287885232540981e-001	 1.239439706334496e+001
1	 1.030047490418440e+000	 4.397701684151531e-001	 1.194812589660698e+001
1	 1.076936618321817e+000	 3.310272789407683e-001	 1.576644862216599e+001
1	 1.073429931836776e+000	 3.422275940199455e-001	 1.538716328594122e+001
1	 1.069797425660067e+000	 3.534190571961404e-001	 1.499950805259180e+001
1	 1.066038779311758e+000	 3.645996573911034e-001	 1.460370788082960e+001
1	 1.062153713040640e+000	 3.757673672161970e-001	 1.420003023842078e+001
1	 1.058141988490943e+000	 3.869201439501546e-001	 1.378878570098748e+001
1	 1.054003409342645e+000	 3.980559305446286e-001	 1.337032849089391e+001
1	 1.049737821924144e+000	 4.091726566567728e-001	 1.294505695376421e+001
1	 1.045345115796075e+000	 4.202682397080301e-001	 1.251341397027359e+001
1	 1.040825224305087e+000	 4.313405859682537e-001	 1.207588730095527e+001
1	 1.036178125106425e+000	 4.423875916642178e-001	 1.163300986187748e+001
1	 1.083308402457412e+000	 3.329858290794202e-001	 1.543858626038914e+001
1	 1.079780968373366e+000	 3.442524117444685e-001	 1.505877146210540e+001
1	 1.076126970175029e+000	 3.555100901335350e-001	 1.467094144069487e+001
1	 1.072346085486329e+000	 3.667568412696645e-001	 1.427533773980743e+001
1	 1.068438032900888e+000	 3.779906257690122e-001	 1.387224551786355e+001
1	 1.064402572652689e+000	 3.892093888243871e-001	 1.346199413694109e+001
1	 1.060239507260171e+000	 4.004110612167509e-001	 1.304495768947588e+001
1	 1.055948682142524e+000	 4.115935603539074e-001	 1.262155546029814e+001
1	 1.051529986206963e+000	 4.227547913355571e-001	 1.219225232162568e+001
1	 1.046983352405783e+000	 4.338926480438310e-001	 1.175755905874087e+001
1	 1.042308758262027e+000	 4.450050142583599e-001	 1.131803262419666e+001
1	 9.810021738431126e-001	 4.188306803346251e-001	 1.448760134143303e+001
1	 9.764828047075795e-001	 4.292618845903969e-001	 1.399797038481465e+001
1	 9.718431238218865e-001	 4.396650991708302e-001	 1.349132770199146e+001
1	 9.670832392392218e-001	 4.500383117743657e-001	 1.296827590207488e+001
1	 9.622033025948158e-001	 4.603795050253364e-001	 1.242945495626186e+001
1	 9.572035094363700e-001	 4.706866576225989e-001	 1.187554208214312e+001
1	 9.520840995190897e-001	 4.809577455047829e-001	 1.130725156834374e+001
1	 9.468453570644847e-001	 4.911907430309179e-001	 1.072533453875387e+001
1	 9.414876109821542e-001	 5.013836241751539e-001	 1.013057865573661e+001
1	 9.360112350538159e-001	 5.115343637342538e-001	 9.523807761833735e+000
1	 9.304166480789026e-001	 5.216409385464856e-001	 8.905881459628505e+000
1	 9.871328759618585e-001	 4.214481323763099e-001	 1.416725068843383e+001
1	 9.825852633560629e-001	 4.319445256884886e-001	 1.368213267341801e+001
1	 9.779165871205763e-001	 4.424127544058430e-001	 1.318017677186202e+001
1	 9.731269559838418e-001	 4.528507936510823e-001	 1.266195925594822e+001
1	 9.682165225287075e-001	 4.632566134410979e-001	 1.212809179031709e+001
1	 9.631854835249192e-001	 4.736281798427740e-001	 1.157922133367718e+001
1	 9.580340802259996e-001	 4.839634561455170e-001	 1.101602998439664e+001
1	 9.527625986296655e-001	 4.942604040492620e-001	 1.043923476934999e+001
1	 9.473713697009942e-001	 5.045169848666595e-001	 9.849587375416991e+000
1	 9.418607695576092e-001	 5.147311607381127e-001	 9.247873823154110e+000
1	 9.362312196161845e-001	 5.249008958582897e-001	 8.634914082288288e+000
1	 9.932635642878445e-001	 4.240655785290188e-001	 1.384798208275189e+001
1	 9.886877082751898e-001	 4.346271607509846e-001	 1.336722099410981e+001
1	 9.839900367549843e-001	 4.451604034590352e-001	 1.286978709952897e+001
1	 9.791706591309307e-001	 4.556632692001785e-001	 1.235622863075120e+001
1	 9.742297289334985e-001	 4.661337153838935e-001	 1.182712709774959e+001
1	 9.691674441544828e-001	 4.765696954451200e-001	 1.128309720946652e+001
1	 9.639840475457245e-001	 4.869691600240705e-001	 1.072478674247451e+001
1	 9.586798268811472e-001	 4.973300581616141e-001	 1.015287635685235e+001
1	 9.532551151813121e-001	 5.076503385089313e-001	 9.568079358681750e+000
1	 9.477102908997493e-001	 5.179279505500952e-001	 8.971141408682668e+000
1	 9.420457780703714e-001	 5.281608458362019e-001	 8.362840176626834e+000
1	 9.993942403536174e-001	 4.266830194470083e-001	 1.352966727708168e+001
1	 9.947901409904685e-001	 4.373097904484328e-001	 1.305312300366044e+001
1	 9.900634742433956e-001	 4.479080470172055e-001	 1.256006062908757e+001
1	 9.852143501913654e-001	 4.584757391246574e-001	 1.205099867511646e+001
1	 9.802429233124705e-001	 4.690108115728803e-001	 1.152648668453040e+001
1	 9.751493928205582e-001	 4.795112051648953e-001	 1.098710516281666e+001
1	 9.699340029657909e-001	 4.899748578917460e-001	 1.043346547199682e+001
1	 9.645970432983018e-001	 5.003997061352615e-001	 9.866209675923560e+000
1	 9.591388488941353e-001	 5.107836858851768e-001	 9.286010336457204e+000
1	 9.535598005427274e-001	 5.211247339692603e-001	 8.693570260037607e+000
1	 9.478603248952329e-001	 5.314207892950618e-001	 8.089622194277439e+000
1	 1.005524905691725e+000	 4.293004557845356e-001	 1.321218116013336e+001
1	 1.000892563027408e+000	 4.399924154513824e-001	 1.273972910700334e+001
1	 9.961369011040955e-001	 4.506556857671526e-001	 1.225090170434887e+001
1	 9.912580306760201e-001	 4.612882041275213e-001	 1.174618612752653e+001
1	 9.862561071689030e-001	 4.718879027272156e-001	 1.122609817433112e+001
1	 9.811313310186437e-001	 4.824527097373583e-001	 1.069118222939811e+001
1	 9.758839479737284e-001	 4.929805504998467e-001	 1.014201118528409e+001
1	 9.705142493605007e-001	 5.034693487374914e-001	 9.579186319555108e+000
1	 9.650225723104889e-001	 5.139170277786029e-001	 9.003337127301640e+000
1	 9.594092999490360e-001	 5.243215117946671e-001	 8.415121108593830e+000
1	 9.536748615445378e-001	 5.346807270497089e-001	 7.815223510486286e+000
1	 1.011655561834714e+000	 4.319178881958571e-001	 1.289540166176373e+001
1	 1.006994975911515e+000	 4.426750364303818e-001	 1.242693237412173e+001
1	 1.002210318855367e+000	 4.534033203956745e-001	 1.194221699628841e+001
1	 9.973017020957710e-001	 4.641006649117728e-001	 1.144170975315445e+001
1	 9.922692820060759e-001	 4.747649895660558e-001	 1.092589095361344e+001
1	 9.871132602442367e-001	 4.853942098977674e-001	 1.039526697946845e+001
1	 9.818338840570650e-001	 4.959862385996756e-001	 9.850370235826011e+000
1	 9.764314465471150e-001	 5.065389867355905e-001	 9.291759062324738e+000
1	 9.709062869013992e-001	 5.170503649724165e-001	 8.720017604625690e+000
1	 9.652587905811674e-001	 5.275182848253748e-001	 8.135755645671658e+000
1	 9.594893894720562e-001	 5.379406599149837e-001	 7.539608396308841e+000
1	 1.017786210315132e+000	 4.345353173352295e-001	 1.257920966153952e+001
1	 1.013097381168299e+000	 4.453576540559800e-001	 1.211462845994241e+001
1	 1.008283729015496e+000	 4.561509515895701e-001	 1.163391543311903e+001
1	 1.003345365961493e+000	 4.669131221804144e-001	 1.113749028298890e+001
1	 9.982824493272693e-001	 4.776420728085586e-001	 1.062579611870465e+001
1	 9.930951819928362e-001	 4.883357063813811e-001	 1.009929947182379e+001
1	 9.877838127033295e-001	 4.989919229425355e-001	 9.558490278060328e+000
1	 9.823486363375157e-001	 5.096086208968456e-001	 9.003881824983829e+000
1	 9.767899941378910e-001	 5.201836982498246e-001	 8.436010665098440e+000
1	 9.711082739016134e-001	 5.307150538604427e-001	 7.855436493803887e+000
1	 9.653039101315574e-001	 5.412005887057253e-001	 7.262741991811589e+000
1	 1.023916852665525e+000	 4.371527438569092e-001	 1.226348890058919e+001
1	 1.019199780323268e+000	 4.480402689987253e-001	 1.180271552711097e+001
1	 1.014357133102766e+000	 4.588985800356378e-001	 1.132590813287971e+001
1	 1.009389023784061e+000	 4.697255766364484e-001	 1.083345035514955e+001
1	 1.004295610635763e+000	 4.805191531738802e-001	 1.032574642477764e+001
1	 9.990770977599388e-001	 4.912771999234576e-001	 9.803221209405898e+000
1	 9.937337354000502e-001	 5.019976042797296e-001	 9.266320228597779e+000
1	 9.882658202110743e-001	 5.126782519885444e-001	 8.715509640317551e+000
1	 9.826736954909916e-001	 5.233170283940343e-001	 8.151276198190221e+000
1	 9.769577513728665e-001	 5.339118196989298e-001	 7.574127179036878e+000
1	 9.711184249768111e-001	 5.444605142367740e-001	 6.984590280237916e+000
1	 1.030047490418440e+000	 4.397701684151531e-001	 1.194812589660698e+001
1	 1.025302174901930e+000	 4.507228819291669e-001	 1.149109417152831e+001
1	 1.020430532635463e+000	 4.616462064206762e-001	 1.101810833843411e+001
1	 1.015432677074352e+000	 4.725380289828776e-001	 1.052951445830027e+001
1	 1.010308767434837e+000	 4.833962313811783e-001	 1.002567623665435e+001
1	 1.005059009041043e+000	 4.942186912592553e-001	 9.506975096496907e+000
1	 9.996836536347549e-001	 5.050032833625604e-001	 8.973810228833770e+000
1	 9.941829996471617e-001	 5.157478807779733e-001	 8.426598620226439e+000
1	 9.885573924317267e-001	 5.264503561882526e-001	 7.865775056803831e+000
1	 9.828072244574182e-001	 5.371085831398950e-001	 7.291792104221473e+000
1	 9.769329354615869e-001	 5.477204373229693e-001	 6.705120063097988e+000
1	 1.036178125106425e+000	 4.423875916642178e-001	 1.163300986187748e+001
1	 1.031404566429793e+000	 4.534054935178529e-001	 1.117966735053344e+001
1	 1.026503929131870e+000	 4.643938314314838e-001	 1.071043135477947e+001
1	 1.021476327343239e+000	 4.753504799227044e-001	 1.022560887707380e+001
1	 1.016321921227772e+000	 4.862733081496097e-001	 9.725521481358324e+000
1	 1.011040917331646e+000	 4.971601811240325e-001	 9.210505397435222e+000
1	 1.005633568894973e+000	 5.080089609423314e-001	 8.680911608888652e+000
1	 1.000100176125150e+000	 5.188175080324198e-001	 8.137105923977735e+000
1	 9.944410864311213e-001	 5.295836824156863e-001	 7.579469028950387e+000
1	 9.886566946177605e-001	 5.403053449823977e-001	 7.008396523253271e+000
1	 9.827474430396535e-001	 5.509803587791509e-001	 6.424298936143515e+000
1	 1.042308758262027e+000	 4.450050142583599e-001	 1.131803262419666e+001
1	 1.037506956432366e+000	 4.560881044353323e-001	 1.086834031362380e+001
1	 1.032577324110273e+000	 4.671414557548592e-001	 1.040279448857072e+001
1	 1.027519976101599e+000	 4.781629301589312e-001	 9.921661639424254e+000
1	 1.022335073517847e+000	 4.891503841983316e-001	 9.425219602343057e+000
1	 1.017022824127247e+000	 5.001016702530479e-001	 8.913757696790343e+000
1	 1.011583482668233e+000	 5.110146377703450e-001	 8.387576852822372e+000
1	 1.006017351124410e+000	 5.218871345191709e-001	 7.846989727578311e+000
1	 1.000324778960203e+000	 5.327170078595428e-001	 7.292320810425066e+000
1	 9.945061633163868e-001	 5.435021060254974e-001	 6.723906516223340e+000
1	 9.885619491647814e-001	 5.542402794201590e-001	 6.142095266191496e+000
1	 9.304166480789026e-001	 5.216409385464856e-001	 8.905881459628505e+000
1	 9.247034483627793e-001	 5.317028344607302e-001	 8.270947990791576e+000
1	 9.188729762948830e-001	 5.417165161740593e-001	 7.612872001482090e+000
1	 9.129257872143954e-001	 5.516799737568476e-001	 6.931816004205496e+000
1	 9.068624816840354e-001	 5.615912043072900e-001	 6.227918946133139e+000
1	 9.006837054341905e-001	 5.714482132060662e-001	 5.501296402695010e+000
1	 8.943901492657200e-001	 5.812490153734854e-001	 4.752040827890722e+000
1	 8.879825489111826e-001	 5.909916365275353e-001	 3.980221861226653e+000
1	 8.814616848543042e-001	 6.006741144412503e-001	 3.185886691028391e+000
1	 8.748283821075730e-001	 6.102945001977893e-001	 2.369060473719572e+000
1	 8.680835099479130e-001	 6.198508594416141e-001	 1.529746808503176e+000
1	 9.362312196161845e-001	 5.249008958582897e-001	 8.634914082288290e+000
1	 9.304823156717123e-001	 5.350256728629237e-001	 8.004441130574076e+000
1	 9.246154064903093e-001	 5.451019343554696e-001	 7.349956304283741e+000
1	 9.186310508817270e-001	 5.551276578453964e-001	 6.671663430532740e+000
1	 9.125298531618775e-001	 5.651008279139121e-001	 5.969745590486125e+000
1	 9.063124630966118e-001	 5.750194374764717e-001	 5.244365261478046e+000
1	 8.999795758039179e-001	 5.848814890477754e-001	 4.495664510586569e+000
1	 8.935319316142809e-001	 5.946849960076830e-001	 3.723765239632714e+000
1	 8.869703158890229e-001	 6.044279838664362e-001	 2.928769481429384e+000
1	 8.802955587965075e-001	 6.141084915275836e-001	 2.110759746961458e+000
1	 8.735085350461601e-001	 6.237245725469760e-001	 1.269799423032354e+000
1	 9.420457780703714e-001	 5.281608458362019e-001	 8.362840176626834e+000
1	 9.362611699778098e-001	 5.383485037898442e-001	 7.736520902366634e+000
1	 9.303578237648393e-001	 5.484873449209083e-001	 7.085355151035711e+000
1	 9.243363017117704e-001	 5.585753341779821e-001	 6.409594420642901e+000
1	 9.181972118876943e-001	 5.686104436253139e-001	 5.709472601117121e+000
1	 9.119412080939141e-001	 5.785906537131572e-001	 4.985206055701626e+000
1	 9.055689897655316e-001	 5.885139545506302e-001	 4.236993747861201e+000
1	 8.990813018309456e-001	 5.983783471794885e-001	 3.465017413747751e+000
1	 8.924789345290570e-001	 6.081818448472069e-001	 2.669441780140106e+000
1	 8.857627231840892e-001	 6.179224742777476e-001	 1.850414827644452e+000
1	 8.789335479379550e-001	 6.275982769383739e-001	 1.008068098815117e+000
1	 9.478603248952329e-001	 5.314207892950618e-001	 8.089622194277441e+000
1	 9.420400127259289e-001	 5.416713280720396e-001	 7.467153644013263e+000
1	 9.361002295542299e-001	 5.518727487165535e-001	 6.819042316000981e+000
1	 9.300415411309952e-001	 5.620230036163344e-001	 6.145593625154600e+000
1	 9.238645592784844e-001	 5.721200523186920e-001	 5.447098830854570e+000
1	 9.175699418334398e-001	 5.821618628087035e-001	 4.723835048447755e+000
1	 9.111583925480667e-001	 5.921464127899264e-001	 3.976065299647278e+000
1	 9.046306609486619e-001	 6.020716909660352e-001	 3.204038601964540e+000
1	 8.979875421516954e-001	 6.119356983217603e-001	 2.407990097194690e+000
1	 8.912298766372340e-001	 6.217364494015001e-001	 1.588141218867308e+000
1	 8.843585499796631e-001	 6.314719735839530e-001	 7.446998984583085e-001
1	 9.536748615445378e-001	 5.346807270497089e-001	 7.815223510486287e+000
1	 9.478188453609252e-001	 5.449941465400575e-001	 7.196306522160486e+000
1	 9.418426252942369e-001	 5.552581465885836e-001	 6.550992220866222e+000
1	 9.357467705658704e-001	 5.654706670221815e-001	 5.879646076843001e+000
1	 9.295318967512446e-001	 5.756296548712437e-001	 5.182623168298269e+000
1	 9.231986657225305e-001	 5.857330656556907e-001	 4.460268113928861e+000
1	 9.167477855490266e-001	 5.957788646735407e-001	 3.712915037060602e+000
1	 9.101800103549163e-001	 6.057650282904066e-001	 2.940887561640283e+000
1	 9.034961401342255e-001	 6.156895452282952e-001	 2.144498840222582e+000
1	 8.966970205228557e-001	 6.255504178520606e-001	 1.324051614001750e+000
1	 8.897835425276497e-001	 6.353456634518566e-001	 4.798383048462205e-001
1	 9.594893894720562e-001	 5.379406599149837e-001	 7.539608396308842e+000
1	 9.535976693276570e-001	 5.483169600244462e-001	 6.923947507328973e+000
1	 9.475850124206173e-001	 5.586435393831772e-001	 6.281179915313389e+000
1	 9.414519914428656e-001	 5.689183252572523e-001	 5.611737179251535e+000
1	 9.351992257229722e-001	 5.791392521601656e-001	 4.916044536929104e+000
1	 9.288273811685280e-001	 5.893042631466993e-001	 4.194520749464879e+000
1	 9.223371701659145e-001	 5.994113111093489e-001	 3.447577969524468e+000
1	 9.157293514371939e-001	 6.094583600756858e-001	 2.675621633557491e+000
1	 9.090047298539377e-001	 6.194433865050097e-001	 1.879050378336482e+000
1	 9.021641562078695e-001	 6.293643805826485e-001	 1.058255982006113e+000
1	 8.952085269382796e-001	 6.392193475102295e-001	 2.136233297738444e-001
1	 9.653039101315574e-001	 5.412005887057253e-001	 7.262741991811588e+000
1	 9.593764860709807e-001	 5.516397693557534e-001	 6.650045349888455e+000
1	 9.533273923691268e-001	 5.620289279465123e-001	 6.009581058294071e+000
1	 9.471572051884509e-001	 5.723659791832759e-001	 5.341852695716383e+000
1	 9.408665476106650e-001	 5.826488450626549e-001	 4.647361894250494e+000
1	 9.344560895787747e-001	 5.928754561743090e-001	 3.926608087026462e+000
1	 9.279265477962357e-001	 6.030437530052284e-001	 3.180088270913135e+000
1	 9.212786855829814e-001	 6.131516872449564e-001	 2.408296784774940e+000
1	 9.145133126881202e-001	 6.231972230901023e-001	 1.611725103710564e+000
1	 9.076312850591891e-001	 6.331783385464836e-001	 7.908616496507238e-001
1	 9.006335045679182e-001	 6.430930267272152e-001	-5.380838135087464e-002
1	 9.711184249768111e-001	 5.444605142367740e-001	 6.984590280237914e+000
1	 9.651552970357530e-001	 5.549625753645266e-001	 6.374569556895721e+000
1	 9.590697665755227e-001	 5.654143131247673e-001	 5.736171899977665e+000
1	 9.528624132290952e-001	 5.758136296619807e-001	 5.069978738784506e+000
1	 9.465338638313204e-001	 5.861584344559083e-001	 4.376574230961250e+000
1	 9.400847923606115e-001	 5.964466456311005e-001	 3.656544904364029e+000
1	 9.335159198374937e-001	 6.066761912690550e-001	 2.910479304754748e+000
1	 9.268280141797645e-001	 6.168450107213014e-001	 2.138967649939111e+000
1	 9.200218900140618e-001	 6.269510559217716e-001	 1.342601490941998e+000
1	 9.130984084437296e-001	 6.369922926967850e-001	 5.219733807874681e-001
1	 9.060584767729306e-001	 6.469667020709586e-001	-3.223234485700602e-001
1	 9.769329354615869e-001	 5.477204373229693e-001	 6.705120063097990e+000
1	 9.709341036668303e-001	 5.582853788813141e-001	 6.097490369761649e+000
1	 9.648121364755610e-001	 5.687996957641206e-001	 5.460929264344304e+000
1	 9.585676169912680e-001	 5.792612775550958e-001	 4.796101760011406e+000
1	 9.522011758019360e-001	 5.896680212171226e-001	 4.103680570157331e+000
1	 9.457134909213811e-001	 6.000178324096539e-001	 3.384345635737548e+000
1	 9.391052876871932e-001	 6.103086268087055e-001	 2.638783648532997e+000
1	 9.323773386150284e-001	 6.205383314278041e-001	 1.867687571116315e+000
1	 9.255304632090506e-001	 6.307048859382155e-001	 1.071756154291607e+000
1	 9.185655277284058e-001	 6.408062439867723e-001	 2.516934527836249e-001
1	 9.114834449096819e-001	 6.508403745096034e-001	-5.917916600487588e-001
1	 9.827474430396535e-001	 5.509803587791509e-001	 6.424298936143514e+000
1	 9.767129074090700e-001	 5.616081807366634e-001	 5.818778742710818e+000
1	 9.705545035049973e-001	 5.721850767107506e-001	 5.183830532397402e+000
1	 9.642728179014387e-001	 5.827089237243498e-001	 4.520208540120486e+000
1	 9.578684849395088e-001	 5.931776062234953e-001	 3.828679966562569e+000
1	 9.513421866684246e-001	 6.035890174025493e-001	 3.110024382266110e+000
1	 9.446946527428373e-001	 6.139410605320561e-001	 2.365033117125472e+000
1	 9.379266602762590e-001	 6.242316502875478e-001	 1.594508636210613e+000
1	 9.310390336503758e-001	 6.344587140776324e-001	 7.992639028886627e-001
1	 9.240326442801321e-001	 6.446201933696649e-001	-1.987826976027912e-002
1	 9.169084103345374e-001	 6.547140450112940e-001	-8.620858782067598e-001
1	 9.885619491647814e-001	 5.542402794201590e-001	 6.142095266191499e+000
1	 9.824917097073290e-001	 5.649309817611228e-001	 5.538406322003650e+000
1	 9.762968690995890e-001	 5.755704568108352e-001	 4.904853625968420e+000
1	 9.699780173860767e-001	 5.861565690314716e-001	 4.242286179510424e+000
1	 9.635357926610374e-001	 5.966871903522223e-001	 3.551571505786209e+000
1	 9.569708810090841e-001	 6.071602015023673e-001	 2.833594921911088e+000
1	 9.502840164019309e-001	 6.175734933469834e-001	 2.089258785413036e+000
1	 9.434759805509428e-001	 6.279249682236161e-001	 1.319481716024258e+000
1	 9.365476027153261e-001	 6.382125412782214e-001	 5.251977939861348e-001
1	 9.294997594658225e-001	 6.484341417986819e-001	-2.926442638973446e-001
1	 9.223333744038621e-001	 6.585877145441748e-001	-1.133081949166822e+000
1	 8.680835099479130e-001	 6.198508594416141e-001	 1.529746808503175e+000
1	 8.612279813655368e-001	 6.293412734143905e-001	 6.740488233404669e-001
1	 8.542627519879941e-001	 6.387638395514256e-001	-1.906068380652541e-001
1	 8.471888204381821e-001	 6.481166733187914e-001	-1.062187854541522e+000
1	 8.400072281517993e-001	 6.573979096404267e-001	-1.938585135148287e+000
1	 8.327190589071605e-001	 6.666057041068111e-001	-2.817615825268915e+000
1	 8.253254383142842e-001	 6.757382341700818e-001	-3.697026462015879e+000
1	 8.178275332637144e-001	 6.847937003240027e-001	-4.574496273321836e+000
1	 8.102265513355921e-001	 6.937703272672137e-001	-5.447640614683608e+000
1	 8.025237401695791e-001	 7.026663650481889e-001	-6.314014537143643e+000
1	 7.947203867962918e-001	 7.114800901903866e-001	-7.171116479722429e+000
1	 8.735085350461601e-001	 6.237245725469760e-001	 1.269799423032348e+000
1	 8.666101633338729e-001	 6.332742961751409e-001	 4.126860190148509e-001
1	 8.596014052593092e-001	 6.427557479574492e-001	-4.525077104167888e-001
1	 8.524832656861682e-001	 6.521670315827175e-001	-1.323761428284577e+000
1	 8.452567925585081e-001	 6.615062703192322e-001	-2.198979558272321e+000
1	 8.379230764276171e-001	 6.707716082309716e-001	-3.075994298138415e+000
1	 8.304832499379156e-001	 6.799612113801955e-001	-3.952568780108135e+000
1	 8.229384872723257e-001	 6.890732690147887e-001	-4.826400372578167e+000
1	 8.152900035576537e-001	 6.981059947387768e-001	-5.695124117076097e+000
1	 8.075390542305773e-001	 7.070576276644425e-001	-6.556316294034988e+000
1	 7.996869343648978e-001	 7.159264335445058e-001	-7.407498110578764e+000
1	 8.789335479379550e-001	 6.275982769383739e-001	 1.008068098815114e+000
1	 8.719923331922083e-001	 6.372073100885021e-001	 1.498734232547139e-001
1	 8.649400465186129e-001	 6.467476473835925e-001	-7.154838028344802e-001
1	 8.577776990216597e-001	 6.562173807352369e-001	-1.586007248413732e+000
1	 8.505063451537499e-001	 6.656146217560931e-001	-2.459627470862003e+000
1	 8.431270822391361e-001	 6.749375029836685e-001	-3.334204916494004e+000
1	 8.356410499566216e-001	 6.841841790903721e-001	-4.207533064547410e+000
1	 8.280494297814941e-001	 6.933528280782360e-001	-5.077341708978916e+000
1	 8.203534443872105e-001	 7.024416524566974e-001	-5.941300372025060e+000
1	 8.125543570074461e-001	 7.114488804018744e-001	-6.797021843108436e+000
1	 8.046534707591729e-001	 7.203727668957749e-001	-7.642065836316934e+000
1	 8.843585499796631e-001	 6.314719735839530e-001	 7.446998984583042e-001
1	 8.773744922861855e-001	 6.411403161374444e-001	-1.142127190572993e-001
1	 8.702786771006543e-001	 6.507395388275513e-001	-9.793367702883157e-001
1	 8.630721217683391e-001	 6.602677217886619e-001	-1.848711725596086e+000
1	 8.557558872499758e-001	 6.697229649778331e-001	-2.720306661752369e+000
1	 8.483310776427658e-001	 6.791033894061228e-001	-3.592023229547523e+000
1	 8.407988396598859e-001	 6.884071383561142e-001	-4.461698760198527e+000
1	 8.331603620689753e-001	 6.976323785840092e-001	-5.327109504939303e+000
1	 8.254168750901276e-001	 7.067773015046820e-001	-6.185974001803982e+000
1	 8.175696497540029e-001	 7.158401243581070e-001	-7.035956563248235e+000
1	 8.096199972207286e-001	 7.248190913556027e-001	-7.874670877917734e+000
1	 8.897835425276497e-001	 6.353456634518566e-001	 4.798383048462244e-001
1	 8.827566419614469e-001	 6.450733153049384e-001	-3.794004548797777e-001
1	 8.756172983401800e-001	 6.547314232870192e-001	-1.243873099082224e+000
1	 8.683665352498886e-001	 6.643180557553057e-001	-2.111666474203897e+000
1	 8.610054201596336e-001	 6.738313010112742e-001	-2.980800334405565e+000
1	 8.535350639395547e-001	 6.832692685395544e-001	-3.849230256452454e+000
1	 8.459566203371921e-001	 6.926300902329239e-001	-4.714850687578238e+000
1	 8.382712854125242e-001	 7.019119216017750e-001	-5.575498120792585e+000
1	 8.304802969322704e-001	 7.111129429664369e-001	-6.428954391736108e+000
1	 8.225849337240644e-001	 7.202313606307627e-001	-7.272950090842064e+000
1	 8.145865149911749e-001	 7.292654080353987e-001	-8.105168084233002e+000
1	 8.952085269382796e-001	 6.392193475102295e-001	 2.136233297738459e-001
1	 8.881387835636345e-001	 6.490063085739545e-001	-6.455219928159476e-001
1	 8.809559115719381e-001	 6.587233017596905e-001	-1.508903960330027e+000
1	 8.736609407899915e-001	 6.683683836474812e-001	-2.374668154526454e+000
1	 8.662549451951725e-001	 6.779396308832394e-001	-3.240896942753778e+000
1	 8.587390424305520e-001	 6.874351414251838e-001	-4.105612320494661e+000
1	 8.511143932780236e-001	 6.968530357763036e-001	-4.966778879927833e+000
1	 8.433822010898957e-001	 7.061914582011980e-001	-5.822306899089986e+000
1	 8.355437111795052e-001	 7.154485779256691e-001	-6.670055545877490e+000
1	 8.276002101714470e-001	 7.246225903174626e-001	-7.507836190803189e+000
1	 8.195530253121230e-001	 7.337117180465720e-001	-8.333415822106140e+000
1	 9.006335045679182e-001	 6.430930267272152e-001	-5.380838135087473e-002
1	 8.935209184383905e-001	 6.529392969274620e-001	-9.124135776287804e-001
1	 8.862945181306751e-001	 6.627151752432591e-001	-1.774245068730344e+000
1	 8.789553397123300e-001	 6.724187064775015e-001	-2.637518320691496e+000
1	 8.715044636690420e-001	 6.820479556205513e-001	-3.500390032982589e+000
1	 8.639430144168067e-001	 6.916010091042313e-001	-4.360960889282958e+000
1	 8.562721597718637e-001	 7.010759760417556e-001	-5.217278426180539e+000
1	 8.484931103788458e-001	 7.104709894519441e-001	-6.067340014534714e+000
1	 8.406071190976969e-001	 7.197842074660846e-001	-6.909095947920386e+000
1	 8.326154803499684e-001	 7.290138145158300e-001	-7.740452632260203e+000
1	 8.245195294251837e-001	 7.381580225005316e-001	-8.559275870469085e+000
1	 9.060584767729306e-001	 6.469667020709586e-001	-3.223234485700607e-001
1	 8.989030479313578e-001	 6.568722813484320e-001	-1.179915369269348e+000
1	 8.916331193511397e-001	 6.667070447354198e-001	-2.039716546424522e+000
1	 8.842497333405870e-001	 6.764690252576789e-001	-2.900023274057062e+000
1	 8.767539768936911e-001	 6.861562762500328e-001	-3.759078091005403e+000
1	 8.691469811993678e-001	 6.957668726179176e-001	-4.615072420687991e+000
1	 8.614299211081966e-001	 7.052989120847824e-001	-5.466149319576950e+000
1	 8.536040145571291e-001	 7.147505164236784e-001	-6.310406329313779e+000
1	 8.456705219527116e-001	 7.241198326713901e-001	-7.145898427101042e+000
1	 8.376307455134441e-001	 7.334050343234865e-001	-7.970641068718573e+000
1	 8.294860285719685e-001	 7.426043225086872e-001	-8.782613318248350e+000
1	 9.114834449096819e-001	 6.508403745096034e-001	-5.917916600487559e-001
1	 9.042851733881780e-001	 6.608052628198342e-001	-1.447871326230840e+000
1	 8.969717165680791e-001	 6.706989112338671e-001	-2.305142791719748e+000
1	 8.895441229984449e-001	 6.805193410003271e-001	-3.161993921844672e+000
1	 8.820034861815690e-001	 6.902645937985061e-001	-4.016764395390562e+000
1	 8.743509440792836e-001	 6.999327330074622e-001	-4.867748214289391e+000
1	 8.665876785765052e-001	 7.095218449608861e-001	-5.713196311694712e+000
1	 8.587149149025006e-001	 7.190300401860672e-001	-6.551319253601552e+000
1	 8.507339210104147e-001	 7.284554546252924e-001	-7.380290028901893e+000
1	 8.426460069156920e-001	 7.377962508380541e-001	-8.198246922505863e+000
1	 8.344525239940882e-001	 7.470506191824476e-001	-9.003296465921460e+000
1	 9.169084103345374e-001	 6.547140450112940e-001	-8.620858782067551e-001
1	 9.096672961544936e-001	 6.647382423246392e-001	-1.716129093047721e+000
1	 9.023103111162404e-001	 6.746907757362944e-001	-2.570352352479190e+000
1	 8.948385100095865e-001	 6.845696547177584e-001	-3.423245640797570e+000
1	 8.872529928451248e-001	 6.943729092927946e-001	-4.273256875516627e+000
1	 8.795549043576029e-001	 7.040985913140858e-001	-5.118794268102778e+000
1	 8.717454334662736e-001	 7.137447757255694e-001	-5.958228771664297e+000
1	 8.638258126927161e-001	 7.233095618087753e-001	-6.789896611022538e+000
1	 8.557973175366715e-001	 7.327910744114978e-001	-7.612101890348755e+000
1	 8.476612658105285e-001	 7.421874651571557e-001	-8.423119273324829e+000
1	 8.394190169331532e-001	 7.514969136332221e-001	-9.221196730572073e+000
1	 9.223333744038621e-001	 6.585877145441748e-001	-1.133081949166822e+000
1	 9.150494175759466e-001	 6.686712208458169e-001	-1.984539891770906e+000
1	 9.076489043303718e-001	 6.786826392403966e-001	-2.835177803985709e+000
1	 9.001328956976941e-001	 6.886199674222856e-001	-3.683598145656489e+000
1	 8.925024981968082e-001	 6.984812237597207e-001	-4.528367974739197e+000
1	 8.847588633353754e-001	 7.082644485790088e-001	-5.368021140369129e+000
1	 8.769031870669851e-001	 7.179677054343339e-001	-6.201060550361042e+000
1	 8.689367092055303e-001	 7.275890823614685e-001	-7.025960508867164e+000
1	 8.608607127973482e-001	 7.371266931137128e-001	-7.841169119714182e+000
1	 8.526765234517708e-001	 7.465786783784127e-001	-8.645110750744225e+000
1	 8.443855086307747e-001	 7.559432069724200e-001	-9.436188554300136e+000
1	 7.947203867962918e-001	 7.114800901903866e-001	-7.171116479722424e+000
1	 7.868190097466631e-001	 7.202085038994671e-001	-8.007929823646258e+000
1	 7.788198097054105e-001	 7.288512684601431e-001	-8.815371680673238e+000
1	 7.707241875392233e-001	 7.374067477751456e-001	-9.593445622908913e+000
1	 7.625335804254584e-001	 7.458733364915255e-001	-1.034219242246774e+001
1	 7.542494610032443e-001	 7.542494610032443e-001	-1.106168995264408e+001
1	 7.458733364915253e-001	 7.625335804254582e-001	-1.175205303246954e+001
1	 7.374067477751457e-001	 7.707241875392235e-001	-1.241343321496298e+001
1	 7.288512684601429e-001	 7.788198097054103e-001	-1.304601851951838e+001
1	 7.202085038994671e-001	 7.868190097466631e-001	-1.365003310900498e+001
1	 7.114800901903867e-001	 7.947203867962918e-001	-1.422573691228806e+001
1	 7.996869343648978e-001	 7.159264335445058e-001	-7.407498110578764e+000
1	 7.917361782309124e-001	 7.247093948438794e-001	-8.238163505642158e+000
1	 7.836869877675128e-001	 7.334061717367356e-001	-9.039765559509984e+000
1	 7.755407725960195e-001	 7.420151179011197e-001	-9.812373756836069e+000
1	 7.672989788753402e-001	 7.505346179515288e-001	-1.055609608988435e+001
1	 7.589630884477717e-001	 7.589630884477715e-001	-1.127107883908231e+001
1	 7.505346179515285e-001	 7.672989788753400e-001	-1.195750629450306e+001
1	 7.420151179011199e-001	 7.755407725960197e-001	-1.261560041883919e+001
1	 7.334061717367358e-001	 7.836869877675127e-001	-1.324562045258304e+001
1	 7.247093948438793e-001	 7.917361782309127e-001	-1.384786246225547e+001
1	 7.159264335445058e-001	 7.996869343648978e-001	-1.442265883267175e+001
1	 8.046534707591729e-001	 7.203727668957749e-001	-7.642065836316934e+000
1	 7.966533356520170e-001	 7.292102756626065e-001	-8.466446035337528e+000
1	 7.885541548790407e-001	 7.379610647660093e-001	-9.262143753435382e+000
1	 7.803573468161730e-001	 7.466234776593648e-001	-1.002928485389782e+001
1	 7.720643666038530e-001	 7.551958889246426e-001	-1.076803463292949e+001
1	 7.636767052875213e-001	 7.636767052875213e-001	-1.147859749726686e+001
1	 7.551958889246425e-001	 7.720643666038529e-001	-1.216121658092459e+001
1	 7.466234776593649e-001	 7.803573468161731e-001	-1.281617330186542e+001
1	 7.379610647660093e-001	 7.885541548790407e-001	-1.344378685952399e+001
1	 7.292102756626064e-001	 7.966533356520171e-001	-1.404441367426802e+001
1	 7.203727668957749e-001	 8.046534707591729e-001	-1.461844677000596e+001
1	 8.096199972207286e-001	 7.248190913556027e-001	-7.874670877917734e+000
1	 8.015704832392284e-001	 7.337111474807115e-001	-8.692654400848069e+000
1	 7.934213122567331e-001	 7.425159486865454e-001	-9.482404098927816e+000
1	 7.851739114037614e-001	 7.512318282018451e-001	-1.024409287053926e+001
1	 7.768297448022624e-001	 7.598571505760740e-001	-1.097793359457310e+001
1	 7.683903127008027e-001	 7.683903127008027e-001	-1.168417872258694e+001
1	 7.598571505760737e-001	 7.768297448022624e-001	-1.236311980896000e+001
1	 7.512318282018452e-001	 7.851739114037617e-001	-1.301508698001816e+001
1	 7.425159486865454e-001	 7.934213122567329e-001	-1.364044834324953e+001
1	 7.337111474807111e-001	 8.015704832392283e-001	-1.423960933787589e+001
1	 7.248190913556026e-001	 8.096199972207284e-001	-1.481301202818655e+001
1	 8.145865149911749e-001	 7.292654080353987e-001	-8.105168084233002e+000
1	 8.064876222217989e-001	 7.382120114232562e-001	-8.916668590274963e+000
1	 7.982884611173302e-001	 7.470708246369249e-001	-9.700446924445460e+000
1	 7.899904675628616e-001	 7.558401706805250e-001	-1.045671386242567e+001
1	 7.815951146618347e-001	 7.645184040710302e-001	-1.118572033474731e+001
1	 7.731039118659235e-001	 7.731039118659235e-001	-1.188775695078877e+001
1	 7.645184040710302e-001	 7.815951146618348e-001	-1.256315346028539e+001
1	 7.558401706805247e-001	 7.899904675628617e-001	-1.321227815347123e+001
1	 7.470708246369250e-001	 7.982884611173302e-001	-1.383553720112151e+001
1	 7.382120114232562e-001	 8.064876222217989e-001	-1.443337393590976e+001
1	 7.292654080353987e-001	 8.145865149911749e-001	-1.500626807662861e+001
1	 8.195530253121230e-001	 7.337117180465720e-001	-8.333415822106142e+000
1	 8.114047538289799e-001	 7.427128686153039e-001	-9.138371500868392e+000
1	 8.031556026775721e-001	 7.516256937557304e-001	-9.916174974995411e+000
1	 7.948070164975510e-001	 7.604485062473675e-001	-1.066706592092225e+001
1	 7.863604773738363e-001	 7.691796505747182e-001	-1.139132397538718e+001
1	 7.778175039611932e-001	 7.778175039611930e-001	-1.208926820837396e+001
1	 7.691796505747182e-001	 7.863604773738364e-001	-1.276125653373237e+001
1	 7.604485062473674e-001	 7.948070164975511e-001	-1.340768505870416e+001
1	 7.516256937557302e-001	 8.031556026775720e-001	-1.402898737372878e+001
1	 7.427128686153038e-001	 8.114047538289799e-001	-1.462563378404793e+001
1	 7.337117180465720e-001	 8.195530253121230e-001	-1.519813048477104e+001
1	 8.245195294251837e-001	 7.381580225005316e-001	-8.559275870469085e+000
1	 8.163218792900235e-001	 7.472137201819169e-001	-9.357648851477075e+000
1	 8.080227381541983e-001	 7.561805571815429e-001	-1.012949333943218e+001
1	 7.996235594119070e-001	 7.650568360543371e-001	-1.087506911187457e+001
1	 7.911258341295326e-001	 7.738408912523456e-001	-1.159467534746304e+001
1	 7.825310901649194e-001	 7.825310901649194e-001	-1.228865006479421e+001
1	 7.738408912523455e-001	 7.911258341295328e-001	-1.295736949970317e+001
1	 7.650568360543371e-001	 7.996235594119072e-001	-1.360124742234703e+001
1	 7.561805571815429e-001	 8.080227381541985e-001	-1.422073439551257e+001
1	 7.472137201819169e-001	 8.163218792900235e-001	-1.481631697573489e+001
1	 7.381580225005318e-001	 8.245195294251837e-001	-1.538851685895259e+001
1	 8.294860285719685e-001	 7.426043225086872e-001	-8.782613318248348e+000
1	 8.212389998341815e-001	 7.517145672481576e-001	-9.574389098147087e+000
1	 8.128898687639495e-001	 7.607354160529445e-001	-1.034030938037248e+001
1	 8.044400975100068e-001	 7.696651612533977e-001	-1.108064541658943e+001
1	 7.958911861201905e-001	 7.785021272691188e-001	-1.179570693991484e+001
1	 7.872446716554119e-001	 7.872446716554118e-001	-1.248584158636475e+001
1	 7.785021272691187e-001	 7.958911861201904e-001	-1.315143425622565e+001
1	 7.696651612533977e-001	 8.044400975100069e-001	-1.379290641668075e+001
1	 7.607354160529446e-001	 8.128898687639495e-001	-1.441071534716805e+001
1	 7.517145672481576e-001	 8.212389998341815e-001	-1.500535332908064e+001
1	 7.426043225086871e-001	 8.294860285719686e-001	-1.557734678155865e+001
1	 8.344525239940882e-001	 7.470506191824476e-001	-9.003296465921460e+000
1	 8.261561166907057e-001	 7.562154109390886e-001	-9.788483352738892e+000
1	 8.177569957235656e-001	 7.652902715085167e-001	-1.054853266661406e+001
1	 8.092566319959278e-001	 7.742734829965139e-001	-1.128371867492686e+001
1	 8.006565345370750e-001	 7.831633597902451e-001	-1.199435285041406e+001
1	 7.919582496109785e-001	 7.919582496109784e-001	-1.268078329182655e+001
1	 7.831633597902452e-001	 8.006565345370749e-001	-1.334339408658048e+001
1	 7.742734829965138e-001	 8.092566319959280e-001	-1.398260461673278e+001
1	 7.652902715085169e-001	 8.177569957235658e-001	-1.459886880974863e+001
1	 7.562154109390885e-001	 8.261561166907058e-001	-1.519267433565908e+001
1	 7.470506191824476e-001	 8.344525239940881e-001	-1.576454175234211e+001
1	 8.394190169331532e-001	 7.514969136332221e-001	-9.221196730572070e+000
1	 8.310732310888485e-001	 7.607162523797725e-001	-9.999825304436628e+000
1	 8.226241202497858e-001	 7.698451246868412e-001	-1.075407490795782e+001
1	 8.140731640737471e-001	 7.788818024356486e-001	-1.148421453041376e+001
1	 8.054218805714530e-001	 7.878245899809319e-001	-1.219054873787526e+001
1	 7.966718252099275e-001	 7.966718252099274e-001	-1.287341710948626e+001
1	 7.878245899809320e-001	 8.054218805714529e-001	-1.353319361843302e+001
1	 7.788818024356486e-001	 8.140731640737469e-001	-1.417028595889529e+001
1	 7.698451246868411e-001	 8.226241202497859e-001	-1.478513482039991e+001
1	 7.607162523797726e-001	 8.310732310888486e-001	-1.537821311112574e+001
1	 7.514969136332225e-001	 8.394190169331534e-001	-1.595002513183145e+001
1	 8.443855086307747e-001	 7.559432069724200e-001	-9.436188554300136e+000
1	 8.359903442578607e-001	 7.652170926952719e-001	-1.020831114403051e+001
1	 8.274912435593508e-001	 7.743999767264992e-001	-1.095684989233281e+001
1	 8.188896949475417e-001	 7.834901207227666e-001	-1.168206037729854e+001
1	 8.101872254145905e-001	 7.924858190063862e-001	-1.238423177664626e+001
1	 8.013853996305682e-001	 8.013853996305679e-001	-1.306368633587256e+001
1	 7.924858190063862e-001	 8.101872254145907e-001	-1.372077878441027e+001
1	 7.834901207227666e-001	 8.188896949475419e-001	-1.435589570100620e+001
1	 7.743999767264997e-001	 8.274912435593509e-001	-1.496945482965958e+001
1	 7.652170926952719e-001	 8.359903442578606e-001	-1.556190434758041e+001
1	 7.559432069724201e-001	 8.443855086307748e-001	-1.613372208673751e+001
1	 7.114800901903867e-001	 7.947203867962918e-001	-1.422573691228806e+001
1	 7.026663650481888e-001	 8.025237401695792e-001	-1.477062783661040e+001
1	 6.937703272672139e-001	 8.102265513355922e-001	-1.528141516632081e+001
1	 6.847937003240027e-001	 8.178275332637143e-001	-1.575747063488021e+001
1	 6.757382341700814e-001	 8.253254383142840e-001	-1.619818753922483e+001
1	 6.666057041068113e-001	 8.327190589071603e-001	-1.660298199711339e+001
1	 6.573979096404270e-001	 8.400072281517993e-001	-1.697129417144821e+001
1	 6.481166733187913e-001	 8.471888204381821e-001	-1.730258945897176e+001
1	 6.387638395514258e-001	 8.542627519879944e-001	-1.759635964084108e+001
1	 6.293412734143902e-001	 8.612279813655365e-001	-1.785212399267694e+001
1	 6.198508594416140e-001	 8.680835099479131e-001	-1.806943035179694e+001
1	 7.159264335445058e-001	 7.996869343648978e-001	-1.442265883267175e+001
1	 7.070576276644425e-001	 8.075390542305772e-001	-1.496742048354915e+001
1	 6.981059947387769e-001	 8.152900035576537e-001	-1.547868223638549e+001
1	 6.890732690147887e-001	 8.229384872723257e-001	-1.595575502047119e+001
1	 6.799612113801955e-001	 8.304832499379156e-001	-1.639796853106056e+001
1	 6.707716082309714e-001	 8.379230764276171e-001	-1.680467262656014e+001
1	 6.615062703192322e-001	 8.452567925585079e-001	-1.717523869681104e+001
1	 6.521670315827175e-001	 8.524832656861682e-001	-1.750906099954209e+001
1	 6.427557479574488e-001	 8.596014052593093e-001	-1.780555796215432e+001
1	 6.332742961751408e-001	 8.666101633338729e-001	-1.806417344609303e+001
1	 6.237245725469760e-001	 8.735085350461599e-001	-1.828437797116504e+001
1	 7.203727668957749e-001	 8.046534707591729e-001	-1.461844677000596e+001
1	 7.114488804018746e-001	 8.125543570074461e-001	-1.516318086083310e+001
1	 7.024416524566977e-001	 8.203534443872104e-001	-1.567496160024688e+001
1	 6.933528280782358e-001	 8.280494297814942e-001	-1.615304910347926e+001
1	 6.841841790903720e-001	 8.356410499566217e-001	-1.659671966004115e+001
1	 6.749375029836684e-001	 8.431270822391361e-001	-1.700526725255618e+001
1	 6.656146217560932e-001	 8.505063451537500e-001	-1.737800505055207e+001
1	 6.562173807352369e-001	 8.577776990216597e-001	-1.771426687600100e+001
1	 6.467476473835925e-001	 8.649400465186132e-001	-1.801340863746675e+001
1	 6.372073100885021e-001	 8.719923331922082e-001	-1.827480972981672e+001
1	 6.275982769383739e-001	 8.789335479379549e-001	-1.849787439654199e+001
1	 7.248190913556026e-001	 8.096199972207284e-001	-1.481301202818655e+001
1	 7.158401243581071e-001	 8.175696497540029e-001	-1.535780908151853e+001
1	 7.067773015046822e-001	 8.254168750901275e-001	-1.587014539022445e+001
1	 6.976323785840093e-001	 8.331603620689752e-001	-1.634924006080180e+001
1	 6.884071383561142e-001	 8.407988396598859e-001	-1.679432598555464e+001
1	 6.791033894061229e-001	 8.483310776427658e-001	-1.720465146507442e+001
1	 6.697229649778332e-001	 8.557558872499758e-001	-1.757948180928941e+001
1	 6.602677217886620e-001	 8.630721217683390e-001	-1.791810091362171e+001
1	 6.507395388275513e-001	 8.702786771006544e-001	-1.821981280685638e+001
1	 6.411403161374443e-001	 8.773744922861855e-001	-1.848394316741215e+001
1	 6.314719735839529e-001	 8.843585499796630e-001	-1.870984080479302e+001
1	 7.292654080353987e-001	 8.145865149911749e-001	-1.500626807662861e+001
1	 7.202313606307628e-001	 8.225849337240645e-001	-1.555120769733168e+001
1	 7.111129429664369e-001	 8.304802969322704e-001	-1.606412837218794e+001
1	 7.019119216017749e-001	 8.382712854125243e-001	-1.654421782398987e+001
1	 6.926300902329238e-001	 8.459566203371922e-001	-1.699067537352929e+001
1	 6.832692685395544e-001	 8.535350639395548e-001	-1.740271364791739e+001
1	 6.738313010112741e-001	 8.610054201596330e-001	-1.777956027083337e+001
1	 6.643180557553057e-001	 8.683665352498885e-001	-1.812045953102817e+001
1	 6.547314232870189e-001	 8.756172983401799e-001	-1.842467402547003e+001
1	 6.450733153049383e-001	 8.827566419614467e-001	-1.869148627359664e+001
1	 6.353456634518566e-001	 8.897835425276497e-001	-1.892020029922367e+001
1	 7.337117180465720e-001	 8.195530253121230e-001	-1.519813048477105e+001
1	 7.246225903174626e-001	 8.276002101714469e-001	-1.574328162490360e+001
1	 7.154485779256692e-001	 8.355437111795050e-001	-1.625680786589230e+001
1	 7.061914582011981e-001	 8.433822010898959e-001	-1.673787499592226e+001
1	 6.968530357763038e-001	 8.511143932780237e-001	-1.718565841154567e+001
1	 6.874351414251840e-001	 8.587390424305522e-001	-1.759934489422300e+001
1	 6.779396308832392e-001	 8.662549451951724e-001	-1.797813437190316e+001
1	 6.683683836474814e-001	 8.736609407899914e-001	-1.832124166179414e+001
1	 6.587233017596903e-001	 8.809559115719380e-001	-1.862789819053424e+001
1	 6.490063085739543e-001	 8.881387835636344e-001	-1.889735368804217e+001
1	 6.392193475102294e-001	 8.952085269382795e-001	-1.912887785140782e+001
1	 7.381580225005318e-001	 8.245195294251837e-001	-1.538851685895259e+001
1	 7.290138145158300e-001	 8.326154803499682e-001	-1.593393807467296e+001
1	 7.197842074660847e-001	 8.406071190976967e-001	-1.644808366819793e+001
1	 7.104709894519440e-001	 8.484931103788458e-001	-1.693010677049631e+001
1	 7.010759760417558e-001	 8.562721597718638e-001	-1.737916832701982e+001
1	 6.916010091042315e-001	 8.639430144168068e-001	-1.779443892502908e+001
1	 6.820479556205514e-001	 8.715044636690420e-001	-1.817510060882198e+001
1	 6.724187064775016e-001	 8.789553397123299e-001	-1.852034867888043e+001
1	 6.627151752432593e-001	 8.862945181306753e-001	-1.882939347100533e+001
1	 6.529392969274620e-001	 8.935209184383905e-001	-1.910146211157197e+001
1	 6.430930267272152e-001	 9.006335045679181e-001	-1.933580024511900e+001
1	 7.426043225086871e-001	 8.294860285719686e-001	-1.557734678155865e+001
1	 7.334050343234865e-001	 8.376307455134441e-001	-1.612308648234734e+001
1	 7.241198326713906e-001	 8.456705219527118e-001	-1.663785797905013e+001
1	 7.147505164236784e-001	 8.536040145571291e-001	-1.712081085520647e+001
1	 7.052989120847824e-001	 8.614299211081965e-001	-1.757110090833021e+001
1	 6.957668726179176e-001	 8.691469811993680e-001	-1.798789201076639e+001
1	 6.861562762500327e-001	 8.767539768936908e-001	-1.837035796106377e+001
1	 6.764690252576791e-001	 8.842497333405870e-001	-1.871768432178969e+001
1	 6.667070447354196e-001	 8.916331193511397e-001	-1.902907023975164e+001
1	 6.568722813484319e-001	 8.989030479313579e-001	-1.930373024465283e+001
1	 6.469667020709586e-001	 9.060584767729307e-001	-1.954089602227964e+001
1	 7.470506191824476e-001	 8.344525239940881e-001	-1.576454175234211e+001
1	 7.377962508380542e-001	 8.426460069156919e-001	-1.631063844281395e+001
1	 7.284554546252926e-001	 8.507339210104146e-001	-1.682603533010758e+001
1	 7.190300401860670e-001	 8.587149149025005e-001	-1.730988739649106e+001
1	 7.095218449608864e-001	 8.665876785765055e-001	-1.776135442876426e+001
1	 6.999327330074622e-001	 8.743509440792833e-001	-1.817960289555895e+001
1	 6.902645937985066e-001	 8.820034861815691e-001	-1.856380781753377e+001
1	 6.805193410003267e-001	 8.895441229984450e-001	-1.891315462632511e+001
1	 6.706989112338667e-001	 8.969717165680790e-001	-1.922684100815960e+001
1	 6.608052628198341e-001	 9.042851733881780e-001	-1.950407872808501e+001
1	 6.508403745096036e-001	 9.114834449096820e-001	-1.974409543084215e+001
1	 7.514969136332225e-001	 8.394190169331534e-001	-1.595002513183145e+001
1	 7.421874651571556e-001	 8.476612658105285e-001	-1.649650764640060e+001
1	 7.327910744114982e-001	 8.557973175366717e-001	-1.701252251590462e+001
1	 7.233095618087753e-001	 8.638258126927162e-001	-1.749723890773301e+001
1	 7.137447757255693e-001	 8.717454334662735e-001	-1.794982957316727e+001
1	 7.040985913140859e-001	 8.795549043576028e-001	-1.836947272421463e+001
1	 6.943729092927947e-001	 8.872529928451250e-001	-1.875535390546938e+001
1	 6.845696547177584e-001	 8.948385100095866e-001	-1.910666785684670e+001
1	 6.746907757362943e-001	 9.023103111162405e-001	-1.942262036306433e+001
1	 6.647382423246390e-001	 9.096672961544934e-001	-1.970243008580231e+001
1	 6.547140450112942e-001	 9.169084103345376e-001	-1.994533037452267e+001
1	 7.559432069724201e-001	 8.443855086307748e-001	-1.613372208673751e+001
1	 7.465786783784130e-001	 8.526765234517706e-001	-1.668060981738716e+001
1	 7.371266931137132e-001	 8.608607127973481e-001	-1.719722852744848e+001
1	 7.275890823614686e-001	 8.689367092055303e-001	-1.768277019980335e+001
1	 7.179677054343341e-001	 8.769031870669852e-001	-1.813642936718477e+001
1	 7.082644485790089e-001	 8.847588633353752e-001	-1.855740497179557e+001
1	 6.984812237597208e-001	 8.925024981968079e-001	-1.894490222185325e+001
1	 6.886199674222857e-001	 9.001328956976938e-001	-1.929813444092033e+001
1	 6.786826392403964e-001	 9.076489043303717e-001	-1.961632490590856e+001
1	 6.686712208458168e-001	 9.150494175759467e-001	-1.989870866969129e+001
1	 6.585877145441748e-001	 9.223333744038623e-001	-2.014453436431118e+001
1	 6.198508594416140e-001	 8.680835099479131e-001	-1.806943035179694e+001
1	 6.102945001977892e-001	 8.748283821075730e-001	-1.825138142558767e+001
1	 6.006741144412503e-001	 8.814616848543038e-001	-1.840125218984770e+001
1	 5.909916365275354e-001	 8.879825489111826e-001	-1.851889162600929e+001
1	 5.812490153734854e-001	 8.943901492657203e-001	-1.860417640138299e+001
1	 5.714482132060661e-001	 9.006837054341905e-001	-1.865701093992330e+001
1	 5.615912043072900e-001	 9.068624816840354e-001	-1.867732745366847e+001
1	 5.516799737568477e-001	 9.129257872143953e-001	-1.866508593506565e+001
1	 5.417165161740594e-001	 9.188729762948832e-001	-1.862027411048171e+001
1	 5.317028344607302e-001	 9.247034483627792e-001	-1.854290735528200e+001
1	 5.216409385464856e-001	 9.304166480789027e-001	-1.843302857094802e+001
1	 6.237245725469760e-001	 8.735085350461599e-001	-1.828437797116504e+001
1	 6.141084915275836e-001	 8.802955587965073e-001	-1.846922076854425e+001
1	 6.044279838664363e-001	 8.869703158890229e-001	-1.862196869621150e+001
1	 5.946849960076828e-001	 8.935319316142810e-001	-1.874245994229025e+001
1	 5.848814890477754e-001	 8.999795758039180e-001	-1.883056015399205e+001
1	 5.750194374764714e-001	 9.063124630966117e-001	-1.888616252739709e+001
1	 5.651008279139121e-001	 9.125298531618775e-001	-1.890918785814730e+001
1	 5.551276578453964e-001	 9.186310508817268e-001	-1.889958455322138e+001
1	 5.451019343554694e-001	 9.246154064903092e-001	-1.885732860404627e+001
1	 5.350256728629237e-001	 9.304823156717120e-001	-1.878242352129083e+001
1	 5.249008958582897e-001	 9.362312196161844e-001	-1.867490023176504e+001
1	 6.275982769383739e-001	 8.789335479379549e-001	-1.849787439654199e+001
1	 6.179224742777475e-001	 8.857627231840893e-001	-1.868561556499947e+001
1	 6.081818448472067e-001	 8.924789345290568e-001	-1.884129670269742e+001
1	 5.983783471794885e-001	 8.990813018309455e-001	-1.896473750614705e+001
1	 5.885139545506301e-001	 9.055689897655318e-001	-1.905578474245547e+001
1	 5.785906537131572e-001	 9.119412080939141e-001	-1.911431237386026e+001
1	 5.686104436253139e-001	 9.181972118876943e-001	-1.914022164352737e+001
1	 5.585753341779823e-001	 9.243363017117704e-001	-1.913344112270966e+001
1	 5.484873449209083e-001	 9.303578237648394e-001	-1.909392671944176e+001
1	 5.383485037898443e-001	 9.362611699778098e-001	-1.902166164904208e+001
1	 5.281608458362018e-001	 9.420457780703714e-001	-1.891665636677077e+001
1	 6.314719735839529e-001	 8.843585499796630e-001	-1.870984080479302e+001
1	 6.217364494015000e-001	 8.912298766372340e-001	-1.890049731043462e+001
1	 6.119356983217604e-001	 8.979875421516952e-001	-1.905917551471563e+001
1	 6.020716909660351e-001	 9.046306609486617e-001	-1.918566907149773e+001
1	 5.921464127899266e-001	 9.111583925480667e-001	-1.927979815667209e+001
1	 5.821618628087035e-001	 9.175699418334399e-001	-1.934140964302428e+001
1	 5.721200523186919e-001	 9.238645592784844e-001	-1.937037723683194e+001
1	 5.620230036163345e-001	 9.300415411309952e-001	-1.936660157617709e+001
1	 5.518727487165536e-001	 9.361002295542299e-001	-1.933001029104770e+001
1	 5.416713280720397e-001	 9.420400127259289e-001	-1.926055802538083e+001
1	 5.314207892950618e-001	 9.478603248952329e-001	-1.915822642129376e+001
1	 6.353456634518566e-001	 8.897835425276497e-001	-1.892020029922367e+001
1	 6.255504178520606e-001	 8.966970205228557e-001	-1.911379917501855e+001
1	 6.156895452282952e-001	 9.034961401342254e-001	-1.927554592171988e+001
1	 6.057650282904062e-001	 9.101800103549161e-001	-1.940520074318824e+001
1	 5.957788646735406e-001	 9.167477855490265e-001	-1.950254965826069e+001
1	 5.857330656556907e-001	 9.231986657225304e-001	-1.956740474136690e+001
1	 5.756296548712436e-001	 9.295318967512446e-001	-1.959960432546107e+001
1	 5.654706670221815e-001	 9.357467705658702e-001	-1.959901316710922e+001
1	 5.552581465885836e-001	 9.418426252942370e-001	-1.956552257365673e+001
1	 5.449941465400575e-001	 9.478188453609254e-001	-1.949905049249212e+001
1	 5.346807270497090e-001	 9.536748615445378e-001	-1.939954156250816e+001
1	 6.392193475102294e-001	 8.952085269382795e-001	-1.912887785140782e+001
1	 6.293643805826487e-001	 9.021641562078695e-001	-1.932545595306586e+001
1	 6.194433865050100e-001	 9.090047298539378e-001	-1.949035015244110e+001
1	 6.094583600756856e-001	 9.157293514371939e-001	-1.962327993625659e+001
1	 5.994113111093491e-001	 9.223371701659147e-001	-1.972398974222031e+001
1	 5.893042631466994e-001	 9.288273811685280e-001	-1.979224928066167e+001
1	 5.791392521601658e-001	 9.351992257229723e-001	-1.982785381918261e+001
1	 5.689183252572525e-001	 9.414519914428657e-001	-1.983062442998138e+001
1	 5.586435393831772e-001	 9.475850124206171e-001	-1.980040819959941e+001
1	 5.483169600244462e-001	 9.535976693276570e-001	-1.973707840092912e+001
1	 5.379406599149837e-001	 9.594893894720561e-001	-1.964053462740850e+001
1	 6.430930267272152e-001	 9.006335045679181e-001	-1.933580024511900e+001
1	 6.331783385464839e-001	 9.076312850591893e-001	-1.953540401432197e+001
1	 6.231972230901024e-001	 9.145133126881201e-001	-1.970353183174055e+001
1	 6.131516872449562e-001	 9.212786855829814e-001	-1.983985533667183e+001
1	 6.030437530052285e-001	 9.279265477962356e-001	-1.994407009997798e+001
1	 5.928754561743090e-001	 9.344560895787746e-001	-2.001589604186687e+001
1	 5.826488450626549e-001	 9.408665476106651e-001	-2.005507781349671e+001
1	 5.723659791832758e-001	 9.471572051884507e-001	-2.006138514184998e+001
1	 5.620289279465123e-001	 9.533273923691270e-001	-2.003461313742118e+001
1	 5.516397693557534e-001	 9.593764860709807e-001	-1.997458256434236e+001
1	 5.412005887057253e-001	 9.653039101315575e-001	-1.988114007266925e+001
1	 6.469667020709586e-001	 9.060584767729307e-001	-1.954089602227964e+001
1	 6.369922926967850e-001	 9.130984084437299e-001	-1.974358125700398e+001
1	 6.269510559217715e-001	 9.200218900140613e-001	-1.991503593901722e+001
1	 6.168450107213012e-001	 9.268280141797644e-001	-2.005487686348419e+001
1	 6.066761912690550e-001	 9.335159198374937e-001	-2.016274358376390e+001
1	 5.964466456311005e-001	 9.400847923606116e-001	-2.023829894031094e+001
1	 5.861584344559083e-001	 9.465338638313203e-001	-2.028122955432101e+001
1	 5.758136296619807e-001	 9.528624132290949e-001	-2.029124628532794e+001
1	 5.654143131247674e-001	 9.590697665755228e-001	-2.026808465204443e+001
1	 5.549625753645266e-001	 9.651552970357530e-001	-2.021150521583562e+001
1	 5.444605142367740e-001	 9.711184249768110e-001	-2.012129392630506e+001
1	 6.508403745096036e-001	 9.114834449096820e-001	-1.974409543084215e+001
1	 6.408062439867722e-001	 9.185655277284057e-001	-1.994992706251577e+001
1	 6.307048859382156e-001	 9.255304632090503e-001	-2.012480876809775e+001
1	 6.205383314278040e-001	 9.323773386150284e-001	-2.026829563232923e+001
1	 6.103086268087054e-001	 9.391052876871932e-001	-2.037996417226338e+001
1	 6.000178324096538e-001	 9.457134909213810e-001	-2.045941299212226e+001
1	 5.896680212171227e-001	 9.522011758019360e-001	-2.050626340393551e+001
1	 5.792612775550958e-001	 9.585676169912677e-001	-2.052016001288140e+001
1	 5.687996957641206e-001	 9.648121364755609e-001	-2.050077126635646e+001
1	 5.582853788813139e-001	 9.709341036668302e-001	-2.044778996588275e+001
1	 5.477204373229693e-001	 9.769329354615868e-001	-2.036093374106218e+001
1	 6.547140450112942e-001	 9.169084103345376e-001	-1.994533037452267e+001
1	 6.446201933696649e-001	 9.240326442801321e-001	-2.015438225177690e+001
1	 6.344587140776327e-001	 9.310390336503757e-001	-2.033279788855725e+001
1	 6.242316502875476e-001	 9.379266602762590e-001	-2.048006392022983e+001
1	 6.139410605320561e-001	 9.446946527428373e-001	-2.059568693748576e+001
1	 6.035890174025493e-001	 9.513421866684246e-001	-2.067919428185443e+001
1	 5.931776062234950e-001	 9.578684849395088e-001	-2.073013480813929e+001
1	 5.827089237243497e-001	 9.642728179014383e-001	-2.074807961239601e+001
1	 5.721850767107503e-001	 9.705545035049972e-001	-2.073262272416126e+001
1	 5.616081807366634e-001	 9.767129074090700e-001	-2.068338176174108e+001
1	 5.509803587791511e-001	 9.827474430396538e-001	-2.059999854946353e+001
1	 6.585877145441748e-001	 9.223333744038623e-001	-2.014453436431118e+001
1	 6.484341417986819e-001	 9.294997594658224e-001	-2.035688904309201e+001
1	 6.382125412782213e-001	 9.365476027153264e-001	-2.053895210840253e+001
1	 6.279249682236161e-001	 9.434759805509431e-001	-2.069013513163951e+001
1	 6.175734933469836e-001	 9.502840164019311e-001	-2.080986801280805e+001
1	 6.071602015023673e-001	 9.569708810090842e-001	-2.089759993125286e+001
1	 5.966871903522223e-001	 9.635357926610373e-001	-2.095280026456812e+001
1	 5.861565690314716e-001	 9.699780173860766e-001	-2.097495947396144e+001
1	 5.755704568108352e-001	 9.762968690995890e-001	-2.096358995444133e+001
1	 5.649309817611228e-001	 9.824917097073289e-001	-2.091822684829749e+001
1	 5.542402794201589e-001	 9.885619491647812e-001	-2.083842882044502e+001
1	 5.216409385464856e-001	 9.304166480789027e-001	-1.843302857094802e+001
1	 5.115343637342540e-001	 9.360112350538160e-001	-1.829853797171379e+001
1	 5.013836241751540e-001	 9.414876109821543e-001	-1.814748071460164e+001
1	 4.911907430309177e-001	 9.468453570644847e-001	-1.798022478156148e+001
1	 4.809577455047829e-001	 9.520840995190897e-001	-1.779717728926400e+001
1	 4.706866576225989e-001	 9.572035094363699e-001	-1.759878276423827e+001
1	 4.603795050253364e-001	 9.622033025948157e-001	-1.738552138153404e+001
1	 4.500383117743657e-001	 9.670832392392221e-001	-1.715790717123262e+001
1	 4.396650991708301e-001	 9.718431238218864e-001	-1.691648619713752e+001
1	 4.292618845903969e-001	 9.764828047075796e-001	-1.666183471194870e+001
1	 4.188306803346252e-001	 9.810021738431126e-001	-1.639455729321847e+001
1	 5.249008958582897e-001	 9.362312196161844e-001	-1.867490023176504e+001
1	 5.147311607381130e-001	 9.418607695576093e-001	-1.854280911696631e+001
1	 5.045169848666595e-001	 9.473713697009941e-001	-1.839433548333972e+001
1	 4.942604040492619e-001	 9.527625986296653e-001	-1.822981905204182e+001
1	 4.839634561455170e-001	 9.580340802259997e-001	-1.804963850147979e+001
1	 4.736281798427740e-001	 9.631854835249191e-001	-1.785420977807089e+001
1	 4.632566134410979e-001	 9.682165225287074e-001	-1.764398437033357e+001
1	 4.528507936510820e-001	 9.731269559838415e-001	-1.741944755057340e+001
1	 4.424127544058427e-001	 9.779165871205759e-001	-1.718111658842708e+001
1	 4.319445256884888e-001	 9.825852633560630e-001	-1.692953894051365e+001
1	 4.214481323763099e-001	 9.871328759618585e-001	-1.666529042043107e+001
1	 5.281608458362018e-001	 9.420457780703714e-001	-1.891665636677077e+001
1	 5.179279505500952e-001	 9.477102908997490e-001	-1.878710395524374e+001
1	 5.076503385089314e-001	 9.532551151813122e-001	-1.864133107215865e+001
1	 4.973300581616141e-001	 9.586798268811473e-001	-1.847965362655809e+001
1	 4.869691600240704e-001	 9.639840475457242e-001	-1.830242636967725e+001
1	 4.765696954451202e-001	 9.691674441544828e-001	-1.811004123268749e+001
1	 4.661337153838935e-001	 9.742297289334986e-001	-1.790292562760616e+001
1	 4.556632692001782e-001	 9.791706591309306e-001	-1.768154071558437e+001
1	 4.451604034590352e-001	 9.839900367549844e-001	-1.744637964678953e+001
1	 4.346271607509846e-001	 9.886877082751896e-001	-1.719796577609659e+001
1	 4.240655785290188e-001	 9.932635642878446e-001	-1.693685085876992e+001
1	 5.314207892950618e-001	 9.478603248952329e-001	-1.915822642129376e+001
1	 5.211247339692603e-001	 9.535598005427273e-001	-1.903134516839027e+001
1	 5.107836858851766e-001	 9.591388488941353e-001	-1.888838468626286e+001
1	 5.003997061352616e-001	 9.645970432983022e-001	-1.872964143422526e+001
1	 4.899748578917461e-001	 9.699340029657910e-001	-1.855545066050057e+001
1	 4.795112051648955e-001	 9.751493928205582e-001	-1.836618475840969e+001
1	 4.690108115728802e-001	 9.802429233124703e-001	-1.816225158557525e+001
1	 4.584757391246573e-001	 9.852143501913654e-001	-1.794409275033123e+001
1	 4.479080470172056e-001	 9.900634742433959e-001	-1.771218186952337e+001
1	 4.373097904484329e-001	 9.947901409904684e-001	-1.746702280188410e+001
1	 4.266830194470083e-001	 9.993942403536176e-001	-1.720914786114430e+001
1	 5.346807270497090e-001	 9.536748615445378e-001	-1.939954156250816e+001
1	 5.243215117946672e-001	 9.594092999490357e-001	-1.927545732472641e+001
1	 5.139170277786029e-001	 9.650225723104889e-001	-1.913541555060707e+001
1	 5.034693487374913e-001	 9.705142493605009e-001	-1.897969752792241e+001
1	 4.929805504998467e-001	 9.758839479737282e-001	-1.880862334122992e+001
1	 4.824527097373583e-001	 9.811313310186434e-001	-1.862255023804918e+001
1	 4.718879027272155e-001	 9.862561071689028e-001	-1.842187095793071e+001
1	 4.612882041275210e-001	 9.912580306760200e-001	-1.820701202859468e+001
1	 4.506556857671525e-001	 9.961369011040955e-001	-1.797843203331231e+001
1	 4.399924154513824e-001	 1.000892563027408e+000	-1.773661985370278e+001
1	 4.293004557845356e-001	 1.005524905691726e+000	-1.748209289209946e+001
1	 5.379406599149837e-001	 9.594893894720561e-001	-1.964053462740850e+001
1	 5.275182848253749e-001	 9.652587905811673e-001	-1.951936682203007e+001
1	 5.170503649724166e-001	 9.709062869013991e-001	-1.938234484883204e+001
1	 5.065389867355904e-001	 9.764314465471149e-001	-1.922973902007300e+001
1	 4.959862385996757e-001	 9.818338840570652e-001	-1.906185851322597e+001
1	 4.853942098977676e-001	 9.871132602442370e-001	-1.887904973877726e+001
1	 4.747649895660557e-001	 9.922692820060759e-001	-1.868169467081776e+001
1	 4.641006649117726e-001	 9.973017020957711e-001	-1.847020914460306e+001
1	 4.534033203956744e-001	 1.002210318855367e+000	-1.824504112526757e+001
1	 4.426750364303818e-001	 1.006994975911515e+000	-1.800666895186587e+001
1	 4.319178881958571e-001	 1.011655561834715e+000	-1.775559956090160e+001
1	 5.412005887057253e-001	 9.653039101315575e-001	-1.988114007266924e+001
1	 5.307150538604427e-001	 9.711082739016135e-001	-1.976300183257926e+001
1	 5.201836982498246e-001	 9.767899941378910e-001	-1.962909566441086e+001
1	 5.096086208968456e-001	 9.823486363375157e-001	-1.947968502074816e+001
1	 4.989919229425358e-001	 9.877838127033294e-001	-1.931507234778413e+001
1	 4.883357063813812e-001	 9.930951819928359e-001	-1.913559744646090e+001
1	 4.776420728085585e-001	 9.982824493272691e-001	-1.894163579632153e+001
1	 4.669131221804141e-001	 1.003345365961493e+000	-1.873359684627285e+001
1	 4.561509515895700e-001	 1.008283729015496e+000	-1.851192227646616e+001
1	 4.453576540559800e-001	 1.013097381168299e+000	-1.827708423548781e+001
1	 4.345353173352294e-001	 1.017786210315132e+000	-1.802958355704309e+001
1	 5.444605142367740e-001	 9.711184249768110e-001	-2.012129392630506e+001
1	 5.339118196989298e-001	 9.769577513728662e-001	-2.000629225017397e+001
1	 5.233170283940343e-001	 9.826736954909918e-001	-1.987559292391186e+001
1	 5.126782519885442e-001	 9.882658202110742e-001	-1.972945657799584e+001
1	 5.019976042797296e-001	 9.937337354000498e-001	-1.956818302429647e+001
1	 4.912771999234578e-001	 9.990770977599387e-001	-1.939210960236025e+001
1	 4.805191531738802e-001	 1.004295610635763e+000	-1.920160948834541e+001
1	 4.697255766364483e-001	 1.009389023784061e+000	-1.899708997085114e+001
1	 4.588985800356379e-001	 1.014357133102767e+000	-1.877899069787855e+001
1	 4.480402689987254e-001	 1.019199780323268e+000	-1.854778189916020e+001
1	 4.371527438569091e-001	 1.023916852665525e+000	-1.830396258806889e+001
1	 5.477204373229693e-001	 9.769329354615868e-001	-2.036093374106218e+001
1	 5.371085831398952e-001	 9.828072244574182e-001	-2.024916963904979e+001
1	 5.264503561882525e-001	 9.885573924317266e-001	-2.012176334228943e+001
1	 5.157478807779733e-001	 9.941829996471618e-001	-1.997897662030463e+001
1	 5.050032833625604e-001	 9.996836536347546e-001	-1.982111067062391e+001
1	 4.942186912592554e-001	 1.005059009041043e+000	-1.964850444208897e+001
1	 4.833962313811783e-001	 1.010308767434837e+000	-1.946153292078123e+001
1	 4.725380289828776e-001	 1.015432677074351e+000	-1.926060538285741e+001
1	 4.616462064206762e-001	 1.020430532635463e+000	-1.904616361858865e+001
1	 4.507228819291668e-001	 1.025302174901930e+000	-1.881868013189336e+001
1	 4.397701684151532e-001	 1.030047490418441e+000	-1.857865631962414e+001
1	 5.509803587791511e-001	 9.827474430396538e-001	-2.059999854946353e+001
1	 5.403053449823979e-001	 9.886566946177607e-001	-2.049156718460853e+001
1	 5.295836824156864e-001	 9.944410864311215e-001	-2.036753537012099e+001
1	 5.188175080324198e-001	 1.000100176125149e+000	-2.022816990111193e+001
1	 5.080089609423314e-001	 1.005633568894973e+000	-2.007377730558674e+001
1	 4.971601811240327e-001	 1.011040917331647e+000	-1.990470213674474e+001
1	 4.862733081496097e-001	 1.016321921227772e+000	-1.972132522787747e+001
1	 4.753504799227042e-001	 1.021476327343239e+000	-1.952406191423262e+001
1	 4.643938314314838e-001	 1.026503929131870e+000	-1.931336022620724e+001
1	 4.534054935178530e-001	 1.031404566429793e+000	-1.908969905822600e+001
1	 4.423875916642177e-001	 1.036178125106425e+000	-1.885358631763452e+001
1	 5.542402794201589e-001	 9.885619491647812e-001	-2.083842882044502e+001
1	 5.435021060254973e-001	 9.945061633163864e-001	-2.073341964588927e+001
1	 5.327170078595428e-001	 1.000324778960203e+000	-2.061283914270668e+001
1	 5.218871345191708e-001	 1.006017351124409e+000	-2.047696294527217e+001
1	 5.110146377703451e-001	 1.011583482668233e+000	-2.032610678348966e+001
1	 5.001016702530481e-001	 1.017022824127247e+000	-2.016062473611985e+001
1	 4.891503841983314e-001	 1.022335073517847e+000	-1.998090744671390e+001
1	 4.781629301589312e-001	 1.027519976101599e+000	-1.978738030660240e+001
1	 4.671414557548592e-001	 1.032577324110273e+000	-1.958050160939397e+001
1	 4.560881044353323e-001	 1.037506956432366e+000	-1.936076068141845e+001
1	 4.450050142583599e-001	 1.042308758262027e+000	-1.912867599252823e+001
1	 4.188306803346252e-001	 9.810021738431126e-001	-1.639455729321848e+001
1	 4.083719220012180e-001	 9.854018174027490e-001	-1.611930067661138e+001
1	 3.978891724756005e-001	 9.896810269996651e-001	-1.584101451900450e+001
1	 3.873844235061284e-001	 9.938398237888120e-001	-1.556067562909068e+001
1	 3.768596573328685e-001	 9.978782708743236e-001	-1.527928608123050e+001
1	 3.663168456381126e-001	 1.001796472814765e+000	-1.499787019918788e+001
1	 3.557579485199885e-001	 1.005594575098846e+000	-1.471747155944441e+001
1	 3.451849134900506e-001	 1.009272763592686e+000	-1.443915002005202e+001
1	 3.345996744956820e-001	 1.012831263959774e+000	-1.416397878079507e+001
1	 3.240041509680921e-001	 1.016270341054748e+000	-1.389304148021651e+001
1	 3.134002468966224e-001	 1.019590298292188e+000	-1.362742933484084e+001
1	 4.214481323763099e-001	 9.871328759618585e-001	-1.666529042043107e+001
1	 4.109240127892444e-001	 9.915600147754914e-001	-1.639308695284588e+001
1	 4.003757520787162e-001	 9.958659669831210e-001	-1.611795493761537e+001
1	 3.898053544403731e-001	 1.000050753871897e+000	-1.584085528426704e+001
1	 3.792148145021522e-001	 1.004114438940307e+000	-1.556277435373967e+001
1	 3.686061162682363e-001	 1.008057127400339e+000	-1.528472093947051e+001
1	 3.579812320862494e-001	 1.011878965649916e+000	-1.500772326792452e+001
1	 3.473421216385829e-001	 1.015580140716707e+000	-1.473282602454752e+001
1	 3.366907309586892e-001	 1.019160879674458e+000	-1.446108741093173e+001
1	 3.260289914731288e-001	 1.022621449032989e+000	-1.419357623876257e+001
1	 3.153588190700908e-001	 1.025962154103038e+000	-1.393136906589549e+001
1	 4.240655785290188e-001	 9.932635642878446e-001	-1.693685085876992e+001
1	 4.134760978353049e-001	 9.977181982937292e-001	-1.666782466584135e+001
1	 4.028623260872159e-001	 1.002050893051997e+000	-1.639598997678388e+001
1	 3.922262799276642e-001	 1.006261669981995e+000	-1.612228901198035e+001
1	 3.815699663724302e-001	 1.010350592976570e+000	-1.584768960759443e+001
1	 3.708953817475604e-001	 1.014317767901131e+000	-1.557318219918039e+001
1	 3.602045106501483e-001	 1.018163342062815e+000	-1.529977682453719e+001
1	 3.494993249333951e-001	 1.021887503650835e+000	-1.502850015179775e+001
1	 3.387817827167959e-001	 1.025490481149196e+000	-1.476039253854472e+001
1	 3.280538274222357e-001	 1.028972542722900e+000	-1.449650512753669e+001
1	 3.173173868367261e-001	 1.032333995578839e+000	-1.423789698439946e+001
1	 4.266830194470083e-001	 9.993942403536176e-001	-1.720914786114430e+001
1	 4.160281777773232e-001	 1.003876369496865e+000	-1.694342465587321e+001
1	 4.053488951226542e-001	 1.008235806752366e+000	-1.667503140818161e+001
1	 3.946472005731538e-001	 1.012472573671668e+000	-1.640488891034306e+001
1	 3.839251135324219e-001	 1.016586734541975e+000	-1.613394371352312e+001
1	 3.731846426483436e-001	 1.020578395882120e+000	-1.586316511903649e+001
1	 3.624277847674572e-001	 1.024447705908449e+000	-1.559354218858426e+001
1	 3.516565239137509e-001	 1.028194853971724e+000	-1.532608077946223e+001
1	 3.408728302927376e-001	 1.031820069966206e+000	-1.506180061053022e+001
1	 3.300786593216035e-001	 1.035323623712072e+000	-1.480173236452705e+001
1	 3.192759506861582e-001	 1.038705824312371e+000	-1.454691483208778e+001
1	 4.293004557845356e-001	 1.005524905691726e+000	-1.748209289209946e+001
1	 4.185802532532224e-001	 1.010034529924301e+000	-1.721979993583580e+001
1	 4.078354598065852e-001	 1.014420709630302e+000	-1.695499315305847e+001
1	 3.970681169819942e-001	 1.018683466493476e+000	-1.668856921874037e+001
1	 3.862802565708464e-001	 1.022822865195385e+000	-1.642145068871509e+001
1	 3.754738995428442e-001	 1.026839012908283e+000	-1.615458300365503e+001
1	 3.646510549939495e-001	 1.030732058757729e+000	-1.588893151170328e+001
1	 3.538137191189149e-001	 1.034502193256031e+000	-1.562547851573421e+001
1	 3.429638742092505e-001	 1.038149647707703e+000	-1.536522035103268e+001
1	 3.321034876774223e-001	 1.041674693588099e+000	-1.510916449896046e+001
1	 3.212345111080173e-001	 1.045077641896419e+000	-1.485832674196596e+001
1	 4.319178881958571e-001	 1.011655561834715e+000	-1.775559956090160e+001
1	 4.211323249009261e-001	 1.016192681115441e+000	-1.749686562550156e+001
1	 4.103220207605630e-001	 1.020605603231880e+000	-1.723579121719175e+001
1	 3.994890297593371e-001	 1.024894349999979e+000	-1.697324625302362e+001
1	 3.886353960764227e-001	 1.029058986495659e+000	-1.671012663184721e+001
1	 3.777631530033208e-001	 1.033099620544599e+000	-1.644735125603883e+001
1	 3.668743218853973e-001	 1.037016402181564e+000	-1.618585907148546e+001
1	 3.559709110881511e-001	 1.040809523080410e+000	-1.592660613179047e+001
1	 3.450549149890705e-001	 1.044479215955903e+000	-1.567056269246763e+001
1	 3.341283129958824e-001	 1.048025753938572e+000	-1.541871034067912e+001
1	 3.231930685919333e-001	 1.051449449923766e+000	-1.517203916585783e+001
1	 4.345353173352294e-001	 1.017786210315132e+000	-1.802958355704309e+001
1	 4.236843933583577e-001	 1.022350824609688e+000	-1.777453888816084e+001
1	 4.128085786061422e-001	 1.026790489103172e+000	-1.751734362819185e+001
1	 4.019099395103344e-001	 1.031105225743738e+000	-1.725883834304916e+001
1	 3.909905326378698e-001	 1.035295100001661e+000	-1.699988966046357e+001
1	 3.800524036020315e-001	 1.039360220356044e+000	-1.674138731443644e+001
1	 3.690975859975734e-001	 1.043300737750864e+000	-1.648424120749561e+001
1	 3.581281003607238e-001	 1.047116845021517e+000	-1.622937849668628e+001
1	 3.471459531549336e-001	 1.050808776293024e+000	-1.597774070904332e+001
1	 3.361531357831746e-001	 1.054376806351084e+000	-1.573028089207551e+001
1	 3.251516236275363e-001	 1.057821249987196e+000	-1.548796080457721e+001
1	 4.371527438569091e-001	 1.023916852665525e+000	-1.830396258806889e+001
1	 4.262364592634405e-001	 1.028508961946442e+000	-1.805273886953905e+001
1	 4.152951339648769e-001	 1.032975368790253e+000	-1.779957037506049e+001
1	 4.043308468401381e-001	 1.037316095277311e+000	-1.754526577246445e+001
1	 3.933456668439073e-001	 1.041531207272252e+000	-1.729065985060542e+001
1	 3.823416519112351e-001	 1.045620813907598e+000	-1.703661059147476e+001
1	 3.713208478862504e-001	 1.049585067036537e+000	-1.678399625959388e+001
1	 3.602852874758973e-001	 1.053424160656007e+000	-1.653371251459142e+001
1	 3.492369892295755e-001	 1.057138330301280e+000	-1.628666955267129e+001
1	 3.381779565454889e-001	 1.060727852413227e+000	-1.604378928247283e+001
1	 3.271101767044565e-001	 1.064193043679492e+000	-1.580600254060994e+001
1	 4.397701684151532e-001	 1.030047490418441e+000	-1.857865631962414e+001
1	 4.287885232540980e-001	 1.034667094665108e+000	-1.833138663889920e+001
1	 4.177816874583216e-001	 1.039160243839196e+000	-1.808239334991264e+001
1	 4.067517523539002e-001	 1.043526960153260e+000	-1.783245072064555e+001
1	 3.957007992832537e-001	 1.047767309866293e+000	-1.758235917860148e+001
1	 3.846308985031899e-001	 1.051881402764238e+000	-1.733294241546513e+001
1	 3.735441081072007e-001	 1.055869391609492e+000	-1.708504450846123e+001
1	 3.624424729729358e-001	 1.059731471560536e+000	-1.683952706427068e+001
1	 3.513280237357326e-001	 1.063467879562889e+000	-1.659726639116936e+001
1	 3.402027757890156e-001	 1.067078893712594e+000	-1.635915070485424e+001
1	 3.290687283123237e-001	 1.070564832593438e+000	-1.612607737320229e+001
1	 4.423875916642177e-001	 1.036178125106425e+000	-1.885358631763452e+001
1	 4.313405859682536e-001	 1.040825224305087e+000	-1.861040513223614e+001
1	 4.202682397080302e-001	 1.045345115796075e+000	-1.836573629176681e+001
1	 4.091726566567727e-001	 1.049737821924144e+000	-1.812031720669993e+001
1	 3.980559305446286e-001	 1.054003409342645e+000	-1.787491146492538e+001
1	 3.869201439501546e-001	 1.058141988490943e+000	-1.763030597379790e+001
1	 3.757673672161970e-001	 1.062153713040640e+000	-1.738730811824102e+001
1	 3.645996573911035e-001	 1.066038779311758e+000	-1.714674294071526e+001
1	 3.534190571961403e-001	 1.069797425660067e+000	-1.690945034866156e+001
1	 3.422275940199455e-001	 1.073429931836776e+000	-1.667628235483842e+001
1	 3.310272789407683e-001	 1.076936618321817e+000	-1.644810035575781e+001
1	 4.450050142583599e-001	 1.042308758262027e+000	-1.912867599252823e+001
1	 4.338926480438308e-001	 1.046983352405783e+000	-1.888971909748000e+001
1	 4.227547913355574e-001	 1.051529986206963e+000	-1.864952473232403e+001
1	 4.115935603539075e-001	 1.055948682142524e+000	-1.840879103544647e+001
1	 4.004110612167509e-001	 1.060239507260171e+000	-1.816824232003884e+001
1	 3.892093888243872e-001	 1.064402572652689e+000	-1.792862625833556e+001
1	 3.779906257690123e-001	 1.068438032900888e+000	-1.769071108120489e+001
1	 3.667568412696644e-001	 1.072346085486329e+000	-1.745528279883667e+001
1	 3.555100901335350e-001	 1.076126970175029e+000	-1.722314244808250e+001
1	 3.442524117444684e-001	 1.079780968373366e+000	-1.699510337181398e+001
1	 3.329858290794200e-001	 1.083308402457412e+000	-1.677198853544555e+001
1	 3.134002468966224e-001	 1.019590298292188e+000	-1.362742933484084e+001
1	 3.027898497785945e-001	 1.022791476736971e+000	-1.336950811407128e+001
1	 2.921748293092217e-001	 1.025874253664687e+000	-1.312163886817493e+001
1	 2.815570370197590e-001	 1.028839042630564e+000	-1.288491039404100e+001
1	 2.709383056183087e-001	 1.031686293007040e+000	-1.266041009755457e+001
1	 2.603204482043598e-001	 1.034416489247346e+000	-1.244922119679876e+001
1	 2.497052575127223e-001	 1.037030150131326e+000	-1.225241999674567e+001
1	 2.390945051871896e-001	 1.039527827994735e+000	-1.207107323942635e+001
1	 2.284899410842091e-001	 1.041910107943235e+000	-1.190623553328362e+001
1	 2.178932926067863e-001	 1.044177607052323e+000	-1.175894686510929e+001
1	 2.073062640687906e-001	 1.046330973554413e+000	-1.163023019768048e+001
1	 3.153588190700908e-001	 1.025962154103038e+000	-1.393136906589549e+001
1	 3.046821130426786e-001	 1.029183338080941e+000	-1.367684296286929e+001
1	 2.940007547706283e-001	 1.032285380600046e+000	-1.343236271576898e+001
1	 2.833166073562019e-001	 1.035268697800079e+000	-1.319899147040911e+001
1	 2.726315149608755e-001	 1.038133741861805e+000	-1.297779129881758e+001
1	 2.619473020149687e-001	 1.040881000266023e+000	-1.276982041292323e+001
1	 2.512657724568546e-001	 1.043510995034661e+000	-1.257613044916510e+001
1	 2.405887090020832e-001	 1.046024281955267e+000	-1.239776382801851e+001
1	 2.299178724427003e-001	 1.048421449790087e+000	-1.223575119214068e+001
1	 2.192550009769878e-001	 1.050703119470998e+000	-1.209110892654223e+001
1	 2.086018095697990e-001	 1.052869943281504e+000	-1.196483676390243e+001
1	 3.173173868367261e-001	 1.032333995578839e+000	-1.423789698439946e+001
1	 3.065743720491249e-001	 1.035575185044799e+000	-1.398695430711035e+001
1	 2.958266761236638e-001	 1.038696493111893e+000	-1.374604534142772e+001
1	 2.850761737335840e-001	 1.041698338504331e+000	-1.351620760543936e+001
1	 2.743247204937078e-001	 1.044581176211209e+000	-1.329847786254620e+001
1	 2.635741521651586e-001	 1.047345496740881e+000	-1.309388934565348e+001
1	 2.528262838898459e-001	 1.049991825357360e+000	-1.290346905171908e+001
1	 2.420829094550495e-001	 1.052520721299978e+000	-1.272823511064978e+001
1	 2.313458005883873e-001	 1.054932776987559e+000	-1.256919423225490e+001
1	 2.206167062833924e-001	 1.057228617208352e+000	-1.242733923466187e+001
1	 2.098973521558755e-001	 1.059408898296943e+000	-1.230364665732020e+001
1	 3.192759506861582e-001	 1.038705824312371e+000	-1.454691483208778e+001
1	 3.084666272709912e-001	 1.041967019226337e+000	-1.429974129874338e+001
1	 2.976525938248045e-001	 1.045107592802839e+000	-1.406258329241066e+001
1	 2.868357365917950e-001	 1.048127966350573e+000	-1.383645272468604e+001
1	 2.760179226401069e-001	 1.051028597666957e+000	-1.362236107348867e+001
1	 2.652009990616432e-001	 1.053809980287900e+000	-1.342131661778069e+001
1	 2.543867922018261e-001	 1.056472642719491e+000	-1.323432174207089e+001
1	 2.435771069196422e-001	 1.059017147652842e+000	-1.306237031470139e+001
1	 2.327737258782583e-001	 1.061444091163351e+000	-1.290644514362163e+001
1	 2.219784088664359e-001	 1.063754101895628e+000	-1.276751551306237e+001
1	 2.111928921509208e-001	 1.065947840235338e+000	-1.264653480423688e+001
1	 3.212345111080173e-001	 1.045077641896419e+000	-1.485832674196596e+001
1	 3.103588791813350e-001	 1.048358842223344e+000	-1.461510554380132e+001
1	 2.994785083305274e-001	 1.051518681275496e+000	-1.438187563325175e+001
1	 2.885952963707255e-001	 1.054557582946055e+000	-1.415962333459527e+001
1	 2.777111218233742e-001	 1.057476007840754e+000	-1.394933486138448e+001
1	 2.668278431111357e-001	 1.060274452523056e+000	-1.375199356171560e+001
1	 2.559472977829249e-001	 1.062953448741120e+000	-1.356857723271200e+001
1	 2.450713017694148e-001	 1.065513562637832e+000	-1.340005550821883e+001
1	 2.342016486693010e-001	 1.067955393945159e+000	-1.324738732341310e+001
1	 2.233401090665539e-001	 1.070279575164070e+000	-1.311151845975031e+001
1	 2.124884298788351e-001	 1.072486770731300e+000	-1.299337917337234e+001
1	 3.231930685919333e-001	 1.051449449923766e+000	-1.517203916585783e+001
1	 3.122511282532141e-001	 1.054750655633610e+000	-1.493295102803626e+001
1	 3.013044200973088e-001	 1.057929760132478e+000	-1.470382386946988e+001
1	 2.903548535102650e-001	 1.060987189898027e+000	-1.448561844428135e+001
1	 2.794043184668104e-001	 1.063923408344307e+000	-1.427929572078748e+001
1	 2.684546847203496e-001	 1.066738915062326e+000	-1.408581413734432e+001
1	 2.575078010232722e-001	 1.069434245042312e+000	-1.390612692683332e+001
1	 2.465654943779210e-001	 1.072009967878922e+000	-1.374117951378066e+001
1	 2.356295693185036e-001	 1.074466686960685e+000	-1.359190698782423e+001
1	 2.247018072241827e-001	 1.076805038644923e+000	-1.345923165694537e+001
1	 2.137839656635190e-001	 1.079025691419437e+000	-1.334406068359668e+001
1	 3.251516236275363e-001	 1.057821249987196e+000	-1.548796080457721e+001
1	 3.141433749596864e-001	 1.061142461054926e+000	-1.525318404524668e+001
1	 3.031303295816258e-001	 1.064340830976396e+000	-1.502833187404133e+001
1	 2.921144084503036e-001	 1.067416788813741e+000	-1.481433949012927e+001
1	 2.810975129937172e-001	 1.070370800789321e+000	-1.461214263378911e+001
1	 2.700815242959982e-001	 1.073203369521688e+000	-1.442267485285787e+001
1	 2.590683023129978e-001	 1.075915033243134e+000	-1.424686483724154e+001
1	 2.480596851187144e-001	 1.078506365000086e+000	-1.408563382548425e+001
1	 2.370574881828540e-001	 1.080977971837627e+000	-1.393989308710816e+001
1	 2.260635036797577e-001	 1.083330493969430e+000	-1.381054148414642e+001
1	 2.150794998288730e-001	 1.085564603934357e+000	-1.369846311500374e+001
1	 3.271101767044565e-001	 1.064193043679492e+000	-1.580600254060994e+001
1	 3.160356197738095e-001	 1.067534260085082e+000	-1.557571312818060e+001
1	 3.049562372399546e-001	 1.070751895409864e+000	-1.535530581651535e+001
1	 2.938739616307314e-001	 1.073846381300447e+000	-1.514569026311331e+001
1	 2.827907058273956e-001	 1.076818186787501e+000	-1.494777699552416e+001
1	 2.717083622447951e-001	 1.079667817517119e+000	-1.476247468842723e+001
1	 2.606288020422317e-001	 1.082395814963654e+000	-1.459068750819177e+001
1	 2.495538743653485e-001	 1.085002755625296e+000	-1.443331252891785e+001
1	 2.384854056193399e-001	 1.087489250203683e+000	-1.429123722366905e+001
1	 2.274251987737151e-001	 1.089855942768836e+000	-1.416533703432336e+001
1	 2.163750326987971e-001	 1.092103509910670e+000	-1.405647302318172e+001
1	 3.290687283123237e-001	 1.070564832593438e+000	-1.612607737320229e+001
1	 3.179278631686414e-001	 1.073926054321867e+000	-1.590044898191195e+001
1	 3.067821435287722e-001	 1.077162955035492e+000	-1.568465409466625e+001
1	 2.956335134914387e-001	 1.080275968965396e+000	-1.547957683871196e+001
1	 2.844838973911467e-001	 1.083265567950552e+000	-1.528610254233703e+001
1	 2.733351989734535e-001	 1.086132260664596e+000	-1.510511502260931e+001
1	 2.621893006011032e-001	 1.088876591823937e+000	-1.493749394001513e+001
1	 2.510480624913770e-001	 1.091499141378525e+000	-1.478411222399349e+001
1	 2.399133219849494e-001	 1.094000523686553e+000	-1.464583357308228e+001
1	 2.287868928464905e-001	 1.096381386674383e+000	-1.452351003310688e+001
1	 2.176705645971922e-001	 1.098642410982984e+000	-1.441797965654935e+001
1	 3.310272789407683e-001	 1.076936618321817e+000	-1.644810035575781e+001
1	 3.198201056172395e-001	 1.080317845363071e+000	-1.622730441958318e+001
1	 3.086080489045549e-001	 1.083574011455895e+000	-1.601628726857315e+001
1	 2.973930644723152e-001	 1.086705553415838e+000	-1.581590750931450e+001
1	 2.861770881082719e-001	 1.089712945890182e+000	-1.562702528250198e+001
1	 2.749620348886869e-001	 1.092596700580097e+000	-1.545049956136821e+001
1	 2.637497983797427e-001	 1.095357365444050e+000	-1.528718551642603e+001
1	 2.525422498703536e-001	 1.097995523883749e+000	-1.513793195052252e+001
1	 2.413412376366703e-001	 1.100511793913938e+000	-1.500357880792208e+001
1	 2.301485862385199e-001	 1.102906827317317e+000	-1.488495476084807e+001
1	 2.189660958479585e-001	 1.105181308785909e+000	-1.478287487663178e+001
1	 3.329858290794200e-001	 1.083308402457412e+000	-1.677198853544555e+001
1	 3.217123475926619e-001	 1.086709634806486e+000	-1.655619430041861e+001
1	 3.104339538237796e-001	 1.089985066273683e+000	-1.635011799702943e+001
1	 2.991526150132510e-001	 1.093135136259025e+000	-1.615459271901602e+001
1	 2.878702784020723e-001	 1.096160322218095e+000	-1.597045342939282e+001
1	 2.765888703972086e-001	 1.099061138879599e+000	-1.579853426960329e+001
1	 2.653102957682797e-001	 1.101838137444058e+000	-1.563966593439556e+001
1	 2.540364368758318e-001	 1.104491904764940e+000	-1.549467311642214e+001
1	 2.427691529314908e-001	 1.107023062513534e+000	-1.536437202428128e+001
1	 2.315102792902392e-001	 1.109432266328881e+000	-1.524956797743493e+001
1	 2.202616267749964e-001	 1.111720204954052e+000	-1.515105308115093e+001
1	 2.073062640687906e-001	 1.046330973554413e+000	-1.163023019768048e+001
1	 1.967321210341483e-001	 1.048370588664549e+000	-1.152060429129361e+001
1	 1.861709283643863e-001	 1.050297492397054e+000	-1.143063793650639e+001
1	 1.756243145063029e-001	 1.052112422007309e+000	-1.136145015613360e+001
1	 1.650938826503424e-001	 1.053816142520104e+000	-1.131413374272739e+001
1	 1.545812102484206e-001	 1.055409445871443e+000	-1.128975323598610e+001
1	 1.440878485620557e-001	 1.056893150044585e+000	-1.128934300007790e+001
1	 1.336153222406547e-001	 1.058268098201429e+000	-1.131390540205638e+001
1	 1.231651289297503e-001	 1.059535157810359e+000	-1.136440909227758e+001
1	 1.127387389089458e-001	 1.060695219771598e+000	-1.144178738745152e+001
1	 1.023375947592949e-001	 1.061749197541143e+000	-1.154693675670950e+001
1	 2.086018095697990e-001	 1.052869943281504e+000	-1.196483676390243e+001
1	 1.979615841929645e-001	 1.054922304819027e+000	-1.185743807737444e+001
1	 1.873343901133681e-001	 1.056861250597369e+000	-1.176947805234353e+001
1	 1.767218659546793e-001	 1.058687522479315e+000	-1.170206946688213e+001
1	 1.661256249263771e-001	 1.060401890270602e+000	-1.165629896457197e+001
1	 1.555472543385593e-001	 1.062005150856360e+000	-1.163322501799831e+001
1	 1.449883151472520e-001	 1.063498127331754e+000	-1.163387599263792e+001
1	 1.344503415300592e-001	 1.064881668127946e+000	-1.165924831233486e+001
1	 1.239348404919513e-001	 1.066156646134478e+000	-1.171030472728684e+001
1	 1.134432915009482e-001	 1.067323957819171e+000	-1.178797268518772e+001
1	 1.029771461534198e-001	 1.068384522346582e+000	-1.189314280591747e+001
1	 2.098973521558755e-001	 1.059408898296943e+000	-1.230364665732020e+001
1	 1.991910445855255e-001	 1.061474006233129e+000	-1.219860360952001e+001
1	 1.884978492445812e-001	 1.063424994030176e+000	-1.211276899768547e+001
1	 1.778194149335623e-001	 1.065262608158258e+000	-1.204724667303406e+001
1	 1.671573648809590e-001	 1.066987623204044e+000	-1.200311449688090e+001
1	 1.565132962550305e-001	 1.068600841001780e+000	-1.198142229338685e+001
1	 1.458887797062889e-001	 1.070103089758522e+000	-1.198318990301712e+001
1	 1.352853589405142e-001	 1.071495223174678e+000	-1.200940533792173e+001
1	 1.247045503220943e-001	 1.072778119560937e+000	-1.206102304017174e+001
1	 1.141478425074453e-001	 1.073952680952703e+000	-1.213896224350977e+001
1	 1.036166961082335e-001	 1.075019832223076e+000	-1.224410543901523e+001
1	 2.111928921509208e-001	 1.065947840235338e+000	-1.264653480423688e+001
1	 2.004205025192180e-001	 1.068025694544651e+000	-1.254397304309455e+001
1	 1.896613060489215e-001	 1.069988724336277e+000	-1.246038027346941e+001
1	 1.789169617173798e-001	 1.071837680687771e+000	-1.239684878595521e+001
1	 1.681891027720755e-001	 1.073573342966726e+000	-1.235444507401291e+001
1	 1.574793362394091e-001	 1.075196517956486e+000	-1.233420777911061e+001
1	 1.467892424643598e-001	 1.076708038975992e+000	-1.233714573672962e+001
1	 1.361203746808647e-001	 1.078108764994883e+000	-1.236423612446516e+001
1	 1.254742586127105e-001	 1.079399579744983e+000	-1.241642271316496e+001
1	 1.148523921046915e-001	 1.080581390829265e+000	-1.249461422177894e+001
1	 1.042562447837527e-001	 1.081655128829361e+000	-1.259968277632869e+001
1	 2.124884298788351e-001	 1.072486770731300e+000	-1.299337917337234e+001
1	 2.016499583014293e-001	 1.074577371391386e+000	-1.289342164325726e+001
1	 1.908247608172844e-001	 1.076552443156474e+000	-1.281218455498404e+001
1	 1.800145065805603e-001	 1.078412741711491e+000	-1.275074605191989e+001
1	 1.692208388577141e-001	 1.080159051204941e+000	-1.271015872063419e+001
1	 1.584453745332703e-001	 1.081792183369263e+000	-1.269144753153286e+001
1	 1.476897036466583e-001	 1.083312976635267e+000	-1.269560788036165e+001
1	 1.369553889599555e-001	 1.084722295241816e+000	-1.272360373181306e+001
1	 1.262439655563312e-001	 1.086021028341859e+000	-1.277636586619498e+001
1	 1.155569404689415e-001	 1.087210089105928e+000	-1.285479022984573e+001
1	 1.048957923399940e-001	 1.088290413824173e+000	-1.295973638971025e+001
1	 2.137839656635190e-001	 1.079025691419437e+000	-1.334406068359668e+001
1	 2.028794122395463e-001	 1.081129038411128e+000	-1.324682769064797e+001
1	 1.919882138405655e-001	 1.083116152131570e+000	-1.316805759559206e+001
1	 1.811120497975321e-001	 1.084987792873053e+000	-1.310881185399492e+001
1	 1.702525733958621e-001	 1.086744749564987e+000	-1.307012665191903e+001
1	 1.594114113781895e-001	 1.088387838888894e+000	-1.305301084513043e+001
1	 1.485901634783784e-001	 1.089917904387450e+000	-1.305844399901444e+001
1	 1.377904019866320e-001	 1.091335815568734e+000	-1.308737453045029e+001
1	 1.270136713454877e-001	 1.092642467006809e+000	-1.314071795261228e+001
1	 1.162614877764496e-001	 1.093838777439760e+000	-1.321935522338798e+001
1	 1.055353389369740e-001	 1.094925688866247e+000	-1.332413119784680e+001
1	 2.150794998288730e-001	 1.085564603934357e+000	-1.369846311500374e+001
1	 2.041088646409562e-001	 1.087680697241672e+000	-1.360407239048565e+001
1	 1.931516654096602e-001	 1.089679852902368e+000	-1.352787813393820e+001
1	 1.822095916427233e-001	 1.091562835816092e+000	-1.347092261747213e+001
1	 1.712843066445071e-001	 1.093330439693156e+000	-1.343422317736142e+001
1	 1.603774470157416e-001	 1.094983486164163e+000	-1.341877015486745e+001
1	 1.494906221847134e-001	 1.096522823883646e+000	-1.342552493745816e+001
1	 1.386254139697389e-001	 1.097949327628892e+000	-1.345541810168438e+001
1	 1.277833761727113e-001	 1.099263897395078e+000	-1.350934765868629e+001
1	 1.169660342034704e-001	 1.100467457487831e+000	-1.358817740303693e+001
1	 1.061748847347095e-001	 1.101560955614318e+000	-1.369273536535826e+001
1	 2.163750326987971e-001	 1.092103509910670e+000	-1.405647302318172e+001
1	 2.053383158130456e-001	 1.094232349520812e+000	-1.396503978493705e+001
1	 1.943151158154642e-001	 1.096243547109668e+000	-1.389152780449397e+001
1	 1.833071323905622e-001	 1.098137872184242e+000	-1.383695771870416e+001
1	 1.723160388616364e-001	 1.099916123235746e+000	-1.380232560804543e+001
1	 1.613434816875018e-001	 1.101579126843854e+000	-1.378860094208032e+001
1	 1.503910799908571e-001	 1.103127736774956e+000	-1.379672462484249e+001
1	 1.394604251181213e-001	 1.104562833075548e+000	-1.382760714141962e+001
1	 1.285530802305333e-001	 1.105885321161910e+000	-1.388212680672005e+001
1	 1.176705799262583e-001	 1.107096130907213e+000	-1.396112811713096e+001
1	 1.068144298932171e-001	 1.108196215727121e+000	-1.406542020552334e+001
1	 2.176705645971922e-001	 1.098642410982984e+000	-1.441797965654935e+001
1	 2.065677660632019e-001	 1.100783996886342e+000	-1.432961666861766e+001
1	 1.954785653488730e-001	 1.102807236394275e+000	-1.425889105130182e+001
1	 1.844046723154772e-001	 1.104712903621141e+000	-1.420679939719936e+001
1	 1.733477703052373e-001	 1.106501801839048e+000	-1.417431416723234e+001
1	 1.623095156350454e-001	 1.108174762576749e+000	-1.416238164372894e+001
1	 1.512915371220032e-001	 1.109732644712485e+000	-1.417191998281222e+001
1	 1.402954356406242e-001	 1.111176333561957e+000	-1.420381736737456e+001
1	 1.293227837114848e-001	 1.112506739962549e+000	-1.425893026162632e+001
1	 1.183751251210679e-001	 1.113724799354973e+000	-1.433808176794624e+001
1	 1.074539745725135e-001	 1.114831470863391e+000	-1.444206008648525e+001
1	 2.189660958479585e-001	 1.105181308785909e+000	-1.478287487663178e+001
1	 2.077972156988120e-001	 1.107335640976057e+000	-1.469769250709711e+001
1	 1.966420143007822e-001	 1.109370922396989e+000	-1.462985504478432e+001
1	 1.855022116918965e-001	 1.111287931770422e+000	-1.458033267084061e+001
1	 1.743795012332975e-001	 1.113087477149361e+000	-1.455007190412500e+001
1	 1.632755490999475e-001	 1.114770395011633e+000	-1.453999356487084e+001
1	 1.521919938033452e-001	 1.116337549347337e+000	-1.455099083689044e+001
1	 1.411304457460926e-001	 1.117789830741375e+000	-1.458392742959368e+001
1	 1.300924868080972e-001	 1.119128155452241e+000	-1.463963584082696e+001
1	 1.190796699641537e-001	 1.120353464488183e+000	-1.471891572126040e+001
1	 1.080935189326152e-001	 1.121466722681864e+000	-1.482253234078916e+001
1	 2.202616267749964e-001	 1.111720204954052e+000	-1.515105308115093e+001
1	 2.090266650272629e-001	 1.113887283427750e+000	-1.506915935828307e+001
1	 1.978054629620872e-001	 1.115934606758614e+000	-1.500430960149216e+001
1	 1.865997507942484e-001	 1.117862958275722e+000	-1.495744525410034e+001
1	 1.754112319038042e-001	 1.119673150812978e+000	-1.492948461067917e+001
1	 1.642415823237833e-001	 1.121366025797290e+000	-1.492132079423160e+001
1	 1.530924502600770e-001	 1.122942452330613e+000	-1.493381983099162e+001
1	 1.419654556433717e-001	 1.124403326267059e+000	-1.496781882412440e+001
1	 1.308621897129018e-001	 1.125749569286229e+000	-1.502412422733329e+001
1	 1.197842146317700e-001	 1.126982127963913e+000	-1.510351021911166e+001
1	 1.087330631335390e-001	 1.128101972841276e+000	-1.520671717811748e+001
1	 1.023375947592949e-001	 1.061749197541143e+000	-1.154693675670950e+001
1	 9.196156041119188e-002	 1.062698160787635e+000	-1.168015308395781e+001
1	 8.161360287930819e-002	 1.063542900019065e+000	-1.184178338290158e+001
1	 7.129510139779745e-002	 1.064284391785943e+000	-1.203279439397429e+001
1	 6.100740579791999e-002	 1.064923631719467e+000	-1.225410987459961e+001
1	 5.075183632053588e-002	 1.065461633653999e+000	-1.250660967117383e+001
1	 4.052968345630113e-002	 1.065899428754169e+000	-1.279112888657360e+001
1	 3.034220781303463e-002	 1.066238064647488e+000	-1.310845714188948e+001
1	 2.019064000970140e-002	 1.066478604563256e+000	-1.345933793092141e+001
1	 1.007618059643524e-002	 1.066622126478576e+000	-1.384446806582094e+001
1	 0.000000000000000e+000	 1.066669722272222e+000	-1.426449721211760e+001
1	 1.029771461534198e-001	 1.068384522346582e+000	-1.189314280591747e+001
1	 9.253626752940741e-002	 1.069339416070155e+000	-1.202610799451322e+001
1	 8.212364118570643e-002	 1.070189434438125e+000	-1.218722465213999e+001
1	 7.174065497586926e-002	 1.070935560103909e+000	-1.237747208031549e+001
1	 6.138866716680423e-002	 1.071578794920858e+000	-1.259778644323850e+001
1	 5.106900625009653e-002	 1.072120159059240e+000	-1.284905980707241e+001
1	 4.078297078120607e-002	 1.072560690127902e+000	-1.313213927622986e+001
1	 3.053182924600528e-002	 1.072901442301451e+000	-1.344782622536789e+001
1	 2.031681995409991e-002	 1.073143485453786e+000	-1.379687562564168e+001
1	 1.013915095835196e-002	 1.073287904298776e+000	-1.417999546360191e+001
1	 0.000000000000000e+000	 1.073335797538833e+000	-1.459784625097517e+001
1	 1.036166961082335e-001	 1.075019832223076e+000	-1.224410543901523e+001
1	 9.311097335415065e-002	 1.075980656410289e+000	-1.237674184055351e+001
1	 8.263367834408004e-002	 1.076835953902812e+000	-1.253723745524311e+001
1	 7.218620755096009e-002	 1.077586713456961e+000	-1.272658330378968e+001
1	 6.176992767733443e-002	 1.078233943148229e+000	-1.294572714176820e+001
1	 5.138617546550141e-002	 1.078778669482785e+000	-1.319557246683653e+001
1	 4.103625753571286e-002	 1.079221936513682e+000	-1.347697762436954e+001
1	 3.072145025188322e-002	 1.079564804962612e+000	-1.379075501023938e+001
1	 2.044299961424778e-002	 1.079808351348064e+000	-1.413767036929353e+001
1	 1.020212117838581e-002	 1.079953667120660e+000	-1.451844218792292e+001
1	 0.000000000000000e+000	 1.080001857806444e+000	-1.493374117896024e+001
1	 1.042562447837527e-001	 1.081655128829361e+000	-1.259968277632869e+001
1	 9.368567802923879e-002	 1.082621883468279e+000	-1.273191301394764e+001
1	 8.314371448208845e-002	 1.083482460074716e+000	-1.289168057730199e+001
1	 7.263175923461414e-002	 1.084237853507879e+000	-1.307998738350709e+001
1	 6.215118742498331e-002	 1.084889078065393e+000	-1.329779198296109e+001
1	 5.170334404619593e-002	 1.085437166589321e+000	-1.354600853510550e+001
1	 4.128954378328468e-002	 1.085883169576908e+000	-1.382550588397498e+001
1	 3.091107087819527e-002	 1.086228154296925e+000	-1.413710673227270e+001
1	 2.056917902178206e-002	 1.086473203912440e+000	-1.448158691253182e+001
1	 1.026509127233133e-002	 1.086619416610818e+000	-1.485967475376231e+001
1	 0.000000000000000e+000	 1.086667904741722e+000	-1.527205054182415e+001
1	 1.048957923399940e-001	 1.088290413824173e+000	-1.295973638971025e+001
1	 9.426038169848888e-002	 1.089263098904368e+000	-1.309148335159859e+001
1	 8.365374972739097e-002	 1.090128954615429e+000	-1.325041623902832e+001
1	 7.307731013837572e-002	 1.090888981919444e+000	-1.343754706139793e+001
1	 6.253244650522352e-002	 1.091544201336163e+000	-1.365384438576121e+001
1	 5.202051207162541e-002	 1.092095652043531e+000	-1.390023228174305e+001
1	 4.154282958738469e-002	 1.092544390982978e+000	-1.417758936755967e+001
1	 3.110069117246825e-002	 1.092891491970343e+000	-1.448674795589015e+001
1	 2.069535820833976e-002	 1.093138044813263e+000	-1.482849329817335e+001
1	 1.032806125598304e-002	 1.093285154435836e+000	-1.520356292573264e+001
1	 0.000000000000000e+000	 1.093333940011333e+000	-1.561264608597157e+001
1	 1.055353389369740e-001	 1.094925688866247e+000	-1.332413119784680e+001
1	 9.483508450571804e-002	 1.095904304378798e+000	-1.345531803095267e+001
1	 8.416378420764699e-002	 1.096775439186540e+000	-1.361330999255468e+001
1	 7.352286037378912e-002	 1.097540100354437e+000	-1.379912839840680e+001
1	 6.291370501352775e-002	 1.098199314624351e+000	-1.401375107199189e+001
1	 5.233767962123528e-002	 1.098754127510101e+000	-1.425811125918918e+001
1	 4.179611501147609e-002	 1.099205602397292e+000	-1.453309664530943e+001
1	 3.129031118222901e-002	 1.099554819648821e+000	-1.483954847325811e+001
1	 2.082153720555794e-002	 1.099802875716884e+000	-1.517826076140893e+001
1	 1.039103114513548e-002	 1.099950882262301e+000	-1.554997961959632e+001
1	 0.000000000000000e+000	 1.099999965281944e+000	-1.595540266147811e+001
1	 1.061748847347095e-001	 1.101560955614318e+000	-1.369273536535826e+001
1	 9.540978659474342e-002	 1.102545501551810e+000	-1.382328546929057e+001
1	 8.467381805051592e-002	 1.103421915449642e+000	-1.398023062100397e+001
1	 7.396841005239860e-002	 1.104191210475638e+000	-1.416460067444324e+001
1	 6.329496304536866e-002	 1.104854419593770e+000	-1.437738196680023e+001
1	 5.265484677447090e-002	 1.105412594653715e+000	-1.461951620352478e+001
1	 4.204940011902202e-002	 1.105866805485247e+000	-1.489189944690971e+001
1	 3.147993095500434e-002	 1.106218138998311e+000	-1.519538120702931e+001
1	 2.094771604507362e-002	 1.106467698289651e+000	-1.553076363362356e+001
1	 1.045400095558320e-002	 1.106616601756801e+000	-1.589880080734441e+001
1	 0.000000000000000e+000	 1.106665982220223e+000	-1.630019812861691e+001
1	 1.068144298932171e-001	 1.108196215727121e+000	-1.406542020552334e+001
1	 9.598448810938207e-002	 1.109186692083648e+000	-1.419525722663950e+001
1	 8.518385138365703e-002	 1.110068385066325e+000	-1.435105004167383e+001
1	 7.441395928574844e-002	 1.110842313945830e+000	-1.453383629193091e+001
1	 6.367622069621895e-002	 1.111509517908231e+000	-1.474461010268282e+001
1	 5.297201361077766e-002	 1.112071055139059e+000	-1.498432093909788e+001
1	 4.230268497348572e-002	 1.112528001912243e+000	-1.525387256690431e+001
1	 3.166955053832104e-002	 1.112881451684768e+000	-1.555412211658130e+001
1	 2.107389475852384e-002	 1.113132514197915e+000	-1.588587924967791e+001
1	 1.051697070312073e-002	 1.113282314585924e+000	-1.624990542568986e+001
1	 0.000000000000000e+000	 1.113331992492834e+000	-1.664691326774771e+001
1	 1.074539745725135e-001	 1.114831470863391e+000	-1.444206008648525e+001
1	 9.655918919345116e-002	 1.115827877634553e+000	-1.457110791215824e+001
1	 8.569388433472970e-002	 1.116714849698179e+000	-1.472564321267936e+001
1	 7.485950818538288e-002	 1.117493412427793e+000	-1.490671068280651e+001
1	 6.405747806155128e-002	 1.118164611231547e+000	-1.511531152694328e+001
1	 5.328918020960095e-002	 1.118729510630817e+000	-1.535240228655665e+001
1	 4.255596963833032e-002	 1.119189193343679e+000	-1.561889377343799e+001
1	 3.185916997970596e-002	 1.119544759374145e+000	-1.591565010760998e+001
1	 2.120007337754564e-002	 1.119797325108027e+000	-1.624348785850363e+001
1	 1.057994040354261e-002	 1.119948022416257e+000	-1.660317528783210e+001
1	 0.000000000000000e+000	 1.119997997766445e+000	-1.699543169242758e+001
1	 1.080935189326152e-001	 1.121466722681864e+000	-1.482253234078916e+001
1	 9.713388999076779e-002	 1.122469059864768e+000	-1.495071509384819e+001
1	 8.620391703139338e-002	 1.123361311006796e+000	-1.510388804291670e+001
1	 7.530505686284622e-002	 1.124144507584308e+000	-1.528310221882135e+001
1	 6.443873523683828e-002	 1.124819701227530e+000	-1.548936521243756e+001
1	 5.360634665038613e-002	 1.125387962793674e+000	-1.572363997415490e+001
1	 4.280925417701900e-002	 1.125850381444952e+000	-1.598684372024158e+001
1	 3.204878932668590e-002	 1.126208063732395e+000	-1.627984694493429e+001
1	 2.132625193377607e-002	 1.126462132686335e+000	-1.660347253687770e+001
1	 1.064291007264337e-002	 1.126613726914388e+000	-1.695849499835924e+001
1	 0.000000000000000e+000	 1.126663999707723e+000	-1.734563976560995e+001
1	 1.087330631335390e-001	 1.128101972841276e+000	-1.520671717811748e+001
1	 9.770859064514910e-002	 1.129110240434535e+000	-1.533395921145542e+001
1	 8.671394960130736e-002	 1.130007770653767e+000	-1.548566530520620e+001
1	 7.575060542968273e-002	 1.130795601078155e+000	-1.566289212501620e+001
1	 6.481999231755271e-002	 1.131474789559993e+000	-1.586665297147636e+001
1	 5.392351301257860e-002	 1.132046413292315e+000	-1.609791655218677e+001
1	 4.306253865301493e-002	 1.132511567881462e+000	-1.635760586172854e+001
1	 3.223840862678768e-002	 1.132871366425472e+000	-1.664659716838329e+001
1	 2.145243045885214e-002	 1.133126938599190e+000	-1.696571910624222e+001
1	 1.070587972621754e-002	 1.133279429746903e+000	-1.731575187115554e+001
1	 0.000000000000000e+000	 1.133329999983334e+000	-1.769742651880477e+001
1	 1.133329999983334e+000	 0.000000000000000e+000	 2.568300661023891e+001
1	 1.133279429746903e+000	 1.070587972621758e-002	 2.539717149428025e+001
1	 1.133126938599190e+000	 2.145243045885220e-002	 2.510928789696151e+001
1	 1.132871366425473e+000	 3.223840862678761e-002	 2.481842202363252e+001
1	 1.132511567881462e+000	 4.306253865301489e-002	 2.452366013474883e+001
1	 1.132046413292315e+000	 5.392351301257858e-002	 2.422411032402519e+001
1	 1.131474789559993e+000	 6.481999231755271e-002	 2.391890431377066e+001
1	 1.130795601078155e+000	 7.575060542968279e-002	 2.360719926468802e+001
1	 1.130007770653767e+000	 8.671394960130725e-002	 2.328817959729039e+001
1	 1.129110240434534e+000	 9.770859064514900e-002	 2.296105882196074e+001
1	 1.128101972841275e+000	 1.087330631335390e-001	 2.262508137455455e+001
1	 1.139996999982150e+000	 0.000000000000000e+000	 2.564205575384566e+001
1	 1.139946132257989e+000	 1.076885882381071e-002	 2.533847573847486e+001
1	 1.139792744056029e+000	 2.157862790779298e-002	 2.503340528724116e+001
1	 1.139535668436983e+000	 3.242805636533384e-002	 2.472590995239368e+001
1	 1.139173753318885e+000	 4.331586111564802e-002	 2.441507540267106e+001
1	 1.138705862381395e+000	 5.424072694206489e-002	 2.410000921038751e+001
1	 1.138130875978492e+000	 6.520130657750443e-002	 2.377984265577073e+001
1	 1.137447692058752e+000	 7.619622081778177e-002	 2.345373254581632e+001
1	 1.136655227092373e+000	 8.722405866335779e-002	 2.312086304479182e+001
1	 1.135752417004075e+000	 9.828337749012923e-002	 2.278044751339650e+001
1	 1.134738218110943e+000	 1.093727032498246e-001	 2.243173035345591e+001
1	 1.146663999981866e+000	 0.000000000000000e+000	 2.560595403369746e+001
1	 1.146612834769953e+000	 1.083183792161826e-002	 2.528466083248570e+001
1	 1.146458549513681e+000	 2.170482535712002e-002	 2.496242279924282e+001
1	 1.146199970449207e+000	 3.261770410439917e-002	 2.463830563819542e+001
1	 1.145835938756898e+000	 4.356918357889769e-002	 2.431139525216105e+001
1	 1.145365311470925e+000	 5.455794087223355e-002	 2.398079953809879e+001
1	 1.144786962397290e+000	 6.558262083817644e-002	 2.364565019994186e+001
1	 1.144099783039497e+000	 7.664183620661490e-002	 2.330510457595784e+001
1	 1.143302683530987e+000	 8.773416772613631e-002	 2.295834747775042e+001
1	 1.142394593573496e+000	 9.885816433581510e-002	 2.260459303788802e+001
1	 1.141374463380391e+000	 1.100123433667813e-001	 2.224308656301781e+001
1	 1.153330999982383e+000	 0.000000000000000e+000	 2.557424461227710e+001
1	 1.153279537282697e+000	 1.089481701958664e-002	 2.523528640902630e+001
1	 1.153124354972060e+000	 2.183102280673677e-002	 2.489591658833997e+001
1	 1.152864272462079e+000	 3.280735184385381e-002	 2.455520180259012e+001
1	 1.152498124195458e+000	 4.382250604260977e-002	 2.421222900540351e+001
1	 1.152024760560884e+000	 5.487515480291397e-002	 2.386610725521315e+001
1	 1.151443048816397e+000	 6.596393509938862e-002	 2.351596953608181e+001
1	 1.150751874020427e+000	 7.708745159599871e-002	 2.316097459302404e+001
1	 1.149950139969669e+000	 8.824427678946076e-002	 2.280030877892095e+001
1	 1.149036770142885e+000	 9.943295118203023e-002	 2.243318790999199e+001
1	 1.148010708649726e+000	 1.106519834842415e-001	 2.205885912666160e+001
1	 1.159997999983599e+000	 0.000000000000000e+000	 2.554648115461804e+001
1	 1.159946239796127e+000	 1.095779611766225e-002	 2.518992222471574e+001
1	 1.159790160431083e+000	 2.195722025654666e-002	 2.483347255396128e+001
1	 1.159528574475531e+000	 3.299699958356802e-002	 2.447620053033451e+001
1	 1.159160309634518e+000	 4.407582850663016e-002	 2.411719496614465e+001
1	 1.158684209651256e+000	 5.519236873393559e-002	 2.375556690912301e+001
1	 1.158099135235820e+000	 6.634524936096096e-002	 2.339045147073850e+001
1	 1.157403965001579e+000	 7.753306698574963e-002	 2.302100966894199e+001
1	 1.156597596408484e+000	 8.875438585314925e-002	 2.264643028241446e+001
1	 1.155678946712328e+000	 1.000077380285982e-001	 2.226593171326184e+001
1	 1.154646953919056e+000	 1.112916236020372e-001	 2.187876385497309e+001
1	 1.166664999985416e+000	 0.000000000000000e+000	 2.552222752821643e+001
1	 1.166612942310144e+000	 1.102077521579147e-002	 2.514814787080971e+001
1	 1.166455965890665e+000	 2.208341770645313e-002	 2.477468606117499e+001
1	 1.166192876489496e+000	 3.318664732341201e-002	 2.440091300185602e+001
1	 1.165822495074035e+000	 4.432915097080469e-002	 2.402592016306296e+001
1	 1.165343658742019e+000	 5.550958266512781e-002	 2.364882140085122e+001
1	 1.164755221655566e+000	 6.672656362271340e-002	 2.326875479243383e+001
1	 1.164056055982987e+000	 7.797868237568409e-002	 2.288488448581397e+001
1	 1.163245052847492e+000	 8.926449491701972e-002	 2.249640256079153e+001
1	 1.162321123281912e+000	 1.005825248753425e-001	 2.210253089826606e+001
1	 1.161283199188487e+000	 1.119312637200008e-001	 2.170252305463088e+001
1	 1.173331999987733e+000	 0.000000000000000e+000	 2.550105751317402e+001
1	 1.173279644824657e+000	 1.108375431392070e-002	 2.510955249379342e+001
1	 1.173121771350721e+000	 2.220961515635962e-002	 2.471916167176517e+001
1	 1.172857178503908e+000	 3.337629506325602e-002	 2.432895923483991e+001
1	 1.172484680513963e+000	 4.458247343497926e-002	 2.393804010188939e+001
1	 1.172003107833153e+000	 5.582679659632004e-002	 2.354552174771998e+001
1	 1.171411308075644e+000	 6.710787788446590e-002	 2.315054604489163e+001
1	 1.170708146964687e+000	 7.842429776561866e-002	 2.275228111970843e+001
1	 1.169892509286757e+000	 8.977460398089025e-002	 2.234992321941401e+001
1	 1.168963299851724e+000	 1.011573117220869e-001	 2.194269858749257e+001
1	 1.167919444458127e+000	 1.125709038379644e-001	 2.152986534384887e+001
1	 1.179998999990450e+000	 0.000000000000000e+000	 2.548255452216698e+001
1	 1.179946347339565e+000	 1.114673341199633e-002	 2.507373452544627e+001
1	 1.179787576811167e+000	 2.233581260616957e-002	 2.466651288442449e+001
1	 1.179521480518698e+000	 3.356594280297030e-002	 2.425996783457690e+001
1	 1.179146865954258e+000	 4.483579589899971e-002	 2.385319852593056e+001
1	 1.178662556924642e+000	 5.614401052734176e-002	 2.344532685406535e+001
1	 1.178067394496061e+000	 6.748919214603832e-002	 2.303549930795293e+001
1	 1.177360237946715e+000	 7.886991315536962e-002	 2.262288883178023e+001
1	 1.176539965726342e+000	 9.028471304457887e-002	 2.220669669776837e+001
1	 1.175605476421850e+000	 1.017320985686549e-001	 2.178615438686694e+001
1	 1.174555689728082e+000	 1.132105439557603e-001	 2.136052547407519e+001
1	 1.186665999993467e+000	 0.000000000000000e+000	 2.546631132985457e+001
1	 1.186613049854775e+000	 1.120971250996477e-002	 2.504030142200602e+001
1	 1.186453382271919e+000	 2.246201005578640e-002	 2.461636188370490e+001
1	 1.186185782533802e+000	 3.375559054242507e-002	 2.419357575272603e+001
1	 1.185809051394874e+000	 4.508911836271194e-002	 2.377104718466462e+001
1	 1.185322006016463e+000	 5.646122445802235e-002	 2.334790328968076e+001
1	 1.184723480916826e+000	 6.787050640725066e-002	 2.292329598587683e+001
1	 1.184012328929106e+000	 7.931552854475363e-002	 2.249640386643236e+001
1	 1.183187422166308e+000	 9.079482210790350e-002	 2.206643407748618e+001
1	 1.182247652992378e+000	 1.023068854148702e-001	 2.163262420362414e+001
1	 1.181191934998460e+000	 1.138501840732206e-001	 2.119424415770184e+001
1	 1.193332999996683e+000	 0.000000000000000e+000	 2.545192981135830e+001
1	 1.193279752370191e+000	 1.127269160777239e-002	 2.500886941207654e+001
1	 1.193119187732893e+000	 2.258820750511357e-002	 2.456833929738378e+001
1	 1.192850084549151e+000	 3.394523828149056e-002	 2.412942805416444e+001
1	 1.192471236835767e+000	 4.534244082596181e-002	 2.369124561009395e+001
1	 1.191981455108598e+000	 5.677843838819120e-002	 2.325292507568757e+001
1	 1.191379567337946e+000	 6.825182066792290e-002	 2.281362460273765e+001
1	 1.190664419911896e+000	 7.976114393358699e-002	 2.237252925624338e+001
1	 1.189834878606717e+000	 9.130493117068225e-002	 2.192885289680013e+001
1	 1.188889829563394e+000	 1.028816722605563e-001	 2.148184007028558e+001
1	 1.187828180269368e+000	 1.144898241901776e-001	 2.103076790154926e+001
1	 1.200000000000000e+000	 0.000000000000000e+000	 2.543902068945881e+001
1	 1.199946454885717e+000	 1.133567070536561e-002	 2.497906325293881e+001
1	 1.199784993194003e+000	 2.271440495405450e-002	 2.452208396191846e+001
1	 1.199514386564678e+000	 3.413488602003700e-002	 2.406717769160895e+001
1	 1.199133422276893e+000	 4.559576328859522e-002	 2.361346090055335e+001
1	 1.198640904201028e+000	 5.709565231767782e-002	 2.316007347754332e+001
1	 1.198035653759429e+000	 6.863313492787491e-002	 2.270618060464239e+001
1	 1.197316510895122e+000	 8.020675932168629e-002	 2.225097463339761e+001
1	 1.196482335047633e+000	 9.181504023273307e-002	 2.179367697118508e+001
1	 1.195532006134985e+000	 1.034564591055369e-001	 2.133353997450381e+001
1	 1.194464425540913e+000	 1.151294643064634e-001	 2.086984884590227e+001
1	 1.128101972841275e+000	 1.087330631335390e-001	 2.262508137455455e+001
1	 1.126982127963913e+000	 1.197842146317701e-001	 2.228448927704051e+001
1	 1.125749569286228e+000	 1.308621897129018e-001	 2.194350441181476e+001
1	 1.124403326267059e+000	 1.419654556433717e-001	 2.160154352502813e+001
1	 1.122942452330613e+000	 1.530924502600770e-001	 2.125805798857044e+001
1	 1.121366025797290e+000	 1.642415823237833e-001	 2.091253550804447e+001
1	 1.119673150812978e+000	 1.754112319038044e-001	 2.056450181485386e+001
1	 1.117862958275722e+000	 1.865997507942483e-001	 2.021352233863444e+001
1	 1.115934606758614e+000	 1.978054629620873e-001	 1.985920385618382e+001
1	 1.113887283427750e+000	 2.090266650272629e-001	 1.950119611297686e+001
1	 1.111720204954052e+000	 2.202616267749964e-001	 1.913919341329666e+001
1	 1.134738218110943e+000	 1.093727032498246e-001	 2.243173035345591e+001
1	 1.133611785561993e+000	 1.204888649630348e-001	 2.207895335992742e+001
1	 1.132371976155270e+000	 1.316320080532949e-001	 2.172633991891494e+001
1	 1.131017813640246e+000	 1.428005907704828e-001	 2.137331524199322e+001
1	 1.129548345872747e+000	 1.539930417618116e-001	 2.101933943679607e+001
1	 1.127962645751250e+000	 1.652077604273181e-001	 2.066390921322023e+001
1	 1.126259812151637e+000	 1.764431173068045e-001	 2.030655957311452e+001
1	 1.124438970859326e+000	 1.876974544985343e-001	 1.994686547966607e+001
1	 1.122499275497582e+000	 1.989690861099370e-001	 1.958444350261982e+001
1	 1.120439908450877e+000	 2.102562987405380e-001	 1.921895343540311e+001
1	 1.118260081782081e+000	 2.215573519972832e-001	 1.885009988016834e+001
1	 1.141374463380391e+000	 1.100123433667813e-001	 2.224308656301781e+001
1	 1.140241443159786e+000	 1.211935152949279e-001	 2.187807062089720e+001
1	 1.138994383023984e+000	 1.324018263942670e-001	 2.151377087133907e+001
1	 1.137632301013091e+000	 1.436357258981184e-001	 2.114962159238986e+001
1	 1.136154239414550e+000	 1.548936332640130e-001	 2.078509218836275e+001
1	 1.134559265704902e+000	 1.661739385312600e-001	 2.041968889255296e+001
1	 1.132846473490027e+000	 1.774750027101520e-001	 2.005295645283728e+001
1	 1.131014983442705e+000	 1.887951582031090e-001	 1.968447979635414e+001
1	 1.129063944236374e+000	 2.001327092580198e-001	 1.931388566938777e+001
1	 1.126992533473878e+000	 2.114859324539956e-001	 1.894084424851479e+001
1	 1.124799958610022e+000	 2.228530772197078e-001	 1.856507071901534e+001
1	 1.148010708649726e+000	 1.106519834842415e-001	 2.205885912666160e+001
1	 1.146871100757412e+000	 1.218981656272922e-001	 2.168156639097467e+001
1	 1.145616789892503e+000	 1.331716447356734e-001	 2.130553803505334e+001
1	 1.144246788385735e+000	 1.444708610261476e-001	 2.093021799777986e+001
1	 1.142760132956160e+000	 1.557942247665646e-001	 2.055508553492473e+001
1	 1.141155885658386e+000	 1.671401166355072e-001	 2.017965691667168e+001
1	 1.139433134828280e+000	 1.785068881137599e-001	 1.980348710745172e+001
1	 1.137590996025985e+000	 1.898928619079004e-001	 1.942617142427242e+001
1	 1.135628612975103e+000	 2.012963324062776e-001	 1.904734716965576e+001
1	 1.133545158496847e+000	 2.127155661675897e-001	 1.866669523523495e+001
1	 1.131339835437960e+000	 2.241488024422355e-001	 1.828394167200526e+001
1	 1.154646953919056e+000	 1.112916236020372e-001	 2.187876385497308e+001
1	 1.153500758354994e+000	 1.226028159599707e-001	 2.148917231574175e+001
1	 1.152239196760960e+000	 1.339414630773691e-001	 2.110138813573675e+001
1	 1.150861275758315e+000	 1.453059961544390e-001	 2.071486550251044e+001
1	 1.149366026497716e+000	 1.566948162693496e-001	 2.032909407205286e+001
1	 1.147752505611837e+000	 1.681062947399582e-001	 1.994360065944056e+001
1	 1.146019796166525e+000	 1.795387735175415e-001	 1.955795091124507e+001
1	 1.144167008609286e+000	 1.909905656128361e-001	 1.917175095588136e+001
1	 1.142193281713881e+000	 2.024599555546521e-001	 1.878464902800386e+001
1	 1.140097783519889e+000	 2.139451998812751e-001	 1.839633706299599e+001
1	 1.137879712265981e+000	 2.254445276648321e-001	 1.800655225754552e+001
1	 1.161283199188487e+000	 1.119312637200008e-001	 2.170252305463088e+001
1	 1.160130415952655e+000	 1.233074662928062e-001	 2.130062617491205e+001
1	 1.158861603629487e+000	 1.347112814192096e-001	 2.090107368849485e+001
1	 1.157475763130969e+000	 1.461411312828616e-001	 2.050333061305501e+001
1	 1.155971920039361e+000	 1.575954077722513e-001	 2.010689754768632e+001
1	 1.154349125565392e+000	 1.690724728445110e-001	 1.971131235500203e+001
1	 1.152606457504896e+000	 1.805706589214098e-001	 1.931615182447336e+001
1	 1.150743021192733e+000	 1.920882693178441e-001	 1.892103331318175e+001
1	 1.148757950452820e+000	 2.036235787030848e-001	 1.852561636009180e+001
1	 1.146650408543099e+000	 2.151748335950061e-001	 1.812960426989044e+001
1	 1.144419589094169e+000	 2.267402528874632e-001	 1.773274566238503e+001
1	 1.167919444458127e+000	 1.125709038379644e-001	 2.152986534384887e+001
1	 1.166760073550517e+000	 1.240121166256418e-001	 2.111567170805703e+001
1	 1.165484010498218e+000	 1.354810997610502e-001	 2.070435283337890e+001
1	 1.164090250503835e+000	 1.469762664112842e-001	 2.029538514283119e+001
1	 1.162577813581231e+000	 1.584959992751530e-001	 1.988828071575086e+001
1	 1.160945745519189e+000	 1.700386509490637e-001	 1.948258895969349e+001
1	 1.159193118843525e+000	 1.816025443252784e-001	 1.907789826307156e+001
1	 1.157319033776447e+000	 1.931859730228520e-001	 1.867383762470999e+001
1	 1.155322619192032e+000	 2.047872018515176e-001	 1.827007825642906e+001
1	 1.153203033566577e+000	 2.164044673087370e-001	 1.786633515470323e+001
1	 1.150959465922610e+000	 2.280359781100943e-001	 1.746236863739463e+001
1	 1.174555689728082e+000	 1.132105439557603e-001	 2.136052547407519e+001
1	 1.173389731148702e+000	 1.247167669583204e-001	 2.093405844623987e+001
1	 1.172106417367284e+000	 1.362509181027461e-001	 2.051098917648103e+001
1	 1.170704737877052e+000	 1.478114015395757e-001	 2.009080606227934e+001
1	 1.169183707123466e+000	 1.593965907779380e-001	 1.967303319473951e+001
1	 1.167542365473366e+000	 1.710048290535147e-001	 1.925723201864507e+001
1	 1.165779780182542e+000	 1.826344297290600e-001	 1.884300297278037e+001
1	 1.163895046360552e+000	 1.942836767277877e-001	 1.842998710670339e+001
1	 1.161887287931629e+000	 2.059508249998921e-001	 1.801786767008510e+001
1	 1.159755658590425e+000	 2.176341010224225e-001	 1.760637167067210e+001
1	 1.157499342751388e+000	 2.293317033326910e-001	 1.719527139688027e+001
1	 1.181191934998460e+000	 1.138501840732206e-001	 2.119424415770184e+001
1	 1.180019388747333e+000	 1.254214172906848e-001	 2.075554154932474e+001
1	 1.178728824236818e+000	 1.370207364441525e-001	 2.032075163638593e+001
1	 1.177319225250758e+000	 1.486465366676050e-001	 1.988937535399508e+001
1	 1.175789600666207e+000	 1.602971822804898e-001	 1.946094933106060e+001
1	 1.174138985428059e+000	 1.719710071577622e-001	 1.903504753687439e+001
1	 1.172366441522077e+000	 1.836663151326680e-001	 1.861128290751622e+001
1	 1.170471058945171e+000	 1.953813804325792e-001	 1.818930894827103e+001
1	 1.168451956671723e+000	 2.071144481481499e-001	 1.776882130818492e+001
1	 1.166308283614738e+000	 2.188637347360168e-001	 1.734955932282892e+001
1	 1.164039219580586e+000	 2.306274285552188e-001	 1.693130752129059e+001
1	 1.187828180269368e+000	 1.144898241901776e-001	 2.103076790154926e+001
1	 1.186649046346531e+000	 1.261260676225780e-001	 2.057988164873998e+001
1	 1.185351231106953e+000	 1.377905547851248e-001	 2.013341429576988e+001
1	 1.183933712625089e+000	 1.494816717952408e-001	 1.969087987271786e+001
1	 1.182395494209592e+000	 1.611977737826913e-001	 1.925182806696618e+001
1	 1.180735605383405e+000	 1.729371852617042e-001	 1.881584585470238e+001
1	 1.178953102862265e+000	 1.846982005360155e-001	 1.838255911181857e+001
1	 1.177047071530428e+000	 1.964790841371540e-001	 1.795163420041410e+001
1	 1.175016625412426e+000	 2.082780712962329e-001	 1.752277952704177e+001
1	 1.172860908639617e+000	 2.200933684494743e-001	 1.709574706878257e+001
1	 1.170579096410293e+000	 2.319231537776434e-001	 1.667033386318570e+001
1	 1.194464425540913e+000	 1.151294643064634e-001	 2.086984884590227e+001
1	 1.193278703946419e+000	 1.268307179538431e-001	 2.040684469548258e+001
1	 1.191973637977820e+000	 1.385603731255182e-001	 1.994875625794640e+001
1	 1.190548200000185e+000	 1.503168069223521e-001	 1.949511120998688e+001
1	 1.189001387753761e+000	 1.620983652844261e-001	 1.904547281288341e+001
1	 1.187332225339542e+000	 1.739033633652391e-001	 1.859944152732206e+001
1	 1.185539764203236e+000	 1.857300859390158e-001	 1.815665660721559e+001
1	 1.183623084116445e+000	 1.975767878414401e-001	 1.771679766874560e+001
1	 1.181581294153850e+000	 2.094416944440826e-001	 1.727958623078563e+001
1	 1.179413533665163e+000	 2.213230021627496e-001	 1.684478722280907e+001
1	 1.177118973240590e+000	 2.332188789999303e-001	 1.641221045634055e+001
1	 1.111720204954052e+000	 2.202616267749964e-001	 1.913919341329666e+001
1	 1.109432266328881e+000	 2.315102792902392e-001	 1.877459697972499e+001
1	 1.107023062513533e+000	 2.427691529314909e-001	 1.840897440023097e+001
1	 1.104491904764940e+000	 2.540364368758318e-001	 1.804217323351383e+001
1	 1.101838137444058e+000	 2.653102957682796e-001	 1.767408636165968e+001
1	 1.099061138879598e+000	 2.765888703972085e-001	 1.730465325908206e+001
1	 1.096160322218095e+000	 2.878702784020723e-001	 1.693386121133004e+001
1	 1.093135136259025e+000	 2.991526150132511e-001	 1.656174647999526e+001
1	 1.089985066273683e+000	 3.104339538237795e-001	 1.618839540997348e+001
1	 1.086709634806486e+000	 3.217123475926619e-001	 1.581394547537036e+001
1	 1.083308402457412e+000	 3.329858290794202e-001	 1.543858626038913e+001
1	 1.118260081782081e+000	 2.215573519972832e-001	 1.885009988016834e+001
1	 1.115958683982159e+000	 2.328721765597173e-001	 1.847926129789800e+001
1	 1.113535307629694e+000	 2.441972823756040e-001	 1.810797699308373e+001
1	 1.110989259929962e+000	 2.555308479695610e-001	 1.773609309179680e+001
1	 1.108319881387002e+000	 2.668710271898299e-001	 1.736350010949260e+001
1	 1.105526546672431e+000	 2.782159498876675e-001	 1.699013420699824e+001
1	 1.102608665480506e+000	 2.895637226292336e-001	 1.661597839750290e+001
1	 1.099565683368168e+000	 3.009124294397891e-001	 1.624106370083158e+001
1	 1.096397082578721e+000	 3.122601325799638e-001	 1.586547024130504e+001
1	 1.093102382847858e+000	 3.236048733537980e-001	 1.548932828552121e+001
1	 1.089681142190702e+000	 3.349446729481994e-001	 1.511281921643989e+001
1	 1.124799958610022e+000	 2.228530772197078e-001	 1.856507071901534e+001
1	 1.122485101635380e+000	 2.342340738292960e-001	 1.818791410117507e+001
1	 1.120047552745821e+000	 2.456254118197871e-001	 1.781087940772151e+001
1	 1.117486615094961e+000	 2.570252590633344e-001	 1.743381255750256e+001
1	 1.114801625329930e+000	 2.684317586114020e-001	 1.705660292782439e+001
1	 1.111991954465246e+000	 2.798430293781279e-001	 1.667918459567177e+001
1	 1.109057008742898e+000	 2.912571668563763e-001	 1.630153753102857e+001
1	 1.105996230477284e+000	 3.026722438662866e-001	 1.592368873863016e+001
1	 1.102809098883724e+000	 3.140863113360828e-001	 1.554571334450021e+001
1	 1.099495130889186e+000	 3.254973991148397e-001	 1.516773562365707e+001
1	 1.096053881923943e+000	 3.369035168168484e-001	 1.478992996541783e+001
1	 1.131339835437960e+000	 2.241488024422355e-001	 1.828394167200526e+001
1	 1.129011519288615e+000	 2.355959710989502e-001	 1.790039975120658e+001
1	 1.126559797861965e+000	 2.470535412640225e-001	 1.751753454327988e+001
1	 1.123983970259976e+000	 2.585196701571410e-001	 1.713519296737965e+001
1	 1.121283369272862e+000	 2.699924900329905e-001	 1.675326447315743e+001
1	 1.118457362258052e+000	 2.814701088685894e-001	 1.637168226541628e+001
1	 1.115505352005261e+000	 2.929506110835045e-001	 1.599042448192418e+001
1	 1.112426777586352e+000	 3.044320582927537e-001	 1.560951532077266e+001
1	 1.109221115188658e+000	 3.159124900921532e-001	 1.522902611368584e+001
1	 1.105887878930430e+000	 3.273899248758108e-001	 1.484907634171720e+001
1	 1.102426621657084e+000	 3.388623606853999e-001	 1.446983458981226e+001
1	 1.137879712265981e+000	 2.254445276648321e-001	 1.800655225754552e+001
1	 1.135537936941932e+000	 2.369578683686545e-001	 1.761656618772327e+001
1	 1.133072042978181e+000	 2.484816707082929e-001	 1.722779868070040e+001
1	 1.130481325425043e+000	 2.600140812509698e-001	 1.684009884600420e+001
1	 1.127765113215821e+000	 2.715532214545899e-001	 1.645335739855307e+001
1	 1.124922770050853e+000	 2.830971883590515e-001	 1.606750786496095e+001
1	 1.121953695267586e+000	 2.946440553106234e-001	 1.568252774402179e+001
1	 1.118857324695349e+000	 3.061918727192005e-001	 1.529843961781725e+001
1	 1.115633131493490e+000	 3.177386688481909e-001	 1.491531220990922e+001
1	 1.112280626971544e+000	 3.292824506367341e-001	 1.453326138710859e+001
1	 1.108799361390078e+000	 3.408212045538863e-001	 1.415245110135223e+001
1	 1.144419589094169e+000	 2.267402528874632e-001	 1.773274566238503e+001
1	 1.142064354595402e+000	 2.383197656383841e-001	 1.733626482629984e+001
1	 1.139584288094523e+000	 2.499098001525808e-001	 1.694153138610237e+001
1	 1.136978680590200e+000	 2.615084923448095e-001	 1.654839781469428e+001
1	 1.134246857158827e+000	 2.731139528761949e-001	 1.615675726801093e+001
1	 1.131388177843655e+000	 2.847242678495141e-001	 1.576654477120570e+001
1	 1.128402038529864e+000	 2.963374995377376e-001	 1.537773835999834e+001
1	 1.125287871804252e+000	 3.079516871456371e-001	 1.499036017369005e+001
1	 1.122045147798187e+000	 3.195648476042122e-001	 1.460447749636570e+001
1	 1.118673375012487e+000	 3.311749763976341e-001	 1.422020374283226e+001
1	 1.115172101122873e+000	 3.427800484223402e-001	 1.383769938588254e+001
1	 1.150959465922610e+000	 2.280359781100943e-001	 1.746236863739463e+001
1	 1.148590772249093e+000	 2.396816629081137e-001	 1.705935045960431e+001
1	 1.146096533211043e+000	 2.513379295968686e-001	 1.665859541744908e+001
1	 1.143476035755483e+000	 2.630029034386492e-001	 1.625996050352980e+001
1	 1.140728601101902e+000	 2.746746842977998e-001	 1.586334247376765e+001
1	 1.137853585636464e+000	 2.863513473399765e-001	 1.546867901171238e+001
1	 1.134850381792088e+000	 2.980309437648520e-001	 1.507594984896157e+001
1	 1.131718418913041e+000	 3.097115015720739e-001	 1.468517783825626e+001
1	 1.128457164102715e+000	 3.213910263602336e-001	 1.429642997583408e+001
1	 1.125066123053217e+000	 3.330675021585340e-001	 1.390981836965093e+001
1	 1.121544840855421e+000	 3.447388922907940e-001	 1.352550115011880e+001
1	 1.157499342751388e+000	 2.293317033326910e-001	 1.719527139688027e+001
1	 1.155117189903074e+000	 2.410435601778181e-001	 1.678568116199490e+001
1	 1.152608778327796e+000	 2.527660590411391e-001	 1.637885663437803e+001
1	 1.149973390920931e+000	 2.644973145324779e-001	 1.597466046635469e+001
1	 1.147210345045066e+000	 2.762354157193993e-001	 1.557299415639890e+001
1	 1.144318993429285e+000	 2.879784268304386e-001	 1.517379918982327e+001
1	 1.141298725054246e+000	 2.997243879919708e-001	 1.477705813649063e+001
1	 1.138148966021693e+000	 3.114713159985207e-001	 1.438279570217716e+001
1	 1.134869180407041e+000	 3.232172051162712e-001	 1.399107973023348e+001
1	 1.131458871093689e+000	 3.349600279194575e-001	 1.360202215021706e+001
1	 1.127917580587672e+000	 3.466977361592805e-001	 1.321577987020797e+001
1	 1.164039219580586e+000	 2.306274285552188e-001	 1.693130752129060e+001
1	 1.161643607557417e+000	 2.424054574474723e-001	 1.651511819733292e+001
1	 1.159121023444835e+000	 2.541941884853745e-001	 1.610218391107062e+001
1	 1.156470746086581e+000	 2.659917256262845e-001	 1.569237409864445e+001
1	 1.153692088988342e+000	 2.777961471409877e-001	 1.528559612761486e+001
1	 1.150784401222125e+000	 2.896055063209001e-001	 1.488179641230404e+001
1	 1.147747068316332e+000	 3.014178322190992e-001	 1.448096148703493e+001
1	 1.144579513130186e+000	 3.132311304249878e-001	 1.408311903396331e+001
1	 1.141281196711131e+000	 3.250433838723414e-001	 1.368833886221736e+001
1	 1.137851619133862e+000	 3.368525536804284e-001	 1.329673383508442e+001
1	 1.134290320319577e+000	 3.486565800278318e-001	 1.290846074202249e+001
1	 1.170579096410293e+000	 2.319231537776434e-001	 1.667033386318570e+001
1	 1.168170025212190e+000	 2.437673547170510e-001	 1.624752592988594e+001
1	 1.165633268562213e+000	 2.556223179295575e-001	 1.582844905204282e+001
1	 1.162968101252469e+000	 2.674861367200581e-001	 1.541298055812693e+001
1	 1.160173832931750e+000	 2.793568785625599e-001	 1.500103479564364e+001
1	 1.157249809014989e+000	 2.912325858113606e-001	 1.459256421941209e+001
1	 1.154195411578337e+000	 3.031112764462416e-001	 1.418756043857940e+001
1	 1.151010060238497e+000	 3.149909448514852e-001	 1.378605521913744e+001
1	 1.147693213014952e+000	 3.268695626284606e-001	 1.338812143872560e+001
1	 1.144244367173692e+000	 3.387450794414700e-001	 1.299387399052936e+001
1	 1.140663060051086e+000	 3.506154238964809e-001	 1.260347063312081e+001
1	 1.177118973240590e+000	 2.332188789999303e-001	 1.641221045634055e+001
1	 1.174696442867462e+000	 2.451292519865292e-001	 1.598277173820095e+001
1	 1.172145513679984e+000	 2.570504473736707e-001	 1.555752671074272e+001
1	 1.169465456418633e+000	 2.689805478137872e-001	 1.513636168804903e+001
1	 1.166655576875310e+000	 2.809176099841100e-001	 1.471919909310216e+001
1	 1.163715216807882e+000	 2.928596653018195e-001	 1.430599851729602e+001
1	 1.160643754840250e+000	 3.048047206734029e-001	 1.389675773948733e+001
1	 1.157440607346606e+000	 3.167507592780232e-001	 1.349151370142564e+001
1	 1.154105229318469e+000	 3.286957413846448e-001	 1.309034343641808e+001
1	 1.150637115213138e+000	 3.406376052026062e-001	 1.269336494811142e+001
1	 1.147035799782149e+000	 3.525742677652601e-001	 1.230073803630941e+001
1	 1.083308402457412e+000	 3.329858290794202e-001	 1.543858626038913e+001
1	 1.079780968373366e+000	 3.442524117444685e-001	 1.505877146210540e+001
1	 1.076126970175029e+000	 3.555100901335350e-001	 1.467094144069487e+001
1	 1.072346085486329e+000	 3.667568412696645e-001	 1.427533773980743e+001
1	 1.068438032900888e+000	 3.779906257690122e-001	 1.387224551786355e+001
1	 1.064402572652689e+000	 3.892093888243871e-001	 1.346199413694109e+001
1	 1.060239507260171e+000	 4.004110612167509e-001	 1.304495768947588e+001
1	 1.055948682142524e+000	 4.115935603539074e-001	 1.262155546029814e+001
1	 1.051529986206963e+000	 4.227547913355571e-001	 1.219225232162568e+001
1	 1.046983352405783e+000	 4.338926480438310e-001	 1.175755905874087e+001
1	 1.042308758262027e+000	 4.450050142583599e-001	 1.131803262419666e+001
1	 1.089681142190702e+000	 3.349446729481994e-001	 1.511281921643989e+001
1	 1.086132957396064e+000	 3.462775331374385e-001	 1.473230339370024e+001
1	 1.082457463952872e+000	 3.576014366698349e-001	 1.434414426340798e+001
1	 1.078654337588626e+000	 3.689143486679464e-001	 1.394859988701522e+001
1	 1.074723295241534e+000	 3.802142177509245e-001	 1.354597304462851e+001
1	 1.070664095735121e+000	 3.914989770238443e-001	 1.313661181404503e+001
1	 1.066476540426113e+000	 4.027665450951535e-001	 1.272091008533017e+001
1	 1.062160473824358e+000	 4.140148271214729e-001	 1.229930800843330e+001
1	 1.057715784183553e+000	 4.252417158789146e-001	 1.187229237144154e+001
1	 1.053142404061580e+000	 4.364450928600323e-001	 1.144039690718345e+001
1	 1.048440310849263e+000	 4.476228293954507e-001	 1.100420252601744e+001
1	 1.096053881923943e+000	 3.369035168168484e-001	 1.478992996541783e+001
1	 1.092484946418709e+000	 3.483026545302352e-001	 1.440857653484493e+001
1	 1.088787957730661e+000	 3.596927832059129e-001	 1.401997322209513e+001
1	 1.084962589690872e+000	 3.710718560659539e-001	 1.362439304953858e+001
1	 1.081008557582138e+000	 3.824378097325087e-001	 1.322215475610635e+001
1	 1.076925618817523e+000	 3.937885652229204e-001	 1.281362336738583e+001
1	 1.072713573592043e+000	 4.051220289731259e-001	 1.239921069918072e+001
1	 1.068372265506201e+000	 4.164360938885641e-001	 1.197937579200885e+001
1	 1.063901582160182e+000	 4.277286404217616e-001	 1.155462527411798e+001
1	 1.059301455717451e+000	 4.389975376756976e-001	 1.112551365071750e+001
1	 1.054571863436613e+000	 4.502406445319922e-001	 1.069264351725090e+001
1	 1.102426621657084e+000	 3.388623606853999e-001	 1.446983458981226e+001
1	 1.098836935441248e+000	 3.503277759229020e-001	 1.408751343124291e+001
1	 1.095118451508342e+000	 3.617841297418243e-001	 1.369835604776800e+001
1	 1.091270841793014e+000	 3.732293634637550e-001	 1.330264889269911e+001
1	 1.087293819922646e+000	 3.846614017138453e-001	 1.290072502914327e+001
1	 1.083187141899845e+000	 3.960781534217086e-001	 1.249296469205851e+001
1	 1.078950606757912e+000	 4.074775128507713e-001	 1.207979578189169e+001
1	 1.074584057188009e+000	 4.188573606552926e-001	 1.166169428724877e+001
1	 1.070087380136804e+000	 4.302155649642157e-001	 1.123918463416033e+001
1	 1.065460507373347e+000	 4.415499824909460e-001	 1.081283995962634e+001
1	 1.060703416024027e+000	 4.528584596681014e-001	 1.038328230725666e+001
1	 1.108799361390078e+000	 3.408212045538863e-001	 1.415245110135223e+001
1	 1.105188924463627e+000	 3.523528973154823e-001	 1.376903840925020e+001
1	 1.101448945285859e+000	 3.638754762776243e-001	 1.337922213288211e+001
1	 1.097579093894998e+000	 3.753868708614180e-001	 1.298330065281368e+001
1	 1.093579082263007e+000	 3.868849936950154e-001	 1.258161974924343e+001
1	 1.089448664982036e+000	 3.983677416203010e-001	 1.217457315691181e+001
1	 1.085187639923671e+000	 4.098329967281923e-001	 1.176260304990176e+001
1	 1.080795848869734e+000	 4.212786274217700e-001	 1.134620045376014e+001
1	 1.076273178113373e+000	 4.327024895063936e-001	 1.092590558248696e+001
1	 1.071619559029224e+000	 4.441024273058965e-001	 1.050230809806292e+001
1	 1.066834968611455e+000	 4.554762748038950e-001	 1.007604729032420e+001
1	 1.115172101122873e+000	 3.427800484223402e-001	 1.383769938588254e+001
1	 1.111540913485793e+000	 3.543780187080192e-001	 1.345307752499670e+001
1	 1.107779439063159e+000	 3.659668228133682e-001	 1.306250248386453e+001
1	 1.103887345996768e+000	 3.775443782590106e-001	 1.266628309230647e+001
1	 1.099864344603168e+000	 3.891085856760994e-001	 1.226477626746235e+001
1	 1.095710188064046e+000	 4.006573298187909e-001	 1.185838756243895e+001
1	 1.091424673089274e+000	 4.121884806054927e-001	 1.144757164334844e+001
1	 1.087007640551330e+000	 4.236998941881077e-001	 1.103283269214848e+001
1	 1.082458976089844e+000	 4.351894140484124e-001	 1.061472473281512e+001
1	 1.077778610685035e+000	 4.466548721206683e-001	 1.019385187850807e+001
1	 1.072966521198848e+000	 4.580940899394900e-001	 9.770868497529119e+000
1	 1.121544840855421e+000	 3.447388922907940e-001	 1.352550115011880e+001
1	 1.117892902507692e+000	 3.564031401005560e-001	 1.313955851524256e+001
1	 1.114109932840187e+000	 3.680581693491115e-001	 1.274812967526000e+001
1	 1.110195598098271e+000	 3.797018856566009e-001	 1.235153245635144e+001
1	 1.106149606943075e+000	 3.913321776571785e-001	 1.195013335876965e+001
1	 1.101971711145824e+000	 4.029469180172705e-001	 1.154434810010356e+001
1	 1.097661706254673e+000	 4.145439644827758e-001	 1.113464208562007e+001
1	 1.093219432232752e+000	 4.261211609544177e-001	 1.072153080307833e+001
1	 1.088644774066171e+000	 4.376763385903897e-001	 1.030558013953403e+001
1	 1.083937662340732e+000	 4.492073169353807e-001	 9.887406617782103e+000
1	 1.079098073786155e+000	 4.607119050750032e-001	 9.467677550231361e+000
1	 1.127917580587672e+000	 3.466977361592805e-001	 1.321577987020797e+001
1	 1.124244891529271e+000	 3.584282614931360e-001	 1.282841074990011e+001
1	 1.120440426616887e+000	 3.701495158849096e-001	 1.243603780543157e+001
1	 1.116503850199452e+000	 3.818593930542572e-001	 1.203898643098444e+001
1	 1.112434869282676e+000	 3.935557696383331e-001	 1.163763118182343e+001
1	 1.108233234227320e+000	 4.052365062158326e-001	 1.123239631304501e+001
1	 1.103898739419819e+000	 4.168994483601445e-001	 1.082375624427886e+001
1	 1.099431223913954e+000	 4.285424277208114e-001	 1.041223594772142e+001
1	 1.094830572042310e+000	 4.401632631324423e-001	 9.998411257005630e+000
1	 1.090096713996271e+000	 4.517597617501527e-001	 9.582909094546755e+000
1	 1.085229626373328e+000	 4.633297202105512e-001	 9.166407615149577e+000
1	 1.134290320319577e+000	 3.486565800278318e-001	 1.290846074202249e+001
1	 1.130596880550478e+000	 3.604533828858025e-001	 1.251956518615653e+001
1	 1.126770920393204e+000	 3.722408624208176e-001	 1.212616245375445e+001
1	 1.122812102300257e+000	 3.840169004520475e-001	 1.172858410262758e+001
1	 1.118720131621920e+000	 3.957793616196440e-001	 1.132721124010058e+001
1	 1.114494757308485e+000	 4.075260944145701e-001	 1.092247505810767e+001
1	 1.110135772584664e+000	 4.192549322377019e-001	 1.051485729330129e+001
1	 1.105643015594889e+000	 4.309636944874003e-001	 1.010489060953824e+001
1	 1.101016370018216e+000	 4.426501876746876e-001	 9.693158900237632e+000
1	 1.096255765651604e+000	 4.543122065651033e-001	 9.280297508240398e+000
1	 1.091361178960316e+000	 4.659475353462514e-001	 8.866993360950081e+000
1	 1.140663060051086e+000	 3.506154238964809e-001	 1.260347063312081e+001
1	 1.136948869571257e+000	 3.624785042785987e-001	 1.221295432413420e+001
1	 1.133101414169086e+000	 3.743322089568911e-001	 1.181844063924484e+001
1	 1.129120354400631e+000	 3.861744078500397e-001	 1.142026591897039e+001
1	 1.125005393960751e+000	 3.980029536011917e-001	 1.101881634433020e+001
1	 1.120756280389266e+000	 4.098156826135754e-001	 1.061452846914373e+001
1	 1.116372805749162e+000	 4.216104161155515e-001	 1.020788967658416e+001
1	 1.111854807275511e+000	 4.333849612542963e-001	 9.799438557340793e+000
1	 1.107202167993842e+000	 4.451371122172426e-001	 9.389765206874660e+000
1	 1.102414817306685e+000	 4.568646513803520e-001	 8.979511439389423e+000
1	 1.097492731547069e+000	 4.685653504822201e-001	 8.569370916290623e+000
1	 1.147035799782149e+000	 3.525742677652601e-001	 1.230073803630941e+001
1	 1.143300858591557e+000	 3.645036256715679e-001	 1.190851216402927e+001
1	 1.139431907944475e+000	 3.764235554931851e-001	 1.151281078056788e+001
1	 1.135428606500522e+000	 3.883319152483018e-001	 1.111397365115466e+001
1	 1.131290656299120e+000	 4.002265455830573e-001	 1.071239057617904e+001
1	 1.127017803469615e+000	 4.121052708129412e-001	 1.030850192153874e+001
1	 1.122609838913262e+000	 4.239658999937964e-001	 9.902799072667401e+000
1	 1.118066598955774e+000	 4.358062280216105e-001	 9.495824809586480e+000
1	 1.113387965969144e+000	 4.476240367602244e-001	 9.088173600456493e+000
1	 1.108573868961468e+000	 4.594170961960175e-001	 8.680491811242758e+000
1	 1.103624284133538e+000	 4.711831656185747e-001	 8.273477829263268e+000
1	 1.042308758262027e+000	 4.450050142583599e-001	 1.131803262419666e+001
1	 1.037506956432366e+000	 4.560881044353323e-001	 1.086834031362380e+001
1	 1.032577324110273e+000	 4.671414557548592e-001	 1.040279448857072e+001
1	 1.027519976101599e+000	 4.781629301589312e-001	 9.921661639424254e+000
1	 1.022335073517847e+000	 4.891503841983316e-001	 9.425219602343056e+000
1	 1.017022824127247e+000	 5.001016702530479e-001	 8.913757696790343e+000
1	 1.011583482668233e+000	 5.110146377703450e-001	 8.387576852822372e+000
1	 1.006017351124410e+000	 5.218871345191709e-001	 7.846989727578311e+000
1	 1.000324778960203e+000	 5.327170078595428e-001	 7.292320810425066e+000
1	 9.945061633163868e-001	 5.435021060254974e-001	 6.723906516223341e+000
1	 9.885619491647814e-001	 5.542402794201590e-001	 6.142095266191496e+000
1	 1.048440310849263e+000	 4.476228293954507e-001	 1.100420252601744e+001
1	 1.043610261630902e+000	 4.587711176722781e-001	 1.055813414313690e+001
1	 1.038651629936216e+000	 4.698894921480004e-001	 1.009622204967598e+001
1	 1.033564531246422e+000	 4.809758021871166e-001	 9.618693924987923e+000
1	 1.028349127620793e+000	 4.920278917312020e-001	 9.125785676797285e+000
1	 1.023005628049796e+000	 5.030436005265029e-001	 8.617741610803885e+000
1	 1.017534288770408e+000	 5.140207653692878e-001	 8.094814596079189e+000
1	 1.011935413542708e+000	 5.249572213676379e-001	 7.557266225720017e+000
1	 1.006209353886907e+000	 5.358508032182960e-001	 7.005366972219048e+000
1	 1.000356509280032e+000	 5.466993464971669e-001	 6.439396337005483e+000
1	 9.943773273115255e-001	 5.575006889620030e-001	 5.859642993610081e+000
1	 1.054571863436613e+000	 4.502406445319922e-001	 1.069264351725090e+001
1	 1.049713566829601e+000	 4.614541309086755e-001	 1.025017397111340e+001
1	 1.044725935762374e+000	 4.726375285406066e-001	 9.791834390759028e+000
1	 1.039609086391518e+000	 4.837886742147888e-001	 9.317818441934302e+000
1	 1.034363181724073e+000	 4.949053992635883e-001	 8.828325227956029e+000
1	 1.028988431972739e+000	 5.059855307995048e-001	 8.323559487537029e+000
1	 1.023485094873038e+000	 5.170268929678101e-001	 7.803731793820426e+000
1	 1.017853475961520e+000	 5.280273082157136e-001	 7.269058754107706e+000
1	 1.012093928814182e+000	 5.389845985766819e-001	 6.719763209743257e+000
1	 1.006206855244298e+000	 5.498965869684839e-001	 6.156074435602633e+000
1	 1.000192705458934e+000	 5.607610985034969e-001	 5.578228338613558e+000
1	 1.060703416024027e+000	 4.528584596681014e-001	 1.038328230725666e+001
1	 1.055816872028405e+000	 4.641371441446345e-001	 9.944384034755645e+000
1	 1.050800241588682e+000	 4.753855649327762e-001	 9.489557206441939e+000
1	 1.045653641536810e+000	 4.866015462420331e-001	 9.018966195553290e+000
1	 1.040377235827597e+000	 4.977829067955587e-001	 8.532778344638205e+000
1	 1.034971235895975e+000	 5.089274610721060e-001	 8.031164187786878e+000
1	 1.029435900976008e+000	 5.200330205659460e-001	 7.514297678874648e+000
1	 1.023771538380718e+000	 5.310973950634157e-001	 6.982356425318518e+000
1	 1.017978503741883e+000	 5.421183939347025e-001	 6.435521926817190e+000
1	 1.012057201209029e+000	 5.530938274394391e-001	 5.873979818514444e+000
1	 1.006008083606842e+000	 5.640215080446243e-001	 5.297920117996965e+000
1	 1.066834968611455e+000	 4.554762748038950e-001	 1.007604729032420e+001
1	 1.061920177227259e+000	 4.668201573802651e-001	 9.640690313029586e+000
1	 1.056874547415076e+000	 4.781336013246085e-001	 9.189317899604419e+000
1	 1.051698196682225e+000	 4.894144182689340e-001	 8.722069777301652e+000
1	 1.046391289931278e+000	 5.006604143271819e-001	 8.239086493001581e+000
1	 1.040954039819402e+000	 5.118693913443565e-001	 7.740509656065881e+000
1	 1.035386707079203e+000	 5.230391481637290e-001	 7.226482191397830e+000
1	 1.029689600800171e+000	 5.341674819107614e-001	 6.697148602227986e+000
1	 1.023863078669870e+000	 5.452521892923616e-001	 6.152655242099901e+000
1	 1.017907547174069e+000	 5.562910679100237e-001	 5.593150595493182e+000
1	 1.011823461755081e+000	 5.672819175853689e-001	 5.018785566478249e+000
1	 1.072966521198848e+000	 4.580940899394900e-001	 9.770868497529119e+000
1	 1.068023482426107e+000	 4.695031706156769e-001	 9.339020476897337e+000
1	 1.062948853241491e+000	 4.808816377162019e-001	 8.891045532573930e+000
1	 1.057742751827686e+000	 4.922272902955759e-001	 8.427063319481530e+000
1	 1.052405344035029e+000	 5.035379218585261e-001	 7.947192477188820e+000
1	 1.046936843742920e+000	 5.148113216163086e-001	 7.451550889636771e+000
1	 1.041337513182507e+000	 5.260452757611932e-001	 6.940255958662798e+000
1	 1.035607663219751e+000	 5.372375687577683e-001	 6.413424890857865e+000
1	 1.029747653597997e+000	 5.483859846496617e-001	 5.871174997238232e+000
1	 1.023757893139265e+000	 5.594883083802296e-001	 5.313624005166020e+000
1	 1.017638839903487e+000	 5.705423271257143e-001	 4.740890381903296e+000
1	 1.079098073786155e+000	 4.607119050750032e-001	 9.467677550231363e+000
1	 1.074126787624893e+000	 4.721861838509798e-001	 9.039303841246580e+000
1	 1.069023159067862e+000	 4.836296741076556e-001	 8.594670779979808e+000
1	 1.063787306973117e+000	 4.950401623220437e-001	 8.133882451464219e+000
1	 1.058419398138762e+000	 5.064154293896602e-001	 7.657040401314101e+000
1	 1.052919647666428e+000	 5.177532518880130e-001	 7.164243908603408e+000
1	 1.047288319285806e+000	 5.290514033583722e-001	 6.655590275537910e+000
1	 1.041525725639328e+000	 5.403076556044535e-001	 6.131175133468411e+000
1	 1.035632228526125e+000	 5.515197800066057e-001	 5.591092764736410e+000
1	 1.029608239104461e+000	 5.626855488500476e-001	 5.035436439784471e+000
1	 1.023454218051892e+000	 5.738027366656446e-001	 4.464298768908805e+000
1	 1.085229626373328e+000	 4.633297202105512e-001	 9.166407615149577e+000
1	 1.080230092823559e+000	 4.748691970862835e-001	 8.741471318449923e+000
1	 1.075097464894125e+000	 4.863777104990679e-001	 8.300125883205622e+000
1	 1.069831862118444e+000	 4.978530343484223e-001	 7.842464257397880e+000
1	 1.064433452242387e+000	 5.092929369206523e-001	 7.368575632739040e+000
1	 1.058902451589823e+000	 5.206951821595209e-001	 6.878545727015573e+000
1	 1.053239125388985e+000	 5.320575309553004e-001	 6.372457085627351e+000
1	 1.047443788058774e+000	 5.433777424508345e-001	 5.850389401884265e+000
1	 1.041516803454109e+000	 5.546535753631967e-001	 5.312419855559555e+000
1	 1.035458585069502e+000	 5.658827893194696e-001	 4.758623469134185e+000
1	 1.029269596200132e+000	 5.770631462051433e-001	 4.189073481105657e+000
1	 1.091361178960316e+000	 4.659475353462514e-001	 8.866993360950083e+000
1	 1.086333398022053e+000	 4.775522103216983e-001	 8.445455373488956e+000
1	 1.081171770720215e+000	 4.891257468905380e-001	 8.007344606377057e+000
1	 1.075876417263589e+000	 5.006659063747960e-001	 7.552747235340937e+000
1	 1.070447506345819e+000	 5.121704444515712e-001	 7.081744766586442e+000
1	 1.064885255513005e+000	 5.236371124308838e-001	 6.594414324947558e+000
1	 1.059189931491927e+000	 5.350636585520109e-001	 6.090828963047493e+000
1	 1.053361850477960e+000	 5.464478292969290e-001	 5.571057991045985e+000
1	 1.047401378381807e+000	 5.577873707194374e-001	 5.035167326480440e+000
1	 1.041308931034233e+000	 5.690800297884865e-001	 4.483219863639285e+000
1	 1.035084974348039e+000	 5.803235557441941e-001	 3.915275861839862e+000
1	 1.097492731547069e+000	 4.685653504822201e-001	 8.569370916290621e+000
1	 1.092436703220316e+000	 4.802352235573337e-001	 8.151189980583654e+000
1	 1.087246076546066e+000	 4.918737832821646e-001	 7.716262193825020e+000
1	 1.081920972408479e+000	 5.034787784012498e-001	 7.264671257765251e+000
1	 1.076461560448969e+000	 5.150479519824853e-001	 6.796495591443371e+000
1	 1.070868059435873e+000	 5.265790427021526e-001	 6.311808621512759e+000
1	 1.065140737594519e+000	 5.380697861485382e-001	 5.810679094813529e+000
1	 1.059279912896756e+000	 5.495179161427544e-001	 5.293171412777170e+000
1	 1.053285953309077e+000	 5.609211660753308e-001	 4.759345987180366e+000
1	 1.047159276998498e+000	 5.722772702570897e-001	 4.209259616691882e+000
1	 1.040900352495448e+000	 5.835839652827812e-001	 3.642965883587702e+000
1	 1.103624284133538e+000	 4.711831656185747e-001	 8.273477829263268e+000
1	 1.098540008418292e+000	 4.829182367932998e-001	 7.858610581266391e+000
1	 1.093320382371615e+000	 4.946218196740462e-001	 7.426815328966713e+000
1	 1.087965527553038e+000	 5.062916504278682e-001	 6.978177533376258e+000
1	 1.082475614551749e+000	 5.179254595134631e-001	 6.512777056207912e+000
1	 1.076850863358325e+000	 5.295209729733790e-001	 6.030688448778254e+000
1	 1.071091543696644e+000	 5.410759137449159e-001	 5.531981263813940e+000
1	 1.065197975315034e+000	 5.525880029883279e-001	 5.016720389759796e+000
1	 1.059170528235776e+000	 5.640549614308797e-001	 4.484966407112952e+000
1	 1.053009622962143e+000	 5.754745107252708e-001	 3.936775966237169e+000
1	 1.046715730642193e+000	 5.868443748208878e-001	 3.372202186036945e+000
1	 9.885619491647814e-001	 5.542402794201590e-001	 6.142095266191500e+000
1	 9.824917097073290e-001	 5.649309817611228e-001	 5.538406322003652e+000
1	 9.762968690995890e-001	 5.755704568108352e-001	 4.904853625968420e+000
1	 9.699780173860767e-001	 5.861565690314716e-001	 4.242286179510425e+000
1	 9.635357926610374e-001	 5.966871903522223e-001	 3.551571505786207e+000
1	 9.569708810090841e-001	 6.071602015023673e-001	 2.833594921911090e+000
1	 9.502840164019309e-001	 6.175734933469834e-001	 2.089258785413035e+000
1	 9.434759805509428e-001	 6.279249682236161e-001	 1.319481716024258e+000
1	 9.365476027153261e-001	 6.382125412782214e-001	 5.251977939861348e-001
1	 9.294997594658225e-001	 6.484341417986819e-001	-2.926442638973445e-001
1	 9.223333744038621e-001	 6.585877145441748e-001	-1.133081949166821e+000
1	 9.943773273115255e-001	 5.575006889620030e-001	 5.859642993610081e+000
1	 9.882713786726242e-001	 5.682542811167918e-001	 5.257592796691178e+000
1	 9.820400958967170e-001	 5.789563446273001e-001	 4.625327107117557e+000
1	 9.756840724993499e-001	 5.896047313930605e-001	 3.963789318141980e+000
1	 9.692039503284609e-001	 6.001973008245471e-001	 3.273946787616223e+000
1	 9.626004195046681e-001	 6.107319211840904e-001	 2.556789977183768e+000
1	 9.558742183173916e-001	 6.212064709294447e-001	 1.813331554687005e+000
1	 9.490261330765412e-001	 6.316188400583206e-001	 1.044605461080319e+000
1	 9.420569979195745e-001	 6.419669314521876e-001	 2.516659432389090e-001
1	 9.349676945738025e-001	 6.522486622176337e-001	-5.644134458632221e-001
1	 9.277591520738917e-001	 6.624619650235540e-001	-1.402540878041872e+000
1	 1.000192705458934e+000	 5.607610985034969e-001	 5.578228338613559e+000
1	 9.940510476386210e-001	 5.715775804720994e-001	 4.977726632895617e+000
1	 9.877833226945743e-001	 5.823422324433805e-001	 4.346758742264736e+000
1	 9.813901276133723e-001	 5.930528937542327e-001	 3.686356264433088e+000
1	 9.748721079966469e-001	 6.037074112964166e-001	 2.997579692562963e+000
1	 9.682299580010183e-001	 6.143036408653173e-001	 2.281517427672107e+000
1	 9.614644202336151e-001	 6.248394485113694e-001	 1.539284744184506e+000
1	 9.545762856028904e-001	 6.353127118924513e-001	 7.720227100991856e-001
1	 9.475663931245540e-001	 6.457213216255494e-001	-1.910293663154344e-002
1	 9.404356296824864e-001	 6.560631826359605e-001	-8.329029538059209e-001
1	 9.331849297445891e-001	 6.663362155023007e-001	-1.668165800937142e+000
1	 1.006008083606842e+000	 5.640215080446243e-001	 5.297920117996965e+000
1	 9.998307166051433e-001	 5.749008798270260e-001	 4.698904878607439e+000
1	 9.935265494929784e-001	 5.857281202590576e-001	 4.069267577008859e+000
1	 9.870961827279576e-001	 5.965010561149743e-001	 3.410121938554771e+000
1	 9.805402656654042e-001	 6.072175217678244e-001	 2.722615009098080e+000
1	 9.738594964979440e-001	 6.178753605460503e-001	 2.007926046786180e+000
1	 9.670546221504111e-001	 6.284724260927679e-001	 1.267265357870119e+000
1	 9.601264381298031e-001	 6.390065837260276e-001	 5.018730781753072e-001
1	 9.530757883300819e-001	 6.494757117983335e-001	-2.869820979780904e-001
1	 9.459035647916977e-001	 6.598777030536939e-001	-1.098004239472633e+000
1	 9.386107074157873e-001	 6.702104659804474e-001	-1.929871548639469e+000
1	 1.011823461755081e+000	 5.672819175853689e-001	 5.018785566478249e+000
1	 1.005610385572016e+000	 5.782241791815531e-001	 4.421222350713800e+000
1	 9.992697762917473e-001	 5.891140080743142e-001	 3.792969920127400e+000
1	 9.928022378429179e-001	 5.999492184752717e-001	 3.135218158905410e+000
1	 9.862084233345433e-001	 6.107276322387641e-001	 2.449194197051388e+000
1	 9.794890349952525e-001	 6.214470802262907e-001	 1.736161187681753e+000
1	 9.726448240675881e-001	 6.321054036736511e-001	 9.974170201328896e-001
1	 9.656765906570911e-001	 6.427004555590683e-001	 2.342929706955967e-001
1	 9.585851835359757e-001	 6.532301019705662e-001	-5.518477070426884e-001
1	 9.513714999012607e-001	 6.636922234708648e-001	-1.359611250101445e+000
1	 9.440364850873191e-001	 6.740847164580276e-001	-2.187574909950184e+000
1	 1.017638839903487e+000	 5.705423271257143e-001	 4.740890381903295e+000
1	 1.011390054539064e+000	 5.815474785356608e-001	 4.144771698747902e+000
1	 1.005013003090699e+000	 5.924998958891324e-001	 3.517979421775610e+000
1	 9.985082929580652e-001	 6.033973808351121e-001	 2.861773730737417e+000
1	 9.918765810038723e-001	 6.142377427092285e-001	 2.177455482719782e+000
1	 9.851185734927529e-001	 6.250187999060399e-001	 1.466364880986808e+000
1	 9.782350259849559e-001	 6.357383812540294e-001	 7.298800723506773e-001
1	 9.712267431845675e-001	 6.463943273915921e-001	-3.058432495042907e-002
1	 9.640945787420523e-001	 6.569844921422731e-001	-8.135787606986817e-001
1	 9.568394350109997e-001	 6.675067438875043e-001	-1.617620357118172e+000
1	 9.494622627590179e-001	 6.779589669350749e-001	-2.441194575738944e+000
1	 1.023454218051892e+000	 5.738027366656446e-001	 4.464298768908806e+000
1	 1.017169723506112e+000	 5.848707778893306e-001	 3.869643466464589e+000
1	 1.010756229889650e+000	 5.958857837034940e-001	 3.244407149019219e+000
1	 1.004214348073213e+000	 6.068455431944817e-001	 2.589914531761991e+000
1	 9.975447386732017e-001	 6.177478531792116e-001	 1.907533950733487e+000
1	 9.907481119902529e-001	 6.285905195852996e-001	 1.198675929196324e+000
1	 9.838252279023241e-001	 6.393713588339129e-001	 4.647916661620606e-001
1	 9.767768957120436e-001	 6.500881992236183e-001	-2.926285507862768e-001
1	 9.696039739481288e-001	 6.607388823134809e-001	-1.072057006030473e+000
1	 9.623073701207390e-001	 6.713212643036441e-001	-1.871930287263910e+000
1	 9.548880404307168e-001	 6.818332174116220e-001	-2.690651084905002e+000
1	 1.029269596200132e+000	 5.770631462051433e-001	 4.189073481105659e+000
1	 1.022949392472985e+000	 5.881940772425429e-001	 3.595926151328419e+000
1	 1.016499456688419e+000	 5.992716715173814e-001	 2.972361658806765e+000
1	 1.009920403188173e+000	 6.102937055533667e-001	 2.319763594852759e+000
1	 1.003212896342341e+000	 6.212579636487060e-001	 1.639561632808494e+000
1	 9.963776504875617e-001	 6.321622392640718e-001	 9.332299978668529e-001
1	 9.894154298195012e-001	 6.430043364133122e-001	 2.022858535770204e-001
1	 9.823270482393317e-001	 6.537820710551658e-001	-5.517123926676462e-001
1	 9.751133691540227e-001	 6.644932724842148e-001	-1.327166862640517e+000
1	 9.677753052303022e-001	 6.751357847193149e-001	-2.122442056057346e+000
1	 9.603138181022493e-001	 6.857074678877024e-001	-2.935866772170265e+000
1	 1.035084974348039e+000	 5.803235557441941e-001	 3.915275861839862e+000
1	 1.028729061439508e+000	 5.915173765952791e-001	 3.323706261996511e+000
1	 1.022242683486824e+000	 6.026575593307760e-001	 2.701949068481873e+000
1	 1.015626458302758e+000	 6.137418679117540e-001	 2.051441187959981e+000
1	 1.008881054011098e+000	 6.247680741177057e-001	 1.373667593506416e+000
1	 1.002007188984487e+000	 6.357339589423576e-001	 6.701597037374599e-001
1	 9.950056317362974e-001	 6.466373139922383e-001	-5.750632595128907e-002
1	 9.878772007662450e-001	 6.574759428862534e-001	-8.077113975865140e-001
1	 9.806227643595509e-001	 6.682476626545023e-001	-1.578795347574336e+000
1	 9.732432403395136e-001	 6.789503051345484e-001	-2.369058903499951e+000
1	 9.657395957734473e-001	 6.895817183633489e-001	-3.176765717632372e+000
1	 1.040900352495448e+000	 5.835839652827812e-001	 3.642965883587703e+000
1	 1.034508730405505e+000	 5.948406759475194e-001	 3.053068373875184e+000
1	 1.027985910284681e+000	 6.060434471436605e-001	 2.433273123932381e+000
1	 1.021332513416781e+000	 6.171900302696303e-001	 1.785064891347907e+000
1	 1.014549211679285e+000	 6.282781845862040e-001	 1.109978013120410e+000
1	 1.007636727480838e+000	 6.393056786201592e-001	 4.095946998962432e-001
1	 1.000595833652521e+000	 6.502702915707008e-001	-3.144567613721443e-001
1	 9.934273532925942e-001	 6.611698147169002e-001	-1.060503893747135e+000
1	 9.861321595645307e-001	 6.720020528243689e-001	-1.826832002763097e+000
1	 9.787111754481976e-001	 6.827648255493757e-001	-2.611686231936416e+000
1	 9.711653734441448e-001	 6.934559688385950e-001	-3.413273698008611e+000
1	 1.046715730642193e+000	 5.868443748208878e-001	 3.372202186036944e+000
1	 1.040288399370800e+000	 5.981639752992449e-001	 2.784095182823121e+000
1	 1.033729137081809e+000	 6.094293349560167e-001	 2.166435265466846e+000
1	 1.027038568530055e+000	 6.206381926269815e-001	 1.520749672255671e+000
1	 1.020217369346709e+000	 6.317882950541939e-001	 8.486162677974466e-001
1	 1.013266265976422e+000	 6.428773982974780e-001	 1.516617581080447e-001
1	 1.006186035567982e+000	 6.539032691487108e-001	-5.684401886888264e-001
1	 9.989775058181930e-001	 6.648636865471250e-001	-1.309970913305994e+000
1	 9.916415547687788e-001	 6.757564429938406e-001	-2.071168824884402e+000
1	 9.841791105561780e-001	 6.865793459638276e-001	-2.850231545987019e+000
1	 9.765911511141747e-001	 6.973302193134739e-001	-3.645318139505558e+000
1	 9.223333744038621e-001	 6.585877145441748e-001	-1.133081949166821e+000
1	 9.150494175759466e-001	 6.686712208458169e-001	-1.984539891770908e+000
1	 9.076489043303718e-001	 6.786826392403966e-001	-2.835177803985710e+000
1	 9.001328956976941e-001	 6.886199674222856e-001	-3.683598145656491e+000
1	 8.925024981968082e-001	 6.984812237597207e-001	-4.528367974739195e+000
1	 8.847588633353754e-001	 7.082644485790088e-001	-5.368021140369128e+000
1	 8.769031870669851e-001	 7.179677054343339e-001	-6.201060550361043e+000
1	 8.689367092055303e-001	 7.275890823614685e-001	-7.025960508867166e+000
1	 8.608607127973482e-001	 7.371266931137128e-001	-7.841169119714177e+000
1	 8.526765234517708e-001	 7.465786783784127e-001	-8.645110750744225e+000
1	 8.443855086307747e-001	 7.559432069724200e-001	-9.436188554300140e+000
1	 9.277591520738917e-001	 6.624619650235540e-001	-1.402540878041872e+000
1	 9.204323461727995e-001	 6.726047892082684e-001	-2.250860813425983e+000
1	 9.129882981917740e-001	 6.826751014169742e-001	-3.097415335237694e+000
1	 9.054280754030595e-001	 6.926708875651475e-001	-3.940923333698547e+000
1	 8.977527908348268e-001	 7.025901543637464e-001	-4.780075078596951e+000
1	 8.899636027686719e-001	 7.124309306109720e-001	-5.613534236465222e+000
1	 8.820617141935768e-001	 7.221912684695437e-001	-6.439939949385241e+000
1	 8.740483722168425e-001	 7.318692447277859e-001	-7.257908971469109e+000
1	 8.659248674325377e-001	 7.414629620428398e-001	-8.066037858887498e+000
1	 8.576925332481072e-001	 7.509705501643340e-001	-8.862905209155445e+000
1	 8.493527451698485e-001	 7.603901671368815e-001	-9.647073945235714e+000
1	 9.331849297445891e-001	 6.663362155023007e-001	-1.668165800937144e+000
1	 9.258152747702765e-001	 6.765383575700944e-001	-2.512824250720668e+000
1	 9.183276920537512e-001	 6.866675635929472e-001	-3.354863214613423e+000
1	 9.107232551089430e-001	 6.967218077074371e-001	-4.193115689713236e+000
1	 9.030030834733056e-001	 7.066990849672418e-001	-5.026392526670908e+000
1	 8.951683422023676e-001	 7.165974126424530e-001	-5.853484273149324e+000
1	 8.872202413205065e-001	 7.264148315043242e-001	-6.673163066640584e+000
1	 8.791600352284326e-001	 7.361494070937297e-001	-7.484184573005020e+000
1	 8.709890220679465e-001	 7.457992309716475e-001	-8.285289966953643e+000
1	 8.627085430446098e-001	 7.553624219499896e-001	-9.075207950564760e+000
1	 8.543199817090402e-001	 7.648371273011256e-001	-9.852656805802830e+000
1	 9.386107074157873e-001	 6.702104659804474e-001	-1.929871548639469e+000
1	 9.311982033682217e-001	 6.804719259313259e-001	-2.770368889686500e+000
1	 9.236670859161580e-001	 6.906600257683419e-001	-3.607479891457020e+000
1	 9.160184348152155e-001	 7.007727278491728e-001	-4.440149383893456e+000
1	 9.082533761121285e-001	 7.108080155702147e-001	-5.267306220975745e+000
1	 9.003730816363605e-001	 7.207638946734495e-001	-6.087864952598758e+000
1	 8.923787684476852e-001	 7.306383945386621e-001	-6.900727534065653e+000
1	 8.842716982402233e-001	 7.404295694592746e-001	-7.704785069873464e+000
1	 8.760531767035096e-001	 7.501354999001021e-001	-8.498919588359769e+000
1	 8.677245528412214e-001	 7.597542937353362e-001	-9.282005843674464e+000
1	 8.592872182482988e-001	 7.692840874651026e-001	-1.005291314145356e+001
1	 9.440364850873191e-001	 6.740847164580276e-001	-2.187574909950184e+000
1	 9.365811319664787e-001	 6.844054942919948e-001	-3.023434825945107e+000
1	 9.290064797788518e-001	 6.946524879431842e-001	-3.855224770350331e+000
1	 9.213136145217460e-001	 7.048236479903732e-001	-4.681999180252724e+000
1	 9.135036687511782e-001	 7.149169461726750e-001	-5.502802387635375e+000
1	 9.055778210705479e-001	 7.249303767039607e-001	-6.316670121776716e+000
1	 8.975372955750234e-001	 7.348619575725440e-001	-7.122631038041083e+000
1	 8.893833612521390e-001	 7.447097318243970e-001	-7.919708270054071e+000
1	 8.811173313391613e-001	 7.544717688281690e-001	-8.706921002170692e+000
1	 8.727405626378855e-001	 7.641461655203298e-001	-9.483286059072087e+000
1	 8.642544547875742e-001	 7.737310476287623e-001	-1.024781950926747e+001
1	 9.494622627590179e-001	 6.779589669350749e-001	-2.441194575738946e+000
1	 9.419640605648918e-001	 6.883390626521324e-001	-3.271963524431690e+000
1	 9.343458736416885e-001	 6.986449501175009e-001	-4.098058183819001e+000
1	 9.266087942284046e-001	 7.088745681310574e-001	-4.918640419657461e+000
1	 9.187539613903393e-001	 7.190258767746317e-001	-5.732867567622965e+000
1	 9.107825605048273e-001	 7.290968587339832e-001	-6.539893768295904e+000
1	 9.026958227024333e-001	 7.390855206059577e-001	-7.338871317834063e+000
1	 8.944950242641027e-001	 7.489898941890726e-001	-8.128952031633180e+000
1	 8.861814859748358e-001	 7.588080377558130e-001	-8.909288618223291e+000
1	 8.777565724345455e-001	 7.685380373049277e-001	-9.679036060604505e+000
1	 8.692216913268166e-001	 7.781780077920549e-001	-1.043735300218980e+001
1	 9.548880404307168e-001	 6.818332174116220e-001	-2.690651084905003e+000
1	 9.473469891633051e-001	 6.922726310117698e-001	-3.515897780492827e+000
1	 9.396852675045243e-001	 7.026374122913179e-001	-4.335941365969301e+000
1	 9.319039739350612e-001	 7.129254882712436e-001	-5.150049003439092e+000
1	 9.240042540294949e-001	 7.231348073760935e-001	-5.957488607814841e+000
1	 9.159872999390962e-001	 7.332633407635163e-001	-6.757530016421896e+000
1	 9.078543498298249e-001	 7.433090836388889e-001	-7.549446164095708e+000
1	 8.996066872760378e-001	 7.532700565532765e-001	-8.332514261380165e+000
1	 8.912456406104682e-001	 7.631443066829996e-001	-9.106016973410304e+000
1	 8.827725822311452e-001	 7.729299090890865e-001	-9.869243597045905e+000
1	 8.741889278659762e-001	 7.826249679549311e-001	-1.062149123380799e+001
1	 9.603138181022493e-001	 6.857074678877024e-001	-2.935866772170269e+000
1	 9.527299177615619e-001	 6.962061993709386e-001	-3.755181682301814e+000
1	 9.450246613672159e-001	 7.066298744646621e-001	-4.568836427017997e+000
1	 9.371991536415850e-001	 7.169764084109508e-001	-5.376201377559856e+000
1	 9.292545466685293e-001	 7.272437379770698e-001	-6.176652652349418e+000
1	 9.211920393732523e-001	 7.374298227925583e-001	-6.969573123213252e+000
1	 9.130128769571099e-001	 7.475326466713247e-001	-7.754353417409398e+000
1	 9.047183502878682e-001	 7.575502189169845e-001	-8.530392913372300e+000
1	 8.963097952459920e-001	 7.674805756096939e-001	-9.297100728092110e+000
1	 8.877885920276273e-001	 7.773217808727624e-001	-1.005389669404920e+001
1	 8.791561644050019e-001	 7.870719281173406e-001	-1.080021232364284e+001
1	 9.657395957734473e-001	 6.895817183633489e-001	-3.176765717632374e+000
1	 9.581128463595068e-001	 7.001397677296708e-001	-3.989760574541612e+000
1	 9.503640552296199e-001	 7.106223366375596e-001	-4.796706328681710e+000
1	 9.424943333478461e-001	 7.210273285501974e-001	-5.597074517314275e+000
1	 9.345048393073252e-001	 7.313526685775691e-001	-6.390347134276614e+000
1	 9.263967788071928e-001	 7.415963048211063e-001	-7.176017474790730e+000
1	 9.181714040841990e-001	 7.517562097032523e-001	-7.953590966887878e+000
1	 9.098300132995163e-001	 7.618303812801719e-001	-8.722585987665958e+000
1	 9.013739498813420e-001	 7.718168445358615e-001	-9.482534662626954e+000
1	 8.928046018239355e-001	 7.817136526559121e-001	-1.023298364636771e+001
1	 8.841234009438440e-001	 7.915188882792336e-001	-1.097349488293630e+001
1	 9.711653734441448e-001	 6.934559688385950e-001	-3.413273698008611e+000
1	 9.634957749569834e-001	 7.040733360879967e-001	-4.219581023305124e+000
1	 9.557034490915919e-001	 7.146147988100368e-001	-5.019514860390657e+000
1	 9.477895130537147e-001	 7.250782486890024e-001	-5.812645912541997e+000
1	 9.397551319457672e-001	 7.354615991776009e-001	-6.598559767486842e+000
1	 9.316015182408166e-001	 7.457627868491598e-001	-7.376857582732288e+000
1	 9.233299312110029e-001	 7.559797727346579e-001	-8.147156748818102e+000
1	 9.149416763109065e-001	 7.661105436428150e-001	-8.909091529011873e+000
1	 9.064381045164527e-001	 7.761531134614675e-001	-9.662313674020188e+000
1	 8.978206116200135e-001	 7.861055244384922e-001	-1.040649301033766e+001
1	 8.890906374824527e-001	 7.959658484405604e-001	-1.114131800091552e+001
1	 9.765911511141747e-001	 6.973302193134739e-001	-3.645318139505561e+000
1	 9.688787035538358e-001	 7.080069044459488e-001	-4.444590782165428e+000
1	 9.610428429529890e-001	 7.186072609821202e-001	-5.237226616295136e+000
1	 9.530846927590595e-001	 7.291291688273839e-001	-6.022893553334563e+000
1	 9.450054245837380e-001	 7.395705297771742e-001	-6.801278538909885e+000
1	 9.368062576740198e-001	 7.499292688767160e-001	-7.572088080587833e+000
1	 9.284884583374330e-001	 7.602033357655288e-001	-8.335048745350312e+000
1	 9.200533393219623e-001	 7.703907060048886e-001	-9.089907625613543e+000
1	 9.115022591512589e-001	 7.804893823864774e-001	-9.836432772682928e+000
1	 9.028366214158040e-001	 7.904973962204591e-001	-1.057441359661253e+001
1	 8.940578740207774e-001	 8.004128086012710e-001	-1.130366123151505e+001
1	 8.443855086307747e-001	 7.559432069724200e-001	-9.436188554300138e+000
1	 8.359903442578607e-001	 7.652170926952719e-001	-1.020831114403051e+001
1	 8.274912435593508e-001	 7.743999767264992e-001	-1.095684989233281e+001
1	 8.188896949475417e-001	 7.834901207227666e-001	-1.168206037729855e+001
1	 8.101872254145905e-001	 7.924858190063862e-001	-1.238423177664626e+001
1	 8.013853996305682e-001	 8.013853996305679e-001	-1.306368633587256e+001
1	 7.924858190063862e-001	 8.101872254145907e-001	-1.372077878441027e+001
1	 7.834901207227666e-001	 8.188896949475419e-001	-1.435589570100620e+001
1	 7.743999767264997e-001	 8.274912435593509e-001	-1.496945482965958e+001
1	 7.652170926952719e-001	 8.359903442578606e-001	-1.556190434758041e+001
1	 7.559432069724201e-001	 8.443855086307748e-001	-1.613372208673751e+001
1	 8.493527451698485e-001	 7.603901671368815e-001	-9.647073945235713e+000
1	 8.409081948628211e-001	 7.697186080166688e-001	-1.041283113261807e+001
1	 8.323590968076828e-001	 7.789555118724081e-001	-1.115580447895026e+001
1	 8.237069481725587e-001	 7.880991301346746e-001	-1.187623159888716e+001
1	 8.149532849323851e-001	 7.971477470918548e-001	-1.257438158411267e+001
1	 8.060996809616599e-001	 8.060996809616597e-001	-1.325055451256091e+001
1	 7.971477470918549e-001	 8.149532849323851e-001	-1.390508090922017e+001
1	 7.880991301346745e-001	 8.237069481725586e-001	-1.453832115964021e+001
1	 7.789555118724078e-001	 8.323590968076826e-001	-1.515066487737756e+001
1	 7.697186080166687e-001	 8.409081948628209e-001	-1.574253022672688e+001
1	 7.603901671368816e-001	 8.493527451698488e-001	-1.631436320218956e+001
1	 8.543199817090402e-001	 7.648371273011256e-001	-9.852656805802830e+000
1	 8.458260454678566e-001	 7.742201233378900e-001	-1.061225682608851e+001
1	 8.372269500560541e-001	 7.835110470181768e-001	-1.134984924538911e+001
1	 8.285242013975824e-001	 7.927081395464755e-001	-1.206565265525102e+001
1	 8.197193444501577e-001	 8.018096751772460e-001	-1.275991505698330e+001
1	 8.108139622927019e-001	 8.108139622927019e-001	-1.343291341417852e+001
1	 8.018096751772459e-001	 8.197193444501577e-001	-1.408495316029856e+001
1	 7.927081395464752e-001	 8.285242013975824e-001	-1.471636766235032e+001
1	 7.835110470181770e-001	 8.372269500560540e-001	-1.532751764177610e+001
1	 7.742201233378900e-001	 8.458260454678566e-001	-1.591879055378971e+001
1	 7.648371273011256e-001	 8.543199817090402e-001	-1.649059992648616e+001
1	 8.592872182482988e-001	 7.692840874651026e-001	-1.005291314145356e+001
1	 8.507438960729211e-001	 7.787216386588826e-001	-1.080655199886338e+001
1	 8.420948033044189e-001	 7.880665821637520e-001	-1.153893654249146e+001
1	 8.333414546225675e-001	 7.973171489581147e-001	-1.225026529847694e+001
1	 8.244854039678605e-001	 8.064716032625070e-001	-1.294076419002151e+001
1	 8.155282436236437e-001	 8.155282436236437e-001	-1.361068613541846e+001
1	 8.064716032625069e-001	 8.244854039678604e-001	-1.426031060454339e+001
1	 7.973171489581145e-001	 8.333414546225677e-001	-1.488994313472114e+001
1	 7.880665821637520e-001	 8.420948033044190e-001	-1.549991480698368e+001
1	 7.787216386588823e-001	 8.507438960729211e-001	-1.609058168383023e+001
1	 7.692840874651026e-001	 8.592872182482987e-001	-1.666232420968615e+001
1	 8.642544547875742e-001	 7.737310476287623e-001	-1.024781950926748e+001
1	 8.556617466779680e-001	 7.832231539795923e-001	-1.099568125817882e+001
1	 8.469626565527324e-001	 7.926221173090784e-001	-1.172301981653835e+001
1	 8.381587078474683e-001	 8.019261583695391e-001	-1.243001261975360e+001
1	 8.292514634854455e-001	 8.111335313475847e-001	-1.311686254140933e+001
1	 8.202425249544357e-001	 8.202425249544355e-001	-1.378379753900262e+001
1	 8.111335313475849e-001	 8.292514634854458e-001	-1.443107026143877e+001
1	 8.019261583695390e-001	 8.381587078474684e-001	-1.505895761910008e+001
1	 7.926221173090786e-001	 8.469626565527325e-001	-1.566776031738063e+001
1	 7.832231539795924e-001	 8.556617466779681e-001	-1.625780235467416e+001
1	 7.737310476287623e-001	 8.642544547875741e-001	-1.682943048588329e+001
1	 8.692216913268166e-001	 7.781780077920549e-001	-1.043735300218980e+001
1	 8.605795972829509e-001	 7.877246692999664e-001	-1.117961002029033e+001
1	 8.518305098009493e-001	 7.971776524541016e-001	-1.190205357795128e+001
1	 8.429759610722384e-001	 8.065351677806932e-001	-1.260483901110879e+001
1	 8.340175230028659e-001	 8.157954594324280e-001	-1.328814518807718e+001
1	 8.249568062850277e-001	 8.249568062850275e-001	-1.395217420516433e+001
1	 8.157954594324282e-001	 8.340175230028660e-001	-1.459715104726299e+001
1	 8.065351677806933e-001	 8.429759610722384e-001	-1.522332321411456e+001
1	 7.971776524541016e-001	 8.518305098009493e-001	-1.583096031301611e+001
1	 7.877246692999661e-001	 8.605795972829510e-001	-1.642035361883069e+001
1	 7.781780077920549e-001	 8.692216913268166e-001	-1.699181560223045e+001
1	 8.741889278659762e-001	 7.826249679549311e-001	-1.062149123380800e+001
1	 8.654974478878234e-001	 7.922261846199509e-001	-1.135830448748780e+001
1	 8.566983630490245e-001	 8.017331875987668e-001	-1.207599337105740e+001
1	 8.477932142968324e-001	 8.111441771915242e-001	-1.277469012845211e+001
1	 8.387835825200737e-001	 8.204573875169839e-001	-1.345454868255464e+001
1	 8.296710876153698e-001	 8.296710876153697e-001	-1.411574438285309e+001
1	 8.204573875169839e-001	 8.387835825200736e-001	-1.475847372120046e+001
1	 8.111441771915243e-001	 8.477932142968325e-001	-1.538295401625233e+001
1	 8.017331875987669e-001	 8.566983630490245e-001	-1.598942306722941e+001
1	 7.922261846199511e-001	 8.654974478878236e-001	-1.657813877773006e+001
1	 7.826249679549311e-001	 8.741889278659761e-001	-1.714937875038272e+001
1	 8.791561644050019e-001	 7.870719281173406e-001	-1.080021232364284e+001
1	 8.704152984925387e-001	 7.967276999394926e-001	-1.153173162588989e+001
1	 8.615662162969122e-001	 8.062887227430189e-001	-1.224479574488351e+001
1	 8.526104675212042e-001	 8.157531866019770e-001	-1.293951285587058e+001
1	 8.435496420370213e-001	 8.251193156011999e-001	-1.361601101128492e+001
1	 8.343853689454112e-001	 8.343853689454115e-001	-1.427443794259295e+001
1	 8.251193156012001e-001	 8.435496420370212e-001	-1.491496083327885e+001
1	 8.157531866019770e-001	 8.526104675212042e-001	-1.553776606342164e+001
1	 8.062887227430190e-001	 8.615662162969121e-001	-1.614305892638321e+001
1	 7.967276999394924e-001	 8.704152984925387e-001	-1.673106331819147e+001
1	 7.870719281173405e-001	 8.791561644050018e-001	-1.730202140026600e+001
1	 8.841234009438440e-001	 7.915188882792336e-001	-1.097349488293630e+001
1	 8.753331490970502e-001	 8.012292152585375e-001	-1.169985914398712e+001
1	 8.664340695445677e-001	 8.108442578868036e-001	-1.240841822493168e+001
1	 8.574277207453075e-001	 8.203621960119979e-001	-1.309925527112720e+001
1	 8.483157015536604e-001	 8.297812436850239e-001	-1.377247155434443e+001
1	 8.390996502751035e-001	 8.390996502751033e-001	-1.442818633093050e+001
1	 8.297812436850239e-001	 8.483157015536605e-001	-1.506653667406194e+001
1	 8.203621960119981e-001	 8.574277207453077e-001	-1.568767728041433e+001
1	 8.108442578868035e-001	 8.664340695445675e-001	-1.629178025163096e+001
1	 8.012292152585376e-001	 8.753331490970502e-001	-1.687903485103370e+001
1	 7.915188882792339e-001	 8.841234009438441e-001	-1.744964723607655e+001
1	 8.890906374824527e-001	 7.959658484405604e-001	-1.114131800091552e+001
1	 8.802509997013114e-001	 8.057307305770329e-001	-1.186265547190444e+001
1	 8.713019227919451e-001	 8.153997930300662e-001	-1.256681928590233e+001
1	 8.622449739690975e-001	 8.249712054215328e-001	-1.325386661231637e+001
1	 8.530817610699448e-001	 8.344431717684036e-001	-1.392387104651265e+001
1	 8.438139316043950e-001	 8.438139316043948e-001	-1.457692252640988e+001
1	 8.344431717684036e-001	 8.530817610699444e-001	-1.521312722602970e+001
1	 8.249712054215326e-001	 8.622449739690977e-001	-1.583260742619717e+001
1	 8.153997930300660e-001	 8.713019227919449e-001	-1.643550136263336e+001
1	 8.057307305770328e-001	 8.802509997013116e-001	-1.702196305174099e+001
1	 7.959658484405603e-001	 8.890906374824527e-001	-1.759216209442748e+001
1	 8.940578740207774e-001	 8.004128086012710e-001	-1.130366123151505e+001
1	 8.851688503052765e-001	 8.102322458949247e-001	-1.202008974135431e+001
1	 8.761697760389994e-001	 8.199553281727517e-001	-1.271995832532616e+001
1	 8.670622271925278e-001	 8.295802148305268e-001	-1.340329724563089e+001
1	 8.578478205858254e-001	 8.391050998512860e-001	-1.407015153963894e+001
1	 8.485282129332367e-001	 8.485282129332366e-001	-1.472058099701448e+001
1	 8.391050998512859e-001	 8.578478205858252e-001	-1.535466011657739e+001
1	 8.295802148305270e-001	 8.670622271925280e-001	-1.597247804295932e+001
1	 8.199553281727516e-001	 8.761697760389995e-001	-1.657413848315388e+001
1	 8.102322458949245e-001	 8.851688503052763e-001	-1.715975960310970e+001
1	 8.004128086012706e-001	 8.940578740207773e-001	-1.772947390455578e+001
1	 7.559432069724201e-001	 8.443855086307748e-001	-1.613372208673751e+001
1	 7.465786783784130e-001	 8.526765234517706e-001	-1.668060981738716e+001
1	 7.371266931137132e-001	 8.608607127973481e-001	-1.719722852744848e+001
1	 7.275890823614686e-001	 8.689367092055303e-001	-1.768277019980335e+001
1	 7.179677054343341e-001	 8.769031870669852e-001	-1.813642936718477e+001
1	 7.082644485790089e-001	 8.847588633353752e-001	-1.855740497179557e+001
1	 6.984812237597208e-001	 8.925024981968079e-001	-1.894490222185325e+001
1	 6.886199674222857e-001	 9.001328956976938e-001	-1.929813444092033e+001
1	 6.786826392403964e-001	 9.076489043303717e-001	-1.961632490590856e+001
1	 6.686712208458168e-001	 9.150494175759467e-001	-1.989870866969129e+001
1	 6.585877145441748e-001	 9.223333744038623e-001	-2.014453436431118e+001
1	 7.603901671368816e-001	 8.493527451698488e-001	-1.631436320218956e+001
1	 7.509705501643340e-001	 8.576925332481071e-001	-1.686163229664171e+001
1	 7.414629620428398e-001	 8.659248674325376e-001	-1.737880738528932e+001
1	 7.318692447277859e-001	 8.740483722168426e-001	-1.786511002272843e+001
1	 7.221912684695439e-001	 8.820617141935768e-001	-1.831976343140257e+001
1	 7.124309306109720e-001	 8.899636027686718e-001	-1.874199433082109e+001
1	 7.025901543637467e-001	 8.977527908348270e-001	-1.913103476540663e+001
1	 6.926708875651476e-001	 9.054280754030593e-001	-1.948612392687056e+001
1	 6.826751014169743e-001	 9.129882981917744e-001	-1.980650996705092e+001
1	 6.726047892082685e-001	 9.204323461727993e-001	-2.009145179717971e+001
1	 6.624619650235539e-001	 9.277591520738914e-001	-2.034022086960236e+001
1	 7.648371273011256e-001	 8.543199817090402e-001	-1.649059992648617e+001
1	 7.553624219499897e-001	 8.627085430446098e-001	-1.703818725496265e+001
1	 7.457992309716478e-001	 8.709890220679463e-001	-1.755584119947745e+001
1	 7.361494070937295e-001	 8.791600352284323e-001	-1.804281780600609e+001
1	 7.264148315043241e-001	 8.872202413205066e-001	-1.849837402462728e+001
1	 7.165974126424529e-001	 8.951683422023676e-001	-1.892176949868183e+001
1	 7.066990849672417e-001	 9.030030834733055e-001	-1.931226835409718e+001
1	 6.967218077074369e-001	 9.107232551089428e-001	-1.966914098485323e+001
1	 6.866675635929469e-001	 9.183276920537511e-001	-1.999166583057754e+001
1	 6.765383575700943e-001	 9.258152747702764e-001	-2.027913114230647e+001
1	 6.663362155023005e-001	 9.331849297445891e-001	-2.053083673247561e+001
1	 7.692840874651026e-001	 8.592872182482987e-001	-1.666232420968614e+001
1	 7.597542937353361e-001	 8.677245528412213e-001	-1.721016355672598e+001
1	 7.501354999001023e-001	 8.760531767035098e-001	-1.772821740235183e+001
1	 7.404295694592746e-001	 8.842716982402237e-001	-1.821578112034938e+001
1	 7.306383945386620e-001	 8.923787684476852e-001	-1.867215034173760e+001
1	 7.207638946734496e-001	 9.003730816363605e-001	-1.909662269428928e+001
1	 7.108080155702147e-001	 9.082533761121285e-001	-1.948849954360678e+001
1	 7.007727278491728e-001	 9.160184348152154e-001	-1.984708773180720e+001
1	 6.906600257683416e-001	 9.236670859161581e-001	-2.017170130990162e+001
1	 6.804719259313260e-001	 9.311982033682213e-001	-2.046166325997251e+001
1	 6.702104659804474e-001	 9.386107074157872e-001	-2.071630720329830e+001
1	 7.737310476287623e-001	 8.642544547875741e-001	-1.682943048588329e+001
1	 7.641461655203298e-001	 8.727405626378856e-001	-1.737745262128208e+001
1	 7.544717688281690e-001	 8.811173313391610e-001	-1.789582601414650e+001
1	 7.447097318243972e-001	 8.893833612521392e-001	-1.838389012118675e+001
1	 7.348619575725439e-001	 8.975372955750237e-001	-1.884098412498785e+001
1	 7.249303767039608e-001	 9.055778210705480e-001	-1.926644861441021e+001
1	 7.149169461726750e-001	 9.135036687511783e-001	-1.965962726777021e+001
1	 7.048236479903732e-001	 9.213136145217460e-001	-2.001986853497386e+001
1	 6.946524879431838e-001	 9.290064797788519e-001	-2.034652731478780e+001
1	 6.844054942919948e-001	 9.365811319664784e-001	-2.063896662345547e+001
1	 6.740847164580276e-001	 9.440364850873192e-001	-2.089655925090928e+001
1	 7.781780077920549e-001	 8.692216913268166e-001	-1.699181560223045e+001
1	 7.685380373049275e-001	 8.777565724345454e-001	-1.753994834995195e+001
1	 7.588080377558133e-001	 8.861814859748360e-001	-1.805855956904923e+001
1	 7.489898941890726e-001	 8.944950242641026e-001	-1.854703747480875e+001
1	 7.390855206059577e-001	 9.026958227024335e-001	-1.900476959122292e+001
1	 7.290968587339834e-001	 9.107825605048272e-001	-1.943114436286544e+001
1	 7.190258767746318e-001	 9.187539613903393e-001	-1.982555277062524e+001
1	 7.088745681310572e-001	 9.266087942284045e-001	-2.018738994759852e+001
1	 6.986449501175005e-001	 9.343458736416880e-001	-2.051605679145333e+001
1	 6.883390626521324e-001	 9.419640605648919e-001	-2.081096156959747e+001
1	 6.779589669350750e-001	 9.494622627590182e-001	-2.107152151351677e+001
1	 7.826249679549311e-001	 8.741889278659761e-001	-1.714937875038272e+001
1	 7.729299090890868e-001	 8.827725822311451e-001	-1.769754705551347e+001
1	 7.631443066829996e-001	 8.912456406104679e-001	-1.821631304377642e+001
1	 7.532700565532763e-001	 8.996066872760375e-001	-1.870511828703326e+001
1	 7.433090836388886e-001	 9.078543498298249e-001	-1.916340336157274e+001
1	 7.332633407635165e-001	 9.159872999390961e-001	-1.959060938214541e+001
1	 7.231348073760935e-001	 9.240042540294948e-001	-1.998617954077783e+001
1	 7.129254882712437e-001	 9.319039739350611e-001	-2.034956064682479e+001
1	 7.026374122913177e-001	 9.396852675045242e-001	-2.068020466471263e+001
1	 6.922726310117700e-001	 9.473469891633052e-001	-2.097757024585933e+001
1	 6.818332174116220e-001	 9.548880404307168e-001	-2.124112425127087e+001
1	 7.870719281173405e-001	 8.791561644050018e-001	-1.730202140026600e+001
1	 7.773217808727625e-001	 8.877885920276273e-001	-1.785014739407793e+001
1	 7.674805756096940e-001	 8.963097952459918e-001	-1.836898378857318e+001
1	 7.575502189169843e-001	 9.047183502878677e-001	-1.885803003428853e+001
1	 7.475326466713246e-001	 9.130128769571098e-001	-1.931678439353237e+001
1	 7.374298227925584e-001	 9.211920393732522e-001	-1.974474538734187e+001
1	 7.272437379770697e-001	 9.292545466685291e-001	-2.014141324799373e+001
1	 7.169764084109508e-001	 9.371991536415851e-001	-2.050629137369445e+001
1	 7.066298744646620e-001	 9.450246613672161e-001	-2.083888778208029e+001
1	 6.962061993709389e-001	 9.527299177615619e-001	-2.113871655917050e+001
1	 6.857074678877023e-001	 9.603138181022490e-001	-2.140529930044352e+001
1	 7.915188882792339e-001	 8.841234009438441e-001	-1.744964723607655e+001
1	 7.817136526559121e-001	 8.928046018239354e-001	-1.799765029926222e+001
1	 7.718168445358616e-001	 9.013739498813418e-001	-1.851647146053735e+001
1	 7.618303812801720e-001	 9.098300132995164e-001	-1.900567249702008e+001
1	 7.517562097032521e-001	 9.181714040841987e-001	-1.946481391532921e+001
1	 7.415963048211068e-001	 9.263967788071933e-001	-1.989345630230845e+001
1	 7.313526685775692e-001	 9.345048393073252e-001	-2.029116168192627e+001
1	 7.210273285501975e-001	 9.424943333478461e-001	-2.065749487517050e+001
1	 7.106223366375596e-001	 9.503640552296198e-001	-2.099202485976032e+001
1	 7.001397677296706e-001	 9.581128463595066e-001	-2.129432612650344e+001
1	 6.895817183633489e-001	 9.657395957734473e-001	-2.156398002915318e+001
1	 7.959658484405603e-001	 8.890906374824527e-001	-1.759216209442748e+001
1	 7.861055244384924e-001	 8.978206116200136e-001	-1.813995891856843e+001
1	 7.761531134614674e-001	 9.064381045164527e-001	-1.865867795917902e+001
1	 7.661105436428148e-001	 9.149416763109064e-001	-1.914794769532898e+001
1	 7.559797727346580e-001	 9.233299312110028e-001	-1.960739536249235e+001
1	 7.457627868491601e-001	 9.316015182408165e-001	-2.003664819795951e+001
1	 7.354615991776011e-001	 9.397551319457669e-001	-2.043533469289866e+001
1	 7.250782486890021e-001	 9.477895130537143e-001	-2.080308584810216e+001
1	 7.146147988100369e-001	 9.557034490915921e-001	-2.113953643044631e+001
1	 7.040733360879967e-001	 9.634957749569834e-001	-2.144432622710503e+001
1	 6.934559688385951e-001	 9.711653734441448e-001	-2.171710129457329e+001
1	 8.004128086012706e-001	 8.940578740207773e-001	-1.772947390455578e+001
1	 7.904973962204593e-001	 9.028366214158040e-001	-1.827697855188388e+001
1	 7.804893823864771e-001	 9.115022591512587e-001	-1.879550736412786e+001
1	 7.703907060048888e-001	 9.200533393219624e-001	-1.928475982675654e+001
1	 7.602033357655288e-001	 9.284884583374330e-001	-1.974443431653580e+001
1	 7.499292688767163e-001	 9.368062576740198e-001	-2.017422923262670e+001
1	 7.395705297771745e-001	 9.450054245837380e-001	-2.057384413466073e+001
1	 7.291291688273840e-001	 9.530846927590595e-001	-2.094298088505915e+001
1	 7.186072609821200e-001	 9.610428429529889e-001	-2.128134479285974e+001
1	 7.080069044459487e-001	 9.688787035538357e-001	-2.158864575631904e+001
1	 6.973302193134738e-001	 9.765911511141745e-001	-2.186459940156816e+001
1	 6.585877145441748e-001	 9.223333744038623e-001	-2.014453436431118e+001
1	 6.484341417986819e-001	 9.294997594658224e-001	-2.035688904309201e+001
1	 6.382125412782213e-001	 9.365476027153264e-001	-2.053895210840253e+001
1	 6.279249682236161e-001	 9.434759805509431e-001	-2.069013513163951e+001
1	 6.175734933469836e-001	 9.502840164019311e-001	-2.080986801280806e+001
1	 6.071602015023673e-001	 9.569708810090842e-001	-2.089759993125286e+001
1	 5.966871903522223e-001	 9.635357926610373e-001	-2.095280026456812e+001
1	 5.861565690314716e-001	 9.699780173860766e-001	-2.097495947396144e+001
1	 5.755704568108352e-001	 9.762968690995890e-001	-2.096358995444132e+001
1	 5.649309817611228e-001	 9.824917097073289e-001	-2.091822684829749e+001
1	 5.542402794201589e-001	 9.885619491647812e-001	-2.083842882044501e+001
1	 6.624619650235539e-001	 9.277591520738914e-001	-2.034022086960236e+001
1	 6.522486622176337e-001	 9.349676945738026e-001	-2.055592844619977e+001
1	 6.419669314521875e-001	 9.420569979195748e-001	-2.074171191144797e+001
1	 6.316188400583205e-001	 9.490261330765413e-001	-2.089690412601395e+001
1	 6.212064709294447e-001	 9.558742183173915e-001	-2.102085454161755e+001
1	 6.107319211840905e-001	 9.626004195046680e-001	-2.111293031597252e+001
1	 6.001973008245471e-001	 9.692039503284609e-001	-2.117251739725796e+001
1	 5.896047313930607e-001	 9.756840724993500e-001	-2.119902157603715e+001
1	 5.789563446273000e-001	 9.820400958967170e-001	-2.119186950262618e+001
1	 5.682542811167918e-001	 9.882713786726242e-001	-2.115050966802930e+001
1	 5.575006889620032e-001	 9.943773273115256e-001	-2.107441334665057e+001
1	 6.663362155023005e-001	 9.331849297445891e-001	-2.053083673247561e+001
1	 6.560631826359605e-001	 9.404356296824865e-001	-2.074991409657610e+001
1	 6.457213216255495e-001	 9.475663931245539e-001	-2.093945046234114e+001
1	 6.353127118924514e-001	 9.545762856028903e-001	-2.109869925522025e+001
1	 6.248394485113695e-001	 9.614644202336153e-001	-2.122692868216901e+001
1	 6.143036408653175e-001	 9.682299580010184e-001	-2.132342301424222e+001
1	 6.037074112964165e-001	 9.748721079966467e-001	-2.138748384015806e+001
1	 5.930528937542329e-001	 9.813901276133724e-001	-2.141843128837463e+001
1	 5.823422324433804e-001	 9.877833226945741e-001	-2.141560521531826e+001
1	 5.715775804720992e-001	 9.940510476386206e-001	-2.137836635750488e+001
1	 5.607610985034971e-001	 1.000192705458935e+000	-2.130609744540787e+001
1	 6.702104659804474e-001	 9.386107074157872e-001	-2.071630720329830e+001
1	 6.598777030536939e-001	 9.459035647916976e-001	-2.093878002901166e+001
1	 6.494757117983337e-001	 9.530757883300821e-001	-2.113210987720719e+001
1	 6.390065837260276e-001	 9.601264381298030e-001	-2.129547003188387e+001
1	 6.284724260927680e-001	 9.670546221504111e-001	-2.142804667751962e+001
1	 6.178753605460502e-001	 9.738594964979439e-001	-2.152904035273663e+001
1	 6.072175217678243e-001	 9.805402656654042e-001	-2.159766737646224e+001
1	 5.965010561149744e-001	 9.870961827279575e-001	-2.163316124375026e+001
1	 5.857281202590576e-001	 9.935265494929783e-001	-2.163477398851656e+001
1	 5.749008798270259e-001	 9.998307166051436e-001	-2.160177751056081e+001
1	 5.640215080446244e-001	 1.006008083606842e+000	-2.153346486435002e+001
1	 6.740847164580276e-001	 9.440364850873192e-001	-2.089655925090928e+001
1	 6.636922234708647e-001	 9.513714999012607e-001	-2.112246179481781e+001
1	 6.532301019705661e-001	 9.585851835359758e-001	-2.131963360290343e+001
1	 6.427004555590682e-001	 9.656765906570914e-001	-2.148716712931921e+001
1	 6.321054036736513e-001	 9.726448240675882e-001	-2.162416577668617e+001
1	 6.214470802262906e-001	 9.794890349952523e-001	-2.172974552422859e+001
1	 6.107276322387640e-001	 9.862084233345432e-001	-2.180303653001963e+001
1	 5.999492184752718e-001	 9.928022378429181e-001	-2.184318470410391e+001
1	 5.891140080743142e-001	 9.992697762917474e-001	-2.184935324937346e+001
1	 5.782241791815530e-001	 1.005610385572016e+000	-2.182072416717489e+001
1	 5.672819175853689e-001	 1.011823461755081e+000	-2.175649972474732e+001
1	 6.779589669350750e-001	 9.494622627590182e-001	-2.107152151351677e+001
1	 6.675067438875044e-001	 9.568394350109999e-001	-2.130089641849352e+001
1	 6.569844921422731e-001	 9.640945787420523e-001	-2.150196637899676e+001
1	 6.463943273915921e-001	 9.712267431845673e-001	-2.167374234836608e+001
1	 6.357383812540295e-001	 9.782350259849560e-001	-2.181524420590018e+001
1	 6.250187999060398e-001	 9.851185734927530e-001	-2.192550256284254e+001
1	 6.142377427092285e-001	 9.918765810038726e-001	-2.200356054417032e+001
1	 6.033973808351123e-001	 9.985082929580651e-001	-2.204847554256251e+001
1	 5.924998958891323e-001	 1.005013003090699e+000	-2.205932094101873e+001
1	 5.815474785356608e-001	 1.011390054539064e+000	-2.203518780071924e+001
1	 5.705423271257143e-001	 1.017638839903487e+000	-2.197518651083030e+001
1	 6.818332174116220e-001	 9.548880404307168e-001	-2.124112425127087e+001
1	 6.713212643036441e-001	 9.623073701207389e-001	-2.147402235587311e+001
1	 6.607388823134808e-001	 9.696039739481287e-001	-2.167905420103739e+001
1	 6.500881992236183e-001	 9.767768957120437e-001	-2.185514858535503e+001
1	 6.393713588339128e-001	 9.838252279023240e-001	-2.200124114084569e+001
1	 6.285905195852996e-001	 9.907481119902529e-001	-2.211627632014989e+001
1	 6.177478531792113e-001	 9.975447386732016e-001	-2.219920936130511e+001
1	 6.068455431944816e-001	 1.004214348073213e+000	-2.224900822607548e+001
1	 5.958857837034940e-001	 1.010756229889650e+000	-2.226465550789969e+001
1	 5.848707778893305e-001	 1.017169723506112e+000	-2.224515030564573e+001
1	 5.738027366656446e-001	 1.023454218051892e+000	-2.218951005947792e+001
1	 6.857074678877023e-001	 9.603138181022490e-001	-2.140529930044352e+001
1	 6.751357847193147e-001	 9.677753052303019e-001	-2.164177945368966e+001
1	 6.644932724842150e-001	 9.751133691540228e-001	-2.185084428507686e+001
1	 6.537820710551658e-001	 9.823270482393318e-001	-2.203133980116088e+001
1	 6.430043364133125e-001	 9.894154298195014e-001	-2.218211667983701e+001
1	 6.321622392640717e-001	 9.963776504875617e-001	-2.230203244207747e+001
1	 6.212579636487060e-001	 1.003212896342341e+000	-2.238995360311719e+001
1	 6.102937055533668e-001	 1.009920403188173e+000	-2.244475779863960e+001
1	 5.992716715173813e-001	 1.016499456688419e+000	-2.246533588161926e+001
1	 5.881940772425429e-001	 1.022949392472985e+000	-2.245059398559268e+001
1	 5.770631462051433e-001	 1.029269596200132e+000	-2.239945555025623e+001
1	 6.895817183633489e-001	 9.657395957734473e-001	-2.156398002915318e+001
1	 6.789503051345485e-001	 9.732432403395139e-001	-2.180410891050335e+001
1	 6.682476626545025e-001	 9.806227643595511e-001	-2.201728503338252e+001
1	 6.574759428862533e-001	 9.878772007662448e-001	-2.220227099129714e+001
1	 6.466373139922385e-001	 9.950056317362974e-001	-2.235783181790006e+001
1	 6.357339589423576e-001	 1.002007188984487e+000	-2.248273734659254e+001
1	 6.247680741177057e-001	 1.008881054011098e+000	-2.257576455151897e+001
1	 6.137418679117541e-001	 1.015626458302759e+000	-2.263569986508837e+001
1	 6.026575593307760e-001	 1.022242683486824e+000	-2.266134146725101e+001
1	 5.915173765952790e-001	 1.028729061439508e+000	-2.265150154188818e+001
1	 5.803235557441941e-001	 1.035084974348039e+000	-2.260500849579013e+001
1	 6.934559688385951e-001	 9.711653734441448e-001	-2.171710129457329e+001
1	 6.827648255493757e-001	 9.787111754481978e-001	-2.196095323893860e+001
1	 6.720020528243689e-001	 9.861321595645306e-001	-2.217832600130159e+001
1	 6.611698147169000e-001	 9.934273532925945e-001	-2.236789815701432e+001
1	 6.502702915707009e-001	 1.000595833652521e+000	-2.252834842172402e+001
1	 6.393056786201591e-001	 1.007636727480838e+000	-2.265835820213569e+001
1	 6.282781845862040e-001	 1.014549211679284e+000	-2.275661413020023e+001
1	 6.171900302696303e-001	 1.021332513416781e+000	-2.282181057542546e+001
1	 6.060434471436604e-001	 1.027985910284681e+000	-2.285265213011286e+001
1	 5.948406759475193e-001	 1.034508730405505e+000	-2.284785606244269e+001
1	 5.835839652827812e-001	 1.040900352495448e+000	-2.280615473246131e+001
1	 6.973302193134738e-001	 9.765911511141745e-001	-2.186459940156816e+001
1	 6.865793459638276e-001	 9.841791105561778e-001	-2.211225622918103e+001
1	 6.757564429938407e-001	 9.916415547687792e-001	-2.233391786522887e+001
1	 6.648636865471249e-001	 9.989775058181928e-001	-2.252817827736169e+001
1	 6.539032691487107e-001	 1.006186035567982e+000	-2.269362920544690e+001
1	 6.428773982974777e-001	 1.013266265976422e+000	-2.282886290677424e+001
1	 6.317882950541940e-001	 1.020217369346709e+000	-2.293247488679890e+001
1	 6.206381926269818e-001	 1.027038568530055e+000	-2.300306660968080e+001
1	 6.094293349560167e-001	 1.033729137081809e+000	-2.303924818298215e+001
1	 5.981639752992450e-001	 1.040288399370800e+000	-2.303964101100828e+001
1	 5.868443748208878e-001	 1.046715730642193e+000	-2.300288041141324e+001
1	 5.542402794201589e-001	 9.885619491647812e-001	-2.083842882044501e+001
1	 5.435021060254973e-001	 9.945061633163864e-001	-2.073341964588927e+001
1	 5.327170078595428e-001	 1.000324778960203e+000	-2.061283914270668e+001
1	 5.218871345191708e-001	 1.006017351124409e+000	-2.047696294527217e+001
1	 5.110146377703451e-001	 1.011583482668233e+000	-2.032610678348966e+001
1	 5.001016702530481e-001	 1.017022824127247e+000	-2.016062473611985e+001
1	 4.891503841983314e-001	 1.022335073517847e+000	-1.998090744671390e+001
1	 4.781629301589312e-001	 1.027519976101599e+000	-1.978738030660240e+001
1	 4.671414557548592e-001	 1.032577324110273e+000	-1.958050160939397e+001
1	 4.560881044353323e-001	 1.037506956432366e+000	-1.936076068141845e+001
1	 4.450050142583599e-001	 1.042308758262027e+000	-1.912867599252823e+001
1	 5.575006889620032e-001	 9.943773273115256e-001	-2.107441334665057e+001
1	 5.466993464971670e-001	 1.000356509280032e+000	-2.097293959329297e+001
1	 5.358508032182962e-001	 1.006209353886908e+000	-2.085592938221765e+001
1	 5.249572213676379e-001	 1.011935413542708e+000	-2.072366802829027e+001
1	 5.140207653692879e-001	 1.017534288770408e+000	-2.057648130293547e+001
1	 5.030436005265028e-001	 1.023005628049796e+000	-2.041473364659949e+001
1	 4.920278917312021e-001	 1.028349127620793e+000	-2.023882634385533e+001
1	 4.809758021871164e-001	 1.033564531246422e+000	-2.004919566569143e+001
1	 4.698894921480004e-001	 1.038651629936216e+000	-1.984631098352345e+001
1	 4.587711176722779e-001	 1.043610261630902e+000	-1.963067285945526e+001
1	 4.476228293954507e-001	 1.048440310849263e+000	-1.940281111728573e+001
1	 5.607610985034971e-001	 1.000192705458935e+000	-2.130609744540786e+001
1	 5.498965869684840e-001	 1.006206855244298e+000	-2.120830045478481e+001
1	 5.389845985766816e-001	 1.012093928814182e+000	-2.109502464544052e+001
1	 5.280273082157135e-001	 1.017853475961520e+000	-2.096656295038447e+001
1	 5.170268929678102e-001	 1.023485094873038e+000	-2.082324905990421e+001
1	 5.059855307995049e-001	 1.028988431972739e+000	-2.066545559726861e+001
1	 4.949053992635882e-001	 1.034363181724073e+000	-2.049359225715168e+001
1	 4.837886742147887e-001	 1.039609086391518e+000	-2.030810391140089e+001
1	 4.726375285406065e-001	 1.044725935762374e+000	-2.010946868676637e+001
1	 4.614541309086757e-001	 1.049713566829601e+000	-1.989819601919955e+001
1	 4.502406445319921e-001	 1.054571863436612e+000	-1.967482468928861e+001
1	 5.640215080446244e-001	 1.006008083606842e+000	-2.153346486435002e+001
1	 5.530938274394393e-001	 1.012057201209028e+000	-2.143948838486774e+001
1	 5.421183939347026e-001	 1.017978503741883e+000	-2.133011255402622e+001
1	 5.310973950634156e-001	 1.023771538380717e+000	-2.120563589655714e+001
1	 5.200330205659460e-001	 1.029435900976008e+000	-2.106639793547899e+001
1	 5.089274610721061e-001	 1.034971235895975e+000	-2.091277733510553e+001
1	 4.977829067955587e-001	 1.040377235827597e+000	-2.074519000689507e+001
1	 4.866015462420330e-001	 1.045653641536811e+000	-2.056408718283229e+001
1	 4.753855649327763e-001	 1.050800241588682e+000	-2.036995346104133e+001
1	 4.641371441446346e-001	 1.055816872028405e+000	-2.016330482829503e+001
1	 4.528584596681014e-001	 1.060703416024027e+000	-1.994468666406481e+001
1	 5.672819175853689e-001	 1.011823461755081e+000	-2.175649972474731e+001
1	 5.562910679100238e-001	 1.017907547174069e+000	-2.166648985634764e+001
1	 5.452521892923617e-001	 1.023863078669870e+000	-2.156118101419948e+001
1	 5.341674819107612e-001	 1.029689600800171e+000	-2.144087532343301e+001
1	 5.230391481637290e-001	 1.035386707079203e+000	-2.130591608935233e+001
1	 5.118693913443568e-001	 1.040954039819402e+000	-2.115668591177200e+001
1	 5.006604143271817e-001	 1.046391289931278e+000	-2.099360476235406e+001
1	 4.894144182689337e-001	 1.051698196682225e+000	-2.081712802970439e+001
1	 4.781336013246084e-001	 1.056874547415076e+000	-2.062774453698393e+001
1	 4.668201573802652e-001	 1.061920177227259e+000	-2.042597453676921e+001
1	 4.554762748038950e-001	 1.066834968611455e+000	-2.021236768785550e+001
1	 5.705423271257143e-001	 1.017638839903487e+000	-2.197518651083029e+001
1	 5.594883083802298e-001	 1.023757893139266e+000	-2.188929165123890e+001
1	 5.483859846496617e-001	 1.029747653597998e+000	-2.178821820862794e+001
1	 5.372375687577682e-001	 1.035607663219751e+000	-2.167226995149875e+001
1	 5.260452757611932e-001	 1.041337513182507e+000	-2.154179195186606e+001
1	 5.148113216163088e-001	 1.046936843742920e+000	-2.139716867490567e+001
1	 5.035379218585261e-001	 1.052405344035029e+000	-2.123882203180278e+001
1	 4.922272902955757e-001	 1.057742751827686e+000	-2.106720940061846e+001
1	 4.808816377162019e-001	 1.062948853241491e+000	-2.088282161998153e+001
1	 4.695031706156770e-001	 1.068023482426107e+000	-2.068618096039190e+001
1	 4.580940899394900e-001	 1.072966521198848e+000	-2.047783907788003e+001
1	 5.738027366656446e-001	 1.023454218051892e+000	-2.218951005947792e+001
1	 5.626855488500479e-001	 1.029608239104461e+000	-2.210788085197977e+001
1	 5.515197800066060e-001	 1.035632228526125e+000	-2.201121258856823e+001
1	 5.403076556044534e-001	 1.041525725639328e+000	-2.189980875760581e+001
1	 5.290514033583723e-001	 1.047288319285806e+000	-2.177401421632172e+001
1	 5.177532518880132e-001	 1.052919647666428e+000	-2.163421325971245e+001
1	 5.064154293896601e-001	 1.058419398138762e+000	-2.148082765288914e+001
1	 4.950401623220435e-001	 1.063787306973117e+000	-2.131431463172844e+001
1	 4.836296741076555e-001	 1.069023159067863e+000	-2.113516487668739e+001
1	 4.721861838509799e-001	 1.074126787624892e+000	-2.094390046460297e+001
1	 4.607119050750031e-001	 1.079098073786155e+000	-2.074107280327245e+001
1	 5.770631462051433e-001	 1.029269596200132e+000	-2.239945555025622e+001
1	 5.658827893194698e-001	 1.035458585069502e+000	-2.232224483294504e+001
1	 5.546535753631967e-001	 1.041516803454109e+000	-2.223015286627783e+001
1	 5.433777424508345e-001	 1.047443788058774e+000	-2.212348096772874e+001
1	 5.320575309553004e-001	 1.053239125388984e+000	-2.200257183155164e+001
1	 5.206951821595213e-001	 1.058902451589823e+000	-2.186780758084248e+001
1	 5.092929369206524e-001	 1.064433452242388e+000	-2.171960778332972e+001
1	 4.978530343484220e-001	 1.069831862118443e+000	-2.155842743579052e+001
1	 4.863777104990680e-001	 1.075097464894125e+000	-2.138475492198744e+001
1	 4.748691970862837e-001	 1.080230092823560e+000	-2.119910994898412e+001
1	 4.633297202105512e-001	 1.085229626373328e+000	-2.100204146666502e+001
1	 5.803235557441941e-001	 1.035084974348039e+000	-2.260500849579013e+001
1	 5.690800297884867e-001	 1.041308931034233e+000	-2.253237125224485e+001
1	 5.577873707194374e-001	 1.047401378381807e+000	-2.244502800768428e+001
1	 5.464478292969289e-001	 1.053361850477960e+000	-2.234327604996680e+001
1	 5.350636585520111e-001	 1.059189931491927e+000	-2.222745399474152e+001
1	 5.236371124308838e-001	 1.064885255513005e+000	-2.209793982454020e+001
1	 5.121704444515711e-001	 1.070447506345819e+000	-2.195514889191980e+001
1	 5.006659063747958e-001	 1.075876417263589e+000	-2.179953189158515e+001
1	 4.891257468905379e-001	 1.081171770720215e+000	-2.163157280641124e+001
1	 4.775522103216985e-001	 1.086333398022053e+000	-2.145178683225329e+001
1	 4.659475353462514e-001	 1.091361178960316e+000	-2.126071828639338e+001
1	 5.835839652827812e-001	 1.040900352495448e+000	-2.280615473246131e+001
1	 5.722772702570900e-001	 1.047159276998498e+000	-2.273824804379954e+001
1	 5.609211660753308e-001	 1.053285953309077e+000	-2.265582722529790e+001
1	 5.495179161427544e-001	 1.059279912896756e+000	-2.255918370778020e+001
1	 5.380697861485384e-001	 1.065140737594519e+000	-2.244865014449220e+001
1	 5.265790427021528e-001	 1.070868059435873e+000	-2.232459844105721e+001
1	 5.150479519824853e-001	 1.076461560448969e+000	-2.218743774984257e+001
1	 5.034787784012496e-001	 1.081920972408479e+000	-2.203761243369195e+001
1	 4.918737832821646e-001	 1.087246076546066e+000	-2.187560000396100e+001
1	 4.802352235573338e-001	 1.092436703220316e+000	-2.170190903776422e+001
1	 4.685653504822201e-001	 1.097492731547069e+000	-2.151707707929582e+001
1	 5.868443748208878e-001	 1.046715730642193e+000	-2.300288041141324e+001
1	 5.754745107252709e-001	 1.053009622962143e+000	-2.293986340967721e+001
1	 5.640549614308797e-001	 1.059170528235776e+000	-2.286253997136326e+001
1	 5.525880029883279e-001	 1.065197975315034e+000	-2.277119387345236e+001
1	 5.410759137449159e-001	 1.071091543696645e+000	-2.266614995411411e+001
1	 5.295209729733791e-001	 1.076850863358325e+000	-2.254777213731960e+001
1	 5.179254595134631e-001	 1.082475614551749e+000	-2.241646142226974e+001
1	 5.062916504278681e-001	 1.087965527553038e+000	-2.227265384260574e+001
1	 4.946218196740463e-001	 1.093320382371615e+000	-2.211681840034854e+001
1	 4.829182367932998e-001	 1.098540008418292e+000	-2.194945497948752e+001
1	 4.711831656185745e-001	 1.103624284133538e+000	-2.177109224408865e+001
1	 4.450050142583599e-001	 1.042308758262027e+000	-1.912867599252823e+001
1	 4.338926480438308e-001	 1.046983352405783e+000	-1.888971909748000e+001
1	 4.227547913355574e-001	 1.051529986206963e+000	-1.864952473232403e+001
1	 4.115935603539075e-001	 1.055948682142524e+000	-1.840879103544647e+001
1	 4.004110612167509e-001	 1.060239507260171e+000	-1.816824232003884e+001
1	 3.892093888243872e-001	 1.064402572652689e+000	-1.792862625833556e+001
1	 3.779906257690123e-001	 1.068438032900888e+000	-1.769071108120489e+001
1	 3.667568412696644e-001	 1.072346085486329e+000	-1.745528279883667e+001
1	 3.555100901335350e-001	 1.076126970175029e+000	-1.722314244808250e+001
1	 3.442524117444684e-001	 1.079780968373366e+000	-1.699510337181398e+001
1	 3.329858290794200e-001	 1.083308402457412e+000	-1.677198853544554e+001
1	 4.476228293954507e-001	 1.048440310849263e+000	-1.940281111728573e+001
1	 4.364450928600323e-001	 1.053142404061580e+000	-1.916828287827561e+001
1	 4.252417158789147e-001	 1.057715784183553e+000	-1.893277326277146e+001
1	 4.140148271214728e-001	 1.062160473824358e+000	-1.869694096943860e+001
1	 4.027665450951534e-001	 1.066476540426113e+000	-1.846147088664109e+001
1	 3.914989770238443e-001	 1.070664095735122e+000	-1.822707131905850e+001
1	 3.802142177509245e-001	 1.074723295241534e+000	-1.799447122891518e+001
1	 3.689143486679464e-001	 1.078654337588626e+000	-1.776441749750377e+001
1	 3.576014366698349e-001	 1.082457463952872e+000	-1.753767221250532e+001
1	 3.462775331374384e-001	 1.086132957396065e+000	-1.731500998641019e+001
1	 3.349446729481994e-001	 1.089681142190702e+000	-1.709721531114123e+001
1	 4.502406445319921e-001	 1.054571863436612e+000	-1.967482468928861e+001
1	 4.389975376756976e-001	 1.059301455717451e+000	-1.944499282087235e+001
1	 4.277286404217619e-001	 1.063901582160182e+000	-1.921443421586215e+001
1	 4.164360938885639e-001	 1.068372265506202e+000	-1.898377016894886e+001
1	 4.051220289731260e-001	 1.072713573592043e+000	-1.875364823446879e+001
1	 3.937885652229204e-001	 1.076925618817524e+000	-1.852473949102359e+001
1	 3.824378097325087e-001	 1.081008557582138e+000	-1.829773581996085e+001
1	 3.710718560659539e-001	 1.084962589690872e+000	-1.807334720334350e+001
1	 3.596927832059128e-001	 1.088787957730661e+000	-1.785229904686260e+001
1	 3.483026545302353e-001	 1.092484946418709e+000	-1.763532953295207e+001
1	 3.369035168168484e-001	 1.096053881923943e+000	-1.742318700916525e+001
1	 4.528584596681014e-001	 1.060703416024027e+000	-1.994468666406481e+001
1	 4.415499824909459e-001	 1.065460507373348e+000	-1.971981437317530e+001
1	 4.302155649642157e-001	 1.070087380136803e+000	-1.949446952718649e+001
1	 4.188573606552924e-001	 1.074584057188009e+000	-1.926923801203592e+001
1	 4.074775128507713e-001	 1.078950606757912e+000	-1.904473209771722e+001
1	 3.960781534217086e-001	 1.083187141899845e+000	-1.882158773657635e+001
1	 3.846614017138454e-001	 1.087293819922646e+000	-1.860046187469998e+001
1	 3.732293634637551e-001	 1.091270841793014e+000	-1.838202978198979e+001
1	 3.617841297418241e-001	 1.095118451508342e+000	-1.816698240632848e+001
1	 3.503277759229020e-001	 1.098836935441248e+000	-1.795602375706602e+001
1	 3.388623606853999e-001	 1.102426621657084e+000	-1.774986832284549e+001
1	 4.554762748038950e-001	 1.066834968611455e+000	-2.021236768785550e+001
1	 4.441024273058964e-001	 1.071619559029224e+000	-1.999271377743241e+001
1	 4.327024895063937e-001	 1.076273178113373e+000	-1.977284200742451e+001
1	 4.212786274217699e-001	 1.080795848869734e+000	-1.955330481064469e+001
1	 4.098329967281922e-001	 1.085187639923671e+000	-1.933468118226100e+001
1	 3.983677416203011e-001	 1.089448664982036e+000	-1.911757400748575e+001
1	 3.868849936950153e-001	 1.093579082263007e+000	-1.890260740158055e+001
1	 3.753868708614180e-001	 1.097579093894998e+000	-1.869042406773400e+001
1	 3.638754762776242e-001	 1.101448945285860e+000	-1.848168267819225e+001
1	 3.523528973154823e-001	 1.105188924463627e+000	-1.827705528383536e+001
1	 3.408212045538864e-001	 1.108799361390078e+000	-1.807722475719956e+001
1	 4.580940899394900e-001	 1.072966521198848e+000	-2.047783907788003e+001
1	 4.466548721206684e-001	 1.077778610685035e+000	-2.026365804753734e+001
1	 4.351894140484124e-001	 1.082458976089843e+000	-2.004951531734207e+001
1	 4.236998941881077e-001	 1.087007640551330e+000	-1.983593178392319e+001
1	 4.121884806054926e-001	 1.091424673089274e+000	-1.962345513788911e+001
1	 4.006573298187909e-001	 1.095710188064046e+000	-1.941265721667362e+001
1	 3.891085856760995e-001	 1.099864344603167e+000	-1.920413136890714e+001
1	 3.775443782590107e-001	 1.103887345996768e+000	-1.899848983584692e+001
1	 3.659668228133681e-001	 1.107779439063160e+000	-1.879636115522278e+001
1	 3.543780187080192e-001	 1.111540913485793e+000	-1.859838759267161e+001
1	 3.427800484223401e-001	 1.115172101122873e+000	-1.840522260574348e+001
1	 4.607119050750031e-001	 1.079098073786155e+000	-2.074107280327245e+001
1	 4.492073169353806e-001	 1.083937662340732e+000	-2.053261494710666e+001
1	 4.376763385903898e-001	 1.088644774066171e+000	-2.032445394364004e+001
1	 4.261211609544175e-001	 1.093219432232752e+000	-2.011708103244851e+001
1	 4.145439644827756e-001	 1.097661706254673e+000	-1.991101453148917e+001
1	 4.029469180172703e-001	 1.101971711145824e+000	-1.970679721090749e+001
1	 3.913321776571787e-001	 1.106149606943075e+000	-1.950499367757189e+001
1	 3.797018856566011e-001	 1.110195598098271e+000	-1.930618777584594e+001
1	 3.680581693491115e-001	 1.114109932840187e+000	-1.911098000994554e+001
1	 3.564031401005560e-001	 1.117892902507692e+000	-1.891998499304380e+001
1	 3.447388922907940e-001	 1.121544840855421e+000	-1.873382892808894e+001
1	 4.633297202105512e-001	 1.085229626373328e+000	-2.100204146666502e+001
1	 4.517597617501526e-001	 1.090096713996271e+000	-2.079955296830061e+001
1	 4.401632631324425e-001	 1.094830572042311e+000	-2.059762317562047e+001
1	 4.285424277208113e-001	 1.099431223913954e+000	-2.039671551332565e+001
1	 4.168994483601443e-001	 1.103898739419819e+000	-2.019732082113787e+001
1	 4.052365062158326e-001	 1.108233234227321e+000	-1.999995474441979e+001
1	 3.935557696383331e-001	 1.112434869282676e+000	-1.980515513470843e+001
1	 3.818593930542573e-001	 1.116503850199452e+000	-1.961347946566598e+001
1	 3.701495158849095e-001	 1.120440426616887e+000	-1.942550226978786e+001
1	 3.584282614931360e-001	 1.124244891529271e+000	-1.924181260102702e+001
1	 3.466977361592805e-001	 1.127917580587672e+000	-1.906301152830222e+001
1	 4.659475353462514e-001	 1.091361178960316e+000	-2.126071828639338e+001
1	 4.543122065651033e-001	 1.096255765651604e+000	-2.106444131135689e+001
1	 4.426501876746877e-001	 1.101016370018216e+000	-2.086898908264163e+001
1	 4.309636944874001e-001	 1.105643015594888e+000	-2.067479901612773e+001
1	 4.192549322377017e-001	 1.110135772584664e+000	-2.048233633106777e+001
1	 4.075260944145701e-001	 1.114494757308485e+000	-2.029209145341522e+001
1	 3.957793616196440e-001	 1.118720131621919e+000	-2.010457742823402e+001
1	 3.840169004520477e-001	 1.122812102300257e+000	-1.992032734670424e+001
1	 3.722408624208176e-001	 1.126770920393205e+000	-1.973989179306398e+001
1	 3.604533828858025e-001	 1.130596880550478e+000	-1.956383631664613e+001
1	 3.486565800278319e-001	 1.134290320319577e+000	-1.939273893399020e+001
1	 4.685653504822201e-001	 1.097492731547069e+000	-2.151707707929582e+001
1	 4.568646513803520e-001	 1.102414817306685e+000	-2.132724986481084e+001
1	 4.451371122172427e-001	 1.107202167993842e+000	-2.113851849232728e+001
1	 4.333849612542961e-001	 1.111854807275511e+000	-2.095129613964012e+001
1	 4.216104161155513e-001	 1.116372805749161e+000	-2.076602422747123e+001
1	 4.098156826135754e-001	 1.120756280389267e+000	-2.058316983143421e+001
1	 3.980029536011918e-001	 1.125005393960752e+000	-2.040322310224511e+001
1	 3.861744078500397e-001	 1.129120354400631e+000	-2.022669469969933e+001
1	 3.743322089568910e-001	 1.133101414169086e+000	-2.005411324576564e+001
1	 3.624785042785985e-001	 1.136948869571257e+000	-1.988602280197473e+001
1	 3.506154238964809e-001	 1.140663060051086e+000	-1.972298037608971e+001
1	 4.711831656185745e-001	 1.103624284133538e+000	-2.177109224408865e+001
1	 4.594170961960175e-001	 1.108573868961468e+000	-2.158794918637659e+001
1	 4.476240367602246e-001	 1.113387965969144e+000	-2.140617896950230e+001
1	 4.358062280216104e-001	 1.118066598955774e+000	-2.122617226938231e+001
1	 4.239658999937963e-001	 1.122609838913262e+000	-2.104834849511103e+001
1	 4.121052708129413e-001	 1.127017803469615e+000	-2.087315320553707e+001
1	 4.002265455830573e-001	 1.131290656299120e+000	-2.070105553323582e+001
1	 3.883319152483020e-001	 1.135428606500521e+000	-2.053254562141492e+001
1	 3.764235554931850e-001	 1.139431907944475e+000	-2.036813207912404e+001
1	 3.645036256715677e-001	 1.143300858591557e+000	-2.020833945996757e+001
1	 3.525742677652601e-001	 1.147035799782149e+000	-2.005370576932892e+001
1	 3.329858290794200e-001	 1.083308402457412e+000	-1.677198853544554e+001
1	 3.217123475926619e-001	 1.086709634806486e+000	-1.655619430041861e+001
1	 3.104339538237796e-001	 1.089985066273683e+000	-1.635011799702942e+001
1	 2.991526150132510e-001	 1.093135136259025e+000	-1.615459271901602e+001
1	 2.878702784020723e-001	 1.096160322218095e+000	-1.597045342939282e+001
1	 2.765888703972086e-001	 1.099061138879599e+000	-1.579853426960329e+001
1	 2.653102957682797e-001	 1.101838137444058e+000	-1.563966593439556e+001
1	 2.540364368758318e-001	 1.104491904764940e+000	-1.549467311642214e+001
1	 2.427691529314908e-001	 1.107023062513534e+000	-1.536437202428128e+001
1	 2.315102792902392e-001	 1.109432266328881e+000	-1.524956797743493e+001
1	 2.202616267749964e-001	 1.111720204954052e+000	-1.515105308115093e+001
1	 3.349446729481994e-001	 1.089681142190702e+000	-1.709721531114123e+001
1	 3.236048733537980e-001	 1.093102382847857e+000	-1.688668121734576e+001
1	 3.122601325799639e-001	 1.096397082578721e+000	-1.668580855948670e+001
1	 3.009124294397890e-001	 1.099565683368168e+000	-1.649540268769260e+001
1	 2.895637226292336e-001	 1.102608665480506e+000	-1.631627114357628e+001
1	 2.782159498876675e-001	 1.105526546672431e+000	-1.614922098423848e+001
1	 2.668710271898299e-001	 1.108319881387002e+000	-1.599505617133191e+001
1	 2.555308479695611e-001	 1.110989259929961e+000	-1.585457502918094e+001
1	 2.441972823756038e-001	 1.113535307629695e+000	-1.572856777566858e+001
1	 2.328721765597172e-001	 1.115958683982159e+000	-1.561781412932641e+001
1	 2.215573519972832e-001	 1.118260081782081e+000	-1.552308099576919e+001
1	 3.369035168168484e-001	 1.096053881923943e+000	-1.742318700916525e+001
1	 3.254973991148399e-001	 1.099495130889186e+000	-1.721826241987397e+001
1	 3.140863113360830e-001	 1.102809098883723e+000	-1.702295690148434e+001
1	 3.026722438662864e-001	 1.105996230477284e+000	-1.683804365252991e+001
1	 2.912571668563761e-001	 1.109057008742898e+000	-1.666429835719854e+001
1	 2.798430293781279e-001	 1.111991954465246e+000	-1.650249653235970e+001
1	 2.684317586114020e-001	 1.114801625329929e+000	-1.635341093884313e+001
1	 2.570252590633344e-001	 1.117486615094961e+000	-1.621780906094744e+001
1	 2.456254118197869e-001	 1.120047552745821e+000	-1.609645065787533e+001
1	 2.342340738292959e-001	 1.122485101635380e+000	-1.599008539051313e+001
1	 2.228530772197077e-001	 1.124799958610022e+000	-1.589945052669201e+001
1	 3.388623606853999e-001	 1.102426621657084e+000	-1.774986832284549e+001
1	 3.273899248758108e-001	 1.105887878930429e+000	-1.755090528676157e+001
1	 3.159124900921533e-001	 1.109221115188658e+000	-1.736153198617124e+001
1	 3.044320582927534e-001	 1.112426777586352e+000	-1.718248513745045e+001
1	 2.929506110835044e-001	 1.115505352005261e+000	-1.701450420891638e+001
1	 2.814701088685893e-001	 1.118457362258053e+000	-1.685832879897399e+001
1	 2.699924900329904e-001	 1.121283369272862e+000	-1.671469607756176e+001
1	 2.585196701571411e-001	 1.123983970259976e+000	-1.658433829484704e+001
1	 2.470535412640223e-001	 1.126559797861965e+000	-1.646798036083742e+001
1	 2.355959710989501e-001	 1.129011519288615e+000	-1.636633749930293e+001
1	 2.241488024422355e-001	 1.131339835437960e+000	-1.628011297912587e+001
1	 3.408212045538864e-001	 1.108799361390078e+000	-1.807722475719956e+001
1	 3.292824506367342e-001	 1.112280626971544e+000	-1.788457794671948e+001
1	 3.177386688481909e-001	 1.115633131493490e+000	-1.770150349022368e+001
1	 3.061918727192004e-001	 1.118857324695348e+000	-1.752869736701213e+001
1	 2.946440553106233e-001	 1.121953695267586e+000	-1.736685854687945e+001
1	 2.830971883590516e-001	 1.124922770050854e+000	-1.721668640740209e+001
1	 2.715532214545899e-001	 1.127765113215821e+000	-1.707887821343435e+001
1	 2.600140812509698e-001	 1.130481325425043e+000	-1.695412666271277e+001
1	 2.484816707082928e-001	 1.133072042978181e+000	-1.684311750120663e+001
1	 2.369578683686545e-001	 1.135537936941932e+000	-1.674652721156643e+001
1	 2.254445276648321e-001	 1.137879712265981e+000	-1.666502077775590e+001
1	 3.427800484223401e-001	 1.115172101122873e+000	-1.840522260574348e+001
1	 3.311749763976341e-001	 1.118673375012488e+000	-1.821924925698317e+001
1	 3.195648476042123e-001	 1.122045147798187e+000	-1.804284178345895e+001
1	 3.079516871456370e-001	 1.125287871804252e+000	-1.787665124639029e+001
1	 2.963374995377376e-001	 1.128402038529865e+000	-1.772133190845818e+001
1	 2.847242678495141e-001	 1.131388177843655e+000	-1.757753869818385e+001
1	 2.731139528761948e-001	 1.134246857158827e+000	-1.744592473528198e+001
1	 2.615084923448095e-001	 1.136978680590200e+000	-1.732713892083499e+001
1	 2.499098001525807e-001	 1.139584288094523e+000	-1.722182359587210e+001
1	 2.383197656383840e-001	 1.142064354595402e+000	-1.713061227166147e+001
1	 2.267402528874632e-001	 1.144419589094170e+000	-1.705412743475856e+001
1	 3.447388922907940e-001	 1.121544840855421e+000	-1.873382892808894e+001
1	 3.330675021585340e-001	 1.125066123053216e+000	-1.855488878261527e+001
1	 3.213910263602337e-001	 1.128457164102716e+000	-1.838551790914225e+001
1	 3.097115015720737e-001	 1.131718418913041e+000	-1.822631834204022e+001
1	 2.980309437648518e-001	 1.134850381792088e+000	-1.807789550066288e+001
1	 2.863513473399765e-001	 1.137853585636464e+000	-1.794085570869978e+001
1	 2.746746842977998e-001	 1.140728601101902e+000	-1.781580377312634e+001
1	 2.630029034386492e-001	 1.143476035755484e+000	-1.770334062653834e+001
1	 2.513379295968685e-001	 1.146096533211043e+000	-1.760406103638340e+001
1	 2.396816629081136e-001	 1.148590772249092e+000	-1.751855138435121e+001
1	 2.280359781100943e-001	 1.150959465922610e+000	-1.744738751890549e+001
1	 3.466977361592805e-001	 1.127917580587672e+000	-1.906301152830222e+001
1	 3.349600279194575e-001	 1.131458871093689e+000	-1.889146677650837e+001
1	 3.232172051162713e-001	 1.134869180407041e+000	-1.872950356496164e+001
1	 3.114713159985207e-001	 1.138148966021693e+000	-1.857767086301559e+001
1	 2.997243879919708e-001	 1.141298725054246e+000	-1.843652118122604e+001
1	 2.879784268304388e-001	 1.144318993429285e+000	-1.830660815348639e+001
1	 2.762354157193992e-001	 1.147210345045066e+000	-1.818848417725190e+001
1	 2.644973145324779e-001	 1.149973390920931e+000	-1.808269811555248e+001
1	 2.527660590411389e-001	 1.152608778327796e+000	-1.798979306424167e+001
1	 2.410435601778181e-001	 1.155117189903075e+000	-1.791030418767126e+001
1	 2.293317033326910e-001	 1.157499342751387e+000	-1.784475662571487e+001
1	 3.486565800278319e-001	 1.134290320319577e+000	-1.939273893399020e+001
1	 3.368525536804284e-001	 1.137851619133862e+000	-1.922895416006394e+001
1	 3.250433838723416e-001	 1.141281196711131e+000	-1.907477108464477e+001
1	 3.132311304249877e-001	 1.144579513130186e+000	-1.893068164291806e+001
1	 3.014178322190991e-001	 1.147747068316332e+000	-1.879718144032189e+001
1	 2.896055063209000e-001	 1.150784401222125e+000	-1.867476740521373e+001
1	 2.777961471409878e-001	 1.153692088988341e+000	-1.856393549797146e+001
1	 2.659917256262847e-001	 1.156470746086580e+000	-1.846517848014545e+001
1	 2.541941884853743e-001	 1.159121023444835e+000	-1.837898374702299e+001
1	 2.424054574474722e-001	 1.161643607557417e+000	-1.830583122671301e+001
1	 2.306274285552188e-001	 1.164039219580587e+000	-1.824619134860820e+001
1	 3.506154238964809e-001	 1.140663060051086e+000	-1.972298037608971e+001
1	 3.387450794414700e-001	 1.144244367173692e+000	-1.956732250451760e+001
1	 3.268695626284607e-001	 1.147693213014952e+000	-1.942129342019112e+001
1	 3.149909448514852e-001	 1.151010060238497e+000	-1.928532412244929e+001
1	 3.031112764462416e-001	 1.154195411578337e+000	-1.915984938290140e+001
1	 2.912325858113605e-001	 1.157249809014989e+000	-1.904530547630134e+001
1	 2.793568785625599e-001	 1.160173832931749e+000	-1.894212796607204e+001
1	 2.674861367200581e-001	 1.162968101252468e+000	-1.885074954799068e+001
1	 2.556223179295574e-001	 1.165633268562213e+000	-1.877159795530304e+001
1	 2.437673547170509e-001	 1.168170025212190e+000	-1.870509392828618e+001
1	 2.319231537776434e-001	 1.170579096410293e+000	-1.865164925103535e+001
1	 3.525742677652601e-001	 1.147035799782149e+000	-2.005370576932892e+001
1	 3.406376052026061e-001	 1.150637115213137e+000	-1.990654401288699e+001
1	 3.286957413846450e-001	 1.154105229318470e+000	-1.976904412469774e+001
1	 3.167507592780232e-001	 1.157440607346606e+000	-1.964157233254873e+001
1	 3.048047206734029e-001	 1.160643754840250e+000	-1.952449871161274e+001
1	 2.928596653018194e-001	 1.163715216807882e+000	-1.941819500114521e+001
1	 2.809176099841100e-001	 1.166655576875311e+000	-1.932303247391142e+001
1	 2.689805478137873e-001	 1.169465456418633e+000	-1.923937986173734e+001
1	 2.570504473736705e-001	 1.172145513679984e+000	-1.916760134034987e+001
1	 2.451292519865291e-001	 1.174696442867462e+000	-1.910805457642442e+001
1	 2.332188789999302e-001	 1.177118973240590e+000	-1.906108883952616e+001
1	 2.202616267749964e-001	 1.111720204954052e+000	-1.515105308115093e+001
1	 2.090266650272629e-001	 1.113887283427750e+000	-1.506915935828307e+001
1	 1.978054629620872e-001	 1.115934606758614e+000	-1.500430960149216e+001
1	 1.865997507942484e-001	 1.117862958275722e+000	-1.495744525410034e+001
1	 1.754112319038042e-001	 1.119673150812978e+000	-1.492948461067917e+001
1	 1.642415823237833e-001	 1.121366025797290e+000	-1.492132079423160e+001
1	 1.530924502600770e-001	 1.122942452330613e+000	-1.493381983099162e+001
1	 1.419654556433717e-001	 1.124403326267059e+000	-1.496781882412440e+001
1	 1.308621897129018e-001	 1.125749569286229e+000	-1.502412422733329e+001
1	 1.197842146317700e-001	 1.126982127963913e+000	-1.510351021911166e+001
1	 1.087330631335390e-001	 1.128101972841276e+000	-1.520671717811748e+001
1	 2.215573519972832e-001	 1.118260081782081e+000	-1.552308099576919e+001
1	 2.102562987405381e-001	 1.120439908450877e+000	-1.544467688132849e+001
1	 1.989690861099369e-001	 1.122499275497582e+000	-1.538299808413254e+001
1	 1.876974544985343e-001	 1.124438970859325e+000	-1.533895545574849e+001
1	 1.764431173068044e-001	 1.126259812151637e+000	-1.531343725226126e+001
1	 1.652077604273180e-001	 1.127962645751250e+000	-1.530730712728660e+001
1	 1.539930417618117e-001	 1.129548345872747e+000	-1.532140222155321e+001
1	 1.428005907704827e-001	 1.131017813640245e+000	-1.535653135034398e+001
1	 1.316320080532950e-001	 1.132371976155270e+000	-1.541347328980706e+001
1	 1.204888649630348e-001	 1.133611785561993e+000	-1.549297516288315e+001
1	 1.093727032498246e-001	 1.134738218110943e+000	-1.559575092533382e+001
1	 2.228530772197077e-001	 1.124799958610022e+000	-1.589945052669201e+001
1	 2.114859324539956e-001	 1.126992533473878e+000	-1.582482732591608e+001
1	 2.001327092580198e-001	 1.129063944236374e+000	-1.576658396001017e+001
1	 1.887951582031090e-001	 1.131014983442705e+000	-1.572559930516983e+001
1	 1.774750027101518e-001	 1.132846473490027e+000	-1.570273023066959e+001
1	 1.661739385312600e-001	 1.134559265704902e+000	-1.569880960939446e+001
1	 1.548936332640131e-001	 1.136154239414550e+000	-1.571464442379937e+001
1	 1.436357258981184e-001	 1.137632301013091e+000	-1.575101396858198e+001
1	 1.324018263942671e-001	 1.138994383023983e+000	-1.580866815109116e+001
1	 1.211935152949278e-001	 1.140241443159786e+000	-1.588832589022353e+001
1	 1.100123433667814e-001	 1.141374463380391e+000	-1.599067361430048e+001
1	 2.241488024422355e-001	 1.131339835437960e+000	-1.628011297912587e+001
1	 2.127155661675898e-001	 1.133545158496847e+000	-1.620955739868901e+001
1	 2.012963324062775e-001	 1.135628612975103e+000	-1.615500945072816e+001
1	 1.898928619079004e-001	 1.137590996025985e+000	-1.611731467550036e+001
1	 1.785068881137598e-001	 1.139433134828279e+000	-1.609729722988601e+001
1	 1.671401166355073e-001	 1.141155885658386e+000	-1.609575791711499e+001
1	 1.557942247665647e-001	 1.142760132956160e+000	-1.611347231067768e+001
1	 1.444708610261475e-001	 1.144246788385735e+000	-1.615118897371049e+001
1	 1.331716447356734e-001	 1.145616789892503e+000	-1.620962777488217e+001
1	 1.218981656272921e-001	 1.146871100757412e+000	-1.628947830153979e+001
1	 1.106519834842415e-001	 1.148010708649726e+000	-1.639139837061972e+001
1	 2.254445276648321e-001	 1.137879712265981e+000	-1.666502077775590e+001
1	 2.139451998812752e-001	 1.140097783519888e+000	-1.659881503148896e+001
1	 2.024599555546520e-001	 1.142193281713881e+000	-1.654821810619726e+001
1	 1.909905656128361e-001	 1.144167008609286e+000	-1.651404086815322e+001
1	 1.795387735175414e-001	 1.146019796166525e+000	-1.649707345847768e+001
1	 1.681062947399582e-001	 1.147752505611837e+000	-1.649808334372205e+001
1	 1.566948162693496e-001	 1.149366026497717e+000	-1.651781345929286e+001
1	 1.453059961544390e-001	 1.150861275758315e+000	-1.655698044701826e+001
1	 1.339414630773692e-001	 1.152239196760960e+000	-1.661627298787618e+001
1	 1.226028159599706e-001	 1.153500758354994e+000	-1.669635023066338e+001
1	 1.112916236020373e-001	 1.154646953919056e+000	-1.679784031710865e+001
1	 2.267402528874632e-001	 1.144419589094170e+000	-1.705412743475856e+001
1	 2.151748335950061e-001	 1.146650408543099e+000	-1.699254934634744e+001
1	 2.036235787030848e-001	 1.148757950452820e+000	-1.694615476668169e+001
1	 1.920882693178441e-001	 1.150743021192732e+000	-1.691571857200864e+001
1	 1.805706589214098e-001	 1.152606457504896e+000	-1.690199560603437e+001
1	 1.690724728445109e-001	 1.154349125565392e+000	-1.690571875300902e+001
1	 1.575954077722513e-001	 1.155971920039361e+000	-1.692759710221589e+001
1	 1.461411312828616e-001	 1.157475763130970e+000	-1.696831420516782e+001
1	 1.347112814192097e-001	 1.158861603629487e+000	-1.702852642653810e+001
1	 1.233074662928061e-001	 1.160130415952655e+000	-1.710886138960532e+001
1	 1.119312637200009e-001	 1.161283199188487e+000	-1.720991651673473e+001
1	 2.280359781100943e-001	 1.150959465922610e+000	-1.744738751890549e+001
1	 2.164044673087371e-001	 1.153203033566577e+000	-1.739071062167209e+001
1	 2.047872018515176e-001	 1.155322619192032e+000	-1.734876552614055e+001
1	 1.931859730228520e-001	 1.157319033776447e+000	-1.732228982399564e+001
1	 1.816025443252783e-001	 1.159193118843525e+000	-1.731200180109222e+001
1	 1.700386509490637e-001	 1.160945745519189e+000	-1.731859853467031e+001
1	 1.584959992751531e-001	 1.162577813581231e+000	-1.734275408044924e+001
1	 1.469762664112842e-001	 1.164090250503836e+000	-1.738511775089256e+001
1	 1.354810997610503e-001	 1.165484010498218e+000	-1.744631248568388e+001
1	 1.240121166256417e-001	 1.166760073550517e+000	-1.752693331519706e+001
1	 1.125709038379645e-001	 1.167919444458127e+000	-1.762754591749345e+001
1	 2.293317033326910e-001	 1.157499342751387e+000	-1.784475662571487e+001
1	 2.176341010224225e-001	 1.159755658590424e+000	-1.779325025957967e+001
1	 2.059508249998919e-001	 1.161887287931629e+000	-1.775599769680926e+001
1	 1.942836767277878e-001	 1.163895046360552e+000	-1.773369797100987e+001
1	 1.826344297290599e-001	 1.165779780182541e+000	-1.772703157048274e+001
1	 1.710048290535148e-001	 1.167542365473366e+000	-1.773665856119360e+001
1	 1.593965907779382e-001	 1.169183707123466e+000	-1.776321679799021e+001
1	 1.478114015395757e-001	 1.170704737877053e+000	-1.780732022536496e+001
1	 1.362509181027461e-001	 1.172106417367284e+000	-1.786955726880813e+001
1	 1.247167669583203e-001	 1.173389731148703e+000	-1.795048931753853e+001
1	 1.132105439557603e-001	 1.174555689728082e+000	-1.805064929915726e+001
1	 2.306274285552188e-001	 1.164039219580587e+000	-1.824619134860820e+001
1	 2.188637347360168e-001	 1.166308283614738e+000	-1.820012075432859e+001
1	 2.071144481481499e-001	 1.168451956671723e+000	-1.816779977497805e+001
1	 1.953813804325791e-001	 1.170471058945171e+000	-1.814988763311324e+001
1	 1.836663151326679e-001	 1.172366441522078e+000	-1.814702580005349e+001
1	 1.719710071577622e-001	 1.174138985428059e+000	-1.815983614620703e+001
1	 1.602971822804898e-001	 1.175789600666207e+000	-1.818891917792324e+001
1	 1.486465366676049e-001	 1.177319225250758e+000	-1.823485236217040e+001
1	 1.370207364441526e-001	 1.178728824236818e+000	-1.829818854008455e+001
1	 1.254214172906847e-001	 1.180019388747333e+000	-1.837945443018525e+001
1	 1.138501840732206e-001	 1.181191934998460e+000	-1.847914922181851e+001
1	 2.319231537776434e-001	 1.170579096410293e+000	-1.865164925103535e+001
1	 2.200933684494744e-001	 1.172860908639617e+000	-1.861127566181115e+001
1	 2.082780712962328e-001	 1.175016625412426e+000	-1.858412140791505e+001
1	 1.964790841371540e-001	 1.177047071530428e+000	-1.857080466797064e+001
1	 1.846982005360155e-001	 1.178953102862265e+000	-1.857192669670463e+001
1	 1.729371852617042e-001	 1.180735605383406e+000	-1.858807000422083e+001
1	 1.611977737826915e-001	 1.182395494209592e+000	-1.861979661998596e+001
1	 1.494816717952408e-001	 1.183933712625089e+000	-1.866764644282514e+001
1	 1.377905547851249e-001	 1.185351231106953e+000	-1.873213567797558e+001
1	 1.261260676225780e-001	 1.186649046346531e+000	-1.881375536200417e+001
1	 1.144898241901776e-001	 1.187828180269368e+000	-1.891296997615658e+001
1	 2.332188789999302e-001	 1.177118973240590e+000	-1.906108883952616e+001
1	 2.213230021627496e-001	 1.179413533665163e+000	-1.902666957006180e+001
1	 2.094416944440826e-001	 1.181581294153850e+000	-1.900491336189322e+001
1	 1.975767878414401e-001	 1.183623084116445e+000	-1.899639613646926e+001
1	 1.857300859390157e-001	 1.185539764203235e+000	-1.900167775169086e+001
1	 1.739033633652391e-001	 1.187332225339542e+000	-1.902130021171267e+001
1	 1.620983652844263e-001	 1.189001387753761e+000	-1.905578595954817e+001
1	 1.503168069223521e-001	 1.190548200000185e+000	-1.910563625377444e+001
1	 1.385603731255183e-001	 1.191973637977820e+000	-1.917132963038952e+001
1	 1.268307179538430e-001	 1.193278703946419e+000	-1.925332045063550e+001
1	 1.151294643064635e-001	 1.194464425540913e+000	-1.935203753536440e+001
1	 1.087330631335390e-001	 1.128101972841276e+000	-1.520671717811748e+001
1	 9.770859064514910e-002	 1.129110240434535e+000	-1.533395921145542e+001
1	 8.671394960130736e-002	 1.130007770653767e+000	-1.548566530520620e+001
1	 7.575060542968273e-002	 1.130795601078155e+000	-1.566289212501620e+001
1	 6.481999231755271e-002	 1.131474789559993e+000	-1.586665297147636e+001
1	 5.392351301257860e-002	 1.132046413292315e+000	-1.609791655218677e+001
1	 4.306253865301493e-002	 1.132511567881462e+000	-1.635760586172854e+001
1	 3.223840862678768e-002	 1.132871366425472e+000	-1.664659716838329e+001
1	 2.145243045885214e-002	 1.133126938599190e+000	-1.696571910624222e+001
1	 1.070587972621754e-002	 1.133279429746903e+000	-1.731575187115554e+001
1	 0.000000000000000e+000	 1.133329999983334e+000	-1.769742651880477e+001
1	 1.093727032498246e-001	 1.134738218110943e+000	-1.559575092533382e+001
1	 9.828337749012930e-002	 1.135752417004074e+000	-1.572199759841454e+001
1	 8.722405866335789e-002	 1.136655227092374e+000	-1.587214769233806e+001
1	 7.619622081778173e-002	 1.137447692058752e+000	-1.604726262742829e+001
1	 6.520130657750442e-002	 1.138130875978492e+000	-1.624836057444778e+001
1	 5.424072694206489e-002	 1.138705862381395e+000	-1.647641519966928e+001
1	 4.331586111564807e-002	 1.139173753318886e+000	-1.673235451879460e+001
1	 3.242805636533392e-002	 1.139535668436983e+000	-1.701705985857633e+001
1	 2.157862790779291e-002	 1.139792744056029e+000	-1.733136492479900e+001
1	 1.076885882381067e-002	 1.139946132257989e+000	-1.767605497508389e+001
1	 0.000000000000000e+000	 1.139996999982150e+000	-1.805186609480865e+001
1	 1.100123433667814e-001	 1.141374463380391e+000	-1.599067361430048e+001
1	 9.885816433581518e-002	 1.142394593573496e+000	-1.611588981180053e+001
1	 8.773416772613640e-002	 1.143302683530986e+000	-1.626440905583875e+001
1	 7.664183620661486e-002	 1.144099783039497e+000	-1.643729646415230e+001
1	 6.558262083817641e-002	 1.144786962397290e+000	-1.663557407686471e+001
1	 5.455794087223356e-002	 1.145365311470925e+000	-1.686021957484333e+001
1	 4.356918357889775e-002	 1.145835938756898e+000	-1.711216510775170e+001
1	 3.261770410439924e-002	 1.146199970449207e+000	-1.739229623067344e+001
1	 2.170482535711995e-002	 1.146458549513681e+000	-1.770145094798207e+001
1	 1.083183792161823e-002	 1.146612834769953e+000	-1.804041886293545e+001
1	 0.000000000000000e+000	 1.146663999981866e+000	-1.840994043129344e+001
1	 1.106519834842415e-001	 1.148010708649726e+000	-1.639139837061972e+001
1	 9.943295118203033e-002	 1.149036770142885e+000	-1.651554658318965e+001
1	 8.824427678946088e-002	 1.149950139969669e+000	-1.666235820754143e+001
1	 7.708745159599865e-002	 1.150751874020427e+000	-1.683290102208327e+001
1	 6.596393509938860e-002	 1.151443048816397e+000	-1.702819995546514e+001
1	 5.487515480291399e-002	 1.152024760560885e+000	-1.724923577849207e+001
1	 4.382250604260982e-002	 1.152498124195458e+000	-1.749694390649338e+001
1	 3.280735184385388e-002	 1.152864272462079e+000	-1.777221331104576e+001
1	 2.183102280673670e-002	 1.153124354972060e+000	-1.807588553974271e+001
1	 1.089481701958661e-002	 1.153279537282697e+000	-1.840875384250883e+001
1	 0.000000000000000e+000	 1.153330999982383e+000	-1.877156240276832e+001
1	 1.112916236020373e-001	 1.154646953919056e+000	-1.679784031710865e+001
1	 1.000077380285982e-001	 1.155678946712327e+000	-1.692088069641193e+001
1	 8.875438585314933e-002	 1.156597596408483e+000	-1.706590605566719e+001
1	 7.753306698574956e-002	 1.157403965001579e+000	-1.723398581726343e+001
1	 6.634524936096094e-002	 1.158099135235820e+000	-1.742614683705810e+001
1	 5.519236873393561e-002	 1.158684209651256e+000	-1.764337207011269e+001
1	 4.407582850663021e-002	 1.159160309634518e+000	-1.788659934755648e+001
1	 3.299699958356809e-002	 1.159528574475531e+000	-1.815672026350027e+001
1	 2.195722025654659e-002	 1.159790160431083e+000	-1.845457917071639e+001
1	 1.095779611766221e-002	 1.159946239796126e+000	-1.878097228359762e+001
1	 0.000000000000000e+000	 1.159997999983599e+000	-1.913664688672937e+001
1	 1.119312637200009e-001	 1.161283199188487e+000	-1.720991651673473e+001
1	 1.005825248753426e-001	 1.162321123281912e+000	-1.733180692891216e+001
1	 8.926449491701982e-002	 1.163245052847492e+000	-1.747496554492560e+001
1	 7.797868237568405e-002	 1.164056055982987e+000	-1.764046243404649e+001
1	 6.672656362271337e-002	 1.164755221655566e+000	-1.782932543709050e+001
1	 5.550958266512782e-002	 1.165343658742019e+000	-1.804253880623595e+001
1	 4.432915097080474e-002	 1.165822495074035e+000	-1.828104195655495e+001
1	 3.318664732341208e-002	 1.166192876489496e+000	-1.854572832820569e+001
1	 2.208341770645305e-002	 1.166455965890665e+000	-1.883744435802811e+001
1	 1.102077521579144e-002	 1.166612942310145e+000	-1.915698855907409e+001
1	 0.000000000000000e+000	 1.166664999985416e+000	-1.950511070642836e+001
1	 1.125709038379645e-001	 1.167919444458127e+000	-1.762754591749345e+001
1	 1.011573117220870e-001	 1.168963299851724e+000	-1.774824199511030e+001
1	 8.977460398089038e-002	 1.169892509286757e+000	-1.788945159865661e+001
1	 7.842429776561860e-002	 1.170708146964687e+000	-1.805224446633538e+001
1	 6.710787788446587e-002	 1.171411308075644e+000	-1.823764850030765e+001
1	 5.582679659632005e-002	 1.172003107833153e+000	-1.844664838084910e+001
1	 4.458247343497931e-002	 1.172484680513963e+000	-1.868018429271626e+001
1	 3.337629506325611e-002	 1.172857178503908e+000	-1.893915076270308e+001
1	 2.220961515635955e-002	 1.173121771350721e+000	-1.922439560715207e+001
1	 1.108375431392067e-002	 1.173279644824656e+000	-1.953671898798001e+001
1	 0.000000000000000e+000	 1.173331999987733e+000	-1.987687257559329e+001
1	 1.132105439557603e-001	 1.174555689728082e+000	-1.805064929915726e+001
1	 1.017320985686550e-001	 1.175605476421850e+000	-1.817010449168222e+001
1	 9.028471304457898e-002	 1.176539965726342e+000	-1.830928106293475e+001
1	 7.886991315536961e-002	 1.177360237946715e+000	-1.846924746081242e+001
1	 6.748919214603828e-002	 1.178067394496061e+000	-1.865103074342517e+001
1	 5.614401052734176e-002	 1.178662556924641e+000	-1.885561516783649e+001
1	 4.483579589899976e-002	 1.179146865954257e+000	-1.908394089143123e+001
1	 3.356594280297038e-002	 1.179521480518698e+000	-1.933690278491494e+001
1	 2.233581260616950e-002	 1.179787576811168e+000	-1.961534935574007e+001
1	 1.114673341199630e-002	 1.179946347339565e+000	-1.992008178054829e+001
1	 0.000000000000000e+000	 1.179998999990450e+000	-2.025185304502223e+001
1	 1.138501840732206e-001	 1.181191934998460e+000	-1.847914922181851e+001
1	 1.023068854148703e-001	 1.182247652992378e+000	-1.859731484468406e+001
1	 9.079482210790363e-002	 1.183187422166307e+000	-1.873437265255596e+001
1	 7.931552854475356e-002	 1.184012328929106e+000	-1.889138886208393e+001
1	 6.787050640725066e-002	 1.184723480916826e+000	-1.906938879973431e+001
1	 5.646122445802236e-002	 1.185322006016463e+000	-1.926935546536305e+001
1	 4.508911836271199e-002	 1.185809051394874e+000	-1.949222820874111e+001
1	 3.375559054242515e-002	 1.186185782533802e+000	-1.973890151807495e+001
1	 2.246201005578633e-002	 1.186453382271919e+000	-2.001022391934411e+001
1	 1.120971250996473e-002	 1.186613049854775e+000	-2.030699698507584e+001
1	 0.000000000000000e+000	 1.186665999993467e+000	-2.062997445097772e+001
1	 1.144898241901776e-001	 1.187828180269368e+000	-1.891296997615658e+001
1	 1.028816722605564e-001	 1.188889829563394e+000	-1.902979525845034e+001
1	 9.130493117068236e-002	 1.189834878606717e+000	-1.916464689883717e+001
1	 7.976114393358696e-002	 1.190664419911896e+000	-1.931858795966220e+001
1	 6.825182066792289e-002	 1.191379567337946e+000	-1.949264116556389e+001
1	 5.677843838819124e-002	 1.191981455108598e+000	-1.968778744211997e+001
1	 4.534244082596187e-002	 1.192471236835767e+000	-1.990496456768529e+001
1	 3.394523828149064e-002	 1.192850084549151e+000	-2.014506593750559e+001
1	 2.258820750511350e-002	 1.193119187732893e+000	-2.040893943895892e+001
1	 1.127269160777236e-002	 1.193279752370191e+000	-2.069738643657999e+001
1	 0.000000000000000e+000	 1.193332999996683e+000	-2.101116086531158e+001
1	 1.151294643064635e-001	 1.194464425540913e+000	-1.935203753536440e+001
1	 1.034564591055369e-001	 1.195532006134985e+000	-1.946746966619431e+001
1	 9.181504023273319e-002	 1.196482335047633e+000	-1.960002609915481e+001
1	 8.020675932168628e-002	 1.197316510895122e+000	-1.975076583671588e+001
1	 6.863313492787490e-002	 1.198035653759429e+000	-1.992070814852629e+001
1	 5.709565231767782e-002	 1.198640904201028e+000	-2.011083108536359e+001
1	 4.559576328859526e-002	 1.199133422276893e+000	-2.032207010643810e+001
1	 3.413488602003709e-002	 1.199514386564678e+000	-2.055531681916726e+001
1	 2.271440495405443e-002	 1.199784993194003e+000	-2.081141783031267e+001
1	 1.133567070536557e-002	 1.199946454885717e+000	-2.109117370716402e+001
1	 0.000000000000000e+000	 1.200000000000000e+000	-2.139533804725116e+001
1	 1.200000000000000e+000	 0.000000000000000e+000	 2.543902068945881e+001
1	 1.199946454885717e+000	 1.133567070536561e-002	 2.497906325293881e+001
1	 1.199784993194003e+000	 2.271440495405450e-002	 2.452208396191846e+001
1	 1.199514386564678e+000	 3.413488602003700e-002	 2.406717769160895e+001
1	 1.199133422276893e+000	 4.559576328859522e-002	 2.361346090055335e+001
1	 1.198640904201028e+000	 5.709565231767782e-002	 2.316007347754332e+001
1	 1.198035653759429e+000	 6.863313492787491e-002	 2.270618060464239e+001
1	 1.197316510895122e+000	 8.020675932168629e-002	 2.225097463339761e+001
1	 1.196482335047633e+000	 9.181504023273307e-002	 2.179367697118508e+001
1	 1.195532006134985e+000	 1.034564591055369e-001	 2.133353997450381e+001
1	 1.194464425540913e+000	 1.151294643064634e-001	 2.086984884590227e+001
1	 1.206667000003317e+000	 0.000000000000000e+000	 2.542763709937866e+001
1	 1.206613157401256e+000	 1.139864980270443e-002	 2.495095168962316e+001
1	 1.206450798655161e+000	 2.284060240253764e-002	 2.447767769811567e+001
1	 1.206178688580310e+000	 3.432453375796890e-002	 2.400691748316567e+001
1	 1.205795607718194e+000	 4.584908575049948e-002	 2.353779523047321e+001
1	 1.205300353293716e+000	 5.741286624635845e-002	 2.306945880332203e+001
1	 1.204691740181260e+000	 6.901444918697730e-002	 2.260108160855493e+001
1	 1.203968601878787e+000	 8.065237470892074e-002	 2.213186447539281e+001
1	 1.203129791489080e+000	 9.232514929392761e-002	 2.166103754402293e+001
1	 1.202174182707195e+000	 1.040312459496886e-001	 2.118786216075030e+001
1	 1.201100670813155e+000	 1.157691044219621e-001	 2.071163277637667e+001
1	 1.213334000006534e+000	 0.000000000000000e+000	 2.541785363724772e+001
1	 1.213279859916706e+000	 1.146162889980340e-002	 2.492463048474077e+001
1	 1.213116604116268e+000	 2.296679985059136e-002	 2.443523439191926e+001
1	 1.212842990595942e+000	 3.451418149532757e-002	 2.394877684050002e+001
1	 1.212457793159563e+000	 4.610240821172792e-002	 2.346439136736770e+001
1	 1.211959802386551e+000	 5.773008017429710e-002	 2.298123541531091e+001
1	 1.211347826603324e+000	 6.939576344530313e-002	 2.249849219916998e+001
1	 1.210620692862775e+000	 8.109799009537091e-002	 2.201537258444126e+001
1	 1.209777247930941e+000	 9.283525835435197e-002	 2.153111697524722e+001
1	 1.208816359279900e+000	 1.046060327931011e-001	 2.104499720844964e+001
1	 1.207736916085966e+000	 1.164087445367639e-001	 2.055631845055481e+001
1	 1.220001000009551e+000	 0.000000000000000e+000	 2.540932545326902e+001
1	 1.219946562431968e+000	 1.152460799669068e-002	 2.489977656118919e+001
1	 1.219782409577216e+000	 2.309299729826907e-002	 2.439445203097603e+001
1	 1.219507292611463e+000	 3.470382923218868e-002	 2.389247408594094e+001
1	 1.219119978600882e+000	 4.635573067237534e-002	 2.339298721630340e+001
1	 1.218619251479407e+000	 5.804729410160456e-002	 2.289516002776093e+001
1	 1.218003913025485e+000	 6.977707770297610e-002	 2.239818710505465e+001
1	 1.217272783846940e+000	 8.154360548117015e-002	 2.190129088756158e+001
1	 1.216424704373056e+000	 9.334536741414577e-002	 2.140372355381061e+001
1	 1.215458535852934e+000	 1.051808196359168e-001	 2.090476891168756e+001
1	 1.214373161359173e+000	 1.170483846510113e-001	 2.040374429096622e+001
1	 1.226668000012267e+000	 0.000000000000000e+000	 2.540171519474878e+001
1	 1.226613264946940e+000	 1.158758709339442e-002	 2.487607386562647e+001
1	 1.226448215037900e+000	 2.321919474562415e-002	 2.435503516874146e+001
1	 1.226171594626763e+000	 3.489347696862784e-002	 2.383773366554607e+001
1	 1.225782164042033e+000	 4.660905313253649e-002	 2.332332638034284e+001
1	 1.225278700572155e+000	 5.836450802839168e-002	 2.281099464400366e+001
1	 1.224659999447606e+000	 7.015839196011998e-002	 2.229994595222190e+001
1	 1.223924874831135e+000	 8.198922086645173e-002	 2.178941583532026e+001
1	 1.223072160815268e+000	 9.385547647344870e-002	 2.127866973650164e+001
1	 1.222100712426131e+000	 1.057556064782785e-001	 2.076700489530079e+001
1	 1.221009406632600e+000	 1.176880247648462e-001	 2.025375223286579e+001
1	 1.233335000014584e+000	 0.000000000000000e+000	 2.539469280346192e+001
1	 1.233279967461519e+000	 1.165056618994280e-002	 2.485321317863041e+001
1	 1.233114020498216e+000	 2.334539219271000e-002	 2.431669474701681e+001
1	 1.232835896641729e+000	 3.508312470472070e-002	 2.378428598358743e+001
1	 1.232444349482895e+000	 4.686237559230622e-002	 2.325515800653729e+001
1	 1.231938149664668e+000	 5.868172195476933e-002	 2.272850641349609e+001
1	 1.231316085869550e+000	 7.053970621685843e-002	 2.220355313176032e+001
1	 1.230576965815212e+000	 8.243483625134906e-002	 2.167954827956742e+001
1	 1.229719617257423e+000	 9.436558553240043e-002	 2.115577203529501e+001
1	 1.228742888999325e+000	 1.063303933203288e-001	 2.063153651133813e+001
1	 1.227645651906074e+000	 1.183276648784110e-001	 2.010618762929083e+001
1	 1.240002000016401e+000	 0.000000000000000e+000	 2.538793531955471e+001
1	 1.239946669975606e+000	 1.171354528636398e-002	 2.483089193098224e+001
1	 1.239779825958058e+000	 2.347158963957999e-002	 2.427914792421093e+001
1	 1.239500198656252e+000	 3.527277244054283e-002	 2.373186724237660e+001
1	 1.239106534923351e+000	 4.711569805177929e-002	 2.318823663688729e+001
1	 1.238597598756819e+000	 5.899893588084832e-002	 2.264746749347723e+001
1	 1.237972172291179e+000	 7.092102047331519e-002	 2.210879767173465e+001
1	 1.237229056799023e+000	 8.288045163599547e-002	 2.157149335511718e+001
1	 1.236367073699361e+000	 9.487569459114065e-002	 2.103485090833596e+001
1	 1.235385065572350e+000	 1.069051801622104e-001	 2.049819873886182e+001
1	 1.234281897179420e+000	 1.189673049918478e-001	 1.996089915918051e+001
1	 1.246669000017617e+000	 0.000000000000000e+000	 2.538112669173946e+001
1	 1.246613372489098e+000	 1.177652438268612e-002	 2.480881402584483e+001
1	 1.246445631417321e+000	 2.359778708628755e-002	 2.424211790911265e+001
1	 1.246164500670219e+000	 3.546242017616987e-002	 2.368021928722931e+001
1	 1.245768720363282e+000	 4.736902051105048e-002	 2.312232206408588e+001
1	 1.245257047848480e+000	 5.931614980673954e-002	 2.256765491506368e+001
1	 1.244628258712357e+000	 7.130233472961398e-002	 2.201547311319645e+001
1	 1.243881147782423e+000	 8.332606702052429e-002	 2.146506036522417e+001
1	 1.243014530140927e+000	 9.538580364980900e-002	 2.091573065442239e+001
1	 1.242027242145039e+000	 1.074799670040657e-001	 2.036683008696377e+001
1	 1.240918142452463e+000	 1.196069451052987e-001	 1.981773873844386e+001
1	 1.253336000018134e+000	 0.000000000000000e+000	 2.537395759354719e+001
1	 1.253280075001894e+000	 1.183950347893738e-002	 2.478668966661679e+001
1	 1.253111436875900e+000	 2.372398453288602e-002	 2.420533379996895e+001
1	 1.252828802683519e+000	 3.565206791167744e-002	 2.362908945637840e+001
1	 1.252430905802570e+000	 4.762234297021459e-002	 2.305717919186568e+001
1	 1.251916496939524e+000	 5.963336373255378e-002	 2.248885045361904e+001
1	 1.251284345132945e+000	 7.168364898587851e-002	 2.192337739015201e+001
1	 1.250533238765264e+000	 8.377168240506890e-002	 2.136006267071555e+001
1	 1.249661986581963e+000	 9.589591270854520e-002	 2.079823931085520e+001
1	 1.248669418717227e+000	 1.080547538460376e-001	 2.023727250087737e+001
1	 1.247554387725030e+000	 1.202465852189060e-001	 1.967656143386596e+001
1	 1.260003000017850e+000	 0.000000000000000e+000	 2.536612524541392e+001
1	 1.259946777513892e+000	 1.190248257514593e-002	 2.476423519025146e+001
1	 1.259777242333688e+000	 2.385018197942882e-002	 2.416853042867139e+001
1	 1.259493104696041e+000	 3.584171564714115e-002	 2.357823043565156e+001
1	 1.259093091241095e+000	 4.787566542936642e-002	 2.299257789977972e+001
1	 1.258575946029822e+000	 5.995057765840189e-002	 2.241084050323857e+001
1	 1.257940431552808e+000	 7.206496324223248e-002	 2.183231271334104e+001
1	 1.257185329747398e+000	 8.421729778976256e-002	 2.125631758264256e+001
1	 1.256309443022313e+000	 9.640602176748886e-002	 2.068220855453111e+001
1	 1.255311595288746e+000	 1.086295406882687e-001	 2.010937127106983e+001
1	 1.254190632996945e+000	 1.208862253328119e-001	 1.953722537974744e+001
1	 1.266670000016666e+000	 0.000000000000000e+000	 2.535733324238545e+001
1	 1.266613480024992e+000	 1.196546167133993e-002	 2.474117290583996e+001
1	 1.266443047790582e+000	 2.397637942596935e-002	 2.413144820986383e+001
1	 1.266157406707675e+000	 3.603136338263665e-002	 2.352740011773843e+001
1	 1.265755276678737e+000	 4.812898788860075e-002	 2.292829291225261e+001
1	 1.265235395119249e+000	 6.026779158439477e-002	 2.233341595519799e+001
1	 1.264596517971808e+000	 7.244627749879959e-002	 2.174208545768574e+001
1	 1.263837420728680e+000	 8.466291317473874e-002	 2.115364625832245e+001
1	 1.262956899461820e+000	 9.691613082677968e-002	 2.056747360615944e+001
1	 1.261953771859432e+000	 1.092043275309016e-001	 1.998297494520562e+001
1	 1.260826878268034e+000	 1.215258654471585e-001	 1.939959169717661e+001
1	 1.194464425540913e+000	 1.151294643064634e-001	 2.086984884590227e+001
1	 1.193278703946419e+000	 1.268307179538431e-001	 2.040684469548258e+001
1	 1.191973637977820e+000	 1.385603731255182e-001	 1.994875625794640e+001
1	 1.190548200000185e+000	 1.503168069223521e-001	 1.949511120998688e+001
1	 1.189001387753761e+000	 1.620983652844261e-001	 1.904547281288341e+001
1	 1.187332225339542e+000	 1.739033633652391e-001	 1.859944152732206e+001
1	 1.185539764203236e+000	 1.857300859390158e-001	 1.815665660721559e+001
1	 1.183623084116445e+000	 1.975767878414401e-001	 1.771679766874560e+001
1	 1.181581294153850e+000	 2.094416944440826e-001	 1.727958623078563e+001
1	 1.179413533665163e+000	 2.213230021627496e-001	 1.684478722280907e+001
1	 1.177118973240590e+000	 2.332188789999303e-001	 1.641221045634055e+001
1	 1.201100670813155e+000	 1.157691044219621e-001	 2.071163277637667e+001
1	 1.199908361547070e+000	 1.275353682843720e-001	 2.023658454362251e+001
1	 1.198596044849500e+000	 1.393301914652340e-001	 1.976693985919753e+001
1	 1.197162687376130e+000	 1.511519420488499e-001	 1.930224071770371e+001
1	 1.195607281298800e+000	 1.629989567856154e-001	 1.884206457428775e+001
1	 1.193928845296552e+000	 1.748695414682985e-001	 1.838602594062123e+001
1	 1.192126425545067e+000	 1.867619713416107e-001	 1.793377795951759e+001
1	 1.190199096703294e+000	 1.986744915453892e-001	 1.748501395443043e+001
1	 1.188145962896061e+000	 2.106053175916603e-001	 1.703946895001545e+001
1	 1.185966158691430e+000	 2.225526358758121e-001	 1.659692115988490e+001
1	 1.183658850071527e+000	 2.345146042220564e-001	 1.615719343763950e+001
1	 1.207736916085966e+000	 1.164087445367639e-001	 2.055631845055481e+001
1	 1.206538019148351e+000	 1.282400186142539e-001	 2.006930821402018e+001
1	 1.205218451721860e+000	 1.401000098043578e-001	 1.958818049727860e+001
1	 1.203777174752788e+000	 1.519870771748144e-001	 1.911249240036240e+001
1	 1.202213174844572e+000	 1.638995482863324e-001	 1.864183629358135e+001
1	 1.200525465254301e+000	 1.758357195709474e-001	 1.817584139195057e+001
1	 1.198713086887629e+000	 1.877938567438565e-001	 1.771417530793801e+001
1	 1.196775109290849e+000	 1.997721952490488e-001	 1.725654557880468e+001
1	 1.194710631638938e+000	 2.117689407390045e-001	 1.680270116475014e+001
1	 1.192518783718309e+000	 2.237822695886923e-001	 1.635243391402335e+001
1	 1.190198726903006e+000	 2.358103294440449e-001	 1.590557999111779e+001
1	 1.214373161359173e+000	 1.170483846510113e-001	 2.040374429096622e+001
1	 1.213167676750082e+000	 1.289446689436272e-001	 1.990486777452949e+001
1	 1.211840858594711e+000	 1.408698281430210e-001	 1.941234280572951e+001
1	 1.210391662129970e+000	 1.528222123003676e-001	 1.892574236699204e+001
1	 1.208819068390886e+000	 1.648001397866880e-001	 1.844467445525815e+001
1	 1.207122085212600e+000	 1.768018976732844e-001	 1.796878363217142e+001
1	 1.205299748230736e+000	 1.888257421458386e-001	 1.749775255231275e+001
1	 1.203351121878933e+000	 2.008698989524904e-001	 1.703130346579111e+001
1	 1.201275300382315e+000	 2.129325638861734e-001	 1.656919969143909e+001
1	 1.199071408745647e+000	 2.250119033014357e-001	 1.611124705681267e+001
1	 1.196738603734889e+000	 2.371060546659301e-001	 1.565729530115274e+001
1	 1.221009406632600e+000	 1.176880247648462e-001	 2.025375223286579e+001
1	 1.219797334352083e+000	 1.296493192726302e-001	 1.974311850907739e+001
1	 1.218463265467869e+000	 1.416396464813551e-001	 1.923929436098246e+001
1	 1.217006149507486e+000	 1.536573474256321e-001	 1.874186942003435e+001
1	 1.215424961937553e+000	 1.657007312867934e-001	 1.825046801165984e+001
1	 1.213718705171260e+000	 1.777680757754080e-001	 1.776475067854008e+001
1	 1.211886409574204e+000	 1.898576275476420e-001	 1.728441568171226e+001
1	 1.209927134467368e+000	 2.019676026557856e-001	 1.680920047584166e+001
1	 1.207839969126025e+000	 2.140961870332251e-001	 1.633888315495627e+001
1	 1.205624033773291e+000	 2.262415370140881e-001	 1.587328386488800e+001
1	 1.203278480567044e+000	 2.384017798877465e-001	 1.541226617862579e+001
1	 1.227645651906074e+000	 1.183276648784110e-001	 2.010618762929083e+001
1	 1.226426991954171e+000	 1.303539696014012e-001	 1.958391883073891e+001
1	 1.225085672341149e+000	 1.424094648194918e-001	 1.906890560282043e+001
1	 1.223620636885148e+000	 1.544924825507298e-001	 1.856075498254520e+001
1	 1.222030855484382e+000	 1.666013227867597e-001	 1.805910831627403e+001
1	 1.220315325130093e+000	 1.787342538774170e-001	 1.756364275345085e+001
1	 1.218473070917847e+000	 1.908895129493519e-001	 1.707407271797290e+001
1	 1.216503147055976e+000	 2.030653063590058e-001	 1.659015135359666e+001
1	 1.214404637869900e+000	 2.152598101802176e-001	 1.611167193972150e+001
1	 1.212176658801087e+000	 2.274711707266946e-001	 1.563846927384692e+001
1	 1.209818357399334e+000	 2.396975051095285e-001	 1.517042101696108e+001
1	 1.234281897179420e+000	 1.189673049918478e-001	 1.996089915918050e+001
1	 1.233056649556165e+000	 1.310586199300786e-001	 1.942713019761597e+001
1	 1.231708079214362e+000	 1.431792831575624e-001	 1.890104975740177e+001
1	 1.230235124262765e+000	 1.553276176757833e-001	 1.838228302774473e+001
1	 1.228636749031183e+000	 1.675019142866980e-001	 1.787048905918439e+001
1	 1.226911945088909e+000	 1.797004319794096e-001	 1.736536222515544e+001
1	 1.225059732261483e+000	 1.919213983510535e-001	 1.686663366105016e+001
1	 1.223079159644581e+000	 2.041630100622224e-001	 1.637407267723188e+001
1	 1.220969306613775e+000	 2.164234333272091e-001	 1.588748814239886e+001
1	 1.218729283828883e+000	 2.287008044393010e-001	 1.540672983365160e+001
1	 1.216358234231624e+000	 2.409932303313104e-001	 1.493168974958185e+001
1	 1.240918142452463e+000	 1.196069451052987e-001	 1.981773873844387e+001
1	 1.239686307157884e+000	 1.317632702588007e-001	 1.927261703141587e+001
1	 1.238330486087321e+000	 1.439491014956986e-001	 1.873560276275454e+001
1	 1.236849611640148e+000	 1.561627528009146e-001	 1.820634001082781e+001
1	 1.235242642577766e+000	 1.684025057867194e-001	 1.768450620459163e+001
1	 1.233508565047521e+000	 1.806666100814845e-001	 1.716981355038431e+001
1	 1.231646393604925e+000	 1.929532837528319e-001	 1.666201043612530e+001
1	 1.229655172233005e+000	 2.052607137655070e-001	 1.616088280943151e+001
1	 1.227533975357481e+000	 2.175870564742576e-001	 1.566625552611236e+001
1	 1.225281908856526e+000	 2.299304381519529e-001	 1.517799366546195e+001
1	 1.222898111063778e+000	 2.422889555531269e-001	 1.469600380873231e+001
1	 1.247554387725030e+000	 1.202465852189060e-001	 1.967656143386596e+001
1	 1.246315964759146e+000	 1.324679205877058e-001	 1.912024663862804e+001
1	 1.244952892959844e+000	 1.447189198340320e-001	 1.857244319664897e+001
1	 1.243464099017107e+000	 1.569978879262462e-001	 1.803281480295086e+001
1	 1.241848536123940e+000	 1.693030972869349e-001	 1.750105793032897e+001
1	 1.240105185005738e+000	 1.816327881837402e-001	 1.697690321879944e+001
1	 1.238233054947990e+000	 1.939851691547721e-001	 1.646011684240022e+001
1	 1.236231184821070e+000	 2.063584174689310e-001	 1.595050184992548e+001
1	 1.234098644100853e+000	 2.187506796214214e-001	 1.544789947612336e+001
1	 1.231834533883864e+000	 2.311600718646958e-001	 1.495219041984662e+001
1	 1.229437987895662e+000	 2.435846807750120e-001	 1.446329608561335e+001
1	 1.254190632996945e+000	 1.208862253328119e-001	 1.953722537974743e+001
1	 1.252945622359772e+000	 1.331725709169322e-001	 1.896988913420351e+001
1	 1.251575299831740e+000	 1.454887381726938e-001	 1.841145220675950e+001
1	 1.250078586393454e+000	 1.578330230519001e-001	 1.786159862731464e+001
1	 1.248454429669515e+000	 1.702036887874557e-001	 1.732004456929764e+001
1	 1.246701804963373e+000	 1.825989662862754e-001	 1.678653969921049e+001
1	 1.244819716290493e+000	 1.950170545569596e-001	 1.626086850351770e+001
1	 1.242807197408601e+000	 2.074561211725660e-001	 1.574285158953380e+001
1	 1.240663312843723e+000	 2.199143027687583e-001	 1.523234695691479e+001
1	 1.238387158910742e+000	 2.323897055775752e-001	 1.472925123632052e+001
1	 1.235977864727140e+000	 2.448804059970006e-001	 1.423350089178427e+001
1	 1.260826878268034e+000	 1.215258654471585e-001	 1.939959169717661e+001
1	 1.259575279959579e+000	 1.338772212466185e-001	 1.882141736764458e+001
1	 1.258197706702826e+000	 1.462585565118158e-001	 1.825251344303273e+001
1	 1.256693073768999e+000	 1.586681581779989e-001	 1.769258499726542e+001
1	 1.255060323214301e+000	 1.711042802883929e-001	 1.714136855275188e+001
1	 1.253298424920236e+000	 1.835651443891883e-001	 1.659863338748968e+001
1	 1.251406377632250e+000	 1.960489399594794e-001	 1.606418281954778e+001
1	 1.249383209995418e+000	 2.085538248764833e-001	 1.553785546566213e+001
1	 1.247227981585924e+000	 2.210779259163266e-001	 1.501952647063090e+001
1	 1.244939783937008e+000	 2.336193392906365e-001	 1.450910870416030e+001
1	 1.242517741558077e+000	 2.461761312191269e-001	 1.400655392178311e+001
1	 1.177118973240590e+000	 2.332188789999303e-001	 1.641221045634055e+001
1	 1.174696442867462e+000	 2.451292519865292e-001	 1.598277173820095e+001
1	 1.172145513679984e+000	 2.570504473736707e-001	 1.555752671074272e+001
1	 1.169465456418633e+000	 2.689805478137872e-001	 1.513636168804903e+001
1	 1.166655576875310e+000	 2.809176099841100e-001	 1.471919909310216e+001
1	 1.163715216807882e+000	 2.928596653018195e-001	 1.430599851729602e+001
1	 1.160643754840250e+000	 3.048047206734029e-001	 1.389675773948733e+001
1	 1.157440607346606e+000	 3.167507592780232e-001	 1.349151370142564e+001
1	 1.154105229318469e+000	 3.286957413846448e-001	 1.309034343641808e+001
1	 1.150637115213138e+000	 3.406376052026062e-001	 1.269336494811142e+001
1	 1.147035799782149e+000	 3.525742677652601e-001	 1.230073803630941e+001
1	 1.183658850071527e+000	 2.345146042220564e-001	 1.615719343763949e+001
1	 1.181222860523273e+000	 2.464911492558901e-001	 1.572112782420358e+001
1	 1.178657758798178e+000	 2.584785768177023e-001	 1.528970674390561e+001
1	 1.175962811585093e+000	 2.704749589074649e-001	 1.486282645790477e+001
1	 1.173137320819037e+000	 2.824783414056346e-001	 1.444041845728509e+001
1	 1.170180624600808e+000	 2.944867447922768e-001	 1.402245049289234e+001
1	 1.167092098102068e+000	 3.064981649005864e-001	 1.360892756544537e+001
1	 1.163871154454499e+000	 3.185105737046083e-001	 1.319989287283429e+001
1	 1.160517245621666e+000	 3.305219201409052e-001	 1.279542871153547e+001
1	 1.157029863252175e+000	 3.425301309638526e-001	 1.239565732909797e+001
1	 1.153408539512741e+000	 3.545331116341913e-001	 1.200074172469287e+001
1	 1.190198726903006e+000	 2.358103294440449e-001	 1.590557999111780e+001
1	 1.187749278179539e+000	 2.478530465251502e-001	 1.546290493156604e+001
1	 1.185170003916729e+000	 2.599067062616638e-001	 1.502531558379394e+001
1	 1.182460166751805e+000	 2.719693700010984e-001	 1.459271898951602e+001
1	 1.179619064762902e+000	 2.840390728271374e-001	 1.416505660105015e+001
1	 1.176646032393761e+000	 2.961138242827326e-001	 1.374230528135355e+001
1	 1.173540441363803e+000	 3.081916091277885e-001	 1.332447826496830e+001
1	 1.170301701562208e+000	 3.202703881312340e-001	 1.291162607685998e+001
1	 1.166929261924586e+000	 3.323480988972305e-001	 1.250383740615022e+001
1	 1.163422611290857e+000	 3.444226567251935e-001	 1.210123993176934e+001
1	 1.159781279242920e+000	 3.564919555032524e-001	 1.170400109709154e+001
1	 1.196738603734889e+000	 2.371060546659301e-001	 1.565729530115274e+001
1	 1.194275695836146e+000	 2.492149437943351e-001	 1.520803165211835e+001
1	 1.191682249035548e+000	 2.613348357055731e-001	 1.476428595762858e+001
1	 1.188957521918703e+000	 2.734637810946987e-001	 1.432597686435922e+001
1	 1.186100808706870e+000	 2.855998042486236e-001	 1.389305666920764e+001
1	 1.183111440186731e+000	 2.977409037731875e-001	 1.346551228939923e+001
1	 1.179988784625471e+000	 3.098850533550047e-001	 1.304336619403927e+001
1	 1.176732248669769e+000	 3.220302025578902e-001	 1.262667729416240e+001
1	 1.173341278227287e+000	 3.341742776536049e-001	 1.221554178834986e+001
1	 1.169815359329259e+000	 3.463151824866051e-001	 1.181009396101031e+001
1	 1.166154018972769e+000	 3.584507993724112e-001	 1.141050693045640e+001
1	 1.203278480567044e+000	 2.384017798877465e-001	 1.541226617862579e+001
1	 1.200802113492981e+000	 2.505768410634697e-001	 1.495643813011614e+001
1	 1.198194494154544e+000	 2.627629651494473e-001	 1.450655205515189e+001
1	 1.195454877085725e+000	 2.749581921882768e-001	 1.406253902089987e+001
1	 1.192582552650905e+000	 2.871605356700989e-001	 1.362436304260891e+001
1	 1.189576847979709e+000	 2.993679832636415e-001	 1.319202202365497e+001
1	 1.186437127887089e+000	 3.115784975822304e-001	 1.276554865746912e+001
1	 1.183162795777224e+000	 3.237900169845663e-001	 1.234501128846704e+001
1	 1.179753294529829e+000	 3.360004564100119e-001	 1.193051472911746e+001
1	 1.176208107367455e+000	 3.482077082480641e-001	 1.152220103031357e+001
1	 1.172526758702372e+000	 3.604096432416351e-001	 1.112025020224774e+001
1	 1.209818357399334e+000	 2.396975051095285e-001	 1.517042101696108e+001
1	 1.207328531149930e+000	 2.519387383325792e-001	 1.470805602028126e+001
1	 1.204706739273630e+000	 2.641910945933041e-001	 1.425204948909817e+001
1	 1.201952232252809e+000	 2.764526032818440e-001	 1.380234571791545e+001
1	 1.199064296594971e+000	 2.887212670915688e-001	 1.335892130473842e+001
1	 1.196042255772687e+000	 3.009950627540954e-001	 1.292178606092385e+001
1	 1.192885471148673e+000	 3.132719418094608e-001	 1.249098388325124e+001
1	 1.189593342884612e+000	 3.255498314112529e-001	 1.206659358540026e+001
1	 1.186165310832270e+000	 3.378266351664351e-001	 1.164872968603640e+001
1	 1.182600855405517e+000	 3.501002340095467e-001	 1.123754315073575e+001
1	 1.178899498431811e+000	 3.623684871108916e-001	 1.083322208501579e+001
1	 1.216358234231624e+000	 2.409932303313104e-001	 1.493168974958186e+001
1	 1.213854948806878e+000	 2.533006356016886e-001	 1.446281844719593e+001
1	 1.211218984392714e+000	 2.656192240371608e-001	 1.400071525693967e+001
1	 1.208449587419890e+000	 2.779470143754111e-001	 1.354533849900154e+001
1	 1.205546040539032e+000	 2.902819985130387e-001	 1.309667820938341e+001
1	 1.202507663565653e+000	 3.026221422445490e-001	 1.265475701941689e+001
1	 1.199333814410241e+000	 3.149653860366913e-001	 1.221963099774373e+001
1	 1.196023889991972e+000	 3.273096458379393e-001	 1.179139045200719e+001
1	 1.192577327134670e+000	 3.396528139228580e-001	 1.137016068752086e+001
1	 1.188993603443521e+000	 3.519927597710294e-001	 1.095610272020971e+001
1	 1.185272238161169e+000	 3.643273309801479e-001	 1.054941394115617e+001
1	 1.222898111063778e+000	 2.422889555531269e-001	 1.469600380873231e+001
1	 1.220381366463713e+000	 2.546625328708232e-001	 1.422065996600006e+001
1	 1.217731229511710e+000	 2.670473534810352e-001	 1.375248770385966e+001
1	 1.214946942586906e+000	 2.794414254689893e-001	 1.329146015821690e+001
1	 1.212027784483051e+000	 2.918427299345141e-001	 1.283758164934096e+001
1	 1.208973071358602e+000	 3.042492217350032e-001	 1.239088853090679e+001
1	 1.205782157671806e+000	 3.166588302639170e-001	 1.195145000164793e+001
1	 1.202454437099345e+000	 3.290694602646155e-001	 1.151936887692694e+001
1	 1.198989343437087e+000	 3.414789926792650e-001	 1.109478231755240e+001
1	 1.195386351481539e+000	 3.538852855324883e-001	 1.067786251319987e+001
1	 1.191644977890528e+000	 3.662861748493719e-001	 1.026881731783366e+001
1	 1.229437987895662e+000	 2.435846807750120e-001	 1.446329608561335e+001
1	 1.226907784120320e+000	 2.560244301400080e-001	 1.398151652434261e+001
1	 1.224243474630525e+000	 2.684754829249444e-001	 1.350730648690749e+001
1	 1.221444297753794e+000	 2.809358365625896e-001	 1.304065470682497e+001
1	 1.218509528426994e+000	 2.934034613560003e-001	 1.258158062612391e+001
1	 1.215438479151522e+000	 3.058763012254581e-001	 1.213013521377029e+001
1	 1.212230500933388e+000	 3.183522744911332e-001	 1.168640174675356e+001
1	 1.208884984206768e+000	 3.308292746912715e-001	 1.125049655120026e+001
1	 1.205401359739581e+000	 3.433051714356393e-001	 1.082256970090347e+001
1	 1.201779099519646e+000	 3.557778112939002e-001	 1.040280567068770e+001
1	 1.198017717619971e+000	 3.682450187185308e-001	 9.991423942067858e+000
1	 1.235977864727140e+000	 2.448804059970006e-001	 1.423350089178427e+001
1	 1.233434201776585e+000	 2.573863274092683e-001	 1.374532542554115e+001
1	 1.230755719749071e+000	 2.699036123689061e-001	 1.326511254029169e+001
1	 1.227941652920490e+000	 2.824302476562229e-001	 1.279286734109134e+001
1	 1.224991272370823e+000	 2.949641927775030e-001	 1.232862522062844e+001
1	 1.221903886944404e+000	 3.075033807159139e-001	 1.187245264688632e+001
1	 1.218678844195001e+000	 3.200457187183354e-001	 1.142444791342227e+001
1	 1.215315531314282e+000	 3.325890891178971e-001	 1.098474184968688e+001
1	 1.211813376042210e+000	 3.451313501919647e-001	 1.055349848883032e+001
1	 1.208171847557914e+000	 3.576703370552409e-001	 1.013091569047502e+001
1	 1.204390457349580e+000	 3.702038625875919e-001	 9.717225715975040e+000
1	 1.242517741558077e+000	 2.461761312191269e-001	 1.400655392178311e+001
1	 1.239960619432395e+000	 2.587482246786292e-001	 1.351202529290480e+001
1	 1.237267964867259e+000	 2.713317418129376e-001	 1.302584804176888e+001
1	 1.234439008086931e+000	 2.839246587499007e-001	 1.254804441109794e+001
1	 1.231473016314503e+000	 2.965249241990277e-001	 1.207866656472799e+001
1	 1.228369294737240e+000	 3.091304602063712e-001	 1.161779734435860e+001
1	 1.225127187456663e+000	 3.217391629455186e-001	 1.116555098878208e+001
1	 1.221746078421927e+000	 3.343489035444824e-001	 1.072207381306945e+001
1	 1.218225392345035e+000	 3.469575289482249e-001	 1.028754484521750e+001
1	 1.214564595596419e+000	 3.595628628164873e-001	 9.862176417793807e+000
1	 1.210763197079440e+000	 3.721627064565229e-001	 9.446214712160174e+000
1	 1.147035799782149e+000	 3.525742677652601e-001	 1.230073803630941e+001
1	 1.143300858591557e+000	 3.645036256715679e-001	 1.190851216402927e+001
1	 1.139431907944475e+000	 3.764235554931851e-001	 1.151281078056788e+001
1	 1.135428606500522e+000	 3.883319152483018e-001	 1.111397365115466e+001
1	 1.131290656299120e+000	 4.002265455830573e-001	 1.071239057617904e+001
1	 1.127017803469615e+000	 4.121052708129412e-001	 1.030850192153874e+001
1	 1.122609838913262e+000	 4.239658999937964e-001	 9.902799072667401e+000
1	 1.118066598955774e+000	 4.358062280216105e-001	 9.495824809586480e+000
1	 1.113387965969144e+000	 4.476240367602244e-001	 9.088173600456493e+000
1	 1.108573868961468e+000	 4.594170961960175e-001	 8.680491811242758e+000
1	 1.103624284133538e+000	 4.711831656185747e-001	 8.273477829263268e+000
1	 1.153408539512741e+000	 3.545331116341913e-001	 1.200074172469287e+001
1	 1.149652847611346e+000	 3.665287470647388e-001	 1.160674649477035e+001
1	 1.145762401719341e+000	 3.785149020297367e-001	 1.120980984744340e+001
1	 1.141736858599893e+000	 3.904894226468796e-001	 1.081027343074276e+001
1	 1.137575918636990e+000	 4.024501375652946e-001	 1.040852898476318e+001
1	 1.133279326549498e+000	 4.143948590127299e-001	 1.000501887057972e+001
1	 1.128846872076932e+000	 4.263213838725058e-001	 9.600236522517678e+000
1	 1.124278390635644e+000	 4.382274947894189e-001	 9.194726821114559e+000
1	 1.119573763944086e+000	 4.501109613037127e-001	 8.789086384243484e+000
1	 1.114732920615915e+000	 4.619695410121816e-001	 8.383963774009169e+000
1	 1.109755836719682e+000	 4.738009807553952e-001	 7.980059617180360e+000
1	 1.159781279242920e+000	 3.564919555032524e-001	 1.170400109709154e+001
1	 1.156004836630688e+000	 3.685538684580830e-001	 1.130820813232240e+001
1	 1.152092895493741e+000	 3.806062485665094e-001	 1.091001958737779e+001
1	 1.148045110698800e+000	 3.926469300457278e-001	 1.050977727060112e+001
1	 1.143861180974407e+000	 4.046737295478509e-001	 1.010787296072303e+001
1	 1.139540849628945e+000	 4.166844472128812e-001	 9.704748934540607e+000
1	 1.135083905240194e+000	 4.286768677516142e-001	 9.300898417939971e+000
1	 1.130490182315132e+000	 4.406487615576512e-001	 8.896865957599987e+000
1	 1.125759561918668e+000	 4.525978858476361e-001	 8.493247710846049e+000
1	 1.120891972270021e+000	 4.645219858287749e-001	 8.090691651265299e+000
1	 1.115887389305492e+000	 4.764187958926180e-001	 7.689897687845546e+000
1	 1.166154018972769e+000	 3.584507993724112e-001	 1.141050693045640e+001
1	 1.162356825649667e+000	 3.705789898515569e-001	 1.101289672337631e+001
1	 1.158423389267759e+000	 3.826975951034477e-001	 1.061344650372826e+001
1	 1.154353362797314e+000	 3.948044374447787e-001	 1.021249654478027e+001
1	 1.150146443311432e+000	 4.068973215306460e-001	 9.810436791888742e+000
1	 1.145802372708010e+000	 4.189740354133045e-001	 9.407707389135689e+000
1	 1.141320938403083e+000	 4.310323516310217e-001	 9.004799129611795e+000
1	 1.136701973994260e+000	 4.430700283262014e-001	 8.602253826688774e+000
1	 1.131945359892904e+000	 4.550848103918861e-001	 8.200664603754225e+000
1	 1.127051023923789e+000	 4.670744306456894e-001	 7.800676100023578e+000
1	 1.122018941890968e+000	 4.790366110301420e-001	 7.402984590196446e+000
1	 1.172526758702372e+000	 3.604096432416351e-001	 1.112025020224774e+001
1	 1.168708814668366e+000	 3.726041112451172e-001	 1.072081192230258e+001
1	 1.164753883041476e+000	 3.847889416404962e-001	 1.032009695846653e+001
1	 1.160661614895509e+000	 3.969619448439649e-001	 9.918442380055527e+000
1	 1.156431705648128e+000	 4.091209135136007e-001	 9.516234455469366e+000
1	 1.152063895786738e+000	 4.212636236139091e-001	 9.113909177981526e+000
1	 1.147557971565633e+000	 4.333878355106287e-001	 8.711952715788915e+000
1	 1.142913765673050e+000	 4.454912950949638e-001	 8.310901783674442e+000
1	 1.138131157866803e+000	 4.575717349363536e-001	 7.911343933765940e+000
1	 1.133210075577222e+000	 4.696268754628187e-001	 7.513917763013406e+000
1	 1.128150494476111e+000	 4.816544261678670e-001	 7.119313035159035e+000
1	 1.178899498431811e+000	 3.623684871108916e-001	 1.083322208501579e+001
1	 1.175060803686873e+000	 3.746292326387209e-001	 1.043195339094371e+001
1	 1.171084376814971e+000	 3.868802881775999e-001	 1.002997717600008e+001
1	 1.166969866993460e+000	 3.991194522432187e-001	 9.627625662610486e+000
1	 1.162716967984558e+000	 4.113445054966350e-001	 9.225279626448332e+000
1	 1.158325418865181e+000	 4.235532118146044e-001	 8.823368921573085e+000
1	 1.153795004727882e+000	 4.357433193903352e-001	 8.422372930749603e+000
1	 1.149125557351524e+000	 4.479125618638322e-001	 8.022820938318541e+000
1	 1.144316955840377e+000	 4.600586594809299e-001	 7.625292423114462e+000
1	 1.139369127230325e+000	 4.721793202800552e-001	 7.230417269067099e+000
1	 1.134282047060920e+000	 4.842722413056925e-001	 6.838875891269331e+000
1	 1.185272238161169e+000	 3.643273309801479e-001	 1.054941394115617e+001
1	 1.181412792705272e+000	 3.766543540323245e-001	 1.014632079841330e+001
1	 1.177414870588328e+000	 3.889716347147038e-001	 9.743093246870471e+000
1	 1.173278119091240e+000	 4.012769596424727e-001	 9.340057044504761e+000
1	 1.169002230320782e+000	 4.135680974796692e-001	 8.937585685708340e+000
1	 1.164586941943386e+000	 4.258428000152994e-001	 8.536100925970178e+000
1	 1.160032037889863e+000	 4.380988032700419e-001	 8.136073232966549e+000
1	 1.155337349029706e+000	 4.503338286327006e-001	 7.738022161451335e+000
1	 1.150502753813638e+000	 4.625455840255059e-001	 7.342516649462084e+000
1	 1.145528178883100e+000	 4.747317650972915e-001	 6.950175233493613e+000
1	 1.140413599645397e+000	 4.868900564435182e-001	 6.561666180436452e+000
1	 1.191644977890528e+000	 3.662861748493719e-001	 1.026881731783366e+001
1	 1.187764781723647e+000	 3.786794754258847e-001	 9.863913820901878e+000
1	 1.183745364361628e+000	 3.910629812517525e-001	 9.459451131332868e+000
1	 1.179586371188922e+000	 4.034344670416589e-001	 9.055746949934509e+000
1	 1.175287492656865e+000	 4.157916894626237e-001	 8.653165727895331e+000
1	 1.170848465021405e+000	 4.281323882159039e-001	 8.252119191205317e+000
1	 1.166269071051614e+000	 4.404542871496486e-001	 7.853066793016429e+000
1	 1.161549140707617e+000	 4.527550954014630e-001	 7.456516091360668e+000
1	 1.156688551786596e+000	 4.650325085699735e-001	 7.063023049765727e+000
1	 1.151687230535551e+000	 4.772842099144207e-001	 6.673192258439957e+000
1	 1.146545152229541e+000	 4.895078715812432e-001	 6.287677073841324e+000
1	 1.198017717619971e+000	 3.682450187185308e-001	 9.991423942067858e+000
1	 1.194116770742085e+000	 3.807045968193585e-001	 9.584732141488503e+000
1	 1.190075858134952e+000	 3.931543277886904e-001	 9.179056662821143e+000
1	 1.185894623286580e+000	 4.055919744407099e-001	 8.774705581292695e+000
1	 1.181572754992868e+000	 4.180152814454189e-001	 8.372032569031564e+000
1	 1.177109988099285e+000	 4.304219764163272e-001	 7.971437419423054e+000
1	 1.172506104213168e+000	 4.428097710290560e-001	 7.573366501236967e+000
1	 1.167760932385280e+000	 4.551763621700133e-001	 7.178313139976814e+000
1	 1.162874349759262e+000	 4.675194331142233e-001	 6.786817924019466e+000
1	 1.157846282187681e+000	 4.798366547313354e-001	 6.399468933241281e+000
1	 1.152676704813351e+000	 4.921256867187672e-001	 6.016901887966552e+000
1	 1.204390457349580e+000	 3.702038625875919e-001	 9.717225715975040e+000
1	 1.200468759760668e+000	 3.827297182127025e-001	 9.308775449958741e+000
1	 1.196406351908382e+000	 3.952456743254629e-001	 8.901915551303290e+000
1	 1.192202875384288e+000	 4.077494818395578e-001	 8.496942925037423e+000
1	 1.187858017328854e+000	 4.202388734279750e-001	 8.094198753886902e+000
1	 1.183371511177076e+000	 4.327115646164784e-001	 7.694069022761005e+000
1	 1.178743137374562e+000	 4.451652549081643e-001	 7.296984975141236e+000
1	 1.173972724062717e+000	 4.575976289382454e-001	 6.903423498861256e+000
1	 1.169060147731649e+000	 4.700063576581465e-001	 6.513907438877960e+000
1	 1.164005333839493e+000	 4.823890995479283e-001	 6.129005834759951e+000
1	 1.158808257396830e+000	 4.947435018559896e-001	 5.749334080752275e+000
1	 1.210763197079440e+000	 3.721627064565229e-001	 9.446214712160174e+000
1	 1.206820748779484e+000	 3.847548396058735e-001	 9.036043442628078e+000
1	 1.202736845682000e+000	 3.973370208620146e-001	 8.628033386530662e+000
1	 1.198511127482119e+000	 4.099069892381354e-001	 8.222468757374568e+000
1	 1.194143279664885e+000	 4.224624654102122e-001	 7.819676563117627e+000
1	 1.189633034254827e+000	 4.350011528162668e-001	 7.420027130981991e+000
1	 1.184980170535832e+000	 4.475207387868736e-001	 7.023934566597487e+000
1	 1.180184515739950e+000	 4.600188957060534e-001	 6.631857145005849e+000
1	 1.175245945703767e+000	 4.724932822016346e-001	 6.244297631165456e+000
1	 1.170164385490992e+000	 4.849415443640924e-001	 5.861803527713621e+000
1	 1.164939809979976e+000	 4.973613169928101e-001	 5.484967247873255e+000
1	 1.103624284133538e+000	 4.711831656185747e-001	 8.273477829263268e+000
1	 1.098540008418292e+000	 4.829182367932998e-001	 7.858610581266391e+000
1	 1.093320382371615e+000	 4.946218196740462e-001	 7.426815328966713e+000
1	 1.087965527553038e+000	 5.062916504278682e-001	 6.978177533376258e+000
1	 1.082475614551749e+000	 5.179254595134631e-001	 6.512777056207912e+000
1	 1.076850863358325e+000	 5.295209729733790e-001	 6.030688448778254e+000
1	 1.071091543696644e+000	 5.410759137449159e-001	 5.531981263813940e+000
1	 1.065197975315034e+000	 5.525880029883279e-001	 5.016720389759796e+000
1	 1.059170528235776e+000	 5.640549614308797e-001	 4.484966407112952e+000
1	 1.053009622962143e+000	 5.754745107252708e-001	 3.936775966237169e+000
1	 1.046715730642193e+000	 5.868443748208878e-001	 3.372202186036945e+000
1	 1.109755836719682e+000	 4.738009807553952e-001	 7.980059617180359e+000
1	 1.104643313615936e+000	 4.856012500296728e-001	 7.568482380560074e+000
1	 1.099394688196809e+000	 4.973698560662537e-001	 7.139790623748481e+000
1	 1.094010082697206e+000	 5.091045224547136e-001	 6.694076182360115e+000
1	 1.088489668654092e+000	 5.208029670445574e-001	 6.231425276764753e+000
1	 1.082833667280287e+000	 5.324629032446049e-001	 5.751918795189368e+000
1	 1.077042349798221e+000	 5.440820413411761e-001	 5.255632599784712e+000
1	 1.071116037732701e+000	 5.556580898336719e-001	 4.742637855265684e+000
1	 1.065055103161805e+000	 5.671887567860980e-001	 4.213001379662589e+000
1	 1.058859968925060e+000	 5.786717511930366e-001	 3.666786016647346e+000
1	 1.052531108788160e+000	 5.901047843585172e-001	 3.104051028826328e+000
1	 1.115887389305492e+000	 4.764187958926180e-001	 7.689897687845546e+000
1	 1.110746618813241e+000	 4.882842632663987e-001	 7.281602896704330e+000
1	 1.105468994021646e+000	 5.001178924587447e-001	 6.856003430901385e+000
1	 1.100054637840989e+000	 5.119173944817586e-001	 6.413202487846927e+000
1	 1.094503722756014e+000	 5.236804745757574e-001	 5.953297938388195e+000
1	 1.088816471201787e+000	 5.354048335158375e-001	 5.476382598964750e+000
1	 1.082993155899291e+000	 5.470881689373441e-001	 4.982544526173285e+000
1	 1.077034100149815e+000	 5.587281766788284e-001	 4.471867333365027e+000
1	 1.070939678087233e+000	 5.703225521410430e-001	 3.944430528826012e+000
1	 1.064710314887335e+000	 5.818689916604577e-001	 3.400309875022894e+000
1	 1.058346486933445e+000	 5.933651938957494e-001	 2.839577768322922e+000
1	 1.122018941890968e+000	 4.790366110301420e-001	 7.402984590196446e+000
1	 1.116849924010209e+000	 4.909672765033883e-001	 6.997957363206430e+000
1	 1.111543299846135e+000	 5.028659288514479e-001	 6.575434914300725e+000
1	 1.106099192984409e+000	 5.147302665089530e-001	 6.135536711845505e+000
1	 1.100517776857554e+000	 5.265579821070365e-001	 5.678377487529204e+000
1	 1.094799275122880e+000	 5.383467637870755e-001	 5.204067492467848e+000
1	 1.088943961999928e+000	 5.500942965334422e-001	 4.712712774553699e+000
1	 1.082952162566470e+000	 5.617982635238442e-001	 4.204415476684496e+000
1	 1.076824253012177e+000	 5.734563474957832e-001	 3.679274155444533e+000
1	 1.070560660849099e+000	 5.850662321276201e-001	 3.137384119738340e+000
1	 1.064161865078198e+000	 5.966256034326836e-001	 2.578837788812895e+000
1	 1.128150494476111e+000	 4.816544261678670e-001	 7.119313035159036e+000
1	 1.122953229206843e+000	 4.936502897405545e-001	 6.717531334601188e+000
1	 1.117617605670288e+000	 5.056139652442927e-001	 6.298066647324269e+000
1	 1.112143748127488e+000	 5.175431385362475e-001	 5.861059545473886e+000
1	 1.106531830958747e+000	 5.294354896383687e-001	 5.406646752257699e+000
1	 1.100782079043621e+000	 5.412886940583167e-001	 4.934961376938447e+000
1	 1.094894768100207e+000	 5.531004241294942e-001	 4.446133169297250e+000
1	 1.088870224982760e+000	 5.648683503687664e-001	 3.940288793222360e+000
1	 1.082708827936749e+000	 5.765901428503867e-001	 3.417552119016087e+000
1	 1.076411006810486e+000	 5.882634725946104e-001	 2.878044533947571e+000
1	 1.069977243222568e+000	 5.998860129694195e-001	 2.321885270517344e+000
1	 1.134282047060920e+000	 4.842722413056925e-001	 6.838875891269330e+000
1	 1.129056534403145e+000	 4.963333029778084e-001	 6.440310677773917e+000
1	 1.123691911494114e+000	 5.083620016372084e-001	 6.023880601783588e+000
1	 1.118188303270249e+000	 5.203560105635913e-001	 5.589752097360774e+000
1	 1.112545885059632e+000	 5.323129971697274e-001	 5.138088931947789e+000
1	 1.106764882964066e+000	 5.442306243295596e-001	 4.669052415224914e+000
1	 1.100845574200202e+000	 5.561065517255233e-001	 4.182801625064713e+000
1	 1.094788287398780e+000	 5.679384372136416e-001	 3.679493650257328e+000
1	 1.088593402861064e+000	 5.797239382049222e-001	 3.159283849623827e+000
1	 1.082261352771629e+000	 5.914607130615146e-001	 2.622326127077552e+000
1	 1.075792621366704e+000	 6.031464225060556e-001	 2.068773222136099e+000
1	 1.140413599645397e+000	 4.868900564435182e-001	 6.561666180436452e+000
1	 1.135159839599118e+000	 4.990163162150624e-001	 6.166281563563775e+000
1	 1.129766217317625e+000	 5.111100380301240e-001	 5.752859137213409e+000
1	 1.124232858412714e+000	 5.231688825909355e-001	 5.321595882422092e+000
1	 1.118559939160247e+000	 5.351905047010860e-001	 4.872687587296209e+000
1	 1.112747686884270e+000	 5.471725546008028e-001	 4.406329024751479e+000
1	 1.106796380299988e+000	 5.591126793215521e-001	 3.922714144378897e+000
1	 1.100706349814623e+000	 5.710085240585168e-001	 3.422036278131714e+000
1	 1.094477977785235e+000	 5.828577335594575e-001	 2.904488359479942e+000
1	 1.088111698732658e+000	 5.946579535284184e-001	 2.370263155627943e+000
1	 1.081607999510756e+000	 6.064068320426921e-001	 1.819553512341970e+000
1	 1.146545152229541e+000	 4.895078715812432e-001	 6.287677073841324e+000
1	 1.141263144794765e+000	 5.016993294522283e-001	 5.895430458635864e+000
1	 1.135840523140828e+000	 5.138580744229687e-001	 5.484984990503583e+000
1	 1.130277413554903e+000	 5.259817546182297e-001	 5.056572810996647e+000
1	 1.124573993260627e+000	 5.380680122324181e-001	 4.610426630660514e+000
1	 1.118730490804286e+000	 5.501144848720440e-001	 4.146779870711097e+000
1	 1.112747186399639e+000	 5.621188069176042e-001	 3.665866815275147e+000
1	 1.106624412230385e+000	 5.740786109034390e-001	 3.167922773912792e+000
1	 1.100362552709377e+000	 5.859915289140608e-001	 2.653184254099446e+000
1	 1.093962044693708e+000	 5.978551939954088e-001	 2.121889143304409e+000
1	 1.087423377654871e+000	 6.096672415794279e-001	 1.574276900263880e+000
1	 1.152676704813351e+000	 4.921256867187672e-001	 6.016901887966552e+000
1	 1.147366449990089e+000	 5.043823426892181e-001	 5.627744117613387e+000
1	 1.141914828963736e+000	 5.166061108156720e-001	 5.220241265863034e+000
1	 1.136321968696841e+000	 5.287946266454243e-001	 4.794665178329188e+000
1	 1.130588047360811e+000	 5.409455197636974e-001	 4.351290316706042e+000
1	 1.124713294724171e+000	 5.530564151432816e-001	 3.890393859475271e+000
1	 1.118697992499228e+000	 5.651249345137025e-001	 3.412255809026958e+000
1	 1.112542474646159e+000	 5.771486977484549e-001	 2.917159104937494e+000
1	 1.106247127633605e+000	 5.891253242688013e-001	 2.405389743116680e+000
1	 1.099812390654912e+000	 6.010524344625714e-001	 1.877236900508222e+000
1	 1.093238755799201e+000	 6.129276511163621e-001	 1.332993064997699e+000
1	 1.158808257396830e+000	 4.947435018559896e-001	 5.749334080752276e+000
1	 1.153469755185090e+000	 5.070653559259436e-001	 5.363209575459175e+000
1	 1.147989134786358e+000	 5.193541472081626e-001	 4.958611425101475e+000
1	 1.142366523838548e+000	 5.316074986724692e-001	 4.535855654387202e+000
1	 1.136602101460835e+000	 5.438230272948974e-001	 4.095263233349604e+000
1	 1.130696098643979e+000	 5.559983454145145e-001	 3.637160132213632e+000
1	 1.124648798598832e+000	 5.681310621098703e-001	 3.161877377943987e+000
1	 1.118460537062040e+000	 5.802187845936114e-001	 2.669751112244651e+000
1	 1.112131702558031e+000	 5.922591196237463e-001	 2.161122650759123e+000
1	 1.105662736616400e+000	 6.042496749299925e-001	 1.636338543207884e+000
1	 1.099054133943893e+000	 6.161880606535946e-001	 1.095750634179658e+000
1	 1.164939809979976e+000	 4.973613169928101e-001	 5.484967247873257e+000
1	 1.159573060379774e+000	 5.097483691623166e-001	 5.101814140097962e+000
1	 1.154063440608705e+000	 5.221021836003701e-001	 4.700079278218401e+000
1	 1.148411078980047e+000	 5.344203706993145e-001	 4.280127273999264e+000
1	 1.142616155560737e+000	 5.467005348259916e-001	 3.842330292989351e+000
1	 1.136678902563766e+000	 5.589402756857403e-001	 3.387068058714226e+000
1	 1.130599604698522e+000	 5.711371897061304e-001	 2.914727853238905e+000
1	 1.124378599478121e+000	 5.832888714389555e-001	 2.425704513898542e+000
1	 1.118016277482770e+000	 5.953929149789649e-001	 1.920400425990031e+000
1	 1.111513082578307e+000	 6.074469153977584e-001	 1.399225511214338e+000
1	 1.104869512089097e+000	 6.194484701912240e-001	 8.625972116578026e-001
1	 1.046715730642193e+000	 5.868443748208878e-001	 3.372202186036944e+000
1	 1.040288399370800e+000	 5.981639752992449e-001	 2.784095182823121e+000
1	 1.033729137081809e+000	 6.094293349560167e-001	 2.166435265466846e+000
1	 1.027038568530055e+000	 6.206381926269815e-001	 1.520749672255671e+000
1	 1.020217369346709e+000	 6.317882950541939e-001	 8.486162677974466e-001
1	 1.013266265976422e+000	 6.428773982974780e-001	 1.516617581080447e-001
1	 1.006186035567982e+000	 6.539032691487108e-001	-5.684401886888264e-001
1	 9.989775058181930e-001	 6.648636865471250e-001	-1.309970913305994e+000
1	 9.916415547687788e-001	 6.757564429938406e-001	-2.071168824884402e+000
1	 9.841791105561780e-001	 6.865793459638276e-001	-2.850231545987019e+000
1	 9.765911511141747e-001	 6.973302193134739e-001	-3.645318139505558e+000
1	 1.052531108788160e+000	 5.901047843585172e-001	 3.104051028826327e+000
1	 1.046068068335276e+000	 6.014872746504577e-001	 2.517903087205586e+000
1	 1.039472363878085e+000	 6.128152227678481e-001	 1.902597875972131e+000
1	 1.032744623642452e+000	 6.240863549838150e-001	 1.259698236011399e+000
1	 1.025885527013243e+000	 6.352984055216872e-001	 5.908182066314770e-001
1	 1.018895804471111e+000	 6.464491179743309e-001	-1.023788301423482e-001
1	 1.011776237482553e+000	 6.575362467262914e-001	-8.181821015488628e-001
1	 1.004527658342915e+000	 6.685575583769569e-001	-1.554835489469552e+000
1	 9.971509499721742e-001	 6.795108331629519e-001	-2.310539666066724e+000
1	 9.896470456633376e-001	 6.903938663779422e-001	-3.083454316285149e+000
1	 9.820169287834258e-001	 7.012044697880243e-001	-3.871700443578836e+000
1	 1.058346486933445e+000	 5.933651938957494e-001	 2.839577768322923e+000
1	 1.051847737299039e+000	 6.048105740012431e-001	 2.255603624796958e+000
1	 1.045215590673622e+000	 6.162011105792424e-001	 1.642914524626227e+000
1	 1.038450678754095e+000	 6.275345173402180e-001	 1.003100556324262e+000
1	 1.031553684679011e+000	 6.388085159887689e-001	 3.378030955170729e-001
1	 1.024525342965032e+000	 6.500208376507993e-001	-3.512871106133271e-001
1	 1.017366439396360e+000	 6.611692243035183e-001	-1.062431956089394e+000
1	 1.010077810866886e+000	 6.722514302064664e-001	-1.793848083100065e+000
1	 1.002660345174838e+000	 6.832652233317685e-001	-2.543709079903567e+000
1	 9.951149807697941e-001	 6.942083867917818e-001	-3.310147766146736e+000
1	 9.874427064520090e-001	 7.050787202623076e-001	-4.091258561828133e+000
1	 1.064161865078198e+000	 5.966256034326836e-001	 2.578837788812896e+000
1	 1.057627406262252e+000	 6.081338733517084e-001	 1.997269608625531e+000
1	 1.050958817468596e+000	 6.195869983903091e-001	 1.387470321840486e+000
1	 1.044156733865162e+000	 6.309826796962981e-001	 7.510490464899329e-001
1	 1.037221842344201e+000	 6.423186264555413e-001	 8.966579828752329e-002
1	 1.030154881458374e+000	 6.535925573269785e-001	-5.949704739400437e-001
1	 1.022956641309592e+000	 6.648022018804798e-001	-1.301103949996742e+000
1	 1.015627963390292e+000	 6.759453020357341e-001	-2.026934094131085e+000
1	 1.008169740376953e+000	 6.870196135003639e-001	-2.770617901546074e+000
1	 1.000582915875723e+000	 6.980229072054153e-001	-3.530272231975799e+000
1	 9.928684841200919e-001	 7.089529707363905e-001	-4.303976226443542e+000
1	 1.069977243222568e+000	 5.998860129694195e-001	 2.321885270517345e+000
1	 1.063407075225076e+000	 6.114571727019601e-001	 1.742972268749925e+000
1	 1.056702044263178e+000	 6.229728862011573e-001	 1.136348527708714e+000
1	 1.049862788975838e+000	 6.344308420521626e-001	 5.036341107206495e-001
1	 1.042890000008998e+000	 6.458287369221080e-001	-1.535008835829549e-001
1	 1.035784419951326e+000	 6.571642770029659e-001	-8.333383241035510e-001
1	 1.028546843222441e+000	 6.684351794572643e-001	-1.534114146316790e+000
1	 1.021178115913322e+000	 6.796391738648412e-001	-2.254020544316922e+000
1	 1.013679135578703e+000	 6.907740036688119e-001	-2.991208252400965e+000
1	 1.006050850981300e+000	 7.018374276189107e-001	-3.743788912470607e+000
1	 9.982942617878406e-001	 7.128272212103395e-001	-4.509837523280506e+000
1	 1.075792621366704e+000	 6.031464225060556e-001	 2.068773222136098e+000
1	 1.069186744187677e+000	 6.147804720521047e-001	 1.492781295044307e+000
1	 1.062445271057544e+000	 6.263587740118962e-001	 8.896306020187200e-001
1	 1.055568844086303e+000	 6.378790044079197e-001	 2.609441984471512e-001
1	 1.048558157673590e+000	 6.493388473885715e-001	-3.916061552366630e-001
1	 1.041413958444078e+000	 6.607359966788566e-001	-1.066302024014206e+000
1	 1.034137045135093e+000	 6.720681570339605e-001	-1.761380423037465e+000
1	 1.026728268436162e+000	 6.833330456938671e-001	-2.475036033397154e+000
1	 1.019188530780268e+000	 6.945283938371860e-001	-3.205423505365131e+000
1	 1.011518786086701e+000	 7.056519480323377e-001	-3.950659845317528e+000
1	 1.003720039455423e+000	 7.167014716842222e-001	-4.708826882300618e+000
1	 1.081607999510756e+000	 6.064068320426921e-001	 1.819553512341972e+000
1	 1.074966413150215e+000	 6.181037714022500e-001	 1.246764878602950e+000
1	 1.068188497851865e+000	 6.297446618226351e-001	 6.473962526494282e-001
1	 1.061274899196738e+000	 6.413271667636769e-001	 2.306585686907699e-002
1	 1.054226315338164e+000	 6.528489578550352e-001	-6.245611744888984e-001
1	 1.047043496936819e+000	 6.643077163547476e-001	-1.293774842849175e+000
1	 1.039727247047741e+000	 6.757011346106565e-001	-1.982822424297618e+000
1	 1.032278420959000e+000	 6.870269175228932e-001	-2.689910696675612e+000
1	 1.024697925981833e+000	 6.982827840055605e-001	-3.413208251181994e+000
1	 1.016986721192101e+000	 7.094664684457648e-001	-4.150847884636401e+000
1	 1.009145817123004e+000	 7.205757221581045e-001	-4.900929068321089e+000
1	 1.087423377654871e+000	 6.096672415794279e-001	 1.574276900263878e+000
1	 1.080746082112854e+000	 6.214270707525014e-001	 1.004989751816776e+000
1	 1.073931724646317e+000	 6.331305496334835e-001	 4.097234824160283e-001
1	 1.066980954307326e+000	 6.447753291195418e-001	-2.099162181803679e-001
1	 1.059894473002906e+000	 6.563590683216020e-001	-8.522789996144797e-001
1	 1.052673035429740e+000	 6.678794360307347e-001	-1.515671905079970e+000
1	 1.045317448960573e+000	 6.793341121874412e-001	-2.198361513161062e+000
1	 1.037828573482022e+000	 6.907207893519999e-001	-2.898576163960410e+000
1	 1.030207321183581e+000	 7.020371741740087e-001	-3.614508265877004e+000
1	 1.022454656297678e+000	 7.132809888592604e-001	-4.344316679149594e+000
1	 1.014571594790753e+000	 7.244499726320536e-001	-5.086129172060915e+000
1	 1.093238755799201e+000	 6.129276511163621e-001	 1.332993064997700e+000
1	 1.086525751075758e+000	 6.247503701029669e-001	 7.675212271701674e-001
1	 1.079674951441073e+000	 6.365164374445501e-001	 1.766886344191999e-001
1	 1.072687009418248e+000	 6.482234914756219e-001	-4.379191329939363e-001
1	 1.065562630668003e+000	 6.598691787883746e-001	-1.074674538801316e+000
1	 1.058302573923028e+000	 6.714511557069139e-001	-1.731910141128019e+000
1	 1.050907650873779e+000	 6.829670897644030e-001	-2.407920725898702e+000
1	 1.043378726005418e+000	 6.944146611812677e-001	-3.100965519814872e+000
1	 1.035716716385692e+000	 7.057915643426040e-001	-3.809270479232770e+000
1	 1.027922591403607e+000	 7.170955092728941e-001	-4.531030651047923e+000
1	 1.019997372458836e+000	 7.283242231061367e-001	-5.264412601472768e+000
1	 1.099054133943893e+000	 6.161880606535946e-001	 1.095750634179659e+000
1	 1.092305420039088e+000	 6.280736694537524e-001	 5.344232348068644e-001
1	 1.085418178236306e+000	 6.399023252559447e-001	-5.163356404440188e-002
1	 1.078393064529686e+000	 6.516716538320250e-001	-6.608617483127772e-001
1	 1.071230788333643e+000	 6.633792892554562e-001	-1.291664501208743e+000
1	 1.063932112416875e+000	 6.750228753833825e-001	-1.942408239584905e+000
1	 1.056497852787547e+000	 6.866000673416297e-001	-2.611424727721932e+000
1	 1.048928878529372e+000	 6.981085330107775e-001	-3.297013265069728e+000
1	 1.041226111588352e+000	 7.095459545114209e-001	-3.997442944264682e+000
1	 1.033390526510062e+000	 7.209100296867335e-001	-4.710954975527955e+000
1	 1.025423150127420e+000	 7.321984735804198e-001	-5.435765073350529e+000
1	 1.104869512089097e+000	 6.194484701912240e-001	 8.625972116578021e-001
1	 1.098085089003007e+000	 6.313969688049652e-001	 3.057583589086119e-001
1	 1.091161405032191e+000	 6.432882130677760e-001	-2.751699589596625e-001
1	 1.084099119641821e+000	 6.551198161888586e-001	-8.786646331541037e-001
1	 1.076898946000012e+000	 6.668893997229497e-001	-1.503167349570972e+000
1	 1.069561650911468e+000	 6.785945950602359e-001	-2.147086600943313e+000
1	 1.062088054702069e+000	 6.902330449192106e-001	-2.808799769912547e+000
1	 1.054479031054074e+000	 7.018024048406095e-001	-3.486655279551198e+000
1	 1.046735506791741e+000	 7.133003446805322e-001	-4.178974807661032e+000
1	 1.038858461617222e+000	 7.247245501008480e-001	-4.884055560974393e+000
1	 1.030848927796671e+000	 7.360727240549706e-001	-5.600172605201024e+000
1	 9.765911511141747e-001	 6.973302193134739e-001	-3.645318139505561e+000
1	 9.688787035538358e-001	 7.080069044459488e-001	-4.444590782165428e+000
1	 9.610428429529890e-001	 7.186072609821202e-001	-5.237226616295136e+000
1	 9.530846927590595e-001	 7.291291688273839e-001	-6.022893553334563e+000
1	 9.450054245837380e-001	 7.395705297771742e-001	-6.801278538909885e+000
1	 9.368062576740198e-001	 7.499292688767160e-001	-7.572088080587833e+000
1	 9.284884583374330e-001	 7.602033357655288e-001	-8.335048745350312e+000
1	 9.200533393219623e-001	 7.703907060048886e-001	-9.089907625613543e+000
1	 9.115022591512589e-001	 7.804893823864774e-001	-9.836432772682928e+000
1	 9.028366214158040e-001	 7.904973962204591e-001	-1.057441359661253e+001
1	 8.940578740207774e-001	 8.004128086012710e-001	-1.130366123151505e+001
1	 9.820169287834258e-001	 7.012044697880243e-001	-3.871700443578840e+000
1	 9.742616321499599e-001	 7.119404728035643e-001	-4.663646451019193e+000
1	 9.663822368137147e-001	 7.225997231538436e-001	-5.448761078767937e+000
1	 9.583798724637950e-001	 7.331800889653712e-001	-6.226805134019397e+000
1	 9.502557172211614e-001	 7.436794603763114e-001	-6.997562264043207e+000
1	 9.420109971067352e-001	 7.540957509037904e-001	-7.760839332381373e+000
1	 9.336469854634308e-001	 7.644268987958722e-001	-8.516466757192873e+000
1	 9.251650023326336e-001	 7.746708683663928e-001	-9.264298810857701e+000
1	 9.165664137857175e-001	 7.848256513108827e-001	-1.000421388004589e+001
1	 9.078526312112717e-001	 7.948892680017987e-001	-1.073611468554861e+001
1	 8.990251105587875e-001	 8.048597687613458e-001	-1.145992846126767e+001
1	 9.874427064520090e-001	 7.050787202623076e-001	-4.091258561828132e+000
1	 9.796445607454600e-001	 7.158740411609053e-001	-4.875643379220778e+000
1	 9.717216306738654e-001	 7.265921853252729e-001	-5.653077791353960e+000
1	 9.636750521680070e-001	 7.372310091030350e-001	-6.423408886250092e+000
1	 9.555060098581151e-001	 7.477883909750888e-001	-7.186509989259068e+000
1	 9.472157365390326e-001	 7.582622329304661e-001	-7.942280897781874e+000
1	 9.388055125890581e-001	 7.686504618257768e-001	-8.690648071330777e+000
1	 9.302766653429756e-001	 7.789510307274222e-001	-9.431564776309763e+000
1	 9.216305684198799e-001	 7.891619202347835e-001	-1.016501118500987e+001
1	 9.128686410064646e-001	 7.992811397826130e-001	-1.089099442842838e+001
1	 9.039923470965305e-001	 8.093067289208878e-001	-1.160954860262990e+001
1	 9.928684841200919e-001	 7.089529707363905e-001	-4.303976226443546e+000
1	 9.850274893404919e-001	 7.198076095180407e-001	-5.080588204709235e+000
1	 9.770610245335857e-001	 7.305846474964822e-001	-5.850201615707585e+000
1	 9.689702318718272e-001	 7.412819292404559e-001	-6.612743330910758e+000
1	 9.607563024947161e-001	 7.518973215735962e-001	-7.368169452358314e+000
1	 9.524204759710170e-001	 7.624287149568423e-001	-8.116465415889154e+000
1	 9.439640397144077e-001	 7.728740248553527e-001	-8.857646043652494e+000
1	 9.353883283530711e-001	 7.832311930880958e-001	-9.591755545538330e+000
1	 9.266947230538203e-001	 7.934981891583056e-001	-1.031886746929112e+001
1	 9.178846508014517e-001	 8.036730115630334e-001	-1.103908459920116e+001
1	 9.089595836340730e-001	 8.137536890800305e-001	-1.175253880339642e+001
1	 9.982942617878406e-001	 7.128272212103395e-001	-4.509837523280510e+000
1	 9.904104179352118e-001	 7.237411778750391e-001	-5.278487421113240e+000
1	 9.824004183930175e-001	 7.345771096675439e-001	-6.040156872985463e+000
1	 9.742654115753860e-001	 7.453328493777152e-001	-6.794846151432947e+000
1	 9.660065951310830e-001	 7.560062521719246e-001	-7.542587353312025e+000
1	 9.576252154027919e-001	 7.665951969830188e-001	-8.283444381418242e+000
1	 9.491225668395724e-001	 7.770975878847094e-001	-9.017512870078498e+000
1	 9.404999913630022e-001	 7.875113554485316e-001	-9.744920054590109e+000
1	 9.317588776876122e-001	 7.978344580815755e-001	-1.046582458452303e+001
1	 9.229006605963006e-001	 8.080648833431917e-001	-1.118041628104437e+001
1	 9.139268201714819e-001	 8.182006492389065e-001	-1.188891583856590e+001
1	 1.003720039455423e+000	 7.167014716842222e-001	-4.708826882300617e+000
1	 9.957933465297756e-001	 7.276747462319689e-001	-5.469347381651547e+000
1	 9.877398122523056e-001	 7.385695718385319e-001	-6.222967358455200e+000
1	 9.795605912788146e-001	 7.493837695148937e-001	-6.969754216431374e+000
1	 9.712568877673322e-001	 7.601151827701622e-001	-7.709809382312298e+000
1	 9.628299548344628e-001	 7.707616790090960e-001	-8.443268175630307e+000
1	 9.542810939646446e-001	 7.813211509139567e-001	-9.170299617913791e+000
1	 9.456116543728508e-001	 7.917915178088486e-001	-9.891106181383067e+000
1	 9.368230323213300e-001	 8.021707270047190e-001	-1.060592347739438e+001
1	 9.279166703910808e-001	 8.124567551232179e-001	-1.131501988503432e+001
1	 9.188940567088242e-001	 8.226476093976495e-001	-1.201869612041726e+001
1	 1.009145817123004e+000	 7.205757221581045e-001	-4.900929068321089e+000
1	 1.001176275124340e+000	 7.316083145888987e-001	-5.653174302907339e+000
1	 9.930792061115937e-001	 7.425620340095204e-001	-6.398656355633219e+000
1	 9.848557709822429e-001	 7.534346896520723e-001	-7.137503601608452e+000
1	 9.765071804035815e-001	 7.642241133684004e-001	-7.869880246918465e+000
1	 9.680346942661333e-001	 7.749281610351730e-001	-8.595986096265634e+000
1	 9.594396210897169e-001	 7.855447139432040e-001	-9.316056256188048e+000
1	 9.507233173827000e-001	 7.960716801691662e-001	-1.003036077415255e+001
1	 9.418871869550484e-001	 8.065069959278629e-001	-1.073920421397811e+001
1	 9.329326801858613e-001	 8.168486269032448e-001	-1.144292516821433e+001
1	 9.238612932461664e-001	 8.270945695563926e-001	-1.214189570826059e+001
1	 1.014571594790753e+000	 7.244499726320536e-001	-5.086129172060914e+000
1	 1.006559203719060e+000	 7.355418829458971e-001	-5.829974268482273e+000
1	 9.984185999710260e-001	 7.465544961805822e-001	-6.567246649968213e+000
1	 9.901509506858019e-001	 7.574856097893317e-001	-7.298129610955899e+000
1	 9.817574730399482e-001	 7.683330439667283e-001	-8.022843698331988e+000
1	 9.732394336979082e-001	 7.790946430613496e-001	-8.741646386516148e+000
1	 9.645981482148813e-001	 7.897682769725606e-001	-9.454831685023059e+000
1	 9.558349803926308e-001	 8.003518425296019e-001	-1.016272967898444e+001
1	 9.469513415888404e-001	 8.108432648511328e-001	-1.086570600327709e+001
1	 9.379486899807105e-001	 8.212404986834028e-001	-1.156416125108314e+001
1	 9.288285297835752e-001	 8.315415297152686e-001	-1.225853031787549e+001
1	 1.019997372458836e+000	 7.283242231061367e-001	-5.264412601472768e+000
1	 1.011942132314092e+000	 7.394754513030325e-001	-5.999753232533005e+000
1	 1.003757993830746e+000	 7.505469583517913e-001	-6.728760542088368e+000
1	 9.954461303896223e-001	 7.615365299267528e-001	-7.451666797280317e+000
1	 9.870077656765497e-001	 7.724419745652361e-001	-8.168742556832637e+000
1	 9.784441731298926e-001	 7.832611250877258e-001	-8.880296263073118e+000
1	 9.697566753402312e-001	 7.939918400021370e-001	-9.586673764062162e+000
1	 9.609466434027266e-001	 8.046320048902754e-001	-1.028825776646880e+001
1	 9.520154962227809e-001	 8.151795337746550e-001	-1.098546722002036e+001
1	 9.429646997756973e-001	 8.256323704638234e-001	-1.167875663452478e+001
1	 9.337957663211176e-001	 8.359884898744111e-001	-1.236861533064763e+001
1	 1.025423150127420e+000	 7.321984735804198e-001	-5.435765073350529e+000
1	 1.017325060909592e+000	 7.434090196603739e-001	-6.162517023195987e+000
1	 1.009097387690897e+000	 7.545394205232207e-001	-6.883219860628112e+000
1	 1.000741310093835e+000	 7.655874500644163e-001	-7.598148982077011e+000
1	 9.922580583135038e-001	 7.765509051640137e-001	-8.307618736407159e+000
1	 9.836489125621899e-001	 7.874276071144014e-001	-9.011981943285454e+000
1	 9.749152024658588e-001	 7.982154030320419e-001	-9.711629339997991e+000
1	 9.660583064130688e-001	 8.089121672513051e-001	-1.040698895750871e+001
1	 9.570796508569435e-001	 8.195158026985560e-001	-1.109852542673494e+001
1	 9.479807095708903e-001	 8.300242422446380e-001	-1.178673921620187e+001
1	 9.387630028588608e-001	 8.404354500339538e-001	-1.247216580241574e+001
1	 1.030848927796671e+000	 7.360727240549706e-001	-5.600172605201023e+000
1	 1.022707989505717e+000	 7.473425880179891e-001	-6.318271345903990e+000
1	 1.014436781551623e+000	 7.585318826949443e-001	-7.030645974649401e+000
1	 1.006036489798570e+000	 7.696383702024040e-001	-7.737609274775100e+000
1	 9.975083509509269e-001	 7.806598357631507e-001	-8.439513268600472e+000
1	 9.888536519949061e-001	 7.915940891414762e-001	-9.136748671458136e+000
1	 9.800737295918565e-001	 8.024389660623850e-001	-9.829744273230041e+000
1	 9.711699694237401e-001	 8.131923296128095e-001	-1.051896624831239e+001
1	 9.621438054914021e-001	 8.238520716229617e-001	-1.120491739512042e+001
1	 9.529967193663581e-001	 8.344161140259776e-001	-1.188813630643013e+001
1	 9.437302393968710e-001	 8.448824101940288e-001	-1.256919647203932e+001
1	 8.940578740207774e-001	 8.004128086012710e-001	-1.130366123151505e+001
1	 8.851688503052765e-001	 8.102322458949247e-001	-1.202008974135431e+001
1	 8.761697760389994e-001	 8.199553281727517e-001	-1.271995832532616e+001
1	 8.670622271925278e-001	 8.295802148305268e-001	-1.340329724563089e+001
1	 8.578478205858254e-001	 8.391050998512860e-001	-1.407015153963894e+001
1	 8.485282129332367e-001	 8.485282129332366e-001	-1.472058099701448e+001
1	 8.391050998512859e-001	 8.578478205858252e-001	-1.535466011657739e+001
1	 8.295802148305270e-001	 8.670622271925280e-001	-1.597247804295932e+001
1	 8.199553281727516e-001	 8.761697760389995e-001	-1.657413848315388e+001
1	 8.102322458949245e-001	 8.851688503052763e-001	-1.715975960310970e+001
1	 8.004128086012706e-001	 8.940578740207773e-001	-1.772947390455578e+001
1	 8.990251105587875e-001	 8.048597687613458e-001	-1.145992846126767e+001
1	 8.900867009089170e-001	 8.147337612121904e-001	-1.217158759064445e+001
1	 8.810376292857055e-001	 8.245108633148357e-001	-1.286727277473794e+001
1	 8.718794804155734e-001	 8.341892242389558e-001	-1.354698819440321e+001
1	 8.626138801012782e-001	 8.437670279336463e-001	-1.421075123293166e+001
1	 8.532424942616038e-001	 8.532424942616034e-001	-1.485859251246766e+001
1	 8.437670279336464e-001	 8.626138801012785e-001	-1.549055591281264e+001
1	 8.341892242389555e-001	 8.718794804155735e-001	-1.610669857253957e+001
1	 8.245108633148356e-001	 8.810376292857054e-001	-1.670709087237602e+001
1	 8.147337612121903e-001	 8.900867009089171e-001	-1.729181640085797e+001
1	 8.048597687613456e-001	 8.990251105587874e-001	-1.786097190229332e+001
1	 9.039923470965305e-001	 8.093067289208878e-001	-1.160954860262990e+001
1	 8.950045515122835e-001	 8.192352765289310e-001	-1.231659586144762e+001
1	 8.859054825321169e-001	 8.290663984564143e-001	-1.300821787315939e+001
1	 8.766967336382945e-001	 8.387982336469084e-001	-1.368439527956948e+001
1	 8.673799396163706e-001	 8.484289560155671e-001	-1.434512045826124e+001
1	 8.579567755895703e-001	 8.579567755895702e-001	-1.499039761377428e+001
1	 8.484289560155672e-001	 8.673799396163706e-001	-1.562024285364030e+001
1	 8.387982336469085e-001	 8.766967336382948e-001	-1.623468424907666e+001
1	 8.290663984564142e-001	 8.859054825321169e-001	-1.683376188016520e+001
1	 8.192352765289310e-001	 8.950045515122834e-001	-1.741752786538274e+001
1	 8.093067289208880e-001	 9.039923470965304e-001	-1.798604637538054e+001
1	 9.089595836340730e-001	 8.137536890800305e-001	-1.175253880339642e+001
1	 8.999224021154439e-001	 8.237367918452774e-001	-1.245511598123010e+001
1	 8.907733357783069e-001	 8.336219335976136e-001	-1.314278062273575e+001
1	 8.815139868607729e-001	 8.434072430545051e-001	-1.381549232725310e+001
1	 8.721459991311925e-001	 8.530908840971585e-001	-1.447322106814486e+001
1	 8.626710569172368e-001	 8.626710569172366e-001	-1.511594733424811e+001
1	 8.530908840971585e-001	 8.721459991311927e-001	-1.574366225848058e+001
1	 8.434072430545051e-001	 8.815139868607727e-001	-1.635636773328363e+001
1	 8.336219335976136e-001	 8.907733357783068e-001	-1.695407651261064e+001
1	 8.237367918452772e-001	 8.999224021154441e-001	-1.753681230020191e+001
1	 8.137536890800304e-001	 9.089595836340730e-001	-1.810460982391263e+001
1	 9.139268201714819e-001	 8.182006492389065e-001	-1.188891583856590e+001
1	 9.048402527184671e-001	 8.282383071613607e-001	-1.258714934642515e+001
1	 8.956411890243501e-001	 8.381774687385607e-001	-1.327094830818900e+001
1	 8.863312400830887e-001	 8.480162524618640e-001	-1.394025373260396e+001
1	 8.769120586458342e-001	 8.577528121785301e-001	-1.459501574443450e+001
1	 8.673853382447037e-001	 8.673853382447037e-001	-1.523519377174936e+001
1	 8.577528121785302e-001	 8.769120586458341e-001	-1.586075672248232e+001
1	 8.480162524618637e-001	 8.863312400830886e-001	-1.647168314984412e+001
1	 8.381774687385606e-001	 8.956411890243499e-001	-1.706796140618462e+001
1	 8.282383071613606e-001	 9.048402527184672e-001	-1.764958978493144e+001
1	 8.182006492389066e-001	 9.139268201714819e-001	-1.821657665025041e+001
1	 9.188940567088242e-001	 8.226476093976495e-001	-1.201869612041726e+001
1	 9.097581033214214e-001	 8.327398224773125e-001	-1.271269732327242e+001
1	 9.005090422703189e-001	 8.427330038793813e-001	-1.339270848918058e+001
1	 8.911484933053233e-001	 8.526252618691034e-001	-1.405865444441820e+001
1	 8.816781181603857e-001	 8.624147402597918e-001	-1.471046797590168e+001
1	 8.720996195720705e-001	 8.720996195720701e-001	-1.534809005991205e+001
1	 8.624147402597919e-001	 8.816781181603854e-001	-1.597147008204201e+001
1	 8.526252618691032e-001	 8.911484933053233e-001	-1.658056604784344e+001
1	 8.427330038793816e-001	 9.005090422703190e-001	-1.717534478367674e+001
1	 8.327398224773127e-001	 9.097581033214215e-001	-1.775578212728108e+001
1	 8.226476093976495e-001	 9.188940567088240e-001	-1.832186310760555e+001
1	 9.238612932461664e-001	 8.270945695563926e-001	-1.214189570826059e+001
1	 9.146759539243760e-001	 8.372413377932647e-001	-1.283176124862929e+001
1	 9.053768955162885e-001	 8.472885390202022e-001	-1.350804899291977e+001
1	 8.959657465275581e-001	 8.572342712763431e-001	-1.417066995025493e+001
1	 8.864441776749370e-001	 8.670766683410537e-001	-1.481954203654454e+001
1	 8.768139008994371e-001	 8.768139008994369e-001	-1.545459034029874e+001
1	 8.670766683410539e-001	 8.864441776749371e-001	-1.607574738143489e+001
1	 8.572342712763431e-001	 8.959657465275581e-001	-1.668295336247617e+001
1	 8.472885390202019e-001	 9.053768955162883e-001	-1.727615641154785e+001
1	 8.372413377932649e-001	 9.146759539243761e-001	-1.785531281659772e+001
1	 8.270945695563925e-001	 9.238612932461663e-001	-1.842038725028440e+001
1	 9.288285297835752e-001	 8.315415297152686e-001	-1.225853031787549e+001
1	 9.195938045273991e-001	 8.417428531093485e-001	-1.294434243075678e+001
1	 9.102447487623314e-001	 8.518440741611488e-001	-1.361695790701017e+001
1	 9.007829997498735e-001	 8.618432806837015e-001	-1.427627626202962e+001
1	 8.912102371895790e-001	 8.717385964224255e-001	-1.492220296459221e+001
1	 8.815281822269039e-001	 8.815281822269039e-001	-1.555464973544974e+001
1	 8.717385964224255e-001	 8.912102371895786e-001	-1.617353484051800e+001
1	 8.618432806837018e-001	 9.007829997498740e-001	-1.677878337798333e+001
1	 8.518440741611489e-001	 9.102447487623314e-001	-1.737032755865420e+001
1	 8.417428531093484e-001	 9.195938045273991e-001	-1.794810697889934e+001
1	 8.315415297152689e-001	 9.288285297835753e-001	-1.851206888552739e+001
1	 9.337957663211176e-001	 8.359884898744111e-001	-1.236861533064763e+001
1	 9.245116551305598e-001	 8.462443684256946e-001	-1.305044215007971e+001
1	 9.151126020085214e-001	 8.563996093023485e-001	-1.371942357252352e+001
1	 9.056002529723518e-001	 8.664522900912982e-001	-1.437544990206824e+001
1	 8.959762967044006e-001	 8.764005245040168e-001	-1.501841654217778e+001
1	 8.862424635545708e-001	 8.862424635545707e-001	-1.564822432279205e+001
1	 8.764005245040168e-001	 8.959762967044006e-001	-1.626477982346276e+001
1	 8.664522900912983e-001	 9.056002529723519e-001	-1.686799569177092e+001
1	 8.563996093023485e-001	 9.151126020085215e-001	-1.745779095628815e+001
1	 8.462443684256946e-001	 9.245116551305599e-001	-1.803409133334525e+001
1	 8.359884898744114e-001	 9.337957663211177e-001	-1.859682952688647e+001
1	 9.387630028588608e-001	 8.404354500339538e-001	-1.247216580241574e+001
1	 9.294295057339259e-001	 8.507458837424352e-001	-1.315006165992422e+001
1	 9.199804552549330e-001	 8.609551444439272e-001	-1.381543457729418e+001
1	 9.104175061950732e-001	 8.710612994992514e-001	-1.446816788960359e+001
1	 9.007423562194932e-001	 8.810624525859377e-001	-1.510814927565776e+001
1	 8.909567448825375e-001	 8.909567448825372e-001	-1.573527110937651e+001
1	 8.810624525859379e-001	 9.007423562194930e-001	-1.634943080848040e+001
1	 8.710612994992515e-001	 9.104175061950734e-001	-1.695053117966887e+001
1	 8.609551444439271e-001	 9.199804552549327e-001	-1.753848075948742e+001
1	 8.507458837424350e-001	 9.294295057339259e-001	-1.811319415008626e+001
1	 8.404354500339534e-001	 9.387630028588607e-001	-1.867459234908286e+001
1	 9.437302393968710e-001	 8.448824101940288e-001	-1.256919647203932e+001
1	 9.343473563375667e-001	 8.552473990597010e-001	-1.324320218722926e+001
1	 9.248483085016389e-001	 8.655106795860112e-001	-1.390497974942516e+001
1	 9.152347594181193e-001	 8.756703089076804e-001	-1.455440772769814e+001
1	 9.055084157349460e-001	 8.857243806682982e-001	-1.519136837655268e+001
1	 8.956710262109042e-001	 8.956710262109041e-001	-1.581574800741244e+001
1	 8.857243806682983e-001	 9.055084157349460e-001	-1.642743735850444e+001
1	 8.756703089076804e-001	 9.152347594181193e-001	-1.702633196228702e+001
1	 8.655106795860115e-001	 9.248483085016390e-001	-1.761233250956614e+001
1	 8.552473990597013e-001	 9.343473563375669e-001	-1.818534520944883e+001
1	 8.448824101940289e-001	 9.437302393968712e-001	-1.874528214428958e+001
1	 8.004128086012706e-001	 8.940578740207773e-001	-1.772947390455578e+001
1	 7.904973962204593e-001	 9.028366214158040e-001	-1.827697855188388e+001
1	 7.804893823864771e-001	 9.115022591512587e-001	-1.879550736412786e+001
1	 7.703907060048888e-001	 9.200533393219624e-001	-1.928475982675654e+001
1	 7.602033357655288e-001	 9.284884583374330e-001	-1.974443431653580e+001
1	 7.499292688767163e-001	 9.368062576740198e-001	-2.017422923262670e+001
1	 7.395705297771745e-001	 9.450054245837380e-001	-2.057384413466073e+001
1	 7.291291688273840e-001	 9.530846927590595e-001	-2.094298088505915e+001
1	 7.186072609821200e-001	 9.610428429529889e-001	-2.128134479285974e+001
1	 7.080069044459487e-001	 9.688787035538357e-001	-2.158864575631904e+001
1	 6.973302193134738e-001	 9.765911511141745e-001	-2.186459940156816e+001
1	 8.048597687613456e-001	 8.990251105587874e-001	-1.786097190229332e+001
1	 7.948892680017989e-001	 9.078526312112717e-001	-1.840810192313928e+001
1	 7.848256513108828e-001	 9.165664137857176e-001	-1.892636057647355e+001
1	 7.746708683663930e-001	 9.251650023326336e-001	-1.941552017846683e+001
1	 7.644268987958722e-001	 9.336469854634308e-001	-1.987535216513726e+001
1	 7.540957509037907e-001	 9.420109971067353e-001	-2.030562810461377e+001
1	 7.436794603763114e-001	 9.502557172211616e-001	-2.070612071655627e+001
1	 7.331800889653711e-001	 9.583798724637946e-001	-2.107660489624445e+001
1	 7.225997231538436e-001	 9.663822368137148e-001	-2.141685874084300e+001
1	 7.119404728035642e-001	 9.742616321499600e-001	-2.172666457534954e+001
1	 7.012044697880243e-001	 9.820169287834258e-001	-2.200580997573995e+001
1	 8.093067289208880e-001	 9.039923470965304e-001	-1.798604637538054e+001
1	 7.992811397826130e-001	 9.128686410064647e-001	-1.853272117939850e+001
1	 7.891619202347836e-001	 9.216305684198799e-001	-1.905063595066113e+001
1	 7.789510307274221e-001	 9.302766653429757e-001	-1.953963523365596e+001
1	 7.686504618257768e-001	 9.388055125890579e-001	-1.999956300079554e+001
1	 7.582622329304659e-001	 9.472157365390325e-001	-2.043026354574904e+001
1	 7.477883909750888e-001	 9.555060098581147e-001	-2.083158238396386e+001
1	 7.372310091030349e-001	 9.636750521680069e-001	-2.120336715813884e+001
1	 7.265921853252728e-001	 9.717216306738659e-001	-2.154546854639741e+001
1	 7.158740411609051e-001	 9.796445607454598e-001	-2.185774117091170e+001
1	 7.050787202623076e-001	 9.874427064520092e-001	-2.214004450473063e+001
1	 8.137536890800304e-001	 9.089595836340730e-001	-1.810460982391263e+001
1	 8.036730115630335e-001	 9.178846508014517e-001	-1.865074387451033e+001
1	 7.934981891583057e-001	 9.266947230538201e-001	-1.916823695406353e+001
1	 7.832311930880956e-001	 9.353883283530714e-001	-1.965700524326799e+001
1	 7.728740248553526e-001	 9.439640397144080e-001	-2.011696473749538e+001
1	 7.624287149568421e-001	 9.524204759710164e-001	-2.054803202109161e+001
1	 7.518973215735962e-001	 9.607563024947160e-001	-2.095012504875202e+001
1	 7.412819292404561e-001	 9.689702318718272e-001	-2.132316393198687e+001
1	 7.305846474964821e-001	 9.770610245335858e-001	-2.166707172866868e+001
1	 7.198076095180406e-001	 9.850274893404918e-001	-2.198177523366101e+001
1	 7.089529707363904e-001	 9.928684841200918e-001	-2.226720576851842e+001
1	 8.182006492389066e-001	 9.139268201714819e-001	-1.821657665025041e+001
1	 8.080648833431916e-001	 9.229006605963006e-001	-1.876207957212116e+001
1	 7.978344580815755e-001	 9.317588776876121e-001	-1.927906915269361e+001
1	 7.875113554485315e-001	 9.404999913630022e-001	-1.976753262681186e+001
1	 7.770975878847094e-001	 9.491225668395724e-001	-2.022745750859157e+001
1	 7.665951969830188e-001	 9.576252154027919e-001	-2.065883224657087e+001
1	 7.560062521719247e-001	 9.660065951310830e-001	-2.106164688568681e+001
1	 7.453328493777151e-001	 9.742654115753862e-001	-2.143589373433527e+001
1	 7.345771096675436e-001	 9.824004183930175e-001	-2.178156803475761e+001
1	 7.237411778750392e-001	 9.904104179352118e-001	-2.209866863499748e+001
1	 7.128272212103395e-001	 9.982942617878406e-001	-2.238719866066465e+001
1	 8.226476093976495e-001	 9.188940567088240e-001	-1.832186310760556e+001
1	 8.124567551232180e-001	 9.279166703910811e-001	-1.886663979135438e+001
1	 8.021707270047190e-001	 9.368230323213301e-001	-1.938304015447916e+001
1	 7.917915178088487e-001	 9.456116543728511e-001	-1.987112191374818e+001
1	 7.813211509139568e-001	 9.542810939646449e-001	-2.033094360682375e+001
1	 7.707616790090960e-001	 9.628299548344628e-001	-2.076256512814963e+001
1	 7.601151827701622e-001	 9.712568877673321e-001	-2.116604827126840e+001
1	 7.493837695148937e-001	 9.795605912788143e-001	-2.154145727607494e+001
1	 7.385695718385317e-001	 9.877398122523057e-001	-2.188885937950133e+001
1	 7.276747462319690e-001	 9.957933465297759e-001	-2.220832536812595e+001
1	 7.167014716842219e-001	 1.003720039455422e+000	-2.249993013118711e+001
1	 8.270945695563925e-001	 9.238612932461663e-001	-1.842038725028440e+001
1	 8.168486269032447e-001	 9.329326801858612e-001	-1.896433795424109e+001
1	 8.065069959278631e-001	 9.418871869550483e-001	-1.948005955437203e+001
1	 7.960716801691661e-001	 9.507233173826999e-001	-1.996767968676802e+001
1	 7.855447139432040e-001	 9.594396210897170e-001	-2.042732742626530e+001
1	 7.749281610351729e-001	 9.680346942661333e-001	-2.085913370294900e+001
1	 7.642241133684004e-001	 9.765071804035813e-001	-2.126323172454274e+001
1	 7.534346896520722e-001	 9.848557709822429e-001	-2.163975740345074e+001
1	 7.425620340095203e-001	 9.930792061115941e-001	-2.198884978719886e+001
1	 7.316083145888987e-001	 1.001176275124340e+000	-2.231065149101381e+001
1	 7.205757221581045e-001	 1.009145817123005e+000	-2.260530913127689e+001
1	 8.315415297152689e-001	 9.288285297835753e-001	-1.851206888552740e+001
1	 8.212404986834028e-001	 9.379486899807105e-001	-1.905508933483685e+001
1	 8.108432648511330e-001	 9.469513415888402e-001	-1.957003888121578e+001
1	 8.003518425296021e-001	 9.558349803926309e-001	-2.005711452688971e+001
1	 7.897682769725606e-001	 9.645981482148813e-001	-2.051651540613553e+001
1	 7.790946430613499e-001	 9.732394336979086e-001	-2.094844308226308e+001
1	 7.683330439667285e-001	 9.817574730399483e-001	-2.135310184981066e+001
1	 7.574856097893313e-001	 9.901509506858018e-001	-2.173069904096391e+001
1	 7.465544961805821e-001	 9.984185999710260e-001	-2.208144533520486e+001
1	 7.355418829458970e-001	 1.006559203719059e+000	-2.240555507118192e+001
1	 7.244499726320537e-001	 1.014571594790753e+000	-2.270324655978830e+001
1	 8.359884898744114e-001	 9.337957663211177e-001	-1.859682952688647e+001
1	 8.256323704638237e-001	 9.429646997756973e-001	-1.913881100996490e+001
1	 8.151795337746554e-001	 9.520154962227808e-001	-1.965289154630929e+001
1	 8.046320048902754e-001	 9.609466434027266e-001	-2.013933696031132e+001
1	 7.939918400021369e-001	 9.697566753402316e-001	-2.059841597640470e+001
1	 7.832611250877259e-001	 9.784441731298925e-001	-2.103040039639218e+001
1	 7.724419745652361e-001	 9.870077656765497e-001	-2.143556528116717e+001
1	 7.615365299267528e-001	 9.954461303896223e-001	-2.181418913609596e+001
1	 7.505469583517910e-001	 1.003757993830746e+000	-2.216655409932498e+001
1	 7.394754513030325e-001	 1.011942132314092e+000	-2.249294613225647e+001
1	 7.283242231061368e-001	 1.019997372458836e+000	-2.279365521143650e+001
1	 8.404354500339534e-001	 9.387630028588607e-001	-1.867459234908286e+001
1	 8.300242422446381e-001	 9.479807095708903e-001	-1.921542181152037e+001
1	 8.195158026985561e-001	 9.570796508569432e-001	-1.972853279360533e+001
1	 8.089121672513049e-001	 9.660583064130689e-001	-2.021425940694661e+001
1	 7.982154030320419e-001	 9.749152024658589e-001	-2.067293950512605e+001
1	 7.874276071144015e-001	 9.836489125621905e-001	-2.110491474122752e+001
1	 7.765509051640136e-001	 9.922580583135034e-001	-2.151053062880049e+001
1	 7.655874500644164e-001	 1.000741310093835e+000	-2.189013660578958e+001
1	 7.545394205232205e-001	 1.009097387690897e+000	-2.224408610094452e+001
1	 7.434090196603738e-001	 1.017325060909592e+000	-2.257273660221686e+001
1	 7.321984735804198e-001	 1.025423150127420e+000	-2.287644972664096e+001
1	 8.448824101940289e-001	 9.437302393968712e-001	-1.874528214428958e+001
1	 8.344161140259777e-001	 9.529967193663582e-001	-1.928484228028265e+001
1	 8.238520716229620e-001	 9.621438054914022e-001	-1.979687965147974e+001
1	 8.131923296128095e-001	 9.711699694237402e-001	-2.028179613058896e+001
1	 8.024389660623853e-001	 9.800737295918567e-001	-2.073999824743185e+001
1	 7.915940891414762e-001	 9.888536519949059e-001	-2.117189712652216e+001
1	 7.806598357631508e-001	 9.975083509509268e-001	-2.157790842698640e+001
1	 7.696383702024038e-001	 1.006036489798570e+000	-2.195845228461654e+001
1	 7.585318826949441e-001	 1.014436781551623e+000	-2.231395325582631e+001
1	 7.473425880179889e-001	 1.022707989505716e+000	-2.264484026328016e+001
1	 7.360727240549704e-001	 1.030848927796671e+000	-2.295154654295132e+001
1	 6.973302193134738e-001	 9.765911511141745e-001	-2.186459940156816e+001
1	 6.865793459638276e-001	 9.841791105561778e-001	-2.211225622918103e+001
1	 6.757564429938407e-001	 9.916415547687792e-001	-2.233391786522887e+001
1	 6.648636865471249e-001	 9.989775058181928e-001	-2.252817827736169e+001
1	 6.539032691487107e-001	 1.006186035567982e+000	-2.269362920544690e+001
1	 6.428773982974777e-001	 1.013266265976422e+000	-2.282886290677424e+001
1	 6.317882950541940e-001	 1.020217369346709e+000	-2.293247488679890e+001
1	 6.206381926269818e-001	 1.027038568530055e+000	-2.300306660968080e+001
1	 6.094293349560167e-001	 1.033729137081809e+000	-2.303924818298215e+001
1	 5.981639752992450e-001	 1.040288399370800e+000	-2.303964101100828e+001
1	 5.868443748208878e-001	 1.046715730642193e+000	-2.300288041141324e+001
1	 7.012044697880243e-001	 9.820169287834258e-001	-2.200580997573995e+001
1	 6.903938663779422e-001	 9.896470456633377e-001	-2.225729200257675e+001
1	 6.795108331629520e-001	 9.971509499721744e-001	-2.248325820346707e+001
1	 6.685575583769566e-001	 1.004527658342915e+000	-2.268222120865205e+001
1	 6.575362467262915e-001	 1.011776237482553e+000	-2.285268903344841e+001
1	 6.464491179743307e-001	 1.018895804471111e+000	-2.299316801377258e+001
1	 6.352984055216870e-001	 1.025885527013243e+000	-2.310216572938918e+001
1	 6.240863549838152e-001	 1.032744623642452e+000	-2.317819390871029e+001
1	 6.128152227678479e-001	 1.039472363878085e+000	-2.321977130907164e+001
1	 6.014872746504577e-001	 1.046068068335276e+000	-2.322542656654289e+001
1	 5.901047843585173e-001	 1.052531108788160e+000	-2.319370100946352e+001
1	 7.050787202623076e-001	 9.874427064520092e-001	-2.214004450473063e+001
1	 6.942083867917818e-001	 9.951149807697939e-001	-2.239530840105924e+001
1	 6.832652233317688e-001	 1.002660345174838e+000	-2.262551723590342e+001
1	 6.722514302064664e-001	 1.010077810866886e+000	-2.282910934667891e+001
1	 6.611692243035184e-001	 1.017366439396360e+000	-2.300451609822658e+001
1	 6.500208376507992e-001	 1.024525342965033e+000	-2.315016499721915e+001
1	 6.388085159887688e-001	 1.031553684679011e+000	-2.326448279654516e+001
1	 6.275345173402185e-001	 1.038450678754095e+000	-2.334589858308176e+001
1	 6.162011105792423e-001	 1.045215590673622e+000	-2.339284684237572e+001
1	 6.048105740012429e-001	 1.051847737299039e+000	-2.340377049387655e+001
1	 5.933651938957493e-001	 1.058346486933445e+000	-2.337712389051060e+001
1	 7.089529707363904e-001	 9.928684841200918e-001	-2.226720576851842e+001
1	 6.980229072054152e-001	 1.000582915875723e+000	-2.252621228497790e+001
1	 6.870196135003641e-001	 1.008169740376953e+000	-2.276060689133845e+001
1	 6.759453020357341e-001	 1.015627963390292e+000	-2.296876056559747e+001
1	 6.648022018804798e-001	 1.022956641309593e+000	-2.314903498454287e+001
1	 6.535925573269784e-001	 1.030154881458374e+000	-2.329978580572322e+001
1	 6.423186264555412e-001	 1.037221842344201e+000	-2.341936594171068e+001
1	 6.309826796962978e-001	 1.044156733865162e+000	-2.350612881967511e+001
1	 6.195869983903091e-001	 1.050958817468596e+000	-2.355843161940853e+001
1	 6.081338733517085e-001	 1.057627406262252e+000	-2.357463848304985e+001
1	 5.966256034326836e-001	 1.064161865078198e+000	-2.355312368991203e+001
1	 7.128272212103395e-001	 9.982942617878406e-001	-2.238719866066465e+001
1	 7.018374276189108e-001	 1.006050850981300e+000	-2.264991253955673e+001
1	 6.907740036688120e-001	 1.013679135578703e+000	-2.288844101325914e+001
1	 6.796391738648413e-001	 1.021178115913322e+000	-2.310109452499615e+001
1	 6.684351794572643e-001	 1.028546843222441e+000	-2.328617191670222e+001
1	 6.571642770029660e-001	 1.035784419951326e+000	-2.344196386734684e+001
1	 6.458287369221077e-001	 1.042890000008998e+000	-2.356675632592869e+001
1	 6.344308420521626e-001	 1.049862788975838e+000	-2.365883393179822e+001
1	 6.229728862011571e-001	 1.056702044263178e+000	-2.371648341506872e+001
1	 6.114571727019600e-001	 1.063407075225076e+000	-2.373799697001022e+001
1	 5.998860129694195e-001	 1.069977243222568e+000	-2.372167559445878e+001
1	 7.167014716842219e-001	 1.003720039455422e+000	-2.249993013118711e+001
1	 7.056519480323378e-001	 1.011518786086701e+000	-2.276632002016632e+001
1	 6.945283938371861e-001	 1.019188530780268e+000	-2.300893530808762e+001
1	 6.833330456938668e-001	 1.026728268436161e+000	-2.322603262163960e+001
1	 6.720681570339605e-001	 1.034137045135093e+000	-2.341585471423930e+001
1	 6.607359966788565e-001	 1.041413958444078e+000	-2.357663404961547e+001
1	 6.493388473885715e-001	 1.048558157673590e+000	-2.370659638250006e+001
1	 6.378790044079199e-001	 1.055568844086303e+000	-2.380396432874382e+001
1	 6.263587740118961e-001	 1.062445271057544e+000	-2.386696091727623e+001
1	 6.147804720521048e-001	 1.069186744187677e+000	-2.389381311645144e+001
1	 6.031464225060558e-001	 1.075792621366704e+000	-2.388275532747229e+001
1	 7.205757221581045e-001	 1.009145817123005e+000	-2.260530913127689e+001
1	 7.094664684457646e-001	 1.016986721192101e+000	-2.287534749936089e+001
1	 6.982827840055605e-001	 1.024697925981833e+000	-2.312200729510101e+001
1	 6.870269175228931e-001	 1.032278420959000e+000	-2.334349794276731e+001
1	 6.757011346106565e-001	 1.039727247047741e+000	-2.353801274903294e+001
1	 6.643077163547475e-001	 1.047043496936819e+000	-2.370373262082395e+001
1	 6.528489578550352e-001	 1.054226315338164e+000	-2.383882978278017e+001
1	 6.413271667636771e-001	 1.061274899196738e+000	-2.394147148632376e+001
1	 6.297446618226349e-001	 1.068188497851865e+000	-2.400982370242736e+001
1	 6.181037714022498e-001	 1.074966413150215e+000	-2.404205479030352e+001
1	 6.064068320426922e-001	 1.081607999510756e+000	-2.403633913437930e+001
1	 7.244499726320537e-001	 1.014571594790753e+000	-2.270324655978830e+001
1	 7.132809888592606e-001	 1.022454656297678e+000	-2.297690961561266e+001
1	 7.020371741740088e-001	 1.030207321183580e+000	-2.322757625795590e+001
1	 6.907207893519997e-001	 1.037828573482023e+000	-2.345341522089312e+001
1	 6.793341121874413e-001	 1.045317448960573e+000	-2.365257690379920e+001
1	 6.678794360307346e-001	 1.052673035429740e+000	-2.382319721257880e+001
1	 6.563590683216020e-001	 1.059894473002906e+000	-2.396340140307551e+001
1	 6.447753291195421e-001	 1.066980954307326e+000	-2.407130791835291e+001
1	 6.331305496334834e-001	 1.073931724646318e+000	-2.414503221163841e+001
1	 6.214270707525015e-001	 1.080746082112855e+000	-2.418269054684795e+001
1	 6.096672415794278e-001	 1.087423377654871e+000	-2.418240376875211e+001
1	 7.283242231061368e-001	 1.019997372458836e+000	-2.279365521143650e+001
1	 7.170955092728941e-001	 1.027922591403607e+000	-2.307092282368584e+001
1	 7.057915643426040e-001	 1.035716716385692e+000	-2.332556319776215e+001
1	 6.944146611812675e-001	 1.043378726005417e+000	-2.355571079004491e+001
1	 6.829670897644029e-001	 1.050907650873778e+000	-2.375947953190628e+001
1	 6.714511557069139e-001	 1.058302573923028e+000	-2.393496678353919e+001
1	 6.598691787883746e-001	 1.065562630668003e+000	-2.408025729259524e+001
1	 6.482234914756222e-001	 1.072687009418248e+000	-2.419342714904065e+001
1	 6.365164374445500e-001	 1.079674951441073e+000	-2.427254772774544e+001
1	 6.247503701029669e-001	 1.086525751075758e+000	-2.431568961043664e+001
1	 6.129276511163623e-001	 1.093238755799201e+000	-2.432092647879310e+001
1	 7.321984735804198e-001	 1.025423150127420e+000	-2.287644972664096e+001
1	 7.209100296867333e-001	 1.033390526510062e+000	-2.315730534658314e+001
1	 7.095459545114207e-001	 1.041226111588351e+000	-2.341589078764502e+001
1	 6.981085330107774e-001	 1.048928878529372e+000	-2.365031254339515e+001
1	 6.866000673416297e-001	 1.056497852787547e+000	-2.385865441846741e+001
1	 6.750228753833824e-001	 1.063932112416875e+000	-2.403898158430821e+001
1	 6.633792892554562e-001	 1.071230788333643e+000	-2.418934464242001e+001
1	 6.516716538320250e-001	 1.078393064529686e+000	-2.430778368625932e+001
1	 6.399023252559447e-001	 1.085418178236306e+000	-2.439233235303695e+001
1	 6.280736694537525e-001	 1.092305420039088e+000	-2.444102185679129e+001
1	 6.161880606535946e-001	 1.099054133943893e+000	-2.445188499424884e+001
1	 7.360727240549704e-001	 1.030848927796671e+000	-2.295154654295132e+001
1	 7.247245501008481e-001	 1.038858461617221e+000	-2.323597712901187e+001
1	 7.133003446805322e-001	 1.046735506791741e+000	-2.349848332874291e+001
1	 7.018024048406094e-001	 1.054479031054074e+000	-2.373714989222817e+001
1	 6.902330449192106e-001	 1.062088054702070e+000	-2.395003674266176e+001
1	 6.785945950602358e-001	 1.069561650911468e+000	-2.413518312343246e+001
1	 6.668893997229497e-001	 1.076898946000012e+000	-2.429061175545272e+001
1	 6.551198161888586e-001	 1.084099119641821e+000	-2.441433299565849e+001
1	 6.432882130677762e-001	 1.091161405032191e+000	-2.450434898768725e+001
1	 6.313969688049654e-001	 1.098085089003007e+000	-2.455865779585968e+001
1	 6.194484701912242e-001	 1.104869512089097e+000	-2.457525751373701e+001
1	 5.868443748208878e-001	 1.046715730642193e+000	-2.300288041141324e+001
1	 5.754745107252709e-001	 1.053009622962143e+000	-2.293986340967721e+001
1	 5.640549614308797e-001	 1.059170528235776e+000	-2.286253997136326e+001
1	 5.525880029883279e-001	 1.065197975315034e+000	-2.277119387345236e+001
1	 5.410759137449159e-001	 1.071091543696645e+000	-2.266614995411411e+001
1	 5.295209729733791e-001	 1.076850863358325e+000	-2.254777213731960e+001
1	 5.179254595134631e-001	 1.082475614551749e+000	-2.241646142226974e+001
1	 5.062916504278681e-001	 1.087965527553038e+000	-2.227265384260574e+001
1	 4.946218196740463e-001	 1.093320382371615e+000	-2.211681840034854e+001
1	 4.829182367932998e-001	 1.098540008418292e+000	-2.194945497948752e+001
1	 4.711831656185745e-001	 1.103624284133538e+000	-2.177109224408865e+001
1	 5.901047843585173e-001	 1.052531108788160e+000	-2.319370100946352e+001
1	 5.786717511930367e-001	 1.058859968925060e+000	-2.313569765675872e+001
1	 5.671887567860980e-001	 1.065055103161805e+000	-2.306362944540526e+001
1	 5.556580898336716e-001	 1.071116037732701e+000	-2.297776846237193e+001
1	 5.440820413411763e-001	 1.077042349798221e+000	-2.287842763128516e+001
1	 5.324629032446050e-001	 1.082833667280287e+000	-2.276595873964845e+001
1	 5.208029670445573e-001	 1.088489668654092e+000	-2.264075043127049e+001
1	 5.091045224547135e-001	 1.094010082697206e+000	-2.250322616885688e+001
1	 4.973698560662537e-001	 1.099394688196809e+000	-2.235384217171458e+001
1	 4.856012500296730e-001	 1.104643313615936e+000	-2.219308533348154e+001
1	 4.738009807553952e-001	 1.109755836719682e+000	-2.202147112474359e+001
1	 5.933651938957493e-001	 1.058346486933445e+000	-2.337712389051060e+001
1	 5.818689916604579e-001	 1.064710314887335e+000	-2.332422724045782e+001
1	 5.703225521410431e-001	 1.070939678087233e+000	-2.325755890516853e+001
1	 5.587281766788282e-001	 1.077034100149815e+000	-2.317737305696128e+001
1	 5.470881689373441e-001	 1.082993155899291e+000	-2.308396440950740e+001
1	 5.354048335158376e-001	 1.088816471201787e+000	-2.297766625971328e+001
1	 5.236804745757573e-001	 1.094503722756014e+000	-2.285884849513086e+001
1	 5.119173944817583e-001	 1.100054637840989e+000	-2.272791557182869e+001
1	 5.001178924587446e-001	 1.105468994021645e+000	-2.258530446764242e+001
1	 4.882842632663986e-001	 1.110746618813241e+000	-2.243148261568803e+001
1	 4.764187958926178e-001	 1.115887389305492e+000	-2.226694582297849e+001
1	 5.966256034326836e-001	 1.064161865078198e+000	-2.355312368991203e+001
1	 5.850662321276202e-001	 1.070560660849099e+000	-2.350543506719291e+001
1	 5.734563474957833e-001	 1.076824253012177e+000	-2.344431823464138e+001
1	 5.617982635238441e-001	 1.082952162566470e+000	-2.337000332998334e+001
1	 5.500942965334423e-001	 1.088943961999928e+000	-2.328276066665059e+001
1	 5.383467637870756e-001	 1.094799275122880e+000	-2.318289880227246e+001
1	 5.265579821070365e-001	 1.100517776857554e+000	-2.307076257294728e+001
1	 5.147302665089530e-001	 1.106099192984409e+000	-2.294673109818232e+001
1	 5.028659288514479e-001	 1.111543299846135e+000	-2.281121576136513e+001
1	 4.909672765033884e-001	 1.116849924010210e+000	-2.266465817060481e+001
1	 4.790366110301419e-001	 1.122018941890968e+000	-2.250752810472877e+001
1	 5.998860129694195e-001	 1.069977243222568e+000	-2.372167559445878e+001
1	 5.882634725946107e-001	 1.076411006810486e+000	-2.367930441500161e+001
1	 5.765901428503867e-001	 1.082708827936749e+000	-2.362389753773729e+001
1	 5.648683503687664e-001	 1.088870224982760e+000	-2.355565504827697e+001
1	 5.531004241294943e-001	 1.094894768100207e+000	-2.347481677237067e+001
1	 5.412886940583167e-001	 1.100782079043621e+000	-2.338166038284769e+001
1	 5.294354896383688e-001	 1.106531830958747e+000	-2.327649947252587e+001
1	 5.175431385362471e-001	 1.112143748127488e+000	-2.315968159790312e+001
1	 5.056139652442926e-001	 1.117617605670288e+000	-2.303158629842629e+001
1	 4.936502897405545e-001	 1.122953229206843e+000	-2.289262309609703e+001
1	 4.816544261678670e-001	 1.128150494476111e+000	-2.274322948013591e+001
1	 6.031464225060558e-001	 1.075792621366704e+000	-2.388275532747229e+001
1	 5.914607130615146e-001	 1.082261352771629e+000	-2.384581892349642e+001
1	 5.797239382049221e-001	 1.088593402861064e+000	-2.379628713235179e+001
1	 5.679384372136416e-001	 1.094788287398780e+000	-2.373432407021496e+001
1	 5.561065517255234e-001	 1.100845574200203e+000	-2.366013308833101e+001
1	 5.442306243295598e-001	 1.106764882964066e+000	-2.357395493013462e+001
1	 5.323129971697274e-001	 1.112545885059633e+000	-2.347606585446956e+001
1	 5.203560105635914e-001	 1.118188303270249e+000	-2.336677572961694e+001
1	 5.083620016372082e-001	 1.123691911494114e+000	-2.324642610283368e+001
1	 4.963333029778085e-001	 1.129056534403145e+000	-2.311538825006489e+001
1	 4.842722413056925e-001	 1.134282047060920e+000	-2.297406121046138e+001
1	 6.064068320426922e-001	 1.081607999510756e+000	-2.403633913437930e+001
1	 5.946579535284186e-001	 1.088111698732658e+000	-2.400496258414544e+001
1	 5.828577335594574e-001	 1.094477977785235e+000	-2.396147754460777e+001
1	 5.710085240585168e-001	 1.100706349814624e+000	-2.390600634324278e+001
1	 5.591126793215522e-001	 1.106796380299988e+000	-2.383870996841892e+001
1	 5.471725546008029e-001	 1.112747686884270e+000	-2.375978628833817e+001
1	 5.351905047010859e-001	 1.118559939160247e+000	-2.366946823613629e+001
1	 5.231688825909353e-001	 1.124232858412713e+000	-2.356802196573366e+001
1	 5.111100380301239e-001	 1.129766217317624e+000	-2.345574498301480e+001
1	 4.990163162150625e-001	 1.135159839599118e+000	-2.333296425689377e+001
1	 4.868900564435181e-001	 1.140413599645397e+000	-2.320003431477658e+001
1	 6.096672415794278e-001	 1.087423377654871e+000	-2.418240376875211e+001
1	 5.978551939954088e-001	 1.093962044693708e+000	-2.415671973086268e+001
1	 5.859915289140609e-001	 1.100362552709378e+000	-2.411945950329020e+001
1	 5.740786109034388e-001	 1.106624412230385e+000	-2.407069790149690e+001
1	 5.621188069176043e-001	 1.112747186399639e+000	-2.401054775895168e+001
1	 5.501144848720442e-001	 1.118730490804286e+000	-2.393915821943011e+001
1	 5.380680122324182e-001	 1.124573993260627e+000	-2.385671299546971e+001
1	 5.259817546182297e-001	 1.130277413554903e+000	-2.376342859742638e+001
1	 5.138580744229687e-001	 1.135840523140828e+000	-2.365955253758019e+001
1	 5.016993294522284e-001	 1.141263144794765e+000	-2.354536151369824e+001
1	 4.895078715812429e-001	 1.146545152229540e+000	-2.342115957643988e+001
1	 6.129276511163623e-001	 1.093238755799201e+000	-2.432092647879310e+001
1	 6.010524344625714e-001	 1.099812390654911e+000	-2.430107503090017e+001
1	 5.891253242688013e-001	 1.106247127633605e+000	-2.427022393445423e+001
1	 5.771486977484548e-001	 1.112542474646159e+000	-2.422839486349874e+001
1	 5.651249345137026e-001	 1.118697992499229e+000	-2.417564679887848e+001
1	 5.530564151432820e-001	 1.124713294724171e+000	-2.411207440533790e+001
1	 5.409455197636974e-001	 1.130588047360811e+000	-2.403780637470558e+001
1	 5.287946266454241e-001	 1.136321968696841e+000	-2.395300373945257e+001
1	 5.166061108156720e-001	 1.141914828963736e+000	-2.385785816090612e+001
1	 5.043823426892181e-001	 1.147366449990088e+000	-2.375259019636728e+001
1	 4.921256867187671e-001	 1.152676704813351e+000	-2.363744754936365e+001
1	 6.161880606535946e-001	 1.099054133943893e+000	-2.445188499424884e+001
1	 6.042496749299927e-001	 1.105662736616400e+000	-2.443801347603056e+001
1	 5.922591196237464e-001	 1.112131702558031e+000	-2.441376195620656e+001
1	 5.802187845936114e-001	 1.118460537062040e+000	-2.437909342992204e+001
1	 5.681310621098703e-001	 1.124648798598832e+000	-2.433400741997624e+001
1	 5.559983454145147e-001	 1.130696098643979e+000	-2.427853845006123e+001
1	 5.438230272948973e-001	 1.136602101460835e+000	-2.421275448396281e+001
1	 5.316074986724690e-001	 1.142366523838548e+000	-2.413675533482018e+001
1	 5.193541472081625e-001	 1.147989134786358e+000	-2.405067104853585e+001
1	 5.070653559259435e-001	 1.153469755185090e+000	-2.395466026541579e+001
1	 4.947435018559895e-001	 1.158808257396830e+000	-2.384890856408732e+001
1	 6.194484701912242e-001	 1.104869512089097e+000	-2.457525751373701e+001
1	 6.074469153977586e-001	 1.111513082578307e+000	-2.456752037400422e+001
1	 5.953929149789650e-001	 1.118016277482769e+000	-2.455006487365084e+001
1	 5.832888714389555e-001	 1.124378599478121e+000	-2.452278988143203e+001
1	 5.711371897061307e-001	 1.130599604698523e+000	-2.448562994703666e+001
1	 5.589402756857406e-001	 1.136678902563766e+000	-2.443855388172209e+001
1	 5.467005348259916e-001	 1.142616155560737e+000	-2.438156330472088e+001
1	 5.344203706993144e-001	 1.148411078980047e+000	-2.431469115930797e+001
1	 5.221021836003700e-001	 1.154063440608706e+000	-2.423800020241250e+001
1	 5.097483691623167e-001	 1.159573060379774e+000	-2.415158147165370e+001
1	 4.973613169928101e-001	 1.164939809979976e+000	-2.405555273365343e+001
1	 4.711831656185745e-001	 1.103624284133538e+000	-2.177109224408865e+001
1	 4.594170961960175e-001	 1.108573868961468e+000	-2.158794918637659e+001
1	 4.476240367602246e-001	 1.113387965969144e+000	-2.140617896950230e+001
1	 4.358062280216104e-001	 1.118066598955774e+000	-2.122617226938231e+001
1	 4.239658999937963e-001	 1.122609838913262e+000	-2.104834849511103e+001
1	 4.121052708129413e-001	 1.127017803469615e+000	-2.087315320553707e+001
1	 4.002265455830573e-001	 1.131290656299120e+000	-2.070105553323582e+001
1	 3.883319152483020e-001	 1.135428606500521e+000	-2.053254562141492e+001
1	 3.764235554931850e-001	 1.139431907944475e+000	-2.036813207912404e+001
1	 3.645036256715677e-001	 1.143300858591557e+000	-2.020833945996757e+001
1	 3.525742677652601e-001	 1.147035799782149e+000	-2.005370576932892e+001
1	 4.738009807553952e-001	 1.109755836719682e+000	-2.202147112474359e+001
1	 4.619695410121816e-001	 1.114732920615915e+000	-2.184529218967927e+001
1	 4.501109613037128e-001	 1.119573763944086e+000	-2.167076798257728e+001
1	 4.382274947894187e-001	 1.124278390635644e+000	-2.149826823234656e+001
1	 4.263213838725058e-001	 1.128846872076933e+000	-2.132819189643526e+001
1	 4.143948590127299e-001	 1.133279326549498e+000	-2.116096457912916e+001
1	 4.024501375652947e-001	 1.137575918636991e+000	-2.099703595644231e+001
1	 3.904894226468796e-001	 1.141736858599893e+000	-2.083687721315800e+001
1	 3.785149020297368e-001	 1.145762401719342e+000	-2.068097849741649e+001
1	 3.665287470647387e-001	 1.149652847611347e+000	-2.052984639807233e+001
1	 3.545331116341912e-001	 1.153408539512741e+000	-2.038400144985810e+001
1	 4.764187958926178e-001	 1.115887389305492e+000	-2.226694582297849e+001
1	 4.645219858287748e-001	 1.120891972270021e+000	-2.209805911360373e+001
1	 4.525978858476362e-001	 1.125759561918668e+000	-2.193111211081428e+001
1	 4.406487615576510e-001	 1.130490182315132e+000	-2.176645497647872e+001
1	 4.286768677516142e-001	 1.135083905240194e+000	-2.160446755654865e+001
1	 4.166844472128812e-001	 1.139540849628946e+000	-2.144555679931574e+001
1	 4.046737295478510e-001	 1.143861180974407e+000	-2.129015417955413e+001
1	 3.926469300457279e-001	 1.148045110698799e+000	-2.113871313413823e+001
1	 3.806062485665093e-001	 1.152092895493742e+000	-2.099170651455167e+001
1	 3.685538684580829e-001	 1.156004836630688e+000	-2.084962406154131e+001
1	 3.564919555032524e-001	 1.159781279242920e+000	-2.071296990697528e+001
1	 4.790366110301419e-001	 1.122018941890968e+000	-2.250752810472877e+001
1	 4.670744306456894e-001	 1.127051023923789e+000	-2.234626179715428e+001
1	 4.550848103918862e-001	 1.131945359892904e+000	-2.218722293294123e+001
1	 4.430700283262014e-001	 1.136701973994260e+000	-2.203074346296992e+001
1	 4.310323516310217e-001	 1.141320938403083e+000	-2.187718543842524e+001
1	 4.189740354133045e-001	 1.145802372708010e+000	-2.172693842725844e+001
1	 4.068973215306461e-001	 1.150146443311432e+000	-2.158041693593694e+001
1	 3.948044374447789e-001	 1.154353362797313e+000	-2.143805784209004e+001
1	 3.826975951034476e-001	 1.158423389267759e+000	-2.130031784349929e+001
1	 3.705789898515568e-001	 1.162356825649666e+000	-2.116767092870951e+001
1	 3.584507993724112e-001	 1.166154018972769e+000	-2.104060587435352e+001
1	 4.816544261678670e-001	 1.128150494476111e+000	-2.274322948013591e+001
1	 4.696268754628187e-001	 1.133210075577222e+000	-2.258991182195303e+001
1	 4.575717349363537e-001	 1.138131157866803e+000	-2.243911177596137e+001
1	 4.454912950949637e-001	 1.142913765673050e+000	-2.229114441471247e+001
1	 4.333878355106287e-001	 1.147557971565633e+000	-2.214635528844062e+001
1	 4.212636236139090e-001	 1.152063895786738e+000	-2.200511783799685e+001
1	 4.091209135136008e-001	 1.156431705648128e+000	-2.186783081257126e+001
1	 3.969619448439651e-001	 1.160661614895509e+000	-2.173491569783595e+001
1	 3.847889416404962e-001	 1.164753883041476e+000	-2.160681415998736e+001
1	 3.726041112451171e-001	 1.168708814668366e+000	-2.148398551099260e+001
1	 3.604096432416351e-001	 1.172526758702372e+000	-2.136690420015659e+001
1	 4.842722413056925e-001	 1.134282047060920e+000	-2.297406121046138e+001
1	 4.721793202800552e-001	 1.139369127230325e+000	-2.282902051919582e+001
1	 4.600586594809300e-001	 1.144316955840377e+000	-2.268678972195751e+001
1	 4.479125618638321e-001	 1.149125557351524e+000	-2.254766832274039e+001
1	 4.357433193903352e-001	 1.153795004727881e+000	-2.241198664222761e+001
1	 4.235532118146043e-001	 1.158325418865181e+000	-2.228010322547910e+001
1	 4.113445054966349e-001	 1.162716967984557e+000	-2.215240225400832e+001
1	 3.991194522432189e-001	 1.166969866993460e+000	-2.202929096790365e+001
1	 3.868802881775998e-001	 1.171084376814971e+000	-2.191119710350947e+001
1	 3.746292326387208e-001	 1.175060803686873e+000	-2.179856635199217e+001
1	 3.623684871108915e-001	 1.178899498431811e+000	-2.169185984394400e+001
1	 4.868900564435181e-001	 1.140413599645397e+000	-2.320003431477658e+001
1	 4.747317650972915e-001	 1.145528178883100e+000	-2.306359897638416e+001
1	 4.625455840255062e-001	 1.150502753813638e+000	-2.293026761467530e+001
1	 4.503338286327004e-001	 1.155337349029706e+000	-2.280032545246218e+001
1	 4.380988032700417e-001	 1.160032037889863e+000	-2.267408883034020e+001
1	 4.258428000152994e-001	 1.164586941943386e+000	-2.255190260743020e+001
1	 4.135680974796693e-001	 1.169002230320782e+000	-2.243413756619955e+001
1	 4.012769596424727e-001	 1.173278119091240e+000	-2.232118782706357e+001
1	 3.889716347147036e-001	 1.177414870588328e+000	-2.221346827829920e+001
1	 3.766543540323243e-001	 1.181412792705272e+000	-2.211141202663183e+001
1	 3.643273309801479e-001	 1.185272238161169e+000	-2.201546787367647e+001
1	 4.895078715812429e-001	 1.146545152229540e+000	-2.342115957643988e+001
1	 4.772842099144207e-001	 1.151687230535551e+000	-2.329365804384225e+001
1	 4.650325085699736e-001	 1.156688551786596e+000	-2.316955606589726e+001
1	 4.527550954014628e-001	 1.161549140707617e+000	-2.304912584969366e+001
1	 4.404542871496485e-001	 1.166269071051613e+000	-2.293267098373890e+001
1	 4.281323882159039e-001	 1.170848465021405e+000	-2.282052383006329e+001
1	 4.157916894626238e-001	 1.175287492656865e+000	-2.271304292020213e+001
1	 4.034344670416590e-001	 1.179586371188922e+000	-2.261061036078071e+001
1	 3.910629812517523e-001	 1.183745364361628e+000	-2.251362925427252e+001
1	 3.786794754258847e-001	 1.187764781723647e+000	-2.242252114031883e+001
1	 3.662861748493719e-001	 1.191644977890528e+000	-2.233772346281798e+001
1	 4.921256867187671e-001	 1.152676704813351e+000	-2.363744754936365e+001
1	 4.798366547313354e-001	 1.157846282187681e+000	-2.351920834102458e+001
1	 4.675194331142233e-001	 1.162874349759263e+000	-2.340466546161166e+001
1	 4.551763621700131e-001	 1.167760932385280e+000	-2.329407934649952e+001
1	 4.428097710290558e-001	 1.172506104213168e+000	-2.318774203909710e+001
1	 4.304219764163272e-001	 1.177109988099284e+000	-2.308597457264244e+001
1	 4.180152814454191e-001	 1.181572754992868e+000	-2.298912435576683e+001
1	 4.055919744407099e-001	 1.185894623286580e+000	-2.289756256758985e+001
1	 3.931543277886905e-001	 1.190075858134952e+000	-2.281168156794067e+001
1	 3.807045968193585e-001	 1.194116770742085e+000	-2.273189232813266e+001
1	 3.682450187185307e-001	 1.198017717619970e+000	-2.265862188752848e+001
1	 4.947435018559895e-001	 1.158808257396830e+000	-2.384890856408732e+001
1	 4.823890995479283e-001	 1.164005333839493e+000	-2.374026026262351e+001
1	 4.700063576581465e-001	 1.169060147731649e+000	-2.363560596798609e+001
1	 4.575976289382453e-001	 1.173972724062717e+000	-2.353519556684749e+001
1	 4.451652549081642e-001	 1.178743137374562e+000	-2.343931074394337e+001
1	 4.327115646164784e-001	 1.183371511177076e+000	-2.334826235189881e+001
1	 4.202388734279750e-001	 1.187858017328854e+000	-2.326238778481306e+001
1	 4.077494818395579e-001	 1.192202875384287e+000	-2.318204836139660e+001
1	 3.952456743254628e-001	 1.196406351908383e+000	-2.310762672329318e+001
1	 3.827297182127025e-001	 1.200468759760668e+000	-2.303952425404182e+001
1	 3.702038625875918e-001	 1.204390457349580e+000	-2.297815852394820e+001
1	 4.973613169928101e-001	 1.164939809979976e+000	-2.405555273365343e+001
1	 4.849415443640922e-001	 1.170164385490992e+000	-2.395682398448498e+001
1	 4.724932822016347e-001	 1.175245945703767e+000	-2.386238753715288e+001
1	 4.600188957060533e-001	 1.180184515739950e+000	-2.377248393208484e+001
1	 4.475207387868734e-001	 1.184980170535832e+000	-2.368738566163766e+001
1	 4.350011528162667e-001	 1.189633034254827e+000	-2.360739452630841e+001
1	 4.224624654102122e-001	 1.194143279664885e+000	-2.353283899479096e+001
1	 4.099069892381355e-001	 1.198511127482119e+000	-2.346407157370360e+001
1	 3.973370208620145e-001	 1.202736845682000e+000	-2.340146619265551e+001
1	 3.847548396058734e-001	 1.206820748779484e+000	-2.334541561014181e+001
1	 3.721627064565229e-001	 1.210763197079439e+000	-2.329632884556594e+001
1	 3.525742677652601e-001	 1.147035799782149e+000	-2.005370576932892e+001
1	 3.406376052026061e-001	 1.150637115213137e+000	-1.990654401288699e+001
1	 3.286957413846450e-001	 1.154105229318470e+000	-1.976904412469774e+001
1	 3.167507592780232e-001	 1.157440607346606e+000	-1.964157233254873e+001
1	 3.048047206734029e-001	 1.160643754840250e+000	-1.952449871161274e+001
1	 2.928596653018194e-001	 1.163715216807882e+000	-1.941819500114521e+001
1	 2.809176099841100e-001	 1.166655576875311e+000	-1.932303247391142e+001
1	 2.689805478137873e-001	 1.169465456418633e+000	-1.923937986173734e+001
1	 2.570504473736705e-001	 1.172145513679984e+000	-1.916760134034987e+001
1	 2.451292519865291e-001	 1.174696442867462e+000	-1.910805457642442e+001
1	 2.332188789999302e-001	 1.177118973240590e+000	-1.906108883952616e+001
1	 3.545331116341912e-001	 1.153408539512741e+000	-2.038400144985810e+001
1	 3.425301309638525e-001	 1.157029863252174e+000	-2.024572686701292e+001
1	 3.305219201409053e-001	 1.160517245621667e+000	-2.011714956133156e+001
1	 3.185105737046082e-001	 1.163871154454500e+000	-1.999856881327575e+001
1	 3.064981649005862e-001	 1.167092098102068e+000	-1.989028782475208e+001
1	 2.944867447922767e-001	 1.170180624600808e+000	-1.979261162585241e+001
1	 2.824783414056346e-001	 1.173137320819037e+000	-1.970584503230345e+001
1	 2.704749589074650e-001	 1.175962811585093e+000	-1.963029065690076e+001
1	 2.584785768177021e-001	 1.178657758798178e+000	-1.956624697797805e+001
1	 2.464911492558900e-001	 1.181222860523273e+000	-1.951400646772964e+001
1	 2.345146042220564e-001	 1.183658850071527e+000	-1.947385378297405e+001
1	 3.564919555032524e-001	 1.159781279242920e+000	-2.071296990697528e+001
1	 3.444226567251935e-001	 1.163422611290857e+000	-2.058399127120797e+001
1	 3.323480988972307e-001	 1.166929261924586e+000	-2.046474477192500e+001
1	 3.202703881312339e-001	 1.170301701562208e+000	-2.035546218643798e+001
1	 3.081916091277884e-001	 1.173540441363803e+000	-2.025637931206687e+001
1	 2.961138242827327e-001	 1.176646032393761e+000	-2.016773396379311e+001
1	 2.840390728271373e-001	 1.179619064762902e+000	-2.008976402053503e+001
1	 2.719693700010984e-001	 1.182460166751805e+000	-2.002270552320258e+001
1	 2.599067062616637e-001	 1.185170003916729e+000	-1.996679082747218e+001
1	 2.478530465251502e-001	 1.187749278179539e+000	-1.992224681399481e+001
1	 2.358103294440449e-001	 1.190198726903006e+000	-1.988929315852834e+001
1	 3.584507993724112e-001	 1.166154018972769e+000	-2.104060587435352e+001
1	 3.463151824866052e-001	 1.169815359329259e+000	-2.092132807796948e+001
1	 3.341742776536050e-001	 1.173341278227287e+000	-2.081181698130696e+001
1	 3.220302025578900e-001	 1.176732248669769e+000	-2.071223630752275e+001
1	 3.098850533550046e-001	 1.179988784625471e+000	-2.062275392255776e+001
1	 2.977409037731876e-001	 1.183111440186731e+000	-2.054353992456662e+001
1	 2.855998042486236e-001	 1.186100808706870e+000	-2.047476477982523e+001
1	 2.734637810946988e-001	 1.188957521918704e+000	-2.041659750814709e+001
1	 2.613348357055730e-001	 1.191682249035549e+000	-2.036920392063974e+001
1	 2.492149437943350e-001	 1.194275695836146e+000	-2.033274491240977e+001
1	 2.371060546659301e-001	 1.196738603734890e+000	-2.030737481261605e+001
1	 3.604096432416351e-001	 1.172526758702372e+000	-2.136690420015659e+001
1	 3.482077082480642e-001	 1.176208107367455e+000	-2.125772833866276e+001
1	 3.360004564100119e-001	 1.179753294529828e+000	-2.115835369203987e+001
1	 3.237900169845663e-001	 1.183162795777225e+000	-2.106887538300281e+001
1	 3.115784975822304e-001	 1.186437127887090e+000	-2.098939282374579e+001
1	 2.993679832636415e-001	 1.189576847979709e+000	-2.092000789802142e+001
1	 2.871605356700990e-001	 1.192582552650905e+000	-2.086082318747978e+001
1	 2.749581921882768e-001	 1.195454877085726e+000	-2.081194024519184e+001
1	 2.627629651494472e-001	 1.198194494154544e+000	-2.077345791906246e+001
1	 2.505768410634696e-001	 1.200802113492981e+000	-2.074547072765057e+001
1	 2.384017798877464e-001	 1.203278480567044e+000	-2.072806729068991e+001
1	 3.623684871108915e-001	 1.178899498431811e+000	-2.169185984394400e+001
1	 3.501002340095467e-001	 1.182600855405517e+000	-2.159318329814638e+001
1	 3.378266351664351e-001	 1.186165310832270e+000	-2.150434267691432e+001
1	 3.255498314112528e-001	 1.189593342884613e+000	-2.142536396084817e+001
1	 3.132719418094607e-001	 1.192885471148674e+000	-2.135627759036137e+001
1	 3.009950627540954e-001	 1.196042255772686e+000	-2.129711674127563e+001
1	 2.887212670915688e-001	 1.199064296594971e+000	-2.124791564240205e+001
1	 2.764526032818441e-001	 1.201952232252809e+000	-2.120870793790927e+001
1	 2.641910945933040e-001	 1.204706739273630e+000	-2.117952509707578e+001
1	 2.519387383325791e-001	 1.207328531149930e+000	-2.116039487383747e+001
1	 2.396975051095284e-001	 1.209818357399334e+000	-2.115133981833457e+001
1	 3.643273309801479e-001	 1.185272238161169e+000	-2.201546787367647e+001
1	 3.519927597710295e-001	 1.188993603443521e+000	-2.192768438956962e+001
1	 3.396528139228582e-001	 1.192577327134670e+000	-2.184977197168419e+001
1	 3.273096458379391e-001	 1.196023889991973e+000	-2.178168692134720e+001
1	 3.149653860366912e-001	 1.199333814410241e+000	-2.172339019339541e+001
1	 3.026221422445491e-001	 1.202507663565654e+000	-2.167484576615524e+001
1	 2.902819985130387e-001	 1.205546040539032e+000	-2.163601905107109e+001
1	 2.779470143754111e-001	 1.208449587419890e+000	-2.160687534466165e+001
1	 2.656192240371608e-001	 1.211218984392715e+000	-2.158737832529407e+001
1	 2.533006356016885e-001	 1.213854948806878e+000	-2.157748859707650e+001
1	 2.409932303313104e-001	 1.216358234231624e+000	-2.157716228298293e+001
1	 3.662861748493719e-001	 1.191644977890528e+000	-2.233772346281798e+001
1	 3.538852855324884e-001	 1.195386351481539e+000	-2.226122322933921e+001
1	 3.414789926792650e-001	 1.198989343437087e+000	-2.219462986803527e+001
1	 3.290694602646153e-001	 1.202454437099344e+000	-2.213782946821980e+001
1	 3.166588302639168e-001	 1.205782157671807e+000	-2.209071298950526e+001
1	 3.042492217350033e-001	 1.208973071358602e+000	-2.205317472703552e+001
1	 2.918427299345140e-001	 1.212027784483051e+000	-2.202511081396805e+001
1	 2.794414254689893e-001	 1.214946942586906e+000	-2.200641776376541e+001
1	 2.670473534810350e-001	 1.217731229511709e+000	-2.199699105466928e+001
1	 2.546625328708231e-001	 1.220381366463713e+000	-2.199672375856028e+001
1	 2.422889555531268e-001	 1.222898111063778e+000	-2.200550521621826e+001
1	 3.682450187185307e-001	 1.198017717619970e+000	-2.265862188752848e+001
1	 3.557778112939002e-001	 1.201779099519646e+000	-2.259379161224414e+001
1	 3.433051714356394e-001	 1.205401359739581e+000	-2.253890490677797e+001
1	 3.308292746912714e-001	 1.208884984206768e+000	-2.249377712001544e+001
1	 3.183522744911331e-001	 1.212230500933388e+000	-2.245822871075693e+001
1	 3.058763012254581e-001	 1.215438479151522e+000	-2.243208380907056e+001
1	 2.934034613560003e-001	 1.218509528426993e+000	-2.241516881243940e+001
1	 2.809358365625896e-001	 1.221444297753793e+000	-2.240731101913012e+001
1	 2.684754829249443e-001	 1.224243474630525e+000	-2.240833730105335e+001
1	 2.560244301400080e-001	 1.226907784120320e+000	-2.241807281820914e+001
1	 2.435846807750120e-001	 1.229437987895662e+000	-2.243633977664310e+001
1	 3.702038625875918e-001	 1.204390457349580e+000	-2.297815852394820e+001
1	 3.576703370552410e-001	 1.208171847557914e+000	-2.292538150673646e+001
1	 3.451313501919650e-001	 1.211813376042211e+000	-2.288258587125631e+001
1	 3.325890891178971e-001	 1.215315531314283e+000	-2.284951570178405e+001
1	 3.200457187183353e-001	 1.218678844195001e+000	-2.282592045469211e+001
1	 3.075033807159139e-001	 1.221903886944404e+000	-2.281155361679616e+001
1	 2.949641927775030e-001	 1.224991272370823e+000	-2.280617139597331e+001
1	 2.824302476562230e-001	 1.227941652920489e+000	-2.280953144635425e+001
1	 2.699036123689059e-001	 1.230755719749071e+000	-2.282139163025479e+001
1	 2.573863274092683e-001	 1.233434201776585e+000	-2.284150881883053e+001
1	 2.448804059970006e-001	 1.235977864727140e+000	-2.286963773328913e+001
1	 3.721627064565229e-001	 1.210763197079439e+000	-2.329632884556594e+001
1	 3.595628628164873e-001	 1.214564595596418e+000	-2.325598505036145e+001
1	 3.469575289482251e-001	 1.218225392345035e+000	-2.322566178096637e+001
1	 3.343489035444823e-001	 1.221746078421927e+000	-2.320503133700936e+001
1	 3.217391629455186e-001	 1.225127187456663e+000	-2.319377167471070e+001
1	 3.091304602063712e-001	 1.228369294737240e+000	-2.319156516309397e+001
1	 2.965249241990276e-001	 1.231473016314503e+000	-2.319809736988046e+001
1	 2.839246587499008e-001	 1.234439008086931e+000	-2.321305587925756e+001
1	 2.713317418129375e-001	 1.237267964867259e+000	-2.323612914356423e+001
1	 2.587482246786292e-001	 1.239960619432395e+000	-2.326700537077964e+001
1	 2.461761312191269e-001	 1.242517741558077e+000	-2.330537144955373e+001
1	 2.332188789999302e-001	 1.177118973240590e+000	-1.906108883952616e+001
1	 2.213230021627496e-001	 1.179413533665163e+000	-1.902666957006180e+001
1	 2.094416944440826e-001	 1.181581294153850e+000	-1.900491336189322e+001
1	 1.975767878414401e-001	 1.183623084116445e+000	-1.899639613646926e+001
1	 1.857300859390157e-001	 1.185539764203235e+000	-1.900167775169086e+001
1	 1.739033633652391e-001	 1.187332225339542e+000	-1.902130021171267e+001
1	 1.620983652844263e-001	 1.189001387753761e+000	-1.905578595954817e+001
1	 1.503168069223521e-001	 1.190548200000185e+000	-1.910563625377444e+001
1	 1.385603731255183e-001	 1.191973637977820e+000	-1.917132963038952e+001
1	 1.268307179538430e-001	 1.193278703946419e+000	-1.925332045063550e+001
1	 1.151294643064635e-001	 1.194464425540913e+000	-1.935203753536440e+001
1	 2.345146042220564e-001	 1.183658850071527e+000	-1.947385378297405e+001
1	 2.225526358758121e-001	 1.185966158691430e+000	-1.944570796799886e+001
1	 2.106053175916603e-001	 1.188145962896061e+000	-1.942965334549504e+001
1	 1.986744915453892e-001	 1.190199096703295e+000	-1.942622060592270e+001
1	 1.867619713416105e-001	 1.192126425545067e+000	-1.943592528150693e+001
1	 1.748695414682985e-001	 1.193928845296552e+000	-1.945926599070868e+001
1	 1.629989567856155e-001	 1.195607281298800e+000	-1.949672276340672e+001
1	 1.511519420488499e-001	 1.197162687376130e+000	-1.954875544808322e+001
1	 1.393301914652341e-001	 1.198596044849500e+000	-1.961580220206812e+001
1	 1.275353682843719e-001	 1.199908361547070e+000	-1.969827806566136e+001
1	 1.157691044219621e-001	 1.201100670813155e+000	-1.979657362071949e+001
1	 2.358103294440449e-001	 1.190198726903006e+000	-1.988929315852834e+001
1	 2.237822695886924e-001	 1.192518783718310e+000	-1.986780334739196e+001
1	 2.117689407390044e-001	 1.194710631638938e+000	-1.985782746020923e+001
1	 1.997721952490489e-001	 1.196775109290849e+000	-1.985984626058880e+001
1	 1.877938567438564e-001	 1.198713086887629e+000	-1.987432631584397e+001
1	 1.758357195709473e-001	 1.200525465254301e+000	-1.990171828280606e+001
1	 1.638995482863325e-001	 1.202213174844571e+000	-1.994245527198318e+001
1	 1.519870771748143e-001	 1.203777174752788e+000	-1.999695129135235e+001
1	 1.401000098043579e-001	 1.205218451721859e+000	-2.006559977083285e+001
1	 1.282400186142539e-001	 1.206538019148351e+000	-2.014877216826469e+001
1	 1.164087445367640e-001	 1.207736916085966e+000	-2.024681665748615e+001
1	 2.371060546659301e-001	 1.196738603734890e+000	-2.030737481261605e+001
1	 2.250119033014359e-001	 1.199071408745647e+000	-2.029292211733317e+001
1	 2.129325638861733e-001	 1.201275300382315e+000	-2.028940046957452e+001
1	 2.008698989524904e-001	 1.203351121878933e+000	-2.029723608607071e+001
1	 1.888257421458385e-001	 1.205299748230736e+000	-2.031684200513531e+001
1	 1.768018976732843e-001	 1.207122085212600e+000	-2.034861642043960e+001
1	 1.648001397866881e-001	 1.208819068390886e+000	-2.039294109049523e+001
1	 1.528222123003677e-001	 1.210391662129970e+000	-2.045017982512432e+001
1	 1.408698281430211e-001	 1.211840858594711e+000	-2.052067704995533e+001
1	 1.289446689436271e-001	 1.213167676750082e+000	-2.060475644976854e+001
1	 1.170483846510113e-001	 1.214373161359173e+000	-2.070271969129185e+001
1	 2.384017798877464e-001	 1.203278480567044e+000	-2.072806729068991e+001
1	 2.262415370140882e-001	 1.205624033773291e+000	-2.072103141718858e+001
1	 2.140961870332250e-001	 1.207839969126025e+000	-2.072433790317839e+001
1	 2.019676026557856e-001	 1.209927134467368e+000	-2.073835387267240e+001
1	 1.898576275476419e-001	 1.211886409574204e+000	-2.076343434441243e+001
1	 1.777680757754081e-001	 1.213718705171260e+000	-2.079992062016654e+001
1	 1.657007312867935e-001	 1.215424961937553e+000	-2.084813874583317e+001
1	 1.536573474256321e-001	 1.217006149507486e+000	-2.090839804660781e+001
1	 1.416396464813552e-001	 1.218463265467869e+000	-2.098098973724958e+001
1	 1.296493192726302e-001	 1.219797334352083e+000	-2.106618560825682e+001
1	 1.176880247648463e-001	 1.221009406632600e+000	-2.116423678856221e+001
1	 2.396975051095284e-001	 1.209818357399334e+000	-2.115133981833457e+001
1	 2.274711707266947e-001	 1.212176658801087e+000	-2.115209909685959e+001
1	 2.152598101802175e-001	 1.214404637869900e+000	-2.116260603595153e+001
1	 2.030653063590058e-001	 1.216503147055976e+000	-2.118316419364946e+001
1	 1.908895129493518e-001	 1.218473070917847e+000	-2.121406615047661e+001
1	 1.787342538774169e-001	 1.220315325130092e+000	-2.125559195876971e+001
1	 1.666013227867598e-001	 1.222030855484382e+000	-2.130800766164723e+001
1	 1.544924825507298e-001	 1.223620636885147e+000	-2.137156388284806e+001
1	 1.424094648194919e-001	 1.225085672341149e+000	-2.144649448846312e+001
1	 1.303539696014012e-001	 1.226426991954170e+000	-2.153301532136300e+001
1	 1.183276648784110e-001	 1.227645651906074e+000	-2.163132300893089e+001
1	 2.409932303313104e-001	 1.216358234231624e+000	-2.157716228298293e+001
1	 2.287008044393011e-001	 1.218729283828884e+000	-2.158609369768186e+001
1	 2.164234333272090e-001	 1.220969306613775e+000	-2.160417186813070e+001
1	 2.041630100622224e-001	 1.223079159644581e+000	-2.163163238416094e+001
1	 1.919213983510534e-001	 1.225059732261483e+000	-2.166870103980769e+001
1	 1.797004319794096e-001	 1.226911945088909e+000	-2.171559235013143e+001
1	 1.675019142866981e-001	 1.228636749031183e+000	-2.177250813424095e+001
1	 1.553276176757833e-001	 1.230235124262765e+000	-2.183963616572992e+001
1	 1.431792831575625e-001	 1.231708079214361e+000	-2.191714889152404e+001
1	 1.310586199300785e-001	 1.233056649556165e+000	-2.200520221993688e+001
1	 1.189673049918478e-001	 1.234281897179420e+000	-2.210393437853868e+001
1	 2.422889555531268e-001	 1.222898111063778e+000	-2.200550521621826e+001
1	 2.299304381519530e-001	 1.225281908856527e+000	-2.202298443393668e+001
1	 2.175870564742576e-001	 1.227533975357481e+000	-2.204900310586507e+001
1	 2.052607137655070e-001	 1.229655172233005e+000	-2.208372452089591e+001
1	 1.929532837528318e-001	 1.231646393604925e+000	-2.212730340718118e+001
1	 1.806666100814845e-001	 1.233508565047521e+000	-2.217988452285110e+001
1	 1.684025057867195e-001	 1.235242642577766e+000	-2.224160130923693e+001
1	 1.561627528009146e-001	 1.236849611640148e+000	-2.231257460778305e+001
1	 1.439491014956988e-001	 1.238330486087322e+000	-2.239291144161485e+001
1	 1.317632702588006e-001	 1.239686307157884e+000	-2.248270386255679e+001
1	 1.196069451052988e-001	 1.240918142452463e+000	-2.258202786418977e+001
1	 2.435846807750120e-001	 1.229437987895662e+000	-2.243633977664310e+001
1	 2.311600718646959e-001	 1.231834533883864e+000	-2.246274117495331e+001
1	 2.187506796214213e-001	 1.234098644100853e+000	-2.249706814244096e+001
1	 2.063584174689311e-001	 1.236231184821071e+000	-2.253940740235219e+001
1	 1.939851691547721e-001	 1.238233054947990e+000	-2.258983840496809e+001
1	 1.816327881837402e-001	 1.240105185005738e+000	-2.264843199857521e+001
1	 1.693030972869350e-001	 1.241848536123940e+000	-2.271524915898738e+001
1	 1.569978879262462e-001	 1.243464099017107e+000	-2.279033977875950e+001
1	 1.447189198340320e-001	 1.244952892959844e+000	-2.287374151704340e+001
1	 1.324679205877057e-001	 1.246315964759147e+000	-2.296547871085355e+001
1	 1.202465852189061e-001	 1.247554387725030e+000	-2.306556134833389e+001
1	 2.448804059970006e-001	 1.235977864727140e+000	-2.286963773328913e+001
1	 2.323897055775752e-001	 1.238387158910742e+000	-2.290533442777810e+001
1	 2.199143027687582e-001	 1.240663312843723e+000	-2.294833604010237e+001
1	 2.074561211725660e-001	 1.242807197408601e+000	-2.299864852973916e+001
1	 1.950170545569596e-001	 1.244819716290493e+000	-2.305627192309111e+001
1	 1.825989662862753e-001	 1.246701804963373e+000	-2.312119907101744e+001
1	 1.702036887874558e-001	 1.248454429669516e+000	-2.319341446070177e+001
1	 1.578330230519001e-001	 1.250078586393454e+000	-2.327289308295538e+001
1	 1.454887381726939e-001	 1.251575299831740e+000	-2.335959935587763e+001
1	 1.331725709169322e-001	 1.252945622359772e+000	-2.345348610562124e+001
1	 1.208862253328119e-001	 1.254190632996945e+000	-2.355449360484052e+001
1	 2.461761312191269e-001	 1.242517741558077e+000	-2.330537144955373e+001
1	 2.336193392906366e-001	 1.244939783937008e+000	-2.335073532039220e+001
1	 2.210779259163265e-001	 1.247227981585924e+000	-2.340277651244684e+001
1	 2.085538248764833e-001	 1.249383209995418e+000	-2.346141608848492e+001
1	 1.960489399594793e-001	 1.251406377632249e+000	-2.352657056961568e+001
1	 1.835651443891883e-001	 1.253298424920236e+000	-2.359815078563981e+001
1	 1.711042802883929e-001	 1.255060323214301e+000	-2.367606077526628e+001
1	 1.586681581779989e-001	 1.256693073768999e+000	-2.376019673724749e+001
1	 1.462585565118158e-001	 1.258197706702826e+000	-2.385044603332030e+001
1	 1.338772212466184e-001	 1.259575279959579e+000	-2.394668624367789e+001
1	 1.215258654471585e-001	 1.260826878268034e+000	-2.404878427554009e+001
1	 1.151294643064635e-001	 1.194464425540913e+000	-1.935203753536440e+001
1	 1.034564591055369e-001	 1.195532006134985e+000	-1.946746966619431e+001
1	 9.181504023273319e-002	 1.196482335047633e+000	-1.960002609915481e+001
1	 8.020675932168628e-002	 1.197316510895122e+000	-1.975076583671588e+001
1	 6.863313492787490e-002	 1.198035653759429e+000	-1.992070814852629e+001
1	 5.709565231767782e-002	 1.198640904201028e+000	-2.011083108536359e+001
1	 4.559576328859526e-002	 1.199133422276893e+000	-2.032207010643810e+001
1	 3.413488602003709e-002	 1.199514386564678e+000	-2.055531681916726e+001
1	 2.271440495405443e-002	 1.199784993194003e+000	-2.081141783031267e+001
1	 1.133567070536557e-002	 1.199946454885717e+000	-2.109117370716402e+001
1	 0.000000000000000e+000	 1.200000000000000e+000	-2.139533804725116e+001
1	 1.157691044219621e-001	 1.201100670813155e+000	-1.979657362071949e+001
1	 1.040312459496887e-001	 1.202174182707194e+000	-1.991064829695316e+001
1	 9.232514929392774e-002	 1.203129791489081e+000	-2.004090229105012e+001
1	 8.065237470892070e-002	 1.203968601878787e+000	-2.018838775131318e+001
1	 6.901444918697729e-002	 1.204691740181260e+000	-2.035411776952572e+001
1	 5.741286624635846e-002	 1.205300353293715e+000	-2.053906487299257e+001
1	 4.584908575049953e-002	 1.205795607718194e+000	-2.074415962990269e+001
1	 3.432453375796898e-002	 1.206178688580310e+000	-2.097028936717021e+001
1	 2.284060240253756e-002	 1.206450798655162e+000	-2.121829699968350e+001
1	 1.139864980270439e-002	 1.206613157401256e+000	-2.148897996968259e+001
1	 0.000000000000000e+000	 1.206667000003317e+000	-2.178308929477720e+001
1	 1.164087445367640e-001	 1.207736916085966e+000	-2.024681665748615e+001
1	 1.046060327931011e-001	 1.208816359279900e+000	-2.035965912741132e+001
1	 9.283525835435209e-002	 1.209777247930941e+000	-2.048768607706435e+001
1	 8.109799009537087e-002	 1.210620692862776e+000	-2.063193816089425e+001
1	 6.939576344530311e-002	 1.211347826603324e+000	-2.079341774320783e+001
1	 5.773008017429712e-002	 1.211959802386552e+000	-2.097308737360470e+001
1	 4.610240821172797e-002	 1.212457793159563e+000	-2.117186837540793e+001
1	 3.451418149532765e-002	 1.212842990595942e+000	-2.139063954628637e+001
1	 2.296679985059128e-002	 1.213116604116268e+000	-2.163023597003516e+001
1	 1.146162889980336e-002	 1.213279859916706e+000	-2.189144793826979e+001
1	 0.000000000000000e+000	 1.213334000006534e+000	-2.217501998058702e+001
1	 1.170483846510113e-001	 1.214373161359173e+000	-2.070271969129185e+001
1	 1.051808196359169e-001	 1.215458535852934e+000	-2.081445476993129e+001
1	 9.334536741414588e-002	 1.216424704373055e+000	-2.094032969328767e+001
1	 8.154360548117007e-002	 1.217272783846940e+000	-2.108136906311295e+001
1	 6.977707770297609e-002	 1.218003913025485e+000	-2.123856004649546e+001
1	 5.804729410160458e-002	 1.218619251479407e+000	-2.141285083994485e+001
1	 4.635573067237538e-002	 1.219119978600882e+000	-2.160514924585462e+001
1	 3.470382923218876e-002	 1.219507292611463e+000	-2.181632136057518e+001
1	 2.309299729826899e-002	 1.219782409577216e+000	-2.204719037310234e+001
1	 1.152460799669064e-002	 1.219946562431969e+000	-2.229853547317646e+001
1	 0.000000000000000e+000	 1.220001000009551e+000	-2.257109086738014e+001
1	 1.176880247648463e-001	 1.221009406632600e+000	-2.116423678856221e+001
1	 1.057556064782786e-001	 1.222100712426131e+000	-2.127498886709308e+001
1	 9.385547647344883e-002	 1.223072160815268e+000	-2.139878641420792e+001
1	 8.198922086645168e-002	 1.223924874831135e+000	-2.153663349920406e+001
1	 7.015839196011997e-002	 1.224659999447606e+000	-2.168949770034293e+001
1	 5.836450802839169e-002	 1.225278700572155e+000	-2.185830856279377e+001
1	 4.660905313253656e-002	 1.225782164042033e+000	-2.204395616804541e+001
1	 3.489347696862794e-002	 1.226171594626763e+000	-2.224728981405751e+001
1	 2.321919474562407e-002	 1.226448215037900e+000	-2.246911680519546e+001
1	 1.158758709339438e-002	 1.226613264946940e+000	-2.271020135077989e+001
1	 0.000000000000000e+000	 1.226668000012267e+000	-2.297126357088392e+001
1	 1.183276648784110e-001	 1.227645651906074e+000	-2.163132300893089e+001
1	 1.063303933203289e-001	 1.228742888999325e+000	-2.174121606384853e+001
1	 9.436558553240053e-002	 1.229719617257423e+000	-2.186301052464422e+001
1	 8.243483625134901e-002	 1.230576965815211e+000	-2.199768552577763e+001
1	 7.053970621685841e-002	 1.231316085869550e+000	-2.214618474151860e+001
1	 5.868172195476935e-002	 1.231938149664668e+000	-2.230941484291103e+001
1	 4.686237559230626e-002	 1.232444349482895e+000	-2.248824406500884e+001
1	 3.508312470472078e-002	 1.232835896641730e+000	-2.268350088368941e+001
1	 2.334539219270992e-002	 1.233114020498216e+000	-2.289597280113059e+001
1	 1.165056618994276e-002	 1.233279967461519e+000	-2.312640523882438e+001
1	 0.000000000000000e+000	 1.233335000014584e+000	-2.337550053679771e+001
1	 1.189673049918478e-001	 1.234281897179420e+000	-2.210393437853868e+001
1	 1.069051801622104e-001	 1.235385065572350e+000	-2.221309198057571e+001
1	 9.487569459114074e-002	 1.236367073699361e+000	-2.233295729258660e+001
1	 8.288045163599542e-002	 1.237229056799023e+000	-2.246448018752245e+001
1	 7.092102047331518e-002	 1.237972172291179e+000	-2.260857619529551e+001
1	 5.899893588084834e-002	 1.238597598756819e+000	-2.276612496388422e+001
1	 4.711569805177934e-002	 1.239106534923351e+000	-2.293796882921935e+001
1	 3.527277244054292e-002	 1.239500198656252e+000	-2.312491149320524e+001
1	 2.347158963957991e-002	 1.239779825958058e+000	-2.332771680899829e+001
1	 1.171354528636394e-002	 1.239946669975606e+000	-2.354710767245762e+001
1	 0.000000000000000e+000	 1.240002000016401e+000	-2.378376501848088e+001
1	 1.196069451052988e-001	 1.240918142452463e+000	-2.258202786418977e+001
1	 1.074799670040658e-001	 1.242027242145039e+000	-2.269057318699541e+001
1	 9.538580364980913e-002	 1.243014530140927e+000	-2.280858294290687e+001
1	 8.332606702052425e-002	 1.243881147782423e+000	-2.293697349078486e+001
1	 7.130233472961396e-002	 1.244628258712357e+000	-2.307662804902108e+001
1	 5.931614980673955e-002	 1.245257047848480e+000	-2.322839516584912e+001
1	 4.736902051105052e-002	 1.245768720363282e+000	-2.339308729667378e+001
1	 3.546242017616995e-002	 1.246164500670219e+000	-2.357147948780231e+001
1	 2.359778708628747e-002	 1.246445631417321e+000	-2.376430816574402e+001
1	 1.177652438268608e-002	 1.246613372489098e+000	-2.397227003103688e+001
1	 0.000000000000000e+000	 1.246669000017617e+000	-2.419602105535632e+001
1	 1.202465852189061e-001	 1.247554387725030e+000	-2.306556134833389e+001
1	 1.080547538460377e-001	 1.248669418717227e+000	-2.317361717692300e+001
1	 9.589591270854529e-002	 1.249661986581963e+000	-2.328984463190743e+001
1	 8.377168240506883e-002	 1.250533238765264e+000	-2.341512237799292e+001
1	 7.168364898587848e-002	 1.251284345132945e+000	-2.355029722652676e+001
1	 5.963336373255377e-002	 1.251916496939524e+000	-2.369618262004691e+001
1	 4.762234297021464e-002	 1.252430905802570e+000	-2.385355722179674e+001
1	 3.565206791167753e-002	 1.252828802683519e+000	-2.402316360963224e+001
1	 2.372398453288595e-002	 1.253111436875899e+000	-2.420570707352682e+001
1	 1.183950347893734e-002	 1.253280075001894e+000	-2.440185451567572e+001
1	 0.000000000000000e+000	 1.253336000018134e+000	-2.461223345200333e+001
1	 1.208862253328119e-001	 1.254190632996945e+000	-2.355449360484052e+001
1	 1.086295406882688e-001	 1.255311595288746e+000	-2.366218234381934e+001
1	 9.640602176748894e-002	 1.256309443022313e+000	-2.377670042268034e+001
1	 8.421729778976253e-002	 1.257185329747398e+000	-2.389888470288992e+001
1	 7.206496324223245e-002	 1.257940431552808e+000	-2.402954156335423e+001
1	 5.995057765840191e-002	 1.258575946029822e+000	-2.416944540419242e+001
1	 4.787566542936647e-002	 1.259093091241094e+000	-2.431933725314261e+001
1	 3.584171564714124e-002	 1.259493104696042e+000	-2.447992347407120e+001
1	 2.385018197942875e-002	 1.259777242333688e+000	-2.465187457682938e+001
1	 1.190248257514589e-002	 1.259946777513892e+000	-2.483582412750324e+001
1	 0.000000000000000e+000	 1.260003000017850e+000	-2.503236775791466e+001
1	 1.215258654471585e-001	 1.260826878268034e+000	-2.404878427554009e+001
1	 1.092043275309017e-001	 1.261953771859433e+000	-2.415622795711473e+001
1	 9.691613082677979e-002	 1.262956899461820e+000	-2.426910926124285e+001
1	 8.466291317473867e-002	 1.263837420728680e+000	-2.438821920655181e+001
1	 7.244627749879956e-002	 1.264596517971808e+000	-2.451431978276046e+001
1	 6.026779158439477e-002	 1.265235395119248e+000	-2.464814247861687e+001
1	 4.812898788860080e-002	 1.265755276678738e+000	-2.479038690986462e+001
1	 3.603136338263674e-002	 1.266157406707675e+000	-2.494171954673942e+001
1	 2.397637942596927e-002	 1.266443047790582e+000	-2.510277254028984e+001
1	 1.196546167133989e-002	 1.266613480024992e+000	-2.527414264661055e+001
1	 0.000000000000000e+000	 1.266670000016666e+000	-2.545639024789245e+001
1	 1.266670000016666e+000	 0.000000000000000e+000	 2.535733324238545e+001
1	 1.266613480024992e+000	 1.196546167133993e-002	 2.474117290583996e+001
1	 1.266443047790582e+000	 2.397637942596935e-002	 2.413144820986383e+001
1	 1.266157406707675e+000	 3.603136338263665e-002	 2.352740011773843e+001
1	 1.265755276678737e+000	 4.812898788860075e-002	 2.292829291225261e+001
1	 1.265235395119249e+000	 6.026779158439477e-002	 2.233341595519799e+001
1	 1.264596517971808e+000	 7.244627749879959e-002	 2.174208545768574e+001
1	 1.263837420728680e+000	 8.466291317473874e-002	 2.115364625832245e+001
1	 1.262956899461820e+000	 9.691613082677968e-002	 2.056747360615944e+001
1	 1.261953771859432e+000	 1.092043275309016e-001	 1.998297494520562e+001
1	 1.260826878268034e+000	 1.215258654471585e-001	 1.939959169717661e+001
1	 1.273336000014533e+000	 0.000000000000000e+000	 2.534758133174357e+001
1	 1.273279182579763e+000	 1.202843132115452e-002	 2.471752918241729e+001
1	 1.273107853425699e+000	 2.410255794388701e-002	 2.409414075346623e+001
1	 1.272820709123039e+000	 3.622098267249431e-002	 2.347667972472078e+001
1	 1.272416462837583e+000	 4.838227235153148e-002	 2.286443323043276e+001
1	 1.271893845340308e+000	 6.058495793091617e-002	 2.225671359729810e+001
1	 1.271251606026819e+000	 7.282753456140230e-002	 2.165286009250434e+001
1	 1.270488513945260e+000	 8.510846172113706e-002	 2.105224067885383e+001
1	 1.269603358831772e+000	 9.742616337399153e-002	 2.045425377388801e+001
1	 1.268594952152506e+000	 1.097790281603267e-001	 1.985833000982033e+001
1	 1.267462128151162e+000	 1.221654096208289e-001	 1.926393399096673e+001
1	 1.280002000011600e+000	 0.000000000000000e+000	 2.533687385481028e+001
1	 1.279944885133735e+000	 1.209140097100544e-002	 2.469332820185031e+001
1	 1.279772659060017e+000	 2.422873646188870e-002	 2.405665367234504e+001
1	 1.279484011537602e+000	 3.641060196249200e-002	 2.342613765779689e+001
1	 1.279077648995626e+000	 4.863555681466329e-002	 2.280109121100827e+001
1	 1.278552295560567e+000	 6.090212427770170e-002	 2.218085076319088e+001
1	 1.277906694081026e+000	 7.320879162433074e-002	 2.156477985021505e+001
1	 1.277139607161034e+000	 8.555401026791813e-002	 2.095227084505659e+001
1	 1.276249818200917e+000	 9.793619592163502e-002	 2.034274669337701e+001
1	 1.275236132444767e+000	 1.103537287902210e-001	 1.973566264905544e+001
1	 1.274097378033473e+000	 1.228049537949910e-001	 1.913050800637608e+001
1	 1.286668000008066e+000	 0.000000000000000e+000	 2.532493455535776e+001
1	 1.286610587687107e+000	 1.215437062091539e-002	 2.466830806732175e+001
1	 1.286437464693734e+000	 2.435491498000737e-002	 2.401874016811424e+001
1	 1.286147313951564e+000	 3.660022125266233e-002	 2.337554294952245e+001
1	 1.285738835153068e+000	 4.888884127802010e-002	 2.273805244284513e+001
1	 1.285210745780221e+000	 6.121929062475997e-002	 2.210563031564055e+001
1	 1.284561782134628e+000	 7.359004868757393e-002	 2.147766557664030e+001
1	 1.283790700376198e+000	 8.599955881504895e-002	 2.085357628589034e+001
1	 1.282896277569445e+000	 9.844622846965515e-002	 2.023281126706077e+001
1	 1.281877312736405e+000	 1.109284294205094e-001	 1.961485181875084e+001
1	 1.280732627915153e+000	 1.234444979695540e-001	 1.899921342150356e+001
1	 1.293334000004133e+000	 0.000000000000000e+000	 2.531149287259145e+001
1	 1.293276290240078e+000	 1.221734027090708e-002	 2.464221228140649e+001
1	 1.293102270327051e+000	 2.448109349827594e-002	 2.398015853050293e+001
1	 1.292810616365125e+000	 3.678984054303802e-002	 2.332466939418929e+001
1	 1.292400021310106e+000	 4.914212574162577e-002	 2.267510693521220e+001
1	 1.291869195999470e+000	 6.153645697209958e-002	 2.203085918168666e+001
1	 1.291216870187819e+000	 7.397130575112082e-002	 2.139134181113026e+001
1	 1.290441793590945e+000	 8.644510736249655e-002	 2.075599983866162e+001
1	 1.289542736937548e+000	 9.895626101799682e-002	 2.012430930630756e+001
1	 1.288518493027608e+000	 1.115031300511167e-001	 1.949577897024980e+001
1	 1.287367877796385e+000	 1.240840421444269e-001	 1.886995198273166e+001
1	 1.300000000000000e+000	 0.000000000000000e+000	 2.529628379512792e+001
1	 1.299941992792850e+000	 1.228030992100324e-002	 2.461478960763949e+001
1	 1.299767075960168e+000	 2.460727201672739e-002	 2.394067200690371e+001
1	 1.299473918778485e+000	 3.697945983365172e-002	 2.327329542574179e+001
1	 1.299061207466941e+000	 4.939541020550416e-002	 2.261204900444868e+001
1	 1.298527646218511e+000	 6.185362331972914e-002	 2.195634824844236e+001
1	 1.297871958240795e+000	 7.435256281496032e-002	 2.130563669186623e+001
1	 1.297092886805471e+000	 8.689065591022803e-002	 2.065938756420269e+001
1	 1.296189196305420e+000	 9.946629356660502e-002	 2.001710545683894e+001
1	 1.295159673318565e+000	 1.120778306819678e-001	 1.937832798641808e+001
1	 1.294003127677352e+000	 1.247235863195187e-001	 1.874262745169893e+001
1	 1.306665999995867e+000	 0.000000000000000e+000	 2.527904771944243e+001
1	 1.306607695345621e+000	 1.234327957122657e-002	 2.458579393632106e+001
1	 1.306431881593283e+000	 2.473345053539462e-002	 2.390004867591451e+001
1	 1.306137221191842e+000	 3.716907912453604e-002	 2.322120399943027e+001
1	 1.305722393623771e+000	 4.964869466967915e-002	 2.254867716410110e+001
1	 1.305186096437542e+000	 6.217078966765730e-002	 2.188191226208204e+001
1	 1.304527046293756e+000	 7.473381987908150e-002	 2.122038186406309e+001
1	 1.303743980019968e+000	 8.733620445821037e-002	 2.056358866464734e+001
1	 1.302835655673249e+000	 9.997632611542476e-002	 1.991106712643208e+001
1	 1.301800853609464e+000	 1.126525313129877e-001	 1.926238511962151e+001
1	 1.300638377558238e+000	 1.253631304947386e-001	 1.861714555389553e+001
1	 1.313331999991934e+000	 0.000000000000000e+000	 2.525953031262726e+001
1	 1.313273397898593e+000	 1.240624922159980e-002	 2.455498415440865e+001
1	 1.313096687226598e+000	 2.485962905431060e-002	 2.385806132473110e+001
1	 1.312800523605397e+000	 3.735869841572368e-002	 2.316818247706830e+001
1	 1.312383579780795e+000	 4.990197913417459e-002	 2.248479401840544e+001
1	 1.311844546656761e+000	 6.248795601589267e-002	 2.180736972990562e+001
1	 1.311182134346894e+000	 7.511507694347333e-002	 2.113541239096693e+001
1	 1.310395073234634e+000	 8.778175300641061e-002	 2.046845540371001e+001
1	 1.309482115041231e+000	 1.004863586644009e-001	 1.980606441482381e+001
1	 1.308442033900491e+000	 1.132272319441013e-001	 1.914783893159237e+001
1	 1.307273627439228e+000	 1.260026746699954e-001	 1.849341392882399e+001
1	 1.319997999988401e+000	 0.000000000000000e+000	 2.523748237930850e+001
1	 1.319939100451964e+000	 1.246921887214562e-002	 2.452212401935129e+001
1	 1.319761492860313e+000	 2.498580757350825e-002	 2.381448733025504e+001
1	 1.319463826019349e+000	 3.754831770724729e-002	 2.311402251576690e+001
1	 1.319044765938211e+000	 5.015526359901441e-002	 2.242020615899732e+001
1	 1.318502996876366e+000	 6.280512236444387e-002	 2.173254282536962e+001
1	 1.317837222400410e+000	 7.549633400812474e-002	 2.105056666754981e+001
1	 1.317046166449661e+000	 8.822730155479584e-002	 2.037384302938099e+001
1	 1.316128574409554e+000	 1.009963912134785e-001	 1.970197004573842e+001
1	 1.315083214191836e+000	 1.138019325752334e-001	 1.903458023511770e+001
1	 1.313908877320505e+000	 1.266422188451984e-001	 1.837134208167072e+001
1	 1.326663999985467e+000	 0.000000000000000e+000	 2.521265973257502e+001
1	 1.326604803005934e+000	 1.253218852288676e-002	 2.448698203672741e+001
1	 1.326426298494626e+000	 2.511198609302054e-002	 2.376910854378554e+001
1	 1.326127128433897e+000	 3.773793699913954e-002	 2.305851996002299e+001
1	 1.325705952096220e+000	 5.040854806422242e-002	 2.235472406473572e+001
1	 1.325161447096555e+000	 6.312228871331949e-002	 2.165725729598191e+001
1	 1.324492310454498e+000	 7.587759107302469e-002	 2.096568633680601e+001
1	 1.323697259665244e+000	 8.867285010333309e-002	 2.027960969895175e+001
1	 1.322775033778411e+000	 1.015064237626025e-001	 1.959865930096503e+001
1	 1.321724394483688e+000	 1.143766332063090e-001	 1.892250203748596e+001
1	 1.320544127202253e+000	 1.272817630202566e-001	 1.825084133643379e+001
1	 1.333329999983334e+000	 0.000000000000000e+000	 2.518482306877925e+001
1	 1.333270505560705e+000	 1.259515817384592e-002	 2.444933134155317e+001
1	 1.333091104129737e+000	 2.523816461288039e-002	 2.372171117917059e+001
1	 1.332790430849242e+000	 3.792755629143307e-002	 2.300147473704504e+001
1	 1.332367138255019e+000	 5.066183252982254e-002	 2.228816200453194e+001
1	 1.331819897317526e+000	 6.343945506252818e-002	 2.158134237395916e+001
1	 1.331147398509354e+000	 7.625884813816217e-002	 2.088061620855973e+001
1	 1.330348352881577e+000	 8.911839865198935e-002	 2.018561640628969e+001
1	 1.329421493147995e+000	 1.020164563117177e-001	 1.949600995641195e+001
1	 1.328365574776235e+000	 1.149513338372529e-001	 1.881149948562949e+001
1	 1.327179377084656e+000	 1.279213071950790e-001	 1.813182479045722e+001
1	 1.260826878268034e+000	 1.215258654471585e-001	 1.939959169717661e+001
1	 1.259575279959579e+000	 1.338772212466185e-001	 1.882141736764458e+001
1	 1.258197706702826e+000	 1.462585565118158e-001	 1.825251344303273e+001
1	 1.256693073768999e+000	 1.586681581779989e-001	 1.769258499726542e+001
1	 1.255060323214301e+000	 1.711042802883929e-001	 1.714136855275188e+001
1	 1.253298424920236e+000	 1.835651443891883e-001	 1.659863338748968e+001
1	 1.251406377632250e+000	 1.960489399594794e-001	 1.606418281954778e+001
1	 1.249383209995418e+000	 2.085538248764833e-001	 1.553785546566213e+001
1	 1.247227981585924e+000	 2.210779259163266e-001	 1.501952647063090e+001
1	 1.244939783937008e+000	 2.336193392906365e-001	 1.450910870416030e+001
1	 1.242517741558077e+000	 2.461761312191269e-001	 1.400655392178311e+001
1	 1.267462128151162e+000	 1.221654096208289e-001	 1.926393399096673e+001
1	 1.266203943159526e+000	 1.345817658845979e-001	 1.867513183521392e+001
1	 1.264819120261608e+000	 1.470282593845123e-001	 1.809595366946014e+001
1	 1.263306569020112e+000	 1.595031680406209e-001	 1.752612607234663e+001
1	 1.261665225923675e+000	 1.720047367078512e-001	 1.696540628872058e+001
1	 1.259894055432673e+000	 1.845311775730764e-001	 1.641358349163513e+001
1	 1.257992051023324e+000	 1.970806705873169e-001	 1.587048002184867e+001
1	 1.255958236228826e+000	 2.096513639334076e-001	 1.533595260164368e+001
1	 1.253791665676258e+000	 2.222413745294195e-001	 1.480989351974140e+001
1	 1.251491426117940e+000	 2.348487885680753e-001	 1.429223178405510e+001
1	 1.249056637455896e+000	 2.474716620923479e-001	 1.378293423899689e+001
1	 1.274097378033473e+000	 1.228049537949910e-001	 1.913050800637608e+001
1	 1.272832606358652e+000	 1.352863105230743e-001	 1.853131799670986e+001
1	 1.271440533819566e+000	 1.477979622576952e-001	 1.794208712704210e+001
1	 1.269920064270398e+000	 1.603381779037054e-001	 1.736256370561203e+001
1	 1.268270128632225e+000	 1.729051931277369e-001	 1.679252581109402e+001
1	 1.266489685944298e+000	 1.854972107573488e-001	 1.623178250669358e+001
1	 1.264577724413605e+000	 1.981124012154900e-001	 1.568017503199043e+001
1	 1.262533262461468e+000	 2.107489029906158e-001	 1.513757796944373e+001
1	 1.260355349765869e+000	 2.234048231427441e-001	 1.460390038243509e+001
1	 1.258043068298207e+000	 2.360782378456961e-001	 1.407908692169186e+001
1	 1.255595533353124e+000	 2.487671929657066e-001	 1.356311889690888e+001
1	 1.280732627915153e+000	 1.234444979695540e-001	 1.899921342150356e+001
1	 1.279461269557136e+000	 1.359908551619469e-001	 1.838989582163637e+001
1	 1.278061947376870e+000	 1.485676651312594e-001	 1.779085255984631e+001
1	 1.276533559520022e+000	 1.611731877671476e-001	 1.720185389925426e+001
1	 1.274875031340109e+000	 1.738056495479502e-001	 1.662269886534306e+001
1	 1.273085316455256e+000	 1.864632439419134e-001	 1.605321640937267e+001
1	 1.271163397803229e+000	 1.991441318439169e-001	 1.549326654991487e+001
1	 1.269108288693471e+000	 2.118464420480375e-001	 1.494274148952885e+001
1	 1.266919033854871e+000	 2.245682717562428e-001	 1.440156670356047e+001
1	 1.264594710477906e+000	 2.373076871234534e-001	 1.386970199801683e+001
1	 1.262134429249846e+000	 2.500627238391685e-001	 1.334714253344568e+001
1	 1.287367877796385e+000	 1.240840421444269e-001	 1.886995198273166e+001
1	 1.286089932755156e+000	 1.366953998011148e-001	 1.825078692944416e+001
1	 1.284683360933694e+000	 1.493373680050998e-001	 1.764218997482243e+001
1	 1.283147054769149e+000	 1.620081976308432e-001	 1.704395356254624e+001
1	 1.281479934047482e+000	 1.747061059683912e-001	 1.645589777944828e+001
1	 1.279680946965695e+000	 1.874292771266784e-001	 1.587787146549194e+001
1	 1.277749071192331e+000	 2.001758624725156e-001	 1.530975330236748e+001
1	 1.275683314924959e+000	 2.129439811056030e-001	 1.475145287784167e+001
1	 1.273482717943375e+000	 2.257317203698579e-001	 1.420291172295981e+001
1	 1.271146352657140e+000	 2.385371364013019e-001	 1.366410431917058e+001
1	 1.268673325146146e+000	 2.513582547126994e-001	 1.313503907242292e+001
1	 1.294003127677352e+000	 1.247235863195187e-001	 1.874262745169893e+001
1	 1.292718595952890e+000	 1.373999444404773e-001	 1.811391454722846e+001
1	 1.291304774490208e+000	 1.501070708791112e-001	 1.749604060942316e+001
1	 1.289760550017942e+000	 1.628432074946875e-001	 1.688882048858494e+001
1	 1.288084836754500e+000	 1.756065623889601e-001	 1.629209544896504e+001
1	 1.286276577475762e+000	 1.883953103115517e-001	 1.570573422257026e+001
1	 1.284334744581047e+000	 2.012075931012045e-001	 1.512963404221024e+001
1	 1.282258341156058e+000	 2.140415201632420e-001	 1.456372165104450e+001
1	 1.280046402031495e+000	 2.268951689835316e-001	 1.400795428585253e+001
1	 1.277697994836005e+000	 2.397665856791959e-001	 1.346232063122509e+001
1	 1.275212221042108e+000	 2.526537855862646e-001	 1.292684174185393e+001
1	 1.300638377558238e+000	 1.253631304947386e-001	 1.861714555389553e+001
1	 1.299347259150517e+000	 1.381044890799334e-001	 1.797920346872198e+001
1	 1.297926188046585e+000	 1.508767737531886e-001	 1.735234690021734e+001
1	 1.296374045266569e+000	 1.636782173585764e-001	 1.673641333174703e+001
1	 1.294689739461321e+000	 1.765070188095572e-001	 1.613126532254606e+001
1	 1.292872207985603e+000	 1.893613434964411e-001	 1.553679150264033e+001
1	 1.290920417969516e+000	 2.022393237299017e-001	 1.495290754775535e+001
1	 1.288833367386893e+000	 2.151390592208845e-001	 1.437955713160257e+001
1	 1.286610086119343e+000	 2.280586175972063e-001	 1.381671285290137e+001
1	 1.284249637014603e+000	 2.409960349570901e-001	 1.326437713446951e+001
1	 1.281751116937819e+000	 2.539493164598298e-001	 1.272258309169788e+001
1	 1.307273627439228e+000	 1.260026746699954e-001	 1.849341392882400e+001
1	 1.305975922348214e+000	 1.388090337193822e-001	 1.784658001453618e+001
1	 1.304547601602998e+000	 1.516464766272270e-001	 1.721105245245838e+001
1	 1.302987540515192e+000	 1.645132272224049e-001	 1.658669158583115e+001
1	 1.301294642168099e+000	 1.774074752300823e-001	 1.597338138790464e+001
1	 1.299467838495365e+000	 1.903273766812550e-001	 1.537103039528198e+001
1	 1.297506091357872e+000	 2.032710543585255e-001	 1.477957262211919e+001
1	 1.295408393617587e+000	 2.162365982784606e-001	 1.419896845271224e+001
1	 1.293173770207031e+000	 2.292220662108245e-001	 1.362920550997139e+001
1	 1.290801279193031e+000	 2.422254842349390e-001	 1.307029949726138e+001
1	 1.288290012833362e+000	 2.552448473333605e-001	 1.252229501106756e+001
1	 1.313908877320505e+000	 1.266422188451984e-001	 1.837134208167072e+001
1	 1.312604585546162e+000	 1.395135783587231e-001	 1.771597199360765e+001
1	 1.311169015159617e+000	 1.524161795011211e-001	 1.707210201057487e+001
1	 1.309601035763976e+000	 1.653482370860691e-001	 1.643961556286252e+001
1	 1.307899544874992e+000	 1.783079316504358e-001	 1.581841815820349e+001
1	 1.306063469005196e+000	 1.912934098659010e-001	 1.520843825086648e+001
1	 1.304091764746253e+000	 2.043027849869941e-001	 1.460962809259612e+001
1	 1.301983419848268e+000	 2.173341373359000e-001	 1.402196456307991e+001
1	 1.299737454294674e+000	 2.303855148243285e-001	 1.344544997759374e+001
1	 1.297352921371389e+000	 2.434549335126970e-001	 1.288011286945751e+001
1	 1.294828908728823e+000	 2.565403782068224e-001	 1.232600874491571e+001
1	 1.320544127202253e+000	 1.272817630202566e-001	 1.825084133643379e+001
1	 1.319233248744538e+000	 1.402181229978549e-001	 1.758730866580680e+001
1	 1.317790428716616e+000	 1.531858823747659e-001	 1.693544142955103e+001
1	 1.316214531013087e+000	 1.661832469494639e-001	 1.629514637253633e+001
1	 1.314504447582156e+000	 1.792083880705177e-001	 1.566635065885358e+001
1	 1.312659099515241e+000	 1.922594430502873e-001	 1.504900267400465e+001
1	 1.310677438134795e+000	 2.053345156152258e-001	 1.444307281005089e+001
1	 1.308558446079059e+000	 2.184316763931329e-001	 1.384855423155704e+001
1	 1.306301138382382e+000	 2.315489634376604e-001	 1.326546362014381e+001
1	 1.303904563549776e+000	 2.446843827903187e-001	 1.269384189544067e+001
1	 1.301367804624286e+000	 2.578359090801811e-001	 1.213375491021818e+001
1	 1.327179377084656e+000	 1.279213071950790e-001	 1.813182479045722e+001
1	 1.325861911943521e+000	 1.409226676366771e-001	 1.746052070566777e+001
1	 1.324411842274167e+000	 1.539555852480564e-001	 1.680101764716539e+001
1	 1.322828026262688e+000	 1.670182568124853e-001	 1.615324590227803e+001
1	 1.321109350289747e+000	 1.801088444902282e-001	 1.551715441470921e+001
1	 1.319254730025648e+000	 1.932254762343219e-001	 1.489271151719147e+001
1	 1.317263111523635e+000	 2.063662462431386e-001	 1.427990564832938e+001
1	 1.315133472310086e+000	 2.195292154500891e-001	 1.367874605163606e+001
1	 1.312864822470269e+000	 2.327124120507629e-001	 1.308926345474425e+001
1	 1.310456205728293e+000	 2.459138320677585e-001	 1.251151072675471e+001
1	 1.307906700519837e+000	 2.591314399534021e-001	 1.194556351167200e+001
1	 1.242517741558077e+000	 2.461761312191269e-001	 1.400655392178311e+001
1	 1.239960619432395e+000	 2.587482246786292e-001	 1.351202529290480e+001
1	 1.237267964867259e+000	 2.713317418129376e-001	 1.302584804176888e+001
1	 1.234439008086931e+000	 2.839246587499007e-001	 1.254804441109794e+001
1	 1.231473016314503e+000	 2.965249241990277e-001	 1.207866656472799e+001
1	 1.228369294737240e+000	 3.091304602063712e-001	 1.161779734435860e+001
1	 1.225127187456663e+000	 3.217391629455186e-001	 1.116555098878208e+001
1	 1.221746078421927e+000	 3.343489035444824e-001	 1.072207381306945e+001
1	 1.218225392345035e+000	 3.469575289482249e-001	 1.028754484521750e+001
1	 1.214564595596419e+000	 3.595628628164873e-001	 9.862176417793805e+000
1	 1.210763197079440e+000	 3.721627064565229e-001	 9.446214712160174e+000
1	 1.249056637455896e+000	 2.474716620923479e-001	 1.378293423899689e+001
1	 1.246486058173964e+000	 2.601099176737307e-001	 1.328210233288537e+001
1	 1.243779233197095e+000	 2.727596570483445e-001	 1.279000440594065e+001
1	 1.240935388698524e+000	 2.854188456931735e-001	 1.230668104336114e+001
1	 1.237953788045028e+000	 2.980854215225694e-001	 1.183220236557522e+001
1	 1.234833732767343e+000	 3.107572956471091e-001	 1.136666875162379e+001
1	 1.231574563515257e+000	 3.234323531687461e-001	 1.091021152486520e+001
1	 1.228175660995893e+000	 3.361084540120542e-001	 1.046299359853966e+001
1	 1.224636446893741e+000	 3.487834337912915e-001	 1.002521007875816e+001
1	 1.220956384770955e+000	 3.614551047129524e-001	 9.597088822516820e+000
1	 1.217134980946447e+000	 3.741212565134122e-001	 9.178890948381101e+000
1	 1.255595533353124e+000	 2.487671929657066e-001	 1.356311889690888e+001
1	 1.253011496915032e+000	 2.614716106689328e-001	 1.305604055680437e+001
1	 1.250290501526536e+000	 2.741875722838214e-001	 1.255806947571497e+001
1	 1.247431769309838e+000	 2.869130326364903e-001	 1.206926621703875e+001
1	 1.244434559775391e+000	 2.996459188461332e-001	 1.158972040132382e+001
1	 1.241298170797401e+000	 3.123841310878485e-001	 1.111955139154031e+001
1	 1.238021939573915e+000	 3.251255433919548e-001	 1.065890894057364e+001
1	 1.234605243570019e+000	 3.378680044795857e-001	 1.020797379854595e+001
1	 1.231047501442685e+000	 3.506093386342928e-001	 9.766958277603592e+000
1	 1.227348173945781e+000	 3.633473466093230e-001	 9.336106771845245e+000
1	 1.223506764813771e+000	 3.760798065701715e-001	 8.915696230111408e+000
1	 1.262134429249846e+000	 2.500627238391685e-001	 1.334714253344568e+001
1	 1.259536935655672e+000	 2.628333036642103e-001	 1.283387997124562e+001
1	 1.256801769855638e+000	 2.756154875193508e-001	 1.233008730195000e+001
1	 1.253928149920911e+000	 2.884072195798404e-001	 1.183584667609773e+001
1	 1.250915331505615e+000	 3.012064161697133e-001	 1.135126873197359e+001
1	 1.247762608827421e+000	 3.140109665285888e-001	 1.087649323806673e+001
1	 1.244469315632632e+000	 3.268187336151491e-001	 1.041168969770348e+001
1	 1.241034826144292e+000	 3.396275549470866e-001	 9.957057913543775e+000
1	 1.237458555991849e+000	 3.524352434772453e-001	 9.512828509661437e+000
1	 1.233739963120879e+000	 3.652395885056229e-001	 9.079263408968338e+000
1	 1.229878548681392e+000	 3.780383566268333e-001	 8.656656263790774e+000
1	 1.268673325146146e+000	 2.513582547126994e-001	 1.313503907242292e+001
1	 1.266062374395950e+000	 2.641949966595379e-001	 1.261565975799898e+001
1	 1.263313038184454e+000	 2.770434027549149e-001	 1.210610102733128e+001
1	 1.260424530531780e+000	 2.899014065232126e-001	 1.160646820080976e+001
1	 1.257396103235723e+000	 3.027669134933045e-001	 1.111689442669704e+001
1	 1.254227046857416e+000	 3.156378019693298e-001	 1.063754127610805e+001
1	 1.250916691691409e+000	 3.285119238383342e-001	 1.016859930017284e+001
1	 1.247464408718702e+000	 3.413871054145676e-001	 9.710288547163110e+000
1	 1.243869610541214e+000	 3.542611483201652e-001	 9.262859037397352e+000
1	 1.240131752296229e+000	 3.671318304018756e-001	 8.826591193780288e+000
1	 1.236250332549294e+000	 3.799969066834299e-001	 8.401796225883416e+000
1	 1.275212221042108e+000	 2.526537855862646e-001	 1.292684174185393e+001
1	 1.272587813135937e+000	 2.655566896548908e-001	 1.240141829520674e+001
1	 1.269824306513037e+000	 2.784713179904967e-001	 1.188615290965552e+001
1	 1.266920911142484e+000	 2.913955934665959e-001	 1.138117563245889e+001
1	 1.263876874965741e+000	 3.043274108169011e-001	 1.088664358924266e+001
1	 1.260691484887394e+000	 3.172646374100713e-001	 1.040274152687375e+001
1	 1.257364067750244e+000	 3.302051140615146e-001	 9.929682318580332e+000
1	 1.253893991293237e+000	 3.431466558820383e-001	 9.467707429201502e+000
1	 1.250280665090766e+000	 3.560870531630688e-001	 9.017087338485254e+000
1	 1.246523541471813e+000	 3.690240722981045e-001	 8.578121920398724e+000
1	 1.242622116417461e+000	 3.819554567399942e-001	 8.151140776465800e+000
1	 1.281751116937819e+000	 2.539493164598298e-001	 1.272258309169788e+001
1	 1.279113251875702e+000	 2.669183826502437e-001	 1.219119317786280e+001
1	 1.276335574841441e+000	 2.798992332260784e-001	 1.167028434440225e+001
1	 1.273417291753062e+000	 2.928897804099790e-001	 1.116001289729285e+001
1	 1.270357646695690e+000	 3.058879081404976e-001	 1.066056138256053e+001
1	 1.267155922917366e+000	 3.188914728508127e-001	 1.017213907245901e+001
1	 1.263811443809134e+000	 3.318983042846949e-001	 9.694982414011800e+000
1	 1.260323573867888e+000	 3.449062063495089e-001	 9.229355437913524e+000
1	 1.256691719640487e+000	 3.579129580059724e-001	 8.775550125825506e+000
1	 1.252915330647610e+000	 3.709163141943335e-001	 8.333886734147189e+000
1	 1.248993900285875e+000	 3.839140067965583e-001	 7.904714072398525e+000
1	 1.288290012833362e+000	 2.552448473333605e-001	 1.252229501106756e+001
1	 1.285638690615317e+000	 2.682800756455714e-001	 1.198502123768742e+001
1	 1.282846843169720e+000	 2.813271484616426e-001	 1.145853588661774e+001
1	 1.279913672363551e+000	 2.943839673533512e-001	 1.094302302974499e+001
1	 1.276838418425593e+000	 3.074484054640888e-001	 1.043869205267807e+001
1	 1.273620360947340e+000	 3.205183082915538e-001	 9.945778079678004e+000
1	 1.270258819868077e+000	 3.335914945078801e-001	 9.464542361122078e+000
1	 1.266753156442643e+000	 3.466657568169896e-001	 8.995272621621330e+000
1	 1.263102774190359e+000	 3.597388628488922e-001	 8.538283366953412e+000
1	 1.259307119823602e+000	 3.728085560905861e-001	 8.093916148020265e+000
1	 1.255365684154520e+000	 3.858725568531549e-001	 7.662539780096989e+000
1	 1.294828908728823e+000	 2.565403782068224e-001	 1.232600874491571e+001
1	 1.292164129354848e+000	 2.696417686408488e-001	 1.178293856239981e+001
1	 1.289358111497927e+000	 2.827550636971719e-001	 1.125094727213590e+001
1	 1.286410052973988e+000	 2.958781542967013e-001	 1.073024819495252e+001
1	 1.283319190155475e+000	 3.090089027876691e-001	 1.022107895185233e+001
1	 1.280084798977327e+000	 3.221451437322941e-001	 9.723701823174661e+000
1	 1.276706195927072e+000	 3.352846847310744e-001	 9.238404070517399e+000
1	 1.273182739017491e+000	 3.484253072844907e-001	 8.765498219670512e+000
1	 1.269513828740366e+000	 3.615647676918448e-001	 8.305322302859770e+000
1	 1.265698908999770e+000	 3.747007979868861e-001	 7.858240058649881e+000
1	 1.261737468023377e+000	 3.878311069098167e-001	 7.424641087915014e+000
1	 1.301367804624286e+000	 2.578359090801811e-001	 1.213375491021818e+001
1	 1.298689568094366e+000	 2.710034616360509e-001	 1.158498051440996e+001
1	 1.295869379826117e+000	 2.841829789326488e-001	 1.104755743815937e+001
1	 1.292906433584414e+000	 2.973723412400182e-001	 1.052172971059599e+001
1	 1.289799961885357e+000	 3.105694001112327e-001	 1.000776456102429e+001
1	 1.286549237007336e+000	 3.237719791730334e-001	 9.505952707836642e+000
1	 1.283153571986116e+000	 3.369778749542830e-001	 9.016608610462981e+000
1	 1.279612321592421e+000	 3.501848577520221e-001	 8.540070682754076e+000
1	 1.275924883290491e+000	 3.633906725348460e-001	 8.076701466243819e+000
1	 1.272090698176094e+000	 3.765930398832567e-001	 7.626887761790261e+000
1	 1.268109251892432e+000	 3.897896569665759e-001	 7.191040718155308e+000
1	 1.307906700519837e+000	 2.591314399534021e-001	 1.194556351167200e+001
1	 1.305215006833941e+000	 2.723651546311524e-001	 1.139118174894921e+001
1	 1.302380648154344e+000	 2.856108941680557e-001	 1.084840454322339e+001
1	 1.299402814194865e+000	 2.988665281832908e-001	 1.031750806808357e+001
1	 1.296280733615264e+000	 3.121298974347746e-001	 9.798790511599616e+000
1	 1.293013675037378e+000	 3.253988146137714e-001	 9.292572290537223e+000
1	 1.289600948045209e+000	 3.386710651775105e-001	 8.799196227939465e+000
1	 1.286041904167421e+000	 3.519444082195941e-001	 8.319027692626790e+000
1	 1.282335937840718e+000	 3.652165773779125e-001	 7.852454699218893e+000
1	 1.278482487352557e+000	 3.784852817797219e-001	 7.399887967338408e+000
1	 1.274481035761665e+000	 3.917482070234652e-001	 6.961760938719628e+000
1	 1.210763197079440e+000	 3.721627064565229e-001	 9.446214712160174e+000
1	 1.206820748779484e+000	 3.847548396058735e-001	 9.036043442628078e+000
1	 1.202736845682000e+000	 3.973370208620146e-001	 8.628033386530660e+000
1	 1.198511127482119e+000	 4.099069892381354e-001	 8.222468757374569e+000
1	 1.194143279664885e+000	 4.224624654102122e-001	 7.819676563117627e+000
1	 1.189633034254827e+000	 4.350011528162668e-001	 7.420027130981991e+000
1	 1.184980170535832e+000	 4.475207387868736e-001	 7.023934566597487e+000
1	 1.180184515739950e+000	 4.600188957060534e-001	 6.631857145005849e+000
1	 1.175245945703767e+000	 4.724932822016346e-001	 6.244297631165457e+000
1	 1.170164385490992e+000	 4.849415443640924e-001	 5.861803527713621e+000
1	 1.164939809979976e+000	 4.973613169928101e-001	 5.484967247873255e+000
1	 1.217134980946447e+000	 3.741212565134122e-001	 9.178890948381101e+000
1	 1.213171785047885e+000	 3.867796572458214e-001	 8.767033811457420e+000
1	 1.209066389929284e+000	 3.994280537120125e-001	 8.357903889242129e+000
1	 1.204818433389631e+000	 4.120641730264683e-001	 7.951771833392687e+000
1	 1.200427599258805e+000	 4.246857238699562e-001	 7.548949586203817e+000
1	 1.195893618151086e+000	 4.372903975945734e-001	 7.149790907093064e+000
1	 1.191216268188817e+000	 4.498758693602014e-001	 6.754691835908956e+000
1	 1.186395375694846e+000	 4.624397993015102e-001	 6.364091090634205e+000
1	 1.181430815852335e+000	 4.749798337245844e-001	 5.978470397158893e+000
1	 1.176322513330638e+000	 4.874936063321756e-001	 5.598354748912231e+000
1	 1.171070442875903e+000	 4.999787394765238e-001	 5.224312594264125e+000
1	 1.223506764813771e+000	 3.760798065701715e-001	 8.915696230111408e+000
1	 1.219522821316593e+000	 3.888044748855961e-001	 8.502175497875633e+000
1	 1.215395934176838e+000	 4.015190865617895e-001	 8.091943852485391e+000
1	 1.211125739297355e+000	 4.142213568145306e-001	 7.685258148476943e+000
1	 1.206711918852863e+000	 4.269089823293816e-001	 7.282415147623114e+000
1	 1.202154202047399e+000	 4.395796423725173e-001	 6.883752049570970e+000
1	 1.197452365841776e+000	 4.522309999331303e-001	 6.489646961630974e+000
1	 1.192606235649638e+000	 4.648607028965430e-001	 6.100519305323065e+000
1	 1.187615686000735e+000	 4.774663852470990e-001	 5.716830157382359e+000
1	 1.182480641170070e+000	 4.900456682998303e-001	 5.339082523036481e+000
1	 1.177201075771599e+000	 5.025961619598356e-001	 4.967821539483147e+000
1	 1.229878548681392e+000	 3.780383566268333e-001	 8.656656263790774e+000
1	 1.225873857585599e+000	 3.908292925252413e-001	 8.241486786317728e+000
1	 1.221725478424662e+000	 4.036101194114011e-001	 7.830165696877312e+000
1	 1.217433045205305e+000	 4.163785406023902e-001	 7.422935822596778e+000
1	 1.212996238447089e+000	 4.291322407885680e-001	 7.020078633496534e+000
1	 1.208414785943816e+000	 4.418688871501895e-001	 6.621914779736945e+000
1	 1.203688463494770e+000	 4.545861305057600e-001	 6.228804570182818e+000
1	 1.198817095604402e+000	 4.672816064912578e-001	 5.841148389916078e+000
1	 1.193800556149054e+000	 4.799529367692876e-001	 5.459387054419499e+000
1	 1.188638769009385e+000	 4.925977302671635e-001	 5.084002098258758e+000
1	 1.183331708667162e+000	 5.052135844428459e-001	 4.715515996201523e+000
1	 1.236250332549294e+000	 3.799969066834299e-001	 8.401796225883416e+000
1	 1.232224893854889e+000	 3.928541101647999e-001	 7.984985584258869e+000
1	 1.228055022672758e+000	 4.057011522609021e-001	 7.572581586966312e+000
1	 1.223740351113495e+000	 4.185357243901146e-001	 7.164812808317278e+000
1	 1.219280558041513e+000	 4.313554992475949e-001	 6.761945318902957e+000
1	 1.214675369840381e+000	 4.441581319276804e-001	 6.364283231883936e+000
1	 1.209924561147862e+000	 4.569412610781907e-001	 5.972169192603528e+000
1	 1.205027955559215e+000	 4.697025100857605e-001	 5.585984809170727e+000
1	 1.199985426297380e+000	 4.824394882912582e-001	 5.206151021749412e+000
1	 1.194796896848678e+000	 4.951497922342820e-001	 4.833128408387305e+000
1	 1.189462341562692e+000	 5.078310069256553e-001	 4.467417425327452e+000
1	 1.242622116417461e+000	 3.819554567399942e-001	 8.151140776465800e+000
1	 1.238575930124457e+000	 3.948789278043152e-001	 7.732689431879090e+000
1	 1.234384566921126e+000	 4.077921851103480e-001	 7.319203437797333e+000
1	 1.230047657021941e+000	 4.206929081777715e-001	 6.910896895091024e+000
1	 1.225564877636165e+000	 4.335787577065424e-001	 6.508020370725910e+000
1	 1.220935953737142e+000	 4.464473767050806e-001	 6.110861455507903e+000
1	 1.216160658801114e+000	 4.592963916505214e-001	 5.719745266997338e+000
1	 1.211238815514154e+000	 4.721234136801573e-001	 5.335034895247412e+000
1	 1.206170296445803e+000	 4.849260398131203e-001	 4.957131789107516e+000
1	 1.200955024688047e+000	 4.977018542012932e-001	 4.586476080925889e+000
1	 1.195592974458290e+000	 5.104484294083644e-001	 4.223546847588650e+000
1	 1.248993900285875e+000	 3.839140067965583e-001	 7.904714072398525e+000
1	 1.244926966394291e+000	 3.969037454438305e-001	 7.484615511432083e+000
1	 1.240714111169767e+000	 4.098832179597941e-001	 7.070042921276273e+000
1	 1.236354962930655e+000	 4.228500919654281e-001	 6.661195713418823e+000
1	 1.231849197231075e+000	 4.358020161654896e-001	 6.258308850413514e+000
1	 1.227196537634143e+000	 4.487366214824807e-001	 5.861653417470616e+000
1	 1.222396756454587e+000	 4.616515222228523e-001	 5.471537140904196e+000
1	 1.217449675469295e+000	 4.745443172745541e-001	 5.088304851091579e+000
1	 1.212355166594411e+000	 4.874125913349823e-001	 4.712338887682963e+000
1	 1.207113152527589e+000	 5.002539161683046e-001	 4.344059444887180e+000
1	 1.201723607354055e+000	 5.130658518910735e-001	 3.983924854760488e+000
1	 1.255365684154520e+000	 3.858725568531549e-001	 7.662539780096989e+000
1	 1.251278002664382e+000	 3.989285630833892e-001	 7.240780656328669e+000
1	 1.247043655418682e+000	 4.119742508092951e-001	 6.825111472340235e+000
1	 1.242662268839654e+000	 4.250072757531525e-001	 6.415716738883449e+000
1	 1.238133516826273e+000	 4.380252746245166e-001	 6.012815716654036e+000
1	 1.233457121531434e+000	 4.510258662599718e-001	 5.616663004096846e+000
1	 1.228632854108345e+000	 4.640066527952828e-001	 5.227549073598025e+000
1	 1.223660535424715e+000	 4.769652208690567e-001	 4.845800753713140e+000
1	 1.218540036743293e+000	 4.898991428569531e-001	 4.471781655157015e+000
1	 1.213271280367399e+000	 5.028059781354234e-001	 4.105892538367738e+000
1	 1.207854240250086e+000	 5.156832743738828e-001	 3.748571620551968e+000
1	 1.261737468023377e+000	 3.878311069098167e-001	 7.424641087915014e+000
1	 1.257629038934719e+000	 4.009533807230342e-001	 7.001201359945076e+000
1	 1.253373199667872e+000	 4.140652836589066e-001	 6.584420294941022e+000
1	 1.248969574748952e+000	 4.271644595410121e-001	 6.174467296061377e+000
1	 1.244417836421790e+000	 4.402485330837030e-001	 5.771545827970707e+000
1	 1.239717705429057e+000	 4.533151110376436e-001	 5.375894023207796e+000
1	 1.234868951762449e+000	 4.663617833679126e-001	 4.987785238315557e+000
1	 1.229871395380491e+000	 4.793861244637716e-001	 4.607528557366145e+000
1	 1.224724906892536e+000	 4.923856943791414e-001	 4.235469240589354e+000
1	 1.219429408207575e+000	 5.053580401027564e-001	 3.871989115893795e+000
1	 1.213984873146484e+000	 5.183006968568933e-001	 3.517506911161983e+000
1	 1.268109251892432e+000	 3.897896569665759e-001	 7.191040718155308e+000
1	 1.263980075205293e+000	 4.029781983628091e-001	 6.765893784165619e+000
1	 1.259702743917337e+000	 4.161563165086835e-001	 6.347980367848142e+000
1	 1.255276880658563e+000	 4.293216433290745e-001	 5.937454562316389e+000
1	 1.250702156017655e+000	 4.424717915431283e-001	 5.534503945237924e+000
1	 1.245978289327063e+000	 4.556043558155878e-001	 5.139350206093478e+000
1	 1.241105049416963e+000	 4.687169139408416e-001	 4.752249724417672e+000
1	 1.236082255336699e+000	 4.818070280588044e-001	 4.373494096632772e+000
1	 1.230909777042229e+000	 4.948722459016561e-001	 4.003410609156742e+000
1	 1.225587536048212e+000	 5.079101020704109e-001	 3.642362655545356e+000
1	 1.220115506043348e+000	 5.209181193402052e-001	 3.290750095517322e+000
1	 1.274481035761665e+000	 3.917482070234652e-001	 6.961760938719628e+000
1	 1.270331111476093e+000	 4.050030160027568e-001	 6.534873767669170e+000
1	 1.266032288167079e+000	 4.182473493586814e-001	 6.115802450277800e+000
1	 1.261584186568501e+000	 4.314788271174073e-001	 5.704685571479640e+000
1	 1.256986475613899e+000	 4.446950500028725e-001	 5.301694734122484e+000
1	 1.252238873225494e+000	 4.578936005938943e-001	 4.907035209425617e+000
1	 1.247341147071948e+000	 4.710720445141692e-001	 4.520946539486137e+000
1	 1.242293115293416e+000	 4.842279316542610e-001	 4.143703089415094e+000
1	 1.237094647192461e+000	 4.973587974246059e-001	 3.775614546749744e+000
1	 1.231745663889408e+000	 5.104621640384943e-001	 3.417026365866838e+000
1	 1.226246138940778e+000	 5.235355418239187e-001	 3.068320155203481e+000
1	 1.164939809979976e+000	 4.973613169928101e-001	 5.484967247873255e+000
1	 1.159573060379774e+000	 5.097483691623166e-001	 5.101814140097962e+000
1	 1.154063440608705e+000	 5.221021836003701e-001	 4.700079278218401e+000
1	 1.148411078980047e+000	 5.344203706993145e-001	 4.280127273999264e+000
1	 1.142616155560737e+000	 5.467005348259916e-001	 3.842330292989351e+000
1	 1.136678902563766e+000	 5.589402756857403e-001	 3.387068058714225e+000
1	 1.130599604698522e+000	 5.711371897061304e-001	 2.914727853238905e+000
1	 1.124378599478121e+000	 5.832888714389555e-001	 2.425704513898542e+000
1	 1.118016277482770e+000	 5.953929149789649e-001	 1.920400425990031e+000
1	 1.111513082578307e+000	 6.074469153977584e-001	 1.399225511214338e+000
1	 1.104869512089097e+000	 6.194484701912240e-001	 8.625972116578023e-001
1	 1.171070442875903e+000	 4.999787394765238e-001	 5.224312594264127e+000
1	 1.165675450124151e+000	 5.124309799664151e-001	 4.844097783444907e+000
1	 1.160136835330482e+000	 5.248498078073975e-001	 4.445223943924254e+000
1	 1.154454727483430e+000	 5.372328208162187e-001	 4.028106404143473e+000
1	 1.148629307597547e+000	 5.495776107524130e-001	 3.593170716683533e+000
1	 1.142660809107865e+000	 5.618817646894811e-001	 3.140852608299986e+000
1	 1.136549518222081e+000	 5.741428664059041e-001	 2.671597920844123e+000
1	 1.130295774229504e+000	 5.863584977945160e-001	 2.185862542899353e+000
1	 1.123899969765807e+000	 5.985262402887011e-001	 1.684112331974408e+000
1	 1.117362551032718e+000	 6.106436763038349e-001	 1.166823027104156e+000
1	 1.110684017971820e+000	 6.227083906923381e-001	 6.344801517216648e-001
1	 1.177201075771599e+000	 5.025961619598356e-001	 4.967821539483146e+000
1	 1.171777839868310e+000	 5.151135907701613e-001	 4.590550121702655e+000
1	 1.166210230052084e+000	 5.275974320141417e-001	 4.194580522449671e+000
1	 1.160498375986703e+000	 5.400452709329231e-001	 3.780378697912308e+000
1	 1.154642459634335e+000	 5.524546866787284e-001	 3.348423347226805e+000
1	 1.148642715652043e+000	 5.648232536932150e-001	 2.899205806195421e+000
1	 1.142499431745828e+000	 5.771485431057705e-001	 2.433229926630579e+000
1	 1.136212948981187e+000	 5.894281241502639e-001	 1.951011941195419e+000
1	 1.129783662049258e+000	 6.016595655987103e-001	 1.453080313635596e+000
1	 1.123212019487647e+000	 6.138404372102553e-001	 9.399755743238607e-001
1	 1.116498523855155e+000	 6.259683111938493e-001	 4.122501410610101e-001
1	 1.183331708667162e+000	 5.052135844428459e-001	 4.715515996201524e+000
1	 1.177880229612348e+000	 5.177962015736433e-001	 4.341199598252183e+000
1	 1.172283624773600e+000	 5.303450562206736e-001	 3.948182167387647e+000
1	 1.166542024489947e+000	 5.428577210494781e-001	 3.536980199429445e+000
1	 1.160655611671164e+000	 5.553317626049648e-001	 3.108125302065522e+000
1	 1.154624622196344e+000	 5.677647426969438e-001	 2.662164030107027e+000
1	 1.148449345269787e+000	 5.801542198057058e-001	 2.199657701334470e+000
1	 1.142130123733177e+000	 5.924977505061526e-001	 1.721182192852018e+000
1	 1.135667354333106e+000	 6.047928909089242e-001	 1.227327717906950e+000
1	 1.129061487943063e+000	 6.170371981169346e-001	 7.186985831689265e-001
1	 1.122313029739053e+000	 6.292282316956586e-001	 1.959129265048637e-001
1	 1.189462341562692e+000	 5.078310069256553e-001	 4.467417425327451e+000
1	 1.183982619356362e+000	 5.204788123769490e-001	 4.096074070071071e+000
1	 1.178357019495120e+000	 5.330926804270639e-001	 3.706061348819318e+000
1	 1.172585672993239e+000	 5.456701711659333e-001	 3.297946209714230e+000
1	 1.166668763708096e+000	 5.582088385311481e-001	 2.872312933413790e+000
1	 1.160606528740812e+000	 5.707062317006687e-001	 2.429762907759975e+000
1	 1.154399258793986e+000	 5.831598965056877e-001	 1.970914378219986e+000
1	 1.148047298485480e+000	 5.955673768621349e-001	 1.496402174076122e+000
1	 1.141551046617341e+000	 6.079262162192751e-001	 1.006877410389616e+000
1	 1.134910956398930e+000	 6.202339590237861e-001	 5.030071658162272e-001
1	 1.128127535623464e+000	 6.324881521976661e-001	-1.452586359714002e-002
1	 1.195592974458290e+000	 5.104484294083644e-001	 4.223546847588650e+000
1	 1.190085009100449e+000	 5.231614231801667e-001	 3.855200822767960e+000
1	 1.184430414216734e+000	 5.358403046333834e-001	 3.468249870838549e+000
1	 1.178629321496656e+000	 5.484826212823389e-001	 3.063311305733841e+000
1	 1.172681915745194e+000	 5.610859144573051e-001	 2.641021847872742e+000
1	 1.166588435285495e+000	 5.736477207043924e-001	 2.202037336126488e+000
1	 1.160349172318449e+000	 5.861655732056925e-001	 1.747032410962052e+000
1	 1.153964473238100e+000	 5.986370032181640e-001	 1.276700168800686e+000
1	 1.147434738901945e+000	 6.110595415296941e-001	 7.917517876934352e-001
1	 1.140760424855218e+000	 6.234307199307239e-001	 2.929161244801520e-001
1	 1.133942041508339e+000	 6.357480726997732e-001	-2.190607163368813e-001
1	 1.201723607354055e+000	 5.130658518910735e-001	 3.983924854760487e+000
1	 1.196187398844709e+000	 5.258440339833845e-001	 3.618606585156866e+000
1	 1.190503808938531e+000	 5.385879288397029e-001	 3.234778888539805e+000
1	 1.184672970000277e+000	 5.512950713987442e-001	 2.833109358872518e+000
1	 1.178695067782521e+000	 5.639629903834621e-001	 2.414286925449464e+000
1	 1.172570341830435e+000	 5.765892097081160e-001	 1.979021500065518e+000
1	 1.166299085843203e+000	 5.891712499056977e-001	 1.528043590980767e+000
1	 1.159881647991045e+000	 6.017066295741933e-001	 1.062103883792711e+000
1	 1.153318431186906e+000	 6.141928668401130e-001	 5.819727893997380e-001
1	 1.146609893311894e+000	 6.266274808376617e-001	 8.843995931924753e-002
1	 1.139756547393629e+000	 6.390079932018798e-001	-4.176862313029733e-001
1	 1.207854240250086e+000	 5.156832743738828e-001	 3.748571620551968e+000
1	 1.202289788589236e+000	 5.285266447866904e-001	 3.386317543387717e+000
1	 1.196577203660602e+000	 5.413355530460930e-001	 3.005678924488492e+000
1	 1.190716618504179e+000	 5.541075215151995e-001	 2.607373552837674e+000
1	 1.184708219820140e+000	 5.668400663096455e-001	 2.192142337997087e+000
1	 1.178552248375679e+000	 5.795306987118412e-001	 1.760748890395486e+000
1	 1.172248999368273e+000	 5.921769266056794e-001	 1.313979064248691e+000
1	 1.165798822744318e+000	 6.047762559301756e-001	 8.526404633004058e-001
1	 1.159202123472210e+000	 6.173261921504637e-001	 3.775619096602214e-001
1	 1.152459361768924e+000	 6.298242417445134e-001	-1.104071238982623e-001
1	 1.145571053279286e+000	 6.422679137038877e-001	-6.103971177260954e-001
1	 1.213984873146484e+000	 5.183006968568933e-001	 3.517506911161983e+000
1	 1.208392178334129e+000	 5.312092555901723e-001	 3.158359354648729e+000
1	 1.202650598383037e+000	 5.440831772526249e-001	 2.780979884692540e+000
1	 1.196760267008440e+000	 5.569199716317547e-001	 2.386136401024223e+000
1	 1.190721371858112e+000	 5.697171422358817e-001	 1.974621567095376e+000
1	 1.184534154921272e+000	 5.824721877155700e-001	 1.547252321418563e+000
1	 1.178198912893685e+000	 5.951826033056150e-001	 1.104869347588182e+000
1	 1.171715997497927e+000	 6.078458822860643e-001	 6.483365032572941e-001
1	 1.165085815757842e+000	 6.204595174606781e-001	 1.785402084438591e-001
1	 1.158308830226277e+000	 6.330210026511924e-001	-3.036112063608159e-001
1	 1.151385559165260e+000	 6.455278342056968e-001	-7.971881917101135e-001
1	 1.220115506043348e+000	 5.209181193402052e-001	 3.290750095517323e+000
1	 1.214494568079485e+000	 5.338918663939185e-001	 2.934757160455721e+000
1	 1.208723993105924e+000	 5.468308014593692e-001	 2.560711074092319e+000
1	 1.202803915513139e+000	 5.597324217484591e-001	 2.169429763354854e+000
1	 1.196734523896502e+000	 5.725942181621972e-001	 1.761757421393075e+000
1	 1.190516061467258e+000	 5.854136767193038e-001	 1.338563947917229e+000
1	 1.184148826419464e+000	 5.981882800054812e-001	 9.007443444781372e-001
1	 1.177633172251877e+000	 6.109155086418121e-001	 4.492180650574179e-001
1	 1.170969508043789e+000	 6.235928427706871e-001	-1.507167755451003e-002
1	 1.164158298683920e+000	 6.362177635576132e-001	-4.911586490041979e-001
1	 1.157200065051501e+000	 6.487877547072080e-001	-9.780543735469802e-001
1	 1.226246138940778e+000	 5.235355418239187e-001	 3.068320155203480e+000
1	 1.220596957825401e+000	 5.365744771980168e-001	 2.715535599542617e+000
1	 1.214797387829354e+000	 5.495784256663966e-001	 2.344901211585988e+000
1	 1.208847564018351e+000	 5.625448718653632e-001	 1.957284862615516e+000
1	 1.202747675935371e+000	 5.754712940886186e-001	 1.553582053429448e+000
1	 1.196497968013682e+000	 5.883551657230444e-001	 1.134715281640645e+000
1	 1.190098739945637e+000	 6.011939567052549e-001	 7.016333603860609e-001
1	 1.183550347006174e+000	 6.139851349973728e-001	 2.553106889180085e-001
1	 1.176853200330036e+000	 6.267261680804233e-001	-2.032535243335995e-001
1	 1.170007767141820e+000	 6.394145244636895e-001	-6.730360855185076e-001
1	 1.163014570937961e+000	 6.520476752083219e-001	-1.152990685112456e+000
1	 1.104869512089097e+000	 6.194484701912240e-001	 8.625972116578019e-001
1	 1.098085089003007e+000	 6.313969688049652e-001	 3.057583589086123e-001
1	 1.091161405032191e+000	 6.432882130677760e-001	-2.751699589596622e-001
1	 1.084099119641821e+000	 6.551198161888586e-001	-8.786646331541038e-001
1	 1.076898946000012e+000	 6.668893997229497e-001	-1.503167349570972e+000
1	 1.069561650911468e+000	 6.785945950602359e-001	-2.147086600943314e+000
1	 1.062088054702069e+000	 6.902330449192106e-001	-2.808799769912546e+000
1	 1.054479031054074e+000	 7.018024048406095e-001	-3.486655279551198e+000
1	 1.046735506791741e+000	 7.133003446805322e-001	-4.178974807661033e+000
1	 1.038858461617222e+000	 7.247245501008480e-001	-4.884055560974394e+000
1	 1.030848927796671e+000	 7.360727240549706e-001	-5.600172605201023e+000
1	 1.110684017971820e+000	 6.227083906923381e-001	 6.344801517216626e-001
1	 1.103863891060642e+000	 6.347197696866972e-001	 8.247683488376062e-002
1	 1.096903770387911e+000	 6.466735930223382e-001	-4.929880462428734e-001
1	 1.089804318889317e+000	 6.585674613477011e-001	-1.090431248844116e+000
1	 1.082566253486110e+000	 6.703989837006782e-001	-1.708338117963469e+000
1	 1.075190345018397e+000	 6.821657790063734e-001	-2.345164566725902e+000
1	 1.067677418129123e+000	 6.938654775778139e-001	-2.999339120559334e+000
1	 1.060028351098407e+000	 7.054957226177467e-001	-3.669265021940341e+000
1	 1.052244075628034e+000	 7.170541717196199e-001	-4.353322392007121e+000
1	 1.044325576575955e+000	 7.285384983658311e-001	-5.049870445203140e+000
1	 1.036273891640754e+000	 7.399463934213199e-001	-5.757249752946527e+000
1	 1.116498523855155e+000	 6.259683111938493e-001	 4.122501410610116e-001
1	 1.109642693118966e+000	 6.380425705688563e-001	-1.345830613609954e-001
1	 1.102646135744382e+000	 6.500589729773376e-001	-7.042788868176009e-001
1	 1.095509518137610e+000	 6.620151065069738e-001	-1.295396604705854e+000
1	 1.088233560973034e+000	 6.739085676788197e-001	-1.906467817414457e+000
1	 1.080819039126168e+000	 6.857369629528982e-001	-2.535998403377449e+000
1	 1.073266781557023e+000	 6.974979102367745e-001	-3.182470517222555e+000
1	 1.065577671143576e+000	 7.091890403952124e-001	-3.844344643556467e+000
1	 1.057752644465140e+000	 7.208079987590110e-001	-4.520061700756567e+000
1	 1.049792691535468e+000	 7.323524466311011e-001	-5.208045190982417e+000
1	 1.041698855485570e+000	 7.438200627879527e-001	-5.906703392464337e+000
1	 1.122313029739053e+000	 6.292282316956586e-001	 1.959129265048632e-001
1	 1.115421495177916e+000	 6.413653714513357e-001	-3.454257164499189e-001
1	 1.108388501101529e+000	 6.534443529326649e-001	-9.090561152403689e-001
1	 1.101214717386616e+000	 6.654627516665709e-001	-1.493582660989077e+000
1	 1.093900868460696e+000	 6.774181516572718e-001	-2.097585775610077e+000
1	 1.086447733234689e+000	 6.893081468997160e-001	-2.719623812484114e+000
1	 1.078856144985671e+000	 7.011303428960078e-001	-3.358235007354907e+000
1	 1.071126991189482e+000	 7.128823581729308e-001	-4.011939476008982e+000
1	 1.063261213302960e+000	 7.245618257986404e-001	-4.679241255151560e+000
1	 1.055259806495660e+000	 7.361663948966014e-001	-5.358630382748171e+000
1	 1.047123819331021e+000	 7.476937321548193e-001	-6.048585013967360e+000
1	 1.128127535623464e+000	 6.324881521976661e-001	-1.452586359713910e-002
1	 1.121200297237431e+000	 6.446881723340283e-001	-5.500554265699792e-001
1	 1.114130866459280e+000	 6.568297328882105e-001	-1.107333084970037e+000
1	 1.106919916636253e+000	 6.689103968263843e-001	-1.685010925199872e+000
1	 1.099568175949008e+000	 6.809277356359336e-001	-2.281720715601654e+000
1	 1.092076427343866e+000	 6.928793308467319e-001	-2.896075759589972e+000
1	 1.084445508414973e+000	 7.047627755554290e-001	-3.526672792153984e+000
1	 1.076676311236026e+000	 7.165756759508273e-001	-4.172093916328509e+000
1	 1.068769782141392e+000	 7.283156528384416e-001	-4.830908576096439e+000
1	 1.060726921456431e+000	 7.399803431622750e-001	-5.501675562062368e+000
1	 1.052548783177006e+000	 7.515674015218691e-001	-6.182945046120738e+000
1	 1.133942041508339e+000	 6.357480726997732e-001	-2.190607163368789e-001
1	 1.126979099297446e+000	 6.480109732168279e-001	-7.484763997896130e-001
1	 1.119873231817559e+000	 6.602151128438663e-001	-1.299122875575439e+000
1	 1.112625115886439e+000	 6.723580419863071e-001	-1.869702463707885e+000
1	 1.105235483437879e+000	 6.844373196147020e-001	-2.458900771308056e+000
1	 1.097705121453605e+000	 6.964505147938525e-001	-3.065388493068058e+000
1	 1.090034871844829e+000	 7.083952082149518e-001	-3.687823248259179e+000
1	 1.082225631283110e+000	 7.202689937288271e-001	-4.324851450927557e+000
1	 1.074278350980340e+000	 7.320694798783510e-001	-4.975110209804432e+000
1	 1.066194036417681e+000	 7.437942914280661e-001	-5.637229254351054e+000
1	 1.057973747023426e+000	 7.554410708890517e-001	-6.309832883258558e+000
1	 1.139756547393629e+000	 6.390079932018798e-001	-4.176862313029727e-001
1	 1.132757901357898e+000	 6.513337740996277e-001	-9.406927583064114e-001
1	 1.125615597176293e+000	 6.636004927995228e-001	-1.484438299721022e+000
1	 1.118330315137091e+000	 6.758056871462320e-001	-2.047677912998946e+000
1	 1.110902790927220e+000	 6.879469035934759e-001	-2.629153502542740e+000
1	 1.103333815563813e+000	 7.000216987409836e-001	-3.227595562413882e+000
1	 1.095624235275144e+000	 7.120276408744931e-001	-3.841724948784226e+000
1	 1.087774951330634e+000	 7.239623115068550e-001	-4.470254678828311e+000
1	 1.079786919819701e+000	 7.358233069183022e-001	-5.111891752660093e+000
1	 1.071661151379311e+000	 7.476082396939175e-001	-5.765338994823320e+000
1	 1.063398710870180e+000	 7.593147402563173e-001	-6.429296911767189e+000
1	 1.145571053279286e+000	 6.422679137038877e-001	-6.103971177260957e-001
1	 1.138536703418726e+000	 6.546565749823208e-001	-1.126708540626237e+000
1	 1.131357962535409e+000	 6.669858727550705e-001	-1.663291909940967e+000
1	 1.124035514388128e+000	 6.792533323060525e-001	-2.218957490584670e+000
1	 1.116570098416944e+000	 6.914564875721528e-001	-2.792505909583561e+000
1	 1.108962509674396e+000	 7.035928826880307e-001	-3.382729835981516e+000
1	 1.101213598705821e+000	 7.156600735339670e-001	-3.988415683709051e+000
1	 1.093324271378501e+000	 7.276556292848364e-001	-4.608345334183219e+000
1	 1.085295488659378e+000	 7.395771339582308e-001	-5.241297875324018e+000
1	 1.077128266341220e+000	 7.514221879597718e-001	-5.886051353601598e+000
1	 1.068823674717169e+000	 7.631884096236151e-001	-6.541384535665018e+000
1	 1.151385559165260e+000	 6.455278342056968e-001	-7.971881917101141e-001
1	 1.144315505479866e+000	 6.579793758648005e-001	-1.306527703676426e+000
1	 1.137100327894832e+000	 6.703712527104010e-001	-1.835696005207112e+000
1	 1.129740713639465e+000	 6.827009774656603e-001	-2.383561005581653e+000
1	 1.122237405906962e+000	 6.949660715506317e-001	-2.948984447301431e+000
1	 1.114591203785260e+000	 7.071640666348995e-001	-3.530823518182524e+000
1	 1.106802962136764e+000	 7.192925061932889e-001	-4.127932479654413e+000
1	 1.098873591426612e+000	 7.313489470626965e-001	-4.739164308113112e+000
1	 1.090804057499271e+000	 7.433309609980714e-001	-5.363372346107661e+000
1	 1.082595381303308e+000	 7.552361362255734e-001	-5.999411960089718e+000
1	 1.074248638564292e+000	 7.670620789908953e-001	-6.646142201407417e+000
1	 1.157200065051501e+000	 6.487877547072080e-001	-9.780543735469804e-001
1	 1.150094307541256e+000	 6.613021767469599e-001	-1.480154124855248e+000
1	 1.142842693254488e+000	 6.737566326654046e-001	-2.001662637299222e+000
1	 1.135445912891022e+000	 6.861486226249490e-001	-2.541507868971352e+000
1	 1.127904713397183e+000	 6.984756555288100e-001	-3.098615038862270e+000
1	 1.120219897896312e+000	 7.107352505814967e-001	-3.671908166166328e+000
1	 1.112392325567875e+000	 7.229249388523745e-001	-4.260311619059572e+000
1	 1.104422911474868e+000	 7.350422648403597e-001	-4.862751669886595e+000
1	 1.096312626339280e+000	 7.470847880377582e-001	-5.478158053643090e+000
1	 1.088062496265477e+000	 7.590500844912654e-001	-6.105465526607225e+000
1	 1.079673602411449e+000	 7.709357483581074e-001	-6.743615421943994e+000
1	 1.163014570937961e+000	 6.520476752083219e-001	-1.152990685112456e+000
1	 1.155873109602832e+000	 6.646249776286929e-001	-1.647591604019831e+000
1	 1.148585058614304e+000	 6.771420126199730e-001	-2.161203616984391e+000
1	 1.141151112142714e+000	 6.895962677838111e-001	-2.692817103553010e+000
1	 1.133572020887520e+000	 7.019852395065859e-001	-3.241423089018559e+000
1	 1.125848592007459e+000	 7.143064345277265e-001	-3.806014706000283e+000
1	 1.117981688999059e+000	 7.265573715111380e-001	-4.385588658785050e+000
1	 1.109972231523171e+000	 7.387355826177517e-001	-4.979146687464530e+000
1	 1.101821195179304e+000	 7.508386150772266e-001	-5.585697028872972e+000
1	 1.093529611227624e+000	 7.628640327567903e-001	-6.204255871314050e+000
1	 1.085098566258542e+000	 7.748094177252014e-001	-6.833848800053485e+000
1	 1.030848927796671e+000	 7.360727240549706e-001	-5.600172605201023e+000
1	 1.022707989505717e+000	 7.473425880179891e-001	-6.318271345903991e+000
1	 1.014436781551623e+000	 7.585318826949443e-001	-7.030645974649398e+000
1	 1.006036489798570e+000	 7.696383702024040e-001	-7.737609274775102e+000
1	 9.975083509509269e-001	 7.806598357631507e-001	-8.439513268600470e+000
1	 9.888536519949061e-001	 7.915940891414762e-001	-9.136748671458134e+000
1	 9.800737295918565e-001	 8.024389660623850e-001	-9.829744273230039e+000
1	 9.711699694237401e-001	 8.131923296128095e-001	-1.051896624831240e+001
1	 9.621438054914021e-001	 8.238520716229617e-001	-1.120491739512042e+001
1	 9.529967193663581e-001	 8.344161140259776e-001	-1.188813630643013e+001
1	 9.437302393968710e-001	 8.448824101940288e-001	-1.256919647203932e+001
1	 1.036273891640754e+000	 7.399463934213199e-001	-5.757249752946528e+000
1	 1.028090110703659e+000	 7.512755663701751e-001	-6.466695683858744e+000
1	 1.019775374543992e+000	 7.625237460276317e-001	-7.170768820215102e+000
1	 1.011330875266677e+000	 7.736886827331343e-001	-7.869814739610792e+000
1	 1.002757856084381e+000	 7.847681500539400e-001	-8.564218302568953e+000
1	 9.940576107562282e-001	 7.957599462279669e-001	-9.254403049725642e+000
1	 9.852314829779033e-001	 8.066618955904691e-001	-9.940830526042708e+000
1	 9.762808657236762e-001	 8.174718499826220e-001	-1.062399953309038e+001
1	 9.672072005409863e-001	 8.281876901401470e-001	-1.130444531063093e+001
1	 9.580119767982906e-001	 8.388073270601095e-001	-1.198273864892072e+001
1	 9.486967308869592e-001	 8.493287033440607e-001	-1.265948493333460e+001
1	 1.041698855485570e+000	 7.438200627879527e-001	-5.906703392464337e+000
1	 1.033472231902282e+000	 7.552085447226570e-001	-6.607546141372503e+000
1	 1.025113967536979e+000	 7.665156093606413e-001	-7.303381240054752e+000
1	 1.016625260735336e+000	 7.777389952642229e-001	-7.994583598834270e+000
1	 1.008007361218321e+000	 7.888764643451286e-001	-8.681567342213684e+000
1	 9.992615695179733e-001	 7.999258033149022e-001	-9.364785154878680e+000
1	 9.903892363643124e-001	 8.108848251190414e-001	-1.004472755448082e+001
1	 9.813917620239231e-001	 8.217513703529624e-001	-1.072192209234519e+001
1	 9.722705955908413e-001	 8.325233086578918e-001	-1.139693248344418e+001
1	 9.630272342304665e-001	 8.431985400948195e-001	-1.207035766716156e+001
1	 9.536632223772814e-001	 8.537749964946746e-001	-1.274283080056058e+001
1	 1.047123819331021e+000	 7.476937321548193e-001	-6.048585013967360e+000
1	 1.038854353101484e+000	 7.591415230753883e-001	-6.740873946933561e+000
1	 1.030452560530485e+000	 7.705074726939275e-001	-7.428533079657202e+000
1	 1.021919646204449e+000	 7.817893077956220e-001	-8.111963248769383e+000
1	 1.013256866352648e+000	 7.929847786366678e-001	-8.791604324787114e+000
1	 1.004465528280040e+000	 8.040916604022279e-001	-9.467934512550782e+000
1	 9.955469897509849e-001	 8.151077546480426e-001	-1.014146957841476e+001
1	 9.865026583243810e-001	 8.260308907237651e-001	-1.081276200543351e+001
1	 9.773339906408669e-001	 8.368589271761237e-001	-1.148240007797895e+001
1	 9.680424916627864e-001	 8.475897531300306e-001	-1.215100689740964e+001
1	 9.586297138677377e-001	 8.582212896457886e-001	-1.281923933060415e+001
1	 1.052548783177006e+000	 7.515674015218691e-001	-6.182945046120738e+000
1	 1.044236474301167e+000	 7.630745014283223e-001	-6.866729272878636e+000
1	 1.035791153524410e+000	 7.744993360274444e-001	-7.546273156872278e+000
1	 1.027214031673916e+000	 7.858396203272857e-001	-8.222000108593830e+000
1	 1.018506371487263e+000	 7.970930929285075e-001	-8.894372281709632e+000
1	 1.009669487042330e+000	 8.082575174898905e-001	-9.563889833495198e+000
1	 1.000704743137819e+000	 8.193306841774135e-001	-1.023109011222101e+001
1	 9.916135546249502e-001	 8.303104110949647e-001	-1.089654677281407e+001
1	 9.823973856909621e-001	 8.411945456947709e-001	-1.156086882231728e+001
1	 9.730577490951501e-001	 8.519809661656644e-001	-1.222469959685131e+001
1	 9.635962053582278e-001	 8.626675827973180e-001	-1.288871567197294e+001
1	 1.057973747023426e+000	 7.554410708890517e-001	-6.309832883258558e+000
1	 1.049618595501230e+000	 7.670074797814130e-001	-6.985161262470600e+000
1	 1.041129746518654e+000	 7.784911993611470e-001	-7.656649288257934e+000
1	 1.032508417143636e+000	 7.898899328591671e-001	-8.324739645392372e+000
1	 1.023755876622064e+000	 8.012014072205981e-001	-8.989913361793779e+000
1	 1.014873445804742e+000	 8.124233745778354e-001	-9.652689034477820e+000
1	 1.005862496524717e+000	 8.235536137070948e-001	-1.031362198287006e+001
1	 9.967244509255303e-001	 8.345899314664957e-001	-1.097330333088937e+001
1	 9.874607807410282e-001	 8.455301642137624e-001	-1.163235901939225e+001
1	 9.780730065274571e-001	 8.563721792016433e-001	-1.229144875075724e+001
1	 9.685626968486518e-001	 8.671138759491810e-001	-1.295126486757430e+001
1	 1.063398710870180e+000	 7.593147402563173e-001	-6.429296911767188e+000
1	 1.055000716701573e+000	 7.709404581346138e-001	-7.096218056148232e+000
1	 1.046468339513117e+000	 7.824830626949891e-001	-7.759708314620791e+000
1	 1.037802802613509e+000	 7.939402453912196e-001	-8.420226398441669e+000
1	 1.029005381756952e+000	 8.053097215128897e-001	-9.078268853757582e+000
1	 1.020077404567176e+000	 8.165892316660085e-001	-9.734369258529332e+000
1	 1.011020249911577e+000	 8.277765432370262e-001	-1.038909734746044e+001
1	 1.001835347226022e+000	 8.388694518382924e-001	-1.104305806639371e+001
1	 9.925241757909649e-001	 8.498657827330259e-001	-1.169689055783154e+001
1	 9.830882639596080e-001	 8.607633922378900e-001	-1.235126707941831e+001
1	 9.735291883389100e-001	 8.715601691012934e-001	-1.300689185740838e+001
1	 1.068823674717169e+000	 7.631884096236151e-001	-6.541384535665017e+000
1	 1.060382837902096e+000	 7.748734364878774e-001	-7.199946816975715e+000
1	 1.051806932507698e+000	 7.864749260289258e-001	-7.855496125778664e+000
1	 1.043097188083436e+000	 7.979905579233964e-001	-8.508504002756895e+000
1	 1.034254886891827e+000	 8.094180358053328e-001	-9.159479208051810e+000
1	 1.025281363329533e+000	 8.207550887543560e-001	-9.808966894581712e+000
1	 1.016178003298301e+000	 8.319994727671491e-001	-1.045754771021877e+001
1	 1.006946243526324e+000	 8.431489722102895e-001	-1.110583683034264e+001
1	 9.975875708406714e-001	 8.542014012524897e-001	-1.175448292247253e+001
1	 9.881035213915023e-001	 8.651546052743258e-001	-1.240416704487056e+001
1	 9.784956798289021e-001	 8.760064622535720e-001	-1.305560148118015e+001
1	 1.074248638564292e+000	 7.670620789908953e-001	-6.646142201407417e+000
1	 1.065764959102699e+000	 7.788064148411578e-001	-7.296393755321717e+000
1	 1.057145525502298e+000	 7.904667893629110e-001	-7.944057684573535e+000
1	 1.048391573553316e+000	 8.020408704556507e-001	-8.589615211924279e+000
1	 1.039504392026589e+000	 8.135263500978776e-001	-9.233584058026715e+000
1	 1.030485322091712e+000	 8.249209458428238e-001	-9.876517596508512e+000
1	 1.021335756684786e+000	 8.362224022974037e-001	-1.051900393898504e+001
1	 1.012057139826338e+000	 8.474284925824217e-001	-1.116166495155955e+001
1	 1.002650965890049e+000	 8.585370197720823e-001	-1.180515520455753e+001
1	 9.931187788230408e-001	 8.695458183108743e-001	-1.245016085741535e+001
1	 9.834621713185283e-001	 8.804527554059347e-001	-1.309739848083158e+001
1	 1.079673602411449e+000	 7.709357483581074e-001	-6.743615421943993e+000
1	 1.071147080303283e+000	 7.827393931944082e-001	-7.385604152793621e+000
1	 1.062484118496817e+000	 7.944586526969000e-001	-8.025437050159626e+000
1	 1.053685959023049e+000	 8.060911829879361e-001	-8.663601920245167e+000
1	 1.044753897161138e+000	 8.176346643904751e-001	-9.300622240459816e+000
1	 1.035689280853614e+000	 8.290868029313576e-001	-9.937056301592772e+000
1	 1.026493510070935e+000	 8.404453318277302e-001	-1.057349628119986e+001
1	 1.017168036125963e+000	 8.517080129546233e-001	-1.121056724979571e+001
1	 1.007714360938997e+000	 8.628726382917317e-001	-1.184892611162224e+001
1	 9.981340362541230e-001	 8.739370313474563e-001	-1.248926048194452e+001
1	 9.884286628076887e-001	 8.848990485582965e-001	-1.313228750299787e+001
1	 1.085098566258542e+000	 7.748094177252014e-001	-6.833848800053484e+000
1	 1.076529201503747e+000	 7.866723715475821e-001	-7.467622385454934e+000
1	 1.067822711491155e+000	 7.984505160308466e-001	-8.099677400593711e+000
1	 1.058980344492536e+000	 8.101414955202057e-001	-8.730505184216145e+000
1	 1.050003402295374e+000	 8.217429786830747e-001	-9.360631815468381e+000
1	 1.040893239615138e+000	 8.332526600199040e-001	-9.990617248438962e+000
1	 1.031651263456647e+000	 8.446682613580696e-001	-1.062105437941395e+001
1	 1.022278932425099e+000	 8.559875333268288e-001	-1.125256804845446e+001
1	 1.012777755987415e+000	 8.672082568113665e-001	-1.188581397708751e+001
1	 1.003149293684649e+000	 8.783282443839943e-001	-1.252147764407455e+001
1	 9.933951542962829e-001	 8.893453417105752e-001	-1.316027310138962e+001
1	 9.437302393968710e-001	 8.448824101940288e-001	-1.256919647203932e+001
1	 9.343473563375667e-001	 8.552473990597010e-001	-1.324320218722926e+001
1	 9.248483085016389e-001	 8.655106795860112e-001	-1.390497974942515e+001
1	 9.152347594181193e-001	 8.756703089076804e-001	-1.455440772769814e+001
1	 9.055084157349460e-001	 8.857243806682982e-001	-1.519136837655267e+001
1	 8.956710262109042e-001	 8.956710262109041e-001	-1.581574800741244e+001
1	 8.857243806682983e-001	 9.055084157349460e-001	-1.642743735850444e+001
1	 8.756703089076804e-001	 9.152347594181193e-001	-1.702633196228702e+001
1	 8.655106795860115e-001	 9.248483085016390e-001	-1.761233250956614e+001
1	 8.552473990597013e-001	 9.343473563375669e-001	-1.818534520944883e+001
1	 8.448824101940289e-001	 9.437302393968712e-001	-1.874528214428958e+001
1	 9.486967308869592e-001	 8.493287033440607e-001	-1.265948493333460e+001
1	 9.392644693008143e-001	 8.597482391840500e-001	-1.332963006402698e+001
1	 9.297154316072044e-001	 8.700655314325843e-001	-1.398781820562017e+001
1	 9.200512900896849e-001	 8.802786269998228e-001	-1.463392531072335e+001
1	 9.102737603776350e-001	 8.903856094969239e-001	-1.526783043875758e+001
1	 9.003846004328947e-001	 9.003846004328946e-001	-1.588941614351250e+001
1	 8.903856094969240e-001	 9.102737603776351e-001	-1.649856886006610e+001
1	 8.802786269998226e-001	 9.200512900896849e-001	-1.709517929017327e+001
1	 8.700655314325844e-001	 9.297154316072043e-001	-1.767914278522298e+001
1	 8.597482391840496e-001	 9.392644693008142e-001	-1.825035972587149e+001
1	 8.493287033440606e-001	 9.486967308869591e-001	-1.880873589745804e+001
1	 9.536632223772814e-001	 8.537749964946746e-001	-1.274283080056058e+001
1	 9.441815822643049e-001	 8.642490793089671e-001	-1.340913577796068e+001
1	 9.345825547130385e-001	 8.746203832796977e-001	-1.406373517993969e+001
1	 9.248678207615561e-001	 8.848869450924649e-001	-1.470650444024904e+001
1	 9.150391050206755e-001	 8.950468383260026e-001	-1.533732158287884e+001
1	 9.050981746552862e-001	 9.050981746552862e-001	-1.595606762181989e+001
1	 8.950468383260025e-001	 9.150391050206754e-001	-1.656262696104937e+001
1	 8.848869450924650e-001	 9.248678207615562e-001	-1.715688779381153e+001
1	 8.746203832796977e-001	 9.345825547130385e-001	-1.773874250026386e+001
1	 8.642490793089671e-001	 9.441815822643049e-001	-1.830808804255473e+001
1	 8.537749964946746e-001	 9.536632223772812e-001	-1.886482635640540e+001
1	 9.586297138677377e-001	 8.582212896457886e-001	-1.281923933060415e+001
1	 9.490986952279386e-001	 8.687499194343656e-001	-1.348171636321264e+001
1	 9.394496778190408e-001	 8.791752351272595e-001	-1.413272018163073e+001
1	 9.296843514336336e-001	 8.894952631855135e-001	-1.477212776416391e+001
1	 9.198044496639684e-001	 8.997080671554369e-001	-1.539981822420500e+001
1	 9.098117488779829e-001	 9.098117488779827e-001	-1.601567321837121e+001
1	 8.997080671554371e-001	 9.198044496639686e-001	-1.661957735562113e+001
1	 8.894952631855135e-001	 9.296843514336336e-001	-1.721141860639829e+001
1	 8.791752351272593e-001	 9.394496778190407e-001	-1.779108871084696e+001
1	 8.687499194343655e-001	 9.490986952279387e-001	-1.835848358514009e+001
1	 8.582212896457886e-001	 9.586297138677375e-001	-1.891350372496355e+001
1	 9.635962053582278e-001	 8.626675827973180e-001	-1.288871567197294e+001
1	 9.540158081916156e-001	 8.732507595601574e-001	-1.354736891510912e+001
1	 9.443168009251123e-001	 8.837300869751786e-001	-1.419476293622227e+001
1	 9.345008821058185e-001	 8.941035812788736e-001	-1.483077828809552e+001
1	 9.245697943074160e-001	 9.043692959851324e-001	-1.545529726425725e+001
1	 9.145253231008851e-001	 9.145253231008849e-001	-1.606820431169720e+001
1	 9.043692959851323e-001	 9.245697943074160e-001	-1.666938644521365e+001
1	 8.941035812788736e-001	 9.345008821058184e-001	-1.725873366242597e+001
1	 8.837300869751789e-001	 9.443168009251123e-001	-1.783613935848045e+001
1	 8.732507595601573e-001	 9.540158081916156e-001	-1.840150073946870e+001
1	 8.626675827973181e-001	 9.635962053582274e-001	-1.895471923358578e+001
1	 9.685626968486518e-001	 8.671138759491810e-001	-1.295126486757430e+001
1	 9.589329211552358e-001	 8.777515996862553e-001	-1.360609058855296e+001
1	 9.491839240311524e-001	 8.882849388233640e-001	-1.424985337997963e+001
1	 9.393174127780104e-001	 8.987118993724509e-001	-1.488243936623825e+001
1	 9.293351389509182e-001	 9.090305248149910e-001	-1.550373607832414e+001
1	 9.192388973238956e-001	 9.192388973238954e-001	-1.611363286737639e+001
1	 9.090305248149909e-001	 9.293351389509182e-001	-1.671202132039036e+001
1	 8.987118993724508e-001	 9.393174127780105e-001	-1.729879567713929e+001
1	 8.882849388233639e-001	 9.491839240311523e-001	-1.787385324732423e+001
1	 8.777515996862554e-001	 9.589329211552359e-001	-1.843709482696150e+001
1	 8.671138759491809e-001	 9.685626968486518e-001	-1.898842511302532e+001
1	 9.735291883389100e-001	 8.715601691012934e-001	-1.300689185740838e+001
1	 9.638500341186992e-001	 8.822524398125708e-001	-1.365787859650341e+001
1	 9.540510471370610e-001	 8.928397906717235e-001	-1.429798165452943e+001
1	 9.441339434501102e-001	 9.033202174661514e-001	-1.492709469246206e+001
1	 9.341004835943767e-001	 9.136917536449165e-001	-1.554511250337588e+001
1	 9.239524715469168e-001	 9.239524715469170e-001	-1.615193142306068e+001
1	 9.136917536449166e-001	 9.341004835943765e-001	-1.674744974326852e+001
1	 9.033202174661514e-001	 9.441339434501103e-001	-1.733156812661961e+001
1	 8.928397906717234e-001	 9.540510471370609e-001	-1.790419002218486e+001
1	 8.822524398125704e-001	 9.638500341186989e-001	-1.846522208075687e+001
1	 8.715601691012934e-001	 9.735291883389100e-001	-1.901457456882055e+001
1	 9.784956798289021e-001	 8.760064622535720e-001	-1.305560148118015e+001
1	 9.687671470819058e-001	 8.867532799390160e-001	-1.370273020850320e+001
1	 9.589181702427395e-001	 8.973946425201665e-001	-1.433913810164744e+001
1	 9.489504741220182e-001	 9.079285355598812e-001	-1.496472829169266e+001
1	 9.388658282376924e-001	 9.183529824748138e-001	-1.557940482634828e+001
1	 9.286660457698506e-001	 9.286660457698507e-001	-1.618307307395697e+001
1	 9.183529824748138e-001	 9.388658282376924e-001	-1.677564013047621e+001
1	 9.079285355598811e-001	 9.489504741220182e-001	-1.735701522847682e+001
1	 8.973946425201665e-001	 9.589181702427395e-001	-1.792711014718216e+001
1	 8.867532799390161e-001	 9.687671470819059e-001	-1.848583962257085e+001
1	 8.760064622535722e-001	 9.784956798289021e-001	-1.903312175655656e+001
1	 9.834621713185283e-001	 8.804527554059347e-001	-1.309739848083159e+001
1	 9.736842600447556e-001	 8.912541200655042e-001	-1.374064274924957e+001
1	 9.637852933480873e-001	 9.019494943686012e-001	-1.437331325820537e+001
1	 9.537670047936347e-001	 9.125368536535453e-001	-1.499532451155160e+001
1	 9.436311728807664e-001	 9.230142113045854e-001	-1.560659177278072e+001
1	 9.333796199925991e-001	 9.333796199925990e-001	-1.620703145874896e+001
1	 9.230142113045853e-001	 9.436311728807661e-001	-1.679656153662562e+001
1	 9.125368536535454e-001	 9.537670047936350e-001	-1.737510192312499e+001
1	 9.019494943686012e-001	 9.637852933480871e-001	-1.794257488506095e+001
1	 8.912541200655043e-001	 9.736842600447561e-001	-1.849890544026165e+001
1	 8.804527554059345e-001	 9.834621713185284e-001	-1.904402175787602e+001
1	 9.884286628076887e-001	 8.848990485582965e-001	-1.313228750299787e+001
1	 9.786013730071491e-001	 8.957549601919467e-001	-1.377161359720857e+001
1	 9.686524164530039e-001	 9.065043462169358e-001	-1.440049785126889e+001
1	 9.585835354648612e-001	 9.171451717470502e-001	-1.501886801424937e+001
1	 9.483965175234997e-001	 9.276754401341349e-001	-1.562665249579731e+001
1	 9.380931942150645e-001	 9.380931942150644e-001	-1.622378074594329e+001
1	 9.276754401341348e-001	 9.483965175234996e-001	-1.681018363828494e+001
1	 9.171451717470505e-001	 9.585835354648611e-001	-1.738579385562399e+001
1	 9.065043462169357e-001	 9.686524164530038e-001	-1.795054627712733e+001
1	 8.957549601919469e-001	 9.786013730071496e-001	-1.850437836606951e+001
1	 8.848990485582966e-001	 9.884286628076888e-001	-1.904723055721456e+001
1	 9.933951542962829e-001	 8.893453417105752e-001	-1.316027310138962e+001
1	 9.835184859689858e-001	 9.002558003182557e-001	-1.379564018327104e+001
1	 9.735195395573906e-001	 9.110591980650797e-001	-1.442068279334342e+001
1	 9.634000661355969e-001	 9.217534898403010e-001	-1.503534376872186e+001
1	 9.531618621657936e-001	 9.323366689633666e-001	-1.563956656541802e+001
1	 9.428067684371487e-001	 9.428067684371487e-001	-1.623329562062542e+001
1	 9.323366689633666e-001	 9.531618621657936e-001	-1.681647671843096e+001
1	 9.217534898403014e-001	 9.634000661355970e-001	-1.738905735806442e+001
1	 9.110591980650801e-001	 9.735195395573908e-001	-1.795098712378641e+001
1	 9.002558003182558e-001	 9.835184859689861e-001	-1.850221805550848e+001
1	 8.893453417105754e-001	 9.933951542962831e-001	-1.904270501923204e+001
1	 8.448824101940289e-001	 9.437302393968712e-001	-1.874528214428958e+001
1	 8.344161140259777e-001	 9.529967193663582e-001	-1.928484228028266e+001
1	 8.238520716229620e-001	 9.621438054914022e-001	-1.979687965147974e+001
1	 8.131923296128095e-001	 9.711699694237402e-001	-2.028179613058896e+001
1	 8.024389660623853e-001	 9.800737295918567e-001	-2.073999824743185e+001
1	 7.915940891414762e-001	 9.888536519949059e-001	-2.117189712652215e+001
1	 7.806598357631508e-001	 9.975083509509268e-001	-2.157790842698639e+001
1	 7.696383702024038e-001	 1.006036489798570e+000	-2.195845228461654e+001
1	 7.585318826949441e-001	 1.014436781551623e+000	-2.231395325582631e+001
1	 7.473425880179889e-001	 1.022707989505716e+000	-2.264484026328016e+001
1	 7.360727240549704e-001	 1.030848927796671e+000	-2.295154654295132e+001
1	 8.493287033440606e-001	 9.486967308869591e-001	-1.880873589745804e+001
1	 8.388073270601094e-001	 9.580119767982903e-001	-1.934693377138305e+001
1	 8.281876901401469e-001	 9.672072005409864e-001	-1.985781886556197e+001
1	 8.174718499826219e-001	 9.762808657236761e-001	-2.034185849512205e+001
1	 8.066618955904692e-001	 9.852314829779032e-001	-2.079952555430685e+001
1	 7.957599462279668e-001	 9.940576107562282e-001	-2.123129833753131e+001
1	 7.847681500539400e-001	 1.002757856084381e+000	-2.163766036164744e+001
1	 7.736886827331343e-001	 1.011330875266676e+000	-2.201910018946639e+001
1	 7.625237460276317e-001	 1.019775374543992e+000	-2.237611125455815e+001
1	 7.512755663701749e-001	 1.028090110703659e+000	-2.270919168735663e+001
1	 7.399463934213199e-001	 1.036273891640754e+000	-2.301884414257169e+001
1	 8.537749964946746e-001	 9.536632223772812e-001	-1.886482635640540e+001
1	 8.431985400948194e-001	 9.630272342304667e-001	-1.940159345385987e+001
1	 8.325233086578918e-001	 9.722705955908412e-001	-1.991127207591177e+001
1	 8.217513703529624e-001	 9.813917620239232e-001	-2.039439092617391e+001
1	 8.108848251190414e-001	 9.903892363643124e-001	-2.085148515110138e+001
1	 7.999258033149023e-001	 9.992615695179731e-001	-2.128309605144465e+001
1	 7.888764643451287e-001	 1.008007361218321e+000	-2.168977079384841e+001
1	 7.777389952642227e-001	 1.016625260735336e+000	-2.207206212287641e+001
1	 7.665156093606410e-001	 1.025113967536979e+000	-2.243052807372997e+001
1	 7.552085447226569e-001	 1.033472231902282e+000	-2.276573168591368e+001
1	 7.438200627879529e-001	 1.041698855485570e+000	-2.307824071810227e+001
1	 8.582212896457886e-001	 9.586297138677375e-001	-1.891350372496355e+001
1	 8.475897531300307e-001	 9.680424916627867e-001	-1.944876807657782e+001
1	 8.368589271761239e-001	 9.773339906408669e-001	-1.995718176955203e+001
1	 8.260308907237651e-001	 9.865026583243810e-001	-2.043933090533489e+001
1	 8.151077546480426e-001	 9.955469897509850e-001	-2.089580883431446e+001
1	 8.040916604022279e-001	 1.004465528280041e+000	-2.132721576452423e+001
1	 7.929847786366677e-001	 1.013256866352648e+000	-2.173415836949543e+001
1	 7.817893077956223e-001	 1.021919646204450e+000	-2.211724939575529e+001
1	 7.705074726939272e-001	 1.030452560530486e+000	-2.247710727046201e+001
1	 7.591415230753880e-001	 1.038854353101484e+000	-2.281435570965946e+001
1	 7.476937321548192e-001	 1.047123819331021e+000	-2.312962332762091e+001
1	 8.626675827973181e-001	 9.635962053582274e-001	-1.895471923358578e+001
1	 8.519809661656643e-001	 9.730577490951501e-001	-1.948840548625250e+001
1	 8.411945456947708e-001	 9.823973856909618e-001	-1.999549161922092e+001
1	 8.303104110949648e-001	 9.916135546249503e-001	-2.047661720310536e+001
1	 8.193306841774136e-001	 1.000704743137819e+000	-2.093242980656117e+001
1	 8.082575174898905e-001	 1.009669487042330e+000	-2.136358450903667e+001
1	 7.970930929285076e-001	 1.018506371487263e+000	-2.177074341173065e+001
1	 7.858396203272857e-001	 1.027214031673916e+000	-2.215457514746771e+001
1	 7.744993360274443e-001	 1.035791153524410e+000	-2.251575439018725e+001
1	 7.630745014283221e-001	 1.044236474301167e+000	-2.285496136473975e+001
1	 7.515674015218692e-001	 1.052548783177006e+000	-2.317288135766996e+001
1	 8.671138759491809e-001	 9.685626968486518e-001	-1.898842511302532e+001
1	 8.563721792016433e-001	 9.780730065274570e-001	-1.952045459930246e+001
1	 8.455301642137625e-001	 9.874607807410281e-001	-2.002614645297114e+001
1	 8.345899314664957e-001	 9.967244509255303e-001	-2.050618984584842e+001
1	 8.235536137070946e-001	 1.005862496524717e+000	-2.096128264052170e+001
1	 8.124233745778354e-001	 1.014873445804742e+000	-2.139213081387191e+001
1	 8.012014072205979e-001	 1.023755876622064e+000	-2.179944787792858e+001
1	 7.898899328591672e-001	 1.032508417143636e+000	-2.218395429895679e+001
1	 7.784911993611466e-001	 1.041129746518654e+000	-2.254637691567375e+001
1	 7.670074797814130e-001	 1.049618595501230e+000	-2.288744835747622e+001
1	 7.554410708890518e-001	 1.057973747023426e+000	-2.320790646355783e+001
1	 8.715601691012934e-001	 9.735291883389100e-001	-1.901457456882055e+001
1	 8.607633922378900e-001	 9.830882639596080e-001	-1.954486537456431e+001
1	 8.498657827330257e-001	 9.925241757909645e-001	-2.004909222470117e+001
1	 8.388694518382923e-001	 1.001835347226022e+000	-2.052799008375742e+001
1	 8.277765432370263e-001	 1.011020249911578e+000	-2.098230324399426e+001
1	 8.165892316660086e-001	 1.020077404567176e+000	-2.141278466636881e+001
1	 8.053097215128898e-001	 1.029005381756952e+000	-2.182019531801108e+001
1	 7.939402453912194e-001	 1.037802802613509e+000	-2.220530350729896e+001
1	 7.824830626949888e-001	 1.046468339513116e+000	-2.256888421760752e+001
1	 7.709404581346137e-001	 1.055000716701573e+000	-2.291171844079553e+001
1	 7.593147402563171e-001	 1.063398710870180e+000	-2.323459251148787e+001
1	 8.760064622535722e-001	 9.784956798289021e-001	-1.903312175655656e+001
1	 8.651546052743261e-001	 9.881035213915024e-001	-1.956158878683749e+001
1	 8.542014012524900e-001	 9.975875708406715e-001	-2.006427598558293e+001
1	 8.431489722102895e-001	 1.006946243526324e+000	-2.054196035979586e+001
1	 8.319994727671490e-001	 1.016178003298301e+000	-2.099542882601223e+001
1	 8.207550887543560e-001	 1.025281363329533e+000	-2.142547747530172e+001
1	 8.094180358053328e-001	 1.034254886891827e+000	-2.183291083403201e+001
1	 7.979905579233962e-001	 1.043097188083436e+000	-2.221854112164466e+001
1	 7.864749260289256e-001	 1.051806932507698e+000	-2.258318750668077e+001
1	 7.748734364878774e-001	 1.060382837902096e+000	-2.292767536229117e+001
1	 7.631884096236152e-001	 1.068823674717169e+000	-2.325283552245036e+001
1	 8.804527554059345e-001	 9.834621713185284e-001	-1.904402175787602e+001
1	 8.695458183108742e-001	 9.931187788230407e-001	-1.957057680123155e+001
1	 8.585370197720824e-001	 1.002650965890049e+000	-2.007164585635574e+001
1	 8.474284925824215e-001	 1.012057139826338e+000	-2.054804427958100e+001
1	 8.362224022974037e-001	 1.021335756684787e+000	-2.100059786398766e+001
1	 8.249209458428238e-001	 1.030485322091712e+000	-2.143014203498883e+001
1	 8.135263500978778e-001	 1.039504392026589e+000	-2.183752104098539e+001
1	 8.020408704556508e-001	 1.048391573553316e+000	-2.222358714049335e+001
1	 7.904667893629112e-001	 1.057145525502298e+000	-2.258919978713163e+001
1	 7.788064148411577e-001	 1.065764959102699e+000	-2.293522481385616e+001
1	 7.670620789908954e-001	 1.074248638564292e+000	-2.326253361781313e+001
1	 8.848990485582966e-001	 9.884286628076888e-001	-1.904723055721456e+001
1	 8.739370313474562e-001	 9.981340362541229e-001	-1.957178234828649e+001
1	 8.628726382917320e-001	 1.007714360938997e+000	-2.007115100045546e+001
1	 8.517080129546235e-001	 1.017168036125963e+000	-2.054618658217372e+001
1	 8.404453318277300e-001	 1.026493510070935e+000	-2.099775007184626e+001
1	 8.290868029313578e-001	 1.035689280853614e+000	-2.142671249048373e+001
1	 8.176346643904749e-001	 1.044753897161138e+000	-2.183395402879510e+001
1	 8.060911829879359e-001	 1.053685959023049e+000	-2.222036317025660e+001
1	 7.944586526968999e-001	 1.062484118496817e+000	-2.258683581168472e+001
1	 7.827393931944081e-001	 1.071147080303283e+000	-2.293427438283762e+001
1	 7.709357483581073e-001	 1.079673602411449e+000	-2.326358696655421e+001
1	 8.893453417105754e-001	 9.933951542962831e-001	-1.904270501923204e+001
1	 8.783282443839946e-001	 1.003149293684649e+000	-1.956515929983839e+001
1	 8.672082568113666e-001	 1.012777755987415e+000	-2.006274159794934e+001
1	 8.559875333268284e-001	 1.022278932425099e+000	-2.053633311174535e+001
1	 8.446682613580697e-001	 1.031651263456647e+000	-2.098682636911642e+001
1	 8.332526600199038e-001	 1.040893239615138e+000	-2.141512430380962e+001
1	 8.217429786830746e-001	 1.050003402295374e+000	-2.182213932544604e+001
1	 8.101414955202058e-001	 1.058980344492536e+000	-2.220879238506371e+001
1	 7.984505160308463e-001	 1.067822711491155e+000	-2.257601203784244e+001
1	 7.866723715475820e-001	 1.076529201503747e+000	-2.292473350465457e+001
1	 7.748094177252015e-001	 1.085098566258542e+000	-2.325589773407609e+001
1	 7.360727240549704e-001	 1.030848927796671e+000	-2.295154654295132e+001
1	 7.247245501008481e-001	 1.038858461617221e+000	-2.323597712901187e+001
1	 7.133003446805322e-001	 1.046735506791741e+000	-2.349848332874291e+001
1	 7.018024048406094e-001	 1.054479031054074e+000	-2.373714989222817e+001
1	 6.902330449192106e-001	 1.062088054702070e+000	-2.395003674266176e+001
1	 6.785945950602358e-001	 1.069561650911468e+000	-2.413518312343246e+001
1	 6.668893997229497e-001	 1.076898946000012e+000	-2.429061175545272e+001
1	 6.551198161888586e-001	 1.084099119641821e+000	-2.441433299565849e+001
1	 6.432882130677762e-001	 1.091161405032191e+000	-2.450434898768724e+001
1	 6.313969688049654e-001	 1.098085089003007e+000	-2.455865779585969e+001
1	 6.194484701912242e-001	 1.104869512089097e+000	-2.457525751373701e+001
1	 7.399463934213199e-001	 1.036273891640754e+000	-2.301884414257169e+001
1	 7.285384983658308e-001	 1.044325576575955e+000	-2.330678453835465e+001
1	 7.170541717196202e-001	 1.052244075628034e+000	-2.357312102321956e+001
1	 7.054957226177469e-001	 1.060028351098407e+000	-2.381592523661238e+001
1	 6.938654775778140e-001	 1.067677418129124e+000	-2.403324198039848e+001
1	 6.821657790063734e-001	 1.075190345018397e+000	-2.422309344120492e+001
1	 6.703989837006784e-001	 1.082566253486109e+000	-2.438348342570101e+001
1	 6.585674613477011e-001	 1.089804318889317e+000	-2.451240159953662e+001
1	 6.466735930223382e-001	 1.096903770387911e+000	-2.460782772074035e+001
1	 6.347197696866973e-001	 1.103863891060642e+000	-2.466773585849754e+001
1	 6.227083906923382e-001	 1.110684017971820e+000	-2.469009858836274e+001
1	 7.438200627879529e-001	 1.041698855485570e+000	-2.307824071810227e+001
1	 7.323524466311011e-001	 1.049792691535468e+000	-2.336956778833758e+001
1	 7.208079987590111e-001	 1.057752644465140e+000	-2.363957378673488e+001
1	 7.091890403952122e-001	 1.065577671143576e+000	-2.388632822895793e+001
1	 6.974979102367745e-001	 1.073266781557023e+000	-2.410787200902668e+001
1	 6.857369629528982e-001	 1.080819039126168e+000	-2.430222167543567e+001
1	 6.739085676788197e-001	 1.088233560973034e+000	-2.446737372272734e+001
1	 6.620151065069740e-001	 1.095509518137610e+000	-2.460130888907127e+001
1	 6.500589729773375e-001	 1.102646135744382e+000	-2.470199645050467e+001
1	 6.380425705688562e-001	 1.109642693118966e+000	-2.476739850258185e+001
1	 6.259683111938496e-001	 1.116498523855156e+000	-2.479547422032787e+001
1	 7.476937321548192e-001	 1.047123819331021e+000	-2.312962332762091e+001
1	 7.361663948966012e-001	 1.055259806495660e+000	-2.342420709452866e+001
1	 7.245618257986405e-001	 1.063261213302959e+000	-2.369771822085873e+001
1	 7.128823581729309e-001	 1.071126991189482e+000	-2.394823491314587e+001
1	 7.011303428960075e-001	 1.078856144985671e+000	-2.417380519654677e+001
1	 6.893081468997159e-001	 1.086447733234689e+000	-2.437245122344928e+001
1	 6.774181516572720e-001	 1.093900868460696e+000	-2.454217359986091e+001
1	 6.654627516665709e-001	 1.101214717386616e+000	-2.468095572003302e+001
1	 6.534443529326648e-001	 1.108388501101529e+000	-2.478676809984923e+001
1	 6.413653714513354e-001	 1.115421495177917e+000	-2.485757269962144e+001
1	 6.292282316956586e-001	 1.122313029739053e+000	-2.489132722705859e+001
1	 7.515674015218692e-001	 1.052548783177006e+000	-2.317288135766996e+001
1	 7.399803431622750e-001	 1.060726921456431e+000	-2.347058514202861e+001
1	 7.283156528384416e-001	 1.068769782141392e+000	-2.374743347120199e+001
1	 7.165756759508271e-001	 1.076676311236026e+000	-2.400152388859468e+001
1	 7.047627755554287e-001	 1.084445508414972e+000	-2.423092241858286e+001
1	 6.928793308467321e-001	 1.092076427343866e+000	-2.443366788650550e+001
1	 6.809277356359335e-001	 1.099568175949008e+000	-2.460777625858911e+001
1	 6.689103968263844e-001	 1.106919916636253e+000	-2.475124499219631e+001
1	 6.568297328882107e-001	 1.114130866459280e+000	-2.486205738686632e+001
1	 6.446881723340283e-001	 1.121200297237431e+000	-2.493818692671392e+001
1	 6.324881521976661e-001	 1.128127535623464e+000	-2.497760160488356e+001
1	 7.554410708890518e-001	 1.057973747023426e+000	-2.320790646355783e+001
1	 7.437942914280661e-001	 1.066194036417681e+000	-2.350858702215566e+001
1	 7.320694798783510e-001	 1.074278350980339e+000	-2.378860116219063e+001
1	 7.202689937288270e-001	 1.082225631283110e+000	-2.404607624474144e+001
1	 7.083952082149517e-001	 1.090034871844829e+000	-2.427910699408953e+001
1	 6.964505147938526e-001	 1.097705121453605e+000	-2.448575980816727e+001
1	 6.844373196147021e-001	 1.105235483437879e+000	-2.466407709091700e+001
1	 6.723580419863073e-001	 1.112625115886439e+000	-2.481208159693437e+001
1	 6.602151128438665e-001	 1.119873231817559e+000	-2.492778077884369e+001
1	 6.480109732168280e-001	 1.126979099297446e+000	-2.500917112794600e+001
1	 6.357480726997732e-001	 1.133942041508339e+000	-2.505424249880810e+001
1	 7.593147402563171e-001	 1.063398710870180e+000	-2.323459251148787e+001
1	 7.476082396939174e-001	 1.071661151379311e+000	-2.353810017106897e+001
1	 7.358233069183023e-001	 1.079786919819701e+000	-2.382110533383657e+001
1	 7.239623115068550e-001	 1.087774951330634e+000	-2.408177549752598e+001
1	 7.120276408744931e-001	 1.095624235275144e+000	-2.431824462302868e+001
1	 7.000216987409835e-001	 1.103333815563813e+000	-2.452861741455277e+001
1	 6.879469035934759e-001	 1.110902790927220e+000	-2.471097362349279e+001
1	 6.758056871462324e-001	 1.118330315137091e+000	-2.486337236641802e+001
1	 6.636004927995226e-001	 1.125615597176293e+000	-2.498385644764759e+001
1	 6.513337740996277e-001	 1.132757901357899e+000	-2.507045667697280e+001
1	 6.390079932018798e-001	 1.139756547393630e+000	-2.512119617321500e+001
1	 7.631884096236152e-001	 1.068823674717169e+000	-2.325283552245036e+001
1	 7.514221879597717e-001	 1.077128266341220e+000	-2.355901431026004e+001
1	 7.395771339582310e-001	 1.085295488659378e+000	-2.384483238043536e+001
1	 7.276556292848365e-001	 1.093324271378501e+000	-2.410850752781139e+001
1	 7.156600735339670e-001	 1.101213598705821e+000	-2.434822332594446e+001
1	 7.035928826880307e-001	 1.108962509674396e+000	-2.456213335640897e+001
1	 6.914564875721528e-001	 1.116570098416944e+000	-2.474836546343433e+001
1	 6.792533323060526e-001	 1.124035514388128e+000	-2.490502602436224e+001
1	 6.669858727550704e-001	 1.131357962535409e+000	-2.503020422646298e+001
1	 6.546565749823209e-001	 1.138536703418727e+000	-2.512197634073873e+001
1	 6.422679137038875e-001	 1.145571053279286e+000	-2.517840998345601e+001
1	 7.670620789908954e-001	 1.074248638564292e+000	-2.326253361781313e+001
1	 7.552361362255734e-001	 1.082595381303309e+000	-2.357122138884880e+001
1	 7.433309609980717e-001	 1.090804057499271e+000	-2.385967099111935e+001
1	 7.313489470626963e-001	 1.098873591426612e+000	-2.412616052166914e+001
1	 7.192925061932891e-001	 1.106802962136764e+000	-2.436893338536711e+001
1	 7.071640666348995e-001	 1.114591203785260e+000	-2.458620245293892e+001
1	 6.949660715506316e-001	 1.122237405906962e+000	-2.477615424579685e+001
1	 6.827009774656603e-001	 1.129740713639465e+000	-2.493695313826339e+001
1	 6.703712527104010e-001	 1.137100327894832e+000	-2.506674556784578e+001
1	 6.579793758648006e-001	 1.144315505479867e+000	-2.516366424429622e+001
1	 6.455278342056967e-001	 1.151385559165260e+000	-2.522583234830566e+001
1	 7.709357483581073e-001	 1.079673602411449e+000	-2.326358696655421e+001
1	 7.590500844912653e-001	 1.088062496265476e+000	-2.357461552761742e+001
1	 7.470847880377584e-001	 1.096312626339279e+000	-2.386551209220485e+001
1	 7.350422648403597e-001	 1.104422911474868e+000	-2.413462491246524e+001
1	 7.229249388523744e-001	 1.112392325567876e+000	-2.438026728898566e+001
1	 7.107352505814967e-001	 1.120219897896312e+000	-2.460072163732441e+001
1	 6.984756555288101e-001	 1.127904713397183e+000	-2.479424358262524e+001
1	 6.861486226249490e-001	 1.135445912891022e+000	-2.495906607307877e+001
1	 6.737566326654046e-001	 1.142842693254488e+000	-2.509340350303820e+001
1	 6.613021767469600e-001	 1.150094307541256e+000	-2.519545583668640e+001
1	 6.487877547072080e-001	 1.157200065051501e+000	-2.526341272324427e+001
1	 7.748094177252015e-001	 1.085098566258542e+000	-2.325589773407609e+001
1	 7.628640327567904e-001	 1.093529611227624e+000	-2.356909296472519e+001
1	 7.508386150772266e-001	 1.101821195179304e+000	-2.386224879126726e+001
1	 7.387355826177516e-001	 1.109972231523171e+000	-2.413379332468270e+001
1	 7.265573715111381e-001	 1.117981688999059e+000	-2.438211967452407e+001
1	 7.143064345277267e-001	 1.125848592007459e+000	-2.460558990387962e+001
1	 7.019852395065859e-001	 1.133572020887520e+000	-2.480253901353341e+001
1	 6.895962677838112e-001	 1.141151112142714e+000	-2.497127894629378e+001
1	 6.771420126199729e-001	 1.148585058614304e+000	-2.511010260250652e+001
1	 6.646249776286930e-001	 1.155873109602832e+000	-2.521728785784256e+001
1	 6.520476752083220e-001	 1.163014570937961e+000	-2.529110157454258e+001
1	 6.194484701912242e-001	 1.104869512089097e+000	-2.457525751373701e+001
1	 6.074469153977586e-001	 1.111513082578307e+000	-2.456752037400421e+001
1	 5.953929149789650e-001	 1.118016277482769e+000	-2.455006487365084e+001
1	 5.832888714389555e-001	 1.124378599478121e+000	-2.452278988143203e+001
1	 5.711371897061307e-001	 1.130599604698523e+000	-2.448562994703666e+001
1	 5.589402756857406e-001	 1.136678902563766e+000	-2.443855388172209e+001
1	 5.467005348259916e-001	 1.142616155560737e+000	-2.438156330472089e+001
1	 5.344203706993144e-001	 1.148411078980047e+000	-2.431469115930796e+001
1	 5.221021836003700e-001	 1.154063440608706e+000	-2.423800020241250e+001
1	 5.097483691623167e-001	 1.159573060379774e+000	-2.415158147165371e+001
1	 4.973613169928101e-001	 1.164939809979976e+000	-2.405555273365343e+001
1	 6.227083906923382e-001	 1.110684017971820e+000	-2.469009858836275e+001
1	 6.106436763038349e-001	 1.117362551032718e+000	-2.468857578401653e+001
1	 5.985262402887011e-001	 1.123899969765807e+000	-2.467804691758769e+001
1	 5.863584977945159e-001	 1.130295774229504e+000	-2.465834082511060e+001
1	 5.741428664059041e-001	 1.136549518222081e+000	-2.462932105248179e+001
1	 5.618817646894811e-001	 1.142660809107865e+000	-2.459088455652504e+001
1	 5.495776107524130e-001	 1.148629307597547e+000	-2.454296037164997e+001
1	 5.372328208162185e-001	 1.154454727483429e+000	-2.448550824575260e+001
1	 5.248498078073973e-001	 1.160136835330483e+000	-2.441851724901150e+001
1	 5.124309799664153e-001	 1.165675450124152e+000	-2.434200435923077e+001
1	 4.999787394765237e-001	 1.171070442875904e+000	-2.425601302735941e+001
1	 6.259683111938496e-001	 1.116498523855156e+000	-2.479547422032787e+001
1	 6.138404372102554e-001	 1.123212019487647e+000	-2.480017888412290e+001
1	 6.016595655987103e-001	 1.129783662049258e+000	-2.479664843239257e+001
1	 5.894281241502638e-001	 1.136212948981187e+000	-2.478463529682168e+001
1	 5.771485431057702e-001	 1.142499431745827e+000	-2.476392546720251e+001
1	 5.648232536932151e-001	 1.148642715652043e+000	-2.473433732775948e+001
1	 5.524546866787283e-001	 1.154642459634335e+000	-2.469572045896978e+001
1	 5.400452709329230e-001	 1.160498375986704e+000	-2.464795440825427e+001
1	 5.275974320141417e-001	 1.166210230052084e+000	-2.459094743292961e+001
1	 5.151135907701613e-001	 1.171777839868310e+000	-2.452463521881606e+001
1	 5.025961619598355e-001	 1.177201075771599e+000	-2.444897957787232e+001
1	 6.292282316956586e-001	 1.122313029739053e+000	-2.489132722705859e+001
1	 6.170371981169345e-001	 1.129061487943062e+000	-2.490228795008942e+001
1	 6.047928909089244e-001	 1.135667354333106e+000	-2.490584077883178e+001
1	 5.924977505061525e-001	 1.142130123733177e+000	-2.490165547625058e+001
1	 5.801542198057059e-001	 1.148449345269787e+000	-2.488943403238456e+001
1	 5.677647426969439e-001	 1.154624622196344e+000	-2.486890965064383e+001
1	 5.553317626049646e-001	 1.160655611671164e+000	-2.483984569957912e+001
1	 5.428577210494782e-001	 1.166542024489948e+000	-2.480203463319966e+001
1	 5.303450562206735e-001	 1.172283624773600e+000	-2.475529688293467e+001
1	 5.177962015736434e-001	 1.177880229612347e+000	-2.469947972433720e+001
1	 5.052135844428459e-001	 1.183331708667162e+000	-2.463445612162846e+001
1	 6.324881521976661e-001	 1.128127535623464e+000	-2.497760160488356e+001
1	 6.202339590237862e-001	 1.134910956398930e+000	-2.499486211788729e+001
1	 6.079262162192751e-001	 1.141551046617340e+000	-2.500559590811132e+001
1	 5.955673768621347e-001	 1.148047298485480e+000	-2.500938391047401e+001
1	 5.831598965056877e-001	 1.154399258793986e+000	-2.500583777803568e+001
1	 5.707062317006689e-001	 1.160606528740813e+000	-2.499459903286003e+001
1	 5.582088385311482e-001	 1.166668763708096e+000	-2.497533818240285e+001
1	 5.456701711659332e-001	 1.172585672993239e+000	-2.494775380417411e+001
1	 5.330926804270640e-001	 1.178357019495120e+000	-2.491157160144085e+001
1	 5.204788123769490e-001	 1.183982619356362e+000	-2.486654343274613e+001
1	 5.078310069256554e-001	 1.189462341562693e+000	-2.481244631803305e+001
1	 6.357480726997732e-001	 1.133942041508339e+000	-2.505424249880810e+001
1	 6.234307199307241e-001	 1.140760424855218e+000	-2.507786136163955e+001
1	 6.110595415296942e-001	 1.147434738901945e+000	-2.509588634673845e+001
1	 5.986370032181640e-001	 1.153964473238100e+000	-2.510780350454098e+001
1	 5.861655732056927e-001	 1.160349172318449e+000	-2.511312791814504e+001
1	 5.736477207043924e-001	 1.166588435285495e+000	-2.511140303321023e+001
1	 5.610859144573051e-001	 1.172681915745194e+000	-2.510219995352137e+001
1	 5.484826212823386e-001	 1.178629321496656e+000	-2.508511670459761e+001
1	 5.358403046333832e-001	 1.184430414216734e+000	-2.505977746774975e+001
1	 5.231614231801670e-001	 1.190085009100450e+000	-2.502583178701878e+001
1	 5.104484294083644e-001	 1.195592974458290e+000	-2.498295375143505e+001
1	 6.390079932018798e-001	 1.139756547393630e+000	-2.512119617321500e+001
1	 6.266274808376618e-001	 1.146609893311894e+000	-2.515124647224183e+001
1	 6.141928668401129e-001	 1.153318431186906e+000	-2.517668518184764e+001
1	 6.017066295741932e-001	 1.159881647991045e+000	-2.519689751234236e+001
1	 5.891712499056977e-001	 1.166299085843203e+000	-2.521129584598988e+001
1	 5.765892097081161e-001	 1.172570341830435e+000	-2.521931926031115e+001
1	 5.639629903834620e-001	 1.178695067782521e+000	-2.522043301726297e+001
1	 5.512950713987439e-001	 1.184672970000277e+000	-2.521412802027922e+001
1	 5.385879288397028e-001	 1.190503808938531e+000	-2.519992024118941e+001
1	 5.258440339833846e-001	 1.196187398844709e+000	-2.517735011906174e+001
1	 5.130658518910735e-001	 1.201723607354055e+000	-2.514598193304217e+001
1	 6.422679137038875e-001	 1.145571053279286e+000	-2.517840998345601e+001
1	 6.298242417445136e-001	 1.152459361768924e+000	-2.521497903663358e+001
1	 6.173261921504638e-001	 1.159202123472209e+000	-2.524796604697298e+001
1	 6.047762559301755e-001	 1.165798822744318e+000	-2.527664952775718e+001
1	 5.921769266056797e-001	 1.172248999368273e+000	-2.530033312958599e+001
1	 5.795306987118414e-001	 1.178552248375679e+000	-2.531834537133183e+001
1	 5.668400663096455e-001	 1.184708219820140e+000	-2.533003933726325e+001
1	 5.541075215151993e-001	 1.190716618504179e+000	-2.533479234189546e+001
1	 5.413355530460930e-001	 1.196577203660602e+000	-2.533200556416035e+001
1	 5.285266447866905e-001	 1.202289788589236e+000	-2.532110365253174e+001
1	 5.156832743738828e-001	 1.207854240250086e+000	-2.530153430277693e+001
1	 6.455278342056967e-001	 1.151385559165260e+000	-2.522583234830565e+001
1	 6.330210026511927e-001	 1.158308830226277e+000	-2.526902141769894e+001
1	 6.204595174606779e-001	 1.165085815757842e+000	-2.530970310825090e+001
1	 6.078458822860643e-001	 1.171715997497927e+000	-2.534704347606826e+001
1	 5.951826033056150e-001	 1.178198912893685e+000	-2.538023150727564e+001
1	 5.824721877155701e-001	 1.184534154921272e+000	-2.540847907076633e+001
1	 5.697171422358817e-001	 1.190721371858112e+000	-2.543102083749275e+001
1	 5.569199716317543e-001	 1.196760267008440e+000	-2.544711416739178e+001
1	 5.440831772526249e-001	 1.202650598383037e+000	-2.545603896508707e+001
1	 5.312092555901725e-001	 1.208392178334129e+000	-2.545709750556813e+001
1	 5.183006968568933e-001	 1.213984873146484e+000	-2.544961423107649e+001
1	 6.487877547072080e-001	 1.157200065051501e+000	-2.526341272324427e+001
1	 6.362177635576135e-001	 1.164158298683920e+000	-2.531333673477127e+001
1	 6.235928427706872e-001	 1.170969508043789e+000	-2.536187105104014e+001
1	 6.109155086418121e-001	 1.177633172251877e+000	-2.540806360563708e+001
1	 5.981882800054812e-001	 1.184148826419464e+000	-2.545098288344863e+001
1	 5.854136767193040e-001	 1.190516061467257e+000	-2.548971810924629e+001
1	 5.725942181621971e-001	 1.196734523896502e+000	-2.552337940325478e+001
1	 5.597324217484589e-001	 1.202803915513138e+000	-2.555109790431221e+001
1	 5.468308014593691e-001	 1.208723993105924e+000	-2.557202586128226e+001
1	 5.338918663939186e-001	 1.214494568079485e+000	-2.558533669344532e+001
1	 5.209181193402052e-001	 1.220115506043348e+000	-2.559022502063866e+001
1	 6.520476752083220e-001	 1.163014570937961e+000	-2.529110157454257e+001
1	 6.394145244636896e-001	 1.170007767141820e+000	-2.534788884472555e+001
1	 6.267261680804235e-001	 1.176853200330036e+000	-2.540444506694333e+001
1	 6.139851349973728e-001	 1.183550347006173e+000	-2.545969447982681e+001
1	 6.011939567052548e-001	 1.190098739945637e+000	-2.551257932439133e+001
1	 5.883551657230446e-001	 1.196497968013681e+000	-2.556206028238612e+001
1	 5.754712940886185e-001	 1.202747675935370e+000	-2.560711688215015e+001
1	 5.625448718653630e-001	 1.208847564018352e+000	-2.564674787206013e+001
1	 5.495784256663967e-001	 1.214797387829354e+000	-2.567997156172456e+001
1	 5.365744771980170e-001	 1.220596957825402e+000	-2.570582613114325e+001
1	 5.235355418239186e-001	 1.226246138940778e+000	-2.572336990811546e+001
1	 4.973613169928101e-001	 1.164939809979976e+000	-2.405555273365343e+001
1	 4.849415443640922e-001	 1.170164385490992e+000	-2.395682398448498e+001
1	 4.724932822016347e-001	 1.175245945703767e+000	-2.386238753715287e+001
1	 4.600188957060533e-001	 1.180184515739950e+000	-2.377248393208484e+001
1	 4.475207387868734e-001	 1.184980170535832e+000	-2.368738566163766e+001
1	 4.350011528162667e-001	 1.189633034254827e+000	-2.360739452630841e+001
1	 4.224624654102122e-001	 1.194143279664885e+000	-2.353283899479096e+001
1	 4.099069892381355e-001	 1.198511127482119e+000	-2.346407157370360e+001
1	 3.973370208620145e-001	 1.202736845682000e+000	-2.340146619265551e+001
1	 3.847548396058734e-001	 1.206820748779484e+000	-2.334541561014181e+001
1	 3.721627064565229e-001	 1.210763197079439e+000	-2.329632884556594e+001
1	 4.999787394765237e-001	 1.171070442875904e+000	-2.425601302735941e+001
1	 4.874936063321755e-001	 1.176322513330638e+000	-2.416751832778796e+001
1	 4.749798337245845e-001	 1.181430815852335e+000	-2.408362033882534e+001
1	 4.624397993015102e-001	 1.186395375694847e+000	-2.400455386716480e+001
1	 4.498758693602014e-001	 1.191216268188818e+000	-2.393058583893423e+001
1	 4.372903975945733e-001	 1.195893618151085e+000	-2.386201263550883e+001
1	 4.246857238699564e-001	 1.200427599258805e+000	-2.379915743335578e+001
1	 4.120641730264684e-001	 1.204818433389632e+000	-2.374236755378993e+001
1	 3.994280537120125e-001	 1.209066389929284e+000	-2.369201182835115e+001
1	 3.867796572458213e-001	 1.213171785047885e+000	-2.364847798533516e+001
1	 3.741212565134123e-001	 1.217134980946448e+000	-2.361217006281876e+001
1	 5.025961619598355e-001	 1.177201075771599e+000	-2.444897957787232e+001
1	 4.900456682998302e-001	 1.182480641170070e+000	-2.437102098339941e+001
1	 4.774663852470992e-001	 1.187615686000735e+000	-2.429797637381313e+001
1	 4.648607028965427e-001	 1.192606235649638e+000	-2.423008078883121e+001
1	 4.522309999331303e-001	 1.197452365841777e+000	-2.416760161795383e+001
1	 4.395796423725173e-001	 1.202154202047399e+000	-2.411083590400208e+001
1	 4.269089823293816e-001	 1.206711918852863e+000	-2.406010765099921e+001
1	 4.142213568145308e-001	 1.211125739297355e+000	-2.401576514233278e+001
1	 4.015190865617894e-001	 1.215395934176837e+000	-2.397817827498304e+001
1	 3.888044748855962e-001	 1.219522821316593e+000	-2.394773591540798e+001
1	 3.760798065701715e-001	 1.223506764813771e+000	-2.392484328248971e+001
1	 5.052135844428459e-001	 1.183331708667162e+000	-2.463445612162846e+001
1	 4.925977302671635e-001	 1.188638769009385e+000	-2.456733380130086e+001
1	 4.799529367692876e-001	 1.193800556149054e+000	-2.450545704917310e+001
1	 4.672816064912577e-001	 1.198817095604402e+000	-2.444906700630413e+001
1	 4.545861305057600e-001	 1.203688463494771e+000	-2.439843745618085e+001
1	 4.418688871501896e-001	 1.208414785943816e+000	-2.435387208421508e+001
1	 4.291322407885680e-001	 1.212996238447089e+000	-2.431570174200266e+001
1	 4.163785406023902e-001	 1.217433045205305e+000	-2.428428172237705e+001
1	 4.036101194114010e-001	 1.221725478424662e+000	-2.425998905112588e+001
1	 3.908292925252412e-001	 1.225873857585598e+000	-2.424321980104658e+001
1	 3.780383566268333e-001	 1.229878548681392e+000	-2.423438643382690e+001
1	 5.078310069256554e-001	 1.189462341562693e+000	-2.481244631803305e+001
1	 4.951497922342820e-001	 1.194796896848678e+000	-2.475645859333557e+001
1	 4.824394882912584e-001	 1.199985426297380e+000	-2.470606374295511e+001
1	 4.697025100857603e-001	 1.205027955559215e+000	-2.466151478119636e+001
1	 4.569412610781906e-001	 1.209924561147862e+000	-2.462309771920419e+001
1	 4.441581319276803e-001	 1.214675369840381e+000	-2.459112876874869e+001
1	 4.313554992475949e-001	 1.219280558041513e+000	-2.456595155130772e+001
1	 4.185357243901147e-001	 1.223740351113495e+000	-2.454793431859196e+001
1	 4.057011522609020e-001	 1.228055022672757e+000	-2.453746719048498e+001
1	 3.928541101647999e-001	 1.232224893854889e+000	-2.453495941618269e+001
1	 3.799969066834300e-001	 1.236250332549295e+000	-2.454083666411119e+001
1	 5.104484294083644e-001	 1.195592974458290e+000	-2.498295375143505e+001
1	 4.977018542012933e-001	 1.200955024688048e+000	-2.493839713418552e+001
1	 4.849260398131204e-001	 1.206170296445803e+000	-2.489979780494506e+001
1	 4.721234136801572e-001	 1.211238815514154e+000	-2.486742632873474e+001
1	 4.592963916505213e-001	 1.216160658801114e+000	-2.484158668307191e+001
1	 4.464473767050806e-001	 1.220935953737142e+000	-2.482261339447408e+001
1	 4.335787577065425e-001	 1.225564877636165e+000	-2.481086868090759e+001
1	 4.206929081777716e-001	 1.230047657021941e+000	-2.480673960645816e+001
1	 4.077921851103478e-001	 1.234384566921126e+000	-2.481063525432790e+001
1	 3.948789278043151e-001	 1.238575930124457e+000	-2.482298392406181e+001
1	 3.819554567399942e-001	 1.242622116417461e+000	-2.484423035870460e+001
1	 5.130658518910735e-001	 1.201723607354055e+000	-2.514598193304217e+001
1	 5.002539161683045e-001	 1.207113152527589e+000	-2.511315116231962e+001
1	 4.874125913349823e-001	 1.212355166594411e+000	-2.508666055738690e+001
1	 4.745443172745539e-001	 1.217449675469295e+000	-2.506680381894324e+001
1	 4.616515222228522e-001	 1.222396756454587e+000	-2.505390853657562e+001
1	 4.487366214824807e-001	 1.227196537634143e+000	-2.504833324650649e+001
1	 4.358020161654897e-001	 1.231849197231075e+000	-2.505046449604484e+001
1	 4.228500919654282e-001	 1.236354962930655e+000	-2.506071392117511e+001
1	 4.098832179597938e-001	 1.240714111169767e+000	-2.507951534353393e+001
1	 3.969037454438305e-001	 1.244926966394291e+000	-2.510732189282167e+001
1	 3.839140067965583e-001	 1.248993900285875e+000	-2.514460316048499e+001
1	 5.156832743738828e-001	 1.207854240250086e+000	-2.530153430277693e+001
1	 5.028059781354233e-001	 1.213271280367399e+000	-2.528072238091227e+001
1	 4.898991428569532e-001	 1.218540036743292e+000	-2.526665329568042e+001
1	 4.769652208690566e-001	 1.223660535424715e+000	-2.525964937779039e+001
1	 4.640066527952827e-001	 1.228632854108345e+000	-2.526006738346558e+001
1	 4.510258662599716e-001	 1.233457121531433e+000	-2.526829546205526e+001
1	 4.380252746245167e-001	 1.238133516826273e+000	-2.528475013121937e+001
1	 4.250072757531527e-001	 1.242662268839654e+000	-2.530987326629700e+001
1	 4.119742508092950e-001	 1.247043655418682e+000	-2.534412911027929e+001
1	 3.989285630833890e-001	 1.251278002664381e+000	-2.538800131059382e+001
1	 3.858725568531548e-001	 1.255365684154519e+000	-2.544198998868960e+001
1	 5.183006968568933e-001	 1.213984873146484e+000	-2.544961423107649e+001
1	 5.053580401027563e-001	 1.219429408207575e+000	-2.544111245873623e+001
1	 4.923856943791415e-001	 1.224724906892536e+000	-2.543977728906029e+001
1	 4.793861244637714e-001	 1.229871395380491e+000	-2.544596508830077e+001
1	 4.663617833679127e-001	 1.234868951762450e+000	-2.546006724459684e+001
1	 4.533151110376437e-001	 1.239717705429057e+000	-2.548250703415978e+001
1	 4.402485330837031e-001	 1.244417836421790e+000	-2.551373649601537e+001
1	 4.271644595410123e-001	 1.248969574748952e+000	-2.555423332210692e+001
1	 4.140652836589063e-001	 1.253373199667872e+000	-2.560449776936668e+001
1	 4.009533807230341e-001	 1.257629038934719e+000	-2.566504960014956e+001
1	 3.878311069098167e-001	 1.261737468023377e+000	-2.573642505718564e+001
1	 5.209181193402052e-001	 1.220115506043348e+000	-2.559022502063866e+001
1	 5.079101020704109e-001	 1.225587536048212e+000	-2.559432303102483e+001
1	 4.948722459016564e-001	 1.230909777042229e+000	-2.560603378125198e+001
1	 4.818070280588042e-001	 1.236082255336699e+000	-2.562575299163548e+001
1	 4.687169139408416e-001	 1.241105049416963e+000	-2.565391206001290e+001
1	 4.556043558155877e-001	 1.245978289327062e+000	-2.569097481531014e+001
1	 4.424717915431284e-001	 1.250702156017655e+000	-2.573743428075101e+001
1	 4.293216433290747e-001	 1.255276880658563e+000	-2.579380945373735e+001
1	 4.161563165086835e-001	 1.259702743917338e+000	-2.586064210921229e+001
1	 4.029781983628090e-001	 1.263980075205293e+000	-2.593849363310361e+001
1	 3.897896569665759e-001	 1.268109251892432e+000	-2.602794189219284e+001
1	 5.235355418239186e-001	 1.226246138940778e+000	-2.572336990811546e+001
1	 5.104621640384944e-001	 1.231745663889408e+000	-2.574035570031214e+001
1	 4.973587974246062e-001	 1.237094647192462e+000	-2.576542399111166e+001
1	 4.842279316542609e-001	 1.242293115293416e+000	-2.579901508813706e+001
1	 4.710720445141691e-001	 1.247341147071947e+000	-2.584160569096493e+001
1	 4.578936005938943e-001	 1.252238873225494e+000	-2.589370552096131e+001
1	 4.446950500028725e-001	 1.256986475613899e+000	-2.595585396196041e+001
1	 4.314788271174074e-001	 1.261584186568501e+000	-2.602861671904983e+001
1	 4.182473493586813e-001	 1.266032288167079e+000	-2.611258250250605e+001
1	 4.050030160027568e-001	 1.270331111476093e+000	-2.620835974369114e+001
1	 3.917482070234653e-001	 1.274481035761665e+000	-2.631657334947207e+001
1	 3.721627064565229e-001	 1.210763197079439e+000	-2.329632884556594e+001
1	 3.595628628164873e-001	 1.214564595596418e+000	-2.325598505036145e+001
1	 3.469575289482251e-001	 1.218225392345035e+000	-2.322566178096637e+001
1	 3.343489035444823e-001	 1.221746078421927e+000	-2.320503133700936e+001
1	 3.217391629455186e-001	 1.225127187456663e+000	-2.319377167471071e+001
1	 3.091304602063712e-001	 1.228369294737240e+000	-2.319156516309397e+001
1	 2.965249241990276e-001	 1.231473016314503e+000	-2.319809736988046e+001
1	 2.839246587499008e-001	 1.234439008086931e+000	-2.321305587925757e+001
1	 2.713317418129375e-001	 1.237267964867259e+000	-2.323612914356424e+001
1	 2.587482246786292e-001	 1.239960619432395e+000	-2.326700537077964e+001
1	 2.461761312191269e-001	 1.242517741558077e+000	-2.330537144955372e+001
1	 3.741212565134123e-001	 1.217134980946448e+000	-2.361217006281876e+001
1	 3.614551047129524e-001	 1.220956384770954e+000	-2.358479222929344e+001
1	 3.487834337912915e-001	 1.224636446893741e+000	-2.356749812985819e+001
1	 3.361084540120542e-001	 1.228175660995894e+000	-2.355988185226635e+001
1	 3.234323531687461e-001	 1.231574563515257e+000	-2.356154341238648e+001
1	 3.107572956471090e-001	 1.234833732767343e+000	-2.357208761990657e+001
1	 2.980854215225695e-001	 1.237953788045028e+000	-2.359112297088654e+001
1	 2.854188456931736e-001	 1.240935388698524e+000	-2.361826056920366e+001
1	 2.727596570483444e-001	 1.243779233197095e+000	-2.365311307881130e+001
1	 2.601099176737307e-001	 1.246486058173964e+000	-2.369529370857749e+001
1	 2.474716620923479e-001	 1.249056637455896e+000	-2.374441523133755e+001
1	 3.760798065701715e-001	 1.223506764813771e+000	-2.392484328248971e+001
1	 3.633473466093230e-001	 1.227348173945781e+000	-2.391112737889794e+001
1	 3.506093386342929e-001	 1.231047501442685e+000	-2.390760353563464e+001
1	 3.378680044795857e-001	 1.234605243570019e+000	-2.391377540008127e+001
1	 3.251255433919547e-001	 1.238021939573915e+000	-2.392915277124937e+001
1	 3.123841310878484e-001	 1.241298170797400e+000	-2.395325059728557e+001
1	 2.996459188461332e-001	 1.244434559775390e+000	-2.398558799652728e+001
1	 2.869130326364904e-001	 1.247431769309838e+000	-2.402568730400401e+001
1	 2.741875722838213e-001	 1.250290501526536e+000	-2.407307314512605e+001
1	 2.614716106689327e-001	 1.253011496915032e+000	-2.412727153819842e+001
1	 2.487671929657066e-001	 1.255595533353124e+000	-2.418780902724977e+001
1	 3.780383566268333e-001	 1.229878548681392e+000	-2.423438643382690e+001
1	 3.652395885056231e-001	 1.233739963120879e+000	-2.423503504036852e+001
1	 3.524352434772453e-001	 1.237458555991848e+000	-2.424602686659166e+001
1	 3.396275549470866e-001	 1.241034826144292e+000	-2.426676308334380e+001
1	 3.268187336151491e-001	 1.244469315632632e+000	-2.429665118861561e+001
1	 3.140109665285887e-001	 1.247762608827421e+000	-2.433510415895863e+001
1	 3.012064161697134e-001	 1.250915331505614e+000	-2.438153962072864e+001
1	 2.884072195798406e-001	 1.253928149920910e+000	-2.443537904283426e+001
1	 2.756154875193506e-001	 1.256801769855639e+000	-2.449604695255432e+001
1	 2.628333036642103e-001	 1.259536935655672e+000	-2.456297017587936e+001
1	 2.500627238391685e-001	 1.262134429249846e+000	-2.463557710371656e+001
1	 3.799969066834300e-001	 1.236250332549295e+000	-2.454083666411119e+001
1	 3.671318304018756e-001	 1.240131752296229e+000	-2.455655883661621e+001
1	 3.542611483201653e-001	 1.243869610541214e+000	-2.458281598353172e+001
1	 3.413871054145674e-001	 1.247464408718702e+000	-2.461889495138335e+001
1	 3.285119238383341e-001	 1.250916691691410e+000	-2.466408904134464e+001
1	 3.156378019693297e-001	 1.254227046857416e+000	-2.471769733651635e+001
1	 3.027669134933046e-001	 1.257396103235724e+000	-2.477902404485562e+001
1	 2.899014065232127e-001	 1.260424530531780e+000	-2.484737785920325e+001
1	 2.770434027549148e-001	 1.263313038184454e+000	-2.492207133575456e+001
1	 2.641949966595379e-001	 1.266062374395950e+000	-2.500242029222694e+001
1	 2.513582547126994e-001	 1.268673325146146e+000	-2.508774322687467e+001
1	 3.819554567399942e-001	 1.242622116417461e+000	-2.484423035870460e+001
1	 3.690240722981045e-001	 1.246523541471813e+000	-2.487574149581281e+001
1	 3.560870531630689e-001	 1.250280665090766e+000	-2.491801776559687e+001
1	 3.431466558820381e-001	 1.253893991293237e+000	-2.497022002697801e+001
1	 3.302051140615145e-001	 1.257364067750244e+000	-2.503151567302771e+001
1	 3.172646374100713e-001	 1.260691484887395e+000	-2.510107815587284e+001
1	 3.043274108169011e-001	 1.263876874965741e+000	-2.517808652264763e+001
1	 2.913955934665959e-001	 1.266920911142484e+000	-2.526172496365894e+001
1	 2.784713179904966e-001	 1.269824306513037e+000	-2.535118237387794e+001
1	 2.655566896548907e-001	 1.272587813135937e+000	-2.544565192876840e+001
1	 2.526537855862645e-001	 1.275212221042108e+000	-2.554433067539883e+001
1	 3.839140067965583e-001	 1.248993900285875e+000	-2.514460316048499e+001
1	 3.709163141943336e-001	 1.252915330647610e+000	-2.519262487421438e+001
1	 3.579129580059725e-001	 1.256691719640487e+000	-2.525167813530652e+001
1	 3.449062063495089e-001	 1.260323573867889e+000	-2.532078633254141e+001
1	 3.318983042846948e-001	 1.263811443809134e+000	-2.539897942034402e+001
1	 3.188914728508125e-001	 1.267155922917366e+000	-2.548529366291997e+001
1	 3.058879081404977e-001	 1.270357646695690e+000	-2.557877138439012e+001
1	 2.928897804099790e-001	 1.273417291753062e+000	-2.567846072580166e+001
1	 2.798992332260782e-001	 1.276335574841441e+000	-2.578341540983894e+001
1	 2.669183826502436e-001	 1.279113251875703e+000	-2.589269451399967e+001
1	 2.539493164598297e-001	 1.281751116937818e+000	-2.600536225293511e+001
1	 3.858725568531548e-001	 1.255365684154519e+000	-2.544198998868960e+001
1	 3.728085560905861e-001	 1.259307119823602e+000	-2.550724997828745e+001
1	 3.597388628488922e-001	 1.263102774190358e+000	-2.558384208283607e+001
1	 3.466657568169896e-001	 1.266753156442644e+000	-2.567064091550911e+001
1	 3.335914945078799e-001	 1.270258819868077e+000	-2.576652763861513e+001
1	 3.205183082915538e-001	 1.273620360947340e+000	-2.587038994839632e+001
1	 3.074484054640888e-001	 1.276838418425593e+000	-2.598112206035006e+001
1	 2.943839673533513e-001	 1.279913672363551e+000	-2.609762469562404e+001
1	 2.813271484616424e-001	 1.282846843169720e+000	-2.621880506899999e+001
1	 2.682800756455714e-001	 1.285638690615317e+000	-2.634357687894232e+001
1	 2.552448473333605e-001	 1.288290012833362e+000	-2.647086030015638e+001
1	 3.878311069098167e-001	 1.261737468023377e+000	-2.573642505718564e+001
1	 3.747007979868861e-001	 1.265698908999770e+000	-2.581965698616750e+001
1	 3.615647676918447e-001	 1.269513828740366e+000	-2.591455368955795e+001
1	 3.484253072844906e-001	 1.273182739017491e+000	-2.601982987295689e+001
1	 3.352846847310744e-001	 1.276706195927072e+000	-2.613420672658327e+001
1	 3.221451437322941e-001	 1.280084798977327e+000	-2.625641217200670e+001
1	 3.090089027876690e-001	 1.283319190155474e+000	-2.638518110350147e+001
1	 2.958781542967014e-001	 1.286410052973988e+000	-2.651925562420883e+001
1	 2.827550636971718e-001	 1.289358111497928e+000	-2.665738527728960e+001
1	 2.696417686408488e-001	 1.292164129354848e+000	-2.679832727222933e+001
1	 2.565403782068224e-001	 1.294828908728823e+000	-2.694084670645265e+001
1	 3.897896569665759e-001	 1.268109251892432e+000	-2.602794189219284e+001
1	 3.765930398832567e-001	 1.272090698176095e+000	-2.612988526846819e+001
1	 3.633906725348460e-001	 1.275924883290492e+000	-2.624385615087392e+001
1	 3.501848577520221e-001	 1.279612321592420e+000	-2.636839837547774e+001
1	 3.369778749542830e-001	 1.283153571986116e+000	-2.650206215044413e+001
1	 3.237719791730334e-001	 1.286549237007336e+000	-2.664340458581196e+001
1	 3.105694001112328e-001	 1.289799961885357e+000	-2.679099021156570e+001
1	 2.973723412400183e-001	 1.292906433584414e+000	-2.694339148379716e+001
1	 2.841829789326487e-001	 1.295869379826117e+000	-2.709918927877444e+001
1	 2.710034616360508e-001	 1.298689568094366e+000	-2.725697337473719e+001
1	 2.578359090801811e-001	 1.301367804624286e+000	-2.741534292126812e+001
1	 3.917482070234653e-001	 1.274481035761665e+000	-2.631657334947207e+001
1	 3.784852817797219e-001	 1.278482487352557e+000	-2.643797340846867e+001
1	 3.652165773779126e-001	 1.282335937840718e+000	-2.657179179836232e+001
1	 3.519444082195939e-001	 1.286041904167421e+000	-2.671639069033995e+001
1	 3.386710651775104e-001	 1.289600948045209e+000	-2.687013846715775e+001
1	 3.253988146137712e-001	 1.293013675037378e+000	-2.703141055691770e+001
1	 3.121298974347747e-001	 1.296280733615264e+000	-2.719859024839078e+001
1	 2.988665281832910e-001	 1.299402814194865e+000	-2.737006948725983e+001
1	 2.856108941680556e-001	 1.302380648154343e+000	-2.754424965270348e+001
1	 2.723651546311524e-001	 1.305215006833941e+000	-2.771954231377801e+001
1	 2.591314399534020e-001	 1.307906700519837e+000	-2.789436996509920e+001
1	 2.461761312191269e-001	 1.242517741558077e+000	-2.330537144955373e+001
1	 2.336193392906366e-001	 1.244939783937008e+000	-2.335073532039220e+001
1	 2.210779259163265e-001	 1.247227981585924e+000	-2.340277651244683e+001
1	 2.085538248764833e-001	 1.249383209995418e+000	-2.346141608848492e+001
1	 1.960489399594793e-001	 1.251406377632249e+000	-2.352657056961568e+001
1	 1.835651443891883e-001	 1.253298424920236e+000	-2.359815078563982e+001
1	 1.711042802883929e-001	 1.255060323214301e+000	-2.367606077526628e+001
1	 1.586681581779989e-001	 1.256693073768999e+000	-2.376019673724749e+001
1	 1.462585565118158e-001	 1.258197706702826e+000	-2.385044603332030e+001
1	 1.338772212466184e-001	 1.259575279959579e+000	-2.394668624367789e+001
1	 1.215258654471585e-001	 1.260826878268034e+000	-2.404878427554009e+001
1	 2.474716620923479e-001	 1.249056637455896e+000	-2.374441523133755e+001
1	 2.348487885680754e-001	 1.251491426117940e+000	-2.379993162607707e+001
1	 2.222413745294195e-001	 1.253791665676258e+000	-2.386146203468286e+001
1	 2.096513639334077e-001	 1.255958236228826e+000	-2.392884079386508e+001
1	 1.970806705873169e-001	 1.257992051023325e+000	-2.400189913341694e+001
1	 1.845311775730764e-001	 1.259894055432673e+000	-2.408046412220703e+001
1	 1.720047367078512e-001	 1.261665225923674e+000	-2.416435765942141e+001
1	 1.595031680406209e-001	 1.263306569020112e+000	-2.425339551206025e+001
1	 1.470282593845124e-001	 1.264819120261609e+000	-2.434738639954038e+001
1	 1.345817658845979e-001	 1.266203943159526e+000	-2.444613112610799e+001
1	 1.221654096208289e-001	 1.267462128151162e+000	-2.454942176161279e+001
1	 2.487671929657066e-001	 1.255595533353124e+000	-2.418780902724977e+001
1	 2.360782378456962e-001	 1.258043068298206e+000	-2.425407565334994e+001
1	 2.234048231427441e-001	 1.260355349765869e+000	-2.432562866093055e+001
1	 2.107489029906158e-001	 1.262533262461468e+000	-2.440221606106517e+001
1	 1.981124012154900e-001	 1.264577724413606e+000	-2.448358422853493e+001
1	 1.854972107573487e-001	 1.266489685944298e+000	-2.456947694291475e+001
1	 1.729051931277370e-001	 1.268270128632225e+000	-2.465963447025511e+001
1	 1.603381779037054e-001	 1.269920064270398e+000	-2.475379268631839e+001
1	 1.477979622576953e-001	 1.271440533819566e+000	-2.485168224218943e+001
1	 1.352863105230743e-001	 1.272832606358652e+000	-2.495302777293870e+001
1	 1.228049537949910e-001	 1.274097378033473e+000	-2.505754714988376e+001
1	 2.500627238391685e-001	 1.262134429249846e+000	-2.463557710371656e+001
1	 2.373076871234534e-001	 1.264594710477906e+000	-2.471318447164607e+001
1	 2.245682717562427e-001	 1.266919033854871e+000	-2.479528659300830e+001
1	 2.118464420480375e-001	 1.269108288693471e+000	-2.488154554631467e+001
1	 1.991441318439168e-001	 1.271163397803228e+000	-2.497162328020918e+001
1	 1.864632439419134e-001	 1.273085316455257e+000	-2.506518074910870e+001
1	 1.738056495479503e-001	 1.274875031340109e+000	-2.516187708474629e+001
1	 1.611731877671476e-001	 1.276533559520021e+000	-2.526136880453555e+001
1	 1.485676651312594e-001	 1.278061947376870e+000	-2.536330905753890e+001
1	 1.359908551619469e-001	 1.279461269557136e+000	-2.546734690870332e+001
1	 1.234444979695541e-001	 1.280732627915154e+000	-2.557312666189828e+001
1	 2.513582547126994e-001	 1.268673325146146e+000	-2.508774322687467e+001
1	 2.385371364013019e-001	 1.271146352657140e+000	-2.517727479848853e+001
1	 2.257317203698578e-001	 1.273482717943375e+000	-2.527044582240814e+001
1	 2.129439811056030e-001	 1.275683314924959e+000	-2.536683283046297e+001
1	 2.001758624725155e-001	 1.277749071192331e+000	-2.546601376675995e+001
1	 1.874292771266784e-001	 1.279680946965695e+000	-2.556756721734491e+001
1	 1.747061059683913e-001	 1.281479934047481e+000	-2.567107167103964e+001
1	 1.620081976308431e-001	 1.283147054769148e+000	-2.577610481232683e+001
1	 1.493373680050998e-001	 1.284683360933694e+000	-2.588224284703825e+001
1	 1.366953998011148e-001	 1.286089932755156e+000	-2.598905986148997e+001
1	 1.240840421444269e-001	 1.287367877796385e+000	-2.609612721559320e+001
1	 2.526537855862645e-001	 1.275212221042108e+000	-2.554433067539883e+001
1	 2.397665856791959e-001	 1.277697994836005e+000	-2.564636300850976e+001
1	 2.268951689835315e-001	 1.280046402031495e+000	-2.575111613568761e+001
1	 2.140415201632420e-001	 1.282258341156058e+000	-2.585808142091261e+001
1	 2.012075931012044e-001	 1.284334744581047e+000	-2.596675321822789e+001
1	 1.883953103115516e-001	 1.286276577475762e+000	-2.607662819489862e+001
1	 1.756065623889603e-001	 1.288084836754500e+000	-2.618720468098037e+001
1	 1.628432074946875e-001	 1.289760550017942e+000	-2.629798204612611e+001
1	 1.501070708791112e-001	 1.291304774490208e+000	-2.640846010436456e+001
1	 1.373999444404772e-001	 1.292718595952890e+000	-2.651813854746809e+001
1	 1.247235863195188e-001	 1.294003127677352e+000	-2.662651640744128e+001
1	 2.539493164598297e-001	 1.281751116937818e+000	-2.600536225293511e+001
1	 2.409960349570902e-001	 1.284249637014603e+000	-2.612046514219896e+001
1	 2.280586175972063e-001	 1.286610086119343e+000	-2.623730711969742e+001
1	 2.151390592208846e-001	 1.288833367386893e+000	-2.635529475349210e+001
1	 2.022393237299016e-001	 1.290920417969516e+000	-2.647383921505444e+001
1	 1.893613434964411e-001	 1.292872207985603e+000	-2.659235569540922e+001
1	 1.765070188095572e-001	 1.294689739461321e+000	-2.671026284287676e+001
1	 1.636782173585763e-001	 1.296374045266569e+000	-2.682698222321652e+001
1	 1.508767737531887e-001	 1.297926188046585e+000	-2.694193780286590e+001
1	 1.381044890799333e-001	 1.299347259150517e+000	-2.705455545588702e+001
1	 1.253631304947386e-001	 1.300638377558239e+000	-2.716426249514444e+001
1	 2.552448473333605e-001	 1.288290012833362e+000	-2.647086030015638e+001
1	 2.422254842349390e-001	 1.290801279193031e+000	-2.659959691438115e+001
1	 2.292220662108245e-001	 1.293173770207031e+000	-2.672902816665000e+001
1	 2.162365982784606e-001	 1.295408393617587e+000	-2.685847619427239e+001
1	 2.032710543585254e-001	 1.297506091357872e+000	-2.698726938680323e+001
1	 1.903273766812550e-001	 1.299467838495365e+000	-2.711474189465749e+001
1	 1.774074752300824e-001	 1.301294642168099e+000	-2.724023315448569e+001
1	 1.645132272224049e-001	 1.302987540515192e+000	-2.736308743206571e+001
1	 1.516464766272271e-001	 1.304547601602997e+000	-2.748265338338860e+001
1	 1.388090337193821e-001	 1.305975922348215e+000	-2.759828363453378e+001
1	 1.260026746699955e-001	 1.307273627439228e+000	-2.770933438085253e+001
1	 2.565403782068224e-001	 1.294828908728823e+000	-2.694084670645265e+001
1	 2.434549335126970e-001	 1.297352921371389e+000	-2.708377372244043e+001
1	 2.303855148243285e-001	 1.299737454294674e+000	-2.722628847903318e+001
1	 2.173341373359000e-001	 1.301983419848267e+000	-2.736762904132927e+001
1	 2.043027849869940e-001	 1.304091764746253e+000	-2.750704141091918e+001
1	 1.912934098659010e-001	 1.306063469005196e+000	-2.764377912647336e+001
1	 1.783079316504359e-001	 1.307899544874993e+000	-2.777710287620762e+001
1	 1.653482370860691e-001	 1.309601035763976e+000	-2.790628012295219e+001
1	 1.524161795011212e-001	 1.311169015159617e+000	-2.803058474247245e+001
1	 1.395135783587230e-001	 1.312604585546162e+000	-2.814929667562830e+001
1	 1.266422188451985e-001	 1.313908877320505e+000	-2.826170159489057e+001
1	 2.578359090801811e-001	 1.301367804624286e+000	-2.741534292126812e+001
1	 2.446843827903188e-001	 1.303904563549777e+000	-2.757301065429514e+001
1	 2.315489634376604e-001	 1.306301138382382e+000	-2.772909707437755e+001
1	 2.184316763931329e-001	 1.308558446079059e+000	-2.788275652644974e+001
1	 2.053345156152256e-001	 1.310677438134795e+000	-2.803315301152526e+001
1	 1.922594430502873e-001	 1.312659099515241e+000	-2.817945987876199e+001
1	 1.792083880705178e-001	 1.314504447582156e+000	-2.832085952448808e+001
1	 1.661832469494639e-001	 1.316214531013087e+000	-2.845654309887723e+001
1	 1.531858823747661e-001	 1.317790428716616e+000	-2.858571022090304e+001
1	 1.402181229978549e-001	 1.319233248744538e+000	-2.870756870214614e+001
1	 1.272817630202567e-001	 1.320544127202253e+000	-2.882133427997745e+001
1	 2.591314399534020e-001	 1.307906700519837e+000	-2.789436996509920e+001
1	 2.459138320677586e-001	 1.310456205728292e+000	-2.806732249613309e+001
1	 2.327124120507628e-001	 1.312864822470269e+000	-2.823746278987874e+001
1	 2.195292154500892e-001	 1.315133472310086e+000	-2.840386181679021e+001
1	 2.063662462431385e-001	 1.317263111523635e+000	-2.856560195825646e+001
1	 1.932254762343219e-001	 1.319254730025648e+000	-2.872177678965578e+001
1	 1.801088444902284e-001	 1.321109350289747e+000	-2.887149086541824e+001
1	 1.670182568124852e-001	 1.322828026262688e+000	-2.901385950674604e+001
1	 1.539555852480564e-001	 1.324411842274167e+000	-2.914800859260507e+001
1	 1.409226676366770e-001	 1.325861911943520e+000	-2.927307435455158e+001
1	 1.279213071950790e-001	 1.327179377084656e+000	-2.938820317591808e+001
1	 1.215258654471585e-001	 1.260826878268034e+000	-2.404878427554009e+001
1	 1.092043275309017e-001	 1.261953771859433e+000	-2.415622795711473e+001
1	 9.691613082677979e-002	 1.262956899461820e+000	-2.426910926124285e+001
1	 8.466291317473867e-002	 1.263837420728680e+000	-2.438821920655181e+001
1	 7.244627749879956e-002	 1.264596517971808e+000	-2.451431978276046e+001
1	 6.026779158439477e-002	 1.265235395119248e+000	-2.464814247861687e+001
1	 4.812898788860080e-002	 1.265755276678738e+000	-2.479038690986461e+001
1	 3.603136338263674e-002	 1.266157406707675e+000	-2.494171954673943e+001
1	 2.397637942596927e-002	 1.266443047790582e+000	-2.510277254028984e+001
1	 1.196546167133989e-002	 1.266613480024992e+000	-2.527414264661055e+001
1	 0.000000000000000e+000	 1.266670000016666e+000	-2.545639024789245e+001
1	 1.221654096208289e-001	 1.267462128151162e+000	-2.454942176161279e+001
1	 1.097790281603268e-001	 1.268594952152505e+000	-2.465667027909690e+001
1	 9.742616337399165e-002	 1.269603358831772e+000	-2.476790966205740e+001
1	 8.510846172113702e-002	 1.270488513945260e+000	-2.488388423949100e+001
1	 7.282753456140229e-002	 1.271251606026819e+000	-2.500531083110452e+001
1	 6.058495793091617e-002	 1.271893845340308e+000	-2.513287729980731e+001
1	 4.838227235153152e-002	 1.272416462837583e+000	-2.526724120151464e+001
1	 3.622098267249440e-002	 1.272820709123038e+000	-2.540902853180008e+001
1	 2.410255794388693e-002	 1.273107853425699e+000	-2.555883256873963e+001
1	 1.202843132115448e-002	 1.273279182579763e+000	-2.571721281108436e+001
1	 0.000000000000000e+000	 1.273336000014533e+000	-2.588469401071923e+001
1	 1.228049537949910e-001	 1.274097378033473e+000	-2.505754714988376e+001
1	 1.103537287902211e-001	 1.275236132444767e+000	-2.516457580359744e+001
1	 9.793619592163512e-002	 1.276249818200917e+000	-2.527408807964215e+001
1	 8.555401026791810e-002	 1.277139607161034e+000	-2.538678388067404e+001
1	 7.320879162433072e-002	 1.277906694081026e+000	-2.550333716963494e+001
1	 6.090212427770172e-002	 1.278552295560567e+000	-2.562439454269446e+001
1	 4.863555681466335e-002	 1.279077648995626e+000	-2.575057389682973e+001
1	 3.641060196249207e-002	 1.279484011537602e+000	-2.588246319163688e+001
1	 2.422873646188863e-002	 1.279772659060017e+000	-2.602061930475621e+001
1	 1.209140097100540e-002	 1.279944885133735e+000	-2.616556698011128e+001
1	 0.000000000000000e+000	 1.280002000011600e+000	-2.631779786796857e+001
1	 1.234444979695541e-001	 1.280732627915154e+000	-2.557312666189828e+001
1	 1.109284294205094e-001	 1.281877312736405e+000	-2.567990684898332e+001
1	 9.844622846965527e-002	 1.282896277569445e+000	-2.578760384422482e+001
1	 8.599955881504889e-002	 1.283790700376198e+000	-2.589687535358920e+001
1	 7.359004868757393e-002	 1.284561782134628e+000	-2.600835476268023e+001
1	 6.121929062475998e-002	 1.285210745780222e+000	-2.612264972605334e+001
1	 4.888884127802014e-002	 1.285738835153067e+000	-2.624034084855298e+001
1	 3.660022125266242e-002	 1.286147313951564e+000	-2.636198045830916e+001
1	 2.435491498000729e-002	 1.286437464693734e+000	-2.648809147083808e+001
1	 1.215437062091535e-002	 1.286610587687107e+000	-2.661916634349991e+001
1	 0.000000000000000e+000	 1.286668000008066e+000	-2.675566611938821e+001
1	 1.240840421444269e-001	 1.287367877796385e+000	-2.609612721559320e+001
1	 1.115031300511167e-001	 1.288518493027609e+000	-2.620262651048207e+001
1	 9.895626101799694e-002	 1.289542736937548e+000	-2.630841712449839e+001
1	 8.644510736249651e-002	 1.290441793590945e+000	-2.641411676362462e+001
1	 7.397130575112079e-002	 1.291216870187819e+000	-2.652032048242687e+001
1	 6.153645697209958e-002	 1.291869195999470e+000	-2.662759928570412e+001
1	 4.914212574162582e-002	 1.292400021310106e+000	-2.673649881958712e+001
1	 3.678984054303811e-002	 1.292810616365125e+000	-2.684753815178448e+001
1	 2.448109349827586e-002	 1.293102270327051e+000	-2.696120864047819e+001
1	 1.221734027090705e-002	 1.293276290240078e+000	-2.707797289118729e+001
1	 0.000000000000000e+000	 1.293334000004133e+000	-2.719826380073889e+001
1	 1.247235863195188e-001	 1.294003127677352e+000	-2.662651640744128e+001
1	 1.120778306819679e-001	 1.295159673318565e+000	-2.673269864026411e+001
1	 9.946629356660514e-002	 1.296189196305419e+000	-2.683648890612500e+001
1	 8.689065591022796e-002	 1.297092886805471e+000	-2.693846707545644e+001
1	 7.435256281496031e-002	 1.297871958240795e+000	-2.703919208564406e+001
1	 6.185362331972916e-002	 1.298527646218511e+000	-2.713920055099908e+001
1	 4.939541020550421e-002	 1.299061207466941e+000	-2.723900545965870e+001
1	 3.697945983365180e-002	 1.299473918778485e+000	-2.733909495717264e+001
1	 2.460727201672730e-002	 1.299767075960167e+000	-2.743993121634654e+001
1	 1.228030992100320e-002	 1.299941992792850e+000	-2.754194939272415e+001
1	 0.000000000000000e+000	 1.300000000000000e+000	-2.764555666492351e+001
1	 1.253631304947386e-001	 1.300638377558239e+000	-2.716426249514444e+001
1	 1.126525313129878e-001	 1.301800853609463e+000	-2.727008782813583e+001
1	 9.997632611542487e-002	 1.302835655673249e+000	-2.737178097089593e+001
1	 8.733620445821029e-002	 1.303743980019968e+000	-2.746988609113110e+001
1	 7.473381987908148e-002	 1.304527046293756e+000	-2.756492819111984e+001
1	 6.217078966765732e-002	 1.305186096437542e+000	-2.765741172203164e+001
1	 4.964869466967921e-002	 1.305722393623771e+000	-2.774781928269724e+001
1	 3.716907912453613e-002	 1.306137221191842e+000	-2.783661040265899e+001
1	 2.473345053539453e-002	 1.306431881593283e+000	-2.792422040913983e+001
1	 1.234327957122654e-002	 1.306607695345621e+000	-2.801105937738989e+001
1	 0.000000000000000e+000	 1.306665999995867e+000	-2.809751116369458e+001
1	 1.260026746699955e-001	 1.307273627439228e+000	-2.770933438085253e+001
1	 1.132272319441014e-001	 1.308442033900490e+000	-2.781475938281879e+001
1	 1.004863586644010e-001	 1.309482115041230e+000	-2.791425587652856e+001
1	 8.778175300641054e-002	 1.310395073234634e+000	-2.800833442881448e+001
1	 7.511507694347330e-002	 1.311182134346895e+000	-2.809748825778469e+001
1	 6.248795601589269e-002	 1.311844546656761e+000	-2.818219184753789e+001
1	 4.990197913417467e-002	 1.312383579780795e+000	-2.826289964490371e+001
1	 3.735869841572378e-002	 1.312800523605397e+000	-2.834004483810761e+001
1	 2.485962905431051e-002	 1.313096687226598e+000	-2.841403821707466e+001
1	 1.240624922159976e-002	 1.313273397898592e+000	-2.848526711491041e+001
1	 0.000000000000000e+000	 1.313331999991934e+000	-2.855409442991892e+001
1	 1.266422188451985e-001	 1.313908877320505e+000	-2.826170159489057e+001
1	 1.138019325752335e-001	 1.315083214191837e+000	-2.836667931379727e+001
1	 1.009963912134786e-001	 1.316128574409554e+000	-2.846387693707279e+001
1	 8.822730155479577e-002	 1.317046166449661e+000	-2.855377350218435e+001
1	 7.549633400812469e-002	 1.317837222400410e+000	-2.863683256349746e+001
1	 6.280512236444388e-002	 1.318502996876366e+000	-2.871350080346842e+001
1	 5.015526359901446e-002	 1.319044765938211e+000	-2.878420672348311e+001
1	 3.754831770724738e-002	 1.319463826019349e+000	-2.884935941431494e+001
1	 2.498580757350817e-002	 1.319761492860312e+000	-2.890934740600311e+001
1	 1.246921887214558e-002	 1.319939100451963e+000	-2.896453759676246e+001
1	 0.000000000000000e+000	 1.319997999988401e+000	-2.901527426037892e+001
1	 1.272817630202567e-001	 1.320544127202253e+000	-2.882133427997745e+001
1	 1.143766332063090e-001	 1.321724394483688e+000	-2.892581431371335e+001
1	 1.015064237626026e-001	 1.322775033778411e+000	-2.902060820391020e+001
1	 8.867285010333303e-002	 1.323697259665244e+000	-2.910616550044478e+001
1	 7.587759107302468e-002	 1.324492310454497e+000	-2.918292218447187e+001
1	 6.312228871331950e-002	 1.325161447096555e+000	-2.925129927220700e+001
1	 5.040854806422248e-002	 1.325705952096220e+000	-2.931170149601773e+001
1	 3.773793699913963e-002	 1.326127128433897e+000	-2.936451606288739e+001
1	 2.511198609302046e-002	 1.326426298494625e+000	-2.941011149012692e+001
1	 1.253218852288672e-002	 1.326604803005934e+000	-2.944883651804218e+001
1	 0.000000000000000e+000	 1.326663999985467e+000	-2.948101909909315e+001
1	 1.279213071950790e-001	 1.327179377084656e+000	-2.938820317591808e+001
1	 1.149513338372529e-001	 1.328365574776235e+000	-2.949213174128911e+001
1	 1.020164563117179e-001	 1.329421493147995e+000	-2.958441444732311e+001
1	 8.911839865198931e-002	 1.330348352881577e+000	-2.966547336894044e+001
1	 7.625884813816214e-002	 1.331147398509354e+000	-2.973571897531958e+001
1	 6.343945506252818e-002	 1.331819897317526e+000	-2.979554872240958e+001
1	 5.066183252982257e-002	 1.332367138255019e+000	-2.984534572046023e+001
1	 3.792755629143316e-002	 1.332790430849241e+000	-2.988547747672264e+001
1	 2.523816461288030e-002	 1.333091104129737e+000	-2.991629471329101e+001
1	 1.259515817384588e-002	 1.333270505560705e+000	-2.993813025987433e+001
1	 0.000000000000000e+000	 1.333329999983334e+000	-2.995129802113714e+001
1	 1.333329999983334e+000	 0.000000000000000e+000	 2.518482306877925e+001
1	 1.333270505560705e+000	 1.259515817384592e-002	 2.444933134155317e+001
1	 1.333091104129737e+000	 2.523816461288039e-002	 2.372171117917059e+001
1	 1.332790430849242e+000	 3.792755629143307e-002	 2.300147473704504e+001
1	 1.332367138255019e+000	 5.066183252982254e-002	 2.228816200453195e+001
1	 1.331819897317526e+000	 6.343945506252818e-002	 2.158134237395916e+001
1	 1.331147398509354e+000	 7.625884813816217e-002	 2.088061620855973e+001
1	 1.330348352881577e+000	 8.911839865198935e-002	 2.018561640628969e+001
1	 1.329421493147995e+000	 1.020164563117177e-001	 1.949600995641195e+001
1	 1.328365574776235e+000	 1.149513338372529e-001	 1.881149948562949e+001
1	 1.327179377084656e+000	 1.279213071950790e-001	 1.813182479045722e+001
1	 1.339996999982150e+000	 0.000000000000000e+000	 2.515257837333063e+001
1	 1.339937208071804e+000	 1.265813727142634e-002	 2.440774990466889e+001
1	 1.339756909586625e+000	 2.536436206177347e-002	 2.367085523247590e+001
1	 1.339454732860854e+000	 3.811720402987907e-002	 2.294143864030865e+001
1	 1.339029323692610e+000	 5.091515499229016e-002	 2.221907297127227e+001
1	 1.338479346406849e+000	 6.375666899177583e-002	 2.150336117839836e+001
1	 1.337803484928172e+000	 7.664016239779914e-002	 2.079393787234476e+001
1	 1.337000443862567e+000	 8.956401403969964e-002	 2.009047086338207e+001
1	 1.336068949587062e+000	 1.025265653733129e-001	 1.939266269453180e+001
1	 1.335007751346290e+000	 1.155261206817234e-001	 1.870025216262618e+001
1	 1.333815622354874e+000	 1.285609473108182e-001	 1.801301582397054e+001
1	 1.346663999981866e+000	 0.000000000000000e+000	 2.511470273391314e+001
1	 1.346603910583804e+000	 1.272111636919941e-002	 2.436098510186295e+001
1	 1.346422715044412e+000	 2.549055951097095e-002	 2.361526664661786e+001
1	 1.346119034873362e+000	 3.830685176867194e-002	 2.287712417944052e+001
1	 1.345691509131092e+000	 5.116847745508962e-002	 2.214616365987027e+001
1	 1.345138795497052e+000	 6.407388292129493e-002	 2.142202172309632e+001
1	 1.344459571347860e+000	 7.702147665761393e-002	 2.070436720316059e+001
1	 1.343652534844408e+000	 9.000962942747341e-002	 1.999290264894790e+001
1	 1.342716406026956e+000	 1.030366744348489e-001	 1.928736582982364e+001
1	 1.341649927917139e+000	 1.161009075260168e-001	 1.858753122768811e+001
1	 1.340451867625848e+000	 1.292005874262800e-001	 1.789321151212874e+001
1	 1.353330999982383e+000	 0.000000000000000e+000	 2.507120373439719e+001
1	 1.353270613096603e+000	 1.278409546711693e-002	 2.430904984202562e+001
1	 1.353088520502998e+000	 2.561675696039653e-002	 2.355496170122935e+001
1	 1.352783336886667e+000	 3.849649950772439e-002	 2.280854904173503e+001
1	 1.352353694570366e+000	 5.142179991813674e-002	 2.206945119470945e+001
1	 1.351798244588041e+000	 6.439109685101513e-002	 2.133733859281093e+001
1	 1.351115657768319e+000	 7.740279091755783e-002	 2.061191426466609e+001
1	 1.350304625827005e+000	 9.045524481528788e-002	 1.989291532073342e+001
1	 1.349363862467584e+000	 1.035467834963302e-001	 1.918011442741990e+001
1	 1.348292104488696e+000	 1.166756943701628e-001	 1.847332126622955e+001
1	 1.347088112897492e+000	 1.298402275415133e-001	 1.777238397463817e+001
1	 1.359997999983599e+000	 0.000000000000000e+000	 2.502208880993939e+001
1	 1.359937315610102e+000	 1.284707456513073e-002	 2.425195678091673e+001
1	 1.359754325962284e+000	 2.574295440997401e-002	 2.348995635671736e+001
1	 1.359447638900670e+000	 3.868614724694920e-002	 2.273573056765877e+001
1	 1.359015880010333e+000	 5.167512238134727e-002	 2.198895236438433e+001
1	 1.358457693679716e+000	 6.470831078086613e-002	 2.124932608631075e+001
1	 1.357771744189456e+000	 7.778410517758207e-002	 2.051658892318483e+001
1	 1.356956716810264e+000	 9.090086020312037e-002	 1.979051236672342e+001
1	 1.356011318908855e+000	 1.040568925577615e-001	 1.907090364922188e+001
1	 1.354934281060870e+000	 1.172504812141908e-001	 1.835760716592874e+001
1	 1.353724358169724e+000	 1.304798676565676e-001	 1.765050587790696e+001
1	 1.366664999985416e+000	 0.000000000000000e+000	 2.496736525060982e+001
1	 1.366604018124201e+000	 1.291005366319264e-002	 2.418971832733991e+001
1	 1.366420131422168e+000	 2.586915185962713e-002	 2.342026626204924e+001
1	 1.366111940915269e+000	 3.887579498625917e-002	 2.265868575931018e+001
1	 1.365678065450894e+000	 5.192844484463698e-002	 2.190468362989067e+001
1	 1.365117142771979e+000	 6.502552471077756e-002	 2.115799822335078e+001
1	 1.364427830611170e+000	 7.816541943763790e-002	 2.041840085251834e+001
1	 1.363608807794090e+000	 9.134647559094825e-002	 1.968569720684279e+001
1	 1.362658775350676e+000	 1.045670016191473e-001	 1.895972875153946e+001
1	 1.361576457633574e+000	 1.178252680581307e-001	 1.824037410935527e+001
1	 1.360360603442459e+000	 1.311195077714921e-001	 1.752755042171003e+001
1	 1.373331999987733e+000	 0.000000000000000e+000	 2.490704020491363e+001
1	 1.373270720638800e+000	 1.297303276125448e-002	 2.412234664913688e+001
1	 1.373085936882552e+000	 2.599534930927962e-002	 2.334590676231223e+001
1	 1.372776242930367e+000	 3.906544272556702e-002	 2.257743128863269e+001
1	 1.372340250891950e+000	 5.218176730792168e-002	 2.181666113257749e+001
1	 1.371776591864732e+000	 6.534273864067913e-002	 2.106336875144486e+001
1	 1.371083917033369e+000	 7.854673369767661e-002	 2.031735953861934e+001
1	 1.370260898778388e+000	 9.179209097874876e-002	 1.957847319460833e+001
1	 1.369306231792957e+000	 1.050771106804921e-001	 1.884658508279945e+001
1	 1.368218634206720e+000	 1.184000549020120e-001	 1.812160756681200e+001
1	 1.366996848715614e+000	 1.317591478863360e-001	 1.740349132624273e+001
1	 1.379998999990449e+000	 0.000000000000000e+000	 2.484112068321048e+001
1	 1.379937423153799e+000	 1.303601185926808e-002	 2.404985367900786e+001
1	 1.379751742343335e+000	 2.612154675885525e-002	 2.326689290605414e+001
1	 1.379440544945863e+000	 3.925509046478554e-002	 2.249198350539001e+001
1	 1.379002436333403e+000	 5.243508977111712e-002	 2.172490070186819e+001
1	 1.378436040957878e+000	 6.565995257050049e-002	 2.096545115244194e+001
1	 1.377740003455954e+000	 7.892804795764939e-002	 2.021347428412911e+001
1	 1.376912989763065e+000	 9.223770636649928e-002	 1.946884361873300e+001
1	 1.375953688235605e+000	 1.055872197418005e-001	 1.873146808132047e+001
1	 1.374860810780218e+000	 1.189748417458644e-001	 1.800129328938465e+001
1	 1.373633093989104e+000	 1.323987880011485e-001	 1.727830281954953e+001
1	 1.386665999993466e+000	 0.000000000000000e+000	 2.476961356103543e+001
1	 1.386604125669099e+000	 1.309899095718526e-002	 2.397225112016437e+001
1	 1.386417547804418e+000	 2.624774420827780e-002	 2.318323945241166e+001
1	 1.386104846961657e+000	 3.944473820382747e-002	 2.240235844491108e+001
1	 1.385664621775152e+000	 5.268841223413907e-002	 2.162941786275941e+001
1	 1.385095490051318e+000	 6.597716650017133e-002	 2.086425864891267e+001
1	 1.384396089878828e+000	 7.930936221750755e-002	 2.010675421278459e+001
1	 1.383565080748026e+000	 9.268332175417705e-002	 1.935681170468384e+001
1	 1.382601144678529e+000	 1.060973288030771e-001	 1.861437327315188e+001
1	 1.381502987353983e+000	 1.195496285897177e-001	 1.787941730219187e+001
1	 1.380269339262846e+000	 1.330384281159790e-001	 1.715195962531545e+001
1	 1.393332999996683e+000	 0.000000000000000e+000	 2.469252558232433e+001
1	 1.393270828184598e+000	 1.316197005495783e-002	 2.388955045181967e+001
1	 1.393083353265701e+000	 2.637394165747098e-002	 2.309496087803472e+001
1	 1.392769148977652e+000	 3.963438594260560e-002	 2.230857183561299e+001
1	 1.392326807217099e+000	 5.294173469690337e-002	 2.153022784310410e+001
1	 1.391754939144953e+000	 6.629438042962124e-002	 2.075980421035242e+001
1	 1.391052176301896e+000	 7.969067647720234e-002	 1.999720827369827e+001
1	 1.390217171733176e+000	 9.312893714175946e-002	 1.924238061619496e+001
1	 1.389248601121635e+000	 1.066074378643263e-001	 1.849529626997484e+001
1	 1.388145163927923e+000	 1.201244154336013e-001	 1.775596589782911e+001
1	 1.386905584536755e+000	 1.336780682308766e-001	 1.702443695100816e+001
1	 1.400000000000000e+000	 0.000000000000000e+000	 2.460986336254737e+001
1	 1.399937530700196e+000	 1.322494915253764e-002	 2.380176293452200e+001
1	 1.399749158727085e+000	 2.650013910635858e-002	 2.300207138381246e+001
1	 1.399433450993745e+000	 3.982403368103266e-002	 2.221063910630848e+001
1	 1.398988992659146e+000	 5.319505715932572e-002	 2.142734558068674e+001
1	 1.398414388238686e+000	 6.661159435877999e-002	 2.065210055920720e+001
1	 1.397708262725060e+000	 8.007199073668501e-002	 1.988484524551627e+001
1	 1.396869262718420e+000	 9.357455252922370e-002	 1.912555345673751e+001
1	 1.395896057564835e+000	 1.071175469255528e-001	 1.837423276706327e+001
1	 1.394787340501952e+000	 1.206992022775451e-001	 1.763092562999958e+001
1	 1.393541829810749e+000	 1.343177083458907e-001	 1.689571047635853e+001
1	 1.327179377084656e+000	 1.279213071950790e-001	 1.813182479045722e+001
1	 1.325861911943521e+000	 1.409226676366771e-001	 1.746052070566777e+001
1	 1.324411842274167e+000	 1.539555852480564e-001	 1.680101764716539e+001
1	 1.322828026262688e+000	 1.670182568124853e-001	 1.615324590227803e+001
1	 1.321109350289747e+000	 1.801088444902282e-001	 1.551715441470921e+001
1	 1.319254730025648e+000	 1.932254762343219e-001	 1.489271151719147e+001
1	 1.317263111523635e+000	 2.063662462431386e-001	 1.427990564832938e+001
1	 1.315133472310086e+000	 2.195292154500891e-001	 1.367874605163606e+001
1	 1.312864822470269e+000	 2.327124120507629e-001	 1.308926345474425e+001
1	 1.310456205728293e+000	 2.459138320677585e-001	 1.251151072675471e+001
1	 1.307906700519837e+000	 2.591314399534021e-001	 1.194556351167200e+001
1	 1.333815622354874e+000	 1.285609473108182e-001	 1.801301582397054e+001
1	 1.332491569542165e+000	 1.416273179673805e-001	 1.733437879011154e+001
1	 1.331034249143765e+000	 1.547254035878931e-001	 1.666765143982344e+001
1	 1.329442513636407e+000	 1.678533919390620e-001	 1.601278784630501e+001
1	 1.327715243832375e+000	 1.810094359914642e-001	 1.536975901751350e+001
1	 1.325851349980052e+000	 1.941916543374044e-001	 1.473855355985960e+001
1	 1.323849772862681e+000	 2.073981316457405e-001	 1.411917832727878e+001
1	 1.321709484894016e+000	 2.206269191540353e-001	 1.351165905384714e+001
1	 1.319429491209501e+000	 2.338760351983323e-001	 1.291604096809003e+001
1	 1.317008830751625e+000	 2.471434657808105e-001	 1.233238938711322e+001
1	 1.314446577348017e+000	 2.604271651755172e-001	 1.176079028867687e+001
1	 1.340451867625848e+000	 1.292005874262800e-001	 1.789321151212874e+001
1	 1.339121227141517e+000	 1.423319682977339e-001	 1.720770973448847e+001
1	 1.337656656014014e+000	 1.554952219273348e-001	 1.653420463378247e+001
1	 1.336057001010716e+000	 1.686885270652219e-001	 1.587267432207328e+001
1	 1.334321137375528e+000	 1.819100274922824e-001	 1.522311231021734e+001
1	 1.332447969934912e+000	 1.951578324400848e-001	 1.458552810637321e+001
1	 1.330436434202115e+000	 2.084300170479688e-001	 1.395994780086566e+001
1	 1.328285497478265e+000	 2.217246228576455e-001	 1.334641463572561e+001
1	 1.325994159948987e+000	 2.350396583456089e-001	 1.274498955720653e+001
1	 1.323561455775152e+000	 2.483730994936152e-001	 1.215575174956407e+001
1	 1.320986454176337e+000	 2.617228903974281e-001	 1.157879914837459e+001
1	 1.347088112897492e+000	 1.298402275415133e-001	 1.777238397463817e+001
1	 1.345750884741497e+000	 1.430366186277980e-001	 1.708047341412718e+001
1	 1.344279062884841e+000	 1.562650402664456e-001	 1.640062728538592e+001
1	 1.342671488385547e+000	 1.695236621910270e-001	 1.573284799436257e+001
1	 1.340927030919145e+000	 1.828106189927365e-001	 1.507715199357160e+001
1	 1.339044589890175e+000	 1.961240105424044e-001	 1.443357031914929e+001
1	 1.337023095541889e+000	 2.094619024498504e-001	 1.380214911503825e+001
1	 1.334861510062792e+000	 2.228223265609310e-001	 1.318295014275994e+001
1	 1.332558828688690e+000	 2.362032814925881e-001	 1.257605127521693e+001
1	 1.330114080798836e+000	 2.496027332061524e-001	 1.198154697295380e+001
1	 1.327526331004762e+000	 2.630186156191023e-001	 1.139954874129718e+001
1	 1.353724358169724e+000	 1.304798676565676e-001	 1.765050587790696e+001
1	 1.352380542342027e+000	 1.437412689576333e-001	 1.695263049115545e+001
1	 1.350901469756175e+000	 1.570348586052899e-001	 1.626687043031509e+001
1	 1.349285975760837e+000	 1.703587973165388e-001	 1.559325265222998e+001
1	 1.347532924463167e+000	 1.837112104928801e-001	 1.493181698994306e+001
1	 1.345641209845789e+000	 1.970901886444053e-001	 1.428261663199436e+001
1	 1.343609756881957e+000	 2.104937878514123e-001	 1.364571858941770e+001
1	 1.341437522647555e+000	 2.239200302639025e-001	 1.302120414902027e+001
1	 1.339123497428572e+000	 2.373669046392645e-001	 1.240916931151483e+001
1	 1.336666705822646e+000	 2.508323669184024e-001	 1.180972521306440e+001
1	 1.334066207833258e+000	 2.643143408405080e-001	 1.122299852879133e+001
1	 1.360360603442459e+000	 1.311195077714921e-001	 1.752755042171003e+001
1	 1.359010199943027e+000	 1.444459192873007e-001	 1.682414239530933e+001
1	 1.357523876627944e+000	 1.578046769439323e-001	 1.613288605970163e+001
1	 1.355900463136519e+000	 1.711939324418187e-001	 1.545383318158741e+001
1	 1.354138818007536e+000	 1.846118019927668e-001	 1.478704741351751e+001
1	 1.352237829801701e+000	 1.980563667461289e-001	 1.413260471909340e+001
1	 1.350196418222271e+000	 2.115256732526815e-001	 1.349059378623175e+001
1	 1.348013535232513e+000	 2.250177339665709e-001	 1.286111642719157e+001
1	 1.345688166168596e+000	 2.385305277856329e-001	 1.224428796404887e+001
1	 1.343219330846545e+000	 2.520620006303451e-001	 1.164023759829659e+001
1	 1.340606084661794e+000	 2.656100660616129e-001	 1.104910876324133e+001
1	 1.366996848715614e+000	 1.317591478863360e-001	 1.740349132624272e+001
1	 1.365639857544422e+000	 1.451505696168609e-001	 1.669497130530068e+001
1	 1.364146283500072e+000	 1.585744952824371e-001	 1.599862709693580e+001
1	 1.362514950512526e+000	 1.720290675669288e-001	 1.531453553857735e+001
1	 1.360744711552191e+000	 1.855123934924504e-001	 1.464278454137068e+001
1	 1.358834449757856e+000	 1.990225448476168e-001	 1.398347346490204e+001
1	 1.356783079562785e+000	 2.125575586536849e-001	 1.333671348015248e+001
1	 1.354589547817624e+000	 2.261154376689472e-001	 1.270262791947951e+001
1	 1.352252834908725e+000	 2.396941509316883e-001	 1.208135261241483e+001
1	 1.349771955870499e+000	 2.532916343419605e-001	 1.147303620606135e+001
1	 1.347145961490334e+000	 2.669057912823845e-001	 1.087784046886836e+001
1	 1.373633093989104e+000	 1.323987880011485e-001	 1.727830281954953e+001
1	 1.372269515146129e+000	 1.458552199463743e-001	 1.656508013072518e+001
1	 1.370768690372490e+000	 1.593443136208687e-001	 1.586404737514696e+001
1	 1.369129437888794e+000	 1.728642026919303e-001	 1.517530672372060e+001
1	 1.367350605097073e+000	 1.864129849919844e-001	 1.449897078537762e+001
1	 1.365431069714203e+000	 1.999887229489109e-001	 1.383516293491164e+001
1	 1.363369740903453e+000	 2.135894440544495e-001	 1.318401762900912e+001
1	 1.361165560402846e+000	 2.272131413710424e-001	 1.254568070935987e+001
1	 1.358817503648921e+000	 2.408577740774254e-001	 1.192030969172753e+001
1	 1.356324580894474e+000	 2.545212680532286e-001	 1.130807403985593e+001
1	 1.353685838318846e+000	 2.682015165027911e-001	 1.070915542308597e+001
1	 1.380269339262846e+000	 1.330384281159790e-001	 1.715195962531545e+001
1	 1.378899172748071e+000	 1.465598702759018e-001	 1.643443249449197e+001
1	 1.377391097245123e+000	 1.601141319592913e-001	 1.572910161533381e+001
1	 1.375743925265254e+000	 1.736993378168850e-001	 1.503609475680993e+001
1	 1.373956498642124e+000	 1.873135764914223e-001	 1.435554966493246e+001
1	 1.372027689670689e+000	 2.009549010500525e-001	 1.368761434725739e+001
1	 1.369956402244226e+000	 2.146213294550026e-001	 1.303244734534511e+001
1	 1.367741572988138e+000	 2.283108450728675e-001	 1.239021799414277e+001
1	 1.365382172389146e+000	 2.420213972228390e-001	 1.176110666724659e+001
1	 1.362877205918434e+000	 2.557509017641294e-001	 1.114530500700105e+001
1	 1.360225715147297e+000	 2.694972417228001e-001	 1.054301613839380e+001
1	 1.386905584536755e+000	 1.336780682308766e-001	 1.702443695100816e+001
1	 1.385528830350171e+000	 1.472645206055041e-001	 1.630299271575795e+001
1	 1.384013504117901e+000	 1.608839502977697e-001	 1.559374540512238e+001
1	 1.382358412641842e+000	 1.745344729418547e-001	 1.489684865252418e+001
1	 1.380562392187283e+000	 1.882141679908180e-001	 1.421246578045167e+001
1	 1.378624309627261e+000	 2.019210791510837e-001	 1.354077004514194e+001
1	 1.376543063585058e+000	 2.156532148553707e-001	 1.288194486879215e+001
1	 1.374317585573459e+000	 2.294085487744333e-001	 1.223618405832468e+001
1	 1.371946841129365e+000	 2.431850203679240e-001	 1.160369200973062e+001
1	 1.369429830942346e+000	 2.569805354746430e-001	 1.098468389701735e+001
1	 1.366765591975652e+000	 2.707929669423796e-001	 1.037938584479079e+001
1	 1.393541829810749e+000	 1.343177083458907e-001	 1.689571047635853e+001
1	 1.392158487952350e+000	 1.479691709352418e-001	 1.617072579334964e+001
1	 1.390635910990750e+000	 1.616537686363681e-001	 1.545793517813094e+001
1	 1.388972900018493e+000	 1.753696080669007e-001	 1.475751839673930e+001
1	 1.387168285732491e+000	 1.891147594902250e-001	 1.406966478763389e+001
1	 1.385220929583866e+000	 2.028872572520458e-001	 1.339457347004674e+001
1	 1.383129724925903e+000	 2.166851002555812e-001	 1.273245353923347e+001
1	 1.380893598158766e+000	 2.305062524757509e-001	 1.208352424770168e+001
1	 1.378511509869538e+000	 2.443486435126755e-001	 1.144801517149550e+001
1	 1.375982455966176e+000	 2.582101691847494e-001	 1.082616636061942e+001
1	 1.373305468803879e+000	 2.720886921614973e-001	 1.021822847269120e+001
1	 1.307906700519837e+000	 2.591314399534021e-001	 1.194556351167200e+001
1	 1.305215006833941e+000	 2.723651546311524e-001	 1.139118174894921e+001
1	 1.302380648154344e+000	 2.856108941680557e-001	 1.084840454322339e+001
1	 1.299402814194865e+000	 2.988665281832908e-001	 1.031750806808357e+001
1	 1.296280733615264e+000	 3.121298974347746e-001	 9.798790511599616e+000
1	 1.293013675037378e+000	 3.253988146137714e-001	 9.292572290537221e+000
1	 1.289600948045209e+000	 3.386710651775105e-001	 8.799196227939465e+000
1	 1.286041904167421e+000	 3.519444082195941e-001	 8.319027692626790e+000
1	 1.282335937840718e+000	 3.652165773779125e-001	 7.852454699218893e+000
1	 1.278482487352557e+000	 3.784852817797219e-001	 7.399887967338407e+000
1	 1.274481035761665e+000	 3.917482070234652e-001	 6.961760938719628e+000
1	 1.314446577348017e+000	 2.604271651755172e-001	 1.176079028867687e+001
1	 1.311741424487327e+000	 2.737270519005023e-001	 1.120099132864648e+001
1	 1.308892893270573e+000	 2.870390236120768e-001	 1.065303661155128e+001
1	 1.305900169359915e+000	 3.003609392769588e-001	 1.011723353956564e+001
1	 1.302762477558189e+000	 3.136906288562903e-001	 9.593910239210057e+000
1	 1.299479082830132e+000	 3.270258941042208e-001	 9.083415700142025e+000
1	 1.296049291307467e+000	 3.403645094046873e-001	 8.586119877811290e+000
1	 1.292472451276313e+000	 3.537042226461742e-001	 8.102413758692149e+000
1	 1.288747954145378e+000	 3.670427561341693e-001	 7.632709386858172e+000
1	 1.284875235393391e+000	 3.803778075409664e-001	 7.177439850725724e+000
1	 1.280853775494218e+000	 3.937070508923963e-001	 6.737059228856927e+000
1	 1.320986454176337e+000	 2.617228903974281e-001	 1.157879914837459e+001
1	 1.318267842140804e+000	 2.750889491696858e-001	 1.101387199413248e+001
1	 1.315405138386855e+000	 2.884671530559646e-001	 1.046102089570880e+001
1	 1.312397524524987e+000	 3.018553503705233e-001	 9.920581255225214e+000
1	 1.309244221501116e+000	 3.152513602777307e-001	 9.392907786531037e+000
1	 1.305944490622876e+000	 3.286529735946223e-001	 8.878374581549684e+000
1	 1.302497634569714e+000	 3.420579536318444e-001	 8.377375141268997e+000
1	 1.298902998385200e+000	 3.554640370727650e-001	 7.890322370247808e+000
1	 1.295159970450051e+000	 3.688689348904707e-001	 7.417648533568825e+000
1	 1.291267983434265e+000	 3.822703333022945e-001	 6.959805175228230e+000
1	 1.287226515226850e+000	 3.956658947614563e-001	 6.517262997019624e+000
1	 1.327526331004762e+000	 2.630186156191023e-001	 1.139954874129718e+001
1	 1.324794259794340e+000	 2.764508464386623e-001	 1.082979258813365e+001
1	 1.321917383503154e+000	 2.898952824996736e-001	 1.027233548438945e+001
1	 1.318894879690042e+000	 3.033497614639366e-001	 9.727537653579981e+000
1	 1.315725965443999e+000	 3.168120916990478e-001	 9.195777097074874e+000
1	 1.312409898415560e+000	 3.302800530849295e-001	 8.677449590953156e+000
1	 1.308945977831890e+000	 3.437513978589381e-001	 8.172968648559754e+000
1	 1.305333545494019e+000	 3.572238514993261e-001	 7.682765447798484e+000
1	 1.301571986754666e+000	 3.706951136467797e-001	 7.207288722254427e+000
1	 1.297660731475104e+000	 3.841628590636720e-001	 6.747004615300782e+000
1	 1.293599254959479e+000	 3.976247386306125e-001	 6.302396496413049e+000
1	 1.334066207833258e+000	 2.643143408405080e-001	 1.122299852879133e+001
1	 1.331320677447898e+000	 2.778127437073906e-001	 1.064872256433419e+001
1	 1.328429628619433e+000	 2.913234119431576e-001	 1.008695889594191e+001
1	 1.325392234855040e+000	 3.048441725571505e-001	 9.538089439072488e+000
1	 1.322207709386794e+000	 3.183728231201935e-001	 9.002512233114770e+000
1	 1.318875306208132e+000	 3.319071325750965e-001	 8.480641371678232e+000
1	 1.315394321093939e+000	 3.454448420859252e-001	 7.972906899919298e+000
1	 1.311764092602703e+000	 3.589836659258176e-001	 7.479754678101614e+000
1	 1.307984003059153e+000	 3.725212924030594e-001	 7.001646210647018e+000
1	 1.304053479515829e+000	 3.860553848250641e-001	 6.539058439995975e+000
1	 1.299971994692022e+000	 3.995835824998310e-001	 6.092483504665022e+000
1	 1.340606084661794e+000	 2.656100660616129e-001	 1.104910876324133e+001
1	 1.337847095101447e+000	 2.791746409758307e-001	 1.047063197247378e+001
1	 1.334941873735656e+000	 2.927515413863712e-001	 9.904870067889982e+000
1	 1.331889590019940e+000	 3.063385836501171e-001	 9.352223575583905e+000
1	 1.328689453329455e+000	 3.199335545411200e-001	 8.813107372787863e+000
1	 1.325340714000539e+000	 3.335342120650767e-001	 8.287950554497513e+000
1	 1.321842664355803e+000	 3.471382863127622e-001	 7.777196268743247e+000
1	 1.318194639711190e+000	 3.607434803521993e-001	 7.281301519869000e+000
1	 1.314396019363438e+000	 3.743474711592730e-001	 6.800736939238561e+000
1	 1.310446227556364e+000	 3.879479105864364e-001	 6.335986522852594e+000
1	 1.306344734424396e+000	 4.015424263690787e-001	 5.887547335425744e+000
1	 1.347145961490334e+000	 2.669057912823845e-001	 1.087784046886836e+001
1	 1.344373512754951e+000	 2.805365382439415e-001	 1.029549144387957e+001
1	 1.341454118851785e+000	 2.941796708292684e-001	 9.726048346758166e+000
1	 1.338386945184701e+000	 3.078329947427883e-001	 9.169927280136694e+000
1	 1.335171197271936e+000	 3.214942859617793e-001	 8.627556807282923e+000
1	 1.331806121792732e+000	 3.351612915548239e-001	 8.099377757935049e+000
1	 1.328291007617424e+000	 3.488317305394058e-001	 7.585843004665842e+000
1	 1.324625186819415e+000	 3.625032947784311e-001	 7.087417209301969e+000
1	 1.320808035667453e+000	 3.761736499153836e-001	 6.604576538981339e+000
1	 1.316838975596630e+000	 3.898404363477547e-001	 6.137808351495838e+000
1	 1.312717474156519e+000	 4.035012702383219e-001	 5.687610849630185e+000
1	 1.353685838318846e+000	 2.682015165027911e-001	 1.070915542308597e+001
1	 1.350899930408376e+000	 2.818984355116824e-001	 1.012327217741749e+001
1	 1.347966363967785e+000	 2.956078002718034e-001	 9.550473478191702e+000
1	 1.344884300349283e+000	 3.093274058351162e-001	 8.991188016779599e+000
1	 1.341652941214191e+000	 3.230550173821236e-001	 8.445854938109500e+000
1	 1.338271529584657e+000	 3.367883710442921e-001	 7.914923588562211e+000
1	 1.334739350878743e+000	 3.505251747658126e-001	 7.398853236549503e+000
1	 1.331055733927312e+000	 3.642631092044733e-001	 6.898112765466362e+000
1	 1.327220051971125e+000	 3.779998286713540e-001	 6.413180338764963e+000
1	 1.323231723636551e+000	 3.917329621089841e-001	 5.944543036959438e+000
1	 1.319090213888307e+000	 4.054601141075276e-001	 5.492696466433590e+000
1	 1.360225715147297e+000	 2.694972417228001e-001	 1.054301613839380e+001
1	 1.357426348061687e+000	 2.832603327790126e-001	 9.953945925848803e+000
1	 1.354478609083619e+000	 2.970359297139307e-001	 9.378125597362018e+000
1	 1.351381655513645e+000	 3.108218169270527e-001	 8.815993490649465e+000
1	 1.348134685156176e+000	 3.246157488021045e-001	 8.267996274445782e+000
1	 1.344736937376264e+000	 3.384154505334348e-001	 7.734588641285018e+000
1	 1.341187694139704e+000	 3.522186189919392e-001	 7.216232975388010e+000
1	 1.337486281034819e+000	 3.660229236302852e-001	 6.713398995512434e+000
1	 1.333632068274384e+000	 3.798260074271477e-001	 6.226563372678089e+000
1	 1.329624471676048e+000	 3.936254878700904e-001	 5.756209322738809e+000
1	 1.325462953619678e+000	 4.074189579766622e-001	 5.302826173831823e+000
1	 1.366765591975652e+000	 2.707929669423796e-001	 1.037938584479079e+001
1	 1.363952765714852e+000	 2.846222300458915e-001	 9.787484982578421e+000
1	 1.360990854199249e+000	 2.984640591556040e-001	 9.208985219647373e+000
1	 1.357879010677747e+000	 3.123162280185499e-001	 8.644331642203094e+000
1	 1.354616429097844e+000	 3.261764802216743e-001	 8.093975430562725e+000
1	 1.351202345167504e+000	 3.400425300222060e-001	 7.558373499623289e+000
1	 1.347636037400247e+000	 3.539120632177420e-001	 7.037988117126662e+000
1	 1.343916828141869e+000	 3.677827380558271e-001	 6.533286499744717e+000
1	 1.340044084577158e+000	 3.816521861827275e-001	 6.044740387061292e+000
1	 1.336017219715046e+000	 3.955180136310391e-001	 5.572825593584161e+000
1	 1.331835693350548e+000	 4.093778018456922e-001	 5.118021538976644e+000
1	 1.373305468803879e+000	 2.720886921614973e-001	 1.021822847269119e+001
1	 1.370479183367836e+000	 2.859841273122784e-001	 9.623862168781690e+000
1	 1.367503099314640e+000	 2.998921885967780e-001	 9.043033231579887e+000
1	 1.364376365841549e+000	 3.138106391095596e-001	 8.476190641614211e+000
1	 1.361098173039150e+000	 3.277372116407852e-001	 7.923787123321702e+000
1	 1.357667752958321e+000	 3.416696095105594e-001	 7.386278735981565e+000
1	 1.354084380660317e+000	 3.556055074431779e-001	 6.864124445401418e+000
1	 1.350347375248399e+000	 3.695425524810588e-001	 6.357785676547255e+000
1	 1.346456100879377e+000	 3.834783649380567e-001	 5.867725847358465e+000
1	 1.342409967753466e+000	 3.974105393917957e-001	 5.394409884042581e+000
1	 1.338208433080836e+000	 4.113366457145844e-001	 4.938303718196409e+000
1	 1.274481035761665e+000	 3.917482070234652e-001	 6.961760938719628e+000
1	 1.270331111476093e+000	 4.050030160027568e-001	 6.534873767669170e+000
1	 1.266032288167079e+000	 4.182473493586814e-001	 6.115802450277800e+000
1	 1.261584186568501e+000	 4.314788271174073e-001	 5.704685571479639e+000
1	 1.256986475613899e+000	 4.446950500028725e-001	 5.301694734122483e+000
1	 1.252238873225494e+000	 4.578936005938943e-001	 4.907035209425617e+000
1	 1.247341147071948e+000	 4.710720445141692e-001	 4.520946539486137e+000
1	 1.242293115293416e+000	 4.842279316542610e-001	 4.143703089415094e+000
1	 1.237094647192461e+000	 4.973587974246059e-001	 3.775614546749745e+000
1	 1.231745663889408e+000	 5.104621640384943e-001	 3.417026365866837e+000
1	 1.226246138940778e+000	 5.235355418239187e-001	 3.068320155203479e+000
1	 1.280853775494218e+000	 3.937070508923963e-001	 6.737059228856927e+000
1	 1.276683100497812e+000	 4.070281373959295e-001	 6.308443076299058e+000
1	 1.272362781943674e+000	 4.203386958952362e-001	 5.888221106922009e+000
1	 1.267892438669269e+000	 4.336363345159897e-001	 5.476518347178335e+000
1	 1.263271737952744e+000	 4.469186419851159e-001	 5.073492417623529e+000
1	 1.258500396305879e+000	 4.601831887936905e-001	 4.679334204015691e+000
1	 1.253578180235638e+000	 4.734275283928874e-001	 4.294268481411574e+000
1	 1.248504906972856e+000	 4.866491984220788e-001	 3.918554488811229e+000
1	 1.243280445166594e+000	 4.998457219681045e-001	 3.552486451968806e+000
1	 1.237904715542784e+000	 5.130146088546692e-001	 3.196394052059372e+000
1	 1.232377691525745e+000	 5.261533569607503e-001	 2.850642837973432e+000
1	 1.287226515226850e+000	 3.956658947614563e-001	 6.517262997019624e+000
1	 1.283035089519661e+000	 4.090532587892841e-001	 6.086980212433314e+000
1	 1.278693275720454e+000	 4.224300424320308e-001	 5.665652948914906e+000
1	 1.274200690770286e+000	 4.357938419148706e-001	 5.253396732094041e+000
1	 1.269557000291902e+000	 4.491422339677152e-001	 4.850359234230634e+000
1	 1.264761919386638e+000	 4.624727769938941e-001	 4.456720958583059e+000
1	 1.259815213399763e+000	 4.757830122720565e-001	 4.072695877633130e+000
1	 1.254716698652781e+000	 4.890704651903787e-001	 3.698532022706171e+000
1	 1.249466243141255e+000	 5.023326465121009e-001	 3.334512022586626e+000
1	 1.244063767196715e+000	 5.155670536713387e-001	 2.980953588800739e+000
1	 1.238509244111277e+000	 5.287711720980507e-001	 2.638209945316520e+000
1	 1.293599254959479e+000	 3.976247386306125e-001	 6.302396496413049e+000
1	 1.289387078541550e+000	 4.110783801827868e-001	 5.870512470294743e+000
1	 1.285023769497329e+000	 4.245213889690289e-001	 5.448127668482905e+000
1	 1.280508942871458e+000	 4.379513493140114e-001	 5.035352111789695e+000
1	 1.275842262631276e+000	 4.513658259506280e-001	 4.632327496665082e+000
1	 1.271023442467676e+000	 4.647623651944605e-001	 4.239227885521225e+000
1	 1.266052246564224e+000	 4.781384961516295e-001	 3.856260351688315e+000
1	 1.260928490333093e+000	 4.914917319591130e-001	 3.483665576539242e+000
1	 1.255652041116344e+000	 5.048195710565490e-001	 3.121718396380794e+000
1	 1.250222818851101e+000	 5.181194984884608e-001	 2.770728296778026e+000
1	 1.244640796697276e+000	 5.313889872357854e-001	 2.431039852055913e+000
1	 1.299971994692022e+000	 3.995835824998310e-001	 6.092483504665022e+000
1	 1.295739067563394e+000	 4.131035015764033e-001	 5.659066608897661e+000
1	 1.291354263274208e+000	 4.266127355061942e-001	 5.235674375621599e+000
1	 1.286817194972689e+000	 4.401088567133724e-001	 4.822415256393009e+000
1	 1.282127524970770e+000	 4.535894179338115e-001	 4.419428884032402e+000
1	 1.277284965548894e+000	 4.670519533953436e-001	 4.026886761653538e+000
1	 1.272289279728921e+000	 4.804939800315584e-001	 3.644992907012999e+000
1	 1.267140282013694e+000	 4.939129987282336e-001	 3.273984449730502e+000
1	 1.261837839091760e+000	 5.073064956014023e-001	 2.914132178988389e+000
1	 1.256381870505843e+000	 5.206719433059938e-001	 2.565741039386797e+000
1	 1.250772349283640e+000	 5.340068023739211e-001	 2.229150572706173e+000
1	 1.306344734424396e+000	 4.015424263690787e-001	 5.887547335425744e+000
1	 1.302091056585105e+000	 4.151286229700997e-001	 5.452668865102276e+000
1	 1.297684757051000e+000	 4.287040820434901e-001	 5.028321612297247e+000
1	 1.293125447073886e+000	 4.422663641129139e-001	 4.614616335607785e+000
1	 1.288412787310288e+000	 4.558130099172235e-001	 4.211694457277216e+000
1	 1.283546488630194e+000	 4.693415415964984e-001	 3.819728743735748e+000
1	 1.278526312893757e+000	 4.828494639117961e-001	 3.438923942066872e+000
1	 1.273352073694481e+000	 4.963342654976929e-001	 3.069517369974628e+000
1	 1.268023637067405e+000	 5.097934201466150e-001	 2.711779456885666e+000
1	 1.262540922160840e+000	 5.232243881238962e-001	 2.366014233885143e+000
1	 1.256903901870271e+000	 5.366246175124240e-001	 2.032559770261910e+000
1	 1.312717474156519e+000	 4.035012702383219e-001	 5.687610849630185e+000
1	 1.308443045606594e+000	 4.171537443638418e-001	 5.251344966289044e+000
1	 1.304015250827613e+000	 4.307954285808809e-001	 4.826097366234683e+000
1	 1.299433699174955e+000	 4.444238715125973e-001	 4.411984933288228e+000
1	 1.294698049649734e+000	 4.580366019008214e-001	 4.009154674187926e+000
1	 1.289808011711478e+000	 4.716311297978786e-001	 3.617784383506960e+000
1	 1.284763346058632e+000	 4.852049477922950e-001	 3.238083265017948e+000
1	 1.279563865375358e+000	 4.987555322674430e-001	 2.870292507118563e+000
1	 1.274209435043177e+000	 5.122803446921408e-001	 2.514685809989602e+000
1	 1.268699973815992e+000	 5.257768329421260e-001	 2.171569862222688e+000
1	 1.263035454457067e+000	 5.392424326512596e-001	 1.841284764730004e+000
1	 1.319090213888307e+000	 4.054601141075276e-001	 5.492696466433590e+000
1	 1.314795034627774e+000	 4.191788657575951e-001	 5.055120142665586e+000
1	 1.310345744603956e+000	 4.328867751183299e-001	 4.629029084305450e+000
1	 1.305741951275802e+000	 4.465813789123832e-001	 4.214550061590567e+000
1	 1.300983311989010e+000	 4.602601938845619e-001	 3.811839403966544e+000
1	 1.296069534792650e+000	 4.739207179994396e-001	 3.421083642304239e+000
1	 1.291000379223446e+000	 4.875604316730077e-001	 3.042500108001647e+000
1	 1.285775657056222e+000	 5.011767990374352e-001	 2.676337486636732e+000
1	 1.280395233018978e+000	 5.147672692379334e-001	 2.322876323894376e+000
1	 1.274859025471199e+000	 5.283292777606418e-001	 1.982429481555903e+000
1	 1.269167007043930e+000	 5.418602477903944e-001	 1.655342541414852e+000
1	 1.325462953619678e+000	 4.074189579766622e-001	 5.302826173831823e+000
1	 1.321147023648559e+000	 4.212039871513260e-001	 4.864019139218610e+000
1	 1.316676238379938e+000	 4.349781216558010e-001	 4.437143685529695e+000
1	 1.312050203376333e+000	 4.487388863122319e-001	 4.022340174716367e+000
1	 1.307268574328022e+000	 4.624837858684034e-001	 3.619777941377949e+000
1	 1.302331057873609e+000	 4.762103062011355e-001	 3.229655905255773e+000
1	 1.297237412388103e+000	 4.899159155538866e-001	 2.852203140968314e+000
1	 1.291987448736975e+000	 5.035980658076227e-001	 2.487679402717457e+000
1	 1.286581030994707e+000	 5.172541937839468e-001	 2.136375601754579e+000
1	 1.281018077126362e+000	 5.308817225794016e-001	 1.798614234459872e+000
1	 1.275298559630759e+000	 5.444780629297946e-001	 1.474749758964296e+000
1	 1.331835693350548e+000	 4.093778018456922e-001	 5.118021538976644e+000
1	 1.327499012668862e+000	 4.232291085450001e-001	 4.678066227322561e+000
1	 1.323006732155468e+000	 4.370694681932577e-001	 4.250467573704941e+000
1	 1.318358455476455e+000	 4.508963937121044e-001	 3.835383182261675e+000
1	 1.313553836666673e+000	 4.647073778523029e-001	 3.432999020493271e+000
1	 1.308592580954259e+000	 4.784998944029210e-001	 3.043529995066463e+000
1	 1.303474445552502e+000	 4.922713994348845e-001	 2.667220485133379e+000
1	 1.298199240417519e+000	 5.060193325779568e-001	 2.304344830973944e+000
1	 1.292766828970265e+000	 5.197411183301344e-001	 1.955207775827480e+000
1	 1.287177128781380e+000	 5.334341673983635e-001	 1.620144858847021e+000
1	 1.281430112217454e+000	 5.470958780694262e-001	 1.299522757184964e+000
1	 1.338208433080836e+000	 4.113366457145844e-001	 4.938303718196409e+000
1	 1.333851001688592e+000	 4.252542299385834e-001	 4.497285216016725e+000
1	 1.329337225930455e+000	 4.391608147306638e-001	 4.069026649673779e+000
1	 1.324666707576071e+000	 4.530539011119613e-001	 3.653706462184280e+000
1	 1.319839099004865e+000	 4.669309698362181e-001	 3.251530828040418e+000
1	 1.314854104034503e+000	 4.807894826047506e-001	 2.862734185409551e+000
1	 1.309711478716544e+000	 4.946268833159535e-001	 2.487579726043172e+000
1	 1.304411032097752e+000	 5.084405993483900e-001	 2.126359840791888e+000
1	 1.298952626945552e+000	 5.222280428764503e-001	 1.779396518685397e+000
1	 1.293336180436153e+000	 5.359866122174863e-001	 1.447041697602435e+000
1	 1.287561664803915e+000	 5.497136932092553e-001	 1.129677564633734e+000
1	 1.226246138940778e+000	 5.235355418239187e-001	 3.068320155203479e+000
1	 1.220596957825401e+000	 5.365744771980168e-001	 2.715535599542617e+000
1	 1.214797387829354e+000	 5.495784256663966e-001	 2.344901211585989e+000
1	 1.208847564018351e+000	 5.625448718653632e-001	 1.957284862615516e+000
1	 1.202747675935371e+000	 5.754712940886186e-001	 1.553582053429448e+000
1	 1.196497968013682e+000	 5.883551657230444e-001	 1.134715281640645e+000
1	 1.190098739945637e+000	 6.011939567052549e-001	 7.016333603860609e-001
1	 1.183550347006174e+000	 6.139851349973728e-001	 2.553106889180071e-001
1	 1.176853200330036e+000	 6.267261680804233e-001	-2.032535243336012e-001
1	 1.170007767141820e+000	 6.394145244636895e-001	-6.730360855185079e-001
1	 1.163014570937961e+000	 6.520476752083219e-001	-1.152990685112456e+000
1	 1.232377691525745e+000	 5.261533569607503e-001	 2.850642837973430e+000
1	 1.226700263021949e+000	 5.392574904344009e-001	 2.501135688366350e+000
1	 1.220871693653703e+000	 5.523264620586145e-001	 2.134007638670045e+000
1	 1.214892119162068e+000	 5.653577438922185e-001	 1.750174843137664e+000
1	 1.208761730037767e+000	 5.783488016197220e-001	 1.350582335590964e+000
1	 1.202480771936284e+000	 5.912970959942786e-001	 9.362033245876490e-001
1	 1.196049546048495e+000	 6.042000843015227e-001	 5.080384366732511e-001
1	 1.189468409425784e+000	 6.170552218427235e-001	 6.711490828960687e-002
1	 1.182737775258663e+000	 6.298599634356477e-001	-3.855142729583054e-001
1	 1.175858113107952e+000	 6.426117649314611e-001	-8.487712768457770e-001
1	 1.168829949087690e+000	 6.553080847459571e-001	-1.321554387919896e+000
1	 1.238509244111277e+000	 5.287711720980507e-001	 2.638209945316520e+000
1	 1.232803568219056e+000	 5.419405036712032e-001	 2.292055810951792e+000
1	 1.226945999478585e+000	 5.550744984511792e-001	 1.928536850998470e+000
1	 1.220936674306278e+000	 5.681706159193329e-001	 1.548614276604297e+000
1	 1.214775784140606e+000	 5.812263091509863e-001	 1.153279340540136e+000
1	 1.208463575859269e+000	 5.942390262655702e-001	 7.435525640859315e-001
1	 1.202000352151671e+000	 6.072062118977436e-001	 3.204829088711671e-001
1	 1.195386471845647e+000	 6.201253086879278e-001	-1.148531056625151e-001
1	 1.188622350187476e+000	 6.329937587906361e-001	-5.613523383672351e-001
1	 1.181708459074210e+000	 6.458090053989225e-001	-1.017886015115901e+000
1	 1.174645327237490e+000	 6.585684942832285e-001	-1.483300769063707e+000
1	 1.244640796697276e+000	 5.313889872357854e-001	 2.431039852055914e+000
1	 1.238906873416620e+000	 5.446235169084013e-001	 2.088308430692858e+000
1	 1.233020305303900e+000	 5.578225348440832e-001	 1.728494664182894e+000
1	 1.226981229450880e+000	 5.709834879467168e-001	 1.352601637767227e+000
1	 1.220789838243787e+000	 5.841038166824406e-001	 9.616635532696151e-001
1	 1.214446379782539e+000	 5.971809565369676e-001	 5.567448915178024e-001
1	 1.207951158255066e+000	 6.102123394939857e-001	 1.389395167824986e-001
1	 1.201304534265663e+000	 6.231953955330730e-001	-2.906302760047765e-001
1	 1.194506925116377e+000	 6.361275541454937e-001	-7.308147703459789e-001
1	 1.187558805040492e+000	 6.490062458661944e-001	-1.180437892524355e+000
1	 1.180460705387259e+000	 6.618289038202686e-001	-1.638298330002391e+000
1	 1.250772349283640e+000	 5.340068023739211e-001	 2.229150572706173e+000
1	 1.245010178614542e+000	 5.473065301459731e-001	 1.889905766591579e+000
1	 1.239094611129547e+000	 5.605705712373188e-001	 1.533886779798702e+000
1	 1.233025784595776e+000	 5.737963599743795e-001	 1.162135431287923e+000
1	 1.226803892347210e+000	 5.869813242141136e-001	 7.757256453519771e-001
1	 1.220429183705992e+000	 6.001228868085193e-001	 3.757625533561660e-001
1	 1.213901964358580e+000	 6.132184670903178e-001	-3.661846524760101e-002
1	 1.207222596685732e+000	 6.262654823782473e-001	-4.602528017833941e-001
1	 1.200391500045263e+000	 6.392613495003259e-001	-8.939476960865858e-001
1	 1.193409151006699e+000	 6.522034863333969e-001	-1.336483371949060e+000
1	 1.186276083536898e+000	 6.650893133572102e-001	-1.786614228958786e+000
1	 1.256903901870271e+000	 5.366246175124240e-001	 2.032559770261911e+000
1	 1.251113483812722e+000	 5.499895433838962e-001	 1.696859799219233e+000
1	 1.245168916955427e+000	 5.633186076308789e-001	 1.344718788166392e+000
1	 1.239070339740865e+000	 5.766092320023309e-001	 9.772141910078080e-001
1	 1.232817946450777e+000	 5.898588317460343e-001	 5.954564703883630e-001
1	 1.226411987629527e+000	 6.030648170802745e-001	 2.005881425032466e-001
1	 1.219852770462114e+000	 6.162245946868086e-001	-2.062172413697635e-001
1	 1.213140659105751e+000	 6.293355692235377e-001	-6.237561756844257e-001
1	 1.206276074974036e+000	 6.423951448552380e-001	-1.050796342691462e+000
1	 1.199259496972731e+000	 6.554007268006509e-001	-1.486077814496040e+000
1	 1.192091461686306e+000	 6.683497228941863e-001	-1.928314313684010e+000
1	 1.263035454457067e+000	 5.392424326512596e-001	 1.841284764730005e+000
1	 1.257216789011060e+000	 5.526725566221481e-001	 1.509182276503459e+000
1	 1.251243222781439e+000	 5.660666440247560e-001	 1.160996171052101e+000
1	 1.245114894886047e+000	 5.794221040305814e-001	 7.978364792402293e-001
1	 1.238832000554385e+000	 5.927363392782314e-001	 4.208470595902418e-001
1	 1.232394791553046e+000	 6.060067473522817e-001	 3.120458988154602e-002
1	 1.225803576565566e+000	 6.192307222835267e-001	-3.698825068892699e-001
1	 1.219058721525625e+000	 6.324056560690328e-001	-7.811752011793988e-001
1	 1.212160649902596e+000	 6.455289402103351e-001	-1.201405059021216e+000
1	 1.205109842938485e+000	 6.585979672680770e-001	-1.629275506242856e+000
1	 1.197906839835384e+000	 6.716101324313292e-001	-2.063463153266372e+000
1	 1.269167007043930e+000	 5.418602477903944e-001	 1.655342541414852e+000
1	 1.263320094209456e+000	 5.553555698607069e-001	 1.326884719348189e+000
1	 1.257317528607485e+000	 5.688146804189427e-001	 9.827243042895368e-001
1	 1.251159450031222e+000	 5.822349760591403e-001	 6.240008860821783e-001
1	 1.244846054657936e+000	 5.956138468107336e-001	 2.518886174887892e-001
1	 1.238377595476449e+000	 6.089486776245893e-001	-1.324048437312888e-001
1	 1.231754382668837e+000	 6.222368498805404e-001	-5.276394605574420e-001
1	 1.224976783945250e+000	 6.354757429148198e-001	-9.325440091741465e-001
1	 1.218045224830843e+000	 6.486627355657232e-001	-1.345817336909392e+000
1	 1.210960188903866e+000	 6.617952077357959e-001	-1.766129684206954e+000
1	 1.203722217984031e+000	 6.748705419687716e-001	-2.192124069018619e+000
1	 1.275298559630759e+000	 5.444780629297946e-001	 1.474749758964296e+000
1	 1.269423399407810e+000	 5.580385830995502e-001	 1.149978427091012e+000
1	 1.263391834433463e+000	 5.715627168134314e-001	 8.099084603268413e-001
1	 1.257204005176290e+000	 5.850478480880179e-001	 4.557060287465364e-001
1	 1.250860108761329e+000	 5.984913543435702e-001	 8.857251776840848e-002
1	 1.244360399399635e+000	 6.118906078972457e-001	-2.902565756324238e-001
1	 1.237705188771828e+000	 6.252429774779184e-001	-6.795128165089104e-001
1	 1.230894846364528e+000	 6.385458297609863e-001	-1.077896074176889e+000
1	 1.223929799758676e+000	 6.517965309215072e-001	-1.484075831765368e+000
1	 1.216810534868771e+000	 6.649924482039284e-001	-1.896692561565171e+000
1	 1.209537596132148e+000	 6.781309515066470e-001	-2.314359164474340e+000
1	 1.281430112217454e+000	 5.470958780694262e-001	 1.299522757184964e+000
1	 1.275526704606021e+000	 5.607215963386558e-001	 9.784744828040060e-001
1	 1.269466140259273e+000	 5.743107532082148e-001	 6.425538106995347e-001
1	 1.263248560321152e+000	 5.878607201172238e-001	 2.929505509132214e-001
1	 1.256874162864464e+000	 6.013688618767694e-001	-6.910970078046334e-002
1	 1.250343203322505e+000	 6.148325381703006e-001	-4.423667088956742e-001
1	 1.243655994874438e+000	 6.282491050757292e-001	-8.255268158560127e-001
1	 1.236812908783358e+000	 6.416159166076205e-001	-1.217264230002527e+000
1	 1.229814374685995e+000	 6.549303262777925e-001	-1.616222382585372e+000
1	 1.222660880833101e+000	 6.681896886725949e-001	-2.021015352148132e+000
1	 1.215352974279634e+000	 6.813913610450872e-001	-2.430229354522717e+000
1	 1.287561664803915e+000	 5.497136932092553e-001	 1.129677564633735e+000
1	 1.281630009803991e+000	 5.634046095780015e-001	 8.123837584431549e-001
1	 1.275540446084816e+000	 5.770587896032857e-001	 4.806654284336412e-001
1	 1.269293115465706e+000	 5.906735921467680e-001	 1.357331220987602e-001
1	 1.262888216967242e+000	 6.042463694103605e-001	-2.211663381926021e-001
1	 1.256326007244957e+000	 6.177744684438015e-001	-5.887510398534688e-001
1	 1.249606800976565e+000	 6.312552326740413e-001	-9.657052379517565e-001
1	 1.242730971201641e+000	 6.446860034548100e-001	-1.350680685028113e+000
1	 1.235698949612701e+000	 6.580641216346842e-001	-1.742298031392108e+000
1	 1.228511226796755e+000	 6.713869291419161e-001	-2.139148294235952e+000
1	 1.221168352426389e+000	 6.846517705842250e-001	-2.539794393711205e+000
1	 1.163014570937961e+000	 6.520476752083219e-001	-1.152990685112456e+000
1	 1.155873109602832e+000	 6.646249776286929e-001	-1.647591604019831e+000
1	 1.148585058614304e+000	 6.771420126199730e-001	-2.161203616984393e+000
1	 1.141151112142714e+000	 6.895962677838111e-001	-2.692817103553008e+000
1	 1.133572020887520e+000	 7.019852395065859e-001	-3.241423089018559e+000
1	 1.125848592007459e+000	 7.143064345277265e-001	-3.806014706000285e+000
1	 1.117981688999059e+000	 7.265573715111380e-001	-4.385588658785049e+000
1	 1.109972231523171e+000	 7.387355826177517e-001	-4.979146687464529e+000
1	 1.101821195179304e+000	 7.508386150772266e-001	-5.585697028872971e+000
1	 1.093529611227624e+000	 7.628640327567903e-001	-6.204255871314051e+000
1	 1.085098566258542e+000	 7.748094177252014e-001	-6.833848800053483e+000
1	 1.168829949087690e+000	 6.553080847459571e-001	-1.321554387919896e+000
1	 1.161652778571524e+000	 6.679482769799122e-001	-1.808437276266922e+000
1	 1.154328285415150e+000	 6.805279004318178e-001	-2.313963985159703e+000
1	 1.146857167259933e+000	 6.930444301406756e-001	-2.837187896544108e+000
1	 1.139240178559023e+000	 7.054953499741441e-001	-3.377166303446097e+000
1	 1.131478130507162e+000	 7.178781542047006e-001	-3.932961791467553e+000
1	 1.123571890918583e+000	 7.301903490889223e-001	-4.503643616512846e+000
1	 1.115522384052679e+000	 7.424294544479033e-001	-5.088289075886045e+000
1	 1.107330590387213e+000	 7.545930052468109e-001	-5.685984869889661e+000
1	 1.098997546338916e+000	 7.666785531715749e-001	-6.295828451051940e+000
1	 1.090524343931437e+000	 7.786836682006677e-001	-6.916929358120111e+000
1	 1.174645327237490e+000	 6.585684942832285e-001	-1.483300769063707e+000
1	 1.167432447540242e+000	 6.712715763307389e-001	-1.962289591737812e+000
1	 1.160071512215981e+000	 6.839137882432631e-001	-2.459592554982402e+000
1	 1.152563222377106e+000	 6.964925924971537e-001	-2.974324848019304e+000
1	 1.144908336230456e+000	 7.090054604413443e-001	-3.505608640286863e+000
1	 1.137107669006771e+000	 7.214498738813563e-001	-4.052574383065037e+000
1	 1.129162092837993e+000	 7.338233266664368e-001	-4.614362101142604e+000
1	 1.121072536582053e+000	 7.461233262778365e-001	-5.190122671776313e+000
1	 1.112839985594964e+000	 7.583473954162310e-001	-5.779019088197885e+000
1	 1.104465481450024e+000	 7.704930735862463e-001	-6.380227704938678e+000
1	 1.095950121604115e+000	 7.825579186760658e-001	-6.992939462267778e+000
1	 1.180460705387259e+000	 6.618289038202686e-001	-1.638298330002391e+000
1	 1.173212116508882e+000	 6.745948756813138e-001	-2.109227050610659e+000
1	 1.165814739016700e+000	 6.872996760544552e-001	-2.598175679549722e+000
1	 1.158269277494137e+000	 6.999407548533922e-001	-3.104320038626374e+000
1	 1.150576493901720e+000	 7.125155709083308e-001	-3.626845804881122e+000
1	 1.142737207506194e+000	 7.250215935578347e-001	-4.164949732548749e+000
1	 1.134752294757199e+000	 7.374563042438156e-001	-4.717840859214204e+000
1	 1.126622689111209e+000	 7.498171981076808e-001	-5.284741693522572e+000
1	 1.118349380802482e+000	 7.621017855856068e-001	-5.864889381826944e+000
1	 1.109933416560885e+000	 7.743075940009153e-001	-6.457536851189861e+000
1	 1.101375899276528e+000	 7.864321691514963e-001	-7.061953926188815e+000
1	 1.186276083536898e+000	 6.650893133572102e-001	-1.786614228958786e+000
1	 1.178991785477346e+000	 6.779181750317777e-001	-2.249326613765151e+000
1	 1.171557965817204e+000	 6.906855638655393e-001	-2.729798018673750e+000
1	 1.163975332610925e+000	 7.033889172095377e-001	-3.227263743417819e+000
1	 1.156244651572721e+000	 7.160256813752506e-001	-3.740971625897499e+000
1	 1.148366746005336e+000	 7.285933132342778e-001	-4.270183184679854e+000
1	 1.140342496676112e+000	 7.410892818211960e-001	-4.814174740179746e+000
1	 1.132172841640063e+000	 7.535110699375641e-001	-5.372238511998309e+000
1	 1.123858776009693e+000	 7.658561757550579e-001	-5.943683689931654e+000
1	 1.115401351671433e+000	 7.781221144156914e-001	-6.527837476207888e+000
1	 1.106801676948623e+000	 7.903064196270588e-001	-7.124046096566050e+000
1	 1.192091461686306e+000	 6.683497228941863e-001	-1.928314313684010e+000
1	 1.184771454445534e+000	 6.812414743822718e-001	-2.382663740327748e+000
1	 1.177301192617397e+000	 6.940714516766612e-001	-2.854542580183187e+000
1	 1.169681387727372e+000	 7.068370795657385e-001	-3.343244475891133e+000
1	 1.161912809243362e+000	 7.195357918422488e-001	-3.848078101107946e+000
1	 1.153996284504104e+000	 7.321650329108280e-001	-4.368368223739121e+000
1	 1.145932698594644e+000	 7.447222593987140e-001	-4.903456742675801e+000
1	 1.137722994168534e+000	 7.572049417676150e-001	-5.452703695627235e+000
1	 1.129368171216523e+000	 7.696105659247043e-001	-6.015488235693766e+000
1	 1.120869286781606e+000	 7.819366348306854e-001	-6.591209574385139e+000
1	 1.112227454620352e+000	 7.941806701028538e-001	-7.179287888855418e+000
1	 1.197906839835384e+000	 6.716101324313292e-001	-2.063463153266370e+000
1	 1.190551123413346e+000	 6.845647737329372e-001	-2.509312424124532e+000
1	 1.183044419417176e+000	 6.974573394879658e-001	-2.972490760022167e+000
1	 1.175387442843380e+000	 7.102852419221407e-001	-3.452349030748025e+000
1	 1.167580966913544e+000	 7.230459023094709e-001	-3.948255441829056e+000
1	 1.159625823002403e+000	 7.357367525876272e-001	-4.459596518686570e+000
1	 1.151522900512705e+000	 7.483552369765053e-001	-4.985778059449106e+000
1	 1.143273146696537e+000	 7.608988135979621e-001	-5.526226054133644e+000
1	 1.134877566422896e+000	 7.733649560946659e-001	-6.080387567973940e+000
1	 1.126337221891338e+000	 7.857511552460075e-001	-6.647731586746542e+000
1	 1.117653232291664e+000	 7.980549205789822e-001	-7.227749822026198e+000
1	 1.203722217984031e+000	 6.748705419687716e-001	-2.192124069018619e+000
1	 1.196330792380682e+000	 6.878880730839148e-001	-2.629345229076542e+000
1	 1.188787646216445e+000	 7.008432272996003e-001	-3.083722381186365e+000
1	 1.181093497958850e+000	 7.137334042788914e-001	-3.554662525413012e+000
1	 1.173249124583171e+000	 7.265560127770632e-001	-4.041592116075707e+000
1	 1.165255361500140e+000	 7.393084722648167e-001	-4.543957967011907e+000
1	 1.157113102430205e+000	 7.519882145547062e-001	-5.061228120978461e+000
1	 1.148823299223990e+000	 7.645926854287342e-001	-5.592892681025682e+000
1	 1.140386961628738e+000	 7.771193462650626e-001	-6.138464601756591e+000
1	 1.131805157000568e+000	 7.895656756617677e-001	-6.697480438472350e+000
1	 1.123079009962507e+000	 8.019291710555436e-001	-7.269501052293875e+000
1	 1.209537596132148e+000	 6.781309515066470e-001	-2.314359164474340e+000
1	 1.202110461347441e+000	 6.912113724353453e-001	-2.742833323574148e+000
1	 1.194530873015101e+000	 7.042291151117091e-001	-3.188315731536686e+000
1	 1.186799553073684e+000	 7.171815666361385e-001	-3.650268440354567e+000
1	 1.178917282252147e+000	 7.300661232451708e-001	-4.128174890469023e+000
1	 1.170884899997221e+000	 7.428801919425390e-001	-4.621540737320057e+000
1	 1.162703304347055e+000	 7.556211921334526e-001	-5.129894637840071e+000
1	 1.154373451750810e+000	 7.682865572600593e-001	-5.652788994852536e+000
1	 1.145896356833974e+000	 7.808737364360138e-001	-6.189800657427241e+000
1	 1.137273092109230e+000	 7.933801960780769e-001	-6.740531575338993e+000
1	 1.128504787632834e+000	 8.058034215326391e-001	-7.304609405881303e+000
1	 1.215352974279634e+000	 6.813913610450872e-001	-2.430229354522716e+000
1	 1.207890130313525e+000	 6.945346717873699e-001	-2.849846513864748e+000
1	 1.200274099813047e+000	 7.076150029244384e-001	-3.286347600526436e+000
1	 1.192505608187781e+000	 7.206297289940284e-001	-3.739248658248633e+000
1	 1.184585439920374e+000	 7.335762337139400e-001	-4.208088870941958e+000
1	 1.176514438493552e+000	 7.464519116209352e-001	-4.692431310694441e+000
1	 1.168293506263165e+000	 7.592541697128802e-001	-5.191863641854439e+000
1	 1.159923604276914e+000	 7.719804290920662e-001	-5.705998779276820e+000
1	 1.151405752038531e+000	 7.846281266076394e-001	-6.234475498923103e+000
1	 1.142741027217261e+000	 7.971947164950446e-001	-6.776958999112569e+000
1	 1.133930565302592e+000	 8.096776720103682e-001	-7.333141410837123e+000
1	 1.221168352426389e+000	 6.846517705842250e-001	-2.539794393711204e+000
1	 1.213669799278833e+000	 6.978579711401302e-001	-2.950453276486625e+000
1	 1.206017326610182e+000	 7.110008907379337e-001	-3.377893314879596e+000
1	 1.198211663301045e+000	 7.240778913527084e-001	-3.821683502023788e+000
1	 1.190253597587755e+000	 7.370863441835159e-001	-4.281417542281418e+000
1	 1.182143976989039e+000	 7.500236313001479e-001	-4.756714520877567e+000
1	 1.173883708178447e+000	 7.628871472931258e-001	-5.247219526059702e+000
1	 1.165473756802219e+000	 7.756743009248834e-001	-5.752604222003252e+000
1	 1.156915147242332e+000	 7.883825167800594e-001	-6.272567370793195e+000
1	 1.148208962324598e+000	 8.010092369127815e-001	-6.806835301932348e+000
1	 1.139356342971731e+000	 8.135519224888317e-001	-7.355162327946920e+000
1	 1.085098566258542e+000	 7.748094177252014e-001	-6.833848800053484e+000
1	 1.076529201503747e+000	 7.866723715475821e-001	-7.467622385454931e+000
1	 1.067822711491155e+000	 7.984505160308466e-001	-8.099677400593709e+000
1	 1.058980344492536e+000	 8.101414955202057e-001	-8.730505184216147e+000
1	 1.050003402295374e+000	 8.217429786830747e-001	-9.360631815468381e+000
1	 1.040893239615138e+000	 8.332526600199040e-001	-9.990617248438962e+000
1	 1.031651263456647e+000	 8.446682613580696e-001	-1.062105437941395e+001
1	 1.022278932425099e+000	 8.559875333268288e-001	-1.125256804845446e+001
1	 1.012777755987415e+000	 8.672082568113665e-001	-1.188581397708751e+001
1	 1.003149293684649e+000	 8.783282443839943e-001	-1.252147764407455e+001
1	 9.933951542962829e-001	 8.893453417105752e-001	-1.316027310138962e+001
1	 1.090524343931437e+000	 7.786836682006677e-001	-6.916929358120108e+000
1	 1.081912130102921e+000	 7.906059399064089e-001	-7.542567216628154e+000
1	 1.073162105354262e+000	 8.024429782041105e-001	-8.166920182038808e+000
1	 1.064275524198938e+000	 8.141924156600732e-001	-8.790481267165141e+000
1	 1.055253694933738e+000	 8.258519092844207e-001	-9.413777264217659e+000
1	 1.046097979048090e+000	 8.374191420494838e-001	-1.003736787498322e+001
1	 1.036809790582231e+000	 8.488918243911607e-001	-1.066184477528690e+001
1	 1.027390595434792e+000	 8.602676956912462e-001	-1.128783061536029e+001
1	 1.017841910620453e+000	 8.715445257387533e-001	-1.191597795791771e+001
1	 1.008165303478405e+000	 8.827201161682627e-001	-1.254696815590908e+001
1	 9.983623908324757e-001	 8.937923018733837e-001	-1.318151017208812e+001
1	 1.095950121604115e+000	 7.825579186760658e-001	-6.992939462267779e+000
1	 1.087295058701843e+000	 7.945395082652035e-001	-7.610549199274407e+000
1	 1.078501499217072e+000	 8.064354403773669e-001	-8.227295924786089e+000
1	 1.069570703904998e+000	 8.182433357999499e-001	-8.843673633139563e+000
1	 1.060503987571714e+000	 8.299608398857832e-001	-9.460209180122558e+000
1	 1.051302718480609e+000	 8.415856240790786e-001	-1.007746141007031e+001
1	 1.041968317707342e+000	 8.531153874242557e-001	-1.069602021874540e+001
1	 1.032502258443979e+000	 8.645478580556495e-001	-1.131650555363646e+001
1	 1.022906065252958e+000	 8.758807946660987e-001	-1.193956635348449e+001
1	 1.013181313271613e+000	 8.871119879524556e-001	-1.256587942901030e+001
1	 1.003329627368119e+000	 8.982392620360757e-001	-1.319614828698000e+001
1	 1.101375899276528e+000	 7.864321691514963e-001	-7.061953926188815e+000
1	 1.092677987300476e+000	 7.984730766240552e-001	-7.671634042702269e+000
1	 1.083840893079570e+000	 8.104279025506974e-001	-8.280861740203136e+000
1	 1.074865883610720e+000	 8.222942559399072e-001	-8.890131310083348e+000
1	 1.065754280209328e+000	 8.340697704872252e-001	-9.499969029835462e+000
1	 1.056507457912742e+000	 8.457521061087439e-001	-1.011093228833691e+001
1	 1.047126844832045e+000	 8.573389504574061e-001	-1.072360864835036e+001
1	 1.037613921452742e+000	 8.688280204200858e-001	-1.133861484788396e+001
1	 1.027970219885028e+000	 8.802170635934490e-001	-1.195659574222554e+001
1	 1.018197323064383e+000	 8.915038597366195e-001	-1.257822318862467e+001
1	 1.008296863903329e+000	 9.026862221987012e-001	-1.320419487575985e+001
1	 1.106801676948623e+000	 7.903064196270588e-001	-7.124046096566050e+000
1	 1.098060915898787e+000	 8.024066449830550e-001	-7.725886167737243e+000
1	 1.089180286941740e+000	 8.144203647241820e-001	-8.327673619770332e+000
1	 1.080161063316109e+000	 8.263451760800170e-001	-8.929902364560125e+000
1	 1.071004572846603e+000	 8.381787010888107e-001	-9.533097466896603e+000
1	 1.061712197344534e+000	 8.499185881385367e-001	-1.013781426919724e+001
1	 1.052285371956406e+000	 8.615625134906624e-001	-1.074463745482074e+001
1	 1.042725584461163e+000	 8.731081827846019e-001	-1.135418005161229e+001
1	 1.033034374516761e+000	 8.845533325208502e-001	-1.196708237749499e+001
1	 1.023213332856823e+000	 8.958957315208017e-001	-1.258401093008105e+001
1	 1.013264100438222e+000	 9.071331823613102e-001	-1.320565722243523e+001
1	 1.112227454620352e+000	 7.941806701028538e-001	-7.179287888855421e+000
1	 1.103443844496742e+000	 8.063402133422929e-001	-7.773368738150424e+000
1	 1.094519680803567e+000	 8.184128268979014e-001	-8.367786462396786e+000
1	 1.085456243021168e+000	 8.303960962203504e-001	-8.963033925202637e+000
1	 1.076254865483564e+000	 8.422876316906022e-001	-9.559634351567313e+000
1	 1.066916936776029e+000	 8.540850701685137e-001	-1.015814045331296e+001
1	 1.057443899080488e+000	 8.657860765240758e-001	-1.075913349439675e+001
1	 1.047837247469324e+000	 8.773883451492456e-001	-1.136322229775492e+001
1	 1.038098529148254e+000	 8.888896014483473e-001	-1.197104219549410e+001
1	 1.028229342649043e+000	 9.002876033050488e-001	-1.258325392439885e+001
1	 1.018231336972914e+000	 9.115801425239533e-001	-1.320054246888040e+001
1	 1.117653232291664e+000	 7.980549205789822e-001	-7.227749822026198e+000
1	 1.108826773094307e+000	 8.102737817018594e-001	-7.814143691170236e+000
1	 1.099859074665035e+000	 8.224052890719364e-001	-8.401254100940301e+000
1	 1.090751422725903e+000	 8.344470163609796e-001	-8.989572205479607e+000
1	 1.081505158120238e+000	 8.463965622926637e-001	-9.579618770085464e+000
1	 1.072121676207273e+000	 8.582515521987304e-001	-1.017194329858332e+001
1	 1.062602426204357e+000	 8.700096395576972e-001	-1.076712310181275e+001
1	 1.052948910477308e+000	 8.816685075140641e-001	-1.136576230887684e+001
1	 1.043162683779604e+000	 8.932258703759864e-001	-1.196849082296829e+001
1	 1.033245352441153e+000	 9.046794750894069e-001	-1.257596322373253e+001
1	 1.023198573507524e+000	 9.160271026866799e-001	-1.318885761828663e+001
1	 1.123079009962507e+000	 8.019291710555436e-001	-7.269501052293871e+000
1	 1.114209701691448e+000	 8.142073500618448e-001	-7.848271767111156e+000
1	 1.105198468526130e+000	 8.263977512463679e-001	-8.428129327959006e+000
1	 1.096046602430319e+000	 8.384979365019762e-001	-9.009562525801544e+000
1	 1.086755450756648e+000	 8.505054928950590e-001	-9.593089053362027e+000
1	 1.077326415638312e+000	 8.624180342292440e-001	-1.017925463567125e+001
1	 1.067760953328076e+000	 8.742332025915777e-001	-1.076863210289510e+001
1	 1.058060573485198e+000	 8.859486698791049e-001	-1.136182040708880e+001
1	 1.048226838410909e+000	 8.975621393038130e-001	-1.195944358468316e+001
1	 1.038261362233259e+000	 9.090713468739226e-001	-1.256214966665904e+001
1	 1.028165810042165e+000	 9.204740628495401e-001	-1.317060953851160e+001
1	 1.128504787632834e+000	 8.058034215326391e-001	-7.304609405881303e+000
1	 1.119592630288131e+000	 8.181409184223392e-001	-7.875812538146955e+000
1	 1.110537862386833e+000	 8.303902134212757e-001	-8.448463920719400e+000
1	 1.101341782134418e+000	 8.425488566434111e-001	-9.023049334990519e+000
1	 1.092005743392820e+000	 8.546144234978502e-001	-9.600082795139810e+000
1	 1.082531155069191e+000	 8.665845162601109e-001	-1.018010568308232e+001
1	 1.072919480451713e+000	 8.784567656257682e-001	-1.076368582679635e+001
1	 1.063172236493076e+000	 8.902288322444147e-001	-1.135141652367290e+001
1	 1.053290993042266e+000	 9.018984082318732e-001	-1.194391551068352e+001
1	 1.043277372025473e+000	 9.134632186586423e-001	-1.254182388331150e+001
1	 1.033133046576956e+000	 9.249210230125845e-001	-1.314580496533332e+001
1	 1.133930565302592e+000	 8.096776720103682e-001	-7.333141410837126e+000
1	 1.124975558884321e+000	 8.220744867834334e-001	-7.896824436258109e+000
1	 1.115877256247132e+000	 8.343826755967413e-001	-8.462308665487310e+000
1	 1.106636961838206e+000	 8.465997767853563e-001	-9.030076231131829e+000
1	 1.097256036028779e+000	 8.587233541011022e-001	-9.600636869629108e+000
1	 1.087735894499954e+000	 8.707509982913869e-001	-1.017452706181003e+001
1	 1.078078007575330e+000	 8.826803286603194e-001	-1.075230911787742e+001
1	 1.068283899501023e+000	 8.945089946100412e-001	-1.133457020843397e+001
1	 1.058355147673773e+000	 9.062346771602122e-001	-1.192192134334494e+001
1	 1.048293381817903e+000	 9.178550904436129e-001	-1.251499630036654e+001
1	 1.038100283112013e+000	 9.293679831758626e-001	-1.311445050560976e+001
1	 1.139356342971731e+000	 8.135519224888317e-001	-7.355162327946919e+000
1	 1.130358487479987e+000	 8.260080551452174e-001	-7.911364780380377e+000
1	 1.121216650107010e+000	 8.383751377728456e-001	-8.469713381123917e+000
1	 1.111932141541688e+000	 8.506506969278836e-001	-9.030685981831050e+000
1	 1.102506328664550e+000	 8.628322847048778e-001	-9.594787448640970e+000
1	 1.092940633930648e+000	 8.749174803231294e-001	-1.016254880956341e+001
1	 1.083236534698992e+000	 8.869038916952824e-001	-1.073452634725106e+001
1	 1.073395562509123e+000	 8.987891569760318e-001	-1.131130063878195e+001
1	 1.063419302305526e+000	 9.105709460888763e-001	-1.189347554422300e+001
1	 1.053309391610658e+000	 9.222469622288806e-001	-1.248167714588889e+001
1	 1.043067519647452e+000	 9.338149433394247e-001	-1.307655264034906e+001
1	 9.933951542962829e-001	 8.893453417105752e-001	-1.316027310138962e+001
1	 9.835184859689858e-001	 9.002558003182557e-001	-1.379564018327104e+001
1	 9.735195395573906e-001	 9.110591980650797e-001	-1.442068279334342e+001
1	 9.634000661355969e-001	 9.217534898403010e-001	-1.503534376872186e+001
1	 9.531618621657936e-001	 9.323366689633666e-001	-1.563956656541802e+001
1	 9.428067684371487e-001	 9.428067684371487e-001	-1.623329562062542e+001
1	 9.323366689633666e-001	 9.531618621657936e-001	-1.681647671843096e+001
1	 9.217534898403014e-001	 9.634000661355970e-001	-1.738905735806442e+001
1	 9.110591980650801e-001	 9.735195395573908e-001	-1.795098712378641e+001
1	 9.002558003182558e-001	 9.835184859689861e-001	-1.850221805550848e+001
1	 8.893453417105754e-001	 9.933951542962831e-001	-1.904270501923204e+001
1	 9.983623908324757e-001	 8.937923018733837e-001	-1.318151017208812e+001
1	 9.884363365709108e-001	 9.047573156379061e-001	-1.381288060055072e+001
1	 9.783873928026629e-001	 9.156147332090736e-001	-1.443403351553816e+001
1	 9.682173193576339e-001	 9.263624992500780e-001	-1.504492787870301e+001
1	 9.579279216807665e-001	 9.369985970464639e-001	-1.564552325077282e+001
1	 9.475210497656301e-001	 9.475210497656299e-001	-1.623578013421496e+001
1	 9.369985970464638e-001	 9.579279216807664e-001	-1.681566031934192e+001
1	 9.263624992500781e-001	 9.682173193576340e-001	-1.738512723300612e+001
1	 9.156147332090737e-001	 9.783873928026630e-001	-1.794414628902419e+001
1	 9.047573156379061e-001	 9.884363365709107e-001	-1.849268523946020e+001
1	 8.937923018733837e-001	 9.983623908324757e-001	-1.903071452589095e+001
1	 1.003329627368119e+000	 8.982392620360757e-001	-1.319614828698000e+001
1	 9.933541871722980e-001	 9.092588309573922e-001	-1.382349072883310e+001
1	 9.832552460474230e-001	 9.201702683528507e-001	-1.444071582556733e+001
1	 9.730345725791934e-001	 9.309715086595817e-001	-1.504779890533528e+001
1	 9.626939811953059e-001	 9.416605251292318e-001	-1.564471586234151e+001
1	 9.522353310937285e-001	 9.522353310937285e-001	-1.623144347928231e+001
1	 9.416605251292319e-001	 9.626939811953059e-001	-1.680795975326772e+001
1	 9.309715086595817e-001	 9.730345725791934e-001	-1.737424422441408e+001
1	 9.201702683528505e-001	 9.832552460474229e-001	-1.793027830628386e+001
1	 9.092588309573920e-001	 9.933541871722980e-001	-1.847604561734281e+001
1	 8.982392620360759e-001	 1.003329627368119e+000	-1.901153231259421e+001
1	 1.008296863903329e+000	 9.026862221987012e-001	-1.320419487575985e+001
1	 9.982720377732672e-001	 9.137603462767701e-001	-1.382747391735933e+001
1	 9.881230992917871e-001	 9.247258034964742e-001	-1.444072885783799e+001
1	 9.778518258003882e-001	 9.355805180688869e-001	-1.504395162960739e+001
1	 9.674600407095173e-001	 9.463224532117566e-001	-1.563713468505788e+001
1	 9.569496124215389e-001	 9.569496124215388e-001	-1.622027129817596e+001
1	 9.463224532117563e-001	 9.674600407095172e-001	-1.679335586971047e+001
1	 9.355805180688868e-001	 9.778518258003882e-001	-1.735638423511678e+001
1	 9.247258034964744e-001	 9.881230992917869e-001	-1.790935397449698e+001
1	 9.137603462767698e-001	 9.982720377732671e-001	-1.845226472374385e+001
1	 9.026862221987012e-001	 1.008296863903329e+000	-1.898511848609033e+001
1	 1.013264100438222e+000	 9.071331823613102e-001	-1.320565722243523e+001
1	 1.003189888373937e+000	 9.182618615960960e-001	-1.382483344969582e+001
1	 9.929909525358738e-001	 9.292813386400107e-001	-1.443407176373132e+001
1	 9.826690790213313e-001	 9.401895274780689e-001	-1.503338093484712e+001
1	 9.722261002235053e-001	 9.509843812941224e-001	-1.562277019435703e+001
1	 9.616638937491582e-001	 9.616638937491581e-001	-1.620224951478206e+001
1	 9.509843812941226e-001	 9.722261002235054e-001	-1.677182989369209e+001
1	 9.401895274780689e-001	 9.826690790213314e-001	-1.733152364046109e+001
1	 9.292813386400108e-001	 9.929909525358741e-001	-1.788134466519442e+001
1	 9.182618615960960e-001	 1.003189888373937e+000	-1.842130876907780e+001
1	 9.071331823613102e-001	 1.013264100438222e+000	-1.895143393538903e+001
1	 1.018231336972914e+000	 9.115801425239533e-001	-1.320054246888040e+001
1	 1.008107738974426e+000	 9.227633769154262e-001	-1.381557254533728e+001
1	 9.978588057798009e-001	 9.338368737835240e-001	-1.442074371118829e+001
1	 9.874863322421351e-001	 9.447985368872026e-001	-1.501608180422593e+001
1	 9.769921597373756e-001	 9.556463093764158e-001	-1.560161305152976e+001
1	 9.663781750766814e-001	 9.663781750766810e-001	-1.617736432765723e+001
1	 9.556463093764158e-001	 9.769921597373759e-001	-1.674336341659454e+001
1	 9.447985368872026e-001	 9.874863322421351e-001	-1.729963927678644e+001
1	 9.338368737835242e-001	 9.978588057798010e-001	-1.784622230854084e+001
1	 9.227633769154262e-001	 1.008107738974426e+000	-1.838314462310273e+001
1	 9.115801425239533e-001	 1.018231336972915e+000	-1.891044031268101e+001
1	 1.023198573507524e+000	 9.160271026866799e-001	-1.318885761828663e+001
1	 1.013025589574854e+000	 9.272648922348176e-001	-1.379969436126132e+001
1	 1.002726659023686e+000	 9.383924089270798e-001	-1.440074388430747e+001
1	 9.923035854629124e-001	 9.494075462963626e-001	-1.499204931833403e+001
1	 9.817582192512335e-001	 9.603082374587222e-001	-1.557365409921023e+001
1	 9.710924564042047e-001	 9.710924564042044e-001	-1.614560220336084e+001
1	 9.603082374587223e-001	 9.817582192512335e-001	-1.670793838726748e+001
1	 9.494075462963627e-001	 9.923035854629125e-001	-1.726070843023578e+001
1	 9.383924089270798e-001	 1.002726659023686e+000	-1.780395937977412e+001
1	 9.272648922348177e-001	 1.013025589574854e+000	-1.833773979891557e+001
1	 9.160271026866796e-001	 1.023198573507524e+000	-1.886210001481307e+001
1	 1.028165810042165e+000	 9.204740628495401e-001	-1.317060953851160e+001
1	 1.017943440175341e+000	 9.317664075543262e-001	-1.377720199343899e+001
1	 1.007594512267646e+000	 9.429479440707428e-001	-1.437407148295579e+001
1	 9.971208386837761e-001	 9.540165557056242e-001	-1.496127865282890e+001
1	 9.865242787651832e-001	 9.649701655411264e-001	-1.553888435699625e+001
1	 9.758067377318234e-001	 9.758067377318230e-001	-1.610694986998234e+001
1	 9.649701655411265e-001	 9.865242787651832e-001	-1.666553710339262e+001
1	 9.540165557056242e-001	 9.971208386837762e-001	-1.721470882588921e+001
1	 9.429479440707428e-001	 1.007594512267646e+000	-1.775452888603888e+001
1	 9.317664075543263e-001	 1.017943440175341e+000	-1.828506243741168e+001
1	 9.204740628495404e-001	 1.028165810042166e+000	-1.880637616530020e+001
1	 1.033133046576956e+000	 9.249210230125845e-001	-1.314580496533331e+001
1	 1.022861290776004e+000	 9.362679228740091e-001	-1.374809847830133e+001
1	 1.012462365511799e+000	 9.475034792145779e-001	-1.434072572238824e+001
1	 1.001938091904838e+000	 9.586255651150618e-001	-1.492376507614870e+001
1	 9.912903382793308e-001	 9.696320936237141e-001	-1.549729501719463e+001
1	 9.805210190596337e-001	 9.805210190596339e-001	-1.606139431085311e+001
1	 9.696320936237144e-001	 9.912903382793309e-001	-1.661614220309916e+001
1	 9.586255651150618e-001	 1.001938091904838e+000	-1.716161861721321e+001
1	 9.475034792145778e-001	 1.012462365511799e+000	-1.769790435360012e+001
1	 9.362679228740091e-001	 1.022861290776005e+000	-1.822508129219276e+001
1	 9.249210230125846e-001	 1.033133046576956e+000	-1.874323259685653e+001
1	 1.038100283112013e+000	 9.293679831758626e-001	-1.311445050560976e+001
1	 1.027779141376965e+000	 9.407694381939217e-001	-1.371238679416365e+001
1	 1.017330218756263e+000	 9.520590143586497e-001	-1.430070583288051e+001
1	 1.006755345126213e+000	 9.632345745247507e-001	-1.487950394729301e+001
1	 9.960563977937810e-001	 9.742940217065712e-001	-1.544887744068981e+001
1	 9.852353003877321e-001	 9.852353003877318e-001	-1.600892275844063e+001
1	 9.742940217065713e-001	 9.960563977937811e-001	-1.655973665681749e+001
1	 9.632345745247505e-001	 1.006755345126213e+000	-1.710141637581086e+001
1	 9.520590143586497e-001	 1.017330218756263e+000	-1.763405981542253e+001
1	 9.407694381939216e-001	 1.027779141376965e+000	-1.815776571490807e+001
1	 9.293679831758627e-001	 1.038100283112013e+000	-1.867263383442884e+001
1	 1.043067519647452e+000	 9.338149433394247e-001	-1.307655264034906e+001
1	 1.032696991978341e+000	 9.452709535141213e-001	-1.367006986260961e+001
1	 1.022198072001155e+000	 9.566145495030239e-001	-1.425401105937131e+001
1	 1.011572598348012e+000	 9.678435839347662e-001	-1.482849071366664e+001
1	 1.000822457308639e+000	 9.789559497897831e-001	-1.539362315292942e+001
1	 9.899495817162132e-001	 9.899495817162133e-001	-1.594952268841583e+001
1	 9.789559497897830e-001	 1.000822457308639e+000	-1.649630375936784e+001
1	 9.678435839347661e-001	 1.011572598348011e+000	-1.703408108146633e+001
1	 9.566145495030243e-001	 1.022198072001155e+000	-1.756296979910663e+001
1	 9.452709535141209e-001	 1.032696991978341e+000	-1.808308564101509e+001
1	 9.338149433394248e-001	 1.043067519647452e+000	-1.859454507871282e+001
1	 8.893453417105754e-001	 9.933951542962831e-001	-1.904270501923204e+001
1	 8.783282443839946e-001	 1.003149293684649e+000	-1.956515929983839e+001
1	 8.672082568113666e-001	 1.012777755987415e+000	-2.006274159794933e+001
1	 8.559875333268284e-001	 1.022278932425099e+000	-2.053633311174535e+001
1	 8.446682613580697e-001	 1.031651263456647e+000	-2.098682636911642e+001
1	 8.332526600199038e-001	 1.040893239615138e+000	-2.141512430380962e+001
1	 8.217429786830746e-001	 1.050003402295374e+000	-2.182213932544604e+001
1	 8.101414955202058e-001	 1.058980344492536e+000	-2.220879238506370e+001
1	 7.984505160308463e-001	 1.067822711491155e+000	-2.257601203784244e+001
1	 7.866723715475820e-001	 1.076529201503747e+000	-2.292473350465457e+001
1	 7.748094177252015e-001	 1.085098566258542e+000	-2.325589773407609e+001
1	 8.937923018733837e-001	 9.983623908324757e-001	-1.903071452589095e+001
1	 8.827201161682626e-001	 1.008165303478404e+000	-1.955098126693677e+001
1	 8.715445257387531e-001	 1.017841910620452e+000	-2.004669096382103e+001
1	 8.602676956912464e-001	 1.027390595434792e+000	-2.051875299895326e+001
1	 8.488918243911606e-001	 1.036809790582231e+000	-2.096808847475083e+001
1	 8.374191420494836e-001	 1.046097979048090e+000	-2.139562923842599e+001
1	 8.258519092844205e-001	 1.055253694933738e+000	-2.180231690009474e+001
1	 8.141924156600734e-001	 1.064275524198938e+000	-2.218910184597849e+001
1	 8.024429782041104e-001	 1.073162105354262e+000	-2.255694224846281e+001
1	 7.906059399064089e-001	 1.081912130102921e+000	-2.290680307477564e+001
1	 7.786836682006676e-001	 1.090524343931436e+000	-2.323965509603073e+001
1	 8.982392620360759e-001	 1.003329627368119e+000	-1.901153231259421e+001
1	 8.871119879524554e-001	 1.013181313271613e+000	-1.952952453175961e+001
1	 8.758807946660990e-001	 1.022906065252958e+000	-2.002327415732664e+001
1	 8.645478580556493e-001	 1.032502258443979e+000	-2.049371642504878e+001
1	 8.531153874242556e-001	 1.041968317707342e+000	-2.094179867510227e+001
1	 8.415856240790786e-001	 1.051302718480609e+000	-2.136847932940487e+001
1	 8.299608398857833e-001	 1.060503987571715e+000	-2.177472686169830e+001
1	 8.182433357999499e-001	 1.069570703904998e+000	-2.216151876227048e+001
1	 8.064354403773668e-001	 1.078501499217072e+000	-2.252984049918722e+001
1	 7.945395082652034e-001	 1.087295058701842e+000	-2.288068447790220e+001
1	 7.825579186760656e-001	 1.095950121604114e+000	-2.321504900109127e+001
1	 9.026862221987012e-001	 1.008296863903329e+000	-1.898511848609033e+001
1	 8.915038597366195e-001	 1.018197323064383e+000	-1.950074359807465e+001
1	 8.802170635934493e-001	 1.027970219885028e+000	-1.999243991818985e+001
1	 8.688280204200855e-001	 1.037613921452742e+000	-2.046116623794148e+001
1	 8.573389504574059e-001	 1.047126844832045e+000	-2.090789383189416e+001
1	 8.457521061087441e-001	 1.056507457912742e+000	-2.133360539137937e+001
1	 8.340697704872252e-001	 1.065754280209328e+000	-2.173929395039785e+001
1	 8.222942559399072e-001	 1.074865883610720e+000	-2.212596180569312e+001
1	 8.104279025506973e-001	 1.083840893079570e+000	-2.249461943296017e+001
1	 7.984730766240554e-001	 1.092677987300476e+000	-2.284628440115376e+001
1	 7.864321691514962e-001	 1.101375899276527e+000	-2.318198028684655e+001
1	 9.071331823613102e-001	 1.013264100438222e+000	-1.895143393538903e+001
1	 8.958957315208017e-001	 1.023213332856823e+000	-1.946459386177945e+001
1	 8.845533325208500e-001	 1.033034374516761e+000	-1.995413799129014e+001
1	 8.731081827846016e-001	 1.042725584461163e+000	-2.042104640622857e+001
1	 8.615625134906623e-001	 1.052285371956406e+000	-2.086631204492040e+001
1	 8.499185881385368e-001	 1.061712197344533e+000	-2.129093959562869e+001
1	 8.381787010888104e-001	 1.071004572846602e+000	-2.169594438209456e+001
1	 8.263451760800170e-001	 1.080161063316109e+000	-2.208235124275460e+001
1	 8.144203647241820e-001	 1.089180286941740e+000	-2.245119340569726e+001
1	 8.024066449830547e-001	 1.098060915898786e+000	-2.280351136140880e+001
1	 7.903064196270588e-001	 1.106801676948623e+000	-2.314035173534727e+001
1	 9.115801425239533e-001	 1.018231336972915e+000	-1.891044031268101e+001
1	 9.002876033050489e-001	 1.028229342649043e+000	-1.942103158913988e+001
1	 8.888896014483472e-001	 1.038098529148253e+000	-1.990831910214554e+001
1	 8.773883451492457e-001	 1.047837247469324e+000	-2.037330199185989e+001
1	 8.657860765240759e-001	 1.057443899080488e+000	-2.081699262184512e+001
1	 8.540850701685137e-001	 1.066916936776029e+000	-2.124041543698773e+001
1	 8.422876316906023e-001	 1.076254865483564e+000	-2.164460581245363e+001
1	 8.303960962203505e-001	 1.085456243021168e+000	-2.203060889581823e+001
1	 8.184128268979012e-001	 1.094519680803568e+000	-2.239947844450514e+001
1	 8.063402133422929e-001	 1.103443844496742e+000	-2.275227566067430e+001
1	 7.941806701028539e-001	 1.112227454620352e+000	-2.309006802567691e+001
1	 9.160271026866796e-001	 1.023198573507524e+000	-1.886210001481307e+001
1	 9.046794750894069e-001	 1.033245352441152e+000	-1.937001389566476e+001
1	 8.932258703759863e-001	 1.043162683779604e+000	-1.985493493310927e+001
1	 8.816685075140642e-001	 1.052948910477309e+000	-2.031787912359793e+001
1	 8.700096395576972e-001	 1.062602426204357e+000	-2.075987604888593e+001
1	 8.582515521987303e-001	 1.072121676207273e+000	-2.118196770171947e+001
1	 8.463965622926639e-001	 1.081505158120238e+000	-2.158520730195671e+001
1	 8.344470163609796e-001	 1.090751422725903e+000	-2.197065810533751e+001
1	 8.224052890719366e-001	 1.099859074665036e+000	-2.233939220711473e+001
1	 8.102737817018594e-001	 1.108826773094307e+000	-2.269248934275484e+001
1	 7.980549205789823e-001	 1.117653232291664e+000	-2.303103568790568e+001
1	 9.204740628495404e-001	 1.028165810042166e+000	-1.880637616530020e+001
1	 9.090713468739228e-001	 1.038261362233259e+000	-1.931149872559138e+001
1	 8.975621393038131e-001	 1.048226838410909e+000	-1.979393810025670e+001
1	 8.859486698791049e-001	 1.058060573485198e+000	-2.025472497124827e+001
1	 8.742332025915781e-001	 1.067760953328077e+000	-2.069490396234330e+001
1	 8.624180342292440e-001	 1.077326415638311e+000	-2.111553243632086e+001
1	 8.505054928950588e-001	 1.086755450756648e+000	-2.151767928196698e+001
1	 8.384979365019760e-001	 1.096046602430318e+000	-2.190242369318553e+001
1	 8.263977512463675e-001	 1.105198468526129e+000	-2.227085394249373e+001
1	 8.142073500618446e-001	 1.114209701691448e+000	-2.262406615117822e+001
1	 8.019291710555438e-001	 1.123079009962507e+000	-2.296316305837764e+001
1	 9.249210230125846e-001	 1.033133046576956e+000	-1.874323259685652e+001
1	 9.134632186586426e-001	 1.043277372025473e+000	-1.924544483196254e+001
1	 9.018984082318733e-001	 1.053290993042266e+000	-1.972528213093905e+001
1	 8.902288322444149e-001	 1.063172236493076e+000	-2.018378772063419e+001
1	 8.784567656257680e-001	 1.072919480451713e+000	-2.062201912095395e+001
1	 8.665845162601106e-001	 1.082531155069190e+000	-2.104104691722585e+001
1	 8.546144234978504e-001	 1.092005743392820e+000	-2.144195352177424e+001
1	 8.425488566434111e-001	 1.101341782134418e+000	-2.182583192704195e+001
1	 8.303902134212757e-001	 1.110537862386834e+000	-2.219378445259240e+001
1	 8.181409184223392e-001	 1.119592630288131e+000	-2.254692148833471e+001
1	 8.058034215326392e-001	 1.128504787632834e+000	-2.288636023628908e+001
1	 9.293679831758627e-001	 1.038100283112013e+000	-1.867263383442884e+001
1	 9.178550904436130e-001	 1.048293381817903e+000	-1.917181175727677e+001
1	 9.062346771602124e-001	 1.058355147673773e+000	-1.964892144198123e+001
1	 8.945089946100413e-001	 1.068283899501023e+000	-2.010501654928772e+001
1	 8.826803286603192e-001	 1.078078007575330e+000	-2.054116537903640e+001
1	 8.707509982913870e-001	 1.087735894499954e+000	-2.095844962137995e+001
1	 8.587233541011023e-001	 1.097256036028779e+000	-2.135796309658511e+001
1	 8.465997767853564e-001	 1.106636961838207e+000	-2.174081048580189e+001
1	 8.343826755967414e-001	 1.115877256247132e+000	-2.210810605519004e+001
1	 8.220744867834335e-001	 1.124975558884322e+000	-2.246097237578938e+001
1	 8.096776720103682e-001	 1.133930565302592e+000	-2.280053904151231e+001
1	 9.338149433394248e-001	 1.043067519647452e+000	-1.859454507871283e+001
1	 9.222469622288808e-001	 1.053309391610658e+000	-1.909055981469063e+001
1	 9.105709460888766e-001	 1.063419302305526e+000	-1.956481131850293e+001
1	 8.987891569760318e-001	 1.073395562509123e+000	-2.001836160283630e+001
1	 8.869038916952824e-001	 1.083236534698992e+000	-2.045228766040448e+001
1	 8.749174803231293e-001	 1.092940633930648e+000	-2.086768019765577e+001
1	 8.628322847048777e-001	 1.102506328664550e+000	-2.126564235642788e+001
1	 8.506506969278835e-001	 1.111932141541688e+000	-2.164728842597516e+001
1	 8.383751377728452e-001	 1.121216650107010e+000	-2.201374254780115e+001
1	 8.260080551452174e-001	 1.130358487479987e+000	-2.236613741572773e+001
1	 8.135519224888317e-001	 1.139356342971731e+000	-2.270561297362569e+001
1	 7.748094177252015e-001	 1.085098566258542e+000	-2.325589773407609e+001
1	 7.628640327567904e-001	 1.093529611227624e+000	-2.356909296472519e+001
1	 7.508386150772266e-001	 1.101821195179304e+000	-2.386224879126726e+001
1	 7.387355826177516e-001	 1.109972231523171e+000	-2.413379332468270e+001
1	 7.265573715111381e-001	 1.117981688999059e+000	-2.438211967452407e+001
1	 7.143064345277267e-001	 1.125848592007459e+000	-2.460558990387962e+001
1	 7.019852395065859e-001	 1.133572020887520e+000	-2.480253901353341e+001
1	 6.895962677838112e-001	 1.141151112142714e+000	-2.497127894629378e+001
1	 6.771420126199729e-001	 1.148585058614304e+000	-2.511010260250652e+001
1	 6.646249776286930e-001	 1.155873109602832e+000	-2.521728785784256e+001
1	 6.520476752083220e-001	 1.163014570937961e+000	-2.529110157454257e+001
1	 7.786836682006676e-001	 1.090524343931436e+000	-2.323965509603073e+001
1	 7.666785531715749e-001	 1.098997546338916e+000	-2.355483392102805e+001
1	 7.545930052468111e-001	 1.107330590387213e+000	-2.385005457292664e+001
1	 7.424294544479030e-001	 1.115522384052680e+000	-2.412383225107365e+001
1	 7.301903490889224e-001	 1.123571890918583e+000	-2.437464725546124e+001
1	 7.178781542047006e-001	 1.131478130507162e+000	-2.460094881493032e+001
1	 7.054953499741441e-001	 1.139240178559023e+000	-2.480115894556721e+001
1	 6.930444301406760e-001	 1.146857167259933e+000	-2.497367633051260e+001
1	 6.805279004318179e-001	 1.154328285415150e+000	-2.511688021243272e+001
1	 6.679482769799123e-001	 1.161652778571525e+000	-2.522913428997480e+001
1	 6.553080847459574e-001	 1.168829949087691e+000	-2.530879060961167e+001
1	 7.825579186760656e-001	 1.095950121604114e+000	-2.321504900109127e+001
1	 7.704930735862464e-001	 1.104465481450025e+000	-2.353201917607024e+001
1	 7.583473954162309e-001	 1.112839985594964e+000	-2.382910223496952e+001
1	 7.461233262778366e-001	 1.121072536582053e+000	-2.410490524532160e+001
1	 7.338233266664367e-001	 1.129162092837993e+000	-2.435800057247089e+001
1	 7.214498738813561e-001	 1.137107669006771e+000	-2.458692957068472e+001
1	 7.090054604413444e-001	 1.144908336230456e+000	-2.479020630539465e+001
1	 6.964925924971539e-001	 1.152563222377107e+000	-2.496632129805326e+001
1	 6.839137882432630e-001	 1.160071512215981e+000	-2.511374528511324e+001
1	 6.712715763307390e-001	 1.167432447540242e+000	-2.523093298270531e+001
1	 6.585684942832285e-001	 1.174645327237490e+000	-2.531632684866903e+001
1	 7.864321691514962e-001	 1.101375899276527e+000	-2.318198028684655e+001
1	 7.743075940009153e-001	 1.109933416560885e+000	-2.350054441985753e+001
1	 7.621017855856068e-001	 1.118349380802482e+000	-2.379928354834915e+001
1	 7.498171981076808e-001	 1.126622689111209e+000	-2.407690131680682e+001
1	 7.374563042438157e-001	 1.134752294757199e+000	-2.433206695896888e+001
1	 7.250215935578346e-001	 1.142737207506194e+000	-2.456341884159221e+001
1	 7.125155709083311e-001	 1.150576493901721e+000	-2.476956804022198e+001
1	 6.999407548533921e-001	 1.158269277494137e+000	-2.494910193874055e+001
1	 6.872996760544550e-001	 1.165814739016700e+000	-2.510058784448268e+001
1	 6.745948756813137e-001	 1.173212116508882e+000	-2.522257661077308e+001
1	 6.618289038202687e-001	 1.180460705387259e+000	-2.531360625879983e+001
1	 7.903064196270588e-001	 1.106801676948623e+000	-2.314035173534727e+001
1	 7.781221144156915e-001	 1.115401351671433e+000	-2.346030738779568e+001
1	 7.658561757550582e-001	 1.123858776009693e+000	-2.376049240626670e+001
1	 7.535110699375642e-001	 1.132172841640063e+000	-2.403971165130824e+001
1	 7.410892818211962e-001	 1.140342496676113e+000	-2.429673595763387e+001
1	 7.285933132342778e-001	 1.148366746005336e+000	-2.453030552036534e+001
1	 7.160256813752505e-001	 1.156244651572722e+000	-2.473913331409151e+001
1	 7.033889172095378e-001	 1.163975332610925e+000	-2.492190853682889e+001
1	 6.906855638655390e-001	 1.171557965817204e+000	-2.507730007098127e+001
1	 6.779181750317775e-001	 1.178991785477346e+000	-2.520395995344252e+001
1	 6.650893133572102e-001	 1.186276083536898e+000	-2.530052684705570e+001
1	 7.941806701028539e-001	 1.112227454620352e+000	-2.309006802567691e+001
1	 7.819366348306852e-001	 1.120869286781606e+000	-2.341120781079942e+001
1	 7.696105659247045e-001	 1.129368171216522e+000	-2.371262477240673e+001
1	 7.572049417676151e-001	 1.137722994168534e+000	-2.399322955791832e+001
1	 7.447222593987140e-001	 1.145932698594644e+000	-2.425189926652062e+001
1	 7.321650329108282e-001	 1.153996284504104e+000	-2.448748066777612e+001
1	 7.195357918422488e-001	 1.161912809243362e+000	-2.469879345380968e+001
1	 7.068370795657383e-001	 1.169681387727372e+000	-2.488463351747872e+001
1	 6.940714516766607e-001	 1.177301192617397e+000	-2.504377624895322e+001
1	 6.812414743822718e-001	 1.184771454445535e+000	-2.517497984317199e+001
1	 6.683497228941862e-001	 1.192091461686306e+000	-2.527698861069744e+001
1	 7.980549205789823e-001	 1.117653232291664e+000	-2.303103568790568e+001
1	 7.857511552460074e-001	 1.126337221891338e+000	-2.335314736685612e+001
1	 7.733649560946661e-001	 1.134877566422896e+000	-2.365557863067896e+001
1	 7.608988135979622e-001	 1.143273146696537e+000	-2.393735041750451e+001
1	 7.483552369765054e-001	 1.151522900512705e+000	-2.419745068674113e+001
1	 7.357367525876271e-001	 1.159625823002403e+000	-2.443483746002801e+001
1	 7.230459023094710e-001	 1.167580966913544e+000	-2.464844189645002e+001
1	 7.102852419221404e-001	 1.175387442843380e+000	-2.483717139478908e+001
1	 6.974573394879657e-001	 1.183044419417177e+000	-2.499991271557951e+001
1	 6.845647737329372e-001	 1.190551123413346e+000	-2.513553511577472e+001
1	 6.716101324313291e-001	 1.197906839835384e+000	-2.524289348888521e+001
1	 8.019291710555438e-001	 1.123079009962507e+000	-2.296316305837764e+001
1	 7.895656756617676e-001	 1.131805157000568e+000	-2.328602963399168e+001
1	 7.771193462650629e-001	 1.140386961628738e+000	-2.358925393641988e+001
1	 7.645926854287342e-001	 1.148823299223991e+000	-2.387197163266191e+001
1	 7.519882145547064e-001	 1.157113102430205e+000	-2.413328607166560e+001
1	 7.393084722648167e-001	 1.165255361500140e+000	-2.437227113765890e+001
1	 7.265560127770631e-001	 1.173249124583170e+000	-2.458797413837797e+001
1	 7.137334042788917e-001	 1.181093497958850e+000	-2.477941872133788e+001
1	 7.008432272996001e-001	 1.188787646216445e+000	-2.494560781128915e+001
1	 6.878880730839149e-001	 1.196330792380682e+000	-2.508552656202760e+001
1	 6.748705419687716e-001	 1.203722217984031e+000	-2.519814531577157e+001
1	 8.058034215326392e-001	 1.128504787632834e+000	-2.288636023628908e+001
1	 7.933801960780769e-001	 1.137273092109230e+000	-2.320976004459542e+001
1	 7.808737364360139e-001	 1.145896356833975e+000	-2.351355256899914e+001
1	 7.682865572600591e-001	 1.154373451750810e+000	-2.379699257911318e+001
1	 7.556211921334525e-001	 1.162703304347055e+000	-2.405930327758436e+001
1	 7.428801919425387e-001	 1.170884899997221e+000	-2.429967895591346e+001
1	 7.300661232451707e-001	 1.178917282252146e+000	-2.451728768574639e+001
1	 7.171815666361384e-001	 1.186799553073683e+000	-2.471127403917710e+001
1	 7.042291151117088e-001	 1.194530873015102e+000	-2.488076183160191e+001
1	 6.912113724353454e-001	 1.202110461347441e+000	-2.502485688067340e+001
1	 6.781309515066470e-001	 1.209537596132148e+000	-2.514264977494593e+001
1	 8.096776720103682e-001	 1.133930565302592e+000	-2.280053904151231e+001
1	 7.971947164950446e-001	 1.142741027217261e+000	-2.312424584105357e+001
1	 7.846281266076395e-001	 1.151405752038531e+000	-2.342837828578751e+001
1	 7.719804290920660e-001	 1.159923604276914e+000	-2.371231455850177e+001
1	 7.592541697128803e-001	 1.168293506263165e+000	-2.397540211579074e+001
1	 7.464519116209351e-001	 1.176514438493552e+000	-2.421696013654227e+001
1	 7.335762337139400e-001	 1.184585439920374e+000	-2.443628200641110e+001
1	 7.206297289940287e-001	 1.192505608187781e+000	-2.463263783223570e+001
1	 7.076150029244382e-001	 1.200274099813047e+000	-2.480527698035397e+001
1	 6.945346717873701e-001	 1.207890130313525e+000	-2.495343063277434e+001
1	 6.813913610450871e-001	 1.215352974279634e+000	-2.507631435518681e+001
1	 8.135519224888317e-001	 1.139356342971731e+000	-2.270561297362569e+001
1	 8.010092369127815e-001	 1.148208962324598e+000	-2.302939603265334e+001
1	 7.883825167800594e-001	 1.156915147242333e+000	-2.333363667744088e+001
1	 7.756743009248837e-001	 1.165473756802219e+000	-2.361784075253394e+001
1	 7.628871472931256e-001	 1.173883708178447e+000	-2.388148430602967e+001
1	 7.500236313001479e-001	 1.182143976989039e+000	-2.412401582097819e+001
1	 7.370863441835159e-001	 1.190253597587755e+000	-2.434485848322279e+001
1	 7.240778913527087e-001	 1.198211663301045e+000	-2.454341248008170e+001
1	 7.110008907379337e-001	 1.206017326610182e+000	-2.471905732425832e+001
1	 6.978579711401304e-001	 1.213669799278833e+000	-2.487115419736781e+001
1	 6.846517705842252e-001	 1.221168352426390e+000	-2.499904830748020e+001
1	 6.520476752083220e-001	 1.163014570937961e+000	-2.529110157454257e+001
1	 6.394145244636896e-001	 1.170007767141820e+000	-2.534788884472555e+001
1	 6.267261680804235e-001	 1.176853200330036e+000	-2.540444506694333e+001
1	 6.139851349973728e-001	 1.183550347006173e+000	-2.545969447982681e+001
1	 6.011939567052548e-001	 1.190098739945637e+000	-2.551257932439133e+001
1	 5.883551657230446e-001	 1.196497968013681e+000	-2.556206028238612e+001
1	 5.754712940886185e-001	 1.202747675935370e+000	-2.560711688215015e+001
1	 5.625448718653630e-001	 1.208847564018352e+000	-2.564674787206013e+001
1	 5.495784256663967e-001	 1.214797387829354e+000	-2.567997156172456e+001
1	 5.365744771980170e-001	 1.220596957825402e+000	-2.570582613114325e+001
1	 5.235355418239186e-001	 1.226246138940778e+000	-2.572336990811546e+001
1	 6.553080847459574e-001	 1.168829949087691e+000	-2.530879060961167e+001
1	 6.426117649314612e-001	 1.175858113107952e+000	-2.537246565153721e+001
1	 6.298599634356479e-001	 1.182737775258663e+000	-2.543709096432952e+001
1	 6.170552218427237e-001	 1.189468409425784e+000	-2.550146766131225e+001
1	 6.042000843015226e-001	 1.196049546048495e+000	-2.556441227563423e+001
1	 5.912970959942788e-001	 1.202480771936284e+000	-2.562475744958825e+001
1	 5.783488016197220e-001	 1.208761730037767e+000	-2.568135259198878e+001
1	 5.653577438922183e-001	 1.214892119162068e+000	-2.573306450316608e+001
1	 5.523264620586147e-001	 1.220871693653703e+000	-2.577877796721659e+001
1	 5.392574904344010e-001	 1.226700263021949e+000	-2.581739631122428e+001
1	 5.261533569607503e-001	 1.232377691525745e+000	-2.584784193124441e+001
1	 6.585684942832285e-001	 1.174645327237490e+000	-2.531632684866903e+001
1	 6.458090053989228e-001	 1.181708459074210e+000	-2.538680258138754e+001
1	 6.329937587906362e-001	 1.188622350187476e+000	-2.545941654616614e+001
1	 6.201253086879276e-001	 1.195386471845647e+000	-2.553285335439479e+001
1	 6.072062118977436e-001	 1.202000352151671e+000	-2.560581055680884e+001
1	 5.942390262655704e-001	 1.208463575859270e+000	-2.567699957232658e+001
1	 5.812263091509863e-001	 1.214775784140606e+000	-2.574514658547083e+001
1	 5.681706159193327e-001	 1.220936674306278e+000	-2.580899341143136e+001
1	 5.550744984511793e-001	 1.226945999478585e+000	-2.586729832792229e+001
1	 5.419405036712033e-001	 1.232803568219056e+000	-2.591883687305832e+001
1	 5.287711720980506e-001	 1.238509244111277e+000	-2.596240260857403e+001
1	 6.618289038202687e-001	 1.180460705387259e+000	-2.531360625879982e+001
1	 6.490062458661946e-001	 1.187558805040492e+000	-2.539080015652069e+001
1	 6.361275541454936e-001	 1.194506925116376e+000	-2.547132876158738e+001
1	 6.231953955330729e-001	 1.201304534265663e+000	-2.555376671034405e+001
1	 6.102123394939858e-001	 1.207951158255066e+000	-2.563669919887421e+001
1	 5.971809565369678e-001	 1.214446379782539e+000	-2.571872314000929e+001
1	 5.841038166824406e-001	 1.220789838243787e+000	-2.579844828942640e+001
1	 5.709834879467165e-001	 1.226981229450880e+000	-2.587449833941312e+001
1	 5.578225348440833e-001	 1.233020305303900e+000	-2.594551197898342e+001
1	 5.446235169084013e-001	 1.238906873416620e+000	-2.601014391911251e+001
1	 5.313889872357853e-001	 1.244640796697276e+000	-2.606706588196250e+001
1	 6.650893133572102e-001	 1.186276083536898e+000	-2.530052684705570e+001
1	 6.522034863333970e-001	 1.193409151006699e+000	-2.538436084982629e+001
1	 6.392613495003260e-001	 1.200391500045263e+000	-2.547273638434808e+001
1	 6.262654823782471e-001	 1.207222596685732e+000	-2.556412454421609e+001
1	 6.132184670903177e-001	 1.213901964358580e+000	-2.565700470284594e+001
1	 6.001228868085198e-001	 1.220429183705992e+000	-2.574986588741407e+001
1	 5.869813242141138e-001	 1.226803892347210e+000	-2.584120812236901e+001
1	 5.737963599743791e-001	 1.233025784595776e+000	-2.592954374063600e+001
1	 5.605705712373186e-001	 1.239094611129547e+000	-2.601339866075484e+001
1	 5.473065301459732e-001	 1.245010178614542e+000	-2.609131362827945e+001
1	 5.340068023739212e-001	 1.250772349283641e+000	-2.616184541988397e+001
1	 6.683497228941862e-001	 1.192091461686306e+000	-2.527698861069744e+001
1	 6.554007268006509e-001	 1.199259496972730e+000	-2.536738903725967e+001
1	 6.423951448552381e-001	 1.206276074974036e+000	-2.546354996831904e+001
1	 6.293355692235376e-001	 1.213140659105751e+000	-2.556384529427138e+001
1	 6.162245946868087e-001	 1.219852770462114e+000	-2.566665500393986e+001
1	 6.030648170802748e-001	 1.226411987629527e+000	-2.577036676431194e+001
1	 5.898588317460345e-001	 1.232817946450777e+000	-2.587337747030376e+001
1	 5.766092320023306e-001	 1.239070339740865e+000	-2.597409476224850e+001
1	 5.633186076308788e-001	 1.245168916955427e+000	-2.607093850892104e+001
1	 5.499895433838962e-001	 1.251113483812722e+000	-2.616234225401304e+001
1	 5.366246175124240e-001	 1.256903901870271e+000	-2.624675462409545e+001
1	 6.716101324313291e-001	 1.197906839835384e+000	-2.524289348888521e+001
1	 6.585979672680772e-001	 1.205109842938485e+000	-2.533979095164841e+001
1	 6.455289402103352e-001	 1.212160649902596e+000	-2.544368180427781e+001
1	 6.324056560690328e-001	 1.219058721525625e+000	-2.555284898257397e+001
1	 6.192307222835267e-001	 1.225803576565566e+000	-2.566557943675972e+001
1	 6.060067473522817e-001	 1.232394791553047e+000	-2.578016590597559e+001
1	 5.927363392782314e-001	 1.238832000554385e+000	-2.589490866324472e+001
1	 5.794221040305811e-001	 1.245114894886047e+000	-2.600811722818792e+001
1	 5.660666440247560e-001	 1.251243222781440e+000	-2.611811204490101e+001
1	 5.526725566221482e-001	 1.257216789011060e+000	-2.622322612251797e+001
1	 5.392424326512596e-001	 1.263035454457068e+000	-2.632180663611212e+001
1	 6.748705419687716e-001	 1.203722217984031e+000	-2.519814531577158e+001
1	 6.617952077357960e-001	 1.210960188903866e+000	-2.530147463783851e+001
1	 6.486627355657232e-001	 1.218045224830843e+000	-2.541304587795192e+001
1	 6.354757429148196e-001	 1.224976783945250e+000	-2.553105717673412e+001
1	 6.222368498805404e-001	 1.231754382668837e+000	-2.565370870149214e+001
1	 6.089486776245892e-001	 1.238377595476449e+000	-2.577920460454185e+001
1	 5.956138468107337e-001	 1.244846054657936e+000	-2.590575495241168e+001
1	 5.822349760591402e-001	 1.251159450031222e+000	-2.603157762283118e+001
1	 5.688146804189426e-001	 1.257317528607485e+000	-2.615490016652831e+001
1	 5.553555698607069e-001	 1.263320094209456e+000	-2.627396163099312e+001
1	 5.418602477903944e-001	 1.269167007043930e+000	-2.638701434349158e+001
1	 6.781309515066470e-001	 1.209537596132148e+000	-2.514264977494593e+001
1	 6.649924482039283e-001	 1.216810534868771e+000	-2.525234990913386e+001
1	 6.517965309215071e-001	 1.223929799758676e+000	-2.537155782927357e+001
1	 6.385458297609863e-001	 1.230894846364528e+000	-2.549839295275285e+001
1	 6.252429774779184e-001	 1.237705188771828e+000	-2.563097483108039e+001
1	 6.118906078972459e-001	 1.244360399399635e+000	-2.576742528120163e+001
1	 5.984913543435699e-001	 1.250860108761329e+000	-2.590587048808388e+001
1	 5.850478480880177e-001	 1.257204005176291e+000	-2.604444307511836e+001
1	 5.715627168134314e-001	 1.263391834433463e+000	-2.618128413900514e+001
1	 5.580385830995502e-001	 1.269423399407810e+000	-2.631454524592424e+001
1	 5.444780629297945e-001	 1.275298559630759e+000	-2.644239038594139e+001
1	 6.813913610450871e-001	 1.215352974279634e+000	-2.507631435518681e+001
1	 6.681896886725949e-001	 1.222660880833101e+000	-2.519232830498586e+001
1	 6.549303262777922e-001	 1.229814374685995e+000	-2.531913491280223e+001
1	 6.416159166076205e-001	 1.236812908783358e+000	-2.545478085893423e+001
1	 6.282491050757294e-001	 1.243655994874437e+000	-2.559731115933755e+001
1	 6.148325381703006e-001	 1.250343203322504e+000	-2.574477145918782e+001
1	 6.013688618767693e-001	 1.256874162864464e+000	-2.589521029809010e+001
1	 5.878607201172236e-001	 1.263248560321152e+000	-2.604668134313067e+001
1	 5.743107532082147e-001	 1.269466140259273e+000	-2.619724558610975e+001
1	 5.607215963386559e-001	 1.275526704606021e+000	-2.634497350142673e+001
1	 5.470958780694262e-001	 1.281430112217454e+000	-2.648794716124650e+001
1	 6.846517705842252e-001	 1.221168352426390e+000	-2.499904830748020e+001
1	 6.713869291419162e-001	 1.228511226796755e+000	-2.512132304989331e+001
1	 6.580641216346844e-001	 1.235698949612701e+000	-2.525569595927993e+001
1	 6.446860034548100e-001	 1.242730971201640e+000	-2.540014688083001e+001
1	 6.312552326740415e-001	 1.249606800976566e+000	-2.555265228997090e+001
1	 6.177744684438016e-001	 1.256326007244957e+000	-2.571118773753399e+001
1	 6.042463694103604e-001	 1.262888216967242e+000	-2.587373026691495e+001
1	 5.906735921467679e-001	 1.269293115465707e+000	-2.603826079911210e+001
1	 5.770587896032855e-001	 1.275540446084816e+000	-2.620276648166095e+001
1	 5.634046095780015e-001	 1.281630009803991e+000	-2.636524299763457e+001
1	 5.497136932092552e-001	 1.287561664803915e+000	-2.652369683103115e+001
1	 5.235355418239186e-001	 1.226246138940778e+000	-2.572336990811546e+001
1	 5.104621640384944e-001	 1.231745663889408e+000	-2.574035570031214e+001
1	 4.973587974246062e-001	 1.237094647192462e+000	-2.576542399111166e+001
1	 4.842279316542609e-001	 1.242293115293416e+000	-2.579901508813706e+001
1	 4.710720445141691e-001	 1.247341147071947e+000	-2.584160569096493e+001
1	 4.578936005938943e-001	 1.252238873225494e+000	-2.589370552096132e+001
1	 4.446950500028725e-001	 1.256986475613899e+000	-2.595585396196041e+001
1	 4.314788271174074e-001	 1.261584186568501e+000	-2.602861671904983e+001
1	 4.182473493586813e-001	 1.266032288167079e+000	-2.611258250250605e+001
1	 4.050030160027568e-001	 1.270331111476093e+000	-2.620835974369114e+001
1	 3.917482070234653e-001	 1.274481035761665e+000	-2.631657334947207e+001
1	 5.261533569607503e-001	 1.232377691525745e+000	-2.584784193124441e+001
1	 5.130146088546691e-001	 1.237904715542784e+000	-2.587800421190094e+001
1	 4.998457219681046e-001	 1.243280445166595e+000	-2.591677193960983e+001
1	 4.866491984220787e-001	 1.248504906972856e+000	-2.596462275401851e+001
1	 4.734275283928873e-001	 1.253578180235638e+000	-2.602207128953467e+001
1	 4.601831887936905e-001	 1.258500396305879e+000	-2.608966569514368e+001
1	 4.469186419851158e-001	 1.263271737952744e+000	-2.616798416619156e+001
1	 4.336363345159897e-001	 1.267892438669269e+000	-2.625763149560822e+001
1	 4.203386958952361e-001	 1.272362781943674e+000	-2.635923565181701e+001
1	 4.070281373959293e-001	 1.276683100497812e+000	-2.647344439033935e+001
1	 3.937070508923962e-001	 1.280853775494218e+000	-2.660092190584139e+001
1	 5.287711720980506e-001	 1.238509244111277e+000	-2.596240260857403e+001
1	 5.155670536713385e-001	 1.244063767196715e+000	-2.600603854991668e+001
1	 5.023326465121009e-001	 1.249466243141255e+000	-2.605888117703179e+001
1	 4.890704651903785e-001	 1.254716698652781e+000	-2.612142596205726e+001
1	 4.757830122720564e-001	 1.259815213399763e+000	-2.619420569419641e+001
1	 4.624727769938942e-001	 1.264761919386638e+000	-2.627778692781353e+001
1	 4.491422339677152e-001	 1.269557000291902e+000	-2.637276644335917e+001
1	 4.357938419148707e-001	 1.274200690770285e+000	-2.647976772873216e+001
1	 4.224300424320306e-001	 1.278693275720454e+000	-2.659943748846865e+001
1	 4.090532587892840e-001	 1.283035089519661e+000	-2.673244218788440e+001
1	 3.956658947614563e-001	 1.287226515226850e+000	-2.687946463905038e+001
1	 5.313889872357853e-001	 1.244640796697276e+000	-2.606706588196250e+001
1	 5.181194984884607e-001	 1.250222818851101e+000	-2.612448831340350e+001
1	 5.048195710565490e-001	 1.255652041116343e+000	-2.619179178455443e+001
1	 4.914917319591128e-001	 1.260928490333094e+000	-2.626947039967695e+001
1	 4.781384961516293e-001	 1.266052246564224e+000	-2.635805562405061e+001
1	 4.647623651944605e-001	 1.271023442467676e+000	-2.645811269833137e+001
1	 4.513658259506281e-001	 1.275842262631276e+000	-2.657023706633343e+001
1	 4.379513493140115e-001	 1.280508942871457e+000	-2.669505082392756e+001
1	 4.245213889690288e-001	 1.285023769497329e+000	-2.683319919649428e+001
1	 4.110783801827867e-001	 1.289387078541550e+000	-2.698534705213865e+001
1	 3.976247386306124e-001	 1.293599254959479e+000	-2.715217545758839e+001
1	 5.340068023739212e-001	 1.250772349283641e+000	-2.616184541988397e+001
1	 5.206719433059939e-001	 1.256381870505843e+000	-2.623338252100078e+001
1	 5.073064956014023e-001	 1.261837839091760e+000	-2.631554305740791e+001
1	 4.939129987282335e-001	 1.267140282013694e+000	-2.640880085842137e+001
1	 4.804939800315585e-001	 1.272289279728921e+000	-2.651366688208930e+001
1	 4.670519533953437e-001	 1.277284965548894e+000	-2.663068563347551e+001
1	 4.535894179338115e-001	 1.282127524970770e+000	-2.676043159671509e+001
1	 4.401088567133724e-001	 1.286817194972689e+000	-2.690350568852560e+001
1	 4.266127355061940e-001	 1.291354263274209e+000	-2.706053174062098e+001
1	 4.131035015764032e-001	 1.295739067563394e+000	-2.723215301821810e+001
1	 3.995835824998310e-001	 1.299971994692022e+000	-2.741902878156830e+001
1	 5.366246175124240e-001	 1.256903901870271e+000	-2.624675462409545e+001
1	 5.232243881238962e-001	 1.262540922160840e+000	-2.633274962510061e+001
1	 5.097934201466150e-001	 1.268023637067405e+000	-2.643017352404571e+001
1	 4.963342654976928e-001	 1.273352073694482e+000	-2.653946125580822e+001
1	 4.828494639117959e-001	 1.278526312893757e+000	-2.666108437754027e+001
1	 4.693415415964982e-001	 1.283546488630194e+000	-2.679554752823919e+001
1	 4.558130099172236e-001	 1.288412787310289e+000	-2.694338490218233e+001
1	 4.422663641129142e-001	 1.293125447073886e+000	-2.710515674383586e+001
1	 4.287040820434900e-001	 1.297684757051000e+000	-2.728144587161735e+001
1	 4.151286229700996e-001	 1.302091056585104e+000	-2.747285423763142e+001
1	 4.015424263690787e-001	 1.306344734424396e+000	-2.767999953024786e+001
1	 5.392424326512596e-001	 1.263035454457068e+000	-2.632180663611212e+001
1	 5.257768329421260e-001	 1.268699973815992e+000	-2.642261752559249e+001
1	 5.122803446921409e-001	 1.274209435043177e+000	-2.653572096475639e+001
1	 4.987555322674426e-001	 1.279563865375357e+000	-2.666149465654214e+001
1	 4.852049477922950e-001	 1.284763346058632e+000	-2.680035214756194e+001
1	 4.716311297978787e-001	 1.289808011711478e+000	-2.695273936602039e+001
1	 4.580366019008214e-001	 1.294698049649734e+000	-2.711913117333663e+001
1	 4.444238715125974e-001	 1.299433699174956e+000	-2.730002793694257e+001
1	 4.307954285808808e-001	 1.304015250827613e+000	-2.749595213148783e+001
1	 4.171537443638417e-001	 1.308443045606594e+000	-2.770744497545664e+001
1	 4.035012702383219e-001	 1.312717474156519e+000	-2.793506310991342e+001
1	 5.418602477903944e-001	 1.269167007043930e+000	-2.638701434349158e+001
1	 5.283292777606419e-001	 1.274859025471199e+000	-2.650301358320836e+001
1	 5.147672692379336e-001	 1.280395233018978e+000	-2.663222242973652e+001
1	 5.011767990374353e-001	 1.285775657056222e+000	-2.677494329311709e+001
1	 4.875604316730076e-001	 1.291000379223447e+000	-2.693151337830925e+001
1	 4.739207179994396e-001	 1.296069534792649e+000	-2.710230133822451e+001
1	 4.602601938845620e-001	 1.300983311989011e+000	-2.728770394005664e+001
1	 4.465813789123833e-001	 1.305741951275802e+000	-2.748814275215908e+001
1	 4.328867751183296e-001	 1.310345744603956e+000	-2.770406085851596e+001
1	 4.191788657575951e-001	 1.314795034627775e+000	-2.793591960759412e+001
1	 4.054601141075276e-001	 1.319090213888307e+000	-2.818419540211588e+001
1	 5.444780629297945e-001	 1.275298559630759e+000	-2.644239038594139e+001
1	 5.308817225794015e-001	 1.281018077126362e+000	-2.657396463248529e+001
1	 5.172541937839469e-001	 1.286581030994707e+000	-2.671971425664234e+001
1	 5.035980658076223e-001	 1.291987448736975e+000	-2.687984858582078e+001
1	 4.899159155538865e-001	 1.297237412388103e+000	-2.705461042539005e+001
1	 4.762103062011355e-001	 1.302331057873609e+000	-2.724427286330719e+001
1	 4.624837858684034e-001	 1.307268574328022e+000	-2.744913608738163e+001
1	 4.487388863122321e-001	 1.312050203376334e+000	-2.766952422215456e+001
1	 4.349781216558008e-001	 1.316676238379938e+000	-2.790578219216096e+001
1	 4.212039871513260e-001	 1.321147023648560e+000	-2.815827261810646e+001
1	 4.074189579766622e-001	 1.325462953619678e+000	-2.842737275224468e+001
1	 5.470958780694262e-001	 1.281430112217454e+000	-2.648794716124650e+001
1	 5.334341673983635e-001	 1.287177128781379e+000	-2.663549699435284e+001
1	 5.197411183301345e-001	 1.292766828970265e+000	-2.679823208763524e+001
1	 5.060193325779567e-001	 1.298199240417519e+000	-2.697625116216761e+001
1	 4.922713994348842e-001	 1.303474445552502e+000	-2.716968483373768e+001
1	 4.784998944029212e-001	 1.308592580954260e+000	-2.737869260526325e+001
1	 4.647073778523031e-001	 1.313553836666673e+000	-2.760345987093999e+001
1	 4.508963937121045e-001	 1.318358455476454e+000	-2.784419493875820e+001
1	 4.370694681932574e-001	 1.323006732155468e+000	-2.810112607781474e+001
1	 4.232291085450000e-001	 1.327499012668861e+000	-2.837449859662823e+001
1	 4.093778018456922e-001	 1.331835693350548e+000	-2.866457195843128e+001
1	 5.497136932092552e-001	 1.287561664803915e+000	-2.652369683103115e+001
1	 5.359866122174862e-001	 1.293336180436153e+000	-2.668763648836356e+001
1	 5.222280428764503e-001	 1.298952626945552e+000	-2.686781088594348e+001
1	 5.084405993483899e-001	 1.304411032097752e+000	-2.706419087577383e+001
1	 4.946268833159535e-001	 1.309711478716544e+000	-2.727677735691228e+001
1	 4.807894826047505e-001	 1.314854104034503e+000	-2.750559849159338e+001
1	 4.669309698362182e-001	 1.319839099004865e+000	-2.775070693193524e+001
1	 4.530539011119615e-001	 1.324666707576071e+000	-2.801217706345615e+001
1	 4.391608147306637e-001	 1.329337225930455e+000	-2.829010227142256e+001
1	 4.252542299385832e-001	 1.333851001688592e+000	-2.858459223585326e+001
1	 4.113366457145843e-001	 1.338208433080836e+000	-2.889577026076911e+001
1	 3.917482070234653e-001	 1.274481035761665e+000	-2.631657334947207e+001
1	 3.784852817797219e-001	 1.278482487352557e+000	-2.643797340846868e+001
1	 3.652165773779126e-001	 1.282335937840718e+000	-2.657179179836232e+001
1	 3.519444082195939e-001	 1.286041904167421e+000	-2.671639069033994e+001
1	 3.386710651775104e-001	 1.289600948045209e+000	-2.687013846715775e+001
1	 3.253988146137712e-001	 1.293013675037378e+000	-2.703141055691771e+001
1	 3.121298974347747e-001	 1.296280733615264e+000	-2.719859024839078e+001
1	 2.988665281832910e-001	 1.299402814194865e+000	-2.737006948725983e+001
1	 2.856108941680556e-001	 1.302380648154343e+000	-2.754424965270349e+001
1	 2.723651546311524e-001	 1.305215006833941e+000	-2.771954231377801e+001
1	 2.591314399534020e-001	 1.307906700519837e+000	-2.789436996509920e+001
1	 3.937070508923962e-001	 1.280853775494218e+000	-2.660092190584139e+001
1	 3.803778075409665e-001	 1.284875235393391e+000	-2.674224654591898e+001
1	 3.670427561341694e-001	 1.288747954145378e+000	-2.689633201831206e+001
1	 3.537042226461742e-001	 1.292472451276313e+000	-2.706135978912254e+001
1	 3.403645094046872e-001	 1.296049291307467e+000	-2.723551743359052e+001
1	 3.270258941042208e-001	 1.299479082830132e+000	-2.741699977287645e+001
1	 3.136906288562903e-001	 1.302762477558189e+000	-2.760400998556146e+001
1	 3.003609392769588e-001	 1.305900169359914e+000	-2.779476069282660e+001
1	 2.870390236120766e-001	 1.308892893270572e+000	-2.798747501633756e+001
1	 2.737270519005022e-001	 1.311741424487327e+000	-2.818038760792779e+001
1	 2.604271651755172e-001	 1.314446577348017e+000	-2.837174565024991e+001
1	 3.956658947614563e-001	 1.287226515226850e+000	-2.687946463905038e+001
1	 3.822703333022947e-001	 1.291267983434266e+000	-2.704088155860261e+001
1	 3.688689348904707e-001	 1.295159970450051e+000	-2.721528065010656e+001
1	 3.554640370727649e-001	 1.298902998385200e+000	-2.740067520370505e+001
1	 3.420579536318443e-001	 1.302497634569714e+000	-2.759508467984688e+001
1	 3.286529735946222e-001	 1.305944490622877e+000	-2.779653612627052e+001
1	 3.152513602777308e-001	 1.309244221501116e+000	-2.800306556314924e+001
1	 3.018553503705234e-001	 1.312397524524987e+000	-2.821271933497358e+001
1	 2.884671530559645e-001	 1.315405138386855e+000	-2.842355542784222e+001
1	 2.750889491696856e-001	 1.318267842140804e+000	-2.863364475092447e+001
1	 2.617228903974281e-001	 1.320986454176337e+000	-2.884107238096592e+001
1	 3.976247386306124e-001	 1.293599254959479e+000	-2.715217545758839e+001
1	 3.841628590636720e-001	 1.297660731475104e+000	-2.733383291875601e+001
1	 3.706951136467798e-001	 1.301571986754666e+000	-2.752857627586157e+001
1	 3.572238514993260e-001	 1.305333545494019e+000	-2.773426297637677e+001
1	 3.437513978589380e-001	 1.308945977831890e+000	-2.794875686187684e+001
1	 3.302800530849296e-001	 1.312409898415560e+000	-2.816992984262254e+001
1	 3.168120916990478e-001	 1.315725965443999e+000	-2.839566353401149e+001
1	 3.033497614639366e-001	 1.318894879690042e+000	-2.862385085312608e+001
1	 2.898952824996735e-001	 1.321917383503154e+000	-2.885239757372816e+001
1	 2.764508464386620e-001	 1.324794259794340e+000	-2.907922383816709e+001
1	 2.630186156191024e-001	 1.327526331004762e+000	-2.930226562480353e+001
1	 3.995835824998310e-001	 1.299971994692022e+000	-2.741902878156830e+001
1	 3.860553848250641e-001	 1.304053479515829e+000	-2.762105599136306e+001
1	 3.725212924030595e-001	 1.307984003059152e+000	-2.783615868202601e+001
1	 3.589836659258175e-001	 1.311764092602703e+000	-2.806205059965202e+001
1	 3.454448420859251e-001	 1.315394321093939e+000	-2.829645226991169e+001
1	 3.319071325750965e-001	 1.318875306208132e+000	-2.853709290782972e+001
1	 3.183728231201936e-001	 1.322207709386794e+000	-2.878171228339627e+001
1	 3.048441725571506e-001	 1.325392234855040e+000	-2.902806254093346e+001
1	 2.913234119431575e-001	 1.328429628619433e+000	-2.927390997027615e+001
1	 2.778127437073906e-001	 1.331320677447899e+000	-2.951703672797944e+001
1	 2.643143408405080e-001	 1.334066207833259e+000	-2.975524250690338e+001
1	 4.015424263690787e-001	 1.306344734424396e+000	-2.767999953024786e+001
1	 3.879479105864365e-001	 1.310446227556364e+000	-2.790250701237826e+001
1	 3.743474711592731e-001	 1.314396019363438e+000	-2.813796883000756e+001
1	 3.607434803521992e-001	 1.318194639711191e+000	-2.838396698089715e+001
1	 3.471382863127622e-001	 1.321842664355803e+000	-2.863809078860059e+001
1	 3.335342120650767e-001	 1.325340714000539e+000	-2.889793902522461e+001
1	 3.199335545411201e-001	 1.328689453329455e+000	-2.916112198424739e+001
1	 3.063385836501172e-001	 1.331889590019940e+000	-2.942526350104040e+001
1	 2.927515413863709e-001	 1.334941873735656e+000	-2.968800291890632e+001
1	 2.791746409758307e-001	 1.337847095101447e+000	-2.994699699861133e+001
1	 2.656100660616128e-001	 1.340606084661794e+000	-3.019992176955797e+001
1	 4.035012702383219e-001	 1.312717474156519e+000	-2.793506310991342e+001
1	 3.898404363477547e-001	 1.316838975596630e+000	-2.817814306758555e+001
1	 3.761736499153837e-001	 1.320808035667453e+000	-2.843394882765182e+001
1	 3.625032947784311e-001	 1.324625186819415e+000	-2.869994240798757e+001
1	 3.488317305394058e-001	 1.328291007617424e+000	-2.897359385830851e+001
1	 3.351612915548239e-001	 1.331806121792732e+000	-2.925238357388801e+001
1	 3.214942859617793e-001	 1.335171197271935e+000	-2.953380455381168e+001
1	 3.078329947427883e-001	 1.338386945184701e+000	-2.981536460117952e+001
1	 2.941796708292682e-001	 1.341454118851785e+000	-3.009458846284672e+001
1	 2.805365382439414e-001	 1.344373512754951e+000	-3.036901990648947e+001
1	 2.669057912823845e-001	 1.347145961490334e+000	-3.063622373296019e+001
1	 4.054601141075276e-001	 1.319090213888307e+000	-2.818419540211588e+001
1	 3.917329621089840e-001	 1.323231723636551e+000	-2.844792207207116e+001
1	 3.779998286713541e-001	 1.327220051971125e+000	-2.872404190154927e+001
1	 3.642631092044731e-001	 1.331055733927313e+000	-2.900990851596068e+001
1	 3.505251747658125e-001	 1.334739350878743e+000	-2.930288443753834e+001
1	 3.367883710442921e-001	 1.338271529584657e+000	-2.960034356816965e+001
1	 3.230550173821236e-001	 1.341652941214191e+000	-2.989967361150373e+001
1	 3.093274058351163e-001	 1.344884300349283e+000	-3.019827843153174e+001
1	 2.956078002718033e-001	 1.347966363967786e+000	-3.049358034505877e+001
1	 2.818984355116824e-001	 1.350899930408376e+000	-3.078302234567985e+001
1	 2.682015165027910e-001	 1.353685838318846e+000	-3.106407025708640e+001
1	 4.074189579766622e-001	 1.325462953619678e+000	-2.842737275224468e+001
1	 3.936254878700904e-001	 1.329624471676048e+000	-2.871180275028674e+001
1	 3.798260074271477e-001	 1.333632068274384e+000	-2.900819237014138e+001
1	 3.660229236302851e-001	 1.337486281034819e+000	-2.931379825463084e+001
1	 3.522186189919391e-001	 1.341187694139704e+000	-2.962588696643354e+001
1	 3.384154505334348e-001	 1.344736937376265e+000	-2.994173761837755e+001
1	 3.246157488021045e-001	 1.348134685156175e+000	-3.025864443798666e+001
1	 3.108218169270528e-001	 1.351381655513645e+000	-3.057391926332121e+001
1	 2.970359297139304e-001	 1.354478609083619e+000	-3.088489396737610e+001
1	 2.832603327790124e-001	 1.357426348061687e+000	-3.118892280852037e+001
1	 2.694972417228000e-001	 1.360225715147297e+000	-3.148338470468187e+001
1	 4.093778018456922e-001	 1.331835693350548e+000	-2.866457195843128e+001
1	 3.955180136310391e-001	 1.336017219715046e+000	-2.896974461668548e+001
1	 3.816521861827276e-001	 1.340044084577158e+000	-2.928634561759760e+001
1	 3.677827380558270e-001	 1.343916828141869e+000	-2.961154585713207e+001
1	 3.539120632177420e-001	 1.347636037400248e+000	-2.994252733133192e+001
1	 3.400425300222060e-001	 1.351202345167503e+000	-3.027648589259460e+001
1	 3.261764802216743e-001	 1.354616429097843e+000	-3.061063393542711e+001
1	 3.123162280185499e-001	 1.357879010677747e+000	-3.094220300859535e+001
1	 2.984640591556039e-001	 1.360990854199249e+000	-3.126844635081775e+001
1	 2.846222300458913e-001	 1.363952765714852e+000	-3.158664134738109e+001
1	 2.707929669423796e-001	 1.366765591975652e+000	-3.189409190530664e+001
1	 4.113366457145843e-001	 1.338208433080836e+000	-2.889577026076911e+001
1	 3.974105393917957e-001	 1.342409967753466e+000	-2.922170795691082e+001
1	 3.834783649380568e-001	 1.346456100879377e+000	-2.955844806844139e+001
1	 3.695425524810588e-001	 1.350347375248399e+000	-2.990308680936367e+001
1	 3.556055074431778e-001	 1.354084380660318e+000	-3.025273283032907e+001
1	 3.416696095105594e-001	 1.357667752958321e+000	-3.060451007958653e+001
1	 3.277372116407853e-001	 1.361098173039149e+000	-3.095556058888559e+001
1	 3.138106391095596e-001	 1.364376365841549e+000	-3.130304718115690e+001
1	 2.998921885967779e-001	 1.367503099314640e+000	-3.164415609703199e+001
1	 2.859841273122783e-001	 1.370479183367836e+000	-3.197609953752112e+001
1	 2.720886921614973e-001	 1.373305468803879e+000	-3.229611812040943e+001
1	 2.591314399534020e-001	 1.307906700519837e+000	-2.789436996509920e+001
1	 2.459138320677586e-001	 1.310456205728292e+000	-2.806732249613309e+001
1	 2.327124120507628e-001	 1.312864822470269e+000	-2.823746278987874e+001
1	 2.195292154500892e-001	 1.315133472310086e+000	-2.840386181679021e+001
1	 2.063662462431385e-001	 1.317263111523635e+000	-2.856560195825647e+001
1	 1.932254762343219e-001	 1.319254730025648e+000	-2.872177678965577e+001
1	 1.801088444902284e-001	 1.321109350289747e+000	-2.887149086541824e+001
1	 1.670182568124852e-001	 1.322828026262688e+000	-2.901385950674604e+001
1	 1.539555852480564e-001	 1.324411842274167e+000	-2.914800859260507e+001
1	 1.409226676366770e-001	 1.325861911943520e+000	-2.927307435455158e+001
1	 1.279213071950790e-001	 1.327179377084656e+000	-2.938820317591808e+001
1	 2.604271651755172e-001	 1.314446577348017e+000	-2.837174565024990e+001
1	 2.471434657808106e-001	 1.317008830751625e+000	-2.856002151332217e+001
1	 2.338760351983321e-001	 1.319429491209501e+000	-2.874422706464755e+001
1	 2.206269191540353e-001	 1.321709484894015e+000	-2.892335315411764e+001
1	 2.073981316457405e-001	 1.323849772862682e+000	-2.909640377403111e+001
1	 1.941916543374044e-001	 1.325851349980052e+000	-2.926239592929753e+001
1	 1.810094359914643e-001	 1.327715243832375e+000	-2.942035950483018e+001
1	 1.678533919390619e-001	 1.329442513636407e+000	-2.956933713074983e+001
1	 1.547254035878933e-001	 1.331034249143765e+000	-2.970838404599254e+001
1	 1.416273179673805e-001	 1.332491569542165e+000	-2.983656796088562e+001
1	 1.285609473108183e-001	 1.333815622354874e+000	-2.995296891921178e+001
1	 2.617228903974281e-001	 1.320986454176337e+000	-2.884107238096592e+001
1	 2.483730994936152e-001	 1.323561455775152e+000	-2.904420825109687e+001
1	 2.350396583456089e-001	 1.325994159948987e+000	-2.924202347040941e+001
1	 2.217246228576456e-001	 1.328285497478264e+000	-2.943343489965488e+001
1	 2.084300170479687e-001	 1.330436434202115e+000	-2.961737419161627e+001
1	 1.951578324400848e-001	 1.332447969934913e+000	-2.979278774127174e+001
1	 1.819100274922825e-001	 1.334321137375528e+000	-2.995863662864286e+001
1	 1.686885270652219e-001	 1.336057001010715e+000	-3.011389655492616e+001
1	 1.554952219273349e-001	 1.337656656014013e+000	-3.025755777248937e+001
1	 1.423319682977338e-001	 1.339121227141517e+000	-3.038862500928063e+001
1	 1.292005874262800e-001	 1.340451867625848e+000	-3.050611738819690e+001
1	 2.630186156191024e-001	 1.327526331004762e+000	-2.930226562480353e+001
1	 2.496027332061525e-001	 1.330114080798836e+000	-2.951980447399544e+001
1	 2.362032814925880e-001	 1.332558828688690e+000	-2.973078002968775e+001
1	 2.228223265609310e-001	 1.334861510062792e+000	-2.993404120643641e+001
1	 2.094619024498503e-001	 1.337023095541889e+000	-3.012845327959343e+001
1	 1.961240105424044e-001	 1.339044589890175e+000	-3.031289790830286e+001
1	 1.828106189927366e-001	 1.340927030919145e+000	-3.048627314698848e+001
1	 1.695236621910270e-001	 1.342671488385547e+000	-3.064749344591450e+001
1	 1.562650402664457e-001	 1.344279062884842e+000	-3.079548964138655e+001
1	 1.430366186277979e-001	 1.345750884741497e+000	-3.092920893614666e+001
1	 1.298402275415134e-001	 1.347088112897492e+000	-3.104761487050681e+001
1	 2.643143408405080e-001	 1.334066207833259e+000	-2.975524250690338e+001
1	 2.508323669184024e-001	 1.336666705822646e+000	-2.998673348066391e+001
1	 2.373669046392645e-001	 1.339123497428572e+000	-3.021042617640174e+001
1	 2.239200302639025e-001	 1.341437522647555e+000	-3.042510751867934e+001
1	 2.104937878514122e-001	 1.343609756881957e+000	-3.062958228173014e+001
1	 1.970901886444053e-001	 1.345641209845789e+000	-3.082267317821571e+001
1	 1.837112104928802e-001	 1.347532924463167e+000	-3.100322093259630e+001
1	 1.703587973165388e-001	 1.349285975760837e+000	-3.117008433967829e+001
1	 1.570348586052901e-001	 1.350901469756175e+000	-3.132214030889187e+001
1	 1.437412689576333e-001	 1.352380542342027e+000	-3.145828389486433e+001
1	 1.304798676565677e-001	 1.353724358169724e+000	-3.157742831483500e+001
1	 2.656100660616128e-001	 1.340606084661794e+000	-3.019992176955797e+001
1	 2.520620006303451e-001	 1.343219330846545e+000	-3.044492006643640e+001
1	 2.385305277856329e-001	 1.345688166168596e+000	-3.068089272143943e+001
1	 2.250177339665709e-001	 1.348013535232513e+000	-3.090657054029051e+001
1	 2.115256732526814e-001	 1.350196418222271e+000	-3.112070358831528e+001
1	 1.980563667461289e-001	 1.352237829801700e+000	-3.132206133795350e+001
1	 1.846118019927670e-001	 1.354138818007535e+000	-3.150943279731198e+001
1	 1.711939324418187e-001	 1.355900463136519e+000	-3.168162662030446e+001
1	 1.578046769439324e-001	 1.357523876627943e+000	-3.183747119893653e+001
1	 1.444459192873007e-001	 1.359010199943028e+000	-3.197581473829615e+001
1	 1.311195077714922e-001	 1.360360603442459e+000	-3.209552531481212e+001
1	 2.669057912823845e-001	 1.347145961490334e+000	-3.063622373296019e+001
1	 2.532916343419605e-001	 1.349771955870499e+000	-3.089429048700532e+001
1	 2.396941509316883e-001	 1.352252834908725e+000	-3.114211181923564e+001
1	 2.261154376689472e-001	 1.354589547817624e+000	-3.137836820429005e+001
1	 2.125575586536847e-001	 1.356783079562785e+000	-3.160176070833090e+001
1	 1.990225448476168e-001	 1.358834449757856e+000	-3.181101118835875e+001
1	 1.855123934924506e-001	 1.360744711552191e+000	-3.200486246930225e+001
1	 1.720290675669288e-001	 1.362514950512526e+000	-3.218207849941446e+001
1	 1.585744952824372e-001	 1.364146283500072e+000	-3.234144448453905e+001
1	 1.451505696168608e-001	 1.365639857544421e+000	-3.248176700180736e+001
1	 1.317591478863360e-001	 1.366996848715613e+000	-3.260187409334999e+001
1	 2.682015165027910e-001	 1.353685838318846e+000	-3.106407025708640e+001
1	 2.545212680532287e-001	 1.356324580894474e+000	-3.133477242314676e+001
1	 2.408577740774253e-001	 1.358817503648921e+000	-3.159401693531647e+001
1	 2.272131413710425e-001	 1.361165560402846e+000	-3.184043964312026e+001
1	 2.135894440544495e-001	 1.363369740903453e+000	-3.207269824242690e+001
1	 1.999887229489109e-001	 1.365431069714203e+000	-3.228947251967848e+001
1	 1.864129849919845e-001	 1.367350605097073e+000	-3.248946457092101e+001
1	 1.728642026919303e-001	 1.369129437888793e+000	-3.267139899617663e+001
1	 1.593443136208687e-001	 1.370768690372489e+000	-3.283402306971131e+001
1	 1.458552199463742e-001	 1.372269515146129e+000	-3.297610688678056e+001
1	 1.323987880011486e-001	 1.373633093989104e+000	-3.309644348744135e+001
1	 2.694972417228000e-001	 1.360225715147297e+000	-3.148338470468187e+001
1	 2.557509017641295e-001	 1.362877205918434e+000	-3.176629494646017e+001
1	 2.420213972228390e-001	 1.365382172389146e+000	-3.203654281478195e+001
1	 2.283108450728675e-001	 1.367741572988138e+000	-3.229272515981180e+001
1	 2.146213294550024e-001	 1.369956402244226e+000	-3.253346185667962e+001
1	 2.009549010500525e-001	 1.372027689670689e+000	-3.275739608778068e+001
1	 1.873135764914224e-001	 1.373956498642124e+000	-3.296319459721381e+001
1	 1.736993378168850e-001	 1.375743925265254e+000	-3.314954791789092e+001
1	 1.601141319592915e-001	 1.377391097245124e+000	-3.331517057188513e+001
1	 1.465598702759018e-001	 1.378899172748072e+000	-3.345880124460399e+001
1	 1.330384281159791e-001	 1.380269339262846e+000	-3.357920293339765e+001
1	 2.707929669423796e-001	 1.366765591975652e+000	-3.189409190530664e+001
1	 2.569805354746431e-001	 1.369429830942346e+000	-3.218878848609463e+001
1	 2.431850203679240e-001	 1.371946841129365e+000	-3.246962545169183e+001
1	 2.294085487744333e-001	 1.374317585573458e+000	-3.273516619997951e+001
1	 2.156532148553706e-001	 1.376543063585058e+000	-3.298399825710138e+001
1	 2.019210791510837e-001	 1.378624309627261e+000	-3.321473359105239e+001
1	 1.882141679908181e-001	 1.380562392187283e+000	-3.342600889503686e+001
1	 1.745344729418547e-001	 1.382358412641843e+000	-3.361648584113431e+001
1	 1.608839502977698e-001	 1.384013504117901e+000	-3.378485130484484e+001
1	 1.472645206055041e-001	 1.385528830350171e+000	-3.392981756112052e+001
1	 1.336780682308767e-001	 1.386905584536756e+000	-3.405012245250984e+001
1	 2.720886921614973e-001	 1.373305468803879e+000	-3.229611812040943e+001
1	 2.582101691847495e-001	 1.375982455966176e+000	-3.260218479642415e+001
1	 2.443486435126754e-001	 1.378511509869538e+000	-3.289320205932690e+001
1	 2.305062524757509e-001	 1.380893598158766e+000	-3.316770532461441e+001
1	 2.166851002555811e-001	 1.383129724925904e+000	-3.342425516487845e+001
1	 2.028872572520457e-001	 1.385220929583866e+000	-3.366143764795721e+001
1	 1.891147594902251e-001	 1.387168285732491e+000	-3.387786464277804e+001
1	 1.753696080669008e-001	 1.388972900018493e+000	-3.407217409344367e+001
1	 1.616537686363682e-001	 1.390635910990750e+000	-3.424303026214493e+001
1	 1.479691709352418e-001	 1.392158487952350e+000	-3.438912394152152e+001
1	 1.343177083458908e-001	 1.393541829810749e+000	-3.450917263712043e+001
1	 1.279213071950790e-001	 1.327179377084656e+000	-2.938820317591808e+001
1	 1.149513338372529e-001	 1.328365574776235e+000	-2.949213174128911e+001
1	 1.020164563117179e-001	 1.329421493147995e+000	-2.958441444732311e+001
1	 8.911839865198931e-002	 1.330348352881577e+000	-2.966547336894044e+001
1	 7.625884813816214e-002	 1.331147398509354e+000	-2.973571897531958e+001
1	 6.343945506252818e-002	 1.331819897317526e+000	-2.979554872240958e+001
1	 5.066183252982257e-002	 1.332367138255019e+000	-2.984534572046023e+001
1	 3.792755629143316e-002	 1.332790430849241e+000	-2.988547747672264e+001
1	 2.523816461288030e-002	 1.333091104129737e+000	-2.991629471329100e+001
1	 1.259515817384588e-002	 1.333270505560705e+000	-2.993813025987433e+001
1	 0.000000000000000e+000	 1.333329999983334e+000	-2.995129802113714e+001
1	 1.285609473108183e-001	 1.333815622354874e+000	-2.995296891921178e+001
1	 1.155261206817235e-001	 1.335007751346290e+000	-3.005625615740705e+001
1	 1.025265653733130e-001	 1.336068949587062e+000	-3.014593851465548e+001
1	 8.956401403969960e-002	 1.337000443862567e+000	-3.022240790708651e+001
1	 7.664016239779911e-002	 1.337803484928172e+000	-3.028604667431932e+001
1	 6.375666899177584e-002	 1.338479346406849e+000	-3.033722616344185e+001
1	 5.091515499229021e-002	 1.339029323692610e+000	-3.037630538553080e+001
1	 3.811720402987917e-002	 1.339454732860853e+000	-3.040362974495147e+001
1	 2.536436206177339e-002	 1.339756909586625e+000	-3.041952984149635e+001
1	 1.265813727142630e-002	 1.339937208071804e+000	-3.042432034525379e+001
1	 0.000000000000000e+000	 1.339996999982150e+000	-3.041829894393226e+001
1	 1.292005874262800e-001	 1.340451867625848e+000	-3.050611738819690e+001
1	 1.161009075260169e-001	 1.341649927917140e+000	-3.060864124096709e+001
1	 1.030366744348490e-001	 1.342716406026955e+000	-3.069565599618266e+001
1	 9.000962942747333e-002	 1.343652534844408e+000	-3.076751612956248e+001
1	 7.702147665761394e-002	 1.344459571347860e+000	-3.082456865222352e+001
1	 6.407388292129493e-002	 1.345138795497052e+000	-3.086715169540956e+001
1	 5.116847745508968e-002	 1.345691509131092e+000	-3.089559316485312e+001
1	 3.830685176867202e-002	 1.346119034873362e+000	-3.091020946510249e+001
1	 2.549055951097086e-002	 1.346422715044412e+000	-3.091130429396348e+001
1	 1.272111636919936e-002	 1.346603910583804e+000	-3.089916750703961e+001
1	 0.000000000000000e+000	 1.346663999981866e+000	-3.087407405218780e+001
1	 1.298402275415134e-001	 1.347088112897492e+000	-3.104761487050681e+001
1	 1.166756943701629e-001	 1.348292104488696e+000	-3.114925546985754e+001
1	 1.035467834963304e-001	 1.349363862467584e+000	-3.123353707722699e+001
1	 9.045524481528781e-002	 1.350304625827005e+000	-3.130076955212037e+001
1	 7.740279091755781e-002	 1.351115657768319e+000	-3.135125748295331e+001
1	 6.439109685101514e-002	 1.351798244588041e+000	-3.138529878173418e+001
1	 5.142179991813679e-002	 1.352353694570366e+000	-3.140318334506038e+001
1	 3.849649950772448e-002	 1.352783336886667e+000	-3.140519178184220e+001
1	 2.561675696039644e-002	 1.353088520502998e+000	-3.139159420798995e+001
1	 1.278409546711689e-002	 1.353270613096603e+000	-3.136264910814409e+001
1	 0.000000000000000e+000	 1.353330999982383e+000	-3.131860226435897e+001
1	 1.304798676565677e-001	 1.353724358169724e+000	-3.157742831483500e+001
1	 1.172504812141909e-001	 1.354934281060870e+000	-3.167806794007954e+001
1	 1.040568925577616e-001	 1.356011318908854e+000	-3.175955252774132e+001
1	 9.090086020312033e-002	 1.356956716810264e+000	-3.182214024905615e+001
1	 7.778410517758207e-002	 1.357771744189455e+000	-3.186608627822336e+001
1	 6.470831078086614e-002	 1.358457693679716e+000	-3.189164140618705e+001
1	 5.167512238134731e-002	 1.359015880010333e+000	-3.189905071699515e+001
1	 3.868614724694930e-002	 1.359447638900669e+000	-3.188855232722229e+001
1	 2.574295440997393e-002	 1.359754325962284e+000	-3.186037618879345e+001
1	 1.284707456513069e-002	 1.359937315610102e+000	-3.181474295536506e+001
1	 0.000000000000000e+000	 1.359997999983599e+000	-3.175186291228407e+001
1	 1.311195077714922e-001	 1.360360603442459e+000	-3.209552531481212e+001
1	 1.178252680581308e-001	 1.361576457633574e+000	-3.219504835066918e+001
1	 1.045670016191474e-001	 1.362658775350676e+000	-3.227367368805055e+001
1	 9.134647559094819e-002	 1.363608807794089e+000	-3.233160083958532e+001
1	 7.816541943763786e-002	 1.364427830611171e+000	-3.236902867442424e+001
1	 6.502552471077758e-002	 1.365117142771979e+000	-3.238615406020066e+001
1	 5.192844484463705e-002	 1.365678065450894e+000	-3.238317056341089e+001
1	 3.887579498625927e-002	 1.366111940915269e+000	-3.236026720879094e+001
1	 2.586915185962704e-002	 1.366420131422168e+000	-3.231762729809773e+001
1	 1.291005366319260e-002	 1.366604018124201e+000	-3.225542728856085e+001
1	 0.000000000000000e+000	 1.366664999985416e+000	-3.217383573110256e+001
1	 1.317591478863360e-001	 1.366996848715613e+000	-3.260187409334999e+001
1	 1.184000549020121e-001	 1.368218634206720e+000	-3.270016698906044e+001
1	 1.050771106804922e-001	 1.369306231792957e+000	-3.277587245500553e+001
1	 9.179209097874870e-002	 1.370260898778388e+000	-3.282912447461509e+001
1	 7.854673369767656e-002	 1.371083917033369e+000	-3.286005881988741e+001
1	 6.534273864067915e-002	 1.371776591864733e+000	-3.286881173054315e+001
1	 5.218176730792173e-002	 1.372340250891950e+000	-3.285551864703268e+001
1	 3.906544272556711e-002	 1.372776242930367e+000	-3.282031299804987e+001
1	 2.599534930927954e-002	 1.373085936882552e+000	-3.276332504305306e+001
1	 1.297303276125444e-002	 1.373270720638800e+000	-3.268468077013720e+001
1	 0.000000000000000e+000	 1.373331999987733e+000	-3.258450084946504e+001
1	 1.323987880011486e-001	 1.373633093989104e+000	-3.309644348744135e+001
1	 1.189748417458646e-001	 1.374860810780218e+000	-3.319339471687223e+001
1	 1.055872197418007e-001	 1.375953688235605e+000	-3.326612126854123e+001
1	 9.223770636649922e-002	 1.376912989763065e+000	-3.331468482390227e+001
1	 7.892804795764938e-002	 1.377740003455954e+000	-3.333915136251859e+001
1	 6.565995257050052e-002	 1.378436040957878e+000	-3.333958988735566e+001
1	 5.243508977111717e-002	 1.379002436333403e+000	-3.331607119896119e+001
1	 3.925509046478562e-002	 1.379440544945863e+000	-3.326866671924933e+001
1	 2.612154675885518e-002	 1.379751742343335e+000	-3.319744736547555e+001
1	 1.303601185926804e-002	 1.379937423153799e+000	-3.310248247484141e+001
1	 0.000000000000000e+000	 1.379998999990449e+000	-3.298383878002800e+001
1	 1.330384281159791e-001	 1.380269339262846e+000	-3.357920293339765e+001
1	 1.195496285897178e-001	 1.381502987353983e+000	-3.367470295610450e+001
1	 1.060973288030772e-001	 1.382601144678529e+000	-3.374439309861910e+001
1	 9.268332175417700e-002	 1.383565080748026e+000	-3.378825606358011e+001
1	 7.930936221750753e-002	 1.384396089878828e+000	-3.380628143778763e+001
1	 6.597716650017131e-002	 1.385095490051317e+000	-3.379846447253002e+001
1	 5.268841223413914e-002	 1.385664621775152e+000	-3.376480490741538e+001
1	 3.944473820382756e-002	 1.386104846961657e+000	-3.370530583850244e+001
1	 2.624774420827772e-002	 1.386417547804419e+000	-3.361997263139842e+001
1	 1.309899095718521e-002	 1.386604125669099e+000	-3.350881187984881e+001
1	 0.000000000000000e+000	 1.386665999993466e+000	-3.337183041022257e+001
1	 1.336780682308767e-001	 1.386905584536756e+000	-3.405012245250984e+001
1	 1.201244154336015e-001	 1.388145163927923e+000	-3.414406367573194e+001
1	 1.066074378643264e-001	 1.389248601121635e+000	-3.421066143254809e+001
1	 9.312893714175938e-002	 1.390217171733176e+000	-3.424981286404189e+001
1	 7.969067647720229e-002	 1.391052176301896e+000	-3.426142465706421e+001
1	 6.629438042962126e-002	 1.391754939144953e+000	-3.424541188842348e+001
1	 5.294173469690341e-002	 1.392326807217099e+000	-3.420169690679376e+001
1	 3.963438594260568e-002	 1.392769148977652e+000	-3.413020825321444e+001
1	 2.637394165747090e-002	 1.393083353265701e+000	-3.403087962092244e+001
1	 1.316197005495779e-002	 1.393270828184597e+000	-3.390364885513581e+001
1	 0.000000000000000e+000	 1.393332999996683e+000	-3.374845699328743e+001
1	 1.343177083458908e-001	 1.393541829810749e+000	-3.450917263712043e+001
1	 1.206992022775452e-001	 1.394787340501952e+000	-3.460144937867928e+001
1	 1.071175469255529e-001	 1.395896057564835e+000	-3.466490026266541e+001
1	 9.357455252922366e-002	 1.396869262718420e+000	-3.469933037817375e+001
1	 8.007199073668500e-002	 1.397708262725060e+000	-3.470455709628661e+001
1	 6.661159435878002e-002	 1.398414388238686e+000	-3.468040898689439e+001
1	 5.319505715932576e-002	 1.398988992659145e+000	-3.462672476705259e+001
1	 3.982403368103277e-002	 1.399433450993745e+000	-3.454335228181353e+001
1	 2.650013910635849e-002	 1.399749158727085e+000	-3.443014751835723e+001
1	 1.322494915253760e-002	 1.399937530700197e+000	-3.428697365412594e+001
1	 0.000000000000000e+000	 1.400000000000000e+000	-3.411370013956034e+001
1	 1.400000000000000e+000	 0.000000000000000e+000	 2.460986336254737e+001
1	 1.399937530700196e+000	 1.322494915253764e-002	 2.380176293452200e+001
1	 1.399749158727085e+000	 2.650013910635858e-002	 2.300207138381246e+001
1	 1.399433450993745e+000	 3.982403368103266e-002	 2.221063910630848e+001
1	 1.398988992659146e+000	 5.319505715932572e-002	 2.142734558068674e+001
1	 1.398414388238686e+000	 6.661159435877999e-002	 2.065210055920720e+001
1	 1.397708262725060e+000	 8.007199073668501e-002	 1.988484524551627e+001
1	 1.396869262718420e+000	 9.357455252922370e-002	 1.912555345673751e+001
1	 1.395896057564835e+000	 1.071175469255528e-001	 1.837423276706327e+001
1	 1.394787340501952e+000	 1.206992022775451e-001	 1.763092562999958e+001
1	 1.393541829810749e+000	 1.343177083458907e-001	 1.689571047635853e+001
1	 1.406667000003317e+000	 0.000000000000000e+000	 2.452178590168282e+001
1	 1.406604233215796e+000	 1.328792824988832e-002	 2.370903771232227e+001
1	 1.406414964188467e+000	 2.662633655488255e-002	 2.290471089392435e+001
1	 1.406097753009839e+000	 4.001368141904158e-002	 2.210869073333811e+001
1	 1.405651178101191e+000	 5.344837962134028e-002	 2.132089109075663e+001
1	 1.405073837332419e+000	 6.692880828759104e-002	 2.054125553330243e+001
1	 1.404364349148224e+000	 8.045330499591424e-002	 1.976975845487446e+001
1	 1.403521353703664e+000	 9.402016791654727e-002	 1.900640617961789e+001
1	 1.402543514008033e+000	 1.076276559867538e-001	 1.825123804631442e+001
1	 1.401429517075981e+000	 1.212739891215650e-001	 1.750432747093434e+001
1	 1.400178075084743e+000	 1.349573484610524e-001	 1.676578298453804e+001
1	 1.413334000006534e+000	 0.000000000000000e+000	 2.442847657397063e+001
1	 1.413270935731295e+000	 1.335090734702079e-002	 2.361154164926922e+001
1	 1.413080769649750e+000	 2.675253400305789e-002	 2.280303198851909e+001
1	 1.412762055025833e+000	 4.020332915664571e-002	 2.200286639566031e+001
1	 1.412313363543139e+000	 5.370170208295459e-002	 2.121099176803072e+001
1	 1.411733286426055e+000	 6.724602221605305e-002	 2.042738417554941e+001
1	 1.411020435571292e+000	 8.083461925487839e-002	 1.965204992545462e+001
1	 1.410173444688814e+000	 9.446578330370806e-002	 1.888502661003295e+001
1	 1.409190970451141e+000	 1.081377650478981e-001	 1.812638413471920e+001
1	 1.408071693649921e+000	 1.218487759656230e-001	 1.737622572389105e+001
1	 1.406814320358652e+000	 1.355969885763210e-001	 1.663468890163635e+001
1	 1.420001000009550e+000	 0.000000000000000e+000	 2.432997785493644e+001
1	 1.419937638246594e+000	 1.341388644395782e-002	 2.350931189430838e+001
1	 1.419746575110834e+000	 2.687873145091777e-002	 2.269706718500125e+001
1	 1.419426357041627e+000	 4.039297689387860e-002	 2.189319469694704e+001
1	 1.418975548984888e+000	 5.395502454419458e-002	 2.109767304277924e+001
1	 1.418392735519495e+000	 6.756323614417874e-002	 2.031050950539877e+001
1	 1.417676521994166e+000	 8.121593351357331e-002	 1.953174105042437e+001
1	 1.416825535673774e+000	 9.491139869068395e-002	 1.876143532103674e+001
1	 1.415838426894064e+000	 1.086478741089467e-001	 1.799969161267172e+001
1	 1.414713870223685e+000	 1.224235628096673e-001	 1.724664182496785e+001
1	 1.413450565632394e+000	 1.362366286916378e-001	 1.650245138832867e+001
1	 1.426668000012267e+000	 0.000000000000000e+000	 2.422633142613311e+001
1	 1.426604340761593e+000	 1.347686554072213e-002	 2.340238490197876e+001
1	 1.426412380571617e+000	 2.700492889849541e-002	 2.258684839294372e+001
1	 1.426090659057124e+000	 4.058262463077374e-002	 2.177970370619577e+001
1	 1.425637734426340e+000	 5.420834700508608e-002	 2.098095986991631e+001
1	 1.425052184612641e+000	 6.788045007198061e-002	 2.019065411200878e+001
1	 1.424332608416751e+000	 8.159724777199492e-002	 1.940885282305823e+001
1	 1.423477626658451e+000	 9.535701407745295e-002	 1.863565250112001e+001
1	 1.422485883336712e+000	 1.091579831698611e-001	 1.787118067586584e+001
1	 1.421356046797183e+000	 1.229983496536462e-001	 1.711559680956754e+001
1	 1.420086810905885e+000	 1.368762688069441e-001	 1.636909317235881e+001
1	 1.433335000014584e+000	 0.000000000000000e+000	 2.411757819360597e+001
1	 1.433271043276193e+000	 1.353984463733650e-002	 2.329079644856282e+001
1	 1.433078186032001e+000	 2.713112634582401e-002	 2.247240692822386e+001
1	 1.432754961072221e+000	 4.077227236736464e-002	 2.166242097016388e+001
1	 1.432299919867397e+000	 5.446166946565503e-002	 2.086087674005496e+001
1	 1.431711633705393e+000	 6.819766399947121e-002	 2.006784016425275e+001
1	 1.430988694838949e+000	 8.197856203013895e-002	 1.928340584603774e+001
1	 1.430129717642750e+000	 9.580262946399305e-002	 1.850769796315414e+001
1	 1.429133339778993e+000	 1.096680922306027e-001	 1.774087114424209e+001
1	 1.427998223370329e+000	 1.235731364975080e-001	 1.698311132171662e+001
1	 1.426723056179039e+000	 1.375159089221810e-001	 1.623463655860781e+001
1	 1.440002000016400e+000	 0.000000000000000e+000	 2.400375830584556e+001
1	 1.439937745790292e+000	 1.360282373382367e-002	 2.317458164778788e+001
1	 1.439743991491886e+000	 2.725732379293675e-002	 2.235377352676737e+001
1	 1.439419263086821e+000	 4.096192010368484e-002	 2.154137352545858e+001
1	 1.438962105307957e+000	 5.471499192592728e-002	 2.073744769025552e+001
1	 1.438371082797657e+000	 6.851487792666318e-002	 1.994208942044813e+001
1	 1.437644781260665e+000	 8.235987628800125e-002	 1.915542034049364e+001
1	 1.436781808626576e+000	 9.624824485028219e-002	 1.837759115308632e+001
1	 1.435780796220814e+000	 1.101782012911326e-001	 1.760878247068598e+001
1	 1.434640399943034e+000	 1.241479233412010e-001	 1.684920562312542e+001
1	 1.433359301451774e+000	 1.381555490372899e-001	 1.609910343888292e+001
1	 1.446669000017617e+000	 0.000000000000000e+000	 2.388491117124348e+001
1	 1.446604448303791e+000	 1.366580283020638e-002	 2.305377496609268e+001
1	 1.446409796951171e+000	 2.738352123986684e-002	 2.223097835791148e+001
1	 1.446083565100823e+000	 4.115156783976783e-002	 2.141658791029166e+001
1	 1.445624290747924e+000	 5.496831438592878e-002	 2.061069631447653e+001
1	 1.445030531889331e+000	 6.883209185356902e-002	 1.981342323781692e+001
1	 1.444300867681801e+000	 8.274119054557767e-002	 1.902491615479749e+001
1	 1.443433899609835e+000	 9.669386023629835e-002	 1.824535115839458e+001
1	 1.442428252662086e+000	 1.106883103514124e-001	 1.747493374948614e+001
1	 1.441282576515208e+000	 1.247227101846735e-001	 1.671389960199764e+001
1	 1.439995546724006e+000	 1.387951891522120e-001	 1.596251530143584e+001
1	 1.453336000018133e+000	 0.000000000000000e+000	 2.376107547506815e+001
1	 1.453271150816591e+000	 1.372878192650738e-002	 2.292841023747459e+001
1	 1.453075602409757e+000	 2.750971868664748e-002	 2.210405103740130e+001
1	 1.452747867114129e+000	 4.134121557564712e-002	 2.128809017591150e+001
1	 1.452286476187199e+000	 5.522163684568538e-002	 2.048064577373820e+001
1	 1.451689980980320e+000	 6.914930578020138e-002	 1.968186258168552e+001
1	 1.450956954102260e+000	 8.312250480286403e-002	 1.889191277311190e+001
1	 1.450085990592432e+000	 9.713947562201948e-002	 1.811099671630977e+001
1	 1.449075709102714e+000	 1.111984194114033e-001	 1.733934372455915e+001
1	 1.447924753086763e+000	 1.252974970278738e-001	 1.657721278159739e+001
1	 1.446631791995650e+000	 1.394348292668886e-001	 1.582489324021913e+001
1	 1.460003000017850e+000	 0.000000000000000e+000	 2.363228919597524e+001
1	 1.459937853328589e+000	 1.379176102274943e-002	 2.279852067792942e+001
1	 1.459741407867544e+000	 2.763591613331187e-002	 2.197302064002893e+001
1	 1.459412169126637e+000	 4.153086331135624e-002	 2.115590589772117e+001
1	 1.458948661625681e+000	 5.547495930522300e-002	 2.034731880600724e+001
1	 1.458349430070524e+000	 6.946651970657282e-002	 1.954742803443249e+001
1	 1.457613040521948e+000	 8.350381905985617e-002	 1.875642932370589e+001
1	 1.456738081574272e+000	 9.758509100742355e-002	 1.797454622181266e+001
1	 1.455723165542607e+000	 1.117085284710666e-001	 1.720203079744967e+001
1	 1.454566929657614e+000	 1.258722838707501e-001	 1.643916432858152e+001
1	 1.453268037266624e+000	 1.400744693812609e-001	 1.568625796388875e+001
1	 1.466670000016666e+000	 0.000000000000000e+000	 2.349858962206787e+001
1	 1.466604555839689e+000	 1.385474011895528e-002	 2.266413889949756e+001
1	 1.466407213324432e+000	 2.776211357989323e-002	 2.183791571192881e+001
1	 1.466076471138249e+000	 4.172051104692869e-002	 2.102006018609387e+001
1	 1.465610847063272e+000	 5.572828176456753e-002	 2.021073773581222e+001
1	 1.465008879159847e+000	 6.978373363269590e-002	 1.941013980419236e+001
1	 1.464269126940766e+000	 8.388513331654994e-002	 1.861848458704406e+001
1	 1.463390172555262e+000	 9.803070639248858e-002	 1.783601773541251e+001
1	 1.462370621981674e+000	 1.122186375303636e-001	 1.706301303511147e+001
1	 1.461209106227669e+000	 1.264470707132508e-001	 1.629977306110489e+001
1	 1.459904282536843e+000	 1.407141094952702e-001	 1.554662980456131e+001
1	 1.393541829810749e+000	 1.343177083458907e-001	 1.689571047635853e+001
1	 1.392158487952350e+000	 1.479691709352418e-001	 1.617072579334964e+001
1	 1.390635910990750e+000	 1.616537686363681e-001	 1.545793517813094e+001
1	 1.388972900018493e+000	 1.753696080669007e-001	 1.475751839673930e+001
1	 1.387168285732491e+000	 1.891147594902250e-001	 1.406966478763389e+001
1	 1.385220929583866e+000	 2.028872572520458e-001	 1.339457347004674e+001
1	 1.383129724925903e+000	 2.166851002555812e-001	 1.273245353923347e+001
1	 1.380893598158766e+000	 2.305062524757509e-001	 1.208352424770168e+001
1	 1.378511509869538e+000	 2.443486435126755e-001	 1.144801517149550e+001
1	 1.375982455966176e+000	 2.582101691847494e-001	 1.082616636061942e+001
1	 1.373305468803879e+000	 2.720886921614973e-001	 1.021822847269119e+001
1	 1.400178075084743e+000	 1.349573484610524e-001	 1.676578298453804e+001
1	 1.398788145554529e+000	 1.486738212651560e-001	 1.603760379522450e+001
1	 1.397258317863598e+000	 1.624235869751318e-001	 1.532161157121889e+001
1	 1.395587387395139e+000	 1.762047431920685e-001	 1.461801291001253e+001
1	 1.393774179277689e+000	 1.900153509896848e-001	 1.392702389483944e+001
1	 1.391817549540452e+000	 2.038534353529740e-001	 1.324887026611168e+001
1	 1.389716386266716e+000	 2.177169856556605e-001	 1.258378757906248e+001
1	 1.387469610744020e+000	 2.316039561768371e-001	 1.193202134672430e+001
1	 1.385076178609633e+000	 2.455122666571001e-001	 1.129382716737512e+001
1	 1.382535080989893e+000	 2.594398028944461e-001	 1.066947083559183e+001
1	 1.379845345631952e+000	 2.733844173801429e-001	 1.005922843606102e+001
1	 1.406814320358652e+000	 1.355969885763210e-001	 1.663468890163635e+001
1	 1.405417803156628e+000	 1.493784715952082e-001	 1.590363842752645e+001
1	 1.403880724736372e+000	 1.631934053140298e-001	 1.518476047986809e+001
1	 1.402201874771716e+000	 1.770398783173379e-001	 1.447828960319117e+001
1	 1.400380072822822e+000	 1.909159424891910e-001	 1.378446963142780e+001
1	 1.398414169496971e+000	 2.048196134538770e-001	 1.310355381782926e+001
1	 1.396303047607457e+000	 2.187488710556334e-001	 1.243580495046277e+001
1	 1.394045623329195e+000	 2.327016598777327e-001	 1.178149545247642e+001
1	 1.391640847349633e+000	 2.466758898012533e-001	 1.114090746632998e+001
1	 1.389087706013494e+000	 2.606694366038011e-001	 1.051433292119860e+001
1	 1.386385222459880e+000	 2.746801425983934e-001	 9.902073582770690e+000
1	 1.413450565632394e+000	 1.362366286916378e-001	 1.650245138832867e+001
1	 1.412047460758571e+000	 1.500831219253405e-001	 1.576885429489167e+001
1	 1.410503131609001e+000	 1.639632236530120e-001	 1.504740649669851e+001
1	 1.408816362148159e+000	 1.778750134426724e-001	 1.433837158201171e+001
1	 1.406985966367831e+000	 1.918165339887250e-001	 1.364202212345355e+001
1	 1.405010789453377e+000	 2.057857915547572e-001	 1.295863976183774e+001
1	 1.402889708948090e+000	 2.197807564555245e-001	 1.228851527501599e+001
1	 1.400621635914264e+000	 2.337993635784845e-001	 1.163194863100168e+001
1	 1.398205516089526e+000	 2.478395129452028e-001	 1.098924902464208e+001
1	 1.395640331036978e+000	 2.618990703128996e-001	 1.036073489712688e+001
1	 1.392925099287674e+000	 2.759758678163474e-001	 9.746733937634943e+000
1	 1.420086810905885e+000	 1.368762688069441e-001	 1.636909317235881e+001
1	 1.418677118360277e+000	 1.507877722554953e-001	 1.563327554203414e+001
1	 1.417125538481412e+000	 1.647330419920284e-001	 1.490957375463313e+001
1	 1.415430849524404e+000	 1.787101485680357e-001	 1.419828152030754e+001
1	 1.413591859912662e+000	 1.927171254882679e-001	 1.349970112076625e+001
1	 1.411607409409621e+000	 2.067519696556165e-001	 1.281414344248893e+001
1	 1.409476370288579e+000	 2.208126418553584e-001	 1.214192799445400e+001
1	 1.407197648499203e+000	 2.348970672791393e-001	 1.148338290972575e+001
1	 1.404770184829297e+000	 2.490031360890161e-001	 1.083884493025967e+001
1	 1.402192956060347e+000	 2.631287040218273e-001	 1.020865937430215e+001
1	 1.399464976115353e+000	 2.772715930341038e-001	 9.593180085780814e+000
1	 1.426723056179039e+000	 1.375159089221810e-001	 1.623463655860781e+001
1	 1.425306775961670e+000	 1.514924225856142e-001	 1.549692586444207e+001
1	 1.423747945353533e+000	 1.655028603310288e-001	 1.477128593758900e+001
1	 1.422045336900386e+000	 1.795452836933910e-001	 1.405804167005362e+001
1	 1.420197753457256e+000	 1.936177169878016e-001	 1.335752600575957e+001
1	 1.418204029365658e+000	 2.077181477564575e-001	 1.267007991864583e+001
1	 1.416063031628888e+000	 2.218445272551594e-001	 1.199605237484130e+001
1	 1.413773661083987e+000	 2.359947709797438e-001	 1.133580027835435e+001
1	 1.411334853568936e+000	 2.501667592327608e-001	 1.068968839973491e+001
1	 1.408745581083601e+000	 2.643583377306693e-001	 1.005808928718443e+001
1	 1.406004852942930e+000	 2.785673182517614e-001	 9.441383159616249e+000
1	 1.433359301451774e+000	 1.381555490372899e-001	 1.609910343888292e+001
1	 1.431936433562669e+000	 1.521970729156394e-001	 1.535982851877720e+001
1	 1.430370352225293e+000	 1.662726786699633e-001	 1.463256629087129e+001
1	 1.428659824276040e+000	 1.803804188187018e-001	 1.391767387113229e+001
1	 1.426803647001559e+000	 1.945183084873071e-001	 1.321551580187778e+001
1	 1.424800649321441e+000	 2.086843258572822e-001	 1.252646397029146e+001
1	 1.422649692968980e+000	 2.228764126549521e-001	 1.185089751064181e+001
1	 1.420349673668591e+000	 2.370924746803448e-001	 1.118920268974662e+001
1	 1.417899522308429e+000	 2.513303823765045e-001	 1.054177277524682e+001
1	 1.415298206106741e+000	 2.655879714395113e-001	 9.909007886278763e+000
1	 1.412544729770422e+000	 2.798630434694193e-001	 9.291314826161029e+000
1	 1.439995546724006e+000	 1.387951891522120e-001	 1.596251530143583e+001
1	 1.438566091163198e+000	 1.529017232455130e-001	 1.522200633298638e+001
1	 1.436992759096619e+000	 1.670424970087816e-001	 1.449343763128010e+001
1	 1.435274311651301e+000	 1.812155539439319e-001	 1.377719956082872e+001
1	 1.433409540545514e+000	 1.954188999867661e-001	 1.307368918188683e+001
1	 1.431397269276922e+000	 2.096505039580927e-001	 1.238331010495478e+001
1	 1.429236354308818e+000	 2.239082980547608e-001	 1.170647232867285e+001
1	 1.426925686252988e+000	 2.381901783809889e-001	 1.104359206076371e+001
1	 1.424464191047764e+000	 2.524940055203147e-001	 1.039509152170643e+001
1	 1.421850831129768e+000	 2.668176051484385e-001	 9.761398730852623e+000
1	 1.419084606597842e+000	 2.811587686871757e-001	 9.142947274727831e+000
1	 1.446631791995650e+000	 1.394348292668886e-001	 1.582489324021913e+001
1	 1.445195748763177e+000	 1.536063735751771e-001	 1.508348171613496e+001
1	 1.443615165967438e+000	 1.678123153474337e-001	 1.435392235693914e+001
1	 1.441888799026105e+000	 1.820506890690446e-001	 1.363663978306534e+001
1	 1.440015434089065e+000	 1.963194914861598e-001	 1.293206447591749e+001
1	 1.437993889232055e+000	 2.106166820588915e-001	 1.224063256396005e+001
1	 1.435823015648367e+000	 2.249401834546103e-001	 1.156278559195029e+001
1	 1.433501698837155e+000	 2.392878820817230e-001	 1.089897027309473e+001
1	 1.431028859786927e+000	 2.536576286642590e-001	 1.024963822394151e+001
1	 1.428403456152683e+000	 2.680472388575365e-001	 9.615245681853738e+000
1	 1.425624483425207e+000	 2.824544939051299e-001	 8.996253204942411e+000
1	 1.453268037266624e+000	 1.400744693812609e-001	 1.568625796388875e+001
1	 1.451825406362528e+000	 1.543110239045736e-001	 1.494427666797083e+001
1	 1.450237572837680e+000	 1.685821336858696e-001	 1.421404245685469e+001
1	 1.448503286400388e+000	 1.828858241940033e-001	 1.349601519738306e+001
1	 1.446621327632154e+000	 1.972200829854697e-001	 1.279065967928877e+001
1	 1.444590509186792e+000	 2.115828601596805e-001	 1.209844532850467e+001
1	 1.442409676987587e+000	 2.259720688545247e-001	 1.141984590342845e+001
1	 1.440077711421066e+000	 2.403855857825940e-001	 1.075533917405943e+001
1	 1.437593528525907e+000	 2.548212518084049e-001	 1.010540658395872e+001
1	 1.434956081175486e+000	 2.692768725668907e-001	 9.470532895022103e+000
1	 1.432164360252531e+000	 2.837502191233804e-001	 8.851205815092003e+000
1	 1.459904282536843e+000	 1.407141094952702e-001	 1.554662980456131e+001
1	 1.458455063961172e+000	 1.550156742336446e-001	 1.480441278822744e+001
1	 1.456859979707271e+000	 1.693519520240392e-001	 1.407381952021434e+001
1	 1.455117773774083e+000	 1.837209593187718e-001	 1.335534608767764e+001
1	 1.453227221174727e+000	 1.981206744846772e-001	 1.264949246011733e+001
1	 1.451187129141089e+000	 2.125490382604623e-001	 1.195676212557143e+001
1	 1.448996338326446e+000	 2.270039542545288e-001	 1.127766170963810e+001
1	 1.446653724004697e+000	 2.414832894836484e-001	 1.061270057738963e+001
1	 1.444158197264690e+000	 2.559848749528201e-001	 9.962390418280110e+000
1	 1.441508706198178e+000	 2.705065062765864e-001	 9.327244814189744e+000
1	 1.438704237079830e+000	 2.850459443420262e-001	 8.707778790791558e+000
1	 1.373305468803879e+000	 2.720886921614973e-001	 1.021822847269119e+001
1	 1.370479183367836e+000	 2.859841273122784e-001	 9.623862168781690e+000
1	 1.367503099314640e+000	 2.998921885967780e-001	 9.043033231579887e+000
1	 1.364376365841549e+000	 3.138106391095596e-001	 8.476190641614211e+000
1	 1.361098173039150e+000	 3.277372116407852e-001	 7.923787123321701e+000
1	 1.357667752958321e+000	 3.416696095105594e-001	 7.386278735981565e+000
1	 1.354084380660317e+000	 3.556055074431779e-001	 6.864124445401418e+000
1	 1.350347375248399e+000	 3.695425524810588e-001	 6.357785676547255e+000
1	 1.346456100879377e+000	 3.834783649380567e-001	 5.867725847358465e+000
1	 1.342409967753466e+000	 3.974105393917957e-001	 5.394409884042581e+000
1	 1.338208433080836e+000	 4.113366457145844e-001	 4.938303718196408e+000
1	 1.379845345631952e+000	 2.733844173801429e-001	 1.005922843606102e+001
1	 1.377005601020615e+000	 2.873460245781569e-001	 9.462725176828176e+000
1	 1.374015344429769e+000	 3.013203180374325e-001	 8.879878137346314e+000
1	 1.370873721005026e+000	 3.153050502000594e-001	 8.311138918200578e+000
1	 1.367579916980069e+000	 3.292979430594138e-001	 7.756960582962364e+000
1	 1.364133160748690e+000	 3.432966889984715e-001	 7.217797203253499e+000
1	 1.360532723919882e+000	 3.572989516682236e-001	 6.694103387490479e+000
1	 1.356777922354375e+000	 3.713023669059578e-001	 6.186333793657998e+000
1	 1.352868117181002e+000	 3.853045436931127e-001	 5.694942626511075e+000
1	 1.348802715791267e+000	 3.993030651523371e-001	 5.220383119652635e+000
1	 1.344581172810493e+000	 4.132954895833138e-001	 4.763107002982776e+000
1	 1.386385222459880e+000	 2.746801425983934e-001	 9.902073582770690e+000
1	 1.383532018673209e+000	 2.887079218436095e-001	 9.303711450940957e+000
1	 1.380527589544668e+000	 3.027484474776506e-001	 8.719107023717760e+000
1	 1.377371076168225e+000	 3.167994612901308e-001	 8.148714799836418e+000
1	 1.374061660920658e+000	 3.308586744776357e-001	 7.592988709593930e+000
1	 1.370598568538679e+000	 3.449237684860104e-001	 7.052381618584708e+000
1	 1.366981067179019e+000	 3.589923958929374e-001	 6.527344817721398e+000
1	 1.363208469459881e+000	 3.730621813305708e-001	 6.018327500033512e+000
1	 1.359280133482124e+000	 3.871307224479301e-001	 5.525776224783485e+000
1	 1.355195463828543e+000	 4.011955909126852e-001	 5.050134369483960e+000
1	 1.350953912539618e+000	 4.152543334518899e-001	 4.591841570446419e+000
1	 1.392925099287674e+000	 2.759758678163474e-001	 9.746733937634945e+000
1	 1.390058436325648e+000	 2.900698191087422e-001	 9.146779422234967e+000
1	 1.387039834659383e+000	 3.041765769175411e-001	 8.560669642039896e+000
1	 1.383868431331207e+000	 3.182938723798801e-001	 7.988862273758148e+000
1	 1.380543404860995e+000	 3.324194058955513e-001	 7.431812641285807e+000
1	 1.377063976328380e+000	 3.465508479732667e-001	 6.889973182612565e+000
1	 1.373429410437834e+000	 3.606858401173979e-001	 6.363792905298862e+000
1	 1.369639016565036e+000	 3.748219957549626e-001	 5.853716831144033e+000
1	 1.365692149782871e+000	 3.889569012025585e-001	 5.360185430708579e+000
1	 1.361588211865426e+000	 4.030881166728738e-001	 4.883634048396261e+000
1	 1.357326652268343e+000	 4.172131773203306e-001	 4.424492318845043e+000
1	 1.399464976115353e+000	 2.772715930341038e-001	 9.593180085780814e+000
1	 1.396584853977964e+000	 2.914317163736618e-001	 8.991888298852331e+000
1	 1.393552079773962e+000	 3.056047063572134e-001	 8.404516682931813e+000
1	 1.390365786494034e+000	 3.197882834694137e-001	 7.831526374220977e+000
1	 1.387025148801159e+000	 3.339801373132609e-001	 7.273374616383924e+000
1	 1.383529384117886e+000	 3.481779274603316e-001	 6.730514195081152e+000
1	 1.379877753696433e+000	 3.623792843416840e-001	 6.203392863044245e+000
1	 1.376069563669956e+000	 3.765818101791978e-001	 5.692452756421212e+000
1	 1.372104166083367e+000	 3.907830799570470e-001	 5.198129803163839e+000
1	 1.367980959902047e+000	 4.049806424329365e-001	 4.720853124268890e+000
1	 1.363699391996801e+000	 4.191720211886540e-001	 4.261044428724995e+000
1	 1.406004852942930e+000	 2.785673182517614e-001	 9.441383159616249e+000
1	 1.403111271630186e+000	 2.927936136384749e-001	 8.838998047890902e+000
1	 1.400064324888450e+000	 3.070328357967761e-001	 8.250599754441289e+000
1	 1.396863141656769e+000	 3.212826945588386e-001	 7.676653158148313e+000
1	 1.393506892741225e+000	 3.355408687308651e-001	 7.117617947921623e+000
1	 1.389994791907289e+000	 3.498050069472954e-001	 6.573948029279519e+000
1	 1.386326096954921e+000	 3.640727285658740e-001	 6.046090923124299e+000
1	 1.382500110774756e+000	 3.783416246033408e-001	 5.534487157536986e+000
1	 1.378516182383736e+000	 3.926092587114449e-001	 5.039569653455651e+000
1	 1.374373707938537e+000	 4.068731681929065e-001	 4.561763105139139e+000
1	 1.370072131725126e+000	 4.211308650568782e-001	 4.101483356356171e+000
1	 1.412544729770422e+000	 2.798630434694193e-001	 9.291314826161029e+000
1	 1.409637689282345e+000	 2.941555109032878e-001	 8.688069377834939e+000
1	 1.406576570002893e+000	 3.084609652363380e-001	 8.098871360807044e+000
1	 1.403360496819475e+000	 3.227771056482615e-001	 7.524189681457816e+000
1	 1.399988636681273e+000	 3.371016001484642e-001	 6.964486998741544e+000
1	 1.396460199696681e+000	 3.514320864342495e-001	 6.420219107189970e+000
1	 1.392774440213403e+000	 3.657661727900466e-001	 5.891834313454095e+000
1	 1.388930657879554e+000	 3.801014390274559e-001	 5.379772807286012e+000
1	 1.384928198684105e+000	 3.944354374658012e-001	 4.884466027901208e+000
1	 1.380766455975028e+000	 4.087656939528171e-001	 4.406336026698273e+000
1	 1.376444871453451e+000	 4.230897089250208e-001	 3.945794827349282e+000
1	 1.419084606597842e+000	 2.811587686871757e-001	 9.142947274727831e+000
1	 1.416164106934472e+000	 2.955174081682074e-001	 8.539063721471903e+000
1	 1.413088815117339e+000	 3.098890946760084e-001	 7.949284881808141e+000
1	 1.409857851982213e+000	 3.242715167377888e-001	 7.374083976042032e+000
1	 1.406470380621380e+000	 3.386623315661588e-001	 6.813927157305313e+000
1	 1.402925607486154e+000	 3.530591659212842e-001	 6.269272875323316e+000
1	 1.399222783471986e+000	 3.674596170142805e-001	 5.740571234752348e+000
1	 1.395361204984467e+000	 3.818612534516081e-001	 5.228263349051914e+000
1	 1.391340214984599e+000	 3.962616162201654e-001	 4.732780690891930e+000
1	 1.387159204011649e+000	 4.106582197127023e-001	 4.254544440132933e+000
1	 1.382817611181910e+000	 4.250485527931002e-001	 3.793964830449687e+000
1	 1.425624483425207e+000	 2.824544939051299e-001	 8.996253204942411e+000
1	 1.422690524586597e+000	 2.968793054333399e-001	 8.391943219278746e+000
1	 1.419601060231832e+000	 3.113172241158961e-001	 7.801794552681834e+000
1	 1.416355207145046e+000	 3.257659278275273e-001	 7.226285027382433e+000
1	 1.412952124561622e+000	 3.402230629840488e-001	 6.665884814169024e+000
1	 1.409391015275801e+000	 3.546862454084906e-001	 6.121055781219631e+000
1	 1.405671126730774e+000	 3.691530612386543e-001	 5.592250838228716e+000
1	 1.401791752089610e+000	 3.836210678758615e-001	 5.079913276838804e+000
1	 1.397752231285342e+000	 3.980877949745867e-001	 4.584476108423210e+000
1	 1.393551952048531e+000	 4.125507454725953e-001	 4.106361400301411e+000
1	 1.389190350910635e+000	 4.270073966611341e-001	 3.645979611501886e+000
1	 1.432164360252531e+000	 2.837502191233804e-001	 8.851205815092005e+000
1	 1.429216942238750e+000	 2.982412026987919e-001	 8.246670703264142e+000
1	 1.426113305346421e+000	 3.127453535561098e-001	 7.656355444591513e+000
1	 1.422852562308036e+000	 3.272603389175837e-001	 7.080742752777137e+000
1	 1.419433868502080e+000	 3.417837944022349e-001	 6.520307339103320e+000
1	 1.415856423065714e+000	 3.563133248959594e-001	 5.975515250592478e+000
1	 1.412119469989871e+000	 3.708465054632466e-001	 5.446823203881634e+000
1	 1.408222299195100e+000	 3.853808823002810e-001	 4.934677915849774e+000
1	 1.404164247586460e+000	 3.999139737291144e-001	 4.439515432075356e+000
1	 1.399944700085807e+000	 4.144432712325296e-001	 3.961760454233763e+000
1	 1.395563090639759e+000	 4.289662405291407e-001	 3.501825667579485e+000
1	 1.438704237079830e+000	 2.850459443420262e-001	 8.707778790791560e+000
1	 1.435743359890963e+000	 2.996030999646700e-001	 8.103209681250988e+000
1	 1.432625550461151e+000	 3.141734829967587e-001	 7.512923445627640e+000
1	 1.429349917471245e+000	 3.287547500080645e-001	 6.937407980162108e+000
1	 1.425915612442830e+000	 3.433445258208175e-001	 6.377143058837441e+000
1	 1.422321830855985e+000	 3.579404043837813e-001	 5.832599665096826e+000
1	 1.418567813249386e+000	 3.725399496881361e-001	 5.304239319388849e+000
1	 1.414652846301054e+000	 3.871406967249310e-001	 4.792513403595198e+000
1	 1.410576263888079e+000	 4.017401524837974e-001	 4.297862483431356e+000
1	 1.406337448123607e+000	 4.163357969925386e-001	 3.820715629945732e+000
1	 1.401935830369417e+000	 4.309250843971382e-001	 3.361489741275292e+000
1	 1.338208433080836e+000	 4.113366457145844e-001	 4.938303718196408e+000
1	 1.333851001688592e+000	 4.252542299385834e-001	 4.497285216016724e+000
1	 1.329337225930455e+000	 4.391608147306638e-001	 4.069026649673779e+000
1	 1.324666707576071e+000	 4.530539011119613e-001	 3.653706462184281e+000
1	 1.319839099004865e+000	 4.669309698362181e-001	 3.251530828040418e+000
1	 1.314854104034503e+000	 4.807894826047506e-001	 2.862734185409550e+000
1	 1.309711478716544e+000	 4.946268833159535e-001	 2.487579726043172e+000
1	 1.304411032097752e+000	 5.084405993483900e-001	 2.126359840791887e+000
1	 1.298952626945552e+000	 5.222280428764503e-001	 1.779396518685397e+000
1	 1.293336180436153e+000	 5.359866122174863e-001	 1.447041697602435e+000
1	 1.287561664803915e+000	 5.497136932092553e-001	 1.129677564633734e+000
1	 1.344581172810493e+000	 4.132954895833138e-001	 4.763107002982776e+000
1	 1.340202990707700e+000	 4.272793513320475e-001	 4.321140691587629e+000
1	 1.335667719704843e+000	 4.412521612679873e-001	 3.892330685499299e+000
1	 1.330974959675125e+000	 4.552114085117662e-001	 3.476877299204919e+000
1	 1.326124361342539e+000	 4.691545618201075e-001	 3.075007810275111e+000
1	 1.321115627114275e+000	 4.830790708065788e-001	 2.686976943809105e+000
1	 1.315948511880162e+000	 4.969823671970455e-001	 2.313067314949318e+000
1	 1.310622823777606e+000	 5.108618661188716e-001	 1.953589827465068e+000
1	 1.305138424920496e+000	 5.247149674228440e-001	 1.608884026465972e+000
1	 1.299495232090610e+000	 5.385390570367218e-001	 1.279318403376022e+000
1	 1.293693217390069e+000	 5.523315083492396e-001	 9.652906513741907e-001
1	 1.350953912539618e+000	 4.152543334518899e-001	 4.591841570446419e+000
1	 1.346554979726282e+000	 4.293044727253902e-001	 4.149081303161945e+000
1	 1.341998213478724e+000	 4.433435078052140e-001	 3.719880400693816e+000
1	 1.337283211773701e+000	 4.573689159114934e-001	 3.304459567094956e+000
1	 1.332409623679769e+000	 4.713781538039353e-001	 2.903065452171196e+000
1	 1.327377150193642e+000	 4.853686590083604e-001	 2.515971086755853e+000
1	 1.322185545043416e+000	 4.993378510781066e-001	 2.143476276827013e+000
1	 1.316834615457133e+000	 5.132831328893411e-001	 1.785907954580177e+000
1	 1.311324222895143e+000	 5.272018919692492e-001	 1.443620484629862e+000
1	 1.305654283744792e+000	 5.410915018559989e-001	 1.116995923584040e+000
1	 1.299824769975957e+000	 5.549493234893046e-001	 8.064442313116310e-001
1	 1.357326652268343e+000	 4.172131773203306e-001	 4.424492318845043e+000
1	 1.352906968744470e+000	 4.313295941186147e-001	 3.981106620045439e+000
1	 1.348328707252225e+000	 4.454348543423331e-001	 3.551687578896756e+000
1	 1.343591463871916e+000	 4.595264233111200e-001	 3.136474828205457e+000
1	 1.338694886016667e+000	 4.736017457876672e-001	 2.735732682555749e+000
1	 1.333638673272708e+000	 4.876582472100505e-001	 2.349750523007974e+000
1	 1.328422578206398e+000	 5.016933349590825e-001	 1.978843141823216e+000
1	 1.323046407136414e+000	 5.157043996597350e-001	 1.623351045450183e+000
1	 1.317510020869568e+000	 5.296888165155945e-001	 1.283640714070806e+000
1	 1.311813335398765e+000	 5.436439466752397e-001	 9.601048160713367e-001
1	 1.305956322561644e+000	 5.575671386293675e-001	 6.531623758800964e-001
1	 1.363699391996801e+000	 4.191720211886540e-001	 4.261044428724995e+000
1	 1.359258957762394e+000	 4.333547155117243e-001	 3.817216219594034e+000
1	 1.354659201025470e+000	 4.475262008793348e-001	 3.387763783481264e+000
1	 1.349899715969893e+000	 4.616839307106232e-001	 2.972944241832762e+000
1	 1.344980148353344e+000	 4.758253377712688e-001	 2.573037889503360e+000
1	 1.339900196351570e+000	 4.899478354116039e-001	 2.188348527483760e+000
1	 1.334659611369197e+000	 5.040488188399183e-001	 1.819203757244752e+000
1	 1.329258198815530e+000	 5.181256664299906e-001	 1.465955235067775e+000
1	 1.323695818843844e+000	 5.321757410618093e-001	 1.128978884792729e+000
1	 1.317972387052602e+000	 5.461963914943674e-001	 8.086750674798441e-001
1	 1.312087875147197e+000	 5.601849537693447e-001	 5.054687065578805e-001
1	 1.370072131725126e+000	 4.211308650568782e-001	 4.101483356356171e+000
1	 1.365610946780186e+000	 4.353798369047222e-001	 3.657409687026712e+000
1	 1.360989694798589e+000	 4.496175474162086e-001	 3.228120362677154e+000
1	 1.356207968067750e+000	 4.638414381099804e-001	 2.813888573592386e+000
1	 1.351265410689909e+000	 4.780489297547055e-001	 2.415008932912368e+000
1	 1.346161719430332e+000	 4.922374236129757e-001	 2.031797756003047e+000
1	 1.340896644531904e+000	 5.064043027205591e-001	 1.664593303439246e+000
1	 1.335469990494566e+000	 5.205469332000442e-001	 1.313755986114011e+000
1	 1.329881616818045e+000	 5.346626656078232e-001	 9.796685310473571e-001
1	 1.324131438706370e+000	 5.487488363133046e-001	 6.627361065330668e-001
1	 1.318219427732684e+000	 5.628027689091538e-001	 3.633864053320756e-001
1	 1.376444871453451e+000	 4.230897089250208e-001	 3.945794827349282e+000
1	 1.371962935797978e+000	 4.374049582976122e-001	 3.501686615243375e+000
1	 1.367320188571709e+000	 4.517088939529443e-001	 3.072768454551234e+000
1	 1.362516220165607e+000	 4.659989455091683e-001	 2.659328204532506e+000
1	 1.357550673026475e+000	 4.802725217379431e-001	 2.261673156731937e+000
1	 1.352423242509094e+000	 4.945270118141209e-001	 1.880130259618703e+000
1	 1.347133677694612e+000	 5.087597866009511e-001	 1.515046309234721e+000
1	 1.341681782173601e+000	 5.229681999698325e-001	 1.166788104521507e+000
1	 1.336067414792247e+000	 5.371495901535648e-001	 8.357425660515284e-001
1	 1.330290490360137e+000	 5.513012811319733e-001	 5.223168169514285e-001
1	 1.324350980318171e+000	 5.654205840487115e-001	 2.269382248725229e-001
1	 1.382817611181910e+000	 4.250485527931002e-001	 3.793964830449687e+000
1	 1.378314924815902e+000	 4.394300796903972e-001	 3.350046604648239e+000
1	 1.373650682344955e+000	 4.538002404895319e-001	 2.921718991850152e+000
1	 1.368824472263584e+000	 4.681564529081642e-001	 2.509283139995497e+000
1	 1.363835935363151e+000	 4.824961137209468e-001	 2.113057400850932e+000
1	 1.358684765587958e+000	 4.968166000149945e-001	 1.733377498552335e+000
1	 1.353370710857411e+000	 5.111152704810391e-001	 1.370596666952346e+000
1	 1.347893573852718e+000	 5.253894667392928e-001	 1.025085754608081e+000
1	 1.342253212766523e+000	 5.396365146989636e-001	 6.972332962975383e-001
1	 1.336449542013973e+000	 5.538537259502966e-001	 3.874455500107965e-001
1	 1.330482532903725e+000	 5.680383991879353e-001	 9.614649842454071e-002
1	 1.389190350910635e+000	 4.270073966611341e-001	 3.645979611501886e+000
1	 1.384666913834088e+000	 4.414552010830808e-001	 3.202489262977502e+000
1	 1.379981176118456e+000	 4.558915870259609e-001	 2.774982706709966e+000
1	 1.375132724361800e+000	 4.703139603069455e-001	 2.363773018235536e+000
1	 1.370121197700050e+000	 4.847197057036825e-001	 1.969188012659464e+000
1	 1.364946288667022e+000	 4.991061882155512e-001	 1.591570355746062e+000
1	 1.359607744020392e+000	 5.134707543607685e-001	 1.231277647006091e+000
1	 1.354105365531999e+000	 5.278107335083615e-001	 8.886824737931409e-001
1	 1.348439010740948e+000	 5.421234392439488e-001	 5.641724354695016e-001
1	 1.342608593667948e+000	 5.564061707681970e-001	 2.581501367549875e-001
1	 1.336614085489412e+000	 5.706562143267417e-001	-2.896685057087073e-002
1	 1.395563090639759e+000	 4.289662405291407e-001	 3.501825667579485e+000
1	 1.391018902852671e+000	 4.434803224756665e-001	 3.059014205132123e+000
1	 1.386311669892336e+000	 4.579829335622214e-001	 2.632570135236381e+000
1	 1.381440976460375e+000	 4.724714677054894e-001	 2.222817118799980e+000
1	 1.376406460037280e+000	 4.869432976861156e-001	 1.830090858293825e+000
1	 1.371207811746390e+000	 5.013957764157462e-001	 1.454739150043123e+000
1	 1.365844777183646e+000	 5.158262382400847e-001	 1.097121912102191e+000
1	 1.360317157211526e+000	 5.302320002769754e-001	 7.576111869113834e-001
1	 1.354624808715595e+000	 5.446103637884494e-001	 4.365911179785348e-001
1	 1.348767645322129e+000	 5.589586155855971e-001	 1.344578998738933e-001
1	 1.342745638075299e+000	 5.732740294650479e-001	-1.483802991202171e-001
1	 1.401935830369417e+000	 4.309250843971382e-001	 3.361489741275292e+000
1	 1.397370891871779e+000	 4.455054438681575e-001	 2.919621053015088e+000
1	 1.392642163666725e+000	 4.600742800983028e-001	 2.494491621960471e+000
1	 1.387749228559429e+000	 4.746289751037728e-001	 2.086434370682402e+000
1	 1.382691722374954e+000	 4.891668896682116e-001	 1.695791333574693e+000
1	 1.377469334826162e+000	 5.036853646155344e-001	 1.322913649009038e+000
1	 1.372081810347265e+000	 5.181817221189332e-001	 9.681615310514079e-001
1	 1.366528948891380e+000	 5.326532670450713e-001	 6.319042201358613e-001
1	 1.360810606690540e+000	 5.470972883323950e-001	 3.145199121287085e-001
1	 1.354926696976586e+000	 5.615110604024198e-001	 1.639566525757249e-002
1	 1.348877190661454e+000	 5.758918446027711e-001	-2.620727155760301e-001
1	 1.287561664803915e+000	 5.497136932092553e-001	 1.129677564633735e+000
1	 1.281630009803991e+000	 5.634046095780015e-001	 8.123837584431551e-001
1	 1.275540446084816e+000	 5.770587896032857e-001	 4.806654284336421e-001
1	 1.269293115465706e+000	 5.906735921467680e-001	 1.357331220987597e-001
1	 1.262888216967242e+000	 6.042463694103605e-001	-2.211663381926021e-001
1	 1.256326007244957e+000	 6.177744684438015e-001	-5.887510398534687e-001
1	 1.249606800976565e+000	 6.312552326740413e-001	-9.657052379517576e-001
1	 1.242730971201641e+000	 6.446860034548100e-001	-1.350680685028115e+000
1	 1.235698949612701e+000	 6.580641216346842e-001	-1.742298031392108e+000
1	 1.228511226796755e+000	 6.713869291419161e-001	-2.139148294235951e+000
1	 1.221168352426389e+000	 6.846517705842250e-001	-2.539794393711205e+000
1	 1.293693217390069e+000	 5.523315083492396e-001	 9.652906513741919e-001
1	 1.287733315001646e+000	 5.660876228175537e-001	 6.518343901234884e-001
1	 1.281614751910021e+000	 5.798068259986222e-001	 3.244119789401335e-001
1	 1.275337670609884e+000	 5.934864641766428e-001	-1.574781307258434e-002
1	 1.268902271069594e+000	 6.071238769443510e-001	-3.673795553671733e-001
1	 1.262308811166927e+000	 6.207163987177730e-001	-7.291823767312055e-001
1	 1.255557607078149e+000	 6.342613602728952e-001	-1.099821260688603e+000
1	 1.248649033619314e+000	 6.477560903026103e-001	-1.477928414195235e+000
1	 1.241583524538735e+000	 6.611979169922528e-001	-1.862104708102149e+000
1	 1.234361572759677e+000	 6.745841696119737e-001	-2.250921187658674e+000
1	 1.226983730572359e+000	 6.879121801241521e-001	-2.642920651132196e+000
1	 1.299824769975957e+000	 5.549493234893046e-001	 8.064442313116305e-001
1	 1.293836620199028e+000	 5.687706360572362e-001	 4.969581358590268e-001
1	 1.287689057734931e+000	 5.825548623941472e-001	 1.739632943617542e-001
1	 1.281382225753736e+000	 5.962993362067713e-001	-1.612954417403911e-001
1	 1.274916325171580e+000	 6.100013844786647e-001	-5.075362966125466e-001
1	 1.268291615088483e+000	 6.236583289921399e-001	-8.634418254845973e-001
1	 1.261508413179267e+000	 6.372674878722167e-001	-1.227660245903598e+000
1	 1.254567096036469e+000	 6.508261771509483e-001	-1.598806843394106e+000
1	 1.247468099464197e+000	 6.643317123504247e-001	-1.975465449938273e+000
1	 1.240211918721977e+000	 6.777814100826946e-001	-2.356189993482726e+000
1	 1.232799108717664e+000	 6.911725896647932e-001	-2.739506116479943e+000
1	 1.305956322561644e+000	 5.575671386293675e-001	 6.531623758800970e-001
1	 1.299939925396204e+000	 5.714536492969610e-001	 3.477709176638296e-001
1	 1.293763363559621e+000	 5.853028987897693e-001	 2.932603026245426e-002
1	 1.287426780897345e+000	 5.991122082370586e-001	-3.009134700779593e-001
1	 1.280930379273292e+000	 6.128788920132045e-001	-6.416517021993627e-001
1	 1.274274419009729e+000	 6.266002592668021e-001	-9.915570087401910e-001
1	 1.267459219280038e+000	 6.402736154719032e-001	-1.349263321573244e+000
1	 1.260485158453235e+000	 6.538962639997189e-001	-1.713371602530065e+000
1	 1.253352674389232e+000	 6.674655077090929e-001	-2.082451357761892e+000
1	 1.246062264683813e+000	 6.809786505539669e-001	-2.455042223881150e+000
1	 1.238614486862472e+000	 6.944329992060319e-001	-2.829655623821467e+000
1	 1.312087875147197e+000	 5.601849537693447e-001	 5.054687065578801e-001
1	 1.306043230593243e+000	 5.741366625366410e-001	 2.042883599292151e-001
1	 1.299837669384164e+000	 5.880509351853972e-001	-1.094932822037580e-001
1	 1.293471336040790e+000	 6.019250802674105e-001	-4.346055349818094e-001
1	 1.286944433374820e+000	 6.157563995478727e-001	-7.697406293894998e-001
1	 1.280257222930769e+000	 6.295421895416601e-001	-1.113555032789409e+000
1	 1.273410025380575e+000	 6.432797430718522e-001	-1.464670846890267e+000
1	 1.266403220869743e+000	 6.569663508488171e-001	-1.821677281647056e+000
1	 1.259237249313980e+000	 6.705993030681478e-001	-2.183132203382111e+000
1	 1.251912610645338e+000	 6.841758910256783e-001	-2.547563755206569e+000
1	 1.244429865006946e+000	 6.976934087477517e-001	-2.913472047613528e+000
1	 1.318219427732684e+000	 5.628027689091538e-001	 3.633864053320757e-001
1	 1.312146535790214e+000	 5.768196757761883e-001	 6.652579634534386e-002
1	 1.305911975208633e+000	 5.907989715809392e-001	-2.424882333992544e-001
1	 1.299515891184154e+000	 6.047379522977323e-001	-5.623752056827377e-001
1	 1.292958487476256e+000	 6.186339070825722e-001	-8.918176590181107e-001
1	 1.286240026851705e+000	 6.324841198166135e-001	-1.229462499597019e+000
1	 1.279360831480996e+000	 6.462858706719616e-001	-1.573922430143019e+000
1	 1.272321283286121e+000	 6.600364376981375e-001	-1.923777455111932e+000
1	 1.265121824238586e+000	 6.737330984274819e-001	-2.277576460465565e+000
1	 1.257762956606709e+000	 6.873731314977173e-001	-2.633838866034647e+000
1	 1.250245243151254e+000	 7.009538182898363e-001	-2.991056348276682e+000
1	 1.324350980318171e+000	 5.654205840487115e-001	 2.269382248725224e-001
1	 1.318249840987185e+000	 5.795026890155154e-001	-6.550172336907287e-002
1	 1.311986281033103e+000	 5.935470079763046e-001	-3.696525323898406e-001
1	 1.305560446327517e+000	 6.075508243279292e-001	-6.842259853122011e-001
1	 1.298972541577693e+000	 6.215114146172055e-001	-1.007897101892775e+000
1	 1.292222830772642e+000	 6.354260500915626e-001	-1.339305518475829e+000
1	 1.285311637581417e+000	 6.492919982721286e-001	-1.677056946098388e+000
1	 1.278239345702499e+000	 6.631065245475751e-001	-2.019724705126422e+000
1	 1.271006399163193e+000	 6.768668937869868e-001	-2.365851334587510e+000
1	 1.263613302568079e+000	 6.905703719699720e-001	-2.713950274151971e+000
1	 1.256060621295562e+000	 7.042142278321688e-001	-3.062507616504115e+000
1	 1.330482532903725e+000	 5.680383991879353e-001	 9.614649842453991e-002
1	 1.324353146184225e+000	 5.821857022545347e-001	-1.917794269233511e-001
1	 1.318060586857646e+000	 5.962950443714010e-001	-4.909800042094710e-001
1	 1.311605001470963e+000	 6.103636963579071e-001	-8.001613124255781e-001
1	 1.304986595679221e+000	 6.243889221516753e-001	-1.117993005015388e+000
1	 1.298205634693682e+000	 6.383679803664074e-001	-1.443109717438730e+000
1	 1.291262443681955e+000	 6.522981258722513e-001	-1.774112552904198e+000
1	 1.284157408119006e+000	 6.661766113970248e-001	-2.109570644589356e+000
1	 1.276890974087942e+000	 6.800006891465542e-001	-2.448022792451786e+000
1	 1.269463648529604e+000	 6.937676124423298e-001	-2.787979172520488e+000
1	 1.261875999440038e+000	 7.074746373746336e-001	-3.127923116344941e+000
1	 1.336614085489412e+000	 5.706562143267417e-001	-2.896685057087073e-002
1	 1.330456451381401e+000	 5.848687154931584e-001	-3.122928130915184e-001
1	 1.324134892682336e+000	 5.990430807661378e-001	-6.064645872002633e-001
1	 1.317649556614571e+000	 6.131765683875711e-001	-9.101845624831226e-001
1	 1.311000649780933e+000	 6.272664296858844e-001	-1.222119157633275e+000
1	 1.304188438614927e+000	 6.413099106410480e-001	-1.540900254238240e+000
1	 1.297213249782725e+000	 6.553042534722270e-001	-1.865126708526092e+000
1	 1.290075470535772e+000	 6.692466982463816e-001	-2.193365939329324e+000
1	 1.282775549012976e+000	 6.831344845060754e-001	-2.524155590306855e+000
1	 1.275313994491440e+000	 6.969648529146795e-001	-2.856005264252184e+000
1	 1.267691377584844e+000	 7.107350469171134e-001	-3.187398327101672e+000
1	 1.342745638075299e+000	 5.732740294650479e-001	-1.483802991202171e-001
1	 1.336559756578783e+000	 5.875517287312995e-001	-4.270276455233129e-001
1	 1.330209198507246e+000	 6.017911171604234e-001	-7.161003304255096e-001
1	 1.323694111758423e+000	 6.159894404168262e-001	-1.014299049290670e+000
1	 1.317014703882919e+000	 6.301439372197351e-001	-1.320289097124156e+000
1	 1.310171242536484e+000	 6.442518409153849e-001	-1.632701827103456e+000
1	 1.303164055883844e+000	 6.583103810719529e-001	-1.950136186734229e+000
1	 1.295993532952928e+000	 6.723167850955397e-001	-2.271160329728380e+000
1	 1.288660123938438e+000	 6.862682798654428e-001	-2.594313301582964e+000
1	 1.281164340453741e+000	 7.001620933869084e-001	-2.918106796625779e+000
1	 1.273506755730149e+000	 7.139954564594921e-001	-3.241026984079839e+000
1	 1.348877190661454e+000	 5.758918446027711e-001	-2.620727155760301e-001
1	 1.342663061776438e+000	 5.902347419688698e-001	-5.359699467238384e-001
1	 1.336283504332451e+000	 6.045391535541665e-001	-8.198813911530718e-001
1	 1.329738666902602e+000	 6.188023124455790e-001	-1.112508026400960e+000
1	 1.323028757985271e+000	 6.330214447531308e-001	-1.412516114720817e+000
1	 1.316154046458454e+000	 6.471937711893181e-001	-1.718538685184451e+000
1	 1.309114861985428e+000	 6.613165086713273e-001	-2.029177092653946e+000
1	 1.301911595370601e+000	 6.753868719443946e-001	-2.343002651755942e+000
1	 1.294544698864472e+000	 6.894020752245478e-001	-2.658558343775761e+000
1	 1.287014686416663e+000	 7.033593338589054e-001	-2.974360594175155e+000
1	 1.279322133876119e+000	 7.172558660016536e-001	-3.288901118226252e+000
1	 1.221168352426389e+000	 6.846517705842250e-001	-2.539794393711204e+000
1	 1.213669799278833e+000	 6.978579711401302e-001	-2.950453276486624e+000
1	 1.206017326610182e+000	 7.110008907379337e-001	-3.377893314879596e+000
1	 1.198211663301045e+000	 7.240778913527084e-001	-3.821683502023787e+000
1	 1.190253597587755e+000	 7.370863441835159e-001	-4.281417542281418e+000
1	 1.182143976989039e+000	 7.500236313001479e-001	-4.756714520877567e+000
1	 1.173883708178447e+000	 7.628871472931258e-001	-5.247219526059701e+000
1	 1.165473756802219e+000	 7.756743009248834e-001	-5.752604222003249e+000
1	 1.156915147242332e+000	 7.883825167800594e-001	-6.272567370793198e+000
1	 1.148208962324598e+000	 8.010092369127815e-001	-6.806835301932348e+000
1	 1.139356342971731e+000	 8.135519224888317e-001	-7.355162327946919e+000
1	 1.226983730572359e+000	 6.879121801241521e-001	-2.642920651132194e+000
1	 1.219449468243310e+000	 7.011812704937224e-001	-3.044563628407014e+000
1	 1.211760553406452e+000	 7.143867785522950e-001	-3.462911376053175e+000
1	 1.203917718413423e+000	 7.275260537122790e-001	-3.897583603835128e+000
1	 1.195921755254242e+000	 7.405964546539967e-001	-4.348226014221966e+000
1	 1.187773515483636e+000	 7.535953509802705e-001	-4.814510895168221e+000
1	 1.179473910092858e+000	 7.665201248742765e-001	-5.296137662399918e+000
1	 1.171023909326686e+000	 7.793681727585921e-001	-5.792833349560494e+000
1	 1.162424542445345e+000	 7.921369069533466e-001	-6.304353044688945e+000
1	 1.153676897431213e+000	 8.048237573313516e-001	-6.830480271628154e+000
1	 1.144782120640234e+000	 8.174261729680852e-001	-7.371027315096232e+000
1	 1.232799108717664e+000	 6.911725896647932e-001	-2.739506116479945e+000
1	 1.225229137207087e+000	 7.045045698480690e-001	-3.132124187293456e+000
1	 1.217503780201996e+000	 7.177726663674401e-001	-3.541400510017946e+000
1	 1.209623773525056e+000	 7.309742160726523e-001	-3.967002110568781e+000
1	 1.201589912919977e+000	 7.441065651252894e-001	-4.408622891893969e+000
1	 1.193403053977485e+000	 7.571670706612037e-001	-4.865984152759140e+000
1	 1.185064112006538e+000	 7.701531024562266e-001	-5.338835053757227e+000
1	 1.176574061850452e+000	 7.830620445930802e-001	-5.826953029028594e+000
1	 1.167933937647704e+000	 7.958912971273850e-001	-6.330144142305644e+000
1	 1.159144832537233e+000	 8.086382777506355e-001	-6.848243386027787e+000
1	 1.150207898308219e+000	 8.213004234480066e-001	-7.381114922411231e+000
1	 1.238614486862472e+000	 6.944329992060319e-001	-2.829655623821468e+000
1	 1.231008806170338e+000	 7.078278692030473e-001	-3.213255628430908e+000
1	 1.223247006996993e+000	 7.211585541832412e-001	-3.613493408429345e+000
1	 1.215329828636130e+000	 7.344223784336932e-001	-4.030079956277839e+000
1	 1.207258070585148e+000	 7.476166755972522e-001	-4.462753632415653e+000
1	 1.199032592470775e+000	 7.607387903427998e-001	-4.911280612883351e+000
1	 1.190654313919673e+000	 7.737860800388232e-001	-5.375455282621090e+000
1	 1.182124214373700e+000	 7.867559164281895e-001	-5.855100573061843e+000
1	 1.173443332849581e+000	 7.996456873020111e-001	-6.350068242772563e+000
1	 1.164612767642822e+000	 8.124527981704673e-001	-6.860239100033457e+000
1	 1.155633675975835e+000	 8.251746739284291e-001	-7.385523166389080e+000
1	 1.244429865006946e+000	 6.976934087477517e-001	-2.913472047613526e+000
1	 1.236788475133239e+000	 7.111511685585370e-001	-3.288076371381674e+000
1	 1.228990233791627e+000	 7.245444419995696e-001	-3.679320282603910e+000
1	 1.221035883746832e+000	 7.378705407952682e-001	-4.086955440605228e+000
1	 1.212926228249946e+000	 7.511267860697443e-001	-4.510760973947678e+000
1	 1.204662130963697e+000	 7.643105100249108e-001	-4.950543859700740e+000
1	 1.196244515832452e+000	 7.774190576219127e-001	-5.406139247564079e+000
1	 1.187674366896613e+000	 7.904497882637617e-001	-5.877410727596755e+000
1	 1.178952728051152e+000	 8.034000774770631e-001	-6.364250540444672e+000
1	 1.170080702748144e+000	 8.162673185906819e-001	-6.866579729097339e+000
1	 1.161059453643234e+000	 8.290489244091865e-001	-7.384348231352206e+000
1	 1.250245243151254e+000	 7.009538182898363e-001	-2.991056348276682e+000
1	 1.242568144095964e+000	 7.144744679144152e-001	-3.356702632446398e+000
1	 1.234733460586078e+000	 7.279303298162979e-001	-3.739008921204128e+000
1	 1.226741938857349e+000	 7.413187031572424e-001	-4.137764290051704e+000
1	 1.218594385914560e+000	 7.546368965426242e-001	-4.552784998927113e+000
1	 1.210291669456439e+000	 7.678822297073895e-001	-4.983914805907380e+000
1	 1.201834717745062e+000	 7.810520352053412e-001	-5.431025225661683e+000
1	 1.193224519419372e+000	 7.941436600996370e-001	-5.894015731545716e+000
1	 1.184462123252591e+000	 8.071544676523775e-001	-6.372813900365114e+000
1	 1.175548637853362e+000	 8.200818390111134e-001	-6.867375498978969e+000
1	 1.166485231310565e+000	 8.329231748901119e-001	-7.377684512058329e+000
1	 1.256060621295562e+000	 7.042142278321688e-001	-3.062507616504115e+000
1	 1.248347813058690e+000	 7.177977672705599e-001	-3.419248475668152e+000
1	 1.240476687380531e+000	 7.313162176332978e-001	-3.792684746321311e+000
1	 1.232447993967869e+000	 7.447668655194811e-001	-4.182639717542505e+000
1	 1.224262543579179e+000	 7.581470070157511e-001	-4.588963195546096e+000
1	 1.215921207949192e+000	 7.714539493900888e-001	-5.011531754578209e+000
1	 1.207424919657691e+000	 7.846850127889552e-001	-5.450248933178061e+000
1	 1.198774671942160e+000	 7.978375319356575e-001	-5.905045374832579e+000
1	 1.189971518454072e+000	 8.109088578277917e-001	-6.375878912187223e+000
1	 1.181016572958641e+000	 8.238963594315962e-001	-6.862734594119771e+000
1	 1.171911008977979e+000	 8.367974253710390e-001	-7.365624655128277e+000
1	 1.261875999440038e+000	 7.074746373746336e-001	-3.127923116344939e+000
1	 1.254127482021592e+000	 7.211210666268496e-001	-3.475825862425869e+000
1	 1.246219914175166e+000	 7.347021054504418e-001	-3.840470868007508e+000
1	 1.238154049078578e+000	 7.482150278818500e-001	-4.221712480346629e+000
1	 1.229930701243992e+000	 7.616571174889840e-001	-4.619430517529446e+000
1	 1.221550746442145e+000	 7.750256690728600e-001	-5.033530459298866e+000
1	 1.213015121570523e+000	 7.883179903726010e-001	-5.463943584573562e+000
1	 1.204324824465157e+000	 8.015314037716643e-001	-5.910627054824109e+000
1	 1.195480913655770e+000	 8.146632480031428e-001	-6.373563942605051e+000
1	 1.186484508064144e+000	 8.277108798519648e-001	-6.852763204680615e+000
1	 1.177336786645625e+000	 8.406716758518008e-001	-7.348259599327008e+000
1	 1.267691377584844e+000	 7.107350469171134e-001	-3.187398327101672e+000
1	 1.259907150984843e+000	 7.244443659831625e-001	-3.526544699663096e+000
1	 1.251963140970167e+000	 7.380879932676013e-001	-3.882488137306229e+000
1	 1.243860104189663e+000	 7.516631902442145e-001	-4.255110936401705e+000
1	 1.235598858909190e+000	 7.651672279621811e-001	-4.644319442267796e+000
1	 1.227180284935487e+000	 7.785973887555560e-001	-5.050044182643748e+000
1	 1.218605323483748e+000	 7.919509679561250e-001	-5.472239949888420e+000
1	 1.209874976988547e+000	 8.052252756074982e-001	-5.910885831207462e+000
1	 1.200990308857859e+000	 8.184176381782674e-001	-6.365985186341451e+000
1	 1.191952443170035e+000	 8.315254002720536e-001	-6.837565572284098e+000
1	 1.182762564313656e+000	 8.445459263322308e-001	-7.325678614736980e+000
1	 1.273506755730149e+000	 7.139954564594921e-001	-3.241026984079840e+000
1	 1.265686819948621e+000	 7.277676653393762e-001	-3.571512886794853e+000
1	 1.257706367765714e+000	 7.414738810846485e-001	-3.918855197830782e+000
1	 1.249566159301312e+000	 7.551113526064400e-001	-4.282961099096117e+000
1	 1.241267016574961e+000	 7.686773384352018e-001	-4.663760027357349e+000
1	 1.232809823429408e+000	 7.821691084380293e-001	-5.061203753050548e+000
1	 1.224195525397553e+000	 7.955839455393742e-001	-5.475266410554259e+000
1	 1.215425129512512e+000	 8.089191474430005e-001	-5.905944479364441e+000
1	 1.206499704060513e+000	 8.221720283530030e-001	-6.353256715738674e+000
1	 1.197420378276477e+000	 8.353399206916965e-001	-6.817244034504111e+000
1	 1.188188341982220e+000	 8.484201768121623e-001	-7.297969340857301e+000
1	 1.279322133876119e+000	 7.172558660016536e-001	-3.288901118226250e+000
1	 1.271466488913099e+000	 7.310909646953697e-001	-3.610836361335781e+000
1	 1.263449594561992e+000	 7.448597689014561e-001	-3.949688535935318e+000
1	 1.255272214413711e+000	 7.585595149683920e-001	-4.305386690556546e+000
1	 1.246935174241497e+000	 7.721874489079046e-001	-4.677879965597917e+000
1	 1.238439361924098e+000	 7.857408281201320e-001	-5.067137620144520e+000
1	 1.229785727312124e+000	 7.992169231221942e-001	-5.473149013682915e+000
1	 1.220975282037234e+000	 8.126130192780127e-001	-5.895923542290146e+000
1	 1.212009099263907e+000	 8.259264185271869e-001	-6.335490528996558e+000
1	 1.202888313383635e+000	 8.391544411107291e-001	-6.791899068141394e+000
1	 1.193614119651469e+000	 8.522944272914291e-001	-7.265217823664491e+000
1	 1.139356342971731e+000	 8.135519224888317e-001	-7.355162327946919e+000
1	 1.130358487479987e+000	 8.260080551452174e-001	-7.911364780380377e+000
1	 1.121216650107010e+000	 8.383751377728456e-001	-8.469713381123917e+000
1	 1.111932141541688e+000	 8.506506969278836e-001	-9.030685981831050e+000
1	 1.102506328664550e+000	 8.628322847048778e-001	-9.594787448640970e+000
1	 1.092940633930648e+000	 8.749174803231294e-001	-1.016254880956341e+001
1	 1.083236534698992e+000	 8.869038916952824e-001	-1.073452634725106e+001
1	 1.073395562509123e+000	 8.987891569760318e-001	-1.131130063878195e+001
1	 1.063419302305526e+000	 9.105709460888763e-001	-1.189347554422300e+001
1	 1.053309391610658e+000	 9.222469622288806e-001	-1.248167714588889e+001
1	 1.043067519647452e+000	 9.338149433394247e-001	-1.307655264034906e+001
1	 1.144782120640234e+000	 8.174261729680852e-001	-7.371027315096231e+000
1	 1.135741416075119e+000	 8.299416235077390e-001	-7.919816160250741e+000
1	 1.126556043966473e+000	 8.423675999496276e-001	-8.471081612420589e+000
1	 1.117227321244882e+000	 8.547016170710257e-001	-9.025297301371866e+000
1	 1.107756621300165e+000	 8.669412153092041e-001	-9.582963387316060e+000
1	 1.098145373361320e+000	 8.790839623553601e-001	-1.014460571513038e+001
1	 1.088395061822759e+000	 8.911274547306766e-001	-1.071077491474897e+001
1	 1.078507225517445e+000	 9.030693193424029e-001	-1.128204544933614e+001
1	 1.068483456937606e+000	 9.149072150178814e-001	-1.185901461299900e+001
1	 1.058325401403822e+000	 9.266388340144638e-001	-1.244230147993626e+001
1	 1.048034756183361e+000	 9.382619035032933e-001	-1.303254580705935e+001
1	 1.150207898308219e+000	 8.213004234480066e-001	-7.381114922411231e+000
1	 1.141124344669825e+000	 8.338751918708751e-001	-7.922578122098086e+000
1	 1.131895437825615e+000	 8.463600621269652e-001	-8.466828254706005e+000
1	 1.122522500947869e+000	 8.587525372146619e-001	-9.014335462646899e+000
1	 1.113006913935690e+000	 8.710501459139628e-001	-9.565596104927021e+000
1	 1.103350112792018e+000	 8.832504443879650e-001	-1.012113191703495e+001
1	 1.093553588946664e+000	 8.953510177663915e-001	-1.068148911747393e+001
1	 1.083618888526008e+000	 9.073494817090502e-001	-1.124723746253928e+001
1	 1.073547611570015e+000	 9.192434839471292e-001	-1.181896925108545e+001
1	 1.063341411197388e+000	 9.310307058002686e-001	-1.239729828116741e+001
1	 1.053001992719719e+000	 9.427088636673785e-001	-1.298285876057796e+001
1	 1.155633675975835e+000	 8.251746739284291e-001	-7.385523166389082e+000
1	 1.146507273264239e+000	 8.378087602344601e-001	-7.919731446644724e+000
1	 1.137234831684552e+000	 8.503525243046958e-001	-8.457018509417516e+000
1	 1.127817680650742e+000	 8.628034573586337e-001	-8.997851727825386e+000
1	 1.118257206571198e+000	 8.751590765190012e-001	-9.542724546333522e+000
1	 1.108554852222792e+000	 8.874169264207961e-001	-1.009215564515402e+001
1	 1.098712116070736e+000	 8.995745808022863e-001	-1.064668805145539e+001
1	 1.088730551534819e+000	 9.116296440758385e-001	-1.120688819897222e+001
1	 1.078611766202740e+000	 9.235797528764896e-001	-1.177334493775073e+001
1	 1.068357420991321e+000	 9.354225775861725e-001	-1.234666849590541e+001
1	 1.057969229256477e+000	 9.471558238315647e-001	-1.292748939539593e+001
1	 1.161059453643234e+000	 8.290489244091865e-001	-7.384348231352203e+000
1	 1.151890201858494e+000	 8.417423285983281e-001	-7.911355404617836e+000
1	 1.142574225543397e+000	 8.543449864826558e-001	-8.441716359213219e+000
1	 1.133112860353597e+000	 8.668543775027816e-001	-8.975896400856914e+000
1	 1.123507499206761e+000	 8.792680071241641e-001	-9.514386928416643e+000
1	 1.113759591653694e+000	 8.915834084537054e-001	-1.005770460167567e+001
1	 1.103870643195002e+000	 9.037981438382184e-001	-1.060639045576818e+001
1	 1.093842214543883e+000	 9.159098064426332e-001	-1.116100896386534e+001
1	 1.083675920835766e+000	 9.279160218058362e-001	-1.172214704984072e+001
1	 1.073373430785588e+000	 9.398144493720536e-001	-1.229041305278312e+001
1	 1.062936465793583e+000	 9.516027839957343e-001	-1.286643564536030e+001
1	 1.166485231310565e+000	 8.329231748901119e-001	-7.377684512058333e+000
1	 1.157273130452726e+000	 8.456758969623131e-001	-7.897527791866780e+000
1	 1.147913619402268e+000	 8.583374486606824e-001	-8.420984596316295e+000
1	 1.138408040056528e+000	 8.709052976469462e-001	-8.948518849755979e+000
1	 1.128757791842452e+000	 8.833769377292983e-001	-9.480620757008913e+000
1	 1.118964331084774e+000	 8.957498904865452e-001	-1.001780597337141e+001
1	 1.109029170319491e+000	 9.080217068740475e-001	-1.056061472083481e+001
1	 1.098953877553206e+000	 9.201899688092993e-001	-1.110961085210781e+001
1	 1.088740075469078e+000	 9.322522907350391e-001	-1.166538086416029e+001
1	 1.078389440580155e+000	 9.442063211577895e-001	-1.222853286315376e+001
1	 1.067903702330989e+000	 9.560497441597712e-001	-1.279969548275841e+001
1	 1.171911008977979e+000	 8.367974253710390e-001	-7.365624655128274e+000
1	 1.162656059047067e+000	 8.496094653262503e-001	-7.878324963505857e+000
1	 1.153253013261278e+000	 8.623299108386122e-001	-8.394884850073023e+000
1	 1.143703219759631e+000	 8.749562177909689e-001	-8.915767528268729e+000
1	 1.134008084478345e+000	 8.874858683342495e-001	-9.441462843355668e+000
1	 1.124169070516083e+000	 8.999163725191670e-001	-9.972486443528123e+000
1	 1.114187697444231e+000	 9.122452699096308e-001	-1.050937889649582e+001
1	 1.104065540562796e+000	 9.244701311757015e-001	-1.105270475311576e+001
1	 1.093804230102663e+000	 9.365885596639706e-001	-1.160305155978947e+001
1	 1.083405450374990e+000	 9.485981929432582e-001	-1.216102882149164e+001
1	 1.072870938868645e+000	 9.604967043235582e-001	-1.272726691742862e+001
1	 1.177336786645625e+000	 8.406716758518008e-001	-7.348259599327007e+000
1	 1.168038987641652e+000	 8.535430336899728e-001	-7.853821867112252e+000
1	 1.158592407120543e+000	 8.663223730162815e-001	-8.363477613748358e+000
1	 1.148998399463000e+000	 8.790071379346902e-001	-8.877689996939814e+000
1	 1.139258377114512e+000	 8.915947989388634e-001	-9.396949320118901e+000
1	 1.129373809947671e+000	 9.040828545514228e-001	-9.921772203549169e+000
1	 1.119346224569249e+000	 9.164688329448273e-001	-1.045270069985838e+001
1	 1.109177203572658e+000	 9.287502935417051e-001	-1.099030135556755e+001
1	 1.098868384736506e+000	 9.409248285925020e-001	-1.153516422033504e+001
1	 1.088421460170060e+000	 9.529900647283366e-001	-1.208790180578046e+001
1	 1.077838175406501e+000	 9.649436644869789e-001	-1.264914799589422e+001
1	 1.182762564313656e+000	 8.445459263322308e-001	-7.325678614736980e+000
1	 1.173421916236615e+000	 8.574766020533158e-001	-7.824092075010641e+000
1	 1.163931800980180e+000	 8.703148351935284e-001	-8.326822270584284e+000
1	 1.154293579166728e+000	 8.830580580779516e-001	-8.834332943599847e+000
1	 1.144508669751025e+000	 8.957037295429865e-001	-9.347115656942611e+000
1	 1.134578549379588e+000	 9.082493365831645e-001	-9.865688964236949e+000
1	 1.124504751694574e+000	 9.206923959794957e-001	-1.039059752292731e+001
1	 1.114288866582798e+000	 9.330304559071755e-001	-1.092241115200780e+001
1	 1.103932539370592e+000	 9.452610975205055e-001	-1.146172383612054e+001
1	 1.093437469965330e+000	 9.573819365129036e-001	-1.200915267789210e+001
1	 1.082805411944507e+000	 9.693906246499160e-001	-1.256533680052288e+001
1	 1.188188341982220e+000	 8.484201768121623e-001	-7.297969340857301e+000
1	 1.178804844832091e+000	 8.614101704161132e-001	-7.789207815673308e+000
1	 1.169271194840301e+000	 8.743072973701889e-001	-8.284977119143662e+000
1	 1.159588758870912e+000	 8.871089782205932e-001	-8.785742203291129e+000
1	 1.149758962387959e+000	 8.998126601464643e-001	-9.291996675590717e+000
1	 1.139783288811885e+000	 9.124158186142443e-001	-9.804261966765946e+000
1	 1.129663278820234e+000	 9.249159590134939e-001	-1.032308644002868e+001
1	 1.119400529593223e+000	 9.373106182719772e-001	-1.084904444332568e+001
1	 1.108996694004907e+000	 9.495973664478518e-001	-1.138273530631582e+001
1	 1.098453479760768e+000	 9.617738082968365e-001	-1.192478228395369e+001
1	 1.087772648482614e+000	 9.738375848122531e-001	-1.247583144870733e+001
1	 1.193614119651469e+000	 8.522944272914291e-001	-7.265217823664490e+000
1	 1.184187773428212e+000	 8.653437387781996e-001	-7.749240004263389e+000
1	 1.174610588701024e+000	 8.782997595461004e-001	-8.237999397963554e+000
1	 1.164883938575646e+000	 8.911598983624565e-001	-8.731962777650031e+000
1	 1.155009255025385e+000	 9.039215907491438e-001	-9.231626564671979e+000
1	 1.144988028244612e+000	 9.165823006445137e-001	-9.737515993356428e+000
1	 1.134821805946257e+000	 9.291395220466800e-001	-1.025018421502937e+001
1	 1.124512192603938e+000	 9.415907806359750e-001	-1.077021134311066e+001
1	 1.114060848639436e+000	 9.539336353744131e-001	-1.129820344100933e+001
1	 1.103469489556340e+000	 9.661656800800127e-001	-1.183479145470657e+001
1	 1.092739885020771e+000	 9.782845449738733e-001	-1.238063009207002e+001
1	 1.043067519647452e+000	 9.338149433394247e-001	-1.307655264034906e+001
1	 1.032696991978341e+000	 9.452709535141213e-001	-1.367006986260961e+001
1	 1.022198072001155e+000	 9.566145495030239e-001	-1.425401105937131e+001
1	 1.011572598348012e+000	 9.678435839347662e-001	-1.482849071366664e+001
1	 1.000822457308639e+000	 9.789559497897831e-001	-1.539362315292942e+001
1	 9.899495817162132e-001	 9.899495817162133e-001	-1.594952268841582e+001
1	 9.789559497897830e-001	 1.000822457308639e+000	-1.649630375936784e+001
1	 9.678435839347661e-001	 1.011572598348011e+000	-1.703408108146633e+001
1	 9.566145495030243e-001	 1.022198072001155e+000	-1.756296979910663e+001
1	 9.452709535141209e-001	 1.032696991978341e+000	-1.808308564101509e+001
1	 9.338149433394248e-001	 1.043067519647452e+000	-1.859454507871283e+001
1	 1.048034756183361e+000	 9.382619035032933e-001	-1.303254580705935e+001
1	 1.037614842580221e+000	 9.497724688346354e-001	-1.362158293394415e+001
1	 1.027065925246561e+000	 9.611700846477366e-001	-1.420107877932033e+001
1	 1.016389851570314e+000	 9.724525933451523e-001	-1.477116625630239e+001
1	 1.005588516823978e+000	 9.836178778734041e-001	-1.533197798741633e+001
1	 9.946638630451422e-001	 9.946638630451422e-001	-1.588364641845674e+001
1	 9.836178778734039e-001	 1.005588516823978e+000	-1.642630393733723e+001
1	 9.724525933451519e-001	 1.016389851570314e+000	-1.696008299753289e+001
1	 9.611700846477363e-001	 1.027065925246561e+000	-1.748511624569872e+001
1	 9.497724688346353e-001	 1.037614842580221e+000	-1.800153665303055e+001
1	 9.382619035032931e-001	 1.048034756183361e+000	-1.850947764992336e+001
1	 1.053001992719719e+000	 9.427088636673785e-001	-1.298285876057796e+001
1	 1.042532693182573e+000	 9.542739841553807e-001	-1.356735637660851e+001
1	 1.031933778492439e+000	 9.657256197927074e-001	-1.414234242568776e+001
1	 1.021207104793070e+000	 9.770616027558350e-001	-1.470796858497997e+001
1	 1.010354576339740e+000	 9.882798059573643e-001	-1.526438611471785e+001
1	 9.993781443744535e-001	 9.993781443744535e-001	-1.581174594574496e+001
1	 9.882798059573644e-001	 1.010354576339740e+000	-1.635019877229150e+001
1	 9.770616027558350e-001	 1.021207104793070e+000	-1.687989514963192e+001
1	 9.657256197927076e-001	 1.031933778492439e+000	-1.740098559626082e+001
1	 9.542739841553805e-001	 1.042532693182573e+000	-1.791362070020502e+001
1	 9.427088636673786e-001	 1.053001992719719e+000	-1.841795122907586e+001
1	 1.057969229256477e+000	 9.471558238315647e-001	-1.292748939539593e+001
1	 1.047450543785332e+000	 9.587754994762444e-001	-1.350738581023183e+001
1	 1.036801631738713e+000	 9.702811549378291e-001	-1.407779543127092e+001
1	 1.026024358016198e+000	 9.816706121667101e-001	-1.463888902913550e+001
1	 1.015120635855834e+000	 9.929417340415637e-001	-1.519083683974343e+001
1	 1.004092425704052e+000	 1.004092425704052e+000	-1.573380862479356e+001
1	 9.929417340415642e-001	 1.015120635855834e+000	-1.626797373770811e+001
1	 9.816706121667098e-001	 1.026024358016198e+000	-1.679350119473687e+001
1	 9.702811549378294e-001	 1.036801631738713e+000	-1.731055975090945e+001
1	 9.587754994762442e-001	 1.047450543785332e+000	-1.781931798051074e+001
1	 9.471558238315647e-001	 1.057969229256477e+000	-1.831994436173204e+001
1	 1.062936465793583e+000	 9.516027839957343e-001	-1.286643564536030e+001
1	 1.052368394388436e+000	 9.632770147971145e-001	-1.344166693632172e+001
1	 1.041669484985311e+000	 9.748366900829936e-001	-1.400743135162389e+001
1	 1.030841611239612e+000	 9.862796215776729e-001	-1.456391908027874e+001
1	 1.019886695372170e+000	 9.976036621259025e-001	-1.511131966731969e+001
1	 1.008806707033843e+000	 1.008806707033843e+000	-1.564982204649041e+001
1	 9.976036621259025e-001	 1.019886695372170e+000	-1.617961457860091e+001
1	 9.862796215776728e-001	 1.030841611239612e+000	-1.670088509531218e+001
1	 9.748366900829935e-001	 1.041669484985311e+000	-1.721382094809202e+001
1	 9.632770147971146e-001	 1.052368394388437e+000	-1.771860906206844e+001
1	 9.516027839957345e-001	 1.062936465793583e+000	-1.821543599449028e+001
1	 1.067903702330989e+000	 9.560497441597712e-001	-1.279969548275841e+001
1	 1.057286244991822e+000	 9.677785301178790e-001	-1.337019553636050e+001
1	 1.046537338232156e+000	 9.793922252280916e-001	-1.393124386220193e+001
1	 1.035658864463231e+000	 9.908886309886190e-001	-1.448305038822367e+001
1	 1.024652754888659e+000	 1.002265590210279e+000	-1.502582429754098e+001
1	 1.013520988363730e+000	 1.013520988363730e+000	-1.555977403260127e+001
1	 1.002265590210279e+000	 1.024652754888659e+000	-1.608510730520456e+001
1	 9.908886309886190e-001	 1.035658864463231e+000	-1.660203111220906e+001
1	 9.793922252280914e-001	 1.046537338232156e+000	-1.711075175671937e+001
1	 9.677785301178788e-001	 1.057286244991822e+000	-1.761147487453984e+001
1	 9.560497441597713e-001	 1.067903702330989e+000	-1.810440546565870e+001
1	 1.072870938868645e+000	 9.604967043235582e-001	-1.272726691742862e+001
1	 1.062204095595425e+000	 9.722800454384258e-001	-1.329296746995384e+001
1	 1.051405191479176e+000	 9.839477603730165e-001	-1.384922675558614e+001
1	 1.040476117686970e+000	 9.954976403994443e-001	-1.439627475742341e+001
1	 1.029418814405209e+000	 1.006927518294594e+000	-1.493434062124895e+001
1	 1.018235269693616e+000	 1.018235269693616e+000	-1.546365263042481e+001
1	 1.006927518294594e+000	 1.029418814405210e+000	-1.598443818683567e+001
1	 9.954976403994444e-001	 1.040476117686970e+000	-1.649692379775778e+001
1	 9.839477603730163e-001	 1.051405191479176e+000	-1.700133506851504e+001
1	 9.722800454384258e-001	 1.062204095595425e+000	-1.749789670075717e+001
1	 9.604967043235583e-001	 1.072870938868645e+000	-1.798683249618739e+001
1	 1.077838175406501e+000	 9.649436644869789e-001	-1.264914799589422e+001
1	 1.067121946199183e+000	 9.767815607586421e-001	-1.320997867303022e+001
1	 1.056273044726295e+000	 9.885032955176587e-001	-1.376137393878427e+001
1	 1.045293370910748e+000	 1.000106649810044e+000	-1.430358414340785e+001
1	 1.034184873921732e+000	 1.011589446378747e+000	-1.483685871563693e+001
1	 1.022949551023407e+000	 1.022949551023407e+000	-1.536144610759554e+001
1	 1.011589446378747e+000	 1.034184873921732e+000	-1.587759374592195e+001
1	 1.000106649810044e+000	 1.045293370910748e+000	-1.638554798905134e+001
1	 9.885032955176586e-001	 1.056273044726295e+000	-1.688555409057708e+001
1	 9.767815607586423e-001	 1.067121946199183e+000	-1.737785616858567e+001
1	 9.649436644869790e-001	 1.077838175406501e+000	-1.786269718085131e+001
1	 1.082805411944507e+000	 9.693906246499160e-001	-1.256533680052288e+001
1	 1.072039796803032e+000	 9.812830760784168e-001	-1.312122515609078e+001
1	 1.061140897973439e+000	 9.930588306619105e-001	-1.366767943060635e+001
1	 1.050110624134479e+000	 1.004715659220315e+000	-1.420497064931758e+001
1	 1.038950933438136e+000	 1.016251374462636e+000	-1.473336883997615e+001
1	 1.027663832353006e+000	 1.027663832353006e+000	-1.525314294703026e+001
1	 1.016251374462637e+000	 1.038950933438136e+000	-1.576456075219740e+001
1	 1.004715659220314e+000	 1.050110624134479e+000	-1.626788880141405e+001
1	 9.930588306619106e-001	 1.061140897973439e+000	-1.676339233814445e+001
1	 9.812830760784168e-001	 1.072039796803032e+000	-1.725133524300992e+001
1	 9.693906246499159e-001	 1.082805411944507e+000	-1.773197997967596e+001
1	 1.087772648482614e+000	 9.738375848122531e-001	-1.247583144870733e+001
1	 1.076957647406907e+000	 9.857845913976362e-001	-1.302670300250640e+001
1	 1.066008751220533e+000	 9.976143658056642e-001	-1.356813735911216e+001
1	 1.054927877358083e+000	 1.009324668630150e+000	-1.410042652253394e+001
1	 1.043716992954331e+000	 1.020913302546162e+000	-1.462386143145813e+001
1	 1.032378113682318e+000	 1.032378113682317e+000	-1.513873184201292e+001
1	 1.020913302546162e+000	 1.043716992954331e+000	-1.564532621705577e+001
1	 1.009324668630150e+000	 1.054927877358083e+000	-1.614393162204821e+001
1	 9.976143658056641e-001	 1.066008751220533e+000	-1.663483362756144e+001
1	 9.857845913976369e-001	 1.076957647406908e+000	-1.711831621843582e+001
1	 9.738375848122530e-001	 1.087772648482613e+000	-1.759466170959800e+001
1	 1.092739885020771e+000	 9.782845449738733e-001	-1.238063009207002e+001
1	 1.081875498010749e+000	 9.902861067161902e-001	-1.292640836686111e+001
1	 1.070876604467505e+000	 1.002169900948811e+000	-1.346274195912773e+001
1	 1.059745130581474e+000	 1.013933678039448e+000	-1.398994415140060e+001
1	 1.048483052470228e+000	 1.025575230629225e+000	-1.450832710115116e+001
1	 1.037092395011246e+000	 1.037092395011246e+000	-1.501820169141267e+001
1	 1.025575230629225e+000	 1.048483052470228e+000	-1.551987738805716e+001
1	 1.013933678039448e+000	 1.059745130581474e+000	-1.601366210385590e+001
1	 1.002169900948811e+000	 1.070876604467505e+000	-1.649986206943384e+001
1	 9.902861067161898e-001	 1.081875498010748e+000	-1.697878171120457e+001
1	 9.782845449738733e-001	 1.092739885020771e+000	-1.745072353635336e+001
1	 9.338149433394248e-001	 1.043067519647452e+000	-1.859454507871283e+001
1	 9.222469622288808e-001	 1.053309391610658e+000	-1.909055981469063e+001
1	 9.105709460888766e-001	 1.063419302305526e+000	-1.956481131850293e+001
1	 8.987891569760318e-001	 1.073395562509123e+000	-2.001836160283630e+001
1	 8.869038916952824e-001	 1.083236534698992e+000	-2.045228766040448e+001
1	 8.749174803231293e-001	 1.092940633930648e+000	-2.086768019765577e+001
1	 8.628322847048777e-001	 1.102506328664550e+000	-2.126564235642787e+001
1	 8.506506969278835e-001	 1.111932141541688e+000	-2.164728842597517e+001
1	 8.383751377728452e-001	 1.121216650107010e+000	-2.201374254780115e+001
1	 8.260080551452174e-001	 1.130358487479987e+000	-2.236613741572774e+001
1	 8.135519224888317e-001	 1.139356342971731e+000	-2.270561297362569e+001
1	 9.382619035032931e-001	 1.048034756183361e+000	-1.850947764992336e+001
1	 9.266388340144641e-001	 1.058325401403822e+000	-1.900221798516490e+001
1	 9.149072150178818e-001	 1.068483456937606e+000	-1.947349940178432e+001
1	 9.030693193424028e-001	 1.078507225517445e+000	-1.992438915687531e+001
1	 8.911274547306765e-001	 1.088395061822759e+000	-2.035596976210440e+001
1	 8.790839623553599e-001	 1.098145373361320e+000	-2.076933770575651e+001
1	 8.669412153092042e-001	 1.107756621300166e+000	-2.116560216218035e+001
1	 8.547016170710254e-001	 1.117227321244882e+000	-2.154588369108789e+001
1	 8.423675999496273e-001	 1.126556043966473e+000	-2.191131292917056e+001
1	 8.299416235077390e-001	 1.135741416075119e+000	-2.226302927649570e+001
1	 8.174261729680850e-001	 1.144782120640234e+000	-2.260217958013890e+001
1	 9.427088636673786e-001	 1.053001992719719e+000	-1.841795122907586e+001
1	 9.310307058002686e-001	 1.063341411197388e+000	-1.890732524494380e+001
1	 9.192434839471291e-001	 1.073547611570015e+000	-1.937554412981036e+001
1	 9.073494817090499e-001	 1.083618888526008e+000	-1.982367627204361e+001
1	 8.953510177663914e-001	 1.093553588946664e+000	-2.025280546222376e+001
1	 8.832504443879650e-001	 1.103350112792018e+000	-2.066402961156246e+001
1	 8.710501459139629e-001	 1.113006913935690e+000	-2.105845945736454e+001
1	 8.587525372146621e-001	 1.122522500947869e+000	-2.143721725799267e+001
1	 8.463600621269652e-001	 1.131895437825615e+000	-2.180143547981407e+001
1	 8.338751918708751e-001	 1.141124344669825e+000	-2.215225547860070e+001
1	 8.213004234480067e-001	 1.150207898308220e+000	-2.249082617785651e+001
1	 9.471558238315647e-001	 1.057969229256477e+000	-1.831994436173204e+001
1	 9.354225775861725e-001	 1.068357420991321e+000	-1.880585780692477e+001
1	 9.235797528764902e-001	 1.078611766202740e+000	-1.927091801428292e+001
1	 9.116296440758384e-001	 1.088730551534819e+000	-1.971619044808797e+001
1	 8.995745808022859e-001	 1.098712116070736e+000	-2.014275599677933e+001
1	 8.874169264207962e-001	 1.108554852222792e+000	-2.055170969572338e+001
1	 8.751590765190013e-001	 1.118257206571198e+000	-2.094415943684859e+001
1	 8.628034573586336e-001	 1.127817680650742e+000	-2.132122466760804e+001
1	 8.503525243046958e-001	 1.137234831684552e+000	-2.168403508173196e+001
1	 8.378087602344598e-001	 1.146507273264239e+000	-2.203372930424397e+001
1	 8.251746739284291e-001	 1.155633675975835e+000	-2.237145357320351e+001
1	 9.516027839957345e-001	 1.062936465793583e+000	-1.821543599449028e+001
1	 9.398144493720535e-001	 1.073373430785587e+000	-1.869779232864511e+001
1	 9.279160218058367e-001	 1.083675920835766e+000	-1.915959408072881e+001
1	 9.159098064426330e-001	 1.093842214543882e+000	-1.960189979226585e+001
1	 9.037981438382182e-001	 1.103870643195002e+000	-2.002578332638403e+001
1	 8.915834084537055e-001	 1.113759591653694e+000	-2.043233260284389e+001
1	 8.792680071241643e-001	 1.123507499206761e+000	-2.082264831994624e+001
1	 8.668543775027814e-001	 1.133112860353597e+000	-2.119784266575462e+001
1	 8.543449864826556e-001	 1.142574225543397e+000	-2.155903802106887e+001
1	 8.417423285983280e-001	 1.151890201858494e+000	-2.190736565659960e+001
1	 8.290489244091865e-001	 1.161059453643234e+000	-2.224396442678155e+001
1	 9.560497441597713e-001	 1.067903702330989e+000	-1.810440546565871e+001
1	 9.442063211577898e-001	 1.078389440580155e+000	-1.858310590194138e+001
1	 9.322522907350391e-001	 1.088740075469078e+000	-1.904154585654955e+001
1	 9.201899688092993e-001	 1.098953877553206e+000	-1.948077300521675e+001
1	 9.080217068740473e-001	 1.109029170319491e+000	-1.990185011939436e+001
1	 8.957498904865454e-001	 1.118964331084774e+000	-2.030585382139104e+001
1	 8.833769377292984e-001	 1.128757791842452e+000	-2.069387332659055e+001
1	 8.709052976469461e-001	 1.138408040056528e+000	-2.106700917513220e+001
1	 8.583374486606820e-001	 1.147913619402268e+000	-2.142637195545662e+001
1	 8.456758969623133e-001	 1.157273130452726e+000	-2.177308102211617e+001
1	 8.329231748901119e-001	 1.166485231310565e+000	-2.210826321024704e+001
1	 9.604967043235583e-001	 1.072870938868645e+000	-1.798683249618739e+001
1	 9.485981929432580e-001	 1.083405450374991e+000	-1.846177604289523e+001
1	 9.365885596639709e-001	 1.093804230102663e+000	-1.891674735940318e+001
1	 9.244701311757015e-001	 1.104065540562796e+000	-1.935277936722602e+001
1	 9.122452699096307e-001	 1.114187697444231e+000	-1.977091973552663e+001
1	 8.999163725191670e-001	 1.124169070516083e+000	-2.017222966416001e+001
1	 8.874858683342496e-001	 1.134008084478345e+000	-2.055778265417098e+001
1	 8.749562177909694e-001	 1.143703219759631e+000	-2.092866326807646e+001
1	 8.623299108386117e-001	 1.153253013261278e+000	-2.128596588226631e+001
1	 8.496094653262503e-001	 1.162656059047067e+000	-2.163079343386469e+001
1	 8.367974253710389e-001	 1.171911008977979e+000	-2.196425616438640e+001
1	 9.649436644869790e-001	 1.077838175406501e+000	-1.786269718085131e+001
1	 9.529900647283366e-001	 1.088421460170060e+000	-1.833378068205818e+001
1	 9.409248285925023e-001	 1.098868384736506e+000	-1.878517308590790e+001
1	 9.287502935417051e-001	 1.109177203572658e+000	-1.921788872486789e+001
1	 9.164688329448273e-001	 1.119346224569249e+000	-1.963295620992748e+001
1	 9.040828545514228e-001	 1.129373809947671e+000	-2.003141724927841e+001
1	 8.915947989388634e-001	 1.139258377114511e+000	-2.041432545501012e+001
1	 8.790071379346903e-001	 1.148998399462999e+000	-2.078274514006818e+001
1	 8.663223730162815e-001	 1.158592407120544e+000	-2.113775010773690e+001
1	 8.535430336899729e-001	 1.168038987641652e+000	-2.148042243590191e+001
1	 8.406716758518007e-001	 1.177336786645626e+000	-2.181185125835050e+001
1	 9.693906246499159e-001	 1.082805411944507e+000	-1.773197997967596e+001
1	 9.573819365129036e-001	 1.093437469965330e+000	-1.819909815494490e+001
1	 9.452610975205054e-001	 1.103932539370591e+000	-1.864679800065629e+001
1	 9.330304559071753e-001	 1.114288866582798e+000	-1.907607147801695e+001
1	 9.206923959794955e-001	 1.124504751694574e+000	-1.948792423767975e+001
1	 9.082493365831647e-001	 1.134578549379588e+000	-1.988337448173569e+001
1	 8.957037295429865e-001	 1.144508669751025e+000	-2.026345181446055e+001
1	 8.830580580779516e-001	 1.154293579166728e+000	-2.062919608397216e+001
1	 8.703148351935284e-001	 1.163931800980180e+000	-2.098165621695403e+001
1	 8.574766020533160e-001	 1.173421916236616e+000	-2.132188904861135e+001
1	 8.445459263322307e-001	 1.182762564313656e+000	-2.165095815001180e+001
1	 9.738375848122530e-001	 1.087772648482613e+000	-1.759466170959799e+001
1	 9.617738082968365e-001	 1.098453479760768e+000	-1.805770719278672e+001
1	 9.495973664478518e-001	 1.108996694004906e+000	-1.850159752552979e+001
1	 9.373106182719767e-001	 1.119400529593222e+000	-1.892729856721542e+001
1	 9.249159590134939e-001	 1.129663278820234e+000	-1.933578915873689e+001
1	 9.124158186142443e-001	 1.139783288811884e+000	-1.972806003541629e+001
1	 8.998126601464644e-001	 1.149758962387959e+000	-2.010511272960190e+001
1	 8.871089782205931e-001	 1.159588758870912e+000	-2.046795846498101e+001
1	 8.743072973701890e-001	 1.169271194840301e+000	-2.081761704465122e+001
1	 8.614101704161131e-001	 1.178804844832091e+000	-2.115511573499651e+001
1	 8.484201768121625e-001	 1.188188341982220e+000	-2.148148814740747e+001
1	 9.782845449738733e-001	 1.092739885020771e+000	-1.745072353635337e+001
1	 9.661656800800127e-001	 1.103469489556340e+000	-1.790958691353838e+001
1	 9.539336353744131e-001	 1.114060848639436e+000	-1.834954752930619e+001
1	 9.415907806359750e-001	 1.124512192603938e+000	-1.877154146138374e+001
1	 9.291395220466797e-001	 1.134821805946257e+000	-1.917651694326417e+001
1	 9.165823006445141e-001	 1.144988028244612e+000	-1.956543333562512e+001
1	 9.039215907491438e-001	 1.155009255025385e+000	-1.993926008851893e+001
1	 8.911598983624566e-001	 1.164883938575646e+000	-2.029897569624396e+001
1	 8.782997595461003e-001	 1.174610588701024e+000	-2.064556664680755e+001
1	 8.653437387781996e-001	 1.184187773428212e+000	-2.098002636789308e+001
1	 8.522944272914295e-001	 1.193614119651469e+000	-2.130335417123354e+001
1	 8.135519224888317e-001	 1.139356342971731e+000	-2.270561297362569e+001
1	 8.010092369127815e-001	 1.148208962324598e+000	-2.302939603265333e+001
1	 7.883825167800594e-001	 1.156915147242333e+000	-2.333363667744088e+001
1	 7.756743009248837e-001	 1.165473756802219e+000	-2.361784075253394e+001
1	 7.628871472931256e-001	 1.173883708178447e+000	-2.388148430602967e+001
1	 7.500236313001479e-001	 1.182143976989039e+000	-2.412401582097819e+001
1	 7.370863441835159e-001	 1.190253597587755e+000	-2.434485848322279e+001
1	 7.240778913527087e-001	 1.198211663301045e+000	-2.454341248008170e+001
1	 7.110008907379337e-001	 1.206017326610182e+000	-2.471905732425832e+001
1	 6.978579711401304e-001	 1.213669799278833e+000	-2.487115419736781e+001
1	 6.846517705842252e-001	 1.221168352426390e+000	-2.499904830748020e+001
1	 8.174261729680850e-001	 1.144782120640234e+000	-2.260217958013890e+001
1	 8.048237573313514e-001	 1.153676897431212e+000	-2.292578388464790e+001
1	 7.921369069533464e-001	 1.162424542445345e+000	-2.322986868049534e+001
1	 7.793681727585916e-001	 1.171023909326686e+000	-2.351407256920943e+001
1	 7.665201248742765e-001	 1.179473910092858e+000	-2.377800544730072e+001
1	 7.535953509802706e-001	 1.187773515483636e+000	-2.402125050846432e+001
1	 7.405964546539967e-001	 1.195921755254242e+000	-2.424336628251188e+001
1	 7.275260537122790e-001	 1.203917718413423e+000	-2.444388870590502e+001
1	 7.143867785522949e-001	 1.211760553406453e+000	-2.462233321874388e+001
1	 7.011812704937224e-001	 1.219449468243310e+000	-2.477819688304965e+001
1	 6.879121801241522e-001	 1.226983730572359e+000	-2.491096051719066e+001
1	 8.213004234480067e-001	 1.150207898308220e+000	-2.249082617785651e+001
1	 8.086382777506354e-001	 1.159144832537233e+000	-2.281396753434725e+001
1	 7.958912971273850e-001	 1.167933937647703e+000	-2.311759620192910e+001
1	 7.830620445930799e-001	 1.176574061850452e+000	-2.340148946222796e+001
1	 7.701531024562266e-001	 1.185064112006538e+000	-2.366539721682869e+001
1	 7.571670706612037e-001	 1.193403053977485e+000	-2.390904374583291e+001
1	 7.441065651252894e-001	 1.201589912919977e+000	-2.413212950316753e+001
1	 7.309742160726525e-001	 1.209623773525056e+000	-2.433433294402799e+001
1	 7.177726663674400e-001	 1.217503780201996e+000	-2.451531237979965e+001
1	 7.045045698480690e-001	 1.225229137207087e+000	-2.467470785578950e+001
1	 6.911725896647931e-001	 1.232799108717664e+000	-2.481214304710027e+001
1	 8.251746739284291e-001	 1.155633675975835e+000	-2.237145357320351e+001
1	 8.124527981704675e-001	 1.164612767642822e+000	-2.269383618198863e+001
1	 7.996456873020114e-001	 1.173443332849581e+000	-2.299669934966444e+001
1	 7.867559164281894e-001	 1.182124214373700e+000	-2.327996487310350e+001
1	 7.737860800388232e-001	 1.190654313919673e+000	-2.354352872570752e+001
1	 7.607387903427997e-001	 1.199032592470775e+000	-2.378726255797528e+001
1	 7.476166755972523e-001	 1.207258070585149e+000	-2.401101523458393e+001
1	 7.344223784336936e-001	 1.215329828636131e+000	-2.421461440389618e+001
1	 7.211585541832408e-001	 1.223247006996993e+000	-2.439786809578060e+001
1	 7.078278692030474e-001	 1.231008806170338e+000	-2.456056634359615e+001
1	 6.944329992060320e-001	 1.238614486862471e+000	-2.470248282618153e+001
1	 8.290489244091865e-001	 1.161059453643234e+000	-2.224396442678155e+001
1	 8.162673185906820e-001	 1.170080702748144e+000	-2.256528109893422e+001
1	 8.034000774770631e-001	 1.178952728051152e+000	-2.286706047270736e+001
1	 7.904497882637616e-001	 1.187674366896613e+000	-2.314937460904536e+001
1	 7.774190576219128e-001	 1.196244515832452e+000	-2.341227153167163e+001
1	 7.643105100249108e-001	 1.204662130963697e+000	-2.365577645542238e+001
1	 7.511267860697443e-001	 1.212926228249947e+000	-2.387989305058856e+001
1	 7.378705407952680e-001	 1.221035883746832e+000	-2.408460473975844e+001
1	 7.245444419995694e-001	 1.228990233791626e+000	-2.426987602360137e+001
1	 7.111511685585371e-001	 1.236788475133239e+000	-2.443565383200961e+001
1	 6.976934087477518e-001	 1.244429865006946e+000	-2.458186889698817e+001
1	 8.329231748901119e-001	 1.166485231310565e+000	-2.210826321024704e+001
1	 8.200818390111133e-001	 1.175548637853362e+000	-2.242819557950503e+001
1	 8.071544676523778e-001	 1.184462123252591e+000	-2.272856410902701e+001
1	 7.941436600996371e-001	 1.193224519419372e+000	-2.300959678794038e+001
1	 7.810520352053411e-001	 1.201834717745062e+000	-2.327149958219830e+001
1	 7.678822297073895e-001	 1.210291669456439e+000	-2.351445737653422e+001
1	 7.546368965426239e-001	 1.218594385914559e+000	-2.373863495166116e+001
1	 7.413187031572424e-001	 1.226741938857349e+000	-2.394417799380943e+001
1	 7.279303298162979e-001	 1.234733460586078e+000	-2.413121413364863e+001
1	 7.144744679144153e-001	 1.242568144095964e+000	-2.429985401159784e+001
1	 7.009538182898363e-001	 1.250245243151254e+000	-2.445019236649973e+001
1	 8.367974253710389e-001	 1.171911008977979e+000	-2.196425616438640e+001
1	 8.238963594315963e-001	 1.181016572958641e+000	-2.228247489414940e+001
1	 8.109088578277918e-001	 1.189971518454072e+000	-2.258109693488352e+001
1	 7.978375319356579e-001	 1.198774671942160e+000	-2.286051178486202e+001
1	 7.846850127889553e-001	 1.207424919657691e+000	-2.312108915918399e+001
1	 7.714539493900886e-001	 1.215921207949192e+000	-2.336317963130009e+001
1	 7.581470070157512e-001	 1.224262543579179e+000	-2.358711530875945e+001
1	 7.447668655194814e-001	 1.232447993967869e+000	-2.379321054090979e+001
1	 7.313162176332976e-001	 1.240476687380530e+000	-2.398176265622822e+001
1	 7.177977672705600e-001	 1.248347813058690e+000	-2.415305272691355e+001
1	 7.042142278321688e-001	 1.256060621295562e+000	-2.430734635833094e+001
1	 8.406716758518007e-001	 1.177336786645626e+000	-2.181185125835050e+001
1	 8.277108798519649e-001	 1.186484508064144e+000	-2.212801624390853e+001
1	 8.146632480031427e-001	 1.195480913655770e+000	-2.242454771555516e+001
1	 8.015314037716642e-001	 1.204324824465157e+000	-2.270200218005911e+001
1	 7.883179903726010e-001	 1.213015121570523e+000	-2.296091882515481e+001
1	 7.750256690728599e-001	 1.221550746442145e+000	-2.320181984668825e+001
1	 7.616571174889841e-001	 1.229930701243992e+000	-2.342521080869663e+001
1	 7.482150278818498e-001	 1.238154049078578e+000	-2.363158103483543e+001
1	 7.347021054504418e-001	 1.246219914175166e+000	-2.382140402948906e+001
1	 7.211210666268496e-001	 1.254127482021592e+000	-2.399513792685871e+001
1	 7.074746373746335e-001	 1.261875999440038e+000	-2.415322596626448e+001
1	 8.445459263322307e-001	 1.182762564313656e+000	-2.165095815001180e+001
1	 8.315254002720534e-001	 1.191952443170034e+000	-2.196471871613501e+001
1	 8.184176381782676e-001	 1.200990308857859e+000	-2.225880725742421e+001
1	 8.052252756074980e-001	 1.209874976988547e+000	-2.253395270837594e+001
1	 7.919509679561250e-001	 1.218605323483748e+000	-2.279086937095632e+001
1	 7.785973887555560e-001	 1.227180284935487e+000	-2.303025691350251e+001
1	 7.651672279621811e-001	 1.235598858909190e+000	-2.325280040102335e+001
1	 7.516631902442146e-001	 1.243860104189664e+000	-2.345917035600711e+001
1	 7.380879932676014e-001	 1.251963140970167e+000	-2.365002284878369e+001
1	 7.244443659831625e-001	 1.259907150984843e+000	-2.382599961641851e+001
1	 7.107350469171134e-001	 1.267691377584844e+000	-2.398772820906063e+001
1	 8.484201768121625e-001	 1.188188341982220e+000	-2.148148814740747e+001
1	 8.353399206916966e-001	 1.197420378276476e+000	-2.179248324142376e+001
1	 8.221720283530033e-001	 1.206499704060513e+000	-2.208376836137338e+001
1	 8.089191474430003e-001	 1.215425129512512e+000	-2.235625021005913e+001
1	 7.955839455393743e-001	 1.224195525397553e+000	-2.261082376487484e+001
1	 7.821691084380293e-001	 1.232809823429408e+000	-2.284837193469430e+001
1	 7.686773384352019e-001	 1.241267016574962e+000	-2.306976524636396e+001
1	 7.551113526064400e-001	 1.249566159301312e+000	-2.327586156065039e+001
1	 7.414738810846488e-001	 1.257706367765715e+000	-2.346750581741354e+001
1	 7.277676653393762e-001	 1.265686819948620e+000	-2.364552980971677e+001
1	 7.139954564594923e-001	 1.273506755730149e+000	-2.381075198650606e+001
1	 8.522944272914295e-001	 1.193614119651469e+000	-2.130335417123354e+001
1	 8.391544411107291e-001	 1.202888313383635e+000	-2.161121255171899e+001
1	 8.259264185271869e-001	 1.212009099263907e+000	-2.189932577745440e+001
1	 8.126130192780124e-001	 1.220975282037234e+000	-2.216878358290441e+001
1	 7.992169231221942e-001	 1.229785727312124e+000	-2.242066710314980e+001
1	 7.857408281201320e-001	 1.238439361924098e+000	-2.265604817508355e+001
1	 7.721874489079046e-001	 1.246935174241497e+000	-2.287598866616398e+001
1	 7.585595149683921e-001	 1.255272214413711e+000	-2.308153983134446e+001
1	 7.448597689014560e-001	 1.263449594561992e+000	-2.327374169871969e+001
1	 7.310909646953698e-001	 1.271466488913099e+000	-2.345362248435167e+001
1	 7.172558660016536e-001	 1.279322133876119e+000	-2.362219803666160e+001
1	 6.846517705842252e-001	 1.221168352426390e+000	-2.499904830748020e+001
1	 6.713869291419162e-001	 1.228511226796755e+000	-2.512132304989331e+001
1	 6.580641216346844e-001	 1.235698949612701e+000	-2.525569595927994e+001
1	 6.446860034548100e-001	 1.242730971201640e+000	-2.540014688083001e+001
1	 6.312552326740415e-001	 1.249606800976566e+000	-2.555265228997090e+001
1	 6.177744684438016e-001	 1.256326007244957e+000	-2.571118773753399e+001
1	 6.042463694103604e-001	 1.262888216967242e+000	-2.587373026691495e+001
1	 5.906735921467679e-001	 1.269293115465707e+000	-2.603826079911210e+001
1	 5.770587896032855e-001	 1.275540446084816e+000	-2.620276648166096e+001
1	 5.634046095780015e-001	 1.281630009803991e+000	-2.636524299763457e+001
1	 5.497136932092552e-001	 1.287561664803915e+000	-2.652369683103115e+001
1	 6.879121801241522e-001	 1.226983730572359e+000	-2.491096051719066e+001
1	 6.745841696119737e-001	 1.234361572759676e+000	-2.503938414012911e+001
1	 6.611979169922529e-001	 1.241583524538735e+000	-2.518123157333530e+001
1	 6.477560903026101e-001	 1.248649033619314e+000	-2.533441859836777e+001
1	 6.342613602728952e-001	 1.255557607078149e+000	-2.549685591309103e+001
1	 6.207163987177733e-001	 1.262308811166927e+000	-2.566645172475473e+001
1	 6.071238769443510e-001	 1.268902271069594e+000	-2.584111431547656e+001
1	 5.934864641766425e-001	 1.275337670609884e+000	-2.601875457569654e+001
1	 5.798068259986223e-001	 1.281614751910021e+000	-2.619728850131514e+001
1	 5.660876228175538e-001	 1.287733315001646e+000	-2.637463965038234e+001
1	 5.523315083492395e-001	 1.293693217390069e+000	-2.654874155536710e+001
1	 6.911725896647931e-001	 1.232799108717664e+000	-2.481214304710027e+001
1	 6.777814100826947e-001	 1.240211918721977e+000	-2.494654759143139e+001
1	 6.643317123504249e-001	 1.247468099464197e+000	-2.509571950063006e+001
1	 6.508261771509482e-001	 1.254567096036469e+000	-2.525751019634797e+001
1	 6.372674878722168e-001	 1.261508413179268e+000	-2.542976419376749e+001
1	 6.236583289921400e-001	 1.268291615088482e+000	-2.561032184579134e+001
1	 6.100013844786650e-001	 1.274916325171581e+000	-2.579702206017582e+001
1	 5.962993362067712e-001	 1.281382225753736e+000	-2.598770498485552e+001
1	 5.825548623941472e-001	 1.287689057734931e+000	-2.618021465685485e+001
1	 5.687706360572362e-001	 1.293836620199028e+000	-2.637240161034199e+001
1	 5.549493234893047e-001	 1.299824769975957e+000	-2.656212543954989e+001
1	 6.944329992060320e-001	 1.238614486862471e+000	-2.470248282618153e+001
1	 6.809786505539669e-001	 1.246062264683812e+000	-2.484270839737510e+001
1	 6.674655077090929e-001	 1.253352674389232e+000	-2.499906184170908e+001
1	 6.538962639997187e-001	 1.260485158453236e+000	-2.516932993565692e+001
1	 6.402736154719031e-001	 1.267459219280037e+000	-2.535129061839760e+001
1	 6.266002592668025e-001	 1.274274419009730e+000	-2.554271589029102e+001
1	 6.128788920132045e-001	 1.280930379273291e+000	-2.574137468497120e+001
1	 5.991122082370584e-001	 1.287426780897344e+000	-2.594503570997517e+001
1	 5.853028987897692e-001	 1.293763363559621e+000	-2.615147025097490e+001
1	 5.714536492969611e-001	 1.299939925396203e+000	-2.635845493484942e+001
1	 5.575671386293674e-001	 1.305956322561644e+000	-2.656377444700867e+001
1	 6.976934087477518e-001	 1.244429865006946e+000	-2.458186889698817e+001
1	 6.841758910256786e-001	 1.251912610645338e+000	-2.472776351436848e+001
1	 6.705993030681478e-001	 1.259237249313980e+000	-2.489116252710233e+001
1	 6.569663508488168e-001	 1.266403220869743e+000	-2.506978779201388e+001
1	 6.432797430718523e-001	 1.273410025380575e+000	-2.526135029053386e+001
1	 6.295421895416602e-001	 1.280257222930769e+000	-2.546355318461857e+001
1	 6.157563995478725e-001	 1.286944433374819e+000	-2.567409484709149e+001
1	 6.019250802674104e-001	 1.293471336040790e+000	-2.589067186099072e+001
1	 5.880509351853972e-001	 1.299837669384164e+000	-2.611098198264848e+001
1	 5.741366625366411e-001	 1.306043230593243e+000	-2.633272706341338e+001
1	 5.601849537693447e-001	 1.312087875147197e+000	-2.655361592510113e+001
1	 7.009538182898363e-001	 1.250245243151254e+000	-2.445019236649973e+001
1	 6.873731314977174e-001	 1.257762956606708e+000	-2.460161181600363e+001
1	 6.737330984274820e-001	 1.265121824238586e+000	-2.477192727476660e+001
1	 6.600364376981373e-001	 1.272321283286121e+000	-2.495879541609051e+001
1	 6.462858706719616e-001	 1.279360831480996e+000	-2.515985989327472e+001
1	 6.324841198166136e-001	 1.286240026851705e+000	-2.537275455611517e+001
1	 6.186339070825723e-001	 1.292958487476257e+000	-2.559510664276856e+001
1	 6.047379522977322e-001	 1.299515891184154e+000	-2.582453994120739e+001
1	 5.907989715809392e-001	 1.305911975208633e+000	-2.605867791465594e+001
1	 5.768196757761884e-001	 1.312146535790214e+000	-2.629514678557144e+001
1	 5.628027689091538e-001	 1.318219427732684e+000	-2.653157857292721e+001
1	 7.042142278321688e-001	 1.256060621295562e+000	-2.430734635833094e+001
1	 6.905703719699718e-001	 1.263613302568079e+000	-2.446415404867500e+001
1	 6.768668937869867e-001	 1.271006399163192e+000	-2.464126354870690e+001
1	 6.631065245475751e-001	 1.278239345702499e+000	-2.483626609473634e+001
1	 6.492919982721289e-001	 1.285311637581418e+000	-2.504673765269839e+001
1	 6.354260500915626e-001	 1.292222830772642e+000	-2.527024229835434e+001
1	 6.215114146172055e-001	 1.298972541577693e+000	-2.550433557392849e+001
1	 6.075508243279292e-001	 1.305560446327517e+000	-2.574656781504671e+001
1	 5.935470079763043e-001	 1.311986281033102e+000	-2.599448744201227e+001
1	 5.795026890155153e-001	 1.318249840987185e+000	-2.624564420963614e+001
1	 5.654205840487115e-001	 1.324350980318171e+000	-2.649759241003830e+001
1	 7.074746373746335e-001	 1.261875999440038e+000	-2.415322596626448e+001
1	 6.937676124423302e-001	 1.269463648529605e+000	-2.431529278842547e+001
1	 6.800006891465539e-001	 1.276890974087941e+000	-2.449908051874345e+001
1	 6.661766113970249e-001	 1.284157408119007e+000	-2.470211471327709e+001
1	 6.522981258722511e-001	 1.291262443681955e+000	-2.492190330230946e+001
1	 6.383679803664075e-001	 1.298205634693681e+000	-2.515594013735455e+001
1	 6.243889221516753e-001	 1.304986595679221e+000	-2.540170851579968e+001
1	 6.103636963579070e-001	 1.311605001470963e+000	-2.565668467668175e+001
1	 5.962950443714009e-001	 1.318060586857646e+000	-2.591834126126851e+001
1	 5.821857022545347e-001	 1.324353146184225e+000	-2.618415073230865e+001
1	 5.680383991879352e-001	 1.330482532903724e+000	-2.645158874600942e+001
1	 7.107350469171134e-001	 1.267691377584844e+000	-2.398772820906063e+001
1	 6.969648529146796e-001	 1.275313994491440e+000	-2.415493239897950e+001
1	 6.831344845060754e-001	 1.282775549012977e+000	-2.434528902138595e+001
1	 6.692466982463814e-001	 1.290075470535772e+000	-2.455625771885080e+001
1	 6.553042534722271e-001	 1.297213249782725e+000	-2.478527804846243e+001
1	 6.413099106410484e-001	 1.304188438614928e+000	-2.502977319872327e+001
1	 6.272664296858843e-001	 1.311000649780932e+000	-2.528715368541322e+001
1	 6.131765683875708e-001	 1.317649556614571e+000	-2.555482101953703e+001
1	 5.990430807661377e-001	 1.324134892682336e+000	-2.583017134066026e+001
1	 5.848687154931586e-001	 1.330456451381401e+000	-2.611059900912586e+001
1	 5.706562143267417e-001	 1.336614085489412e+000	-2.639350015085110e+001
1	 7.139954564594923e-001	 1.273506755730149e+000	-2.381075198650606e+001
1	 7.001620933869085e-001	 1.281164340453741e+000	-2.398297899092681e+001
1	 6.862682798654428e-001	 1.288660123938439e+000	-2.417980152177832e+001
1	 6.723167850955396e-001	 1.295993532952928e+000	-2.439861308474830e+001
1	 6.583103810719532e-001	 1.303164055883844e+000	-2.463678453673441e+001
1	 6.442518409153852e-001	 1.310171242536484e+000	-2.489166797570303e+001
1	 6.301439372197351e-001	 1.317014703882919e+000	-2.516060061096711e+001
1	 6.159894404168262e-001	 1.323694111758423e+000	-2.544090860662353e+001
1	 6.017911171604232e-001	 1.330209198507246e+000	-2.572991089107059e+001
1	 5.875517287312996e-001	 1.336559756578783e+000	-2.602492292571899e+001
1	 5.732740294650478e-001	 1.342745638075299e+000	-2.632326042623060e+001
1	 7.172558660016536e-001	 1.279322133876119e+000	-2.362219803666160e+001
1	 7.033593338589055e-001	 1.287014686416663e+000	-2.379934038201945e+001
1	 6.894020752245480e-001	 1.294544698864472e+000	-2.400253207668421e+001
1	 6.753868719443947e-001	 1.301911595370602e+000	-2.422910027572539e+001
1	 6.613165086713274e-001	 1.309114861985427e+000	-2.447634681921284e+001
1	 6.471937711893183e-001	 1.316154046458454e+000	-2.474155229808537e+001
1	 6.330214447531305e-001	 1.323028757985271e+000	-2.502198010202528e+001
1	 6.188023124455789e-001	 1.329738666902602e+000	-2.531488044168419e+001
1	 6.045391535541663e-001	 1.336283504332451e+000	-2.561749433778855e+001
1	 5.902347419688699e-001	 1.342663061776438e+000	-2.592705756985613e+001
1	 5.758918446027709e-001	 1.348877190661454e+000	-2.624080457747811e+001
1	 5.497136932092552e-001	 1.287561664803915e+000	-2.652369683103114e+001
1	 5.359866122174862e-001	 1.293336180436153e+000	-2.668763648836356e+001
1	 5.222280428764503e-001	 1.298952626945552e+000	-2.686781088594348e+001
1	 5.084405993483899e-001	 1.304411032097752e+000	-2.706419087577383e+001
1	 4.946268833159535e-001	 1.309711478716544e+000	-2.727677735691228e+001
1	 4.807894826047505e-001	 1.314854104034503e+000	-2.750559849159338e+001
1	 4.669309698362182e-001	 1.319839099004865e+000	-2.775070693193524e+001
1	 4.530539011119615e-001	 1.324666707576071e+000	-2.801217706345615e+001
1	 4.391608147306637e-001	 1.329337225930455e+000	-2.829010227142256e+001
1	 4.252542299385832e-001	 1.333851001688592e+000	-2.858459223585326e+001
1	 4.113366457145843e-001	 1.338208433080836e+000	-2.889577026076911e+001
1	 5.523315083492395e-001	 1.293693217390069e+000	-2.654874155536710e+001
1	 5.385390570367218e-001	 1.299495232090610e+000	-2.672926930757420e+001
1	 5.247149674228443e-001	 1.305138424920496e+000	-2.692709165974929e+001
1	 5.108618661188715e-001	 1.310622823777607e+000	-2.714204144584623e+001
1	 4.969823671970454e-001	 1.315948511880163e+000	-2.737397958721336e+001
1	 4.830790708065787e-001	 1.321115627114275e+000	-2.762279255342631e+001
1	 4.691545618201076e-001	 1.326124361342539e+000	-2.788838983234603e+001
1	 4.552114085117663e-001	 1.330974959675125e+000	-2.817070141517218e+001
1	 4.412521612679873e-001	 1.335667719704843e+000	-2.846967530207348e+001
1	 4.272793513320475e-001	 1.340202990707701e+000	-2.878527503379515e+001
1	 4.132954895833138e-001	 1.344581172810493e+000	-2.911747725443024e+001
1	 5.549493234893047e-001	 1.299824769975957e+000	-2.656212543954989e+001
1	 5.410915018559988e-001	 1.305654283744792e+000	-2.675921433625841e+001
1	 5.272018919692492e-001	 1.311324222895143e+000	-2.697464197704652e+001
1	 5.132831328893409e-001	 1.316834615457133e+000	-2.720810000128138e+001
1	 4.993378510781066e-001	 1.322185545043417e+000	-2.745930621484483e+001
1	 4.853686590083604e-001	 1.327377150193642e+000	-2.772800230193625e+001
1	 4.713781538039354e-001	 1.332409623679769e+000	-2.801395154454748e+001
1	 4.573689159114936e-001	 1.337283211773700e+000	-2.831693655491879e+001
1	 4.433435078052139e-001	 1.341998213478724e+000	-2.863675702611135e+001
1	 4.293044727253903e-001	 1.346554979726283e+000	-2.897322750566658e+001
1	 4.152543334518897e-001	 1.350953912539617e+000	-2.932617519711736e+001
1	 5.575671386293674e-001	 1.305956322561644e+000	-2.656377444700867e+001
1	 5.436439466752399e-001	 1.311813335398765e+000	-2.677739712553285e+001
1	 5.296888165155946e-001	 1.317510020869568e+000	-2.701038720748281e+001
1	 5.157043996597350e-001	 1.323046407136414e+000	-2.726229200572160e+001
1	 5.016933349590823e-001	 1.328422578206398e+000	-2.753268311695042e+001
1	 4.876582472100503e-001	 1.333638673272707e+000	-2.782115439070240e+001
1	 4.736017457876673e-001	 1.338694886016667e+000	-2.812731990426765e+001
1	 4.595264233111201e-001	 1.343591463871916e+000	-2.845081194838653e+001
1	 4.454348543423330e-001	 1.348328707252225e+000	-2.879127902839467e+001
1	 4.313295941186147e-001	 1.352906968744470e+000	-2.914838388534463e+001
1	 4.172131773203306e-001	 1.357326652268342e+000	-2.952180154145644e+001
1	 5.601849537693447e-001	 1.312087875147197e+000	-2.655361592510113e+001
1	 5.461963914943675e-001	 1.317972387052602e+000	-2.678374461815006e+001
1	 5.321757410618095e-001	 1.323695818843844e+000	-2.703425411573416e+001
1	 5.181256664299905e-001	 1.329258198815531e+000	-2.730454431608095e+001
1	 5.040488188399180e-001	 1.334659611369196e+000	-2.759403755621577e+001
1	 4.899478354116040e-001	 1.339900196351570e+000	-2.790217684433211e+001
1	 4.758253377712690e-001	 1.344980148353344e+000	-2.822842409616638e+001
1	 4.616839307106233e-001	 1.349899715969893e+000	-2.857225837973183e+001
1	 4.475262008793347e-001	 1.354659201025471e+000	-2.893317417263338e+001
1	 4.333547155117242e-001	 1.359258957762394e+000	-2.931067963604144e+001
1	 4.191720211886539e-001	 1.363699391996801e+000	-2.970429490924224e+001
1	 5.628027689091538e-001	 1.318219427732684e+000	-2.653157857292721e+001
1	 5.487488363133045e-001	 1.324131438706370e+000	-2.677818511613256e+001
1	 5.346626656078232e-001	 1.329881616818045e+000	-2.704617082906051e+001
1	 5.205469332000440e-001	 1.335469990494566e+000	-2.733478515014168e+001
1	 5.064043027205591e-001	 1.340896644531904e+000	-2.764329814864551e+001
1	 4.922374236129757e-001	 1.346161719430332e+000	-2.797099902657577e+001
1	 4.780489297547056e-001	 1.351265410689909e+000	-2.831719462246282e+001
1	 4.638414381099803e-001	 1.356207968067750e+000	-2.868120792090943e+001
1	 4.496175474162085e-001	 1.360989694798590e+000	-2.906237657164703e+001
1	 4.353798369047222e-001	 1.365610946780186e+000	-2.946005142171293e+001
1	 4.211308650568782e-001	 1.370072131725126e+000	-2.987359506424650e+001
1	 5.654205840487115e-001	 1.324350980318171e+000	-2.649759241003830e+001
1	 5.513012811319733e-001	 1.330290490360137e+000	-2.676064824930861e+001
1	 5.371495901535648e-001	 1.336067414792247e+000	-2.704606680576234e+001
1	 5.229681999698324e-001	 1.341681782173601e+000	-2.735294405505100e+001
1	 5.087597866009510e-001	 1.347133677694612e+000	-2.768039483223463e+001
1	 4.945270118141210e-001	 1.352423242509094e+000	-2.802755160932662e+001
1	 4.802725217379431e-001	 1.357550673026475e+000	-2.839356327243500e+001
1	 4.659989455091683e-001	 1.362516220165607e+000	-2.877759390186468e+001
1	 4.517088939529443e-001	 1.367320188571709e+000	-2.917882155844832e+001
1	 4.374049582976120e-001	 1.371962935797978e+000	-2.959643707926385e+001
1	 4.230897089250207e-001	 1.376444871453451e+000	-3.002964288578272e+001
1	 5.680383991879352e-001	 1.330482532903724e+000	-2.645158874600942e+001
1	 5.538537259502967e-001	 1.336449542013974e+000	-2.673106494471424e+001
1	 5.396365146989636e-001	 1.342253212766523e+000	-2.703387280451145e+001
1	 5.253894667392928e-001	 1.347893573852719e+000	-2.735895187668872e+001
1	 5.111152704810392e-001	 1.353370710857411e+000	-2.770525883650639e+001
1	 4.968166000149945e-001	 1.358684765587958e+000	-2.807176654247742e+001
1	 4.824961137209469e-001	 1.363835935363151e+000	-2.845746309276392e+001
1	 4.681564529081643e-001	 1.368824472263584e+000	-2.886135088154345e+001
1	 4.538002404895318e-001	 1.373650682344955e+000	-2.928244565812717e+001
1	 4.394300796903970e-001	 1.378314924815902e+000	-2.971977559151830e+001
1	 4.250485527931001e-001	 1.382817611181910e+000	-3.017238034300060e+001
1	 5.706562143267417e-001	 1.336614085489412e+000	-2.639350015085110e+001
1	 5.564061707681970e-001	 1.342608593667948e+000	-2.668936739684008e+001
1	 5.421234392439489e-001	 1.348439010740948e+000	-2.700952085452397e+001
1	 5.278107335083614e-001	 1.354105365531999e+000	-2.735274072987941e+001
1	 5.134707543607684e-001	 1.359607744020392e+000	-2.771782265288842e+001
1	 4.991061882155511e-001	 1.364946288667022e+000	-2.810357702460791e+001
1	 4.847197057036826e-001	 1.370121197700050e+000	-2.850882835869136e+001
1	 4.703139603069457e-001	 1.375132724361800e+000	-2.893241461970366e+001
1	 4.558915870259609e-001	 1.379981176118456e+000	-2.937318656050819e+001
1	 4.414552010830806e-001	 1.384666913834088e+000	-2.983000706093806e+001
1	 4.270073966611341e-001	 1.389190350910635e+000	-3.030175046988972e+001
1	 5.732740294650478e-001	 1.342745638075299e+000	-2.632326042623060e+001
1	 5.589586155855971e-001	 1.348767645322129e+000	-2.663548903869351e+001
1	 5.446103637884494e-001	 1.354624808715595e+000	-2.697294422655075e+001
1	 5.302320002769753e-001	 1.360317157211525e+000	-2.733424396941932e+001
1	 5.158262382400847e-001	 1.365844777183646e+000	-2.771802000590235e+001
1	 5.013957764157462e-001	 1.371207811746390e+000	-2.812291747447408e+001
1	 4.869432976861156e-001	 1.376406460037280e+000	-2.854759454597009e+001
1	 4.724714677054895e-001	 1.381440976460375e+000	-2.899072204949955e+001
1	 4.579829335622211e-001	 1.386311669892337e+000	-2.945098309355728e+001
1	 4.434803224756664e-001	 1.391018902852671e+000	-2.992707268405758e+001
1	 4.289662405291407e-001	 1.395563090639759e+000	-3.041769734096576e+001
1	 5.758918446027709e-001	 1.348877190661454e+000	-2.624080457747811e+001
1	 5.615110604024198e-001	 1.354926696976587e+000	-2.656936451364767e+001
1	 5.470972883323950e-001	 1.360810606690540e+000	-2.692407740465980e+001
1	 5.326532670450713e-001	 1.366528948891380e+000	-2.730339616189306e+001
1	 5.181817221189331e-001	 1.372081810347265e+000	-2.770578582513528e+001
1	 5.036853646155343e-001	 1.377469334826162e+000	-2.812972350327601e+001
1	 4.891668896682118e-001	 1.382691722374954e+000	-2.857369830357769e+001
1	 4.746289751037728e-001	 1.387749228559429e+000	-2.903621125081029e+001
1	 4.600742800983026e-001	 1.392642163666725e+000	-2.951577519751385e+001
1	 4.455054438681574e-001	 1.397370891871780e+000	-3.001091472661804e+001
1	 4.309250843971381e-001	 1.401935830369417e+000	-3.052016604762269e+001
1	 4.113366457145843e-001	 1.338208433080836e+000	-2.889577026076911e+001
1	 3.974105393917957e-001	 1.342409967753466e+000	-2.922170795691082e+001
1	 3.834783649380568e-001	 1.346456100879377e+000	-2.955844806844140e+001
1	 3.695425524810588e-001	 1.350347375248399e+000	-2.990308680936367e+001
1	 3.556055074431778e-001	 1.354084380660318e+000	-3.025273283032907e+001
1	 3.416696095105594e-001	 1.357667752958321e+000	-3.060451007958653e+001
1	 3.277372116407853e-001	 1.361098173039149e+000	-3.095556058888559e+001
1	 3.138106391095596e-001	 1.364376365841549e+000	-3.130304718115690e+001
1	 2.998921885967779e-001	 1.367503099314640e+000	-3.164415609703199e+001
1	 2.859841273122783e-001	 1.370479183367836e+000	-3.197609953752112e+001
1	 2.720886921614973e-001	 1.373305468803879e+000	-3.229611812040943e+001
1	 4.132954895833138e-001	 1.344581172810493e+000	-2.911747725443024e+001
1	 3.993030651523370e-001	 1.348802715791266e+000	-2.946403039222462e+001
1	 3.853045436931127e-001	 1.352868117181002e+000	-2.982070871803295e+001
1	 3.713023669059576e-001	 1.356777922354374e+000	-3.018454458147790e+001
1	 3.572989516682235e-001	 1.360532723919882e+000	-3.055258415223898e+001
1	 3.432966889984714e-001	 1.364133160748689e+000	-3.092189036707018e+001
1	 3.292979430594139e-001	 1.367579916980069e+000	-3.128954579760941e+001
1	 3.153050502000596e-001	 1.370873721005026e+000	-3.165265543572361e+001
1	 3.013203180374323e-001	 1.374015344429769e+000	-3.200834939340538e+001
1	 2.873460245781569e-001	 1.377005601020615e+000	-3.235378551448802e+001
1	 2.733844173801429e-001	 1.379845345631952e+000	-3.268615189571019e+001
1	 4.152543334518897e-001	 1.350953912539617e+000	-2.932617519711736e+001
1	 4.011955909126853e-001	 1.355195463828543e+000	-2.969303598280629e+001
1	 3.871307224479303e-001	 1.359280133482124e+000	-3.006933519072266e+001
1	 3.730621813305708e-001	 1.363208469459882e+000	-3.045205188789651e+001
1	 3.589923958929374e-001	 1.366981067179019e+000	-3.083818028330985e+001
1	 3.449237684860103e-001	 1.370598568538679e+000	-3.122473274505729e+001
1	 3.308586744776357e-001	 1.374061660920658e+000	-3.160874273459772e+001
1	 3.167994612901309e-001	 1.377371076168225e+000	-3.198726765479003e+001
1	 3.027484474776503e-001	 1.380527589544668e+000	-3.235739160869229e+001
1	 2.887079218436093e-001	 1.383532018673209e+000	-3.271622806636054e+001
1	 2.746801425983933e-001	 1.386385222459879e+000	-3.306092243715996e+001
1	 4.172131773203306e-001	 1.357326652268342e+000	-2.952180154145644e+001
1	 4.030881166728740e-001	 1.361588211865426e+000	-2.990866607796251e+001
1	 3.889569012025585e-001	 1.365692149782872e+000	-3.030427339272824e+001
1	 3.748219957549624e-001	 1.369639016565036e+000	-3.070555970299997e+001
1	 3.606858401173979e-001	 1.373429410437834e+000	-3.110947762924808e+001
1	 3.465508479732667e-001	 1.377063976328380e+000	-3.151299926666926e+001
1	 3.324194058955513e-001	 1.380543404860995e+000	-3.191311917053824e+001
1	 3.182938723798802e-001	 1.383868431331206e+000	-3.230685725207848e+001
1	 3.041765769175411e-001	 1.387039834659384e+000	-3.269126158180350e+001
1	 2.900698191087421e-001	 1.390058436325648e+000	-3.306341109755296e+001
1	 2.759758678163474e-001	 1.392925099287674e+000	-3.342041821473936e+001
1	 4.191720211886539e-001	 1.363699391996801e+000	-2.970429490924224e+001
1	 4.049806424329367e-001	 1.367980959902048e+000	-3.011086312333013e+001
1	 3.907830799570471e-001	 1.372104166083367e+000	-3.052547024141764e+001
1	 3.765818101791976e-001	 1.376069563669956e+000	-3.094501991758254e+001
1	 3.623792843416839e-001	 1.379877753696433e+000	-3.136643341064909e+001
1	 3.481779274603316e-001	 1.383529384117886e+000	-3.178665269435135e+001
1	 3.339801373132610e-001	 1.387025148801159e+000	-3.220264347856745e+001
1	 3.197882834694139e-001	 1.390365786494034e+000	-3.261139813827852e+001
1	 3.056047063572133e-001	 1.393552079773962e+000	-3.300993854720453e+001
1	 2.914317163736617e-001	 1.396584853977964e+000	-3.339531881334737e+001
1	 2.772715930341038e-001	 1.399464976115353e+000	-3.376462791395485e+001
1	 4.211308650568782e-001	 1.370072131725126e+000	-2.987359506424650e+001
1	 4.068731681929064e-001	 1.374373707938537e+000	-3.029957063537843e+001
1	 3.926092587114450e-001	 1.378516182383736e+000	-3.073287364179240e+001
1	 3.783416246033405e-001	 1.382500110774756e+000	-3.117038531753869e+001
1	 3.640727285658739e-001	 1.386326096954921e+000	-3.160900564404415e+001
1	 3.498050069472954e-001	 1.389994791907289e+000	-3.204565648337739e+001
1	 3.355408687308650e-001	 1.393506892741225e+000	-3.247728462026002e+001
1	 3.212826945588388e-001	 1.396863141656769e+000	-3.290086470948637e+001
1	 3.070328357967758e-001	 1.400064324888450e+000	-3.331340212571815e+001
1	 2.927936136384748e-001	 1.403111271630186e+000	-3.371193571289764e+001
1	 2.785673182517615e-001	 1.406004852942930e+000	-3.409354043082637e+001
1	 4.230897089250207e-001	 1.376444871453451e+000	-3.002964288578272e+001
1	 4.087656939528173e-001	 1.380766455975027e+000	-3.047473317662113e+001
1	 3.944354374658013e-001	 1.384928198684105e+000	-3.092643246362513e+001
1	 3.801014390274559e-001	 1.388930657879554e+000	-3.138160956314297e+001
1	 3.657661727900466e-001	 1.392774440213404e+000	-3.183715312347651e+001
1	 3.514320864342495e-001	 1.396460199696681e+000	-3.228997476580967e+001
1	 3.371016001484642e-001	 1.399988636681272e+000	-3.273701213200527e+001
1	 3.227771056482616e-001	 1.403360496819475e+000	-3.317523183597069e+001
1	 3.084609652363379e-001	 1.406576570002893e+000	-3.360163231557778e+001
1	 2.941555109032878e-001	 1.409637689282346e+000	-3.401324658242448e+001
1	 2.798630434694192e-001	 1.412544729770422e+000	-3.440714486701458e+001
1	 4.250485527931001e-001	 1.382817611181910e+000	-3.017238034300060e+001
1	 4.106582197127024e-001	 1.387159204011648e+000	-3.063629633151223e+001
1	 3.962616162201657e-001	 1.391340214984599e+000	-3.110609651922908e+001
1	 3.818612534516080e-001	 1.395361204984467e+000	-3.157864716890173e+001
1	 3.674596170142805e-001	 1.399222783471986e+000	-3.205083540258524e+001
1	 3.530591659212842e-001	 1.402925607486154e+000	-3.251957233490438e+001
1	 3.386623315661588e-001	 1.406470380621379e+000	-3.298179611176306e+001
1	 3.242715167377889e-001	 1.409857851982213e+000	-3.343447485124449e+001
1	 3.098890946760083e-001	 1.413088815117338e+000	-3.387460948373359e+001
1	 2.955174081682073e-001	 1.416164106934472e+000	-3.429923648860252e+001
1	 2.811587686871757e-001	 1.419084606597842e+000	-3.470543052508155e+001
1	 4.270073966611341e-001	 1.389190350910635e+000	-3.030175046988972e+001
1	 4.125507454725953e-001	 1.393551952048531e+000	-3.078420668300568e+001
1	 3.980877949745868e-001	 1.397752231285342e+000	-3.127181654183831e+001
1	 3.836210678758616e-001	 1.401791752089610e+000	-3.176145348395982e+001
1	 3.691530612386543e-001	 1.405671126730774e+000	-3.225001277718195e+001
1	 3.546862454084905e-001	 1.409391015275801e+000	-3.273441462994664e+001
1	 3.402230629840488e-001	 1.412952124561623e+000	-3.321160720618310e+001
1	 3.257659278275275e-001	 1.416355207145046e+000	-3.367856954144012e+001
1	 3.113172241158959e-001	 1.419601060231833e+000	-3.413231435739321e+001
1	 2.968793054333397e-001	 1.422690524586597e+000	-3.456989077212658e+001
1	 2.824544939051298e-001	 1.425624483425207e+000	-3.498838690388330e+001
1	 4.289662405291407e-001	 1.395563090639759e+000	-3.041769734096576e+001
1	 4.144432712325297e-001	 1.399944700085807e+000	-3.091841178975815e+001
1	 3.999139737291143e-001	 1.404164247586460e+000	-3.142354416458159e+001
1	 3.853808823002809e-001	 1.408222299195100e+000	-3.192998467304362e+001
1	 3.708465054632466e-001	 1.412119469989872e+000	-3.243464626830574e+001
1	 3.563133248959594e-001	 1.415856423065714e+000	-3.293446772149978e+001
1	 3.417837944022349e-001	 1.419433868502080e+000	-3.342641659807679e+001
1	 3.272603389175837e-001	 1.422852562308036e+000	-3.390749213497629e+001
1	 3.127453535561096e-001	 1.426113305346421e+000	-3.437472801579796e+001
1	 2.982412026987918e-001	 1.429216942238750e+000	-3.482519504145589e+001
1	 2.837502191233803e-001	 1.432164360252531e+000	-3.525600369408801e+001
1	 4.309250843971381e-001	 1.401935830369417e+000	-3.052016604762269e+001
1	 4.163357969925388e-001	 1.406337448123606e+000	-3.103886016395320e+001
1	 4.017401524837977e-001	 1.410576263888079e+000	-3.156123190002990e+001
1	 3.871406967249308e-001	 1.414652846301055e+000	-3.208419769792555e+001
1	 3.725399496881360e-001	 1.418567813249386e+000	-3.260469760574021e+001
1	 3.579404043837813e-001	 1.422321830855985e+000	-3.311969829705703e+001
1	 3.433445258208177e-001	 1.425915612442830e+000	-3.362619599423124e+001
1	 3.287547500080646e-001	 1.429349917471246e+000	-3.412121929250411e+001
1	 3.141734829967585e-001	 1.432625550461151e+000	-3.460183188222021e+001
1	 2.996030999646699e-001	 1.435743359890963e+000	-3.506513516672723e+001
1	 2.850459443420262e-001	 1.438704237079830e+000	-3.550827077381567e+001
1	 2.720886921614973e-001	 1.373305468803879e+000	-3.229611812040943e+001
1	 2.582101691847495e-001	 1.375982455966176e+000	-3.260218479642415e+001
1	 2.443486435126754e-001	 1.378511509869538e+000	-3.289320205932690e+001
1	 2.305062524757509e-001	 1.380893598158766e+000	-3.316770532461440e+001
1	 2.166851002555811e-001	 1.383129724925904e+000	-3.342425516487845e+001
1	 2.028872572520457e-001	 1.385220929583866e+000	-3.366143764795721e+001
1	 1.891147594902251e-001	 1.387168285732491e+000	-3.387786464277804e+001
1	 1.753696080669008e-001	 1.388972900018493e+000	-3.407217409344367e+001
1	 1.616537686363682e-001	 1.390635910990750e+000	-3.424303026214493e+001
1	 1.479691709352418e-001	 1.392158487952350e+000	-3.438912394152152e+001
1	 1.343177083458908e-001	 1.393541829810749e+000	-3.450917263712043e+001
1	 2.733844173801429e-001	 1.379845345631952e+000	-3.268615189571019e+001
1	 2.594398028944461e-001	 1.382535080989893e+000	-3.300340834019890e+001
1	 2.455122666571000e-001	 1.385076178609633e+000	-3.330446081220124e+001
1	 2.316039561768371e-001	 1.387469610744021e+000	-3.358781399573415e+001
1	 2.177169856556604e-001	 1.389716386266716e+000	-3.385199874336542e+001
1	 2.038534353529740e-001	 1.391817549540453e+000	-3.409557244400141e+001
1	 1.900153509896849e-001	 1.393774179277689e+000	-3.431711935617625e+001
1	 1.762047431920685e-001	 1.395587387395139e+000	-3.451525090739744e+001
1	 1.624235869751318e-001	 1.397258317863597e+000	-3.468860596013492e+001
1	 1.486738212651559e-001	 1.398788145554529e+000	-3.483585104508742e+001
1	 1.349573484610525e-001	 1.400178075084743e+000	-3.495568056239367e+001
1	 2.746801425983933e-001	 1.386385222459879e+000	-3.306092243715996e+001
1	 2.606694366038011e-001	 1.389087706013494e+000	-3.338942305297336e+001
1	 2.466758898012532e-001	 1.391640847349633e+000	-3.370062733286588e+001
1	 2.327016598777328e-001	 1.394045623329195e+000	-3.399299841471405e+001
1	 2.187488710556333e-001	 1.396303047607457e+000	-3.426502665499939e+001
1	 2.048196134538770e-001	 1.398414169496971e+000	-3.451523004300048e+001
1	 1.909159424891912e-001	 1.400380072822822e+000	-3.474215457777398e+001
1	 1.770398783173379e-001	 1.402201874771716e+000	-3.494437460845673e+001
1	 1.631934053140300e-001	 1.403880724736372e+000	-3.512049313847825e+001
1	 1.493784715952081e-001	 1.405417803156628e+000	-3.526914209431084e+001
1	 1.355969885763211e-001	 1.406814320358652e+000	-3.538898255943035e+001
1	 2.759758678163474e-001	 1.392925099287674e+000	-3.342041821473936e+001
1	 2.618990703128997e-001	 1.395640331036978e+000	-3.376022098686023e+001
1	 2.478395129452027e-001	 1.398205516089525e+000	-3.408169598419315e+001
1	 2.337993635784846e-001	 1.400621635914264e+000	-3.438325413569629e+001
1	 2.197807564555245e-001	 1.402889708948090e+000	-3.466333467679657e+001
1	 2.057857915547572e-001	 1.405010789453377e+000	-3.492040562662975e+001
1	 1.918165339887250e-001	 1.406985966367832e+000	-3.515296422483004e+001
1	 1.778750134426725e-001	 1.408816362148160e+000	-3.535953732838112e+001
1	 1.639632236530121e-001	 1.410503131609001e+000	-3.553868176908183e+001
1	 1.500831219253405e-001	 1.412047460758570e+000	-3.568898467225324e+001
1	 1.362366286916379e-001	 1.413450565632394e+000	-3.580906373734393e+001
1	 2.772715930341038e-001	 1.399464976115353e+000	-3.376462791395485e+001
1	 2.631287040218273e-001	 1.402192956060347e+000	-3.411579434254130e+001
1	 2.490031360890160e-001	 1.404770184829297e+000	-3.444766123442751e+001
1	 2.348970672791394e-001	 1.407197648499203e+000	-3.475857679592703e+001
1	 2.208126418553583e-001	 1.409476370288579e+000	-3.504691866471350e+001
1	 2.067519696556165e-001	 1.411607409409621e+000	-3.531109446663129e+001
1	 1.927171254882681e-001	 1.413591859912662e+000	-3.554954232830584e+001
1	 1.787101485680357e-001	 1.415430849524405e+000	-3.576073134600690e+001
1	 1.647330419920285e-001	 1.417125538481411e+000	-3.594316201130221e+001
1	 1.507877722554951e-001	 1.418677118360277e+000	-3.609536659408013e+001
1	 1.368762688069441e-001	 1.420086810905885e+000	-3.621590948359555e+001
1	 2.785673182517615e-001	 1.406004852942930e+000	-3.409354043082637e+001
1	 2.643583377306694e-001	 1.408745581083601e+000	-3.445613546580798e+001
1	 2.501667592327607e-001	 1.411334853568936e+000	-3.479851765473570e+001
1	 2.359947709797438e-001	 1.413773661083987e+000	-3.511896211382430e+001
1	 2.218445272551593e-001	 1.416063031628888e+000	-3.541577455180696e+001
1	 2.077181477564574e-001	 1.418204029365658e+000	-3.568729192271904e+001
1	 1.936177169878017e-001	 1.420197753457256e+000	-3.593188303021798e+001
1	 1.795452836933910e-001	 1.422045336900386e+000	-3.614794908382679e+001
1	 1.655028603310289e-001	 1.423747945353533e+000	-3.633392420758671e+001
1	 1.514924225856141e-001	 1.425306775961670e+000	-3.648827590166184e+001
1	 1.375159089221811e-001	 1.426723056179039e+000	-3.660950545751965e+001
1	 2.798630434694192e-001	 1.412544729770422e+000	-3.440714486701458e+001
1	 2.655879714395114e-001	 1.415298206106741e+000	-3.478123684420488e+001
1	 2.513303823765045e-001	 1.417899522308429e+000	-3.513425991682352e+001
1	 2.370924746803448e-001	 1.420349673668590e+000	-3.546440588709928e+001
1	 2.228764126549521e-001	 1.422649692968980e+000	-3.576989834645226e+001
1	 2.086843258572822e-001	 1.424800649321441e+000	-3.604899344054166e+001
1	 1.945183084873072e-001	 1.426803647001559e+000	-3.629998058107026e+001
1	 1.803804188187018e-001	 1.428659824276040e+000	-3.652118310466326e+001
1	 1.662726786699633e-001	 1.430370352225293e+000	-3.671095887923305e+001
1	 1.521970729156393e-001	 1.431936433562669e+000	-3.686770085832526e+001
1	 1.381555490372899e-001	 1.433359301451775e+000	-3.698983758403096e+001
1	 2.811587686871757e-001	 1.419084606597842e+000	-3.470543052508155e+001
1	 2.668176051484386e-001	 1.421850831129768e+000	-3.509109110376218e+001
1	 2.524940055203146e-001	 1.424464191047764e+000	-3.545488279061947e+001
1	 2.381901783809890e-001	 1.426925686252988e+000	-3.579490399092796e+001
1	 2.239082980547608e-001	 1.429236354308818e+000	-3.610928613060660e+001
1	 2.096505039580927e-001	 1.431397269276922e+000	-3.639619454970251e+001
1	 1.954188999867662e-001	 1.433409540545514e+000	-3.665382933735178e+001
1	 1.812155539439319e-001	 1.435274311651301e+000	-3.688042610843613e+001
1	 1.670424970087817e-001	 1.436992759096619e+000	-3.707425672227014e+001
1	 1.529017232455130e-001	 1.438566091163198e+000	-3.723362994375114e+001
1	 1.387951891522120e-001	 1.439995546724006e+000	-3.735689204750420e+001
1	 2.824544939051298e-001	 1.425624483425207e+000	-3.498838690388330e+001
1	 2.680472388575366e-001	 1.428403456152684e+000	-3.538569100581939e+001
1	 2.536576286642590e-001	 1.431028859786927e+000	-3.576038114202158e+001
1	 2.392878820817231e-001	 1.433501698837155e+000	-3.611045237617530e+001
1	 2.249401834546101e-001	 1.435823015648366e+000	-3.643393405812003e+001
1	 2.106166820588915e-001	 1.437993889232055e+000	-3.672889086183440e+001
1	 1.963194914861600e-001	 1.440015434089065e+000	-3.699342375910707e+001
1	 1.820506890690446e-001	 1.441888799026105e+000	-3.722567092901691e+001
1	 1.678123153474339e-001	 1.443615165967438e+000	-3.742380860344877e+001
1	 1.536063735751770e-001	 1.445195748763177e+000	-3.758605184901133e+001
1	 1.394348292668886e-001	 1.446631791995650e+000	-3.771065528582340e+001
1	 2.837502191233803e-001	 1.432164360252531e+000	-3.525600369408801e+001
1	 2.692768725668908e-001	 1.434956081175486e+000	-3.566502944393681e+001
1	 2.548212518084049e-001	 1.437593528525907e+000	-3.605074993070646e+001
1	 2.403855857825941e-001	 1.440077711421066e+000	-3.641104706766637e+001
1	 2.259720688545246e-001	 1.442409676987588e+000	-3.674383835309652e+001
1	 2.115828601596805e-001	 1.444590509186793e+000	-3.704707806872637e+001
1	 1.972200829854698e-001	 1.446621327632154e+000	-3.731875840757130e+001
1	 1.828858241940033e-001	 1.448503286400387e+000	-3.755691053117078e+001
1	 1.685821336858697e-001	 1.450237572837680e+000	-3.775960555634450e+001
1	 1.543110239045736e-001	 1.451825406362528e+000	-3.792495547174305e+001
1	 1.400744693812610e-001	 1.453268037266624e+000	-3.805111398459244e+001
1	 2.850459443420262e-001	 1.438704237079830e+000	-3.550827077381567e+001
1	 2.705065062765865e-001	 1.441508706198178e+000	-3.592909944088827e+001
1	 2.559848749528201e-001	 1.444158197264690e+000	-3.632598420799784e+001
1	 2.414832894836484e-001	 1.446653724004696e+000	-3.669668416250572e+001
1	 2.270039542545287e-001	 1.448996338326446e+000	-3.703899530829508e+001
1	 2.125490382604623e-001	 1.451187129141089e+000	-3.735075194050148e+001
1	 1.981206744846773e-001	 1.453227221174727e+000	-3.762982794287015e+001
1	 1.837209593187718e-001	 1.455117773774083e+000	-3.787413800758208e+001
1	 1.693519520240392e-001	 1.456859979707270e+000	-3.808163877756536e+001
1	 1.550156742336445e-001	 1.458455063961172e+000	-3.825032991145272e+001
1	 1.407141094952703e-001	 1.459904282536842e+000	-3.837825507150712e+001
1	 1.343177083458908e-001	 1.393541829810749e+000	-3.450917263712043e+001
1	 1.206992022775452e-001	 1.394787340501952e+000	-3.460144937867928e+001
1	 1.071175469255529e-001	 1.395896057564835e+000	-3.466490026266541e+001
1	 9.357455252922366e-002	 1.396869262718420e+000	-3.469933037817375e+001
1	 8.007199073668500e-002	 1.397708262725060e+000	-3.470455709628661e+001
1	 6.661159435878002e-002	 1.398414388238686e+000	-3.468040898689439e+001
1	 5.319505715932576e-002	 1.398988992659145e+000	-3.462672476705259e+001
1	 3.982403368103277e-002	 1.399433450993745e+000	-3.454335228181353e+001
1	 2.650013910635849e-002	 1.399749158727085e+000	-3.443014751835723e+001
1	 1.322494915253760e-002	 1.399937530700197e+000	-3.428697365412594e+001
1	 0.000000000000000e+000	 1.400000000000000e+000	-3.411370013956034e+001
1	 1.349573484610525e-001	 1.400178075084743e+000	-3.495568056239367e+001
1	 1.212739891215651e-001	 1.401429517075980e+000	-3.504634302933977e+001
1	 1.076276559867540e-001	 1.402543514008033e+000	-3.510671324708473e+001
1	 9.402016791654722e-002	 1.403521353703664e+000	-3.513650548997305e+001
1	 8.045330499591420e-002	 1.404364349148224e+000	-3.513544903952999e+001
1	 6.692880828759104e-002	 1.405073837332419e+000	-3.510328717302436e+001
1	 5.344837962134032e-002	 1.405651178101191e+000	-3.503977617741565e+001
1	 4.001368141904168e-002	 1.406097753009839e+000	-3.494468438969498e+001
1	 2.662633655488246e-002	 1.406414964188468e+000	-3.481779126452206e+001
1	 1.328792824988827e-002	 1.406604233215796e+000	-3.465888646995169e+001
1	 0.000000000000000e+000	 1.406667000003317e+000	-3.446776901194844e+001
1	 1.355969885763211e-001	 1.406814320358652e+000	-3.538898255943035e+001
1	 1.218487759656231e-001	 1.408071693649921e+000	-3.547823406003350e+001
1	 1.081377650478982e-001	 1.409190970451141e+000	-3.553570821830878e+001
1	 9.446578330370802e-002	 1.410173444688814e+000	-3.556103731360808e+001
1	 8.083461925487838e-002	 1.411020435571292e+000	-3.555387126251915e+001
1	 6.724602221605308e-002	 1.411733286426055e+000	-3.551387666871115e+001
1	 5.370170208295465e-002	 1.412313363543139e+000	-3.544073589247897e+001
1	 4.020332915664581e-002	 1.412762055025833e+000	-3.533414614106330e+001
1	 2.675253400305781e-002	 1.413080769649750e+000	-3.519381858072389e+001
1	 1.335090734702075e-002	 1.413270935731295e+000	-3.501947747146250e+001
1	 0.000000000000000e+000	 1.413334000006534e+000	-3.481085932518035e+001
1	 1.362366286916379e-001	 1.413450565632394e+000	-3.580906373734393e+001
1	 1.224235628096674e-001	 1.414713870223685e+000	-3.589710531352638e+001
1	 1.086478741089468e-001	 1.415838426894065e+000	-3.595186607470839e+001
1	 9.491139869068389e-002	 1.416825535673774e+000	-3.597290500005720e+001
1	 8.121593351357331e-002	 1.417676521994166e+000	-3.595980124222838e+001
1	 6.756323614417877e-002	 1.418392735519495e+000	-3.591215322812593e+001
1	 5.395502454419462e-002	 1.418975548984888e+000	-3.582957777412106e+001
1	 4.039297689387870e-002	 1.419426357041628e+000	-3.571170921688797e+001
1	 2.687873145091769e-002	 1.419746575110834e+000	-3.555819856092192e+001
1	 1.341388644395777e-002	 1.419937638246595e+000	-3.536871264371659e+001
1	 0.000000000000000e+000	 1.420001000009550e+000	-3.514293331949808e+001
1	 1.368762688069441e-001	 1.420086810905885e+000	-3.621590948359555e+001
1	 1.229983496536463e-001	 1.421356046797183e+000	-3.630293995329451e+001
1	 1.091579831698613e-001	 1.422485883336712e+000	-3.635516807171200e+001
1	 9.535701407745290e-002	 1.423477626658451e+000	-3.637208809001719e+001
1	 8.159724777199491e-002	 1.424332608416751e+000	-3.635321687664300e+001
1	 6.788045007198064e-002	 1.425052184612641e+000	-3.629809305865532e+001
1	 5.420834700508614e-002	 1.425637734426340e+000	-3.620627617280543e+001
1	 4.058262463077385e-002	 1.426090659057124e+000	-3.607734582749136e+001
1	 2.700492889849534e-002	 1.426412380571618e+000	-3.591090087678461e+001
1	 1.347686554072209e-002	 1.426604340761593e+000	-3.570655860759546e+001
1	 0.000000000000000e+000	 1.426668000012267e+000	-3.546395394096781e+001
1	 1.375159089221811e-001	 1.426723056179039e+000	-3.660950545751965e+001
1	 1.235731364975081e-001	 1.427998223370329e+000	-3.669572145606619e+001
1	 1.096680922306028e-001	 1.429133339778993e+000	-3.674559581349948e+001
1	 9.580262946399300e-002	 1.430129717642750e+000	-3.675856650484170e+001
1	 8.197856203013890e-002	 1.430988694838949e+000	-3.673409647496655e+001
1	 6.819766399947123e-002	 1.431711633705393e+000	-3.667167281035884e+001
1	 5.446166946565508e-002	 1.432299919867397e+000	-3.657080591621984e+001
1	 4.077227236736475e-002	 1.432754961072221e+000	-3.643102870023715e+001
1	 2.713112634582392e-002	 1.433078186032001e+000	-3.625189576425576e+001
1	 1.353984463733646e-002	 1.433271043276193e+000	-3.603298260501741e+001
1	 0.000000000000000e+000	 1.433335000014584e+000	-3.577388482506378e+001
1	 1.381555490372899e-001	 1.433359301451775e+000	-3.698983758403096e+001
1	 1.241479233412011e-001	 1.434640399943033e+000	-3.707543360457082e+001
1	 1.101782012911328e-001	 1.435780796220815e+000	-3.712313124492970e+001
1	 9.624824485028212e-002	 1.436781808626576e+000	-3.713232053772732e+001
1	 8.235987628800122e-002	 1.437644781260665e+000	-3.710241874810449e+001
1	 6.851487792666318e-002	 1.438371082797657e+000	-3.703286956572279e+001
1	 5.471499192592734e-002	 1.438962105307958e+000	-3.692314229822618e+001
1	 4.096192010368493e-002	 1.439419263086821e+000	-3.677273106756149e+001
1	 2.725732379293666e-002	 1.439743991491885e+000	-3.658115401049101e+001
1	 1.360282373382363e-002	 1.439937745790292e+000	-3.634795248456002e+001
1	 0.000000000000000e+000	 1.440002000016400e+000	-3.607269028071020e+001
1	 1.387951891522120e-001	 1.439995546724006e+000	-3.735689204750420e+001
1	 1.247227101846736e-001	 1.441282576515208e+000	-3.744206048048656e+001
1	 1.106883103514126e-001	 1.442428252662085e+000	-3.748775664369076e+001
1	 9.669386023629828e-002	 1.443433899609835e+000	-3.749333084514694e+001
1	 8.274119054557766e-002	 1.444300867681801e+000	-3.745816279940411e+001
1	 6.883209185356908e-002	 1.445030531889332e+000	-3.738166082969530e+001
1	 5.496831438592883e-002	 1.445624290747925e+000	-3.726326106812112e+001
1	 4.115156783976792e-002	 1.446083565100824e+000	-3.710242665533428e+001
1	 2.738352123986675e-002	 1.446409796951171e+000	-3.689864694115627e+001
1	 1.366580283020633e-002	 1.446604448303791e+000	-3.665143668748133e+001
1	 0.000000000000000e+000	 1.446669000017617e+000	-3.636033527476162e+001
1	 1.394348292668886e-001	 1.446631791995650e+000	-3.771065528582340e+001
1	 1.252974970278738e-001	 1.447924753086764e+000	-3.779558645758415e+001
1	 1.111984194114034e-001	 1.449075709102713e+000	-3.783945461266578e+001
1	 9.713947562201938e-002	 1.450085990592432e+000	-3.784157843851701e+001
1	 8.312250480286401e-002	 1.450956954102260e+000	-3.780130811565586e+001
1	 6.914930578020141e-002	 1.451689980980320e+000	-3.771802451999707e+001
1	 5.522163684568544e-002	 1.452286476187199e+000	-3.759113842018824e+001
1	 4.134121557564721e-002	 1.452747867114128e+000	-3.742008967154203e+001
1	 2.750971868664739e-002	 1.453075602409757e+000	-3.720434640807658e+001
1	 1.372878192650734e-002	 1.453271150816591e+000	-3.694340423412685e+001
1	 0.000000000000000e+000	 1.453336000018133e+000	-3.663678541691313e+001
1	 1.400744693812610e-001	 1.453268037266624e+000	-3.805111398459244e+001
1	 1.258722838707502e-001	 1.454566929657613e+000	-3.813599619505781e+001
1	 1.117085284710667e-001	 1.455723165542607e+000	-3.817820807250663e+001
1	 9.758509100742349e-002	 1.456738081574272e+000	-3.817704467609186e+001
1	 8.350381905985616e-002	 1.457613040521948e+000	-3.813183455833838e+001
1	 6.946651970657285e-002	 1.458349430070525e+000	-3.804193895769574e+001
1	 5.547495930522307e-002	 1.458948661625681e+000	-3.790675098353831e+001
1	 4.153086331135633e-002	 1.459412169126637e+000	-3.772569479527918e+001
1	 2.763591613331179e-002	 1.459741407867544e+000	-3.749822477722241e+001
1	 1.379176102274939e-002	 1.459937853328589e+000	-3.722382471070504e+001
1	 0.000000000000000e+000	 1.460003000017850e+000	-3.690200694502263e+001
1	 1.407141094952703e-001	 1.459904282536842e+000	-3.837825507150712e+001
1	 1.264470707132509e-001	 1.461209106227669e+000	-3.846327463103798e+001
1	 1.122186375303638e-001	 1.462370621981674e+000	-3.850400025441342e+001
1	 9.803070639248851e-002	 1.463390172555262e+000	-3.849971125508296e+001
1	 8.388513331654991e-002	 1.464269126940766e+000	-3.844972235509969e+001
1	 6.978373363269591e-002	 1.465008879159846e+000	-3.835338285803961e+001
1	 5.572828176456757e-002	 1.465610847063272e+000	-3.821007581222691e+001
1	 4.172051104692880e-002	 1.466076471138249e+000	-3.801921716604200e+001
1	 2.776211357989313e-002	 1.466407213324432e+000	-3.778025491702385e+001
1	 1.385474011895523e-002	 1.466604555839689e+000	-3.749266825642857e+001
1	 0.000000000000000e+000	 1.466670000016666e+000	-3.715596671083308e+001
1	 1.466670000016666e+000	 0.000000000000000e+000	 2.349858962206787e+001
1	 1.466604555839689e+000	 1.385474011895528e-002	 2.266413889949756e+001
1	 1.466407213324432e+000	 2.776211357989323e-002	 2.183791571192881e+001
1	 1.466076471138249e+000	 4.172051104692869e-002	 2.102006018609387e+001
1	 1.465610847063272e+000	 5.572828176456753e-002	 2.021073773581222e+001
1	 1.465008879159847e+000	 6.978373363269590e-002	 1.941013980419236e+001
1	 1.464269126940766e+000	 8.388513331654994e-002	 1.861848458704406e+001
1	 1.463390172555262e+000	 9.803070639248858e-002	 1.783601773541251e+001
1	 1.462370621981674e+000	 1.122186375303636e-001	 1.706301303511147e+001
1	 1.461209106227669e+000	 1.264470707132508e-001	 1.629977306110489e+001
1	 1.459904282536843e+000	 1.407141094952702e-001	 1.554662980456131e+001
1	 1.473336000014533e+000	 0.000000000000000e+000	 2.336012074729649e+001
1	 1.473270258394459e+000	 1.391770976875623e-002	 2.252541813743332e+001
1	 1.473072018959543e+000	 2.788829209775665e-002	 2.169889353583052e+001
1	 1.472739773553593e+000	 4.191013033666514e-002	 2.088071055276229e+001
1	 1.472272033222072e+000	 5.598156622728418e-002	 2.007105783601625e+001
1	 1.471667329380818e+000	 7.010089997888505e-002	 1.927014978003668e+001
1	 1.470924214995623e+000	 8.426639037867754e-002	 1.847822721584796e+001
1	 1.470041265771596e+000	 9.847625493824477e-002	 1.769555807971835e+001
1	 1.469017081351258e+000	 1.127286700767428e-001	 1.692243805848859e+001
1	 1.467850286520215e+000	 1.270217713416299e-001	 1.615919120946666e+001
1	 1.466539532419245e+000	 1.413536536676589e-001	 1.540617055276642e+001
1	 1.480002000011599e+000	 0.000000000000000e+000	 2.321700103406655e+001
1	 1.479935960948430e+000	 1.398067941857050e-002	 2.238248770933882e+001
1	 1.479736824593857e+000	 2.801447061561839e-002	 2.155608833369848e+001
1	 1.479403075968142e+000	 4.209974962636292e-002	 2.073799152751268e+001
1	 1.478933219380080e+000	 5.623485068990968e-002	 1.992841067737384e+001
1	 1.478325779601007e+000	 7.041806632492183e-002	 1.912758460903951e+001
1	 1.477579303049710e+000	 8.464764744058920e-002	 1.833577824066838e+001
1	 1.476692358987179e+000	 9.892180348372628e-002	 1.755328321436065e+001
1	 1.475663540720116e+000	 1.132387026228000e-001	 1.678041850398249e+001
1	 1.474491466812067e+000	 1.275964719696582e-001	 1.601753099723027e+001
1	 1.473174782300993e+000	 1.419931978396938e-001	 1.526499604987192e+001
1	 1.486668000008066e+000	 0.000000000000000e+000	 2.306928942273760e+001
1	 1.486601663501801e+000	 1.404364906842489e-002	 2.223540460366242e+001
1	 1.486401630227571e+000	 2.814064913352657e-002	 2.140955463441489e+001
1	 1.486066378382094e+000	 4.228936891608644e-002	 2.059195465020457e+001
1	 1.485594405537496e+000	 5.648813515252010e-002	 1.978284425957855e+001
1	 1.484984229820612e+000	 7.073523267088945e-002	 1.898248817803601e+001
1	 1.484234391103225e+000	 8.502890450237158e-002	 1.819117684139820e+001
1	 1.483343452202206e+000	 9.936735202901935e-002	 1.740922699699570e+001
1	 1.482310000088439e+000	 1.137487351686180e-001	 1.663698227071071e+001
1	 1.481132647103413e+000	 1.281711725974123e-001	 1.587481370789099e+001
1	 1.479810032182270e+000	 1.426327420114425e-001	 1.512312028613491e+001
1	 1.493334000004133e+000	 0.000000000000000e+000	 2.291704380127063e+001
1	 1.493267366054773e+000	 1.410661871834616e-002	 2.208422479130559e+001
1	 1.493066435860886e+000	 2.826682765152936e-002	 2.125934599323110e+001
1	 1.492729680795649e+000	 4.247898820590017e-002	 2.044265054043623e+001
1	 1.492255591694520e+000	 5.674141961519150e-002	 1.963440572527356e+001
1	 1.491642680039831e+000	 7.105239901687119e-002	 1.883490359024729e+001
1	 1.490889479156365e+000	 8.541016156411121e-002	 1.804446149836022e+001
1	 1.489994545416871e+000	 9.981290057421020e-002	 1.726342268073964e+001
1	 1.488956459456420e+000	 1.142587677142795e-001	 1.649215675964238e+001
1	 1.487773827394441e+000	 1.287458732249686e-001	 1.573106024491982e+001
1	 1.486445282063260e+000	 1.432722861829729e-001	 1.498055700201127e+001
1	 1.500000000000000e+000	 0.000000000000000e+000	 2.276032102861235e+001
1	 1.499933068607544e+000	 1.416958836836110e-002	 2.192900324823268e+001
1	 1.499731241494002e+000	 2.839300616967488e-002	 2.110551501340173e+001
1	 1.499392983209006e+000	 4.266860749586857e-002	 2.029012891799312e+001
1	 1.498916777851350e+000	 5.699470407799986e-002	 1.948314137909528e+001
1	 1.498301130258862e+000	 7.136956536295040e-002	 1.868487318269217e+001
1	 1.497544567209325e+000	 8.579141862589465e-002	 1.789567000785123e+001
1	 1.496645638631369e+000	 1.002584491193852e-001	 1.711590292760153e+001
1	 1.495602918824250e+000	 1.147688002598673e-001	 1.634596888466709e+001
1	 1.494415007685339e+000	 1.293205738524035e-001	 1.558629114020752e+001
1	 1.493080531944146e+000	 1.439118303543528e-001	 1.483731969370615e+001
1	 1.506665999995867e+000	 0.000000000000000e+000	 2.259917695745891e+001
1	 1.506598771160316e+000	 1.423255801849648e-002	 2.176979397748103e+001
1	 1.506396047127118e+000	 2.851918468801127e-002	 2.094811336724444e+001
1	 1.506056285622365e+000	 4.285822678605605e-002	 2.013443862275321e+001
1	 1.505577964008184e+000	 5.724798854102124e-002	 1.932909670621146e+001
1	 1.504959580477903e+000	 7.168673170921033e-002	 1.853243854313685e+001
1	 1.504199655262302e+000	 8.617267568780851e-002	 1.774483949727417e+001
1	 1.503296731845894e+000	 1.007039976646305e-001	 1.696669982155945e+001
1	 1.502249378192121e+000	 1.152788328054642e-001	 1.619844508336981e+001
1	 1.501056187976295e+000	 1.298952744797935e-001	 1.544052656228468e+001
1	 1.499715781825113e+000	 1.445513745256498e-001	 1.469342161857765e+001
1	 1.513331999991934e+000	 0.000000000000000e+000	 2.243366645641770e+001
1	 1.513264473713287e+000	 1.429552766877910e-002	 2.160665003058851e+001
1	 1.513060852760435e+000	 2.864536320658669e-002	 2.078719181664319e+001
1	 1.512719588035926e+000	 4.304784607652708e-002	 1.997562763406634e+001
1	 1.512239150165223e+000	 5.750127300433167e-002	 1.917231639036943e+001
1	 1.511618030697151e+000	 7.200389805573429e-002	 1.837764052659685e+001
1	 1.510854743315492e+000	 8.655393274993935e-002	 1.759200643986985e+001
1	 1.509947825060642e+000	 1.011495462100326e-001	 1.681584488129147e+001
1	 1.508895837560224e+000	 1.157888653511530e-001	 1.604961132752128e+001
1	 1.507697368267498e+000	 1.304699751072152e-001	 1.529378632432441e+001
1	 1.506351031706344e+000	 1.451909186969318e-001	 1.454887580039676e+001
1	 1.519997999988401e+000	 0.000000000000000e+000	 2.226384343158618e+001
1	 1.519930176266659e+000	 1.435849731923572e-002	 2.143962352845804e+001
1	 1.519725658394152e+000	 2.877154172544927e-002	 2.062280023301207e+001
1	 1.519382890449889e+000	 4.323746536734608e-002	 1.981374308962357e+001
1	 1.518900336322665e+000	 5.775455746800721e-002	 1.901284433146943e+001
1	 1.518276480916806e+000	 7.232106440260555e-002	 1.822051927140432e+001
1	 1.517509831369094e+000	 8.693518981237375e-002	 1.743720666906116e+001
1	 1.516598918275806e+000	 1.015950947556775e-001	 1.666336907257112e+001
1	 1.515542296928752e+000	 1.162988978970165e-001	 1.589949313329223e+001
1	 1.514338548559136e+000	 1.310446757347449e-001	 1.514608989193454e+001
1	 1.512986281588025e+000	 1.458304628682665e-001	 1.440369503446967e+001
1	 1.526663999985467e+000	 0.000000000000000e+000	 2.208976084756556e+001
1	 1.526595878820630e+000	 1.442146696989313e-002	 2.126876568167506e+001
1	 1.526390464028469e+000	 2.889772024464717e-002	 2.045498761673558e+001
1	 1.526046192864452e+000	 4.342708465857750e-002	 1.964883130383229e+001
1	 1.525561522480708e+000	 5.800784193212387e-002	 1.885072366267729e+001
1	 1.524934931137064e+000	 7.263823074990737e-002	 1.806111421485480e+001
1	 1.524164919423301e+000	 8.731644687519830e-002	 1.728047539242185e+001
1	 1.523250011491580e+000	 1.020406433016516e-001	 1.650930282033846e+001
1	 1.522188756297896e+000	 1.168089304431374e-001	 1.574811557120003e+001
1	 1.520979728851398e+000	 1.316193763624592e-001	 1.499745639074573e+001
1	 1.519621531470337e+000	 1.464700070397217e-001	 1.425789189262569e+001
1	 1.533329999983334e+000	 0.000000000000000e+000	 2.191147074792581e+001
1	 1.533261581375402e+000	 1.448443662077811e-002	 2.109412681029512e+001
1	 1.533055269663588e+000	 2.902389876422853e-002	 2.028380211610270e+001
1	 1.532709495279816e+000	 4.361670395028579e-002	 1.948093778571190e+001
1	 1.532222708639554e+000	 5.826112639675773e-002	 1.868599676709129e+001
1	 1.531593381358125e+000	 7.295539709772311e-002	 1.789946410844551e+001
1	 1.530820007478312e+000	 8.769770393849954e-002	 1.712184720528017e+001
1	 1.529901104708160e+000	 1.024861918480413e-001	 1.635367602045638e+001
1	 1.528835215667849e+000	 1.173189629895985e-001	 1.559550327579573e+001
1	 1.527620909144472e+000	 1.321940769904346e-001	 1.484790461380148e+001
1	 1.526256781353464e+000	 1.471095512113651e-001	 1.411147872807484e+001
1	 1.459904282536843e+000	 1.407141094952702e-001	 1.554662980456131e+001
1	 1.458455063961172e+000	 1.550156742336446e-001	 1.480441278822744e+001
1	 1.456859979707271e+000	 1.693519520240392e-001	 1.407381952021434e+001
1	 1.455117773774083e+000	 1.837209593187718e-001	 1.335534608767763e+001
1	 1.453227221174727e+000	 1.981206744846772e-001	 1.264949246011733e+001
1	 1.451187129141089e+000	 2.125490382604623e-001	 1.195676212557143e+001
1	 1.448996338326446e+000	 2.270039542545288e-001	 1.127766170963810e+001
1	 1.446653724004697e+000	 2.414832894836484e-001	 1.061270057738964e+001
1	 1.444158197264690e+000	 2.559848749528201e-001	 9.962390418280110e+000
1	 1.441508706198178e+000	 2.705065062765864e-001	 9.327244814189745e+000
1	 1.438704237079830e+000	 2.850459443420262e-001	 8.707778790791560e+000
1	 1.466539532419245e+000	 1.413536536676589e-001	 1.540617055276643e+001
1	 1.465083727160154e+000	 1.557202188700866e-001	 1.466406636800189e+001
1	 1.463481393264815e+000	 1.701216548949307e-001	 1.393344765427310e+001
1	 1.461731269023666e+000	 1.845559691793192e-001	 1.321484641944165e+001
1	 1.459832123882273e+000	 1.990211309017990e-001	 1.250879747685748e+001
1	 1.457782759651406e+000	 2.135150714417698e-001	 1.181583800373576e+001
1	 1.455582011715130e+000	 2.280356848795699e-001	 1.113650708228045e+001
1	 1.453228750235476e+000	 2.425808285375987e-001	 1.047134522376641e+001
1	 1.450721881352207e+000	 2.571483235628104e-001	 9.820893875834363e+000
1	 1.448060348376166e+000	 2.717359555508530e-001	 9.185694913299846e+000
1	 1.445243132974653e+000	 2.863414752120758e-001	 8.566290112822312e+000
1	 1.473174782300993e+000	 1.419931978396938e-001	 1.526499604987192e+001
1	 1.471712390358529e+000	 1.564247635062024e-001	 1.452336194617819e+001
1	 1.470102806821810e+000	 1.708913577655507e-001	 1.379306464589075e+001
1	 1.468344764272761e+000	 1.853909790396714e-001	 1.307467054101931e+001
1	 1.466437026589401e+000	 1.999215873188175e-001	 1.236874778097674e+001
1	 1.464378390161382e+000	 2.144811046230759e-001	 1.167586575601332e+001
1	 1.462167685103552e+000	 2.290674155047152e-001	 1.099659456334389e+001
1	 1.459803776466075e+000	 2.436783675917570e-001	 1.033150445632082e+001
1	 1.457285565439627e+000	 2.583117721731038e-001	 9.681165277057835e+000
1	 1.454611990554142e+000	 2.729654048255037e-001	 9.046145872955686e+000
1	 1.451782028869550e+000	 2.876370060825698e-001	 8.427013497633620e+000
1	 1.479810032182270e+000	 1.426327420114425e-001	 1.512312028613491e+001
1	 1.478341053556476e+000	 1.571293081420489e-001	 1.438230618934812e+001
1	 1.476724220378426e+000	 1.716610606359441e-001	 1.365267048059890e+001
1	 1.474958259521535e+000	 1.862259888998599e-001	 1.293481242115901e+001
1	 1.473041929296268e+000	 2.008220437357504e-001	 1.222933201010341e+001
1	 1.470974020671162e+000	 2.154471378043844e-001	 1.153682939565256e+001
1	 1.468753358491847e+000	 2.300991461299552e-001	 1.085790426917794e+001
1	 1.466378802696617e+000	 2.447759066461008e-001	 1.019315524236498e+001
1	 1.463849249527063e+000	 2.594752207836671e-001	 9.543179208079714e+000
1	 1.461163632732205e+000	 2.741948541004960e-001	 8.908570685538846e+000
1	 1.458320924764607e+000	 2.889325369534591e-001	 8.289921150436699e+000
1	 1.486445282063260e+000	 1.432722861829729e-001	 1.498055700201127e+001
1	 1.484969716754174e+000	 1.578338527776833e-001	 1.424090564506878e+001
1	 1.483345633934837e+000	 1.724307635061557e-001	 1.351226514418725e+001
1	 1.481571754770152e+000	 1.870609987599162e-001	 1.279526613629854e+001
1	 1.479646832003032e+000	 2.017225001526154e-001	 1.209053900474427e+001
1	 1.477569651180895e+000	 2.164131709856990e-001	 1.139871322135011e+001
1	 1.475339031880151e+000	 2.311308767552800e-001	 1.072041667116111e+001
1	 1.472953828927230e+000	 2.458734457006079e-001	 1.005627496046715e+001
1	 1.470412933614629e+000	 2.606386693944667e-001	 9.406910708802313e+000
1	 1.467715274910457e+000	 2.754243033757872e-001	 8.772942825660866e+000
1	 1.464859820659907e+000	 2.902280678246939e-001	 8.154985772728294e+000
1	 1.493080531944146e+000	 1.439118303543528e-001	 1.483731969370615e+001
1	 1.491598379951801e+000	 1.585383974131627e-001	 1.409916674450749e+001
1	 1.489967047491214e+000	 1.732004663762303e-001	 1.337184862269731e+001
1	 1.488185250018776e+000	 1.878960086198719e-001	 1.265602586817236e+001
1	 1.486251734709848e+000	 2.026229565694304e-001	 1.195235780377667e+001
1	 1.484165281690726e+000	 2.173792041670235e-001	 1.126150181090843e+001
1	 1.481924705268603e+000	 2.321626073806800e-001	 1.058411258781197e+001
1	 1.479528855158037e+000	 2.469709847552560e-001	 9.920841391313378e+000
1	 1.476976617702436e+000	 2.618021180054691e-001	 9.272335262817890e+000
1	 1.474266917088996e+000	 2.766537526513346e-001	 8.639236239448248e+000
1	 1.471398716555536e+000	 2.915235986962250e-001	 8.022180551263022e+000
1	 1.499715781825113e+000	 1.445513745256498e-001	 1.469342161857765e+001
1	 1.498227043149535e+000	 1.592429420485439e-001	 1.395709580501663e+001
1	 1.496588461047729e+000	 1.739701692462126e-001	 1.323142090241736e+001
1	 1.494798745267572e+000	 1.887310184797587e-001	 1.251708590148227e+001
1	 1.492856637416871e+000	 2.035234129862128e-001	 1.181477764006007e+001
1	 1.490760912200803e+000	 2.183452373483616e-001	 1.112518001506144e+001
1	 1.488510378657336e+000	 2.331943380061452e-001	 1.044897317710998e+001
1	 1.486103881389163e+000	 2.480685238100225e-001	 9.786832708812455e+000
1	 1.483540301790597e+000	 2.629655666166408e-001	 9.139428787594023e+000
1	 1.480818559267920e+000	 2.778832019270955e-001	 8.507425334111767e+000
1	 1.477937612451580e+000	 2.928191295680030e-001	 7.891479147318935e+000
1	 1.506351031706344e+000	 1.451909186969318e-001	 1.454887580039676e+001
1	 1.504855706347555e+000	 1.599474866838842e-001	 1.381469903264028e+001
1	 1.503209874604554e+000	 1.747398721161476e-001	 1.309098196987674e+001
1	 1.501412240516705e+000	 1.895660283396078e-001	 1.237844062162978e+001
1	 1.499461540124259e+000	 2.044238694029805e-001	 1.167778793616411e+001
1	 1.497356542711271e+000	 2.193112705297171e-001	 1.098973295146337e+001
1	 1.495096052046490e+000	 2.342260686316661e-001	 1.031497992901916e+001
1	 1.492678907620734e+000	 2.491660628648855e-001	 9.654227471435071e+000
1	 1.490103985879224e+000	 2.641290152279486e-001	 9.008167624917537e+000
1	 1.487370201447330e+000	 2.791126512030274e-001	 8.377484967791508e+000
1	 1.484476508348123e+000	 2.941146604399786e-001	 7.762855686246335e+000
1	 1.512986281588025e+000	 1.458304628682665e-001	 1.440369503446967e+001
1	 1.511484369546039e+000	 1.606520313192406e-001	 1.367198252455493e+001
1	 1.509831288161861e+000	 1.755095749860801e-001	 1.295053181184082e+001
1	 1.508025735766339e+000	 1.904010381994511e-001	 1.224008451250789e+001
1	 1.506066442832168e+000	 2.053243258197512e-001	 1.154137830020847e+001
1	 1.503952173222280e+000	 2.202773037110939e-001	 1.085514599883616e+001
1	 1.501681725436199e+000	 2.352577992572329e-001	 1.018211465820847e+001
1	 1.499253933852874e+000	 2.502636019198224e-001	 9.523004613781762e+000
1	 1.496667669968431e+000	 2.652924638393589e-001	 8.878528531590277e+000
1	 1.493921843627324e+000	 2.803421004790874e-001	 8.249390439669028e+000
1	 1.491015404245248e+000	 2.954101913121023e-001	 7.636284747291834e+000
1	 1.519621531470337e+000	 1.464700070397217e-001	 1.425789189262569e+001
1	 1.518113032745165e+000	 1.613565759546701e-001	 1.352895227144654e+001
1	 1.516452701719823e+000	 1.762792778560549e-001	 1.281007041530562e+001
1	 1.514639231016640e+000	 1.912360480593200e-001	 1.210201215435097e+001
1	 1.512671345540754e+000	 2.062247822365425e-001	 1.140553852181217e+001
1	 1.510547803733974e+000	 2.212433368924957e-001	 1.072140479126952e+001
1	 1.508267398826601e+000	 2.362895298828358e-001	 1.005035949696280e+001
1	 1.505828960085709e+000	 2.513611409748112e-001	 9.393143438370938e+000
1	 1.503231354058331e+000	 2.664559124508381e-001	 8.750488670368661e+000
1	 1.500473485808002e+000	 2.815715497552332e-001	 8.123117480338644e+000
1	 1.497554300143043e+000	 2.967057221843249e-001	 7.511741353689055e+000
1	 1.526256781353464e+000	 1.471095512113651e-001	 1.411147872807484e+001
1	 1.524741695945114e+000	 1.620611205902299e-001	 1.338561415982510e+001
1	 1.523074115278612e+000	 1.770489807261168e-001	 1.266959776749316e+001
1	 1.521252726267772e+000	 1.920710579192460e-001	 1.196421822164063e+001
1	 1.519276248250174e+000	 2.071252386533722e-001	 1.127025856814829e+001
1	 1.517143434246501e+000	 2.222093700739263e-001	 1.058849521267030e+001
1	 1.514853072217832e+000	 2.373212605084653e-001	 9.919696888279340e+000
1	 1.512403986319364e+000	 2.524586800298292e-001	 9.264623607641710e+000
1	 1.509795038149035e+000	 2.676193610623530e-001	 8.624025601139454e+000
1	 1.507025127989463e+000	 2.828009990314218e-001	 7.998642242429806e+000
1	 1.504093196041590e+000	 2.980012530565968e-001	 7.389200963007616e+000
1	 1.438704237079830e+000	 2.850459443420262e-001	 8.707778790791560e+000
1	 1.435743359890963e+000	 2.996030999646700e-001	 8.103209681250988e+000
1	 1.432625550461151e+000	 3.141734829967587e-001	 7.512923445627640e+000
1	 1.429349917471245e+000	 3.287547500080645e-001	 6.937407980162108e+000
1	 1.425915612442830e+000	 3.433445258208175e-001	 6.377143058837441e+000
1	 1.422321830855985e+000	 3.579404043837813e-001	 5.832599665096827e+000
1	 1.418567813249386e+000	 3.725399496881361e-001	 5.304239319388849e+000
1	 1.414652846301054e+000	 3.871406967249310e-001	 4.792513403595198e+000
1	 1.410576263888079e+000	 4.017401524837974e-001	 4.297862483431356e+000
1	 1.406337448123607e+000	 4.163357969925386e-001	 3.820715629945731e+000
1	 1.401935830369417e+000	 4.309250843971382e-001	 3.361489741275291e+000
1	 1.445243132974653e+000	 2.863414752120758e-001	 8.566290112822314e+000
1	 1.442268798629569e+000	 3.009647929566778e-001	 7.961878785404228e+000
1	 1.439136818788142e+000	 3.156013982292188e-001	 7.371815505659139e+000
1	 1.435846298080186e+000	 3.302489369485938e-001	 6.796593696111145e+000
1	 1.432396384170960e+000	 3.449050231418640e-001	 6.236698606095900e+000
1	 1.428786268884011e+000	 3.595672398223045e-001	 5.692606637828434e+000
1	 1.425015189306273e+000	 3.742331399094486e-001	 5.164784668311822e+000
1	 1.421082428873726e+000	 3.889002471908951e-001	 4.653689368151794e+000
1	 1.416987318435939e+000	 4.035660573255574e-001	 4.159766518377647e+000
1	 1.412729237297769e+000	 4.182280388879797e-001	 3.683450326406836e+000
1	 1.408307614236544e+000	 4.328836344532539e-001	 3.225162742321199e+000
1	 1.451782028869550e+000	 2.876370060825698e-001	 8.427013497633620e+000
1	 1.448794237368335e+000	 3.023264859491649e-001	 7.822958499244997e+000
1	 1.445648087115373e+000	 3.170293134621682e-001	 7.233314196821117e+000
1	 1.442342678689445e+000	 3.317431238896014e-001	 6.658579930531769e+000
1	 1.438877155899481e+000	 3.464655204633587e-001	 6.099246725038263e+000
1	 1.435250706912494e+000	 3.611940752612289e-001	 5.555796607308698e+000
1	 1.431462565363673e+000	 3.759263301311030e-001	 5.028701920386471e+000
1	 1.427512011446956e+000	 3.906597976571303e-001	 4.518424634193305e+000
1	 1.423398372984390e+000	 4.053919621675100e-001	 4.025415654487597e+000
1	 1.419121026472544e+000	 4.201202807835300e-001	 3.550114131131572e+000
1	 1.414679398104287e+000	 4.348421845093938e-001	 3.092946766854976e+000
1	 1.458320924764607e+000	 2.889325369534591e-001	 8.289921150436699e+000
1	 1.455319676107329e+000	 3.036881789420780e-001	 7.686420148315578e+000
1	 1.452159355442899e+000	 3.184572286955533e-001	 7.097388955020619e+000
1	 1.448839059299059e+000	 3.332373108310347e-001	 6.523333211346104e+000
1	 1.445357927628414e+000	 3.480260177852528e-001	 5.964750009653731e+000
1	 1.441715144941439e+000	 3.628209107005124e-001	 5.422127200853441e+000
1	 1.437909941421575e+000	 3.776195203530645e-001	 4.895942697547260e+000
1	 1.433941594020721e+000	 3.924193481236123e-001	 4.386663774443498e+000
1	 1.429809427533400e+000	 4.072178670096429e-001	 3.894746367187032e+000
1	 1.425512815647887e+000	 4.220125226791909e-001	 3.420634370785153e+000
1	 1.421051181972596e+000	 4.368007345655731e-001	 2.964758938842154e+000
1	 1.464859820659907e+000	 2.902280678246939e-001	 8.154985772728294e+000
1	 1.461845114846621e+000	 3.050498719353638e-001	 7.552235570150581e+000
1	 1.458670623770774e+000	 3.198851439293194e-001	 6.964009761897222e+000
1	 1.455335439909068e+000	 3.347314977728410e-001	 6.390820664132199e+000
1	 1.451838699357781e+000	 3.495865151074976e-001	 5.833171721829516e+000
1	 1.448179582970851e+000	 3.644477461401131e-001	 5.291556802358045e+000
1	 1.444357317479972e+000	 3.793127105752995e-001	 4.766459485536572e+000
1	 1.440371176595002e+000	 3.941788985903175e-001	 4.258352351300249e+000
1	 1.436220482082934e+000	 4.090437718519439e-001	 3.767696266156151e+000
1	 1.431904604823757e+000	 4.239047645749627e-001	 3.294939669641463e+000
1	 1.427422965841425e+000	 4.387592846218074e-001	 2.840517862029709e+000
1	 1.471398716555536e+000	 2.915235986962250e-001	 8.022180551263020e+000
1	 1.468370553586280e+000	 3.064115649289692e-001	 7.420377102900678e+000
1	 1.465181892099049e+000	 3.213130591634124e-001	 6.833147132697182e+000
1	 1.461831820519507e+000	 3.362256847149676e-001	 6.261009998844166e+000
1	 1.458319471087602e+000	 3.511470124300444e-001	 5.704475776509904e+000
1	 1.454644021000736e+000	 3.660745815799878e-001	 5.164044535486370e+000
1	 1.450804693538856e+000	 3.810059007977738e-001	 4.640205614711021e+000
1	 1.446800759169773e+000	 3.959384490572215e-001	 4.133436894845041e+000
1	 1.442631536632960e+000	 4.108696766944009e-001	 3.644204070126203e+000
1	 1.438296394000109e+000	 4.257970064708468e-001	 3.172959920750035e+000
1	 1.433794749710720e+000	 4.407178346781115e-001	 2.720143587065056e+000
1	 1.477937612451580e+000	 2.928191295680030e-001	 7.891479147318935e+000
1	 1.474895992326376e+000	 3.077732579228409e-001	 7.290817574258081e+000
1	 1.471693160427779e+000	 3.227409743977778e-001	 6.704772104468955e+000
1	 1.468328201130414e+000	 3.377198716573617e-001	 6.133869496884775e+000
1	 1.464800242817900e+000	 3.527075097528448e-001	 5.578626727249619e+000
1	 1.461108459031100e+000	 3.677014170200944e-001	 5.039550247305811e+000
1	 1.457252069598216e+000	 3.826990910204532e-001	 4.517135241356940e+000
1	 1.453230341745015e+000	 3.976979995243009e-001	 4.011864881436090e+000
1	 1.449042591183444e+000	 4.126955815370016e-001	 3.524209582345474e+000
1	 1.444688183176903e+000	 4.276892483668440e-001	 3.054626257868645e+000
1	 1.440166533580434e+000	 4.426763847345017e-001	 2.603557579488353e+000
1	 1.484476508348123e+000	 2.941146604399786e-001	 7.762855686246335e+000
1	 1.481421431066978e+000	 3.091349509169256e-001	 7.163530290674729e+000
1	 1.478204428757018e+000	 3.241688896323617e-001	 6.578856224571067e+000
1	 1.474824581741826e+000	 3.392140585999710e-001	 6.009367998519795e+000
1	 1.471281014548694e+000	 3.542680070758498e-001	 5.455589752148879e+000
1	 1.467572897061949e+000	 3.693282524603908e-001	 4.918034492354870e+000
1	 1.463699445658044e+000	 3.843922812433036e-001	 4.397203329500004e+000
1	 1.459659924320704e+000	 3.994575499915312e-001	 3.893584712867232e+000
1	 1.455453645734352e+000	 4.145214863797339e-001	 3.407653666693453e+000
1	 1.451079972354095e+000	 4.295814902629558e-001	 2.939871028137565e+000
1	 1.446538317450518e+000	 4.446349347909926e-001	 2.490682688570302e+000
1	 1.491015404245248e+000	 2.954101913121023e-001	 7.636284747291834e+000
1	 1.487946869808157e+000	 3.104966439111703e-001	 7.038489026864202e+000
1	 1.484715697086819e+000	 3.255968048671096e-001	 6.455371539482044e+000
1	 1.481320962353781e+000	 3.407082455427425e-001	 5.887474890623317e+000
1	 1.477761786280008e+000	 3.558285043990112e-001	 5.335330640158665e+000
1	 1.474037335093288e+000	 3.709550879008343e-001	 4.799458517129875e+000
1	 1.470146821718332e+000	 3.860854714662914e-001	 4.280365633193334e+000
1	 1.466089506896819e+000	 4.012171004588888e-001	 3.778545696075390e+000
1	 1.461864700285650e+000	 4.163473912225856e-001	 3.294478224423842e+000
1	 1.457471761531642e+000	 4.314737321591827e-001	 2.828627765472747e+000
1	 1.452910101320921e+000	 4.465934848476001e-001	 2.381443116970198e+000
1	 1.497554300143043e+000	 2.967057221843249e-001	 7.511741353689056e+000
1	 1.494472308549981e+000	 3.118583369055215e-001	 6.915668015578922e+000
1	 1.491226965417235e+000	 3.270247201019672e-001	 6.334290583903829e+000
1	 1.487817342966315e+000	 3.422024324856235e-001	 5.768160094744366e+000
1	 1.484242558011860e+000	 3.573890017222800e-001	 5.217815777744455e+000
1	 1.480501773125123e+000	 3.725819233413825e-001	 4.683784244978349e+000
1	 1.476594197779069e+000	 3.877786616893817e-001	 4.166578679269627e+000
1	 1.472519089473338e+000	 4.029766509263497e-001	 3.666698023379392e+000
1	 1.468275754837306e+000	 4.181732960655446e-001	 3.184626171516340e+000
1	 1.463863550709501e+000	 4.333659740555259e-001	 2.720831164656397e+000
1	 1.459281885191594e+000	 4.485520349043394e-001	 2.275764391188794e+000
1	 1.504093196041590e+000	 2.980012530565968e-001	 7.389200963007616e+000
1	 1.500997747292520e+000	 3.132200298999261e-001	 6.795041937653564e+000
1	 1.497738233748321e+000	 3.284526353368806e-001	 6.215586370149196e+000
1	 1.494313723579467e+000	 3.436966194285618e-001	 5.651394055484589e+000
1	 1.490723329744274e+000	 3.589494990456078e-001	 5.103012135898298e+000
1	 1.486966211157460e+000	 3.742087587819934e-001	 4.570974261386077e+000
1	 1.483041573840250e+000	 3.894718519125411e-001	 4.055799750543309e+000
1	 1.478948672050239e+000	 4.047362013938897e-001	 3.557992753234421e+000
1	 1.474686809389286e+000	 4.199992009085986e-001	 3.078041416619845e+000
1	 1.470255339887630e+000	 4.352582159519864e-001	 2.616417056103047e+000
1	 1.465653669062488e+000	 4.505105849612260e-001	 2.173573332791900e+000
1	 1.401935830369417e+000	 4.309250843971382e-001	 3.361489741275291e+000
1	 1.397370891871779e+000	 4.455054438681575e-001	 2.919621053015087e+000
1	 1.392642163666725e+000	 4.600742800983028e-001	 2.494491621960471e+000
1	 1.387749228559429e+000	 4.746289751037728e-001	 2.086434370682401e+000
1	 1.382691722374954e+000	 4.891668896682116e-001	 1.695791333574693e+000
1	 1.377469334826162e+000	 5.036853646155344e-001	 1.322913649009039e+000
1	 1.372081810347265e+000	 5.181817221189332e-001	 9.681615310514081e-001
1	 1.366528948891380e+000	 5.326532670450713e-001	 6.319042201358617e-001
1	 1.360810606690540e+000	 5.470972883323950e-001	 3.145199121287076e-001
1	 1.354926696976586e+000	 5.615110604024198e-001	 1.639566525757416e-002
1	 1.348877190661454e+000	 5.758918446027711e-001	-2.620727155760301e-001
1	 1.408307614236544e+000	 4.328836344532539e-001	 3.225162742321199e+000
1	 1.403721928140800e+000	 4.475302615075406e-001	 2.784459145374285e+000
1	 1.398971707915128e+000	 4.621653129479083e-001	 2.360845117208846e+000
1	 1.394056534468547e+000	 4.767861588918578e-001	 1.954663014882790e+000
1	 1.388976041970940e+000	 4.913901481278337e-001	 1.566261426881571e+000
1	 1.383729918724911e+000	 5.059746093938343e-001	 1.195995105675623e+000
1	 1.378317908003116e+000	 5.205368526923688e-001	 8.442248837497789e-001
1	 1.372739808849457e+000	 5.350741706407586e-001	 5.113175726950437e-001
1	 1.366995476842530e+000	 5.495838398557151e-001	 1.976458449851195e-001
1	 1.361084824819811e+000	 5.640631223710400e-001	-9.641190190519203e-002
1	 1.355007823561020e+000	 5.785092670872235e-001	-3.704716993451532e-001
1	 1.414679398104287e+000	 4.348421845093938e-001	 3.092946766854976e+000
1	 1.410072964410428e+000	 4.495550791468633e-001	 2.653574733466122e+000
1	 1.405301252164111e+000	 4.642563457973713e-001	 2.231614976206791e+000
1	 1.400363840378210e+000	 4.789433426797219e-001	 1.827420934837071e+000
1	 1.395260361567427e+000	 4.936134065871611e-001	 1.441349726268384e+000
1	 1.389990502624114e+000	 5.082638541717731e-001	 1.073762019897044e+000
1	 1.384554005659376e+000	 5.228919832653841e-001	 7.250218997989154e-001
1	 1.378950668807896e+000	 5.374950742359759e-001	 3.954967135558815e-001
1	 1.373180346994846e+000	 5.520703913785263e-001	 8.555690751150423e-002
1	 1.367242952663334e+000	 5.666151843391242e-001	-2.044241517167728e-001
1	 1.361138456460870e+000	 5.811266895711268e-001	-4.740703696102194e-001
1	 1.421051181972596e+000	 4.368007345655731e-001	 2.964758938842154e+000
1	 1.416424000680605e+000	 4.515798967861565e-001	 2.526875872236288e+000
1	 1.411630796413619e+000	 4.663473786467382e-001	 2.106703497501435e+000
1	 1.406671146288361e+000	 4.811005264674270e-001	 1.704607968228683e+000
1	 1.401544681164364e+000	 4.958366650462715e-001	 1.320956883943768e+000
1	 1.396251086523720e+000	 5.105530989494411e-001	 9.561191105654144e-001
1	 1.390790103315994e+000	 5.252471138380813e-001	 6.104645905968953e-001
1	 1.385161528766653e+000	 5.399159778308346e-001	 2.843641429860547e-001
1	 1.379365217147443e+000	 5.545569429009455e-001	-2.181074738638852e-002
1	 1.373401080507109e+000	 5.691672463067921e-001	-3.076881506059558e-001
1	 1.367269089360954e+000	 5.837441120545979e-001	-5.728959229994303e-001
1	 1.427422965841425e+000	 4.387592846218074e-001	 2.840517862029709e+000
1	 1.422775036951282e+000	 4.536047144254504e-001	 2.404272258342325e+000
1	 1.417960340663596e+000	 4.684384114960553e-001	 1.986014724134090e+000
1	 1.412978452198947e+000	 4.832577102550353e-001	 1.586125741174727e+000
1	 1.407829000761696e+000	 4.980599235052413e-001	 1.204985326006247e+000
1	 1.402511670423681e+000	 5.128423437269288e-001	 8.429727978507360e-001
1	 1.397026200972924e+000	 5.276022444105624e-001	 5.004665386093427e-001
1	 1.391372388725682e+000	 5.423368814254453e-001	 1.778437450382345e-001
1	 1.385550087300275e+000	 5.570434944230900e-001	-1.245198267905322e-001
1	 1.379559208351090e+000	 5.717193082741620e-001	-4.062501246138097e-001
1	 1.373399722261223e+000	 5.863615345377534e-001	-6.669750705355294e-001
1	 1.433794749710720e+000	 4.407178346781115e-001	 2.720143587065056e+000
1	 1.429126073222402e+000	 4.556295320647760e-001	 2.285675193674722e+000
1	 1.424289884913989e+000	 4.705294443453696e-001	 1.869454404877651e+000
1	 1.419285758109915e+000	 4.854148940426089e-001	 1.471877628487041e+000
1	 1.414113320359371e+000	 5.002831819641476e-001	 1.093339213028529e+000
1	 1.408772254323946e+000	 5.151315885043268e-001	 7.342311653984058e-001
1	 1.403262298630117e+000	 5.299573749829295e-001	 3.949428624602128e-001
1	 1.397583248684935e+000	 5.447577850199196e-001	 7.586075680232361e-002
1	 1.391734957453297e+000	 5.595300459450763e-001	-2.226319231016087e-001
1	 1.385717336195230e+000	 5.742713702413534e-001	-5.001554780671280e-001
1	 1.379530355161627e+000	 5.889789570207107e-001	-7.563340484259273e-001
1	 1.440166533580434e+000	 4.426763847345017e-001	 2.603557579488353e+000
1	 1.435477109493914e+000	 4.576543497041642e-001	 2.170997549846265e+000
1	 1.430619429164743e+000	 4.726204771947272e-001	 1.756929956502723e+000
1	 1.425593064021210e+000	 4.875720778302098e-001	 1.361768714987942e+000
1	 1.420397639957336e+000	 5.025064404230675e-001	 9.859244016878473e-001
1	 1.415032838224463e+000	 5.174208332817257e-001	 6.298039235302254e-001
1	 1.409498396287527e+000	 5.323125055552848e-001	 2.938101829493693e-001
1	 1.403794108644368e+000	 5.471786886143681e-001	-2.165826152592529e-002
1	 1.397919827606464e+000	 5.620165974670217e-001	-3.162075386977765e-001
1	 1.391875464039482e+000	 5.768234322084858e-001	-5.894488117562005e-001
1	 1.385660988062116e+000	 5.915963795035859e-001	-8.409986285663758e-001
1	 1.446538317450518e+000	 4.446349347909926e-001	 2.490682688570302e+000
1	 1.441828145765765e+000	 4.596791673436457e-001	 2.060153733620197e+000
1	 1.436948973415803e+000	 4.747115100441747e-001	 1.648350427041334e+000
1	 1.431900369932776e+000	 4.897292616179004e-001	 1.255705757848525e+000
1	 1.426681959555538e+000	 5.047296988820778e-001	 8.826484074104974e-001
1	 1.421293422125183e+000	 5.197100780592155e-001	 5.296023734181320e-001
1	 1.415734493945104e+000	 5.346676361277298e-001	 1.969865899681567e-001
1	 1.410004968603934e+000	 5.495995922089024e-001	-1.147854557854827e-001
1	 1.404104697759729e+000	 5.645031489890430e-001	-4.053061099414574e-001
1	 1.398033591883801e+000	 5.793754941756774e-001	-6.741739406320509e-001
1	 1.391791620962641e+000	 5.942138019864963e-001	-9.209941287671268e-001
1	 1.452910101320921e+000	 4.465934848476001e-001	 2.381443116970198e+000
1	 1.448179182037901e+000	 4.617039849832513e-001	 1.953059653247779e+000
1	 1.443278517667114e+000	 4.768025428937587e-001	 1.543626460016986e+000
1	 1.438207675844560e+000	 4.918864454057426e-001	 1.153597149917939e+000
1	 1.432966279153926e+000	 5.069529573412555e-001	 7.834203679992647e-001
1	 1.427554006026055e+000	 5.219993228368872e-001	 4.335393722003958e-001
1	 1.421970591602801e+000	 5.370227667003673e-001	 1.043916102857322e-001
1	 1.416215828563587e+000	 5.520204958036332e-001	-2.035917062236813e-001
1	 1.410289567913049e+000	 5.669897005112574e-001	-4.899860305547777e-001
1	 1.404191719728141e+000	 5.819275561430481e-001	-7.543739110380835e-001
1	 1.397922253863151e+000	 5.968312244695583e-001	-9.963454227098881e-001
1	 1.459281885191594e+000	 4.485520349043394e-001	 2.275764391188794e+000
1	 1.454530218310268e+000	 4.637288026230114e-001	 1.849632685687942e+000
1	 1.449608061918620e+000	 4.788935757435255e-001	 1.442670259611962e+000
1	 1.444514981756508e+000	 4.940436291937986e-001	 1.055352884013194e+000
1	 1.439250598752446e+000	 5.091762158006776e-001	 6.881510082138179e-001
1	 1.433814589927030e+000	 5.242885676148311e-001	 3.415292990120086e-001
1	 1.428206689260569e+000	 5.393778972732990e-001	 1.594617617914295e-002
1	 1.422426688523280e+000	 5.544413993986719e-001	-2.881466551265230e-001
1	 1.416474438066377e+000	 5.694762520337816e-001	-5.703046743823098e-001
1	 1.410349847572454e+000	 5.844796181107167e-001	-8.300910174902771e-001
1	 1.404052886763597e+000	 5.994486469528891e-001	-1.067076949644085e+000
1	 1.465653669062488e+000	 4.505105849612260e-001	 2.173573332791900e+000
1	 1.460881254582814e+000	 4.657536202629573e-001	 1.749791644681810e+000
1	 1.455937606170270e+000	 4.809846085935220e-001	 1.345395556743327e+000
1	 1.450822287668566e+000	 4.962008129821307e-001	 9.608845181407658e-001
1	 1.445534918351047e+000	 5.113994742604213e-001	 5.967526052749246e-001
1	 1.440075173828056e+000	 5.265778123931375e-001	 2.534880219007786e-001
1	 1.434442786918362e+000	 5.417330278466270e-001	-6.842740511818683e-002
1	 1.428637548482970e+000	 5.568623029941296e-001	-3.685187337282710e-001
1	 1.422659308219669e+000	 5.719628035567329e-001	-6.463184175601776e-001
1	 1.416507975416695e+000	 5.870316800788020e-001	-9.013668190196080e-001
1	 1.410183519663929e+000	 6.020660694366057e-001	-1.133212723830028e+000
1	 1.348877190661454e+000	 5.758918446027711e-001	-2.620727155760295e-001
1	 1.342663061776438e+000	 5.902347419688698e-001	-5.359699467238384e-001
1	 1.336283504332451e+000	 6.045391535541665e-001	-8.198813911530725e-001
1	 1.329738666902602e+000	 6.188023124455790e-001	-1.112508026400960e+000
1	 1.323028757985271e+000	 6.330214447531308e-001	-1.412516114720817e+000
1	 1.316154046458454e+000	 6.471937711893181e-001	-1.718538685184451e+000
1	 1.309114861985428e+000	 6.613165086713273e-001	-2.029177092653946e+000
1	 1.301911595370601e+000	 6.753868719443946e-001	-2.343002651755942e+000
1	 1.294544698864472e+000	 6.894020752245478e-001	-2.658558343775763e+000
1	 1.287014686416663e+000	 7.033593338589054e-001	-2.974360594175155e+000
1	 1.279322133876119e+000	 7.172558660016536e-001	-3.288901118226251e+000
1	 1.355007823561020e+000	 5.785092670872235e-001	-3.704716993451532e-001
1	 1.348765451524407e+000	 5.929173527739513e-001	-6.395867934838962e-001
1	 1.342356899057681e+000	 6.072867777624577e-001	-9.183019997559292e-001
1	 1.335782315409221e+000	 6.216147625640550e-001	-1.205321702161809e+000
1	 1.329041910025039e+000	 6.358985206814514e-001	-1.499316554993469e+000
1	 1.322135953005187e+000	 6.501352601952950e-001	-1.798924986840837e+000
1	 1.315064775511268e+000	 6.643221853736749e-001	-2.102754780253021e+000
1	 1.307828770123901e+000	 6.784564983028588e-001	-2.409384725120065e+000
1	 1.300428391149066e+000	 6.925354005374994e-001	-2.717366343627156e+000
1	 1.292864154872291e+000	 7.065560947684821e-001	-3.025225684420648e+000
1	 1.285136639759758e+000	 7.205157865065180e-001	-3.331465183417751e+000
1	 1.361138456460870e+000	 5.811266895711268e-001	-4.740703696102184e-001
1	 1.354867841272664e+000	 5.955999635784846e-001	-7.383916787685616e-001
1	 1.348430293783214e+000	 6.100344019702138e-001	-1.011885899511883e+000
1	 1.341825963916171e+000	 6.244272126820184e-001	-1.293265070473296e+000
1	 1.335055062065178e+000	 6.387755966092875e-001	-1.581208970205084e+000
1	 1.328117859552339e+000	 6.530767492008194e-001	-1.874366641333549e+000
1	 1.321014689037577e+000	 6.673278620756021e-001	-2.171357988263270e+000
1	 1.313745944877724e+000	 6.815261246609314e-001	-2.470775446420628e+000
1	 1.306312083434239e+000	 6.956687258500838e-001	-2.771185720815714e+000
1	 1.298713623328551e+000	 7.097528556777062e-001	-3.071131591493625e+000
1	 1.290951145644077e+000	 7.237757070110322e-001	-3.369133783243068e+000
1	 1.367269089360954e+000	 5.837441120545979e-001	-5.728959229994313e-001
1	 1.360970231021149e+000	 5.982825743825796e-001	-8.323926144518176e-001
1	 1.354503688508985e+000	 6.127820261775336e-001	-1.100626308159245e+000
1	 1.347869612423378e+000	 6.272396627995539e-001	-1.376320890290971e+000
1	 1.341068214105600e+000	 6.416526725367080e-001	-1.658169936302477e+000
1	 1.334099766099807e+000	 6.560182382059423e-001	-1.944838253492501e+000
1	 1.326964602564244e+000	 6.703335387771426e-001	-2.234963494120199e+000
1	 1.319663119631949e+000	 6.845957510186308e-001	-2.527157836986909e+000
1	 1.312195775719856e+000	 6.988020511623030e-001	-2.820009735181729e+000
1	 1.304563091785300e+000	 7.129496165865686e-001	-3.112085727489357e+000
1	 1.296765651528928e+000	 7.270356275151803e-001	-3.401932310760016e+000
1	 1.373399722261223e+000	 5.863615345377534e-001	-6.669750705355301e-001
1	 1.367072620769810e+000	 6.009651851863458e-001	-9.215974693526785e-001
1	 1.360577083234930e+000	 6.155296503845165e-001	-1.184516564535591e+000
1	 1.353913260930768e+000	 6.300521129167457e-001	-1.454472228414749e+000
1	 1.347081366146221e+000	 6.445297484637816e-001	-1.730176447476546e+000
1	 1.340081672647496e+000	 6.589597272107155e-001	-2.010314881586554e+000
1	 1.332914516091158e+000	 6.733392154783306e-001	-2.293548489905508e+000
1	 1.325580294386450e+000	 6.876653773759736e-001	-2.578515221307432e+000
1	 1.318079468005786e+000	 7.019353764741605e-001	-2.863831766912697e+000
1	 1.310412560242396e+000	 7.161463774950609e-001	-3.148095372156496e+000
1	 1.302580157414160e+000	 7.302955480189453e-001	-3.429885705624051e+000
1	 1.379530355161627e+000	 5.889789570207107e-001	-7.563340484259268e-001
1	 1.373175010518588e+000	 6.036477959898938e-001	-1.006013972413757e+000
1	 1.366650477960983e+000	 6.182772745912598e-001	-1.263550125886919e+000
1	 1.359956909438264e+000	 6.328645630336793e-001	-1.527702452648694e+000
1	 1.353094518186951e+000	 6.474068243905763e-001	-1.797205906868927e+000
1	 1.346063579195304e+000	 6.619012162151902e-001	-2.070772027248193e+000
1	 1.338864429618206e+000	 6.763448921792001e-001	-2.347090573133851e+000
1	 1.331497469141105e+000	 6.907350037329777e-001	-2.624831220293955e+000
1	 1.323963160291892e+000	 7.050687017856593e-001	-2.902645313869013e+000
1	 1.316262028699694e+000	 7.193431384031742e-001	-3.179167675838611e+000
1	 1.308394663299624e+000	 7.335554685223119e-001	-3.453018464162599e+000
1	 1.385660988062116e+000	 5.915963795035859e-001	-8.409986285663763e-001
1	 1.379277400267429e+000	 6.063304067933328e-001	-1.085649715795433e+000
1	 1.372723872687082e+000	 6.210248987978638e-001	-1.337720565248313e+000
1	 1.366000557945791e+000	 6.356770131504382e-001	-1.595995225142207e+000
1	 1.359107670227705e+000	 6.502839003171606e-001	-1.859236117525206e+000
1	 1.352045485743133e+000	 6.648427052194170e-001	-2.126185625665385e+000
1	 1.344814343145278e+000	 6.793505688797844e-001	-2.395567737783612e+000
1	 1.337414643895790e+000	 6.938046300896604e-001	-2.666089744723860e+000
1	 1.329846852578039e+000	 7.082020270968021e-001	-2.936443988981081e+000
1	 1.322111497157053e+000	 7.225398993108999e-001	-3.205309662336003e+000
1	 1.314209169185171e+000	 7.368153890252628e-001	-3.471354649182367e+000
1	 1.391791620962641e+000	 5.942138019864963e-001	-9.209941287671268e-001
1	 1.385379790016275e+000	 6.090130175967728e-001	-1.160512157888586e+000
1	 1.378797267413160e+000	 6.237725230044265e-001	-1.407021568893668e+000
1	 1.372044206453275e+000	 6.384894632671082e-001	-1.659334495907170e+000
1	 1.365120822268397e+000	 6.531609762436034e-001	-1.916245273587237e+000
1	 1.358027392290884e+000	 6.677841942234478e-001	-2.176532036032881e+000
1	 1.350764256672261e+000	 6.823562455801177e-001	-2.438958365565292e+000
1	 1.343331818650383e+000	 6.968742564460391e-001	-2.702274988856094e+000
1	 1.335730544864097e+000	 7.113353524075916e-001	-2.965221517714626e+000
1	 1.327960965614328e+000	 7.257366602182296e-001	-3.226528231693251e+000
1	 1.320023675070649e+000	 7.400753095277823e-001	-3.484917899517261e+000
1	 1.397922253863151e+000	 5.968312244695583e-001	-9.963454227098894e-001
1	 1.391482179765073e+000	 6.116956284003237e-001	-1.230608626247596e+000
1	 1.384870662139153e+000	 6.265201472110472e-001	-1.471446933852485e+000
1	 1.378087854960640e+000	 6.413019133837734e-001	-1.717704496505800e+000
1	 1.371133974308938e+000	 6.560380521699728e-001	-1.968211951717326e+000
1	 1.364009298838458e+000	 6.707256832273331e-001	-2.221788032254532e+000
1	 1.356714170199044e+000	 6.853619222802337e-001	-2.477241217419274e+000
1	 1.349248993404759e+000	 6.999438828021314e-001	-2.733371424214880e+000
1	 1.341614237149928e+000	 7.144686777180310e-001	-2.988971735603220e+000
1	 1.333810434071377e+000	 7.289334211251541e-001	-3.242830162912586e+000
1	 1.325838180955911e+000	 7.433352300298545e-001	-3.493731439325098e+000
1	 1.404052886763597e+000	 5.994486469528891e-001	-1.067076949644084e+000
1	 1.397584569513765e+000	 6.143782392040952e-001	-1.295946320446845e+000
1	 1.390944056864996e+000	 6.292677714178239e-001	-1.530990565492034e+000
1	 1.384131503467812e+000	 6.441143635005187e-001	-1.771089733903849e+000
1	 1.377147126349243e+000	 6.589151280963376e-001	-2.015115102746953e+000
1	 1.369991205385755e+000	 6.736671722311245e-001	-2.261930793889523e+000
1	 1.362664083725515e+000	 6.883675989801661e-001	-2.510395425236394e+000
1	 1.355166168158795e+000	 7.030135091579541e-001	-2.759363793536636e+000
1	 1.347497929435399e+000	 7.176020030281235e-001	-3.007688585845098e+000
1	 1.339659902528057e+000	 7.321301820316656e-001	-3.254222116596523e+000
1	 1.331652686840806e+000	 7.465951505314625e-001	-3.497818087140713e+000
1	 1.410183519663929e+000	 6.020660694366057e-001	-1.133212723830029e+000
1	 1.403686959262296e+000	 6.170608500081971e-001	-1.356532314862595e+000
1	 1.397017451590627e+000	 6.320153956248561e-001	-1.585646475162162e+000
1	 1.390175151974715e+000	 6.469268136174284e-001	-1.819474984484003e+000
1	 1.383160278389224e+000	 6.617922040227658e-001	-2.056934043543435e+000
1	 1.375973111932677e+000	 6.766086612348735e-001	-2.296937897334393e+000
1	 1.368613997251564e+000	 6.913732756799494e-001	-2.538400483794569e+000
1	 1.361083342912368e+000	 7.060831355135255e-001	-2.780237104874518e+000
1	 1.353381621720377e+000	 7.207353283378716e-001	-3.021366116962811e+000
1	 1.345509370984224e+000	 7.353269429377547e-001	-3.260710637521326e+000
1	 1.337467192725185e+000	 7.498550710325906e-001	-3.497200264693003e+000
1	 1.279322133876119e+000	 7.172558660016536e-001	-3.288901118226250e+000
1	 1.271466488913099e+000	 7.310909646953697e-001	-3.610836361335781e+000
1	 1.263449594561992e+000	 7.448597689014561e-001	-3.949688535935319e+000
1	 1.255272214413711e+000	 7.585595149683920e-001	-4.305386690556547e+000
1	 1.246935174241497e+000	 7.721874489079046e-001	-4.677879965597918e+000
1	 1.238439361924098e+000	 7.857408281201320e-001	-5.067137620144520e+000
1	 1.229785727312124e+000	 7.992169231221942e-001	-5.473149013682915e+000
1	 1.220975282037234e+000	 8.126130192780127e-001	-5.895923542290147e+000
1	 1.212009099263907e+000	 8.259264185271869e-001	-6.335490528996557e+000
1	 1.202888313383635e+000	 8.391544411107291e-001	-6.791899068141393e+000
1	 1.193614119651469e+000	 8.522944272914291e-001	-7.265217823664490e+000
1	 1.285136639759758e+000	 7.205157865065180e-001	-3.331465183417754e+000
1	 1.277245290971400e+000	 7.344137655810575e-001	-3.644946960193610e+000
1	 1.269191959918177e+000	 7.482451488601338e-001	-3.975407810230665e+000
1	 1.260977413661517e+000	 7.620071601314624e-001	-4.322796043563371e+000
1	 1.252602481727787e+000	 7.756970328899256e-001	-4.687077567533770e+000
1	 1.244068056031136e+000	 7.893120120705770e-001	-5.068235864058122e+000
1	 1.235375090739231e+000	 8.028493557850693e-001	-5.466271925849377e+000
1	 1.226524602081588e+000	 8.163063370593355e-001	-5.881204151316013e+000
1	 1.217517668100205e+000	 8.296802455703223e-001	-6.313068197966845e+000
1	 1.208355428342368e+000	 8.429683893795678e-001	-6.761916794263338e+000
1	 1.199039083495551e+000	 8.561680966613903e-001	-7.227819509973623e+000
1	 1.290951145644077e+000	 7.237757070110322e-001	-3.369133783243068e+000
1	 1.283024093030423e+000	 7.377365664663843e-001	-3.674247525585599e+000
1	 1.274934325275120e+000	 7.516305288184263e-001	-3.996405023653144e+000
1	 1.266682612910105e+000	 7.654548052941124e-001	-4.335571659207756e+000
1	 1.258269789214880e+000	 7.792066168714839e-001	-4.691727621348960e+000
1	 1.249696750138987e+000	 7.928831960205117e-001	-5.064867836417673e+000
1	 1.240964454167154e+000	 8.064817884473835e-001	-5.455001861479166e+000
1	 1.232073922126751e+000	 8.199996548400456e-001	-5.862153741246423e+000
1	 1.223026236937295e+000	 8.334340726127941e-001	-6.286361828402455e+000
1	 1.213822543301870e+000	 8.467823376476982e-001	-6.727678567383806e+000
1	 1.204464047340367e+000	 8.600417660306019e-001	-7.186170241785477e+000
1	 1.296765651528928e+000	 7.270356275151803e-001	-3.401932310760017e+000
1	 1.288802895090015e+000	 7.410593673513299e-001	-3.698782018556980e+000
1	 1.280676690632666e+000	 7.550159087763153e-001	-4.012740126580391e+000
1	 1.272387812159327e+000	 7.689024504563309e-001	-4.343786935257538e+000
1	 1.263937096702628e+000	 7.827162008525765e-001	-4.691914469487269e+000
1	 1.255325444247508e+000	 7.964543799699438e-001	-5.057126363352431e+000
1	 1.246553817595757e+000	 8.101142211091577e-001	-5.439437713593224e+000
1	 1.237623242172595e+000	 8.236929726201788e-001	-5.838874901842650e+000
1	 1.228534805775061e+000	 8.371878996546550e-001	-6.255475385712675e+000
1	 1.219289658262030e+000	 8.505962859151863e-001	-6.689287458908532e+000
1	 1.209889011185817e+000	 8.639154353991482e-001	-7.140369980636250e+000
1	 1.302580157414160e+000	 7.302955480189453e-001	-3.429885705624050e+000
1	 1.294581697150023e+000	 7.443821682358760e-001	-3.718593615212754e+000
1	 1.286419055990660e+000	 7.584012887337839e-001	-4.024471998954900e+000
1	 1.278093011409026e+000	 7.723500956181048e-001	-4.347513958937863e+000
1	 1.269604404190879e+000	 7.862257848331998e-001	-4.687720948428848e+000
1	 1.260954138356556e+000	 8.000255639188816e-001	-5.045102613549015e+000
1	 1.252143181024903e+000	 8.137466537704131e-001	-5.419676609443336e+000
1	 1.243172562218992e+000	 8.273862903997703e-001	-5.811468391090687e+000
1	 1.234043374613380e+000	 8.409417266959555e-001	-6.220510978969024e+000
1	 1.224756773222739e+000	 8.544102341821005e-001	-6.646844699868167e+000
1	 1.215313975031800e+000	 8.677891047671119e-001	-7.090516903214827e+000
1	 1.308394663299624e+000	 7.335554685223119e-001	-3.453018464162601e+000
1	 1.300360499210294e+000	 7.477049691200033e-001	-3.733724724159013e+000
1	 1.292161421348948e+000	 7.617866686908141e-001	-4.031658474069221e+000
1	 1.283798210659051e+000	 7.757977407794225e-001	-4.346823536051164e+000
1	 1.275271711679485e+000	 7.897353688133503e-001	-4.679228422152765e+000
1	 1.266582832465985e+000	 8.035967478673327e-001	-5.028886135079800e+000
1	 1.257732544454452e+000	 8.173790864311703e-001	-5.395813949748030e+000
1	 1.248721882265810e+000	 8.310796081788572e-001	-5.780033175903288e+000
1	 1.239551943452133e+000	 8.446955537367477e-001	-6.181568902152989e+000
1	 1.230223888183886e+000	 8.582241824485075e-001	-6.600449721811646e+000
1	 1.220738938878217e+000	 8.716627741345753e-001	-7.036707441022404e+000
1	 1.314209169185171e+000	 7.368153890252628e-001	-3.471354649182367e+000
1	 1.306139301270674e+000	 7.510277700036923e-001	-3.744217003481394e+000
1	 1.297903786707376e+000	 7.651720486473885e-001	-4.034356361719264e+000
1	 1.289503409909248e+000	 7.792453859402714e-001	-4.341785219324836e+000
1	 1.280939019168297e+000	 7.932449527930245e-001	-4.666516814711192e+000
1	 1.272211526575653e+000	 8.071679318153050e-001	-5.008564891253755e+000
1	 1.263321907884269e+000	 8.210115190914508e-001	-5.367943446886097e+000
1	 1.254271202312923e+000	 8.347729259574741e-001	-5.744666471741566e+000
1	 1.245060512291201e+000	 8.484493807770828e-001	-6.138747674308862e+000
1	 1.235691003145361e+000	 8.620381307144748e-001	-6.550200196613510e+000
1	 1.226163902724966e+000	 8.755364435016215e-001	-6.979036318978865e+000
1	 1.320023675070649e+000	 7.400753095277823e-001	-3.484917899517257e+000
1	 1.311918103331010e+000	 7.543505708869248e-001	-3.750111377274645e+000
1	 1.303646152065790e+000	 7.685574286034900e-001	-4.032621470746550e+000
1	 1.295208609159464e+000	 7.826930311006397e-001	-4.332467336008783e+000
1	 1.286606326657166e+000	 7.967545367722192e-001	-4.649664641942935e+000
1	 1.277840220685413e+000	 8.107391157628058e-001	-4.984225295519703e+000
1	 1.268911271314218e+000	 8.246439517512760e-001	-5.336157162081215e+000
1	 1.259820522360200e+000	 8.384662437356580e-001	-5.705463781189406e+000
1	 1.250569081130463e+000	 8.522032078170125e-001	-6.092144078635674e+000
1	 1.241158118107053e+000	 8.658520789800703e-001	-6.496192075229639e+000
1	 1.231588866571949e+000	 8.794101128683336e-001	-6.917596593009144e+000
1	 1.325838180955911e+000	 7.433352300298545e-001	-3.493731439325098e+000
1	 1.317696905391148e+000	 7.576733717696806e-001	-3.751448051737479e+000
1	 1.309388517424035e+000	 7.719428085591007e-001	-4.026508630986352e+000
1	 1.300913808409549e+000	 7.861406762605158e-001	-4.318937014747802e+000
1	 1.292273634145942e+000	 8.002641207509306e-001	-4.628749042351855e+000
1	 1.283468914795125e+000	 8.143102997098430e-001	-4.955952245451047e+000
1	 1.274500634744160e+000	 8.282763844106668e-001	-5.300545541607956e+000
1	 1.265369842407514e+000	 8.421595615134447e-001	-5.662518931512837e+000
1	 1.256077649969800e+000	 8.559570348565883e-001	-6.041853200549891e+000
1	 1.246625233068853e+000	 8.696660272453608e-001	-6.438519625433075e+000
1	 1.237013830419063e+000	 8.832837822347940e-001	-6.852479686640167e+000
1	 1.331652686840806e+000	 7.465951505314625e-001	-3.497818087140716e+000
1	 1.323475707450936e+000	 7.609961726519411e-001	-3.748266530845452e+000
1	 1.315130882781956e+000	 7.753281885142023e-001	-4.016071714641607e+000
1	 1.306619007659346e+000	 7.895883214198862e-001	-4.301260211749103e+000
1	 1.297940941634475e+000	 8.037737047291553e-001	-4.603845807177431e+000
1	 1.289097608904642e+000	 8.178814836564250e-001	-4.923829155840468e+000
1	 1.280089998173959e+000	 8.319088170696446e-001	-5.261197452049092e+000
1	 1.270919162454734e+000	 8.458528792908694e-001	-5.615924111235823e+000
1	 1.261586218809091e+000	 8.597108618958619e-001	-5.987968464751736e+000
1	 1.252092348030650e+000	 8.734799755104138e-001	-6.377275468560923e+000
1	 1.242438794266210e+000	 8.871574516010856e-001	-6.783775426639437e+000
1	 1.337467192725185e+000	 7.498550710325906e-001	-3.497200264693003e+000
1	 1.329254509510220e+000	 7.643189735336878e-001	-3.740605631615253e+000
1	 1.320873248139401e+000	 7.787135684687788e-001	-4.001363657098845e+000
1	 1.312324206908703e+000	 7.930359665787399e-001	-4.279501736267735e+000
1	 1.303608249122617e+000	 8.072832887068897e-001	-4.575029409679547e+000
1	 1.294726303013822e+000	 8.214526676025593e-001	-4.887937990930890e+000
1	 1.285679361603477e+000	 8.355412497282297e-001	-5.218200214633749e+000
1	 1.276468482501733e+000	 8.495461970679689e-001	-5.565769905761115e+000
1	 1.267094787648218e+000	 8.634646889348845e-001	-5.930581671323846e+000
1	 1.257559462992334e+000	 8.772939237752969e-001	-6.312550615303349e+000
1	 1.247863758113289e+000	 8.910311209672919e-001	-6.711572077723919e+000
1	 1.193614119651469e+000	 8.522944272914291e-001	-7.265217823664490e+000
1	 1.184187773428212e+000	 8.653437387781996e-001	-7.749240004263387e+000
1	 1.174610588701024e+000	 8.782997595461004e-001	-8.237999397963552e+000
1	 1.164883938575646e+000	 8.911598983624565e-001	-8.731962777650029e+000
1	 1.155009255025385e+000	 9.039215907491438e-001	-9.231626564671979e+000
1	 1.144988028244612e+000	 9.165823006445137e-001	-9.737515993356428e+000
1	 1.134821805946257e+000	 9.291395220466800e-001	-1.025018421502937e+001
1	 1.124512192603938e+000	 9.415907806359750e-001	-1.077021134311066e+001
1	 1.114060848639436e+000	 9.539336353744131e-001	-1.129820344100933e+001
1	 1.103469489556340e+000	 9.661656800800127e-001	-1.183479145470657e+001
1	 1.092739885020771e+000	 9.782845449738733e-001	-1.238063009207002e+001
1	 1.199039083495551e+000	 8.561680966613903e-001	-7.227819509973619e+000
1	 1.189569894626156e+000	 8.692767171336990e-001	-7.704600431343396e+000
1	 1.179949181693395e+000	 8.822916228817611e-001	-8.186325225544291e+000
1	 1.170178324043753e+000	 8.952102108957880e-001	-8.673461773856609e+000
1	 1.160258760158835e+000	 9.080299050421431e-001	-9.166508619873669e+000
1	 1.150191987005923e+000	 9.207481577328160e-001	-9.665994131644505e+000
1	 1.139979559332279e+000	 9.333624515761817e-001	-1.017247560135336e+001
1	 1.129623088903830e+000	 9.458703010068277e-001	-1.068653828409962e+001
1	 1.119124243688950e+000	 9.582692538922897e-001	-1.120879437750915e+001
1	 1.108484746988168e+000	 9.705568931145264e-001	-1.173988194407273e+001
1	 1.097706376510712e+000	 9.827308381240307e-001	-1.228046377826962e+001
1	 1.204464047340367e+000	 8.600417660306019e-001	-7.186170241785477e+000
1	 1.194952015824789e+000	 8.732096954884189e-001	-7.655705857179508e+000
1	 1.185287774686401e+000	 8.862834862166201e-001	-8.130398649420382e+000
1	 1.175472709512434e+000	 8.992605234283049e-001	-8.610715598081042e+000
1	 1.165508265292791e+000	 9.121382193343226e-001	-9.097155244235792e+000
1	 1.155395945767666e+000	 9.249140148203019e-001	-9.590246853118439e+000
1	 1.145137312718654e+000	 9.375853811048774e-001	-1.009054951256453e+001
1	 1.134733985203993e+000	 9.501498213768944e-001	-1.059865116879477e+001
1	 1.124187638738652e+000	 9.626048724094066e-001	-1.111516760126819e+001
1	 1.113500004420099e+000	 9.749481061483156e-001	-1.164074133850346e+001
1	 1.102672868000670e+000	 9.871771312735052e-001	-1.217604051693152e+001
1	 1.209889011185817e+000	 8.639154353991482e-001	-7.140369980636251e+000
1	 1.200334137024022e+000	 8.771426738424566e-001	-7.602651503933946e+000
1	 1.190626367679964e+000	 8.902753495507885e-001	-8.070309087130985e+000
1	 1.180767094981621e+000	 9.033108359601296e-001	-8.543806821175059e+000
1	 1.170757770427195e+000	 9.162465336258145e-001	-9.023641144125968e+000
1	 1.160599904529793e+000	 9.290798719071129e-001	-9.510340007196081e+000
1	 1.150295066105347e+000	 9.418083106329169e-001	-1.000446197503958e+001
1	 1.139844881504405e+000	 9.544293417463268e-001	-1.050659526183411e+001
1	 1.129251033788531e+000	 9.669404909259187e-001	-1.101735670487677e+001
1	 1.118515261852135e+000	 9.793393191815332e-001	-1.153739067758983e+001
1	 1.107639359490663e+000	 9.916234244224459e-001	-1.206736794399742e+001
1	 1.215313975031800e+000	 8.677891047671119e-001	-7.090516903214823e+000
1	 1.205716258223763e+000	 8.810756521959097e-001	-7.545530893544996e+000
1	 1.195964960674003e+000	 8.942672128843769e-001	-8.006144359635293e+000
1	 1.186061480451242e+000	 9.073611484913845e-001	-8.472816539660204e+000
1	 1.176007275561987e+000	 9.203548479167536e-001	-8.946039692004339e+000
1	 1.165803863292257e+000	 9.332457289933898e-001	-9.426338267532088e+000
1	 1.155452819492321e+000	 9.460312401604467e-001	-9.914268014786202e+000
1	 1.144955777805041e+000	 9.587088621152785e-001	-1.041041501964097e+001
1	 1.134314428838575e+000	 9.712761094419803e-001	-1.091539468111892e+001
1	 1.123530519284278e+000	 9.837305322143327e-001	-1.142985062525530e+001
1	 1.112605850980706e+000	 9.960697175710029e-001	-1.195445355906765e+001
1	 1.220738938878217e+000	 8.716627741345753e-001	-7.036707441022404e+000
1	 1.211098379423924e+000	 8.850086305488757e-001	-7.484435885506170e+000
1	 1.201303553668436e+000	 8.982590762174960e-001	-7.937990726788083e+000
1	 1.191355865921229e+000	 9.114114610221925e-001	-8.397824408487606e+000
1	 1.181256780697107e+000	 9.244631622072710e-001	-8.864422956063716e+000
1	 1.171007822055010e+000	 9.374115860792748e-001	-9.338305158143484e+000
1	 1.160610572879540e+000	 9.502541696876151e-001	-9.820021679670898e+000
1	 1.150066674105876e+000	 9.629883824839004e-001	-1.031015410838289e+001
1	 1.139377823888773e+000	 9.756117279577450e-001	-1.080931393630035e+001
1	 1.128545776716530e+000	 9.881217452468674e-001	-1.131814147810282e+001
1	 1.117572342470817e+000	 1.000516010719327e+000	-1.183730472843157e+001
1	 1.226163902724966e+000	 8.755364435016215e-001	-6.979036318978865e+000
1	 1.216480500624413e+000	 8.889416089014518e-001	-7.419456713642028e+000
1	 1.206642146663185e+000	 9.022509395502558e-001	-7.865932921874375e+000
1	 1.196650251391511e+000	 9.154617735526760e-001	-8.318908672927613e+000
1	 1.186506285832498e+000	 9.285714764975006e-001	-8.778861729081861e+000
1	 1.176211780818002e+000	 9.415774431649091e-001	-9.246303078841470e+000
1	 1.165768326266968e+000	 9.544770992145705e-001	-9.721776061057197e+000
1	 1.155177570406885e+000	 9.672679028523454e-001	-1.020585542145286e+001
1	 1.144441218939113e+000	 9.799473464733667e-001	-1.069914630322213e+001
1	 1.133561034148893e+000	 9.925129582792911e-001	-1.120228317354030e+001
1	 1.122538833961011e+000	 1.004962303867566e+000	-1.171592868801542e+001
1	 1.231588866571949e+000	 8.794101128683336e-001	-6.917596593009143e+000
1	 1.221862621825139e+000	 8.928745872537349e-001	-7.350682021912737e+000
1	 1.211980739658170e+000	 9.062428028827684e-001	-7.790054185230630e+000
1	 1.201944636862018e+000	 9.195120860829577e-001	-8.236146199617108e+000
1	 1.191755790968099e+000	 9.326797907875748e-001	-8.689425556511496e+000
1	 1.181415739581187e+000	 9.457433002504337e-001	-9.150393329991776e+000
1	 1.170926079654566e+000	 9.587000287414601e-001	-9.619583314872351e+000
1	 1.160288466708044e+000	 9.715474232207657e-001	-1.009756109648954e+001
1	 1.149504613989583e+000	 9.842829649890003e-001	-1.058492305381217e+001
1	 1.138576291581370e+000	 9.969041713117569e-001	-1.108229529769201e+001
1	 1.127505325451305e+000	 1.009408597015872e+000	-1.159033254625454e+001
1	 1.237013830419063e+000	 8.832837822347940e-001	-6.852479686640167e+000
1	 1.227244743026015e+000	 8.968075656058232e-001	-7.278198899275721e+000
1	 1.217319332653310e+000	 9.102346662151432e-001	-7.710436296981812e+000
1	 1.207239022332682e+000	 9.235623986131606e-001	-8.149612506790092e+000
1	 1.197005296103852e+000	 9.367881050776268e-001	-8.596182763831418e+000
1	 1.186619698344515e+000	 9.499091573359905e-001	-9.050636136622266e+000
1	 1.176083833042299e+000	 9.629229582684320e-001	-9.513494682118706e+000
1	 1.165399363009330e+000	 9.758269435893137e-001	-9.985312531949115e+000
1	 1.154568009040171e+000	 9.886185835047997e-001	-1.046667491142319e+001
1	 1.143591549013961e+000	 1.001295384344419e+000	-1.095819709310124e+001
1	 1.132471816941716e+000	 1.013854890164394e+000	-1.146052328688842e+001
1	 1.242438794266210e+000	 8.871574516010856e-001	-6.783775426639435e+000
1	 1.232626864226947e+000	 9.007405439578134e-001	-7.202092913634640e+000
1	 1.222657925648524e+000	 9.142265295474914e-001	-7.627159608920982e+000
1	 1.212533407803432e+000	 9.276127111434063e-001	-8.059381793715465e+000
1	 1.202254801239697e+000	 9.408964193677896e-001	-8.499200483180980e+000
1	 1.191823657107940e+000	 9.540750144217212e-001	-8.947090671899945e+000
1	 1.181241586430130e+000	 9.671458877956344e-001	-9.403560508848676e+000
1	 1.170510259310717e+000	 9.801064639581415e-001	-9.869150403242982e+000
1	 1.159631404090867e+000	 9.929542020209187e-001	-1.034443206280985e+001
1	 1.148606806446670e+000	 1.005686597377430e+000	-1.083000746623140e+001
1	 1.137438308432261e+000	 1.018301183313283e+000	-1.132650777168304e+001
1	 1.247863758113289e+000	 8.910311209672919e-001	-6.711572077723919e+000
1	 1.238008985427848e+000	 9.046735223098030e-001	-7.122448144902513e+000
1	 1.227996518643735e+000	 9.182183928799237e-001	-7.540303075556406e+000
1	 1.217827793274197e+000	 9.316630236738184e-001	-7.965526969367522e+000
1	 1.207504306375576e+000	 9.450047336581960e-001	-8.398544679299379e+000
1	 1.197027615871412e+000	 9.582408715077666e-001	-8.839815079995294e+000
1	 1.186399339818024e+000	 9.713688173232155e-001	-9.289830265618178e+000
1	 1.175621155612181e+000	 9.843859843274009e-001	-9.749114678454507e+000
1	 1.164694799141658e+000	 9.972898205375118e-001	-1.021822416979231e+001
1	 1.153622063879497e+000	 1.010077810410943e+000	-1.069774499477113e+001
1	 1.142404799922955e+000	 1.022747476462686e+000	-1.118829274308244e+001
1	 1.092739885020771e+000	 9.782845449738733e-001	-1.238063009207002e+001
1	 1.081875498010749e+000	 9.902861067161902e-001	-1.292640836686110e+001
1	 1.070876604467505e+000	 1.002169900948811e+000	-1.346274195912773e+001
1	 1.059745130581474e+000	 1.013933678039448e+000	-1.398994415140060e+001
1	 1.048483052470228e+000	 1.025575230629225e+000	-1.450832710115116e+001
1	 1.037092395011246e+000	 1.037092395011246e+000	-1.501820169141267e+001
1	 1.025575230629225e+000	 1.048483052470228e+000	-1.551987738805716e+001
1	 1.013933678039448e+000	 1.059745130581474e+000	-1.601366210385589e+001
1	 1.002169900948811e+000	 1.070876604467505e+000	-1.649986206943384e+001
1	 9.902861067161898e-001	 1.081875498010748e+000	-1.697878171120457e+001
1	 9.782845449738733e-001	 1.092739885020771e+000	-1.745072353635336e+001
1	 1.097706376510712e+000	 9.827308381240307e-001	-1.228046377826961e+001
1	 1.086792610973798e+000	 9.947869468404698e-001	-1.282109325340976e+001
1	 1.075743727572818e+000	 1.006724752795177e+000	-1.335225799853676e+001
1	 1.064561661252739e+000	 1.018541996131295e+000	-1.387429386601544e+001
1	 1.053248397112579e+000	 1.030236459457509e+000	-1.438753564924290e+001
1	 1.041805969232883e+000	 1.041805969232883e+000	-1.489231689833954e+001
1	 1.030236459457509e+000	 1.053248397112579e+000	-1.538896974240153e+001
1	 1.018541996131295e+000	 1.064561661252739e+000	-1.587782471851709e+001
1	 1.006724752795177e+000	 1.075743727572818e+000	-1.635921060772628e+001
1	 9.947869468404696e-001	 1.086792610973798e+000	-1.683345427808581e+001
1	 9.827308381240306e-001	 1.097706376510712e+000	-1.730088053497547e+001
1	 1.102672868000670e+000	 9.871771312735052e-001	-1.217604051693152e+001
1	 1.091709723936780e+000	 9.992877869641140e-001	-1.271147782179728e+001
1	 1.080610850677982e+000	 1.011279604640963e+000	-1.323741103820387e+001
1	 1.069378191923773e+000	 1.023150314222622e+000	-1.375420085669746e+001
1	 1.058013741754623e+000	 1.034897688285340e+000	-1.426220721711805e+001
1	 1.046519543454137e+000	 1.046519543454137e+000	-1.476178908450868e+001
1	 1.034897688285340e+000	 1.058013741754623e+000	-1.525330423105956e+001
1	 1.023150314222622e+000	 1.069378191923773e+000	-1.573710902437132e+001
1	 1.011279604640963e+000	 1.080610850677982e+000	-1.621355822230121e+001
1	 9.992877869641136e-001	 1.091709723936780e+000	-1.668300477463963e+001
1	 9.871771312735052e-001	 1.102672868000670e+000	-1.714579963183912e+001
1	 1.107639359490663e+000	 9.916234244224459e-001	-1.206736794399742e+001
1	 1.096626836899727e+000	 1.003788627087267e+000	-1.259755701078520e+001
1	 1.085477973783044e+000	 1.015834456486303e+000	-1.311818553630271e+001
1	 1.074194722594640e+000	 1.027758632313554e+000	-1.362964128273540e+001
1	 1.062779086396438e+000	 1.039558917112827e+000	-1.413231180988428e+001
1	 1.051233117675104e+000	 1.051233117675104e+000	-1.462658420647957e+001
1	 1.039558917112827e+000	 1.062779086396438e+000	-1.511284482656993e+001
1	 1.027758632313553e+000	 1.074194722594640e+000	-1.559147903136513e+001
1	 1.015834456486303e+000	 1.085477973783043e+000	-1.606287093689478e+001
1	 1.003788627087267e+000	 1.096626836899727e+000	-1.652740316782444e+001
1	 9.916234244224458e-001	 1.107639359490663e+000	-1.698545661775620e+001
1	 1.112605850980706e+000	 9.960697175710029e-001	-1.195445355906765e+001
1	 1.101543949862671e+000	 1.008289467210072e+000	-1.247932584950659e+001
1	 1.090345096888051e+000	 1.020389308331332e+000	-1.299456622851330e+001
1	 1.079011253265406e+000	 1.032366950404211e+000	-1.350059172910347e+001
1	 1.067544431038105e+000	 1.044220145940081e+000	-1.399781996821984e+001
1	 1.055946691895879e+000	 1.055946691895878e+000	-1.448666882867050e+001
1	 1.044220145940081e+000	 1.067544431038105e+000	-1.496755614475500e+001
1	 1.032366950404211e+000	 1.079011253265406e+000	-1.544089939206095e+001
1	 1.020389308331332e+000	 1.090345096888051e+000	-1.590711538190179e+001
1	 1.008289467210072e+000	 1.101543949862671e+000	-1.636661996084966e+001
1	 9.960697175710030e-001	 1.112605850980706e+000	-1.681982771580260e+001
1	 1.117572342470817e+000	 1.000516010719327e+000	-1.183730472843157e+001
1	 1.106461062825644e+000	 1.012790307332672e+000	-1.235677945545812e+001
1	 1.095212219993053e+000	 1.024944160176184e+000	-1.286653812185530e+001
1	 1.083827783936134e+000	 1.036975268494720e+000	-1.336702919700267e+001
1	 1.072309775679705e+000	 1.048881374767212e+000	-1.385870275647294e+001
1	 1.060660266116558e+000	 1.060660266116558e+000	-1.434201010985152e+001
1	 1.048881374767212e+000	 1.072309775679705e+000	-1.481740343042736e+001
1	 1.036975268494720e+000	 1.083827783936134e+000	-1.528533538735775e+001
1	 1.024944160176184e+000	 1.095212219993053e+000	-1.574625878089571e+001
1	 1.012790307332672e+000	 1.106461062825644e+000	-1.620062618125990e+001
1	 1.000516010719327e+000	 1.117572342470816e+000	-1.664888957171302e+001
1	 1.122538833961011e+000	 1.004962303867566e+000	-1.171592868801542e+001
1	 1.111378175788677e+000	 1.017291147455212e+000	-1.222991303254465e+001
1	 1.100079343098097e+000	 1.029499012020994e+000	-1.273408648868586e+001
1	 1.088644314606888e+000	 1.041583586585202e+000	-1.322893109465288e+001
1	 1.077075120321317e+000	 1.053542603594330e+000	-1.371493175107754e+001
1	 1.065373840337237e+000	 1.065373840337237e+000	-1.419257578999662e+001
1	 1.053542603594330e+000	 1.077075120321317e+000	-1.466235254347531e+001
1	 1.041583586585202e+000	 1.088644314606888e+000	-1.512475291259181e+001
1	 1.029499012020994e+000	 1.100079343098096e+000	-1.558026893750708e+001
1	 1.017291147455212e+000	 1.111378175788677e+000	-1.602939336933666e+001
1	 1.004962303867566e+000	 1.122538833961010e+000	-1.647261924453131e+001
1	 1.127505325451305e+000	 1.009408597015872e+000	-1.159033254625454e+001
1	 1.116295288751804e+000	 1.021791987577834e+000	-1.209872186917741e+001
1	 1.104946466203231e+000	 1.034053863865896e+000	-1.259719686085559e+001
1	 1.093460845277733e+000	 1.046191904675780e+000	-1.308627522832913e+001
1	 1.081840464963022e+000	 1.058203832421545e+000	-1.356647902927460e+001
1	 1.070087414558012e+000	 1.070087414558012e+000	-1.403833417748318e+001
1	 1.058203832421546e+000	 1.081840464963022e+000	-1.450236994531647e+001
1	 1.046191904675780e+000	 1.093460845277733e+000	-1.495911846400364e+001
1	 1.034053863865896e+000	 1.104946466203231e+000	-1.540911422264731e+001
1	 1.021791987577833e+000	 1.116295288751804e+000	-1.585289356680435e+001
1	 1.009408597015872e+000	 1.127505325451305e+000	-1.629099419750738e+001
1	 1.132471816941716e+000	 1.013854890164394e+000	-1.146052328688842e+001
1	 1.121212401715056e+000	 1.026292827700682e+000	-1.196320133641961e+001
1	 1.109813589308504e+000	 1.038608715711025e+000	-1.245585502401837e+001
1	 1.098277375948733e+000	 1.050800222766579e+000	-1.293903979363252e+001
1	 1.086605809604901e+000	 1.062865061248969e+000	-1.341331715813109e+001
1	 1.074800988778979e+000	 1.074800988778979e+000	-1.387925413662795e+001
1	 1.062865061248969e+000	 1.086605809604901e+000	-1.433742268570723e+001
1	 1.050800222766579e+000	 1.098277375948733e+000	-1.478839912556197e+001
1	 1.038608715711025e+000	 1.109813589308504e+000	-1.523276356207007e+001
1	 1.026292827700681e+000	 1.121212401715056e+000	-1.567109930583597e+001
1	 1.013854890164394e+000	 1.132471816941716e+000	-1.610399228923415e+001
1	 1.137438308432261e+000	 1.018301183313283e+000	-1.132650777168305e+001
1	 1.126129514678464e+000	 1.030793667823899e+000	-1.182334688618291e+001
1	 1.114680712413962e+000	 1.043163567556515e+000	-1.231004701209059e+001
1	 1.103093906619952e+000	 1.055408540857721e+000	-1.278720336699091e+001
1	 1.091371154247033e+000	 1.067526290076710e+000	-1.325541918384569e+001
1	 1.079514563000233e+000	 1.079514563000233e+000	-1.371530507555010e+001
1	 1.067526290076710e+000	 1.091371154247033e+000	-1.416747838989851e+001
1	 1.055408540857721e+000	 1.103093906619952e+000	-1.461256255613221e+001
1	 1.043163567556515e+000	 1.114680712413962e+000	-1.505118642425802e+001
1	 1.030793667823899e+000	 1.126129514678465e+000	-1.548398359834509e+001
1	 1.018301183313283e+000	 1.137438308432261e+000	-1.591159176501591e+001
1	 1.142404799922955e+000	 1.022747476462686e+000	-1.118829274308244e+001
1	 1.131046627642062e+000	 1.035294507947630e+000	-1.167915404946975e+001
1	 1.119547835519656e+000	 1.047718419402501e+000	-1.215975910185447e+001
1	 1.107910437291455e+000	 1.060016858949330e+000	-1.263074489738067e+001
1	 1.096136498889500e+000	 1.072187518904880e+000	-1.309275862133423e+001
1	 1.084228137221870e+000	 1.084228137221870e+000	-1.354645693435036e+001
1	 1.072187518904880e+000	 1.096136498889500e+000	-1.399250524612620e+001
1	 1.060016858949330e+000	 1.107910437291456e+000	-1.443157697697988e+001
1	 1.047718419402502e+000	 1.119547835519656e+000	-1.486435280862527e+001
1	 1.035294507947629e+000	 1.131046627642062e+000	-1.529151992555756e+001
1	 1.022747476462687e+000	 1.142404799922955e+000	-1.571377124846316e+001
1	 9.782845449738733e-001	 1.092739885020771e+000	-1.745072353635336e+001
1	 9.661656800800127e-001	 1.103469489556340e+000	-1.790958691353838e+001
1	 9.539336353744131e-001	 1.114060848639436e+000	-1.834954752930619e+001
1	 9.415907806359750e-001	 1.124512192603938e+000	-1.877154146138374e+001
1	 9.291395220466797e-001	 1.134821805946257e+000	-1.917651694326417e+001
1	 9.165823006445141e-001	 1.144988028244612e+000	-1.956543333562512e+001
1	 9.039215907491438e-001	 1.155009255025385e+000	-1.993926008851893e+001
1	 8.911598983624566e-001	 1.164883938575646e+000	-2.029897569624396e+001
1	 8.782997595461003e-001	 1.174610588701024e+000	-2.064556664680755e+001
1	 8.653437387781996e-001	 1.184187773428212e+000	-2.098002636789308e+001
1	 8.522944272914295e-001	 1.193614119651469e+000	-2.130335417123354e+001
1	 9.827308381240306e-001	 1.097706376510712e+000	-1.730088053497547e+001
1	 9.705568931145264e-001	 1.108484746988168e+000	-1.775544840144908e+001
1	 9.582692538922897e-001	 1.119124243688950e+000	-1.819135782909076e+001
1	 9.458703010068273e-001	 1.129623088903829e+000	-1.860951117705786e+001
1	 9.333624515761814e-001	 1.139979559332279e+000	-1.901082193070707e+001
1	 9.207481577328164e-001	 1.150191987005923e+000	-1.939621374013272e+001
1	 9.080299050421432e-001	 1.160258760158835e+000	-1.976661945090490e+001
1	 8.952102108957879e-001	 1.170178324043752e+000	-2.012298012875973e+001
1	 8.822916228817612e-001	 1.179949181693395e+000	-2.046624408000099e+001
1	 8.692767171336987e-001	 1.189569894626156e+000	-2.079736586936892e+001
1	 8.561680966613903e-001	 1.199039083495551e+000	-2.111730533711995e+001
1	 9.871771312735052e-001	 1.102672868000670e+000	-1.714579963183912e+001
1	 9.749481061483157e-001	 1.113500004420100e+000	-1.759595828852585e+001
1	 9.626048724094065e-001	 1.124187638738652e+000	-1.802769649773475e+001
1	 9.501498213768941e-001	 1.134733985203993e+000	-1.844187870380970e+001
1	 9.375853811048776e-001	 1.145137312718654e+000	-1.883937915860669e+001
1	 9.249140148203022e-001	 1.155395945767666e+000	-1.922108103685140e+001
1	 9.121382193343224e-001	 1.165508265292791e+000	-1.958787554559646e+001
1	 8.992605234283048e-001	 1.175472709512434e+000	-1.994066102935773e+001
1	 8.862834862166201e-001	 1.185287774686401e+000	-2.028034207250833e+001
1	 8.732096954884191e-001	 1.194952015824790e+000	-2.060782860050344e+001
1	 8.600417660306018e-001	 1.204464047340367e+000	-2.092403498149847e+001
1	 9.916234244224458e-001	 1.107639359490663e+000	-1.698545661775620e+001
1	 9.793393191815333e-001	 1.118515261852135e+000	-1.743109772405989e+001
1	 9.669404909259189e-001	 1.129251033788531e+000	-1.785854730176828e+001
1	 9.544293417463267e-001	 1.139844881504405e+000	-1.826862774418758e+001
1	 9.418083106329169e-001	 1.150295066105347e+000	-1.866216964685447e+001
1	 9.290798719071128e-001	 1.160599904529793e+000	-1.904001100933945e+001
1	 9.162465336258150e-001	 1.170757770427195e+000	-1.940299643352396e+001
1	 9.033108359601298e-001	 1.180767094981621e+000	-1.975197631973171e+001
1	 8.902753495507886e-001	 1.190626367679964e+000	-2.008780606209027e+001
1	 8.771426738424565e-001	 1.200334137024022e+000	-2.041134524448546e+001
1	 8.639154353991481e-001	 1.209889011185817e+000	-2.072345683846251e+001
1	 9.960697175710030e-001	 1.112605850980706e+000	-1.681982771580260e+001
1	 9.837305322143328e-001	 1.123530519284278e+000	-1.726084819392849e+001
1	 9.712761094419803e-001	 1.134314428838575e+000	-1.768389429757588e+001
1	 9.587088621152785e-001	 1.144955777805041e+000	-1.808974229173674e+001
1	 9.460312401604467e-001	 1.155452819492322e+000	-1.847917475423797e+001
1	 9.332457289933900e-001	 1.165803863292257e+000	-1.885297987354808e+001
1	 9.203548479167534e-001	 1.176007275561987e+000	-1.921195074590053e+001
1	 9.073611484913843e-001	 1.186061480451242e+000	-1.955688467289781e+001
1	 8.942672128843766e-001	 1.195964960674002e+000	-1.988858246073468e+001
1	 8.810756521959097e-001	 1.205716258223763e+000	-2.020784772217789e+001
1	 8.677891047671119e-001	 1.215313975031800e+000	-2.051548618241244e+001
1	 1.000516010719327e+000	 1.117572342470816e+000	-1.664888957171302e+001
1	 9.881217452468672e-001	 1.128545776716530e+000	-1.708519151311616e+001
1	 9.756117279577450e-001	 1.139377823888773e+000	-1.750372182495547e+001
1	 9.629883824839003e-001	 1.150066674105876e+000	-1.790520662453256e+001
1	 9.502541696876153e-001	 1.160610572879541e+000	-1.829037617091076e+001
1	 9.374115860792749e-001	 1.171007822055010e+000	-1.865996426821264e+001
1	 9.244631622072710e-001	 1.181256780697107e+000	-1.901470767155033e+001
1	 9.114114610221924e-001	 1.191355865921228e+000	-1.935534549649950e+001
1	 8.982590762174958e-001	 1.201303553668436e+000	-1.968261863300892e+001
1	 8.850086305488756e-001	 1.211098379423924e+000	-1.999726916461749e+001
1	 8.716627741345753e-001	 1.220738938878217e+000	-2.030003979382910e+001
1	 1.004962303867566e+000	 1.122538833961010e+000	-1.647261924453131e+001
1	 9.925129582792914e-001	 1.133561034148894e+000	-1.690410981843439e+001
1	 9.799473464733670e-001	 1.144441218939113e+000	-1.731801450084927e+001
1	 9.672679028523452e-001	 1.155177570406885e+000	-1.771500529888731e+001
1	 9.544770992145704e-001	 1.165768326266968e+000	-1.809575591106168e+001
1	 9.415774431649091e-001	 1.176211780818002e+000	-1.846094124550102e+001
1	 9.285714764975006e-001	 1.186506285832497e+000	-1.881123694457238e+001
1	 9.154617735526760e-001	 1.196650251391511e+000	-1.914731891655638e+001
1	 9.022509395502558e-001	 1.206642146663185e+000	-1.946986287498678e+001
1	 8.889416089014515e-001	 1.216480500624412e+000	-1.977954388624331e+001
1	 8.755364435016215e-001	 1.226163902724966e+000	-2.007703592595707e+001
1	 1.009408597015872e+000	 1.127505325451305e+000	-1.629099419750738e+001
1	 9.969041713117574e-001	 1.138576291581370e+000	-1.671758556143326e+001
1	 9.842829649890004e-001	 1.149504613989582e+000	-1.712675721323950e+001
1	 9.715474232207657e-001	 1.160288466708044e+000	-1.751912314322075e+001
1	 9.587000287414598e-001	 1.170926079654566e+000	-1.789529630577849e+001
1	 9.457433002504339e-001	 1.181415739581187e+000	-1.825588826190741e+001
1	 9.326797907875750e-001	 1.191755790968099e+000	-1.860150883233267e+001
1	 9.195120860829579e-001	 1.201944636862018e+000	-1.893276576164288e+001
1	 9.062428028827680e-001	 1.211980739658170e+000	-1.925026439373302e+001
1	 8.928745872537350e-001	 1.221862621825140e+000	-1.955460735883305e+001
1	 8.794101128683334e-001	 1.231588866571949e+000	-1.984639427236827e+001
1	 1.013854890164394e+000	 1.132471816941716e+000	-1.610399228923415e+001
1	 1.001295384344419e+000	 1.143591549013961e+000	-1.652560150150030e+001
1	 9.886185835047997e-001	 1.154568009040171e+000	-1.692993511520532e+001
1	 9.758269435893138e-001	 1.165399363009330e+000	-1.731754525209489e+001
1	 9.629229582684322e-001	 1.176083833042299e+000	-1.768897999609859e+001
1	 9.499091573359907e-001	 1.186619698344515e+000	-1.804478316938623e+001
1	 9.367881050776269e-001	 1.197005296103851e+000	-1.838549412376954e+001
1	 9.235623986131606e-001	 1.207239022332682e+000	-1.871164754748269e+001
1	 9.102346662151430e-001	 1.217319332653310e+000	-1.902377328732765e+001
1	 8.968075656058231e-001	 1.227244743026015e+000	-1.932239618612551e+001
1	 8.832837822347940e-001	 1.237013830419063e+000	-1.960803593537807e+001
1	 1.018301183313283e+000	 1.137438308432261e+000	-1.591159176501591e+001
1	 1.005686597377429e+000	 1.148606806446669e+000	-1.632814069913949e+001
1	 9.929542020209188e-001	 1.159631404090867e+000	-1.672753361913550e+001
1	 9.801064639581413e-001	 1.170510259310717e+000	-1.711025698040217e+001
1	 9.671458877956345e-001	 1.181241586430130e+000	-1.747678992624273e+001
1	 9.540750144217213e-001	 1.191823657107940e+000	-1.782760420671900e+001
1	 9.408964193677897e-001	 1.202254801239697e+000	-1.816316411800736e+001
1	 9.276127111434064e-001	 1.212533407803431e+000	-1.848392646194643e+001
1	 9.142265295474914e-001	 1.222657925648525e+000	-1.879034052541254e+001
1	 9.007405439578132e-001	 1.232626864226947e+000	-1.908284807910731e+001
1	 8.871574516010855e-001	 1.242438794266210e+000	-1.936188339529077e+001
1	 1.022747476462687e+000	 1.142404799922955e+000	-1.571377124846316e+001
1	 1.010077810410943e+000	 1.153622063879497e+000	-1.612518650942570e+001
1	 9.972898205375119e-001	 1.164694799141658e+000	-1.651953839109096e+001
1	 9.843859843274009e-001	 1.175621155612181e+000	-1.689724393770805e+001
1	 9.713688173232153e-001	 1.186399339818024e+000	-1.725870933702404e+001
1	 9.582408715077669e-001	 1.197027615871412e+000	-1.760432999110504e+001
1	 9.450047336581959e-001	 1.207504306375576e+000	-1.793449061326670e+001
1	 9.316630236738184e-001	 1.217827793274197e+000	-1.824956535044229e+001
1	 9.182183928799237e-001	 1.227996518643735e+000	-1.854991793024736e+001
1	 9.046735223098031e-001	 1.238008985427847e+000	-1.883590183194479e+001
1	 8.910311209672918e-001	 1.247863758113289e+000	-1.910786048044555e+001
1	 8.522944272914295e-001	 1.193614119651469e+000	-2.130335417123354e+001
1	 8.391544411107291e-001	 1.202888313383635e+000	-2.161121255171899e+001
1	 8.259264185271869e-001	 1.212009099263907e+000	-2.189932577745440e+001
1	 8.126130192780124e-001	 1.220975282037234e+000	-2.216878358290441e+001
1	 7.992169231221942e-001	 1.229785727312124e+000	-2.242066710314981e+001
1	 7.857408281201320e-001	 1.238439361924098e+000	-2.265604817508356e+001
1	 7.721874489079046e-001	 1.246935174241497e+000	-2.287598866616399e+001
1	 7.585595149683921e-001	 1.255272214413711e+000	-2.308153983134445e+001
1	 7.448597689014560e-001	 1.263449594561992e+000	-2.327374169871969e+001
1	 7.310909646953698e-001	 1.271466488913099e+000	-2.345362248435167e+001
1	 7.172558660016536e-001	 1.279322133876119e+000	-2.362219803666160e+001
1	 8.561680966613903e-001	 1.199039083495551e+000	-2.111730533711995e+001
1	 8.429683893795676e-001	 1.208355428342368e+000	-2.142165949766607e+001
1	 8.296802455703222e-001	 1.217517668100204e+000	-2.170623820920538e+001
1	 8.163063370593352e-001	 1.226524602081588e+000	-2.197232073338997e+001
1	 8.028493557850693e-001	 1.235375090739231e+000	-2.222118117676128e+001
1	 7.893120120705768e-001	 1.244068056031136e+000	-2.245408741925121e+001
1	 7.756970328899254e-001	 1.252602481727787e+000	-2.267230006779503e+001
1	 7.620071601314623e-001	 1.260977413661516e+000	-2.287707143648654e+001
1	 7.482451488601336e-001	 1.269191959918177e+000	-2.306964455462049e+001
1	 7.344137655810579e-001	 1.277245290971399e+000	-2.325125220388864e+001
1	 7.205157865065180e-001	 1.285136639759758e+000	-2.342311598590296e+001
1	 8.600417660306018e-001	 1.204464047340367e+000	-2.092403498149847e+001
1	 8.467823376476981e-001	 1.213822543301870e+000	-2.122451609000644e+001
1	 8.334340726127945e-001	 1.223026236937295e+000	-2.150519977776178e+001
1	 8.199996548400456e-001	 1.232073922126751e+000	-2.176756259132733e+001
1	 8.064817884473832e-001	 1.240964454167154e+000	-2.201307978382281e+001
1	 7.928831960205115e-001	 1.249696750138987e+000	-2.224322385033394e+001
1	 7.792066168714839e-001	 1.258269789214880e+000	-2.245946308544563e+001
1	 7.654548052941126e-001	 1.266682612910106e+000	-2.266326016518333e+001
1	 7.516305288184261e-001	 1.274934325275120e+000	-2.285607075557579e+001
1	 7.377365664663842e-001	 1.283024093030423e+000	-2.303934214994767e+001
1	 7.237757070110324e-001	 1.290951145644078e+000	-2.321451193696462e+001
1	 8.639154353991481e-001	 1.209889011185817e+000	-2.072345683846251e+001
1	 8.505962859151864e-001	 1.219289658262030e+000	-2.101968013561766e+001
1	 8.371878996546549e-001	 1.228534805775061e+000	-2.129609647566322e+001
1	 8.236929726201783e-001	 1.237623242172595e+000	-2.155438733467464e+001
1	 8.101142211091573e-001	 1.246553817595757e+000	-2.179623717095250e+001
1	 7.964543799699440e-001	 1.255325444247508e+000	-2.202333154708083e+001
1	 7.827162008525765e-001	 1.263937096702628e+000	-2.223735527057726e+001
1	 7.689024504563311e-001	 1.272387812159327e+000	-2.243999055633295e+001
1	 7.550159087763153e-001	 1.280676690632666e+000	-2.263291521395977e+001
1	 7.410593673513299e-001	 1.288802895090015e+000	-2.281780086306056e+001
1	 7.270356275151803e-001	 1.296765651528928e+000	-2.299631117933622e+001
1	 8.677891047671119e-001	 1.215313975031800e+000	-2.051548618241244e+001
1	 8.544102341821004e-001	 1.224756773222739e+000	-2.080705126606996e+001
1	 8.409417266959556e-001	 1.234043374613380e+000	-2.107881633109040e+001
1	 8.273862903997703e-001	 1.243172562218991e+000	-2.133267531656324e+001
1	 8.137466537704129e-001	 1.252143181024902e+000	-2.157052983013764e+001
1	 8.000255639188816e-001	 1.260954138356556e+000	-2.179428683660640e+001
1	 7.862257848331998e-001	 1.269604404190879e+000	-2.200585636101125e+001
1	 7.723500956181049e-001	 1.278093011409026e+000	-2.220714921042973e+001
1	 7.584012887337839e-001	 1.286419055990660e+000	-2.240007471852105e+001
1	 7.443821682358759e-001	 1.294581697150023e+000	-2.258653851679851e+001
1	 7.302955480189454e-001	 1.302580157414160e+000	-2.276844033648845e+001
1	 8.716627741345753e-001	 1.220738938878217e+000	-2.030003979382910e+001
1	 8.582241824485075e-001	 1.230223888183886e+000	-2.058653089708074e+001
1	 8.446955537367479e-001	 1.239551943452133e+000	-2.085324936263326e+001
1	 8.310796081788571e-001	 1.248721882265810e+000	-2.110230901696519e+001
1	 8.173790864311703e-001	 1.257732544454452e+000	-2.133583644884175e+001
1	 8.035967478673326e-001	 1.266582832465985e+000	-2.155596824443299e+001
1	 7.897353688133502e-001	 1.275271711679485e+000	-2.176484823234724e+001
1	 7.757977407794223e-001	 1.283798210659050e+000	-2.196462474375577e+001
1	 7.617866686908141e-001	 1.292161421348948e+000	-2.215744789268966e+001
1	 7.477049691200033e-001	 1.300360499210294e+000	-2.234546688148538e+001
1	 7.335554685223118e-001	 1.308394663299624e+000	-2.253082733623233e+001
1	 8.755364435016215e-001	 1.226163902724966e+000	-2.007703592595707e+001
1	 8.620381307144749e-001	 1.235691003145361e+000	-2.035802218904688e+001
1	 8.484493807770829e-001	 1.245060512291201e+000	-2.061928753525978e+001
1	 8.347729259574741e-001	 1.254271202312922e+000	-2.086317299564391e+001
1	 8.210115190914508e-001	 1.263321907884269e+000	-2.109203786143715e+001
1	 8.071679318153047e-001	 1.272211526575652e+000	-2.130825644585719e+001
1	 7.932449527930248e-001	 1.280939019168298e+000	-2.151421485067242e+001
1	 7.792453859402715e-001	 1.289503409909248e+000	-2.171230774378831e+001
1	 7.651720486473885e-001	 1.297903786707376e+000	-2.190493515399134e+001
1	 7.510277700036927e-001	 1.306139301270674e+000	-2.209449928887632e+001
1	 7.368153890252626e-001	 1.314209169185171e+000	-2.228340138186458e+001
1	 8.794101128683334e-001	 1.231588866571949e+000	-1.984639427236827e+001
1	 8.658520789800703e-001	 1.241158118107053e+000	-2.012143000861897e+001
1	 8.522032078170128e-001	 1.250569081130463e+000	-2.037682471744806e+001
1	 8.384662437356580e-001	 1.259820522360200e+000	-2.061515384634839e+001
1	 8.246439517512761e-001	 1.268911271314218e+000	-2.083901700192060e+001
1	 8.107391157628058e-001	 1.277840220685413e+000	-2.105103421860299e+001
1	 7.967545367722192e-001	 1.286606326657166e+000	-2.125384222651902e+001
1	 7.826930311006399e-001	 1.295208609159465e+000	-2.145009072578555e+001
1	 7.685574286034899e-001	 1.303646152065790e+000	-2.164243867453266e+001
1	 7.543505708869249e-001	 1.311918103331010e+000	-2.183355059776631e+001
1	 7.400753095277824e-001	 1.320023675070649e+000	-2.202609292407617e+001
1	 8.832837822347940e-001	 1.237013830419063e+000	-1.960803593537807e+001
1	 8.696660272453607e-001	 1.246625233068853e+000	-1.987666089128692e+001
1	 8.559570348565886e-001	 1.256077649969800e+000	-2.012575663944721e+001
1	 8.421595615134444e-001	 1.265369842407514e+000	-2.035814015221265e+001
1	 8.282763844106669e-001	 1.274500634744160e+000	-2.057665885787382e+001
1	 8.143102997098430e-001	 1.283468914795125e+000	-2.078418639672066e+001
1	 8.002641207509306e-001	 1.292273634145942e+000	-2.098361837003545e+001
1	 7.861406762605154e-001	 1.300913808409548e+000	-2.117786809051452e+001
1	 7.719428085591005e-001	 1.309388517424035e+000	-2.136986234252832e+001
1	 7.576733717696806e-001	 1.317696905391148e+000	-2.156253716050719e+001
1	 7.433352300298545e-001	 1.325838180955911e+000	-2.175883363359990e+001
1	 8.871574516010855e-001	 1.242438794266210e+000	-1.936188339529077e+001
1	 8.734799755104138e-001	 1.252092348030650e+000	-1.962362300494648e+001
1	 8.597108618958619e-001	 1.261586218809091e+000	-1.986598085263098e+001
1	 8.458528792908694e-001	 1.270919162454734e+000	-2.009202244232330e+001
1	 8.319088170696445e-001	 1.280089998173959e+000	-2.030485042562894e+001
1	 8.178814836564250e-001	 1.289097608904642e+000	-2.050759982569261e+001
1	 8.037737047291552e-001	 1.297940941634475e+000	-2.070343324733036e+001
1	 7.895883214198862e-001	 1.306619007659345e+000	-2.089553608308718e+001
1	 7.753281885142023e-001	 1.315130882781956e+000	-2.108711172483463e+001
1	 7.609961726519412e-001	 1.323475707450937e+000	-2.128137679040025e+001
1	 7.465951505314624e-001	 1.331652686840806e+000	-2.148155637457425e+001
1	 8.910311209672918e-001	 1.247863758113289e+000	-1.910786048044555e+001
1	 8.772939237752967e-001	 1.257559462992334e+000	-1.936222611441513e+001
1	 8.634646889348848e-001	 1.267094787648218e+000	-1.959739668991182e+001
1	 8.495461970679685e-001	 1.276468482501733e+000	-1.981669314942042e+001
1	 8.355412497282301e-001	 1.285679361603478e+000	-2.002348066660510e+001
1	 8.214526676025593e-001	 1.294726303013822e+000	-2.022116331871103e+001
1	 8.072832887068894e-001	 1.303608249122617e+000	-2.041317873795546e+001
1	 7.930359665787400e-001	 1.312324206908703e+000	-2.060299275286976e+001
1	 7.787135684687786e-001	 1.320873248139400e+000	-2.079409403046062e+001
1	 7.643189735336878e-001	 1.329254509510221e+000	-2.098998872993863e+001
1	 7.498550710325905e-001	 1.337467192725185e+000	-2.119419517860305e+001
1	 7.172558660016536e-001	 1.279322133876119e+000	-2.362219803666160e+001
1	 7.033593338589055e-001	 1.287014686416663e+000	-2.379934038201945e+001
1	 6.894020752245480e-001	 1.294544698864472e+000	-2.400253207668421e+001
1	 6.753868719443947e-001	 1.301911595370602e+000	-2.422910027572539e+001
1	 6.613165086713274e-001	 1.309114861985427e+000	-2.447634681921284e+001
1	 6.471937711893183e-001	 1.316154046458454e+000	-2.474155229808537e+001
1	 6.330214447531305e-001	 1.323028757985271e+000	-2.502198010202528e+001
1	 6.188023124455789e-001	 1.329738666902602e+000	-2.531488044168419e+001
1	 6.045391535541663e-001	 1.336283504332451e+000	-2.561749433778855e+001
1	 5.902347419688699e-001	 1.342663061776438e+000	-2.592705756985612e+001
1	 5.758918446027709e-001	 1.348877190661454e+000	-2.624080457747811e+001
1	 7.205157865065180e-001	 1.285136639759758e+000	-2.342311598590296e+001
1	 7.065560947684824e-001	 1.292864154872291e+000	-2.360515516676667e+001
1	 6.925354005374996e-001	 1.300428391149066e+000	-2.381471726794975e+001
1	 6.784564983028587e-001	 1.307828770123901e+000	-2.404905831648237e+001
1	 6.643221853736750e-001	 1.315064775511267e+000	-2.430540614358700e+001
1	 6.501352601952951e-001	 1.322135953005187e+000	-2.458096463936838e+001
1	 6.358985206814513e-001	 1.329041910025039e+000	-2.487291799127416e+001
1	 6.216147625640549e-001	 1.335782315409221e+000	-2.517843489824724e+001
1	 6.072867777624573e-001	 1.342356899057681e+000	-2.549467275267790e+001
1	 5.929173527739515e-001	 1.348765451524407e+000	-2.581878178247404e+001
1	 5.785092670872235e-001	 1.355007823561020e+000	-2.614790914579342e+001
1	 7.237757070110324e-001	 1.290951145644078e+000	-2.321451193696462e+001
1	 7.097528556777063e-001	 1.298713623328551e+000	-2.340152630675057e+001
1	 6.956687258500837e-001	 1.306312083434239e+000	-2.361756448068478e+001
1	 6.815261246609315e-001	 1.313745944877724e+000	-2.385980208385084e+001
1	 6.673278620756021e-001	 1.321014689037577e+000	-2.412538333881978e+001
1	 6.530767492008196e-001	 1.328117859552338e+000	-2.441142553168348e+001
1	 6.387755966092873e-001	 1.335055062065178e+000	-2.471502346385514e+001
1	 6.244272126820184e-001	 1.341825963916171e+000	-2.503325388108043e+001
1	 6.100344019702138e-001	 1.348430293783214e+000	-2.536317987130235e+001
1	 5.955999635784846e-001	 1.354867841272663e+000	-2.570185522322533e+001
1	 5.811266895711268e-001	 1.361138456460870e+000	-2.604632873767063e+001
1	 7.270356275151803e-001	 1.296765651528928e+000	-2.299631117933623e+001
1	 7.129496165865689e-001	 1.304563091785300e+000	-2.318839549831114e+001
1	 6.988020511623028e-001	 1.312195775719856e+000	-2.341102819993273e+001
1	 6.845957510186306e-001	 1.319663119631948e+000	-2.366129537178368e+001
1	 6.703335387771430e-001	 1.326964602564244e+000	-2.393624816879315e+001
1	 6.560182382059427e-001	 1.334099766099807e+000	-2.423290751297629e+001
1	 6.416526725367079e-001	 1.341068214105600e+000	-2.454826878116419e+001
1	 6.272396627995536e-001	 1.347869612423378e+000	-2.487930647164576e+001
1	 6.127820261775338e-001	 1.354503688508985e+000	-2.522297884083761e+001
1	 5.982825743825795e-001	 1.360970231021149e+000	-2.557623250132373e+001
1	 5.837441120545978e-001	 1.367269089360954e+000	-2.593600697283976e+001
1	 7.302955480189454e-001	 1.302580157414160e+000	-2.276844033648845e+001
1	 7.161463774950611e-001	 1.310412560242396e+000	-2.296570547881863e+001
1	 7.019353764741606e-001	 1.318079468005786e+000	-2.319506372342258e+001
1	 6.876653773759736e-001	 1.325580294386450e+000	-2.345350262070559e+001
1	 6.733392154783308e-001	 1.332914516091158e+000	-2.373797093726531e+001
1	 6.589597272107157e-001	 1.340081672647496e+000	-2.404538361153674e+001
1	 6.445297484637815e-001	 1.347081366146220e+000	-2.437262669988186e+001
1	 6.300521129167457e-001	 1.353913260930767e+000	-2.471656230346721e+001
1	 6.155296503845164e-001	 1.360577083234930e+000	-2.507403346648029e+001
1	 6.009651851863458e-001	 1.367072620769809e+000	-2.544186903645303e+001
1	 5.863615345377534e-001	 1.373399722261223e+000	-2.581688847772185e+001
1	 7.335554685223118e-001	 1.308394663299624e+000	-2.253082733623233e+001
1	 7.193431384031745e-001	 1.316262028699694e+000	-2.273340000354394e+001
1	 7.050687017856593e-001	 1.323963160291892e+000	-2.296962714350994e+001
1	 6.907350037329775e-001	 1.331497469141105e+000	-2.323638890314803e+001
1	 6.763448921792002e-001	 1.338864429618206e+000	-2.353052247587574e+001
1	 6.619012162151903e-001	 1.346063579195304e+000	-2.384882733510555e+001
1	 6.474068243905761e-001	 1.353094518186951e+000	-2.418807046096560e+001
1	 6.328645630336790e-001	 1.359956909438264e+000	-2.454499154986521e+001
1	 6.182772745912598e-001	 1.366650477960983e+000	-2.491630819682735e+001
1	 6.036477959898939e-001	 1.373175010518588e+000	-2.529872104075761e+001
1	 5.889789570207107e-001	 1.379530355161627e+000	-2.568891886306023e+001
1	 7.368153890252626e-001	 1.314209169185171e+000	-2.228340138186458e+001
1	 7.225398993109002e-001	 1.322111497157053e+000	-2.249142382314018e+001
1	 7.082020270968021e-001	 1.329846852578039e+000	-2.273467532959983e+001
1	 6.938046300896604e-001	 1.337414643895790e+000	-2.300991990976661e+001
1	 6.793505688797845e-001	 1.344814343145278e+000	-2.331387413246656e+001
1	 6.648427052194174e-001	 1.352045485743133e+000	-2.364321266026554e+001
1	 6.502839003171606e-001	 1.359107670227705e+000	-2.399457377893911e+001
1	 6.356770131504380e-001	 1.366000557945791e+000	-2.436456491201368e+001
1	 6.210248987978638e-001	 1.372723872687081e+000	-2.474976810964310e+001
1	 6.063304067933328e-001	 1.379277400267429e+000	-2.514674550131260e+001
1	 5.915963795035859e-001	 1.385660988062116e+000	-2.555204470214467e+001
1	 7.400753095277824e-001	 1.320023675070649e+000	-2.202609292407617e+001
1	 7.257366602182296e-001	 1.327960965614328e+000	-2.223972266171941e+001
1	 7.113353524075918e-001	 1.335730544864097e+000	-2.249016591103163e+001
1	 6.968742564460391e-001	 1.343331818650383e+000	-2.277406193572674e+001
1	 6.823562455801178e-001	 1.350764256672261e+000	-2.308799775971428e+001
1	 6.677841942234478e-001	 1.358027392290884e+000	-2.342851402211873e+001
1	 6.531609762436034e-001	 1.365120822268396e+000	-2.379211083146040e+001
1	 6.384894632671081e-001	 1.372044206453275e+000	-2.417525360731613e+001
1	 6.237725230044265e-001	 1.378797267413160e+000	-2.457437889800106e+001
1	 6.090130175967730e-001	 1.385379790016275e+000	-2.498590016305576e+001
1	 5.942138019864961e-001	 1.391791620962640e+000	-2.540621350961366e+001
1	 7.433352300298545e-001	 1.325838180955911e+000	-2.175883363359990e+001
1	 7.289334211251546e-001	 1.333810434071376e+000	-2.197824319550778e+001
1	 7.144686777180312e-001	 1.341614237149928e+000	-2.223605726041655e+001
1	 6.999438828021309e-001	 1.349248993404759e+000	-2.252878186744845e+001
1	 6.853619222802339e-001	 1.356714170199044e+000	-2.285286570405992e+001
1	 6.707256832273333e-001	 1.364009298838458e+000	-2.320470630422972e+001
1	 6.560380521699729e-001	 1.371133974308938e+000	-2.358065624916810e+001
1	 6.413019133837733e-001	 1.378087854960640e+000	-2.397702935808499e+001
1	 6.265201472110471e-001	 1.384870662139153e+000	-2.439010685679300e+001
1	 6.116956284003238e-001	 1.391482179765073e+000	-2.481614351217068e+001
1	 5.968312244695583e-001	 1.397922253863151e+000	-2.525137372081085e+001
1	 7.465951505314624e-001	 1.331652686840806e+000	-2.148155637457425e+001
1	 7.321301820316656e-001	 1.339659902528057e+000	-2.170693303205936e+001
1	 7.176020030281235e-001	 1.347497929435399e+000	-2.197230847740955e+001
1	 7.030135091579541e-001	 1.355166168158795e+000	-2.227404716969894e+001
1	 6.883675989801662e-001	 1.362664083725515e+000	-2.260845079492968e+001
1	 6.736671722311249e-001	 1.369991205385755e+000	-2.297176482883637e+001
1	 6.589151280963373e-001	 1.377147126349243e+000	-2.336018510579083e+001
1	 6.441143635005183e-001	 1.384131503467812e+000	-2.376986438051895e+001
1	 6.292677714178239e-001	 1.390944056864996e+000	-2.419691886959041e+001
1	 6.143782392040954e-001	 1.397584569513765e+000	-2.463743475990266e+001
1	 5.994486469528892e-001	 1.404052886763597e+000	-2.508747467168605e+001
1	 7.498550710325905e-001	 1.337467192725185e+000	-2.119419517860305e+001
1	 7.353269429377546e-001	 1.345509370984225e+000	-2.142574069001099e+001
1	 7.207353283378717e-001	 1.353381621720377e+000	-2.169887937290642e+001
1	 7.060831355135254e-001	 1.361083342912368e+000	-2.200982587301957e+001
1	 6.913732756799494e-001	 1.368613997251564e+000	-2.235472633423476e+001
1	 6.766086612348736e-001	 1.375973111932677e+000	-2.272966534731368e+001
1	 6.617922040227657e-001	 1.383160278389225e+000	-2.313067290851685e+001
1	 6.469268136174287e-001	 1.390175151974716e+000	-2.355373137396706e+001
1	 6.320153956248560e-001	 1.397017451590627e+000	-2.399478239584646e+001
1	 6.170608500081973e-001	 1.403686959262295e+000	-2.444973382679915e+001
1	 6.020660694366056e-001	 1.410183519663929e+000	-2.491446657921804e+001
1	 5.758918446027709e-001	 1.348877190661454e+000	-2.624080457747811e+001
1	 5.615110604024198e-001	 1.354926696976587e+000	-2.656936451364767e+001
1	 5.470972883323950e-001	 1.360810606690540e+000	-2.692407740465981e+001
1	 5.326532670450713e-001	 1.366528948891380e+000	-2.730339616189306e+001
1	 5.181817221189331e-001	 1.372081810347265e+000	-2.770578582513528e+001
1	 5.036853646155343e-001	 1.377469334826162e+000	-2.812972350327600e+001
1	 4.891668896682118e-001	 1.382691722374954e+000	-2.857369830357769e+001
1	 4.746289751037728e-001	 1.387749228559429e+000	-2.903621125081029e+001
1	 4.600742800983026e-001	 1.392642163666725e+000	-2.951577519751385e+001
1	 4.455054438681574e-001	 1.397370891871780e+000	-3.001091472661803e+001
1	 4.309250843971381e-001	 1.401935830369417e+000	-3.052016604762269e+001
1	 5.785092670872235e-001	 1.355007823561020e+000	-2.614790914579343e+001
1	 5.640631223710398e-001	 1.361084824819811e+000	-2.649273563854411e+001
1	 5.495838398557151e-001	 1.366995476842530e+000	-2.686460084841933e+001
1	 5.350741706407586e-001	 1.372739808849457e+000	-2.726179687568237e+001
1	 5.205368526923687e-001	 1.378317908003116e+000	-2.768262642135252e+001
1	 5.059746093938342e-001	 1.383729918724910e+000	-2.812540302010438e+001
1	 4.913901481278338e-001	 1.388976041970940e+000	-2.858845125869094e+001
1	 4.767861588918578e-001	 1.394056534468547e+000	-2.907010698065633e+001
1	 4.621653129479082e-001	 1.398971707915129e+000	-2.956871747809921e+001
1	 4.475302615075404e-001	 1.403721928140801e+000	-3.008264167124480e+001
1	 4.328836344532540e-001	 1.408307614236544e+000	-3.061025027656631e+001
1	 5.811266895711268e-001	 1.361138456460870e+000	-2.604632873767062e+001
1	 5.666151843391241e-001	 1.367242952663334e+000	-2.640732022005676e+001
1	 5.520703913785265e-001	 1.373180346994847e+000	-2.679617103022749e+001
1	 5.374950742359757e-001	 1.378950668807896e+000	-2.721102363134729e+001
1	 5.228919832653840e-001	 1.384554005659376e+000	-2.765002973007469e+001
1	 5.082638541717731e-001	 1.389990502624114e+000	-2.811135078070803e+001
1	 4.936134065871612e-001	 1.395260361567428e+000	-2.859315847191282e+001
1	 4.789433426797221e-001	 1.400363840378209e+000	-2.909363519631319e+001
1	 4.642563457973711e-001	 1.405301252164111e+000	-2.961097450325612e+001
1	 4.495550791468633e-001	 1.410072964410428e+000	-3.014338153505385e+001
1	 4.348421845093937e-001	 1.414679398104286e+000	-3.068907344703377e+001
1	 5.837441120545978e-001	 1.367269089360954e+000	-2.593600697283976e+001
1	 5.691672463067919e-001	 1.373401080507109e+000	-2.631305121122870e+001
1	 5.545569429009458e-001	 1.379365217147443e+000	-2.671871313081934e+001
1	 5.399159778308343e-001	 1.385161528766653e+000	-2.715099657422125e+001
1	 5.252471138380813e-001	 1.390790103315994e+000	-2.760791343939872e+001
1	 5.105530989494411e-001	 1.396251086523721e+000	-2.808748443426860e+001
1	 4.958366650462716e-001	 1.401544681164364e+000	-2.858773981105238e+001
1	 4.811005264674270e-001	 1.406671146288360e+000	-2.910672008021966e+001
1	 4.663473786467380e-001	 1.411630796413619e+000	-2.964247670391002e+001
1	 4.515798967861562e-001	 1.416424000680605e+000	-3.019307276873290e+001
1	 4.368007345655730e-001	 1.421051181972596e+000	-3.075658363789408e+001
1	 5.863615345377534e-001	 1.373399722261223e+000	-2.581688847772185e+001
1	 5.717193082741620e-001	 1.379559208351090e+000	-2.620986276225153e+001
1	 5.570434944230900e-001	 1.385550087300276e+000	-2.663215366685497e+001
1	 5.423368814254452e-001	 1.391372388725682e+000	-2.708163727547222e+001
1	 5.276022444105624e-001	 1.397026200972924e+000	-2.755619670713016e+001
1	 5.128423437269288e-001	 1.402511670423682e+000	-2.805372310037063e+001
1	 4.980599235052413e-001	 1.407829000761696e+000	-2.857211657470876e+001
1	 4.832577102550354e-001	 1.412978452198948e+000	-2.910928716856518e+001
1	 4.684384114960552e-001	 1.417960340663596e+000	-2.966315575316723e+001
1	 4.536047144254503e-001	 1.422775036951282e+000	-3.023165492195541e+001
1	 4.387592846218073e-001	 1.427422965841425e+000	-3.081272985508567e+001
1	 5.889789570207107e-001	 1.379530355161627e+000	-2.568891886306023e+001
1	 5.742713702413532e-001	 1.385717336195229e+000	-2.609769019386410e+001
1	 5.595300459450766e-001	 1.391734957453297e+000	-2.653642046123504e+001
1	 5.447577850199193e-001	 1.397583248684935e+000	-2.700286870041870e+001
1	 5.299573749829295e-001	 1.403262298630118e+000	-2.749480012812598e+001
1	 5.151315885043269e-001	 1.408772254323946e+000	-2.800998733632934e+001
1	 5.002831819641477e-001	 1.414113320359370e+000	-2.854621146047625e+001
1	 4.854148940426089e-001	 1.419285758109915e+000	-2.910126332120639e+001
1	 4.705294443453694e-001	 1.424289884913989e+000	-2.967294453871273e+001
1	 4.556295320647759e-001	 1.429126073222402e+000	-3.025906861895821e+001
1	 4.407178346781115e-001	 1.433794749710720e+000	-3.085746201101738e+001
1	 5.915963795035859e-001	 1.385660988062116e+000	-2.555204470214467e+001
1	 5.768234322084858e-001	 1.391875464039482e+000	-2.597646997145709e+001
1	 5.620165974670218e-001	 1.397919827606464e+000	-2.643144261420523e+001
1	 5.471786886143679e-001	 1.403794108644368e+000	-2.691461517769103e+001
1	 5.323125055552846e-001	 1.409498396287527e+000	-2.742364570250490e+001
1	 5.174208332817256e-001	 1.415032838224463e+000	-2.795619910538584e+001
1	 5.025064404230675e-001	 1.420397639957335e+000	-2.850994853399843e+001
1	 4.875720778302100e-001	 1.425593064021210e+000	-2.908257669238785e+001
1	 4.726204771947269e-001	 1.430619429164743e+000	-2.967177713594144e+001
1	 4.576543497041642e-001	 1.435477109493914e+000	-3.027525553477284e+001
1	 4.426763847345017e-001	 1.440166533580434e+000	-3.089073090451553e+001
1	 5.942138019864961e-001	 1.391791620962640e+000	-2.540621350961366e+001
1	 5.793754941756775e-001	 1.398033591883801e+000	-2.584613967986505e+001
1	 5.645031489890432e-001	 1.404104697759729e+000	-2.631715047522282e+001
1	 5.495995922089021e-001	 1.410004968603934e+000	-2.681680236920411e+001
1	 5.346676361277298e-001	 1.415734493945104e+000	-2.734265680469735e+001
1	 5.197100780592155e-001	 1.421293422125183e+000	-2.789228174574251e+001
1	 5.047296988820778e-001	 1.426681959555538e+000	-2.846325319883621e+001
1	 4.897292616179006e-001	 1.431900369932776e+000	-2.905315670223320e+001
1	 4.747115100441745e-001	 1.436948973415803e+000	-2.965958878180079e+001
1	 4.596791673436457e-001	 1.441828145765766e+000	-3.028015837208136e+001
1	 4.446349347909926e-001	 1.446538317450518e+000	-3.091248820130122e+001
1	 5.968312244695583e-001	 1.397922253863151e+000	-2.525137372081085e+001
1	 5.819275561430480e-001	 1.404191719728141e+000	-2.570663799881866e+001
1	 5.669897005112575e-001	 1.410289567913049e+000	-2.619347561556542e+001
1	 5.520204958036332e-001	 1.416215828563587e+000	-2.670935724092178e+001
1	 5.370227667003672e-001	 1.421970591602801e+000	-2.725175815330953e+001
1	 5.219993228368870e-001	 1.427554006026055e+000	-2.781815994041301e+001
1	 5.069529573412557e-001	 1.432966279153926e+000	-2.840605216713153e+001
1	 4.918864454057427e-001	 1.438207675844560e+000	-2.901293400898720e+001
1	 4.768025428937585e-001	 1.443278517667114e+000	-2.963631584931916e+001
1	 4.617039849832511e-001	 1.448179182037901e+000	-3.027372083868198e+001
1	 4.465934848476001e-001	 1.452910101320921e+000	-3.092268641498086e+001
1	 5.994486469528892e-001	 1.404052886763597e+000	-2.508747467168604e+001
1	 5.844796181107165e-001	 1.410349847572454e+000	-2.555790467903979e+001
1	 5.694762520337816e-001	 1.416474438066377e+000	-2.606035080165504e+001
1	 5.544413993986718e-001	 1.422426688523281e+000	-2.659220803438719e+001
1	 5.393778972732991e-001	 1.428206689260570e+000	-2.715087578177797e+001
1	 5.242885676148311e-001	 1.433814589927030e+000	-2.773375968786327e+001
1	 5.091762158006777e-001	 1.439250598752447e+000	-2.833827343103752e+001
1	 4.940436291937987e-001	 1.444514981756508e+000	-2.896184048198521e+001
1	 4.788935757435254e-001	 1.449608061918621e+000	-2.960189582280400e+001
1	 4.637288026230114e-001	 1.454530218310268e+000	-3.025588762554620e+001
1	 4.485520349043394e-001	 1.459281885191594e+000	-3.092127888853600e+001
1	 6.020660694366056e-001	 1.410183519663929e+000	-2.491446657921804e+001
1	 5.870316800788019e-001	 1.416507975416695e+000	-2.539988051896349e+001
1	 5.719628035567330e-001	 1.422659308219669e+000	-2.591770996908014e+001
1	 5.568623029941295e-001	 1.428637548482971e+000	-2.646528423899479e+001
1	 5.417330278466271e-001	 1.434442786918363e+000	-2.703993700978927e+001
1	 5.265778123931376e-001	 1.440075173828057e+000	-2.763900827341609e+001
1	 5.113994742604214e-001	 1.445534918351047e+000	-2.825984623489521e+001
1	 4.962008129821307e-001	 1.450822287668565e+000	-2.889980917532814e+001
1	 4.809846085935219e-001	 1.455937606170270e+000	-2.955626727368576e+001
1	 4.657536202629571e-001	 1.460881254582814e+000	-3.022660438544740e+001
1	 4.505105849612260e-001	 1.465653669062488e+000	-3.090821977629484e+001
1	 4.309250843971381e-001	 1.401935830369417e+000	-3.052016604762269e+001
1	 4.163357969925388e-001	 1.406337448123606e+000	-3.103886016395320e+001
1	 4.017401524837977e-001	 1.410576263888079e+000	-3.156123190002990e+001
1	 3.871406967249308e-001	 1.414652846301055e+000	-3.208419769792555e+001
1	 3.725399496881360e-001	 1.418567813249386e+000	-3.260469760574021e+001
1	 3.579404043837813e-001	 1.422321830855985e+000	-3.311969829705703e+001
1	 3.433445258208177e-001	 1.425915612442830e+000	-3.362619599423124e+001
1	 3.287547500080646e-001	 1.429349917471246e+000	-3.412121929250411e+001
1	 3.141734829967585e-001	 1.432625550461151e+000	-3.460183188222021e+001
1	 2.996030999646699e-001	 1.435743359890963e+000	-3.506513516672723e+001
1	 2.850459443420262e-001	 1.438704237079830e+000	-3.550827077381567e+001
1	 4.328836344532540e-001	 1.408307614236544e+000	-3.061025027656631e+001
1	 4.182280388879797e-001	 1.412729237297768e+000	-3.114666643408429e+001
1	 4.035660573255575e-001	 1.416987318435939e+000	-3.168604480315245e+001
1	 3.889002471908950e-001	 1.421082428873726e+000	-3.222532879326742e+001
1	 3.742331399094486e-001	 1.425015189306273e+000	-3.276148621121730e+001
1	 3.595672398223045e-001	 1.428786268884011e+000	-3.329151222754296e+001
1	 3.449050231418641e-001	 1.432396384170960e+000	-3.381243224684996e+001
1	 3.302489369485938e-001	 1.435846298080185e+000	-3.432130467905578e+001
1	 3.156013982292186e-001	 1.439136818788142e+000	-3.481522360895298e+001
1	 3.009647929566777e-001	 1.442268798629569e+000	-3.529132136175129e+001
1	 2.863414752120758e-001	 1.445243132974653e+000	-3.574677096255572e+001
1	 4.348421845093937e-001	 1.414679398104286e+000	-3.068907344703377e+001
1	 4.201202807835302e-001	 1.419121026472544e+000	-3.124298442542530e+001
1	 4.053919621675101e-001	 1.423398372984390e+000	-3.179919473248214e+001
1	 3.906597976571303e-001	 1.427512011446956e+000	-3.235466691638317e+001
1	 3.759263301311029e-001	 1.431462565363673e+000	-3.290638863032407e+001
1	 3.611940752612288e-001	 1.435250706912494e+000	-3.345137556074445e+001
1	 3.464655204633588e-001	 1.438877155899481e+000	-3.398667425920759e+001
1	 3.317431238896014e-001	 1.442342678689444e+000	-3.450936487509980e+001
1	 3.170293134621681e-001	 1.445648087115373e+000	-3.501656378659276e+001
1	 3.023264859491648e-001	 1.448794237368334e+000	-3.550542612761360e+001
1	 2.876370060825698e-001	 1.451782028869550e+000	-3.597314820884302e+001
1	 4.368007345655730e-001	 1.421051181972596e+000	-3.075658363789408e+001
1	 4.220125226791910e-001	 1.425512815647887e+000	-3.132777163072728e+001
1	 4.072178670096430e-001	 1.429809427533400e+000	-3.190064673950451e+001
1	 3.924193481236122e-001	 1.433941594020722e+000	-3.247218293258690e+001
1	 3.776195203530646e-001	 1.437909941421576e+000	-3.303937990798761e+001
1	 3.628209107005125e-001	 1.441715144941439e+000	-3.359926599801083e+001
1	 3.480260177852528e-001	 1.445357927628415e+000	-3.414890097714163e+001
1	 3.332373108310348e-001	 1.448839059299059e+000	-3.468537877040156e+001
1	 3.184572286955531e-001	 1.452159355442900e+000	-3.520583005966637e+001
1	 3.036881789420779e-001	 1.455319676107329e+000	-3.570742478573850e+001
1	 2.889325369534589e-001	 1.458320924764606e+000	-3.618737454424831e+001
1	 4.387592846218073e-001	 1.427422965841425e+000	-3.081272985508567e+001
1	 4.239047645749627e-001	 1.431904604823757e+000	-3.140098630172114e+001
1	 4.090437718519440e-001	 1.436220482082935e+000	-3.199036649972236e+001
1	 3.941788985903174e-001	 1.440371176595002e+000	-3.257784822740357e+001
1	 3.793127105752993e-001	 1.444357317479972e+000	-3.316043553471616e+001
1	 3.644477461401131e-001	 1.448179582970851e+000	-3.373516163884081e+001
1	 3.495865151074976e-001	 1.451838699357781e+000	-3.429909172241708e+001
1	 3.347314977728411e-001	 1.455335439909068e+000	-3.484932563165713e+001
1	 3.198851439293192e-001	 1.458670623770774e+000	-3.538300047186544e+001
1	 3.050498719353637e-001	 1.461845114846621e+000	-3.589729309819454e+001
1	 2.902280678246939e-001	 1.464859820659907e+000	-3.638942249972880e+001
1	 4.407178346781115e-001	 1.433794749710720e+000	-3.085746201101738e+001
1	 4.257970064708468e-001	 1.438296394000109e+000	-3.146258743225593e+001
1	 4.108696766944010e-001	 1.442631536632960e+000	-3.206832029879079e+001
1	 3.959384490572214e-001	 1.446800759169773e+000	-3.267163469500774e+001
1	 3.810059007977736e-001	 1.450804693538856e+000	-3.326953143669849e+001
1	 3.660745815799876e-001	 1.454644021000736e+000	-3.385904097203682e+001
1	 3.511470124300445e-001	 1.458319471087602e+000	-3.443722618437657e+001
1	 3.362256847149676e-001	 1.461831820519506e+000	-3.500118509411716e+001
1	 3.213130591634122e-001	 1.465181892099049e+000	-3.554805345717722e+001
1	 3.064115649289692e-001	 1.468370553586279e+000	-3.607500725790449e+001
1	 2.915235986962249e-001	 1.471398716555537e+000	-3.657926509453144e+001
1	 4.426763847345017e-001	 1.440166533580434e+000	-3.089073090451553e+001
1	 4.276892483668441e-001	 1.444688183176903e+000	-3.151253474187990e+001
1	 4.126955815370017e-001	 1.449042591183444e+000	-3.213447501901891e+001
1	 3.976979995243006e-001	 1.453230341745015e+000	-3.275351472697232e+001
1	 3.826990910204531e-001	 1.457252069598216e+000	-3.336664396616516e+001
1	 3.677014170200943e-001	 1.461108459031100e+000	-3.397088286709236e+001
1	 3.527075097528448e-001	 1.464800242817900e+000	-3.456328441180660e+001
1	 3.377198716573618e-001	 1.468328201130413e+000	-3.514093715343478e+001
1	 3.227409743977777e-001	 1.471693160427780e+000	-3.570096783124994e+001
1	 3.077732579228408e-001	 1.474895992326376e+000	-3.624054387911322e+001
1	 2.928191295680029e-001	 1.477937612451580e+000	-3.675687582539168e+001
1	 4.446349347909926e-001	 1.446538317450518e+000	-3.091248820130122e+001
1	 4.295814902629558e-001	 1.451079972354095e+000	-3.155078865985877e+001
1	 4.145214863797341e-001	 1.455453645734352e+000	-3.218879812622937e+001
1	 3.994575499915311e-001	 1.459659924320704e+000	-3.282346120131463e+001
1	 3.843922812433037e-001	 1.463699445658044e+000	-3.345174989200677e+001
1	 3.693282524603908e-001	 1.467572897061948e+000	-3.407066656580675e+001
1	 3.542680070758498e-001	 1.471281014548694e+000	-3.467724680502165e+001
1	 3.392140585999711e-001	 1.474824581741826e+000	-3.526856215772752e+001
1	 3.241688896323615e-001	 1.478204428757018e+000	-3.584172278298764e+001
1	 3.091349509169256e-001	 1.481421431066978e+000	-3.639387998810927e+001
1	 2.941146604399785e-001	 1.484476508348123e+000	-3.692222865601694e+001
1	 4.465934848476001e-001	 1.452910101320921e+000	-3.092268641498086e+001
1	 4.314737321591828e-001	 1.457471761531642e+000	-3.157731030961235e+001
1	 4.163473912225857e-001	 1.461864700285650e+000	-3.223125765696241e+001
1	 4.012171004588886e-001	 1.466089506896820e+000	-3.288144747182755e+001
1	 3.860854714662912e-001	 1.470146821718332e+000	-3.352482639063582e+001
1	 3.709550879008342e-001	 1.474037335093288e+000	-3.415837167412251e+001
1	 3.558285043990113e-001	 1.477761786280007e+000	-3.477909410815676e+001
1	 3.407082455427425e-001	 1.481320962353781e+000	-3.538404079984888e+001
1	 3.255968048671095e-001	 1.484715697086819e+000	-3.597029786636509e+001
1	 3.104966439111702e-001	 1.487946869808157e+000	-3.653499301418825e+001
1	 2.954101913121023e-001	 1.491015404245249e+000	-3.707529800684712e+001
1	 4.485520349043394e-001	 1.459281885191594e+000	-3.092127888853600e+001
1	 4.333659740555259e-001	 1.463863550709501e+000	-3.159206149356017e+001
1	 4.181732960655447e-001	 1.468275754837306e+000	-3.226182220601760e+001
1	 4.029766509263494e-001	 1.472519089473338e+000	-3.292744735769430e+001
1	 3.877786616893815e-001	 1.476594197779069e+000	-3.358585103709049e+001
1	 3.725819233413825e-001	 1.480501773125123e+000	-3.423397815417441e+001
1	 3.573890017222799e-001	 1.484242558011860e+000	-3.486880740166045e+001
1	 3.422024324856237e-001	 1.487817342966315e+000	-3.548735410986107e+001
1	 3.270247201019671e-001	 1.491226965417235e+000	-3.608667299245825e+001
1	 3.118583369055215e-001	 1.494472308549981e+000	-3.666386078085657e+001
1	 2.967057221843248e-001	 1.497554300143043e+000	-3.721605874508275e+001
1	 4.505105849612260e-001	 1.465653669062488e+000	-3.090821977629484e+001
1	 4.352582159519864e-001	 1.470255339887630e+000	-3.159500467836232e+001
1	 4.199992009085988e-001	 1.474686809389286e+000	-3.228046091431720e+001
1	 4.047362013938896e-001	 1.478948672050239e+000	-3.296143513337191e+001
1	 3.894718519125411e-001	 1.483041573840250e+000	-3.363480179637100e+001
1	 3.742087587819934e-001	 1.486966211157460e+000	-3.429746631654820e+001
1	 3.589494990456079e-001	 1.490723329744274e+000	-3.494636809498464e+001
1	 3.436966194285619e-001	 1.494313723579467e+000	-3.557848344770752e+001
1	 3.284526353368803e-001	 1.497738233748321e+000	-3.619082842168196e+001
1	 3.132200298999260e-001	 1.500997747292519e+000	-3.678046149726051e+001
1	 2.980012530565967e-001	 1.504093196041590e+000	-3.734448617497484e+001
1	 2.850459443420262e-001	 1.438704237079830e+000	-3.550827077381567e+001
1	 2.705065062765865e-001	 1.441508706198178e+000	-3.592909944088827e+001
1	 2.559848749528201e-001	 1.444158197264690e+000	-3.632598420799784e+001
1	 2.414832894836484e-001	 1.446653724004696e+000	-3.669668416250573e+001
1	 2.270039542545287e-001	 1.448996338326446e+000	-3.703899530829508e+001
1	 2.125490382604623e-001	 1.451187129141089e+000	-3.735075194050148e+001
1	 1.981206744846773e-001	 1.453227221174727e+000	-3.762982794287015e+001
1	 1.837209593187718e-001	 1.455117773774083e+000	-3.787413800758208e+001
1	 1.693519520240392e-001	 1.456859979707270e+000	-3.808163877756536e+001
1	 1.550156742336445e-001	 1.458455063961172e+000	-3.825032991145272e+001
1	 1.407141094952703e-001	 1.459904282536842e+000	-3.837825507150713e+001
1	 2.863414752120758e-001	 1.445243132974653e+000	-3.574677096255572e+001
1	 2.717359555508530e-001	 1.448060348376165e+000	-3.617941085255440e+001
1	 2.571483235628103e-001	 1.450721881352207e+000	-3.658748134282894e+001
1	 2.425808285375988e-001	 1.453228750235476e+000	-3.696861806072170e+001
1	 2.280356848795698e-001	 1.455582011715130e+000	-3.732049490198189e+001
1	 2.135150714417698e-001	 1.457782759651406e+000	-3.764082558334629e+001
1	 1.990211309017990e-001	 1.459832123882272e+000	-3.792736511087774e+001
1	 1.845559691793192e-001	 1.461731269023666e+000	-3.817791116376360e+001
1	 1.701216548949308e-001	 1.463481393264815e+000	-3.839030539346735e+001
1	 1.557202188700866e-001	 1.465083727160154e+000	-3.856243463829392e+001
1	 1.413536536676590e-001	 1.466539532419245e+000	-3.869223205360915e+001
1	 2.876370060825698e-001	 1.451782028869550e+000	-3.597314820884302e+001
1	 2.729654048255039e-001	 1.454611990554142e+000	-3.641753409462088e+001
1	 2.583117721731037e-001	 1.457285565439627e+000	-3.683670013295266e+001
1	 2.436783675917570e-001	 1.459803776466075e+000	-3.722816669522987e+001
1	 2.290674155047151e-001	 1.462167685103552e+000	-3.758949378225076e+001
1	 2.144811046230759e-001	 1.464378390161382e+000	-3.791828274210671e+001
1	 1.999215873188176e-001	 1.466437026589401e+000	-3.821217789727631e+001
1	 1.853909790396714e-001	 1.468344764272762e+000	-3.846886808049543e+001
1	 1.708913577655509e-001	 1.470102806821810e+000	-3.868608807919073e+001
1	 1.564247635062024e-001	 1.471712390358529e+000	-3.886161998845020e+001
1	 1.419931978396938e-001	 1.473174782300993e+000	-3.899329447269413e+001
1	 2.889325369534589e-001	 1.458320924764606e+000	-3.618737454424831e+001
1	 2.741948541004960e-001	 1.461163632732205e+000	-3.664343815822671e+001
1	 2.594752207836670e-001	 1.463849249527064e+000	-3.707360784334144e+001
1	 2.447759066461008e-001	 1.466378802696617e+000	-3.747529680480815e+001
1	 2.300991461299551e-001	 1.468753358491846e+000	-3.784595924758551e+001
1	 2.154471378043844e-001	 1.470974020671163e+000	-3.818309224713079e+001
1	 2.008220437357505e-001	 1.473041929296269e+000	-3.848423752311329e+001
1	 1.862259888998598e-001	 1.474958259521535e+000	-3.874698311555434e+001
1	 1.716610606359443e-001	 1.476724220378426e+000	-3.896896496307571e+001
1	 1.571293081420489e-001	 1.478341053556477e+000	-3.914786838315823e+001
1	 1.426327420114426e-001	 1.479810032182270e+000	-3.928142945451277e+001
1	 2.902280678246939e-001	 1.464859820659907e+000	-3.638942249972880e+001
1	 2.754243033757872e-001	 1.467715274910457e+000	-3.685709258818650e+001
1	 2.606386693944665e-001	 1.470412933614629e+000	-3.729817232346566e+001
1	 2.458734457006079e-001	 1.472953828927230e+000	-3.770997572212577e+001
1	 2.311308767552799e-001	 1.475339031880152e+000	-3.808985918036862e+001
1	 2.164131709856989e-001	 1.477569651180895e+000	-3.843522348531228e+001
1	 2.017225001526156e-001	 1.479646832003032e+000	-3.874351572329535e+001
1	 1.870609987599162e-001	 1.481571754770152e+000	-3.901223108456953e+001
1	 1.724307635061558e-001	 1.483345633934837e+000	-3.923891456398975e+001
1	 1.578338527776833e-001	 1.484969716754174e+000	-3.942116255753125e+001
1	 1.432722861829730e-001	 1.486445282063260e+000	-3.955662435469164e+001
1	 2.915235986962249e-001	 1.471398716555537e+000	-3.657926509453144e+001
1	 2.766537526513347e-001	 1.474266917088996e+000	-3.705846747068507e+001
1	 2.618021180054690e-001	 1.476976617702436e+000	-3.751036199430225e+001
1	 2.469709847552559e-001	 1.479528855158036e+000	-3.793217136054774e+001
1	 2.321626073806799e-001	 1.481924705268603e+000	-3.832116203390560e+001
1	 2.173792041670235e-001	 1.484165281690726e+000	-3.867464638772552e+001
1	 2.026229565694305e-001	 1.486251734709848e+000	-3.898998473517106e+001
1	 1.878960086198719e-001	 1.488185250018776e+000	-3.926458725084925e+001
1	 1.732004663762304e-001	 1.489967047491214e+000	-3.949591578265078e+001
1	 1.585383974131626e-001	 1.491598379951801e+000	-3.968148555358527e+001
1	 1.439118303543528e-001	 1.493080531944146e+000	-3.981886675362588e+001
1	 2.928191295680029e-001	 1.477937612451580e+000	-3.675687582539168e+001
1	 2.778832019270955e-001	 1.480818559267920e+000	-3.724753342130514e+001
1	 2.629655666166408e-001	 1.483540301790597e+000	-3.771014583569482e+001
1	 2.480685238100226e-001	 1.486103881389163e+000	-3.814185220128816e+001
1	 2.331943380061451e-001	 1.488510378657337e+000	-3.853983681979671e+001
1	 2.183452373483615e-001	 1.490760912200802e+000	-3.890133141758524e+001
1	 2.035234129862130e-001	 1.492856637416871e+000	-3.922361728741578e+001
1	 1.887310184797587e-001	 1.494798745267572e+000	-3.950402731547722e+001
1	 1.739701692462127e-001	 1.496588461047729e+000	-3.973994789318022e+001
1	 1.592429420485438e-001	 1.498227043149535e+000	-3.992882071344906e+001
1	 1.445513745256498e-001	 1.499715781825113e+000	-4.006814445150572e+001
1	 2.941146604399785e-001	 1.484476508348123e+000	-3.692222865601694e+001
1	 2.791126512030275e-001	 1.487370201447330e+000	-3.742426157336364e+001
1	 2.641290152279485e-001	 1.490103985879224e+000	-3.789749337404456e+001
1	 2.491660628648855e-001	 1.492678907620733e+000	-3.833898728090412e+001
1	 2.342260686316660e-001	 1.495096052046490e+000	-3.874585309564012e+001
1	 2.193112705297171e-001	 1.497356542711271e+000	-3.911524955852961e+001
1	 2.044238694029807e-001	 1.499461540124259e+000	-3.944438658921047e+001
1	 1.895660283396078e-001	 1.501412240516705e+000	-3.973052740767119e+001
1	 1.747398721161477e-001	 1.503209874604554e+000	-3.997099053487825e+001
1	 1.599474866838842e-001	 1.504855706347555e+000	-4.016315167275558e+001
1	 1.451909186969319e-001	 1.506351031706345e+000	-4.030444546347810e+001
1	 2.954101913121023e-001	 1.491015404245249e+000	-3.707529800684712e+001
1	 2.803421004790875e-001	 1.493921843627324e+000	-3.758862356656307e+001
1	 2.652924638393588e-001	 1.496667669968431e+000	-3.807237467032518e+001
1	 2.502636019198225e-001	 1.499253933852874e+000	-3.852354617911909e+001
1	 2.352577992572328e-001	 1.501681725436200e+000	-3.893918095305977e+001
1	 2.202773037110939e-001	 1.503952173222279e+000	-3.931637230320573e+001
1	 2.053243258197513e-001	 1.506066442832168e+000	-3.965226631970647e+001
1	 1.904010381994511e-001	 1.508025735766340e+000	-3.994406407539466e+001
1	 1.755095749860802e-001	 1.509831288161861e+000	-4.018902370421737e+001
1	 1.606520313192405e-001	 1.511484369546039e+000	-4.038446235420472e+001
1	 1.458304628682665e-001	 1.512986281588024e+000	-4.052775801493034e+001
1	 2.967057221843248e-001	 1.497554300143043e+000	-3.721605874508275e+001
1	 2.815715497552332e-001	 1.500473485808002e+000	-3.774059153593339e+001
1	 2.664559124508381e-001	 1.503231354058331e+000	-3.823476030841146e+001
1	 2.513611409748112e-001	 1.505828960085709e+000	-3.869549900696322e+001
1	 2.362895298828357e-001	 1.508267398826601e+000	-3.911979100604679e+001
1	 2.212433368924957e-001	 1.510547803733974e+000	-3.950467164215858e+001
1	 2.062247822365426e-001	 1.512671345540754e+000	-3.984723061776393e+001
1	 1.912360480593200e-001	 1.514639231016640e+000	-4.014461427621556e+001
1	 1.762792778560550e-001	 1.516452701719823e+000	-4.039402774704426e+001
1	 1.613565759546700e-001	 1.518113032745166e+000	-4.059273696129788e+001
1	 1.464700070397217e-001	 1.519621531470336e+000	-4.073807053690265e+001
1	 2.980012530565967e-001	 1.504093196041590e+000	-3.734448617497484e+001
1	 2.828009990314218e-001	 1.507025127989463e+000	-3.788013810106607e+001
1	 2.676193610623530e-001	 1.509795038149035e+000	-3.838462138371556e+001
1	 2.524586800298293e-001	 1.512403986319364e+000	-3.885481639522562e+001
1	 2.373212605084651e-001	 1.514853072217832e+000	-3.928765437960453e+001
1	 2.222093700739263e-001	 1.517143434246501e+000	-3.968012005300874e+001
1	 2.071252386533723e-001	 1.519276248250174e+000	-4.002925407195978e+001
1	 1.920710579192460e-001	 1.521252726267772e+000	-4.033215536840292e+001
1	 1.770489807261170e-001	 1.523074115278612e+000	-4.058598335098502e+001
1	 1.620611205902298e-001	 1.524741695945114e+000	-4.078795997223290e+001
1	 1.471095512113652e-001	 1.526256781353464e+000	-4.093537166161659e+001
1	 1.407141094952703e-001	 1.459904282536842e+000	-3.837825507150713e+001
1	 1.264470707132509e-001	 1.461209106227669e+000	-3.846327463103798e+001
1	 1.122186375303638e-001	 1.462370621981674e+000	-3.850400025441342e+001
1	 9.803070639248851e-002	 1.463390172555262e+000	-3.849971125508296e+001
1	 8.388513331654991e-002	 1.464269126940766e+000	-3.844972235509969e+001
1	 6.978373363269591e-002	 1.465008879159846e+000	-3.835338285803962e+001
1	 5.572828176456757e-002	 1.465610847063272e+000	-3.821007581222691e+001
1	 4.172051104692880e-002	 1.466076471138249e+000	-3.801921716604200e+001
1	 2.776211357989313e-002	 1.466407213324432e+000	-3.778025491702384e+001
1	 1.385474011895523e-002	 1.466604555839689e+000	-3.749266825642857e+001
1	 0.000000000000000e+000	 1.466670000016666e+000	-3.715596671083307e+001
1	 1.413536536676590e-001	 1.466539532419245e+000	-3.869223205360915e+001
1	 1.270217713416299e-001	 1.467850286520215e+000	-3.877750681813289e+001
1	 1.127286700767430e-001	 1.469017081351258e+000	-3.881688017208524e+001
1	 9.847625493824472e-002	 1.470041265771596e+000	-3.880961578244661e+001
1	 8.426639037867752e-002	 1.470924214995623e+000	-3.875501459686279e+001
1	 7.010089997888507e-002	 1.471667329380818e+000	-3.865241399804847e+001
1	 5.598156622728422e-002	 1.472272033222072e+000	-3.850118694639422e+001
1	 4.191013033666523e-002	 1.472739773553594e+000	-3.830074111263791e+001
1	 2.788829209775656e-002	 1.473072018959543e+000	-3.805051800242131e+001
1	 1.391770976875618e-002	 1.473270258394459e+000	-3.774999207448434e+001
1	 0.000000000000000e+000	 1.473336000014533e+000	-3.739866985418476e+001
1	 1.419931978396938e-001	 1.473174782300993e+000	-3.899329447269413e+001
1	 1.275964719696583e-001	 1.474491466812067e+000	-3.907887799064920e+001
1	 1.132387026228002e-001	 1.475663540720116e+000	-3.911699949121279e+001
1	 9.892180348372621e-002	 1.476692358987179e+000	-3.910689944979477e+001
1	 8.464764744058918e-002	 1.477579303049710e+000	-3.904785749286226e+001
1	 7.041806632492181e-002	 1.478325779601007e+000	-3.893919154582672e+001
1	 5.623485068990974e-002	 1.478933219380080e+000	-3.878025696665096e+001
1	 4.209974962636302e-002	 1.479403075968142e+000	-3.857044566713527e+001
1	 2.801447061561830e-002	 1.479736824593856e+000	-3.830918522378384e+001
1	 1.398067941857046e-002	 1.479935960948430e+000	-3.799593798009153e+001
1	 0.000000000000000e+000	 1.480002000011599e+000	-3.763020014204402e+001
1	 1.426327420114426e-001	 1.479810032182270e+000	-3.928142945451277e+001
1	 1.281711725974124e-001	 1.481132647103413e+000	-3.936737937300861e+001
1	 1.137487351686181e-001	 1.482310000088439e+000	-3.940435205310425e+001
1	 9.936735202901927e-002	 1.483343452202206e+000	-3.939155733777837e+001
1	 8.502890450237155e-002	 1.484234391103225e+000	-3.932824608951818e+001
1	 7.073523267088946e-002	 1.484984229820612e+000	-3.921370934360005e+001
1	 5.648813515252016e-002	 1.485594405537496e+000	-3.904727744424482e+001
1	 4.228936891608654e-002	 1.486066378382094e+000	-3.882831916567967e+001
1	 2.814064913352648e-002	 1.486401630227571e+000	-3.855624082009381e+001
1	 1.404364906842484e-002	 1.486601663501801e+000	-3.823048535441114e+001
1	 0.000000000000000e+000	 1.486668000008066e+000	-3.785053143775296e+001
1	 1.432722861829730e-001	 1.486445282063260e+000	-3.955662435469164e+001
1	 1.287458732249686e-001	 1.487773827394441e+000	-3.964300234632575e+001
1	 1.142587677142796e-001	 1.488956459456420e+000	-3.967893180903551e+001
1	 9.981290057421012e-002	 1.489994545416871e+000	-3.966358461488732e+001
1	 8.541016156411119e-002	 1.490889479156365e+000	-3.959617552169940e+001
1	 7.105239901687122e-002	 1.491642680039831e+000	-3.947596134354667e+001
1	 5.674141961519155e-002	 1.492255591694520e+000	-3.930224010092483e+001
1	 4.247898820590027e-002	 1.492729680795649e+000	-3.907435015267950e+001
1	 2.826682765152926e-002	 1.493066435860886e+000	-3.879166931175408e+001
1	 1.410661871834611e-002	 1.493267366054773e+000	-3.845361394676197e+001
1	 0.000000000000000e+000	 1.493334000004133e+000	-3.805963807133460e+001
1	 1.439118303543528e-001	 1.493080531944146e+000	-3.981886675362588e+001
1	 1.293205738524036e-001	 1.494415007685339e+000	-3.990573844492601e+001
1	 1.147688002598674e-001	 1.495602918824250e+000	-3.994073281780607e+001
1	 1.002584491193851e-001	 1.496645638631369e+000	-3.992297653549757e+001
1	 8.579141862589464e-002	 1.497544567209325e+000	-3.985164101075927e+001
1	 7.136956536295044e-002	 1.498301130258862e+000	-3.972594160535129e+001
1	 5.699470407799991e-002	 1.498916777851350e+000	-3.954513680559513e+001
1	 4.266860749586866e-002	 1.499392983209006e+000	-3.930852737617981e+001
1	 2.839300616967478e-002	 1.499731241494002e+000	-3.901545549433385e+001
1	 1.416958836836105e-002	 1.499933068607544e+000	-3.866530386644121e+001
1	 0.000000000000000e+000	 1.500000000000000e+000	-3.825749482912291e+001
1	 1.445513745256498e-001	 1.499715781825113e+000	-4.006814445150572e+001
1	 1.298952744797936e-001	 1.501056187976295e+000	-4.015557935295740e+001
1	 1.152788328054644e-001	 1.502249378192121e+000	-4.018974924336095e+001
1	 1.007039976646305e-001	 1.503296731845895e+000	-4.016972843797272e+001
1	 8.617267568780850e-002	 1.504199655262302e+000	-4.009463786262226e+001
1	 7.168673170921036e-002	 1.504959580477903e+000	-3.996364429382856e+001
1	 5.724798854102130e-002	 1.505577964008184e+000	-3.977595957106036e+001
1	 4.285822678605616e-002	 1.506056285622365e+000	-3.953083978335683e+001
1	 2.851918468801118e-002	 1.506396047127118e+000	-3.922758443248292e+001
1	 1.423255801849644e-002	 1.506598771160316e+000	-3.886553557476017e+001
1	 0.000000000000000e+000	 1.506665999995867e+000	-3.844407694366940e+001
1	 1.451909186969319e-001	 1.506351031706345e+000	-4.030444546347810e+001
1	 1.304699751072153e-001	 1.507697368267498e+000	-4.039251690108910e+001
1	 1.157888653511532e-001	 1.508895837560225e+000	-4.042597535247494e+001
1	 1.011495462100325e-001	 1.509947825060642e+000	-4.040383574281261e+001
1	 8.655393274993932e-002	 1.510854743315492e+000	-4.032516146592150e+001
1	 7.200389805573430e-002	 1.511618030697151e+000	-4.018906367660716e+001
1	 5.750127300433174e-002	 1.512239150165223e+000	-3.999470055085632e+001
1	 4.304784607652718e-002	 1.512719588035927e+000	-3.974127651613262e+001
1	 2.864536320658660e-002	 1.513060852760435e+000	-3.942804145400336e+001
1	 1.429552766877905e-002	 1.513264473713287e+000	-3.905428987729208e+001
1	 0.000000000000000e+000	 1.513331999991934e+000	-3.861936008391461e+001
1	 1.458304628682665e-001	 1.512986281588024e+000	-4.052775801493034e+001
1	 1.310446757347450e-001	 1.514338548559137e+000	-4.061654306330085e+001
1	 1.162988978970166e-001	 1.515542296928752e+000	-4.064940551249747e+001
1	 1.015950947556774e-001	 1.516598918275806e+000	-4.062529395085381e+001
1	 8.693518981237372e-002	 1.517509831369093e+000	-4.054320729018501e+001
1	 7.232106440260555e-002	 1.518276480916806e+000	-4.040219412187618e+001
1	 5.775455746800728e-002	 1.518900336322665e+000	-4.020135203616462e+001
1	 4.323746536734618e-002	 1.519382890449889e+000	-3.993982690690454e+001
1	 2.877154172544919e-002	 1.519725658394153e+000	-3.961681214408170e+001
1	 1.435849731923567e-002	 1.519930176266659e+000	-3.923154791632219e+001
1	 0.000000000000000e+000	 1.519997999988401e+000	-3.878332034561900e+001
1	 1.464700070397217e-001	 1.519621531470336e+000	-4.073807053690265e+001
1	 1.316193763624593e-001	 1.520979728851398e+000	-4.082764995375270e+001
1	 1.168089304431375e-001	 1.522188756297897e+000	-4.086003418915772e+001
1	 1.020406433016516e-001	 1.523250011491580e+000	-4.083409864151494e+001
1	 8.731644687519827e-002	 1.524164919423301e+000	-4.074877088407004e+001
1	 7.263823074990740e-002	 1.524934931137064e+000	-4.060303009618810e+001
1	 5.800784193212395e-002	 1.525561522480709e+000	-4.039590645280672e+001
1	 4.342708465857759e-002	 1.526046192864452e+000	-4.012648047438772e+001
1	 2.889772024464708e-002	 1.526390464028470e+000	-3.979388233966750e+001
1	 1.442146696989308e-002	 1.526595878820630e+000	-3.939729116349864e+001
1	 0.000000000000000e+000	 1.526663999985467e+000	-3.893593424204622e+001
1	 1.471095512113652e-001	 1.526256781353464e+000	-4.093537166161659e+001
1	 1.321940769904347e-001	 1.527620909144472e+000	-4.102582982373782e+001
1	 1.173189629895987e-001	 1.528835215667850e+000	-4.105785594442555e+001
1	 1.024861918480412e-001	 1.529901104708160e+000	-4.103024547108831e+001
1	 8.769770393849952e-002	 1.530820007478312e+000	-4.094184787364264e+001
1	 7.295539709772317e-002	 1.531593381358124e+000	-4.079156616232262e+001
1	 5.826112639675777e-002	 1.532222708639553e+000	-4.057835635831854e+001
1	 4.361670395028588e-002	 1.532709495279816e+000	-4.030122691956323e+001
1	 2.902389876422843e-002	 1.533055269663587e+000	-3.995923812400318e+001
1	 1.448443662077806e-002	 1.533261581375402e+000	-3.955150141267072e+001
1	 0.000000000000000e+000	 1.533329999983334e+000	-3.907717869488561e+001
1	 1.533329999983334e+000	 0.000000000000000e+000	 2.191147074792581e+001
1	 1.533261581375402e+000	 1.448443662077811e-002	 2.109412681029512e+001
1	 1.533055269663588e+000	 2.902389876422853e-002	 2.028380211610270e+001
1	 1.532709495279816e+000	 4.361670395028579e-002	 1.948093778571190e+001
1	 1.532222708639554e+000	 5.826112639675773e-002	 1.868599676709129e+001
1	 1.531593381358125e+000	 7.295539709772311e-002	 1.789946410844551e+001
1	 1.530820007478312e+000	 8.769770393849954e-002	 1.712184720528017e+001
1	 1.529901104708160e+000	 1.024861918480413e-001	 1.635367602045638e+001
1	 1.528835215667849e+000	 1.173189629895985e-001	 1.559550327579573e+001
1	 1.527620909144472e+000	 1.321940769904346e-001	 1.484790461380148e+001
1	 1.526256781353464e+000	 1.471095512113651e-001	 1.411147872807484e+001
1	 1.539996999982150e+000	 0.000000000000000e+000	 2.172908836799601e+001
1	 1.539928283886501e+000	 1.454741571829705e-002	 2.091579985544706e+001
1	 1.539721075120481e+000	 2.915009621289081e-002	 2.010932171099264e+001
1	 1.539373797291449e+000	 4.380635168824681e-002	 1.931013159837398e+001
1	 1.538884894077197e+000	 5.851444885842472e-002	 1.851872855009392e+001
1	 1.538252830447551e+000	 7.327261102581677e-002	 1.773563317857731e+001
1	 1.537476093897312e+000	 8.807901819661552e-002	 1.696138786084613e+001
1	 1.536553195689442e+000	 1.029318072338745e-001	 1.619655689535053e+001
1	 1.535482672107356e+000	 1.178290720489961e-001	 1.544172662960507e+001
1	 1.534263085715157e+000	 1.327688638324482e-001	 1.469750555729008e+001
1	 1.532893026624554e+000	 1.477491913244743e-001	 1.396452438349583e+001
1	 1.546663999981867e+000	 0.000000000000000e+000	 2.154279750520798e+001
1	 1.546594986398501e+000	 1.461039481602090e-002	 2.073394195134739e+001
1	 1.546386880578270e+000	 2.927629366190359e-002	 1.993168462920952e+001
1	 1.546038099303972e+000	 4.399599942665178e-002	 1.913653854372807e+001
1	 1.545547079515721e+000	 5.876777132058415e-002	 1.834903759510117e+001
1	 1.544912279537849e+000	 7.358982495441384e-002	 1.756973672974849e+001
1	 1.544132180317175e+000	 8.846033245521599e-002	 1.679921206392504e+001
1	 1.543205286671576e+000	 1.033774226201508e-001	 1.603806097871576e+001
1	 1.542130128547706e+000	 1.183391811087809e-001	 1.528690218514906e+001
1	 1.540905262286677e+000	 1.333436506747862e-001	 1.454637575818309e+001
1	 1.539529271896469e+000	 1.483888314378467e-001	 1.381714313833910e+001
1	 1.553330999982383e+000	 0.000000000000000e+000	 2.135267024952065e+001
1	 1.553261688911297e+000	 1.467337391390012e-002	 2.054861875622559e+001
1	 1.553052686036848e+000	 2.940249111118563e-002	 1.975095019609498e+001
1	 1.552702401317272e+000	 4.418564716540310e-002	 1.896021172885771e+001
1	 1.552209264955009e+000	 5.902109378313507e-002	 1.817697092146387e+001
1	 1.551571728628893e+000	 7.390703888342050e-002	 1.740181584009629e+001
1	 1.550788266737764e+000	 8.884164671422189e-002	 1.663535511403854e+001
1	 1.549857377654417e+000	 1.038230380068115e-001	 1.587821797020845e+001
1	 1.548777584988743e+000	 1.188492901689170e-001	 1.513105423718286e+001
1	 1.547547438858865e+000	 1.339184375174358e-001	 1.439453431755925e+001
1	 1.546165517169035e+000	 1.490284715514892e-001	 1.366934912752811e+001
1	 1.559997999983599e+000	 0.000000000000000e+000	 2.115877745851894e+001
1	 1.559928391424788e+000	 1.473635301188521e-002	 2.035989480588794e+001
1	 1.559718491496111e+000	 2.952868856065571e-002	 1.956717672282886e+001
1	 1.559366703331239e+000	 4.437529490440324e-002	 1.878120335298575e+001
1	 1.558871450394939e+000	 5.927441624597654e-002	 1.800257474474219e+001
1	 1.558231177720554e+000	 7.422425281274271e-002	 1.723191088553214e+001
1	 1.557444353158942e+000	 8.922296097355420e-002	 1.646985170726751e+001
1	 1.556509468637816e+000	 1.042686533937975e-001	 1.571705706177367e+001
1	 1.555425041430309e+000	 1.193593992293683e-001	 1.497420666514603e+001
1	 1.554189615431554e+000	 1.344932243603837e-001	 1.424200000996711e+001
1	 1.552801762442078e+000	 1.496681116654091e-001	 1.352115624435195e+001
1	 1.566664999985416e+000	 0.000000000000000e+000	 2.096118878363605e+001
1	 1.566595093938874e+000	 1.479933210992662e-002	 2.016783353760047e+001
1	 1.566384296955953e+000	 2.965488601023259e-002	 1.938042152800804e+001
1	 1.566031005345761e+000	 4.456494264355464e-002	 1.859956472679168e+001
1	 1.565533635835396e+000	 5.952773870900763e-002	 1.782589449380805e+001
1	 1.564890626812705e+000	 7.454146674228665e-002	 1.706006155468307e+001
1	 1.564100439580571e+000	 8.960427523313398e-002	 1.630273594909182e+001
1	 1.563161559621629e+000	 1.047142687810504e-001	 1.555460694844755e+001
1	 1.562072497872246e+000	 1.198695082900990e-001	 1.481638294199991e+001
1	 1.560831792004578e+000	 1.350680112036168e-001	 1.408879129037297e+001
1	 1.559438007715424e+000	 1.503077517796133e-001	 1.337257814560661e+001
1	 1.573331999987733e+000	 0.000000000000000e+000	 2.075997269570852e+001
1	 1.573261796453454e+000	 1.486231120797487e-002	 1.997249731336395e+001
1	 1.573050102416269e+000	 2.978108345983503e-002	 1.919074095867677e+001
1	 1.572695307360727e+000	 4.475459038275972e-002	 1.841534629123730e+001
1	 1.572195821276259e+000	 5.978106117212738e-002	 1.764697482751334e+001
1	 1.571550075905218e+000	 7.485868067195839e-002	 1.688630686345373e+001
1	 1.570756526002515e+000	 8.998558949288225e-002	 1.613404136690347e+001
1	 1.569813650605705e+000	 1.051598841685111e-001	 1.539089583888587e+001
1	 1.568719954314401e+000	 1.203796173510731e-001	 1.465760614283959e+001
1	 1.567473968577772e+000	 1.356427980471222e-001	 1.393492630093192e+001
1	 1.566074252988898e+000	 1.509473918941090e-001	 1.322362825660580e+001
1	 1.579998999990450e+000	 0.000000000000000e+000	 2.055519650988464e+001
1	 1.579928498968426e+000	 1.492529030598040e-002	 1.977394744260032e+001
1	 1.579715907876954e+000	 2.990728090938180e-002	 1.899819041082468e+001
1	 1.579359609376027e+000	 4.494423812192101e-002	 1.822859763591655e+001
1	 1.578858006717409e+000	 6.003438363523485e-002	 1.746585965093569e+001
1	 1.578209524997966e+000	 7.517589460166402e-002	 1.671068516921953e+001
1	 1.577412612424635e+000	 9.036690375271991e-002	 1.596380092220351e+001
1	 1.576465741589899e+000	 1.056054995561210e-001	 1.522595146562567e+001
1	 1.575367410756614e+000	 1.208897264122547e-001	 1.449789895328821e+001
1	 1.574116145150969e+000	 1.362175848908867e-001	 1.378042287758742e+001
1	 1.572710498262325e+000	 1.515870320089032e-001	 1.307431977606468e+001
1	 1.586665999993466e+000	 0.000000000000000e+000	 2.034692640990481e+001
1	 1.586595201483688e+000	 1.498826940389370e-002	 1.957224420426620e+001
1	 1.586381713337901e+000	 3.003347835879168e-002	 1.880282434936797e+001
1	 1.586023911391549e+000	 4.513388586094088e-002	 1.803936751694191e+001
1	 1.585520192158728e+000	 6.028770609822909e-002	 1.728259213121516e+001
1	 1.584868974090821e+000	 7.549310853130964e-002	 1.653323418466199e+001
1	 1.584068698846796e+000	 9.074821801256802e-002	 1.579204702249075e+001
1	 1.583117832574064e+000	 1.060511149438211e-001	 1.505980109508819e+001
1	 1.582014867198729e+000	 1.213998354736078e-001	 1.433728367767948e+001
1	 1.580758321724004e+000	 1.367923717348972e-001	 1.362529855650506e+001
1	 1.579346743535532e+000	 1.522266721240030e-001	 1.292466568086042e+001
1	 1.593332999996683e+000	 0.000000000000000e+000	 2.013522747177219e+001
1	 1.593261903999138e+000	 1.505124850166526e-002	 1.936744686841234e+001
1	 1.593047518799007e+000	 3.015967580798343e-002	 1.860469632762859e+001
1	 1.592688213407181e+000	 4.532353359972181e-002	 1.784770387438228e+001
1	 1.592182377600097e+000	 6.054102856100917e-002	 1.709721471299265e+001
1	 1.591528423183657e+000	 7.581032246080131e-002	 1.635399099125655e+001
1	 1.590724785268861e+000	 9.112953227234759e-002	 1.561881153285255e+001
1	 1.589769923558053e+000	 1.064967303315528e-001	 1.489247153733081e+001
1	 1.588662323640588e+000	 1.219099445350965e-001	 1.417578224703491e+001
1	 1.587400498296709e+000	 1.373671585791407e-001	 1.346957058034374e+001
1	 1.585982988808343e+000	 1.528663122394153e-001	 1.277467873067371e+001
1	 1.600000000000000e+000	 0.000000000000000e+000	 1.992016368683176e+001
1	 1.599928606514677e+000	 1.511422759924554e-002	 1.915961371720324e+001
1	 1.599713324260166e+000	 3.028587325687582e-002	 1.840385900632708e+001
1	 1.599352515422813e+000	 4.551318133816625e-002	 1.765365384926486e+001
1	 1.598844563041397e+000	 6.079435102347415e-002	 1.690976913346291e+001
1	 1.598187872276344e+000	 7.612753639004513e-002	 1.617299205242367e+001
1	 1.597380871690691e+000	 9.151084653197962e-002	 1.544412578726549e+001
1	 1.596422014541718e+000	 1.069423457192571e-001	 1.472398915555497e+001
1	 1.595309780082036e+000	 1.224200535966849e-001	 1.401341622684132e+001
1	 1.594042674868919e+000	 1.379419454236041e-001	 1.331325590437112e+001
1	 1.592619234080585e+000	 1.535059523551476e-001	 1.262437147251350e+001
1	 1.526256781353464e+000	 1.471095512113651e-001	 1.411147872807484e+001
1	 1.524741695945114e+000	 1.620611205902299e-001	 1.338561415982509e+001
1	 1.523074115278612e+000	 1.770489807261168e-001	 1.266959776749316e+001
1	 1.521252726267772e+000	 1.920710579192460e-001	 1.196421822164063e+001
1	 1.519276248250174e+000	 2.071252386533722e-001	 1.127025856814829e+001
1	 1.517143434246501e+000	 2.222093700739263e-001	 1.058849521267030e+001
1	 1.514853072217832e+000	 2.373212605084653e-001	 9.919696888279340e+000
1	 1.512403986319364e+000	 2.524586800298292e-001	 9.264623607641711e+000
1	 1.509795038149035e+000	 2.676193610623530e-001	 8.624025601139454e+000
1	 1.507025127989463e+000	 2.828009990314218e-001	 7.998642242429806e+000
1	 1.504093196041590e+000	 2.980012530565968e-001	 7.389200963007616e+000
1	 1.532893026624554e+000	 1.477491913244743e-001	 1.396452438349582e+001
1	 1.531371353544921e+000	 1.627657709182357e-001	 1.324203168156914e+001
1	 1.529696522149704e+000	 1.778187990632860e-001	 1.252916971998140e+001
1	 1.527867213643341e+000	 1.929061930432675e-001	 1.182674943001594e+001
1	 1.525882141795015e+000	 2.080258301522326e-001	 1.113557530530500e+001
1	 1.523740054203473e+000	 2.231755481748648e-001	 1.045644433456023e+001
1	 1.521439733559776e+000	 2.383531459091908e-001	 9.790144917650212e+000
1	 1.518979998906481e+000	 2.535563837321868e-001	 9.137455766469438e+000
1	 1.516359706891685e+000	 2.687829842086255e-001	 8.499144792123879e+000
1	 1.513577753016370e+000	 2.840306327434565e-001	 7.875967980034282e+000
1	 1.510633072873409e+000	 2.992969782779455e-001	 7.268668254635887e+000
1	 1.539529271896469e+000	 1.483888314378467e-001	 1.381714313833910e+001
1	 1.538001011145548e+000	 1.634704212464512e-001	 1.309831380506684e+001
1	 1.536318929021609e+000	 1.785886174006199e-001	 1.238888737971717e+001
1	 1.534481701019713e+000	 1.937413281674167e-001	 1.168969724710419e+001
1	 1.532488035340652e+000	 2.089264216511906e-001	 1.100156954472622e+001
1	 1.530336674161230e+000	 2.241417262758770e-001	 1.032532204330217e+001
1	 1.528026394902492e+000	 2.393850313099715e-001	 9.661763010793678e+000
1	 1.525556011494349e+000	 2.546540874345852e-001	 9.011690061464659e+000
1	 1.522924375635062e+000	 2.699466073549286e-001	 8.375888991610523e+000
1	 1.520130378043972e+000	 2.852602664555142e-001	 7.755132603671086e+000
1	 1.517172949705882e+000	 3.005927034993116e-001	 7.150179520518767e+000
1	 1.546165517169035e+000	 1.490284715514892e-001	 1.366934912752811e+001
1	 1.544630668746812e+000	 1.641750715748987e-001	 1.295446985616720e+001
1	 1.542941335894138e+000	 1.793584357381514e-001	 1.224875533573517e+001
1	 1.541096188396701e+000	 1.945764632917324e-001	 1.155306159424380e+001
1	 1.539093928886893e+000	 2.098270131502877e-001	 1.086823660594145e+001
1	 1.536933294119577e+000	 2.251079043770039e-001	 1.019511911918573e+001
1	 1.534613056245783e+000	 2.404169167108456e-001	 9.534537467924658e+000
1	 1.532132024082775e+000	 2.557517911370589e-001	 8.887308368443652e+000
1	 1.529489044378973e+000	 2.711102305012908e-001	 8.254235703121307e+000
1	 1.526683003072079e+000	 2.864899001676177e-001	 7.636109293018849e+000
1	 1.523712826538826e+000	 3.018884287207119e-001	 7.033703661210044e+000
1	 1.552801762442078e+000	 1.496681116654091e-001	 1.352115624435195e+001
1	 1.551260326348532e+000	 1.648797219036005e-001	 1.281050900129522e+001
1	 1.549563742767107e+000	 1.801282540759132e-001	 1.210877809862108e+001
1	 1.547710675774113e+000	 1.954115984162538e-001	 1.141684239411781e+001
1	 1.545699822433543e+000	 2.107276046495656e-001	 1.073557188849206e+001
1	 1.543529914078321e+000	 2.260740824782868e-001	 1.006582650011033e+001
1	 1.541199717589455e+000	 2.414488021118517e-001	 9.408454823453983e+000
1	 1.538708036671565e+000	 2.568494948396415e-001	 8.764292873053218e+000
1	 1.536053713123227e+000	 2.722738536477408e-001	 8.134162814752582e+000
1	 1.533235628100504e+000	 2.877195338797896e-001	 7.518871686246360e+000
1	 1.530252703372057e+000	 3.031841539421639e-001	 6.919210108904766e+000
1	 1.559438007715424e+000	 1.503077517796133e-001	 1.337257814560661e+001
1	 1.557889983950527e+000	 1.655843722325790e-001	 1.266644025084375e+001
1	 1.556186149640328e+000	 1.808980724139380e-001	 1.196896010218103e+001
1	 1.554325163151757e+000	 1.962467335410196e-001	 1.128103957072533e+001
1	 1.552305715980410e+000	 2.116281961490655e-001	 1.060357087022892e+001
1	 1.550126534037266e+000	 2.270402605797670e-001	 9.937435278231366e+000
1	 1.547786378933312e+000	 2.424806875130279e-001	 9.283501841005421e+000
1	 1.545284049260524e+000	 2.579471985423669e-001	 8.642626064178256e+000
1	 1.542618381867632e+000	 2.734374767943067e-001	 8.015648590992290e+000
1	 1.539788253129059e+000	 2.889491675920524e-001	 7.403393870256770e+000
1	 1.536792580205390e+000	 3.044798791636848e-001	 6.806668816127274e+000
1	 1.566074252988898e+000	 1.509473918941090e-001	 1.322362825660580e+001
1	 1.564519641552615e+000	 1.662890225618565e-001	 1.252227246247984e+001
1	 1.562808556513614e+000	 1.816678907522586e-001	 1.182930570506787e+001
1	 1.560939650529444e+000	 1.970818686660690e-001	 1.114565304935358e+001
1	 1.558911609527300e+000	 2.125287876488292e-001	 1.047222910565308e+001
1	 1.556723153996217e+000	 2.280064386814850e-001	 9.809936696691997e+000
1	 1.554373040277162e+000	 2.435125729144131e-001	 9.159665508558998e+000
1	 1.551860061849460e+000	 2.590449022452694e-001	 8.522290727516898e+000
1	 1.549183050611998e+000	 2.746010999410177e-001	 7.898671664745198e+000
1	 1.546340878157556e+000	 2.901788013044291e-001	 7.289650371180256e+000
1	 1.543332457038643e+000	 3.057756043852918e-001	 6.696050244706501e+000
1	 1.572710498262325e+000	 1.515870320089032e-001	 1.307431977606468e+001
1	 1.571149299154617e+000	 1.669936728914554e-001	 1.237801434436672e+001
1	 1.569430963386780e+000	 1.824377090909078e-001	 1.168981919236711e+001
1	 1.567554137906982e+000	 1.979170037914407e-001	 1.101068275655060e+001
1	 1.565517503074019e+000	 2.134293791488981e-001	 1.034154222429887e+001
1	 1.563319773954980e+000	 2.289726167834827e-001	 9.683322146437615e+000
1	 1.560959701620807e+000	 2.445444583160452e-001	 9.036933033717657e+000
1	 1.558436074438177e+000	 2.601426059483827e-001	 8.403269939318259e+000
1	 1.555747719356131e+000	 2.757647230879017e-001	 7.783211029559944e+000
1	 1.552893503185804e+000	 2.914084350169423e-001	 7.177616145106888e+000
1	 1.549872333871631e+000	 3.070713296070020e-001	 6.587325355030744e+000
1	 1.579346743535532e+000	 1.522266721240030e-001	 1.292466568086042e+001
1	 1.577778956756348e+000	 1.676983232213979e-001	 1.223367445830461e+001
1	 1.576053370259636e+000	 1.832075274299182e-001	 1.155050477714252e+001
1	 1.574168625284182e+000	 1.987521389171739e-001	 1.087612862009905e+001
1	 1.572123396620374e+000	 2.143299706493138e-001	 1.021150592915695e+001
1	 1.569916393913360e+000	 2.299387948858007e-001	 9.557583163110490e+000
1	 1.567546362964054e+000	 2.455763437179628e-001	 8.915291839092994e+000
1	 1.565012087026484e+000	 2.612403096517410e-001	 8.285547060278045e+000
1	 1.562312388099842e+000	 2.769283462349874e-001	 7.669246032051925e+000
1	 1.559446128213619e+000	 2.926380687296147e-001	 7.067266569053714e+000
1	 1.556412210704171e+000	 3.083670548288327e-001	 6.480465595573215e+000
1	 1.585982988808343e+000	 1.528663122394153e-001	 1.277467873067371e+001
1	 1.584408614357630e+000	 1.684029735517064e-001	 1.208926122279323e+001
1	 1.582675777131999e+000	 1.839773457693228e-001	 1.141136660194261e+001
1	 1.580783112660850e+000	 1.995872740433072e-001	 1.074199056898991e+001
1	 1.578729290166173e+000	 2.152305621501178e-001	 1.008211599513812e+001
1	 1.576513013871161e+000	 2.309049729884803e-001	 9.432711424022546e+000
1	 1.574133024306707e+000	 2.466082291202043e-001	 8.794729557807033e+000
1	 1.571588099614184e+000	 2.623380133553782e-001	 8.169105729587828e+000
1	 1.568877056842937e+000	 2.780919693823035e-001	 7.556756364517018e+000
1	 1.565998753240810e+000	 2.938677024424691e-001	 6.958577432158021e+000
1	 1.562952087536078e+000	 3.096627800508011e-001	 6.375442892680436e+000
1	 1.592619234080585e+000	 1.535059523551476e-001	 1.262437147251350e+001
1	 1.591038271958281e+000	 1.691076238824034e-001	 1.194478291601698e+001
1	 1.589298184003680e+000	 1.847471641091542e-001	 1.127240874027014e+001
1	 1.587397600036800e+000	 2.004224091698800e-001	 1.060826853339770e+001
1	 1.585335183711221e+000	 2.161311536513516e-001	 9.953368267574328e+000
1	 1.583109633828190e+000	 2.318711510915626e-001	 9.308698745203861e+000
1	 1.580719685648572e+000	 2.476401145228081e-001	 8.675234029106342e+000
1	 1.578164112201086e+000	 2.634357170593281e-001	 8.053929859132188e+000
1	 1.575441725585226e+000	 2.792555925298784e-001	 7.445722057729210e+000
1	 1.572551378267189e+000	 2.950973361555282e-001	 6.851524927091241e+000
1	 1.569491964367168e+000	 3.109585052729245e-001	 6.272229640616210e+000
1	 1.504093196041590e+000	 2.980012530565968e-001	 7.389200963007616e+000
1	 1.500997747292520e+000	 3.132200298999261e-001	 6.795041937653563e+000
1	 1.497738233748321e+000	 3.284526353368806e-001	 6.215586370149196e+000
1	 1.494313723579467e+000	 3.436966194285618e-001	 5.651394055484589e+000
1	 1.490723329744274e+000	 3.589494990456078e-001	 5.103012135898299e+000
1	 1.486966211157460e+000	 3.742087587819934e-001	 4.570974261386076e+000
1	 1.483041573840250e+000	 3.894718519125411e-001	 4.055799750543308e+000
1	 1.478948672050239e+000	 4.047362013938897e-001	 3.557992753234421e+000
1	 1.474686809389286e+000	 4.199992009085986e-001	 3.078041416619846e+000
1	 1.470255339887630e+000	 4.352582159519864e-001	 2.616417056103046e+000
1	 1.465653669062488e+000	 4.505105849612260e-001	 2.173573332791901e+000
1	 1.510633072873409e+000	 2.992969782779455e-001	 7.268668254635887e+000
1	 1.507524164949504e+000	 3.145819271687185e-001	 6.676620327956394e+000
1	 1.504250478868019e+000	 3.298807647805117e-001	 6.099275653284493e+000
1	 1.500811078747787e+000	 3.451910305219705e-001	 5.537202520383796e+000
1	 1.497205073690221e+000	 3.605102304669627e-001	 4.990955676889669e+000
1	 1.493431618952961e+000	 3.758358382723523e-001	 4.461075459881037e+000
1	 1.489489917104969e+000	 3.911652961396744e-001	 3.948086928729670e+000
1	 1.485379219161321e+000	 4.064960158204545e-001	 3.452499000800097e+000
1	 1.481098825695899e+000	 4.218253796648537e-001	 2.974803591609120e+000
1	 1.476648087930236e+000	 4.371507417132339e-001	 2.515474761087867e+000
1	 1.472026408796709e+000	 4.524694288301597e-001	 2.074967867617056e+000
1	 1.517172949705882e+000	 3.005927034993116e-001	 7.150179520518766e+000
1	 1.514050582607095e+000	 3.159438244375236e-001	 6.560441411847720e+000
1	 1.510762723988268e+000	 3.313088942241527e-001	 5.985401639627129e+000
1	 1.507308433916597e+000	 3.466854416153890e-001	 5.425636140831714e+000
1	 1.503686817636593e+000	 3.620709618883304e-001	 4.881706420084337e+000
1	 1.499897026748817e+000	 3.774629177627315e-001	 4.354158653570535e+000
1	 1.495938260369979e+000	 3.928587403668400e-001	 3.843522795204619e+000
1	 1.491809766272625e+000	 4.082558302470694e-001	 3.350311686698296e+000
1	 1.487510842002673e+000	 4.236515584211839e-001	 2.875020173218811e+000
1	 1.483040835972945e+000	 4.390432674745878e-001	 2.418124226355412e+000
1	 1.478399148530984e+000	 4.544282726992400e-001	 1.980080076141805e+000
1	 1.523712826538826e+000	 3.018884287207119e-001	 7.033703661210044e+000
1	 1.520577000265113e+000	 3.173057217063540e-001	 6.446469899441248e+000
1	 1.517274969108895e+000	 3.327370236678126e-001	 5.873924992051141e+000
1	 1.513805789085730e+000	 3.481798527088229e-001	 5.316651685764276e+000
1	 1.510168561583230e+000	 3.636316933097140e-001	 4.775217403854695e+000
1	 1.506362434544881e+000	 3.790899972531312e-001	 4.250173323672668e+000
1	 1.502386603635133e+000	 3.945521845940356e-001	 3.742053457427576e+000
1	 1.498240313384018e+000	 4.100156446737295e-001	 3.251373737953575e+000
1	 1.493922858309479e+000	 4.254777371775804e-001	 2.778631111221143e+000
1	 1.489433584015637e+000	 4.409357932360366e-001	 2.324302637387780e+000
1	 1.484771888265196e+000	 4.563871165684502e-001	 1.888844602209671e+000
1	 1.530252703372057e+000	 3.031841539421639e-001	 6.919210108904766e+000
1	 1.527103417923380e+000	 3.186676189752223e-001	 6.334671104127119e+000
1	 1.523787214229728e+000	 3.341651531114999e-001	 5.764807045894191e+000
1	 1.520303144255021e+000	 3.496742638022776e-001	 5.210206663147587e+000
1	 1.516650305529975e+000	 3.651924247311161e-001	 4.671442469376795e+000
1	 1.512827842340999e+000	 3.807170767435516e-001	 4.149069815018367e+000
1	 1.508834946900292e+000	 3.962456288212590e-001	 3.643625944144941e+000
1	 1.504670860495363e+000	 4.117754591004300e-001	 3.155629057246545e+000
1	 1.500334874616188e+000	 4.273039159340354e-001	 2.685577381940202e+000
1	 1.495826332058187e+000	 4.428283189975681e-001	 2.233948253474094e+000
1	 1.491144627999229e+000	 4.583459604377744e-001	 1.801197206920289e+000
1	 1.536792580205390e+000	 3.044798791636848e-001	 6.806668816127274e+000
1	 1.533629835581718e+000	 3.200295162441408e-001	 6.225010929735675e+000
1	 1.530299459350595e+000	 3.355932825552235e-001	 5.658009794649089e+000
1	 1.526800499424305e+000	 3.511686748957587e-001	 5.106259304252846e+000
1	 1.523132049476669e+000	 3.667531561525392e-001	 4.570336243548587e+000
1	 1.519293250137022e+000	 3.823441562339925e-001	 4.050799317675679e+000
1	 1.515283290165310e+000	 3.979390730485077e-001	 3.548188185787049e+000
1	 1.511101407606524e+000	 4.135352735271654e-001	 3.063022502154175e+000
1	 1.506746890922672e+000	 4.291300946905406e-001	 2.595800966409242e+000
1	 1.502219080100473e+000	 4.447208447591707e-001	 2.147000384862438e+000
1	 1.497517367732963e+000	 4.603048043071962e-001	 1.717074744856750e+000
1	 1.543332457038643e+000	 3.057756043852918e-001	 6.696050244706501e+000
1	 1.540156253239948e+000	 3.213914135131227e-001	 6.117455858027316e+000
1	 1.536811704471323e+000	 3.370214119989919e-001	 5.553495876019081e+000
1	 1.533297854593415e+000	 3.526630859892718e-001	 5.004768548331501e+000
1	 1.529613793423154e+000	 3.683138875739864e-001	 4.471854122342237e+000
1	 1.525758657932800e+000	 3.839712357244545e-001	 3.955313849041310e+000
1	 1.521731633430045e+000	 3.996325172757796e-001	 3.455688995363881e+000
1	 1.517531954717364e+000	 4.152950879539309e-001	 2.973499864917871e+000
1	 1.513158907228801e+000	 4.309562734470882e-001	 2.509244829083531e+000
1	 1.508611828142372e+000	 4.466133705208325e-001	 2.063399370492687e+000
1	 1.503890107466283e+000	 4.622636481766994e-001	 1.636415140917535e+000
1	 1.549872333871631e+000	 3.070713296070020e-001	 6.587325355030744e+000
1	 1.546682670897893e+000	 3.227533107821800e-001	 6.011972936499409e+000
1	 1.543323949591740e+000	 3.384495414428143e-001	 5.451228558326237e+000
1	 1.539795209762188e+000	 3.541574970828225e-001	 4.905694027678107e+000
1	 1.536095537369272e+000	 3.698746189954602e-001	 4.375952254578421e+000
1	 1.532224065728180e+000	 3.855983152149377e-001	 3.862566236385567e+000
1	 1.528179976694352e+000	 4.013259615030719e-001	 3.366078049844203e+000
1	 1.523962501827749e+000	 4.170549023807215e-001	 2.887007852723913e+000
1	 1.519570923534447e+000	 4.327824522036696e-001	 2.425852897091819e+000
1	 1.515004576183764e+000	 4.485058962825418e-001	 1.983086556293001e+000
1	 1.510262847199072e+000	 4.642224920462676e-001	 1.559157367734727e+000
1	 1.556412210704171e+000	 3.083670548288327e-001	 6.480465595573215e+000
1	 1.553209088555372e+000	 3.241152080513254e-001	 5.908529766500411e+000
1	 1.549836194711674e+000	 3.398776708866992e-001	 5.351171727262403e+000
1	 1.546292564930458e+000	 3.556519081764159e-001	 4.808996053069845e+000
1	 1.542577281314866e+000	 3.714353504169633e-001	 4.282587526109055e+000
1	 1.538689473523012e+000	 3.872253947054421e-001	 3.772510099837350e+000
1	 1.534628319958090e+000	 4.030194057303826e-001	 3.279305872004191e+000
1	 1.530393048937541e+000	 4.188147168075320e-001	 2.803494068480807e+000
1	 1.525982939839479e+000	 4.346086309602767e-001	 2.345570040011202e+000
1	 1.521397324224522e+000	 4.503984220442867e-001	 1.906004274023561e+000
1	 1.516635586931213e+000	 4.661813359158848e-001	 1.485241423661887e+000
1	 1.562952087536078e+000	 3.096627800508011e-001	 6.375442892680436e+000
1	 1.559735506212208e+000	 3.254771053205715e-001	 5.807094491642423e+000
1	 1.556348439830952e+000	 3.413058003306549e-001	 5.253289872973111e+000
1	 1.552789920098058e+000	 3.571463192700581e-001	 4.714635599571635e+000
1	 1.549059025259775e+000	 3.729960818384988e-001	 4.191717544397635e+000
1	 1.545154881317146e+000	 3.888524741959679e-001	 3.685099835796261e+000
1	 1.541076663221114e+000	 4.047128499577091e-001	 3.195323812731978e+000
1	 1.536823596046605e+000	 4.205745312343574e-001	 2.722906992079573e+000
1	 1.532394956143769e+000	 4.364348097169016e-001	 2.268342050149631e+000
1	 1.527790072264526e+000	 4.522909478060553e-001	 1.832095820651488e+000
1	 1.523008326662587e+000	 4.681401797855344e-001	 1.414608311314183e+000
1	 1.569491964367168e+000	 3.109585052729245e-001	 6.272229640616210e+000
1	 1.566261923868223e+000	 3.268390025899310e-001	 5.707635786503475e+000
1	 1.562860684949402e+000	 3.427339297746908e-001	 5.157548077463809e+000
1	 1.559287275264824e+000	 3.586407303637541e-001	 4.622574292696122e+000
1	 1.555540769203843e+000	 3.745568132600691e-001	 4.103300623484901e+000
1	 1.551620289110432e+000	 3.904795536865157e-001	 3.600290600759519e+000
1	 1.547525006483282e+000	 4.064062941850495e-001	 3.114084033774335e+000
1	 1.543254143154806e+000	 4.223343456611926e-001	 2.645195962122100e+000
1	 1.538806972447188e+000	 4.382609884735363e-001	 2.194115623321329e+000
1	 1.534182820303653e+000	 4.541834735678361e-001	 1.761305438241273e+000
1	 1.529381066393079e+000	 4.700990236552003e-001	 1.347200016645388e+000
1	 1.465653669062488e+000	 4.505105849612260e-001	 2.173573332791901e+000
1	 1.460881254582814e+000	 4.657536202629573e-001	 1.749791644681809e+000
1	 1.455937606170270e+000	 4.809846085935220e-001	 1.345395556743326e+000
1	 1.450822287668566e+000	 4.962008129821307e-001	 9.608845181407664e-001
1	 1.445534918351047e+000	 5.113994742604213e-001	 5.967526052749241e-001
1	 1.440075173828056e+000	 5.265778123931375e-001	 2.534880219007780e-001
1	 1.434442786918362e+000	 5.417330278466270e-001	-6.842740511818742e-002
1	 1.428637548482970e+000	 5.568623029941296e-001	-3.685187337282716e-001
1	 1.422659308219669e+000	 5.719628035567329e-001	-6.463184175601776e-001
1	 1.416507975416695e+000	 5.870316800788020e-001	-9.013668190196085e-001
1	 1.410183519663929e+000	 6.020660694366057e-001	-1.133212723830028e+000
1	 1.472026408796709e+000	 4.524694288301597e-001	 2.074967867617056e+000
1	 1.467233243606192e+000	 4.677787416561319e-001	 1.653643202511879e+000
1	 1.462268099948587e+000	 4.830759551300782e-001	 1.251918850128675e+000
1	 1.457130539771175e+000	 4.983583203807138e-001	 8.703186547480237e-001
1	 1.451820180691879e+000	 5.136230662426654e-001	 5.093611340018013e-001
1	 1.446336696910580e+000	 5.288674005929341e-001	 1.695589399396270e-001
1	 1.440679820084324e+000	 5.440885117253453e-001	-1.485816850952701e-001
1	 1.434849340164768e+000	 5.592835697619475e-001	-4.445614570273268e-001
1	 1.428845106196179e+000	 5.744497281002315e-001	-7.178886022654907e-001
1	 1.422667027072372e+000	 5.895841248949770e-001	-9.680794127660595e-001
1	 1.416315072251001e+000	 6.046838845734373e-001	-1.194658803106097e+000
1	 1.478399148530984e+000	 4.544282726992400e-001	 1.980080076141805e+000
1	 1.473585232629581e+000	 4.698038630495011e-001	 1.561330754576777e+000
1	 1.468598593726882e+000	 4.851673016668832e-001	 1.162393254389246e+000
1	 1.463438791873734e+000	 5.005158277796018e-001	 7.838157295559998e-001
1	 1.458105443032640e+000	 5.158466582252691e-001	 4.261409470578991e-001
1	 1.452598219993009e+000	 5.311569887931404e-001	 8.990570681729471e-002
1	 1.446916853250171e+000	 5.464439956045160e-001	-2.243597442356695e-001
1	 1.441061131846431e+000	 5.617048365302479e-001	-5.161323031448456e-001
1	 1.435030904172532e+000	 5.769366526442278e-001	-7.848966061037954e-001
1	 1.428826078727865e+000	 5.921365697116463e-001	-1.030145626939961e+000
1	 1.422446624837859e+000	 6.073016997107373e-001	-1.251381277993617e+000
1	 1.484771888265196e+000	 4.563871165684502e-001	 1.888844602209671e+000
1	 1.479937221652870e+000	 4.718289844430434e-001	 1.472786010857285e+000
1	 1.474929087505048e+000	 4.872586482039092e-001	 1.076746529400669e+000
1	 1.469747043976140e+000	 5.026733351787613e-001	 7.012985326500796e-001
1	 1.464390705373224e+000	 5.180702502081938e-001	 3.470088424974481e-001
1	 1.458859743075247e+000	 5.334465769937136e-001	 1.443810466231495e-002
1	 1.453153886415812e+000	 5.487994794840923e-001	-2.958598409682416e-001
1	 1.447272923527875e+000	 5.641261032989837e-001	-5.833385955061508e-001
1	 1.441216702148652e+000	 5.794235771886765e-001	-8.474598408009550e-001
1	 1.434985130383111e+000	 5.946890145287688e-001	-1.087693982783387e+000
1	 1.428578177424451e+000	 6.099195148484722e-001	-1.303520797414336e+000
1	 1.491144627999229e+000	 4.583459604377744e-001	 1.801197206920289e+000
1	 1.486289210675948e+000	 4.738541058367373e-001	 1.387941848744369e+000
1	 1.481259581282975e+000	 4.893499947411287e-001	 9.949076699753897e-001
1	 1.476055296078286e+000	 5.048308425781587e-001	 6.226911740104615e-001
1	 1.470675967713535e+000	 5.202938421914002e-001	 2.718830407026318e-001
1	 1.465121266157198e+000	 5.357361651946101e-001	-5.693254213225467e-002
1	 1.459390919581158e+000	 5.511549633640283e-001	-3.631785540048813e-001
1	 1.453484715209018e+000	 5.665473700681074e-001	-6.462858228544005e-001
1	 1.447402500124465e+000	 5.819105017335305e-001	-9.056937109423776e-001
1	 1.441144182038046e+000	 5.972414593463019e-001	-1.140850804482081e+000
1	 1.434709730010727e+000	 6.125373299866082e-001	-1.351215605912434e+000
1	 1.497517367732963e+000	 4.603048043071962e-001	 1.717074744856750e+000
1	 1.492641199698700e+000	 4.758792272305609e-001	 1.306732288199454e+000
1	 1.487590075060555e+000	 4.914413412785144e-001	 9.168068795860830e-001
1	 1.482363548180069e+000	 5.069883499777607e-001	 5.479190554279680e-001
1	 1.476961230053470e+000	 5.225174341748503e-001	 2.006831541199035e-001
1	 1.471382789238767e+000	 5.380257533957867e-001	-1.242933997246553e-001
1	 1.465627952746118e+000	 5.535104472442770e-001	-4.264108180809614e-001
1	 1.459696506889775e+000	 5.689686368375715e-001	-7.050776782884632e-001
1	 1.453588298099896e+000	 5.843974262787447e-001	-9.597116566802139e-001
1	 1.447303233692604e+000	 5.997939041642042e-001	-1.189740265913596e+000
1	 1.440841282596636e+000	 6.151551451251107e-001	-1.394601594813879e+000
1	 1.503890107466283e+000	 4.622636481766994e-001	 1.636415140917535e+000
1	 1.498993188721015e+000	 4.779043486244929e-001	 1.229092467546134e+000
1	 1.493920568837680e+000	 4.935326878160388e-001	 8.423755447571886e-001
1	 1.488671800281383e+000	 5.091458573775337e-001	 4.769088431337092e-001
1	 1.483246492392928e+000	 5.247410261585045e-001	 1.333301577654071e-001
1	 1.477644312319856e+000	 5.403153415972000e-001	-1.877301568059100e-001
1	 1.471864985910601e+000	 5.558659311247930e-001	-4.856499587871316e-001
1	 1.465908298570060e+000	 5.713899036073283e-001	-7.598160973081266e-001
1	 1.459774096074869e+000	 5.868843508242728e-001	-1.009625195354978e+000
1	 1.453462285346721e+000	 6.023463489824343e-001	-1.234484436207121e+000
1	 1.446972835182127e+000	 6.177729602639466e-001	-1.433812352085548e+000
1	 1.510262847199072e+000	 4.642224920462676e-001	 1.559157367734727e+000
1	 1.505345177742780e+000	 4.799294700185113e-001	 1.154958619874860e+000
1	 1.500251062614241e+000	 4.956240343536745e-001	 7.715462101047468e-001
1	 1.494980052382124e+000	 5.113033647774449e-001	 4.095884411218720e-001
1	 1.489531754731810e+000	 5.269646181423245e-001	 6.974636047758015e-002
1	 1.483905835400370e+000	 5.426049297988068e-001	-2.473270557714609e-001
1	 1.478102019074516e+000	 5.582214150055291e-001	-5.409877265191934e-001
1	 1.472120090249793e+000	 5.738111703773308e-001	-8.106012948961003e-001
1	 1.465959894049310e+000	 5.893712753700684e-001	-1.055543962063138e+000
1	 1.459621337000334e+000	 6.048987938009504e-001	-1.275203324149644e+000
1	 1.453104387767148e+000	 6.203907754030813e-001	-1.468979210931656e+000
1	 1.516635586931213e+000	 4.661813359158848e-001	 1.485241423661887e+000
1	 1.511697166763883e+000	 4.819545914125947e-001	 1.084268050042564e+000
1	 1.506581556390130e+000	 4.977153808913937e-001	 7.042525540055259e-001
1	 1.501288304482188e+000	 5.134608721774603e-001	 3.458869651449630e-001
1	 1.495817017070015e+000	 5.291882101262712e-001	 9.855376894067895e-003
1	 1.490167358480212e+000	 5.448945180005639e-001	-3.031669231072482e-001
1	 1.484339052237772e+000	 5.605768988864395e-001	-5.925143295721841e-001
1	 1.478331881928889e+000	 5.762324371475313e-001	-8.575318016652300e-001
1	 1.472145692023142e+000	 5.918581999160855e-001	-1.097575749202167e+000
1	 1.465780388653379e+000	 6.074512386197105e-001	-1.312014921472732e+000
1	 1.459235940351649e+000	 6.230085905424816e-001	-1.500231297165161e+000
1	 1.523008326662587e+000	 4.681401797855344e-001	 1.414608311314183e+000
1	 1.518049155784212e+000	 4.839797128067217e-001	 1.016959112249556e+000
1	 1.512912050165239e+000	 4.998067274291694e-001	 6.404293648769914e-001
1	 1.507596556581470e+000	 5.156183795775471e-001	 2.857347173619215e-001
1	 1.502102279407441e+000	 5.314118021103059e-001	-4.641789986751439e-002
1	 1.496428881559288e+000	 5.471841062024277e-001	-3.553311990125359e-001
1	 1.490576085400281e+000	 5.629323827674774e-001	-6.403184664034384e-001
1	 1.484543673607263e+000	 5.786537039178825e-001	-9.007044990980770e-001
1	 1.478331489996291e+000	 5.943451244622782e-001	-1.135826545022568e+000
1	 1.471939440305789e+000	 6.100036834386735e-001	-1.345035245052380e+000
1	 1.465367492935579e+000	 6.256264056821130e-001	-1.527695575389902e+000
1	 1.529381066393079e+000	 4.700990236552003e-001	 1.347200016645388e+000
1	 1.524401144803653e+000	 4.860048342008704e-001	 9.529711881771881e-001
1	 1.519242543939458e+000	 5.018980739669736e-001	 5.800125180503842e-001
1	 1.513904808679865e+000	 5.177758869776713e-001	 2.290631616201919e-001
1	 1.508387541743989e+000	 5.336353940943899e-001	-9.914732484583873e-002
1	 1.502690404637501e+000	 5.494736944043553e-001	-4.038999662824485e-001
1	 1.496813118561950e+000	 5.652878666485969e-001	-6.844873570891025e-001
1	 1.490755465284833e+000	 5.810749706883370e-001	-9.402146539055009e-001
1	 1.484517287968682e+000	 5.968320490086004e-001	-1.170400571216254e+000
1	 1.478098491957502e+000	 6.125561282577968e-001	-1.374378378054026e+000
1	 1.471499045518887e+000	 6.282442208219421e-001	-1.551496894027999e+000
1	 1.410183519663929e+000	 6.020660694366057e-001	-1.133212723830029e+000
1	 1.403686959262296e+000	 6.170608500081971e-001	-1.356532314862595e+000
1	 1.397017451590627e+000	 6.320153956248561e-001	-1.585646475162162e+000
1	 1.390175151974715e+000	 6.469268136174284e-001	-1.819474984484003e+000
1	 1.383160278389224e+000	 6.617922040227658e-001	-2.056934043543434e+000
1	 1.375973111932677e+000	 6.766086612348735e-001	-2.296937897334393e+000
1	 1.368613997251564e+000	 6.913732756799494e-001	-2.538400483794568e+000
1	 1.361083342912368e+000	 7.060831355135255e-001	-2.780237104874517e+000
1	 1.353381621720377e+000	 7.207353283378716e-001	-3.021366116962811e+000
1	 1.345509370984224e+000	 7.353269429377547e-001	-3.260710637521326e+000
1	 1.337467192725185e+000	 7.498550710325906e-001	-3.497200264693002e+000
1	 1.416315072251001e+000	 6.046838845734373e-001	-1.194658803106097e+000
1	 1.409790264460619e+000	 6.197438632445814e-001	-1.412315909832679e+000
1	 1.403091757416306e+000	 6.347634320170740e-001	-1.635423838337037e+000
1	 1.396219707119228e+000	 6.497396856442840e-001	-1.862943935088414e+000
1	 1.389174332491827e+000	 6.646697115538689e-001	-2.093839168191835e+000
1	 1.381955915854867e+000	 6.795505915061075e-001	-2.327075753675439e+000
1	 1.374564803353394e+000	 6.943794032762171e-001	-2.561624798021691e+000
1	 1.367001405330368e+000	 7.091532223588758e-001	-2.796463953858588e+000
1	 1.359266196646870e+000	 7.238691236930948e-001	-3.030579085642451e+000
1	 1.351359716947796e+000	 7.385241834055245e-001	-3.262965942086648e+000
1	 1.343282570872048e+000	 7.531154805702228e-001	-3.492631832022286e+000
1	 1.422446624837859e+000	 6.073016997107373e-001	-1.251381277993618e+000
1	 1.415893569658691e+000	 6.224268764813835e-001	-1.463326380691330e+000
1	 1.409166063241688e+000	 6.375114684096384e-001	-1.680426453546092e+000
1	 1.402264262263400e+000	 6.525525576713976e-001	-1.901684268059338e+000
1	 1.395188386594041e+000	 6.675472190851323e-001	-2.126108985244524e+000
1	 1.387938719776625e+000	 6.824925217773965e-001	-2.352717779609438e+000
1	 1.380515609454748e+000	 6.973855308724335e-001	-2.580537470962276e+000
1	 1.372919467747855e+000	 7.122233092040731e-001	-2.808606160837628e+000
1	 1.365150771572824e+000	 7.270029190480732e-001	-3.035974870272603e+000
1	 1.357210062910808e+000	 7.417214238729719e-001	-3.261709175606509e+000
1	 1.349097949018345e+000	 7.563758901074750e-001	-3.484890838928464e+000
1	 1.428578177424451e+000	 6.099195148484722e-001	-1.303520797414336e+000
1	 1.421996874856474e+000	 6.251098897185816e-001	-1.509714898378858e+000
1	 1.415240369066761e+000	 6.402595048025424e-001	-1.720811787689587e+000
1	 1.408308817407234e+000	 6.553654296987800e-001	-1.935855518751407e+000
1	 1.401202440695892e+000	 6.704247266165833e-001	-2.153900873431426e+000
1	 1.393921523697992e+000	 6.854344520487875e-001	-2.374014978503392e+000
1	 1.386466415555689e+000	 7.003916584686644e-001	-2.595278922174041e+000
1	 1.378837530164909e+000	 7.152933960492007e-001	-2.816789367388278e+000
1	 1.371035346498327e+000	 7.301367144029044e-001	-3.037660158561589e+000
1	 1.363060408873358e+000	 7.449186643402056e-001	-3.257023918348743e+000
1	 1.354913327164176e+000	 7.596362996444629e-001	-3.474033631029568e+000
1	 1.434709730010727e+000	 6.125373299866082e-001	-1.351215605912434e+000
1	 1.428100180053938e+000	 6.277929029561533e-001	-1.551630049585091e+000
1	 1.421314674891504e+000	 6.430075411957767e-001	-1.756734615788762e+000
1	 1.414353372550734e+000	 6.581783017264401e-001	-1.965614495280454e+000
1	 1.407216494797402e+000	 6.733022341482499e-001	-2.177369521111042e+000
1	 1.399904327619013e+000	 6.883763823203269e-001	-2.391115772338959e+000
1	 1.392417221656276e+000	 7.033977860649748e-001	-2.605987170758310e+000
1	 1.384755592581603e+000	 7.183634828943404e-001	-2.821137067258883e+000
1	 1.376919921423466e+000	 7.332705097576847e-001	-3.035739814403494e+000
1	 1.368910754835542e+000	 7.481159048073343e-001	-3.248992321785932e+000
1	 1.360728705309640e+000	 7.628967091813032e-001	-3.460115590721516e+000
1	 1.440841282596636e+000	 6.151551451251107e-001	-1.394601594813879e+000
1	 1.434203485251044e+000	 6.304759161940762e-001	-1.589217891736502e+000
1	 1.427388980715904e+000	 6.457555775893358e-001	-1.788347078262849e+000
1	 1.420397927693902e+000	 6.609911737543874e-001	-1.991115336552814e+000
1	 1.413230548898594e+000	 6.761797416801600e-001	-2.196666983515193e+000
1	 1.405887131539728e+000	 6.913183125920612e-001	-2.404166056638329e+000
1	 1.398368027756570e+000	 7.064039136614295e-001	-2.612797886436359e+000
1	 1.390673654998015e+000	 7.214335697395736e-001	-2.821770652070292e+000
1	 1.382804496348332e+000	 7.364043051125114e-001	-3.030316916684928e+000
1	 1.374761100797457e+000	 7.513131452744667e-001	-3.237695138996922e+000
1	 1.366544083454837e+000	 7.661571187181121e-001	-3.443191157673151e+000
1	 1.446972835182127e+000	 6.177729602639466e-001	-1.433812352085548e+000
1	 1.440306790447758e+000	 6.331589294323280e-001	-1.622622006584957e+000
1	 1.433463286539944e+000	 6.485036139832111e-001	-1.815798736749860e+000
1	 1.426442482836742e+000	 6.638040457826309e-001	-2.012509568819194e+000
1	 1.419244602999491e+000	 6.790572492123410e-001	-2.211942738538541e+000
1	 1.411869935460181e+000	 6.942602428640372e-001	-2.413309253993746e+000
1	 1.404318833856632e+000	 7.094100412580943e-001	-2.615844439326919e+000
1	 1.396591717414220e+000	 7.245036565849834e-001	-2.818809455854601e+000
1	 1.388689071273012e+000	 7.395381004674813e-001	-3.021492797104584e+000
1	 1.380611446759200e+000	 7.545103857417109e-001	-3.223211754295305e+000
1	 1.372359461599867e+000	 7.694175282550056e-001	-3.423313848800390e+000
1	 1.453104387767148e+000	 6.203907754030813e-001	-1.468979210931655e+000
1	 1.446410095644047e+000	 6.358419426708865e-001	-1.651983552439799e+000
1	 1.439537592363605e+000	 6.512516503773947e-001	-1.839236628513967e+000
1	 1.432487037979258e+000	 6.666169178111806e-001	-2.029946160797044e+000
1	 1.425258657100116e+000	 6.819347567448212e-001	-2.223343741115637e+000
1	 1.417852739380413e+000	 6.972021731363018e-001	-2.418686366241690e+000
1	 1.410269639956520e+000	 7.124161688550331e-001	-2.615257948463476e+000
1	 1.402509779830295e+000	 7.275737434306515e-001	-2.812370798466656e+000
1	 1.394573646197594e+000	 7.426718958226916e-001	-3.009367077035980e+000
1	 1.386461792720868e+000	 7.577076262091769e-001	-3.205620212107727e+000
1	 1.378174839744830e+000	 7.726779377921001e-001	-3.400536277734501e+000
1	 1.459235940351649e+000	 6.230085905424816e-001	-1.500231297165160e+000
1	 1.452513400839875e+000	 6.385249559097292e-001	-1.677441315083213e+000
1	 1.445611898186873e+000	 6.539996867718798e-001	-1.858805319481317e+000
1	 1.438531593121450e+000	 6.694297898400456e-001	-2.043571577402774e+000
1	 1.431272711200492e+000	 6.848122642776284e-001	-2.231014476226906e+000
1	 1.423835543300468e+000	 7.001441034089009e-001	-2.420436025321717e+000
1	 1.416220446056298e+000	 7.154222964523116e-001	-2.611167329088448e+000
1	 1.408427842246315e+000	 7.306438302766600e-001	-2.802570027900663e+000
1	 1.400458221122166e+000	 7.458056911782389e-001	-2.994037703460218e+000
1	 1.392312138682557e+000	 7.609048666769719e-001	-3.184997245124361e+000
1	 1.383990217889825e+000	 7.759383473295118e-001	-3.374910173799676e+000
1	 1.465367492935579e+000	 6.256264056821130e-001	-1.527695575389904e+000
1	 1.458616706035207e+000	 6.412079691488342e-001	-1.699131757407142e+000
1	 1.451686204009731e+000	 6.567477231666585e-001	-1.874646955944398e+000
1	 1.444576148263325e+000	 6.722426618692358e-001	-2.053529832135323e+000
1	 1.437286765300642e+000	 6.876897718107901e-001	-2.235097010574050e+000
1	 1.429818347220387e+000	 7.030860336818817e-001	-2.418694542858362e+000
1	 1.422171252156024e+000	 7.184284240499951e-001	-2.603699338759906e+000
1	 1.414345904662357e+000	 7.337139171230911e-001	-2.789520561544647e+000
1	 1.406342796046818e+000	 7.489394865342206e-001	-2.975600983997047e+000
1	 1.398162484644362e+000	 7.641021071452053e-001	-3.161418301742378e+000
1	 1.389805596034953e+000	 7.791987568673571e-001	-3.346486400514173e+000
1	 1.471499045518887e+000	 6.282442208219421e-001	-1.551496894027999e+000
1	 1.464720011230010e+000	 6.438909823881791e-001	-1.717189067809301e+000
1	 1.457760509832163e+000	 6.594957595617235e-001	-1.886901314973459e+000
1	 1.450620703404884e+000	 6.750555338987602e-001	-2.059962538149988e+000
1	 1.443300819400589e+000	 6.905672793443340e-001	-2.235731042963366e+000
1	 1.435801151140213e+000	 7.060279639552906e-001	-2.413595958503513e+000
1	 1.428122058255759e+000	 7.214345516481479e-001	-2.592978622305617e+000
1	 1.420263967078497e+000	 7.367840039700271e-001	-2.773333926403606e+000
1	 1.412227370971638e+000	 7.520732818907335e-001	-2.954151621059881e+000
1	 1.404012830606383e+000	 7.672993476139858e-001	-3.134957572823377e+000
1	 1.395620974180313e+000	 7.824591664057522e-001	-3.315314973628678e+000
1	 1.337467192725185e+000	 7.498550710325906e-001	-3.497200264693002e+000
1	 1.329254509510220e+000	 7.643189735336878e-001	-3.740605631615253e+000
1	 1.320873248139401e+000	 7.787135684687788e-001	-4.001363657098846e+000
1	 1.312324206908703e+000	 7.930359665787399e-001	-4.279501736267735e+000
1	 1.303608249122617e+000	 8.072832887068897e-001	-4.575029409679547e+000
1	 1.294726303013822e+000	 8.214526676025593e-001	-4.887937990930891e+000
1	 1.285679361603477e+000	 8.355412497282297e-001	-5.218200214633747e+000
1	 1.276468482501733e+000	 8.495461970679689e-001	-5.565769905761115e+000
1	 1.267094787648218e+000	 8.634646889348845e-001	-5.930581671323847e+000
1	 1.257559462992334e+000	 8.772939237752969e-001	-6.312550615303347e+000
1	 1.247863758113289e+000	 8.910311209672919e-001	-6.711572077723917e+000
1	 1.343282570872048e+000	 7.531154805702228e-001	-3.492631832022286e+000
1	 1.335034178475888e+000	 7.676422728849027e-001	-3.729284943491505e+000
1	 1.326616474937202e+000	 7.820994562806128e-001	-3.983249746899263e+000
1	 1.318030262022983e+000	 7.964841289355790e-001	-4.254553389103128e+000
1	 1.309276406791394e+000	 8.107933991743942e-001	-4.543200195951237e+000
1	 1.300355841511107e+000	 8.250243872794326e-001	-4.849171272260845e+000
1	 1.291269563520969e+000	 8.391742273058449e-001	-5.172424131024535e+000
1	 1.282018635029659e+000	 8.532400688978551e-001	-5.512892352977669e+000
1	 1.272604182855040e+000	 8.672190791040763e-001	-5.870485277602981e+000
1	 1.263027398103068e+000	 8.811084441895263e-001	-6.245087726591835e+000
1	 1.253289535786170e+000	 8.949053714419994e-001	-6.636559760714485e+000
1	 1.349097949018345e+000	 7.563758901074750e-001	-3.484890838928464e+000
1	 1.340813847440995e+000	 7.709655722357034e-001	-3.715121269154273e+000
1	 1.332359701734460e+000	 7.854853440920209e-001	-3.962570045687998e+000
1	 1.323736317136747e+000	 7.999322912920004e-001	-4.227263818407145e+000
1	 1.314944564459694e+000	 8.143035096415076e-001	-4.509201923289839e+000
1	 1.305985380007956e+000	 8.285961069559577e-001	-4.808355958491585e+000
1	 1.296859765438073e+000	 8.428072048831674e-001	-5.124669397697240e+000
1	 1.287568787557245e+000	 8.569339407275151e-001	-5.458057242004194e+000
1	 1.278113578061571e+000	 8.709734692731173e-001	-5.808405711514949e+000
1	 1.268495333213559e+000	 8.849229646036848e-001	-6.175571977738415e+000
1	 1.258715313458849e+000	 8.987796219167211e-001	-6.559383937815007e+000
1	 1.354913327164176e+000	 7.596362996444629e-001	-3.474033631029569e+000
1	 1.346593516405640e+000	 7.742888715862085e-001	-3.698143907076167e+000
1	 1.338102928531266e+000	 7.888712319031206e-001	-3.939331297588442e+000
1	 1.329442372250075e+000	 8.033804536481169e-001	-4.197621705681658e+000
1	 1.320612722127579e+000	 8.178136201083344e-001	-4.473009696997650e+000
1	 1.311614918504417e+000	 8.321678266322277e-001	-4.765458055573855e+000
1	 1.302449967354816e+000	 8.464401824602766e-001	-5.074897384236094e+000
1	 1.293118940084501e+000	 8.606278125570133e-001	-5.401225750875107e+000
1	 1.283622973267805e+000	 8.747278594420556e-001	-5.744308381873896e+000
1	 1.273963268323783e+000	 8.887374850178065e-001	-6.103977403856889e+000
1	 1.264141091131294e+000	 9.026538723914742e-001	-6.480031634826553e+000
1	 1.360728705309640e+000	 7.628967091813032e-001	-3.460115590721516e+000
1	 1.352373185369918e+000	 7.776121709365371e-001	-3.678381654875563e+000
1	 1.343846155327709e+000	 7.922571197140294e-001	-3.913540131433230e+000
1	 1.335148427363046e+000	 8.068286160040405e-001	-4.165615925916492e+000
1	 1.326280879795113e+000	 8.213237305749779e-001	-4.434599047947972e+000
1	 1.317244457000535e+000	 8.357395463083337e-001	-4.720444150581536e+000
1	 1.308040169271227e+000	 8.500731600372512e-001	-5.023070120607034e+000
1	 1.298669092611440e+000	 8.643216843864142e-001	-5.342359721280809e+000
1	 1.289132368473736e+000	 8.784822496109402e-001	-5.678159288825299e+000
1	 1.279431203433722e+000	 8.925520054319233e-001	-6.030278483926748e+000
1	 1.269566868803472e+000	 9.065281228662759e-001	-6.398490099341776e+000
1	 1.366544083454837e+000	 7.661571187181121e-001	-3.443191157673152e+000
1	 1.358152854333929e+000	 7.809354702868091e-001	-3.655862819973015e+000
1	 1.349589382123879e+000	 7.956430075248646e-001	-3.885203063217488e+000
1	 1.340854482475736e+000	 8.102767783598834e-001	-4.131235543471924e+000
1	 1.331949037462359e+000	 8.248338410415417e-001	-4.393945923530064e+000
1	 1.322873995496359e+000	 8.393112659843688e-001	-4.673281399346984e+000
1	 1.313630371187337e+000	 8.537061376141703e-001	-4.969150283105805e+000
1	 1.304219245138071e+000	 8.680155562157819e-001	-5.281421644446589e+000
1	 1.294641763679357e+000	 8.822366397798189e-001	-5.609925011263644e+000
1	 1.284899138543354e+000	 8.963665258460675e-001	-5.954450131348703e+000
1	 1.274992646475349e+000	 9.104023733411429e-001	-6.314746796025368e+000
1	 1.372359461599867e+000	 7.694175282550056e-001	-3.423313848800391e+000
1	 1.363932523297767e+000	 7.842587696371426e-001	-3.630615229977929e+000
1	 1.355332608919866e+000	 7.990288953357441e-001	-3.854326498489579e+000
1	 1.346560537588225e+000	 8.137249407157575e-001	-4.094469808066578e+000
1	 1.337617195129382e+000	 8.283439515081290e-001	-4.351026678824056e+000
1	 1.328503533991933e+000	 8.428829856604246e-001	-4.623937514410370e+000
1	 1.319220573103173e+000	 8.573391151911127e-001	-4.913101180664245e+000
1	 1.309769397664406e+000	 8.717094280451802e-001	-5.218374647370482e+000
1	 1.300151158884664e+000	 8.859910299487409e-001	-5.539572694570099e+000
1	 1.290367073652657e+000	 9.001810462602722e-001	-5.876467684740509e+000
1	 1.280418424146894e+000	 9.142766238160928e-001	-6.228789402015228e+000
1	 1.378174839744830e+000	 7.726779377921001e-001	-3.400536277734502e+000
1	 1.369712192261533e+000	 7.875820689876575e-001	-3.602666242811286e+000
1	 1.361075835715758e+000	 8.024147831467851e-001	-3.820916734681236e+000
1	 1.352266592700590e+000	 8.171731030717754e-001	-4.055308150866795e+000
1	 1.343285352796243e+000	 8.318540619748436e-001	-4.305818067999634e+000
1	 1.334133072487305e+000	 8.464547053365934e-001	-4.572380753274124e+000
1	 1.324810775018765e+000	 8.609720927681572e-001	-4.854886741502473e+000
1	 1.315319550190456e+000	 8.754032998746728e-001	-5.153182479409753e+000
1	 1.305660554089649e+000	 8.897454201177542e-001	-5.467070038661190e+000
1	 1.295835008761611e+000	 9.039955666745698e-001	-5.796306898965551e+000
1	 1.285844201818073e+000	 9.181508742911424e-001	-6.140605802439416e+000
1	 1.383990217889825e+000	 7.759383473295118e-001	-3.374910173799675e+000
1	 1.375491861225321e+000	 7.909053683384724e-001	-3.572042756573791e+000
1	 1.366819062511647e+000	 8.058006709581057e-001	-3.784979963379080e+000
1	 1.357972647812910e+000	 8.206212654280490e-001	-4.013740180674423e+000
1	 1.348953510463008e+000	 8.353641724417891e-001	-4.258297235931241e+000
1	 1.339762610982522e+000	 8.500264250129681e-001	-4.518579906953633e+000
1	 1.330400976934140e+000	 8.646050703453824e-001	-4.794471500118360e+000
1	 1.320869702716232e+000	 8.790971717043243e-001	-5.085809499205363e+000
1	 1.311169949294307e+000	 8.934998102869073e-001	-5.392385286337583e+000
1	 1.301302943870196e+000	 9.078100870889931e-001	-5.713943936387661e+000
1	 1.291269979488853e+000	 9.220251247663096e-001	-6.050184086046571e+000
1	 1.389805596034953e+000	 7.791987568673571e-001	-3.346486400514174e+000
1	 1.381271530189230e+000	 7.942286676897064e-001	-3.538771219165797e+000
1	 1.372562289307621e+000	 8.091865587698228e-001	-3.746522272539138e+000
1	 1.363678702925262e+000	 8.240694277846904e-001	-3.969755680210321e+000
1	 1.354621668129737e+000	 8.388742829090683e-001	-4.208441710023819e+000
1	 1.345392149477630e+000	 8.535981446896399e-001	-4.462504288815274e+000
1	 1.335991178849329e+000	 8.682380479228680e-001	-4.731820584602798e+000
1	 1.326419855241744e+000	 8.827910435341986e-001	-5.016220661934920e+000
1	 1.316679344498633e+000	 8.972542004562490e-001	-5.315487211926469e+000
1	 1.306770878978389e+000	 9.116246075035744e-001	-5.629355358345634e+000
1	 1.296695757159201e+000	 9.258993752416104e-001	-5.957512540945563e+000
1	 1.395620974180313e+000	 7.824591664057522e-001	-3.315314973628678e+000
1	 1.387051199153357e+000	 7.975519670414789e-001	-3.502877637667244e+000
1	 1.378305516103771e+000	 8.125724465820544e-001	-3.705549648645861e+000
1	 1.369384758037725e+000	 8.275175901418119e-001	-3.923344602491202e+000
1	 1.360289825796497e+000	 8.423843933767854e-001	-4.156229392243303e+000
1	 1.351021687972676e+000	 8.571698643667016e-001	-4.404123723693560e+000
1	 1.341581380764360e+000	 8.718710255006921e-001	-4.666899704272954e+000
1	 1.331970007767004e+000	 8.864849153643604e-001	-4.944381506884158e+000
1	 1.322188739702620e+000	 9.010085906258275e-001	-5.236345110207737e+000
1	 1.312238814086172e+000	 9.154391279183470e-001	-5.542518116840932e+000
1	 1.302121534829085e+000	 9.297736257170631e-001	-5.862579650452150e+000
1	 1.247863758113289e+000	 8.910311209672919e-001	-6.711572077723917e+000
1	 1.238008985427848e+000	 9.046735223098030e-001	-7.122448144902510e+000
1	 1.227996518643735e+000	 9.182183928799237e-001	-7.540303075556404e+000
1	 1.217827793274197e+000	 9.316630236738184e-001	-7.965526969367524e+000
1	 1.207504306375576e+000	 9.450047336581960e-001	-8.398544679299375e+000
1	 1.197027615871412e+000	 9.582408715077666e-001	-8.839815079995292e+000
1	 1.186399339818024e+000	 9.713688173232155e-001	-9.289830265618175e+000
1	 1.175621155612181e+000	 9.843859843274009e-001	-9.749114678454509e+000
1	 1.164694799141658e+000	 9.972898205375118e-001	-1.021822416979231e+001
1	 1.153622063879497e+000	 1.010077810410943e+000	-1.069774499477113e+001
1	 1.142404799922955e+000	 1.022747476462686e+000	-1.118829274308244e+001
1	 1.253289535786170e+000	 8.949053714419994e-001	-6.636559760714485e+000
1	 1.243391914027553e+000	 9.086070906676272e-001	-7.039902871563267e+000
1	 1.233335912507901e+000	 9.222108550519141e-001	-7.450456127685927e+000
1	 1.223122972982158e+000	 9.357139438121347e-001	-7.868593630856063e+000
1	 1.212754599015951e+000	 9.491136642577257e-001	-8.294724129770131e+000
1	 1.202232355306766e+000	 9.624073535352949e-001	-8.729290310832383e+000
1	 1.191557866946323e+000	 9.755923803540693e-001	-9.172768018549979e+000
1	 1.180732818624811e+000	 9.886661466894645e-001	-9.625665406815159e+000
1	 1.169758953777745e+000	 1.001626089462516e+000	-1.008852202253973e+001
1	 1.158638073676291e+000	 1.014469682192906e+000	-1.056190782329402e+001
1	 1.147372036462036e+000	 1.027194436623394e+000	-1.104642213078309e+001
1	 1.258715313458849e+000	 8.987796219167211e-001	-6.559383937815007e+000
1	 1.248774842627094e+000	 9.125406590255507e-001	-6.955065506634744e+000
1	 1.238675306371938e+000	 9.262033172240887e-001	-7.358192786224364e+000
1	 1.228418152690017e+000	 9.397648639507167e-001	-7.769126060340059e+000
1	 1.218004891656252e+000	 9.532225948575972e-001	-8.188260008623074e+000
1	 1.207437094742074e+000	 9.665738355632358e-001	-8.616023015981032e+000
1	 1.196716394074604e+000	 9.798159433853974e-001	-9.052876411995047e+000
1	 1.185844481637454e+000	 9.929463090520543e-001	-9.499313641595153e+000
1	 1.174823108413879e+000	 1.005962358388084e+000	-9.955859368430687e+000
1	 1.163654083473172e+000	 1.018861553975460e+000	-1.042306851255183e+001
1	 1.152339273001251e+000	 1.031641396784701e+000	-1.090152522419371e+001
1	 1.264141091131294e+000	 9.026538723914742e-001	-6.480031634826553e+000
1	 1.254157771226431e+000	 9.164742273835768e-001	-6.867937587601390e+000
1	 1.244014700235796e+000	 9.301957793964363e-001	-7.263527785711117e+000
1	 1.233713332397727e+000	 9.438157840895419e-001	-7.667150852956779e+000
1	 1.223255184296433e+000	 9.573315254577779e-001	-8.079189414520828e+000
1	 1.212641834177289e+000	 9.707403175915464e-001	-8.500059421179126e+000
1	 1.201874921202824e+000	 9.840395064171491e-001	-8.930209404203062e+000
1	 1.190956144650070e+000	 9.972264714151127e-001	-9.370119662164756e+000
1	 1.179887263050023e+000	 1.010298627314156e+000	-9.820301381046264e+000
1	 1.168670093270106e+000	 1.023253425758538e+000	-1.028129568923471e+001
1	 1.157306509540564e+000	 1.036088356946540e+000	-1.075367264916664e+001
1	 1.269566868803472e+000	 9.065281228662759e-001	-6.398490099341774e+000
1	 1.259540699825522e+000	 9.204077957417067e-001	-6.778520625663823e+000
1	 1.249354094099432e+000	 9.341882415689462e-001	-7.166475608799506e+000
1	 1.239008512105239e+000	 9.478667042285858e-001	-7.562694149202156e+000
1	 1.228505476936444e+000	 9.614404560582328e-001	-7.967548811928000e+000
1	 1.217846573612366e+000	 9.749067996201827e-001	-8.381444961940469e+000
1	 1.207033448330940e+000	 9.882630694492725e-001	-8.804820031012877e+000
1	 1.196067807662619e+000	 1.001506633778581e+000	-9.238142717424820e+000
1	 1.184951417686142e+000	 1.014634896240669e+000	-9.681912119831770e+000
1	 1.173686103067057e+000	 1.027645297542076e+000	-1.013665680686673e+001
1	 1.162273746079945e+000	 1.040535317108847e+000	-1.060293382421235e+001
1	 1.274992646475349e+000	 9.104023733411429e-001	-6.314746796025367e+000
1	 1.264923628424325e+000	 9.243413640999446e-001	-6.686816106297764e+000
1	 1.254693487962799e+000	 9.381807037416075e-001	-7.067050491616437e+000
1	 1.244303691812506e+000	 9.519176243678263e-001	-7.455781644604287e+000
1	 1.233755769576238e+000	 9.655493866589289e-001	-7.853374044605486e+000
1	 1.223051313047260e+000	 9.790732816491017e-001	-8.260224300368391e+000
1	 1.212191975458910e+000	 9.924866324817162e-001	-8.676760425479341e+000
1	 1.201179470675061e+000	 1.005786796142402e+000	-9.103441047732645e+000
1	 1.190015572322198e+000	 1.018971165167558e+000	-9.540754553803476e+000
1	 1.178702112863993e+000	 1.032037169326007e+000	-9.989218170768186e+000
1	 1.167240982619358e+000	 1.044982277271553e+000	-1.044937698618929e+001
1	 1.280418424146894e+000	 9.142766238160928e-001	-6.228789402015229e+000
1	 1.270306557022799e+000	 9.282749324582924e-001	-6.592825489799426e+000
1	 1.260032881825851e+000	 9.421731659144090e-001	-6.965266428985544e+000
1	 1.249598871519480e+000	 9.559685445072400e-001	-7.346438599151091e+000
1	 1.239006062215768e+000	 9.696583172598308e-001	-7.736700348761464e+000
1	 1.228256052481923e+000	 9.832397636782588e-001	-8.136441341542930e+000
1	 1.217350502586689e+000	 9.967101955144281e-001	-8.546081837001196e+000
1	 1.206291133687358e+000	 1.010066958506518e+000	-8.966071906270102e+000
1	 1.195079726958154e+000	 1.023307434094763e+000	-9.396890584651446e+000
1	 1.183718122660878e+000	 1.036429041110268e+000	-9.839044962382729e+000
1	 1.172208219158771e+000	 1.049429237434591e+000	-1.029306921533976e+001
1	 1.285844201818073e+000	 9.181508742911424e-001	-6.140605802439417e+000
1	 1.275689485620904e+000	 9.322085008167522e-001	-6.496550211816382e+000
1	 1.265372275688542e+000	 9.461656280873408e-001	-6.861137179518366e+000
1	 1.254894051226112e+000	 9.600194646468043e-001	-7.234689846479597e+000
1	 1.244256354854985e+000	 9.737672478609056e-001	-7.617562365869725e+000
1	 1.233460791916311e+000	 9.874062457076122e-001	-8.010139249492028e+000
1	 1.222509029714235e+000	 1.000933758547358e+000	-8.412834649964319e+000
1	 1.211402796699468e+000	 1.014347120870870e+000	-8.826091579871950e+000
1	 1.200143881593975e+000	 1.027643703022220e+000	-9.250381069258523e+000
1	 1.188734132457679e+000	 1.040820912894790e+000	-9.686201262989789e+000
1	 1.177175455698150e+000	 1.053876197597896e+000	-1.013407645969260e+001
1	 1.291269979488853e+000	 9.220251247663096e-001	-6.050184086046571e+000
1	 1.281072414218598e+000	 9.361420691753278e-001	-6.397991683865833e+000
1	 1.270711669550826e+000	 9.501580902603912e-001	-6.754676270576744e+000
1	 1.260189230932356e+000	 9.640703847864955e-001	-7.120559802833243e+000
1	 1.249506647493842e+000	 9.778761784621188e-001	-7.495994155164664e+000
1	 1.238665531350377e+000	 9.915727277371169e-001	-7.881360462761169e+000
1	 1.227667556841505e+000	 1.005157321580453e+000	-8.277068401915418e+000
1	 1.216514459711353e+000	 1.018627283235401e+000	-8.683555409327676e+000
1	 1.205208036229623e+000	 1.031979971949866e+000	-9.101285841651054e+000
1	 1.193750142254360e+000	 1.045212784679509e+000	-9.530750076817796e+000
1	 1.182142692237461e+000	 1.058323157761401e+000	-9.972463558850357e+000
1	 1.296695757159201e+000	 9.258993752416104e-001	-5.957512540945563e+000
1	 1.286455342815841e+000	 9.400756375340205e-001	-6.297151293838924e+000
1	 1.276051063412657e+000	 9.541505524335500e-001	-6.645897003111428e+000
1	 1.265484410638162e+000	 9.681213049262910e-001	-7.004072475794271e+000
1	 1.254756940132293e+000	 9.819851090634368e-001	-7.372029205822631e+000
1	 1.243870270784076e+000	 9.957392097667297e-001	-7.750146709591218e+000
1	 1.232826083968456e+000	 1.009380884613662e+000	-8.138831801278876e+000
1	 1.221626122722972e+000	 1.022907445600052e+000	-8.538517809174433e+000
1	 1.210272190865062e+000	 1.036316240877639e+000	-8.949663734398856e+000
1	 1.198766152050888e+000	 1.049604656464360e+000	-9.372753353577940e+000
1	 1.187109928776672e+000	 1.062770117925039e+000	-9.808294267179257e+000
1	 1.302121534829085e+000	 9.297736257170631e-001	-5.862579650452149e+000
1	 1.291838271412590e+000	 9.440092058928340e-001	-6.194030406493382e+000
1	 1.281390457273991e+000	 9.581430146068060e-001	-6.534812456378614e+000
1	 1.270779590343483e+000	 9.721722250661671e-001	-6.885251472798017e+000
1	 1.260007232770287e+000	 9.860940396648253e-001	-7.245700448838795e+000
1	 1.249075010217361e+000	 9.999056917964071e-001	-7.616539022717283e+000
1	 1.237984611095045e+000	 1.013604447646933e+000	-7.998172744631265e+000
1	 1.226737785734286e+000	 1.027187607964766e+000	-8.391032286994911e+000
1	 1.215336345500255e+000	 1.040652509805476e+000	-8.795572599479282e+000
1	 1.203782161847228e+000	 1.053996528249277e+000	-9.212272010434420e+000
1	 1.192077165315749e+000	 1.067217078088745e+000	-9.641631276419215e+000
1	 1.142404799922955e+000	 1.022747476462686e+000	-1.118829274308244e+001
1	 1.131046627642062e+000	 1.035294507947630e+000	-1.167915404946975e+001
1	 1.119547835519656e+000	 1.047718419402501e+000	-1.215975910185447e+001
1	 1.107910437291455e+000	 1.060016858949330e+000	-1.263074489738067e+001
1	 1.096136498889500e+000	 1.072187518904880e+000	-1.309275862133423e+001
1	 1.084228137221870e+000	 1.084228137221870e+000	-1.354645693435036e+001
1	 1.072187518904880e+000	 1.096136498889500e+000	-1.399250524612620e+001
1	 1.060016858949330e+000	 1.107910437291456e+000	-1.443157697697988e+001
1	 1.047718419402502e+000	 1.119547835519656e+000	-1.486435280862527e+001
1	 1.035294507947629e+000	 1.131046627642062e+000	-1.529151992555756e+001
1	 1.022747476462687e+000	 1.142404799922955e+000	-1.571377124846316e+001
1	 1.147372036462036e+000	 1.027194436623394e+000	-1.104642213078309e+001
1	 1.135964478246579e+000	 1.039796023265520e+000	-1.153123242925459e+001
1	 1.124415688767098e+000	 1.052273954545191e+000	-1.200568292658328e+001
1	 1.112727690515145e+000	 1.064625868358344e+000	-1.247044844699235e+001
1	 1.100902558405543e+000	 1.076849446987810e+000	-1.292621609419010e+001
1	 1.088942418550806e+000	 1.088942418550806e+000	-1.337368446772510e+001
1	 1.076849446987810e+000	 1.100902558405543e+000	-1.381356286208145e+001
1	 1.064625868358344e+000	 1.112727690515145e+000	-1.424657045001022e+001
1	 1.052273954545191e+000	 1.124415688767098e+000	-1.467343545163389e+001
1	 1.039796023265520e+000	 1.135964478246579e+000	-1.509489429088971e+001
1	 1.027194436623394e+000	 1.147372036462037e+000	-1.551169074091125e+001
1	 1.152339273001251e+000	 1.031641396784701e+000	-1.090152522419371e+001
1	 1.140882328851282e+000	 1.044297538584001e+000	-1.138028581766412e+001
1	 1.129283542014786e+000	 1.056829489688449e+000	-1.184860950166019e+001
1	 1.117544943739142e+000	 1.069234877767888e+000	-1.230719910740003e+001
1	 1.105668617921957e+000	 1.081511375071224e+000	-1.275677145061203e+001
1	 1.093656699880171e+000	 1.093656699880171e+000	-1.319805649453113e+001
1	 1.081511375071224e+000	 1.105668617921957e+000	-1.363179649255635e+001
1	 1.069234877767888e+000	 1.117544943739142e+000	-1.405874511218659e+001
1	 1.056829489688449e+000	 1.129283542014786e+000	-1.447966654189377e+001
1	 1.044297538584001e+000	 1.140882328851282e+000	-1.489533458263570e+001
1	 1.031641396784701e+000	 1.152339273001251e+000	-1.530653172574500e+001
1	 1.157306509540564e+000	 1.036088356946540e+000	-1.075367264916665e+001
1	 1.145800179456138e+000	 1.048799053903009e+000	-1.122638430330666e+001
1	 1.134151395262682e+000	 1.061385024832209e+000	-1.168860484838881e+001
1	 1.122362196963406e+000	 1.073843887177903e+000	-1.214105542597315e+001
1	 1.110434677438696e+000	 1.086173303155067e+000	-1.258447248423561e+001
1	 1.098370981209915e+000	 1.098370981209915e+000	-1.301960690497167e+001
1	 1.086173303155066e+000	 1.110434677438696e+000	-1.344722310786760e+001
1	 1.073843887177903e+000	 1.122362196963406e+000	-1.386809813373463e+001
1	 1.061385024832209e+000	 1.134151395262682e+000	-1.428302070845438e+001
1	 1.048799053903008e+000	 1.145800179456137e+000	-1.469279028942697e+001
1	 1.036088356946540e+000	 1.157306509540565e+000	-1.509821609635801e+001
1	 1.162273746079945e+000	 1.040535317108847e+000	-1.060293382421235e+001
1	 1.150718030061111e+000	 1.053300569222475e+000	-1.106959677663277e+001
1	 1.139019248510750e+000	 1.065940559976411e+000	-1.152573385944522e+001
1	 1.127179450187897e+000	 1.078452896588330e+000	-1.197207494921995e+001
1	 1.115200736955713e+000	 1.090835231239282e+000	-1.240936617166894e+001
1	 1.103085262539988e+000	 1.103085262539988e+000	-1.283836900990044e+001
1	 1.090835231239282e+000	 1.115200736955712e+000	-1.325985938822551e+001
1	 1.078452896588330e+000	 1.127179450187897e+000	-1.367462673325445e+001
1	 1.065940559976411e+000	 1.139019248510750e+000	-1.408347301407847e+001
1	 1.053300569222475e+000	 1.150718030061111e+000	-1.448721176338094e+001
1	 1.040535317108847e+000	 1.162273746079944e+000	-1.488666708136790e+001
1	 1.167240982619358e+000	 1.044982277271553e+000	-1.044937698618929e+001
1	 1.155635880666168e+000	 1.057802084542336e+000	-1.090999095542960e+001
1	 1.143887101758954e+000	 1.070496095120991e+000	-1.136006032289276e+001
1	 1.131996703412573e+000	 1.083061905999109e+000	-1.180031424408340e+001
1	 1.119966796472965e+000	 1.095497159323818e+000	-1.223149868987710e+001
1	 1.107799543870341e+000	 1.107799543870341e+000	-1.265437555314851e+001
1	 1.095497159323818e+000	 1.119966796472965e+000	-1.306972172990733e+001
1	 1.083061905999109e+000	 1.131996703412573e+000	-1.347832817669129e+001
1	 1.070496095120991e+000	 1.143887101758954e+000	-1.388099894601398e+001
1	 1.057802084542336e+000	 1.155635880666168e+000	-1.427855020172834e+001
1	 1.044982277271553e+000	 1.167240982619358e+000	-1.467180921620578e+001
1	 1.172208219158771e+000	 1.049429237434591e+000	-1.029306921533976e+001
1	 1.160553731271275e+000	 1.062303599862524e+000	-1.074763340966637e+001
1	 1.148754955007256e+000	 1.075051630265886e+000	-1.119164694558571e+001
1	 1.136813956637395e+000	 1.087670915410181e+000	-1.162582891869521e+001
1	 1.124732855990405e+000	 1.100159087408617e+000	-1.205091543312477e+001
1	 1.112513825200922e+000	 1.112513825200922e+000	-1.246765872353808e+001
1	 1.100159087408617e+000	 1.124732855990405e+000	-1.287682625127291e+001
1	 1.087670915410181e+000	 1.136813956637395e+000	-1.327919977633227e+001
1	 1.075051630265886e+000	 1.148754955007256e+000	-1.367557440699984e+001
1	 1.062303599862524e+000	 1.160553731271275e+000	-1.406675762890715e+001
1	 1.049429237434591e+000	 1.172208219158770e+000	-1.445356831542773e+001
1	 1.177175455698150e+000	 1.053876197597896e+000	-1.013407645969260e+001
1	 1.165471581876397e+000	 1.066805115182975e+000	-1.058258958571143e+001
1	 1.153622808255620e+000	 1.079607165411031e+000	-1.102055537598088e+001
1	 1.141631209862322e+000	 1.092279924821487e+000	-1.144867364260590e+001
1	 1.129498915507990e+000	 1.104821015493625e+000	-1.186766102948935e+001
1	 1.117228106531682e+000	 1.117228106531682e+000	-1.227825016659251e+001
1	 1.104821015493625e+000	 1.129498915507990e+000	-1.268118879862789e+001
1	 1.092279924821486e+000	 1.141631209862321e+000	-1.307723888982877e+001
1	 1.079607165411031e+000	 1.153622808255620e+000	-1.346717570650024e+001
1	 1.066805115182975e+000	 1.165471581876397e+000	-1.385178687911059e+001
1	 1.053876197597896e+000	 1.177175455698150e+000	-1.423187144572816e+001
1	 1.182142692237461e+000	 1.058323157761401e+000	-9.972463558850359e+000
1	 1.170389432481500e+000	 1.071306630503624e+000	-1.041492382993848e+001
1	 1.158490661504009e+000	 1.084162700556365e+000	-1.084684622637403e+001
1	 1.146448463087312e+000	 1.096888934232965e+000	-1.126890216650292e+001
1	 1.134264975025674e+000	 1.109482943578787e+000	-1.168177935695848e+001
1	 1.121942387862572e+000	 1.121942387862572e+000	-1.208618099595036e+001
1	 1.109482943578788e+000	 1.134264975025674e+000	-1.248282495193999e+001
1	 1.096888934232965e+000	 1.146448463087312e+000	-1.287244291924333e+001
1	 1.084162700556365e+000	 1.158490661504009e+000	-1.325577955215942e+001
1	 1.071306630503624e+000	 1.170389432481500e+000	-1.363359157927382e+001
1	 1.058323157761401e+000	 1.182142692237461e+000	-1.400664689963292e+001
1	 1.187109928776672e+000	 1.062770117925039e+000	-9.808294267179257e+000
1	 1.175307283086549e+000	 1.075808145824403e+000	-1.024469941174012e+001
1	 1.163358514752385e+000	 1.088718235701824e+000	-1.067057909457814e+001
1	 1.151265716312326e+000	 1.101497943644559e+000	-1.108656734143538e+001
1	 1.139031034543412e+000	 1.114144871664049e+000	-1.149331355912298e+001
1	 1.126656669193541e+000	 1.126656669193541e+000	-1.189148180449339e+001
1	 1.114144871664049e+000	 1.139031034543412e+000	-1.228175003041069e+001
1	 1.101497943644558e+000	 1.151265716312326e+000	-1.266480931012050e+001
1	 1.088718235701824e+000	 1.163358514752385e+000	-1.304136304147114e+001
1	 1.075808145824403e+000	 1.175307283086549e+000	-1.341212613248906e+001
1	 1.062770117925040e+000	 1.187109928776672e+000	-1.377782416985289e+001
1	 1.192077165315749e+000	 1.067217078088745e+000	-9.641631276419215e+000
1	 1.180225133691511e+000	 1.080309661145249e+000	-1.007197854596604e+001
1	 1.168226368000712e+000	 1.093273770847345e+000	-1.049181258505924e+001
1	 1.156082969537323e+000	 1.106106953056207e+000	-1.090172113755719e+001
1	 1.143797094061159e+000	 1.118806799749355e+000	-1.130230606047756e+001
1	 1.131370950524538e+000	 1.131370950524538e+000	-1.169418267519603e+001
1	 1.118806799749355e+000	 1.143797094061159e+000	-1.207797909790857e+001
1	 1.106106953056207e+000	 1.156082969537324e+000	-1.245433555058098e+001
1	 1.093273770847345e+000	 1.168226368000712e+000	-1.282390365365638e+001
1	 1.080309661145249e+000	 1.180225133691511e+000	-1.318734570183485e+001
1	 1.067217078088744e+000	 1.192077165315749e+000	-1.354533392427893e+001
1	 1.022747476462687e+000	 1.142404799922955e+000	-1.571377124846316e+001
1	 1.010077810410943e+000	 1.153622063879497e+000	-1.612518650942570e+001
1	 9.972898205375119e-001	 1.164694799141658e+000	-1.651953839109096e+001
1	 9.843859843274009e-001	 1.175621155612181e+000	-1.689724393770805e+001
1	 9.713688173232153e-001	 1.186399339818024e+000	-1.725870933702404e+001
1	 9.582408715077669e-001	 1.197027615871412e+000	-1.760432999110504e+001
1	 9.450047336581959e-001	 1.207504306375576e+000	-1.793449061326670e+001
1	 9.316630236738184e-001	 1.217827793274197e+000	-1.824956535044229e+001
1	 9.182183928799237e-001	 1.227996518643735e+000	-1.854991793024736e+001
1	 9.046735223098031e-001	 1.238008985427847e+000	-1.883590183194479e+001
1	 8.910311209672918e-001	 1.247863758113289e+000	-1.910786048044555e+001
1	 1.027194436623394e+000	 1.147372036462037e+000	-1.551169074091125e+001
1	 1.014469682192906e+000	 1.158638073676291e+000	-1.591782822695852e+001
1	 1.001626089462515e+000	 1.169758953777745e+000	-1.630693164163494e+001
1	 9.886661466894644e-001	 1.180732818624811e+000	-1.667935791413379e+001
1	 9.755923803540693e-001	 1.191557866946323e+000	-1.703544987681121e+001
1	 9.624073535352949e-001	 1.202232355306766e+000	-1.737553647018020e+001
1	 9.491136642577258e-001	 1.212754599015951e+000	-1.769993297918560e+001
1	 9.357139438121348e-001	 1.223122972982158e+000	-1.800894129976555e+001
1	 9.222108550519140e-001	 1.233335912507902e+000	-1.830285023462772e+001
1	 9.086070906676270e-001	 1.243391914027552e+000	-1.858193581709726e+001
1	 8.949053714419993e-001	 1.253289535786170e+000	-1.884646166182669e+001
1	 1.031641396784701e+000	 1.152339273001251e+000	-1.530653172574500e+001
1	 1.018861553975460e+000	 1.163654083473172e+000	-1.570715852697714e+001
1	 1.005962358388085e+000	 1.174823108413879e+000	-1.609068809286757e+001
1	 9.929463090520542e-001	 1.185844481637454e+000	-1.645743936193003e+001
1	 9.798159433853972e-001	 1.196716394074604e+000	-1.680771480844348e+001
1	 9.665738355632361e-001	 1.207437094742074e+000	-1.714180073707231e+001
1	 9.532225948575975e-001	 1.218004891656253e+000	-1.745996761262256e+001
1	 9.397648639507172e-001	 1.228418152690017e+000	-1.776247042371792e+001
1	 9.262033172240886e-001	 1.238675306371938e+000	-1.804954907909945e+001
1	 9.125406590255507e-001	 1.248774842627094e+000	-1.832142883516816e+001
1	 8.987796219167212e-001	 1.258715313458849e+000	-1.857832075332113e+001
1	 1.036088356946540e+000	 1.157306509540565e+000	-1.509821609635801e+001
1	 1.023253425758538e+000	 1.168670093270105e+000	-1.549307481375841e+001
1	 1.010298627314157e+000	 1.179887263050023e+000	-1.587068904538370e+001
1	 9.972264714151126e-001	 1.190956144650070e+000	-1.623136156860783e+001
1	 9.840395064171490e-001	 1.201874921202825e+000	-1.657537719474491e+001
1	 9.707403175915463e-001	 1.212641834177289e+000	-1.690300310907698e+001
1	 9.573315254577777e-001	 1.223255184296433e+000	-1.721448924856038e+001
1	 9.438157840895419e-001	 1.233713332397727e+000	-1.751006871588169e+001
1	 9.301957793964361e-001	 1.244014700235796e+000	-1.778995822844091e+001
1	 9.164742273835764e-001	 1.254157771226431e+000	-1.805435860075757e+001
1	 9.026538723914741e-001	 1.264141091131294e+000	-1.830345525871231e+001
1	 1.040535317108847e+000	 1.162273746079944e+000	-1.488666708136790e+001
1	 1.027645297542076e+000	 1.173686103067057e+000	-1.527547624544227e+001
1	 1.014634896240669e+000	 1.184951417686142e+000	-1.564681782893170e+001
1	 1.001506633778581e+000	 1.196067807662619e+000	-1.600099998781405e+001
1	 9.882630694492723e-001	 1.207033448330941e+000	-1.633831226851695e+001
1	 9.749067996201826e-001	 1.217846573612366e+000	-1.665902594945273e+001
1	 9.614404560582330e-001	 1.228505476936443e+000	-1.696339442147625e+001
1	 9.478667042285859e-001	 1.239008512105239e+000	-1.725165360591981e+001
1	 9.341882415689460e-001	 1.249354094099432e+000	-1.752402240876581e+001
1	 9.204077957417068e-001	 1.259540699825522e+000	-1.778070320943252e+001
1	 9.065281228662759e-001	 1.269566868803472e+000	-1.802188238255965e+001
1	 1.044982277271553e+000	 1.167240982619358e+000	-1.467180921620577e+001
1	 1.032037169326007e+000	 1.178702112863993e+000	-1.505426369671261e+001
1	 1.018971165167558e+000	 1.190015572322198e+000	-1.541895975923788e+001
1	 1.005786796142402e+000	 1.201179470675061e+000	-1.576623219324216e+001
1	 9.924866324817162e-001	 1.212191975458910e+000	-1.609639738636625e+001
1	 9.790732816491017e-001	 1.223051313047260e+000	-1.640975362388794e+001
1	 9.655493866589286e-001	 1.233755769576238e+000	-1.670658142705283e+001
1	 9.519176243678263e-001	 1.244303691812506e+000	-1.698714392902026e+001
1	 9.381807037416069e-001	 1.254693487962799e+000	-1.725168728706869e+001
1	 9.243413640999447e-001	 1.264923628424325e+000	-1.750044112962149e+001
1	 9.104023733411428e-001	 1.274992646475349e+000	-1.773361903656468e+001
1	 1.049429237434591e+000	 1.172208219158770e+000	-1.445356831542773e+001
1	 1.036429041110268e+000	 1.183718122660878e+000	-1.482933972242915e+001
1	 1.023307434094763e+000	 1.195079726958154e+000	-1.518700209592804e+001
1	 1.010066958506518e+000	 1.206291133687358e+000	-1.552693783371269e+001
1	 9.967101955144284e-001	 1.217350502586690e+000	-1.584951198370696e+001
1	 9.832397636782592e-001	 1.228256052481923e+000	-1.615507245807411e+001
1	 9.696583172598308e-001	 1.239006062215768e+000	-1.644395028486238e+001
1	 9.559685445072405e-001	 1.249598871519480e+000	-1.671645989611582e+001
1	 9.421731659144089e-001	 1.260032881825851e+000	-1.697289945128967e+001
1	 9.282749324582921e-001	 1.270306557022799e+000	-1.721355119471440e+001
1	 9.142766238160929e-001	 1.280418424146894e+000	-1.743868184577691e+001
1	 1.053876197597896e+000	 1.177175455698150e+000	-1.423187144572816e+001
1	 1.040820912894789e+000	 1.188734132457678e+000	-1.460060852217840e+001
1	 1.027643703022220e+000	 1.200143881593975e+000	-1.495083400151570e+001
1	 1.014347120870870e+000	 1.211402796699468e+000	-1.528299858939254e+001
1	 1.000933758547358e+000	 1.222509029714236e+000	-1.559753753090098e+001
1	 9.874062457076124e-001	 1.233460791916311e+000	-1.589487069635391e+001
1	 9.737672478609055e-001	 1.244256354854985e+000	-1.617540270199600e+001
1	 9.600194646468042e-001	 1.254894051226112e+000	-1.643952306485877e+001
1	 9.461656280873408e-001	 1.265372275688542e+000	-1.668760639088426e+001
1	 9.322085008167522e-001	 1.275689485620905e+000	-1.692001259536189e+001
1	 9.181508742911427e-001	 1.285844201818073e+000	-1.713708715464084e+001
1	 1.058323157761401e+000	 1.182142692237461e+000	-1.400664689963292e+001
1	 1.045212784679509e+000	 1.193750142254360e+000	-1.436797590571838e+001
1	 1.031979971949866e+000	 1.205208036229623e+000	-1.471034650142266e+001
1	 1.018627283235401e+000	 1.216514459711353e+000	-1.503429812911733e+001
1	 1.005157321580453e+000	 1.227667556841505e+000	-1.534035749050578e+001
1	 9.915727277371167e-001	 1.238665531350377e+000	-1.562903846141052e+001
1	 9.778761784621189e-001	 1.249506647493843e+000	-1.590084203760988e+001
1	 9.640703847864957e-001	 1.260189230932356e+000	-1.615625631132672e+001
1	 9.501580902603912e-001	 1.270711669550826e+000	-1.639575647788321e+001
1	 9.361420691753275e-001	 1.281072414218598e+000	-1.661980487197042e+001
1	 9.220251247663094e-001	 1.291269979488853e+000	-1.682885103289189e+001
1	 1.062770117925040e+000	 1.187109928776672e+000	-1.377782416985289e+001
1	 1.049604656464360e+000	 1.198766152050888e+000	-1.413134925929207e+001
1	 1.036316240877639e+000	 1.210272190865062e+000	-1.446543244500459e+001
1	 1.022907445600052e+000	 1.221626122722972e+000	-1.478072206878525e+001
1	 1.009380884613661e+000	 1.232826083968456e+000	-1.507785727559377e+001
1	 9.957392097667297e-001	 1.243870270784076e+000	-1.535746771497052e+001
1	 9.819851090634367e-001	 1.254756940132292e+000	-1.562017326836181e+001
1	 9.681213049262910e-001	 1.265484410638162e+000	-1.586658380243932e+001
1	 9.541505524335499e-001	 1.276051063412658e+000	-1.609729894842772e+001
1	 9.400756375340206e-001	 1.286455342815841e+000	-1.631290790738417e+001
1	 9.258993752416106e-001	 1.296695757159201e+000	-1.651398928130341e+001
1	 1.067217078088744e+000	 1.192077165315749e+000	-1.354533392427892e+001
1	 1.053996528249277e+000	 1.203782161847228e+000	-1.389063751278181e+001
1	 1.040652509805476e+000	 1.215336345500255e+000	-1.421598646755011e+001
1	 1.027187607964766e+000	 1.226737785734287e+000	-1.452215793079139e+001
1	 1.013604447646933e+000	 1.237984611095045e+000	-1.480992420911485e+001
1	 9.999056917964071e-001	 1.249075010217361e+000	-1.508005221948846e+001
1	 9.860940396648253e-001	 1.260007232770287e+000	-1.533330295471061e+001
1	 9.721722250661673e-001	 1.270779590343483e+000	-1.557043096906458e+001
1	 9.581430146068056e-001	 1.281390457273991e+000	-1.579218388476595e+001
1	 9.440092058928338e-001	 1.291838271412590e+000	-1.599930191975057e+001
1	 9.297736257170630e-001	 1.302121534829085e+000	-1.619251743729064e+001
1	 8.910311209672918e-001	 1.247863758113289e+000	-1.910786048044555e+001
1	 8.772939237752967e-001	 1.257559462992334e+000	-1.936222611441513e+001
1	 8.634646889348848e-001	 1.267094787648218e+000	-1.959739668991182e+001
1	 8.495461970679685e-001	 1.276468482501733e+000	-1.981669314942041e+001
1	 8.355412497282301e-001	 1.285679361603478e+000	-2.002348066660510e+001
1	 8.214526676025593e-001	 1.294726303013822e+000	-2.022116331871103e+001
1	 8.072832887068894e-001	 1.303608249122617e+000	-2.041317873795546e+001
1	 7.930359665787400e-001	 1.312324206908703e+000	-2.060299275286976e+001
1	 7.787135684687786e-001	 1.320873248139400e+000	-2.079409403046062e+001
1	 7.643189735336878e-001	 1.329254509510221e+000	-2.098998872993862e+001
1	 7.498550710325905e-001	 1.337467192725185e+000	-2.119419517860305e+001
1	 8.949053714419993e-001	 1.253289535786170e+000	-1.884646166182669e+001
1	 8.811084441895262e-001	 1.263027398103068e+000	-1.909317496329057e+001
1	 8.672190791040766e-001	 1.272604182855040e+000	-1.932100081329038e+001
1	 8.532400688978550e-001	 1.282018635029659e+000	-1.953350233472263e+001
1	 8.391742273058449e-001	 1.291269563520969e+000	-1.973429366271105e+001
1	 8.250243872794324e-001	 1.300355841511107e+000	-1.992703408961140e+001
1	 8.107933991743941e-001	 1.309276406791395e+000	-2.011542218204287e+001
1	 7.964841289355789e-001	 1.318030262022982e+000	-2.030318988210599e+001
1	 7.820994562806128e-001	 1.326616474937202e+000	-2.049409660486339e+001
1	 7.676422728849027e-001	 1.335034178475888e+000	-2.069192334402825e+001
1	 7.531154805702228e-001	 1.343282570872048e+000	-2.090046679764681e+001
1	 8.987796219167212e-001	 1.258715313458849e+000	-1.857832075332113e+001
1	 8.849229646036848e-001	 1.268495333213559e+000	-1.881735023124979e+001
1	 8.709734692731170e-001	 1.278113578061571e+000	-1.903799273278624e+001
1	 8.569339407275148e-001	 1.287568787557245e+000	-1.924402042859600e+001
1	 8.428072048831676e-001	 1.296859765438073e+000	-1.943926229102170e+001
1	 8.285961069559578e-001	 1.305985380007956e+000	-1.962759777902892e+001
1	 8.143035096415077e-001	 1.314944564459695e+000	-1.981295048925837e+001
1	 7.999322912920005e-001	 1.323736317136747e+000	-1.999928178639906e+001
1	 7.854853440920209e-001	 1.332359701734460e+000	-2.019058442600057e+001
1	 7.709655722357035e-001	 1.340813847440996e+000	-2.039087618272519e+001
1	 7.563758901074750e-001	 1.349097949018345e+000	-2.060419349686579e+001
1	 9.026538723914741e-001	 1.264141091131294e+000	-1.830345525871231e+001
1	 8.887374850178065e-001	 1.273963268323783e+000	-1.853480651720840e+001
1	 8.747278594420558e-001	 1.283622973267805e+000	-1.874845343787267e+001
1	 8.606278125570132e-001	 1.293118940084501e+000	-1.894834455421221e+001
1	 8.464401824602765e-001	 1.302449967354815e+000	-1.913849000738962e+001
1	 8.321678266322276e-001	 1.311614918504417e+000	-1.932295483793807e+001
1	 8.178136201083346e-001	 1.320612722127579e+000	-1.950585223870547e+001
1	 8.033804536481168e-001	 1.329442372250075e+000	-1.969133678313576e+001
1	 7.888712319031207e-001	 1.338102928531266e+000	-1.988359764290825e+001
1	 7.742888715862086e-001	 1.346593516405640e+000	-2.008685180882715e+001
1	 7.596362996444629e-001	 1.354913327164175e+000	-2.030533732867902e+001
1	 9.065281228662759e-001	 1.269566868803472e+000	-1.802188238255965e+001
1	 8.925520054319234e-001	 1.279431203433722e+000	-1.824559748672090e+001
1	 8.784822496109402e-001	 1.289132368473736e+000	-1.845246253351813e+001
1	 8.643216843864142e-001	 1.298669092611440e+000	-1.864657017443494e+001
1	 8.500731600372512e-001	 1.308040169271227e+000	-1.883207849910242e+001
1	 8.357395463083337e-001	 1.317244457000535e+000	-1.901320400011702e+001
1	 8.213237305749779e-001	 1.326280879795113e+000	-1.919421449523837e+001
1	 8.068286160040408e-001	 1.335148427363046e+000	-1.937942202182562e+001
1	 7.922571197140292e-001	 1.343846155327709e+000	-1.957317571828107e+001
1	 7.776121709365371e-001	 1.352373185369918e+000	-1.977985470713236e+001
1	 7.628967091813033e-001	 1.360728705309640e+000	-2.000386099421586e+001
1	 9.104023733411428e-001	 1.274992646475349e+000	-1.773361903656468e+001
1	 8.963665258460675e-001	 1.284899138543354e+000	-1.794977589183987e+001
1	 8.822366397798190e-001	 1.294641763679357e+000	-1.815009826964542e+001
1	 8.680155562157818e-001	 1.304219245138071e+000	-1.833879112714609e+001
1	 8.537061376141703e-001	 1.313630371187337e+000	-1.852012772251408e+001
1	 8.393112659843688e-001	 1.322873995496359e+000	-1.869844231868562e+001
1	 8.248338410415416e-001	 1.331949037462359e+000	-1.887812284168304e+001
1	 8.102767783598837e-001	 1.340854482475737e+000	-1.906360350895154e+001
1	 7.956430075248645e-001	 1.349589382123879e+000	-1.925935744307495e+001
1	 7.809354702868090e-001	 1.358152854333929e+000	-1.946988928609909e+001
1	 7.661571187181121e-001	 1.366544083454837e+000	-1.969972782951331e+001
1	 9.142766238160929e-001	 1.280418424146894e+000	-1.743868184577691e+001
1	 9.001810462602722e-001	 1.290367073652657e+000	-1.764739359047173e+001
1	 8.859910299487408e-001	 1.300151158884664e+000	-1.784143756984141e+001
1	 8.717094280451803e-001	 1.309769397664406e+000	-1.802509965967727e+001
1	 8.573391151911127e-001	 1.319220573103173e+000	-1.820273593971859e+001
1	 8.428829856604245e-001	 1.328503533991933e+000	-1.837876520171284e+001
1	 8.283439515081291e-001	 1.337617195129382e+000	-1.855766141023710e+001
1	 8.137249407157576e-001	 1.346560537588225e+000	-1.874394613218711e+001
1	 7.990288953357438e-001	 1.355332608919865e+000	-1.894218095074011e+001
1	 7.842587696371427e-001	 1.363932523297767e+000	-1.915695987946346e+001
1	 7.694175282550058e-001	 1.372359461599866e+000	-1.939290179206365e+001
1	 9.181508742911427e-001	 1.285844201818073e+000	-1.713708715464084e+001
1	 9.039955666745698e-001	 1.295835008761611e+000	-1.733850156524082e+001
1	 8.897454201177544e-001	 1.305660554089649e+000	-1.752655605934094e+001
1	 8.754032998746727e-001	 1.315319550190456e+000	-1.770558646236488e+001
1	 8.609720927681571e-001	 1.324810775018765e+000	-1.787999975429650e+001
1	 8.464547053365936e-001	 1.334133072487305e+000	-1.805426644692611e+001
1	 8.318540619748434e-001	 1.343285352796243e+000	-1.823291291307530e+001
1	 8.171731030717756e-001	 1.352266592700590e+000	-1.842051368400184e+001
1	 8.024147831467848e-001	 1.361075835715758e+000	-1.862168373109323e+001
1	 7.875820689876574e-001	 1.369712192261533e+000	-1.884107074781575e+001
1	 7.726779377921003e-001	 1.378174839744830e+000	-1.908334744770308e+001
1	 9.220251247663094e-001	 1.291269979488853e+000	-1.682885103289189e+001
1	 9.078100870889932e-001	 1.301302943870196e+000	-1.702314994187926e+001
1	 8.934998102869076e-001	 1.311169949294307e+000	-1.720552809230412e+001
1	 8.790971717043242e-001	 1.320869702716232e+000	-1.738034070126405e+001
1	 8.646050703453824e-001	 1.330400976934140e+000	-1.755201414615844e+001
1	 8.500264250129682e-001	 1.339762610982522e+000	-1.772503827554305e+001
1	 8.353641724417890e-001	 1.348953510463007e+000	-1.790395867218419e+001
1	 8.206212654280493e-001	 1.357972647812910e+000	-1.809336888467036e+001
1	 8.058006709581054e-001	 1.366819062511647e+000	-1.829790264383969e+001
1	 7.909053683384724e-001	 1.375491861225321e+000	-1.852222608013703e+001
1	 7.759383473295118e-001	 1.383990217889825e+000	-1.877102995783046e+001
1	 9.258993752416106e-001	 1.296695757159201e+000	-1.651398928130341e+001
1	 9.116246075035746e-001	 1.306770878978389e+000	-1.670138800715350e+001
1	 8.972542004562493e-001	 1.316679344498633e+000	-1.687842677840922e+001
1	 8.827910435341987e-001	 1.326419855241744e+000	-1.704945005003748e+001
1	 8.682380479228679e-001	 1.335991178849329e+000	-1.721887250551578e+001
1	 8.535981446896399e-001	 1.345392149477630e+000	-1.739117136525433e+001
1	 8.388742829090683e-001	 1.354621668129737e+000	-1.757087864844600e+001
1	 8.240694277846906e-001	 1.363678702925262e+000	-1.776257340470485e+001
1	 8.091865587698229e-001	 1.372562289307622e+000	-1.797087393175683e+001
1	 7.942286676897064e-001	 1.381271530189230e+000	-1.820042999529794e+001
1	 7.791987568673571e-001	 1.389805596034953e+000	-1.845591506694772e+001
1	 9.297736257170630e-001	 1.302121534829085e+000	-1.619251743729064e+001
1	 9.154391279183470e-001	 1.312238814086172e+000	-1.637326422634494e+001
1	 9.010085906258274e-001	 1.322188739702620e+000	-1.654532400878058e+001
1	 8.864849153643600e-001	 1.331970007767004e+000	-1.671300072104942e+001
1	 8.718710255006918e-001	 1.341581380764360e+000	-1.688066666600047e+001
1	 8.571698643667016e-001	 1.351021687972676e+000	-1.705275488238256e+001
1	 8.423843933767853e-001	 1.360289825796497e+000	-1.723375146999747e+001
1	 8.275175901418119e-001	 1.369384758037725e+000	-1.742818788672604e+001
1	 8.125724465820543e-001	 1.378305516103772e+000	-1.764063323354641e+001
1	 7.975519670414791e-001	 1.387051199153357e+000	-1.787568654351855e+001
1	 7.824591664057522e-001	 1.395620974180313e+000	-1.813796909051080e+001
1	 7.498550710325905e-001	 1.337467192725185e+000	-2.119419517860305e+001
1	 7.353269429377546e-001	 1.345509370984225e+000	-2.142574069001099e+001
1	 7.207353283378717e-001	 1.353381621720377e+000	-2.169887937290642e+001
1	 7.060831355135254e-001	 1.361083342912368e+000	-2.200982587301957e+001
1	 6.913732756799494e-001	 1.368613997251564e+000	-2.235472633423476e+001
1	 6.766086612348736e-001	 1.375973111932677e+000	-2.272966534731368e+001
1	 6.617922040227657e-001	 1.383160278389225e+000	-2.313067290851684e+001
1	 6.469268136174287e-001	 1.390175151974716e+000	-2.355373137396706e+001
1	 6.320153956248560e-001	 1.397017451590627e+000	-2.399478239584646e+001
1	 6.170608500081973e-001	 1.403686959262295e+000	-2.444973382679915e+001
1	 6.020660694366056e-001	 1.410183519663929e+000	-2.491446657921804e+001
1	 7.531154805702228e-001	 1.343282570872048e+000	-2.090046679764681e+001
1	 7.385241834055245e-001	 1.351359716947796e+000	-2.113843383056290e+001
1	 7.238691236930946e-001	 1.359266196646871e+000	-2.141948166468071e+001
1	 7.091532223588756e-001	 1.367001405330368e+000	-2.173968406940819e+001
1	 6.943794032762169e-001	 1.374564803353394e+000	-2.209504076937588e+001
1	 6.795505915061076e-001	 1.381955915854867e+000	-2.248148476258648e+001
1	 6.646697115538689e-001	 1.389174332491827e+000	-2.289488965219668e+001
1	 6.497396856442836e-001	 1.396219707119228e+000	-2.333107697694671e+001
1	 6.347634320170739e-001	 1.403091757416306e+000	-2.378582352549033e+001
1	 6.197438632445814e-001	 1.409790264460619e+000	-2.425486862017916e+001
1	 6.046838845734370e-001	 1.416315072251001e+000	-2.473392135617394e+001
1	 7.563758901074750e-001	 1.349097949018345e+000	-2.060419349686579e+001
1	 7.417214238729721e-001	 1.357210062910808e+000	-2.084884612491895e+001
1	 7.270029190480734e-001	 1.365150771572824e+000	-2.113786072966285e+001
1	 7.122233092040731e-001	 1.372919467747855e+000	-2.146719603830614e+001
1	 6.973855308724334e-001	 1.380515609454748e+000	-2.183273186625868e+001
1	 6.824925217773967e-001	 1.387938719776625e+000	-2.223027675066287e+001
1	 6.675472190851322e-001	 1.395188386594042e+000	-2.265557560095716e+001
1	 6.525525576713976e-001	 1.402264262263400e+000	-2.310431735075594e+001
1	 6.375114684096384e-001	 1.409166063241688e+000	-2.357214259559511e+001
1	 6.224268764813835e-001	 1.415893569658691e+000	-2.405465120137856e+001
1	 6.073016997107373e-001	 1.422446624837860e+000	-2.454740986870616e+001
1	 7.596362996444629e-001	 1.354913327164175e+000	-2.030533732867901e+001
1	 7.449186643402055e-001	 1.363060408873357e+000	-2.055689803511292e+001
1	 7.301367144029041e-001	 1.371035346498327e+000	-2.085390362523658e+001
1	 7.152933960492006e-001	 1.378837530164909e+000	-2.119222326428463e+001
1	 7.003916584686643e-001	 1.386466415555689e+000	-2.156764300943306e+001
1	 6.854344520487881e-001	 1.393921523697993e+000	-2.197587370507424e+001
1	 6.704247266165831e-001	 1.401202440695893e+000	-2.241255889818044e+001
1	 6.553654296987801e-001	 1.408308817407234e+000	-2.287328275743428e+001
1	 6.402595048025424e-001	 1.415240369066761e+000	-2.335357798007084e+001
1	 6.251098897185816e-001	 1.421996874856474e+000	-2.384893367067622e+001
1	 6.099195148484722e-001	 1.428578177424451e+000	-2.435480317653028e+001
1	 7.628967091813033e-001	 1.360728705309640e+000	-2.000386099421586e+001
1	 7.481159048073343e-001	 1.368910754835542e+000	-2.026251138287208e+001
1	 7.332705097576847e-001	 1.376919921423467e+000	-2.056749933952714e+001
1	 7.183634828943400e-001	 1.384755592581603e+000	-2.091462959982074e+001
1	 7.033977860649749e-001	 1.392417221656276e+000	-2.129962026077333e+001
1	 6.883763823203271e-001	 1.399904327619013e+000	-2.171811088456532e+001
1	 6.733022341482496e-001	 1.407216494797402e+000	-2.216567062511882e+001
1	 6.581783017264399e-001	 1.414353372550734e+000	-2.263780636067268e+001
1	 6.430075411957766e-001	 1.421314674891504e+000	-2.312997081580755e+001
1	 6.277929029561533e-001	 1.428100180053938e+000	-2.363757065668017e+001
1	 6.125373299866083e-001	 1.434709730010727e+000	-2.415597454358139e+001
1	 7.661571187181121e-001	 1.366544083454837e+000	-1.969972782951330e+001
1	 7.513131452744669e-001	 1.374761100797457e+000	-1.996560932068612e+001
1	 7.364043051125115e-001	 1.382804496348332e+000	-2.027853875032055e+001
1	 7.214335697395737e-001	 1.390673654998015e+000	-2.063428121491381e+001
1	 7.064039136614296e-001	 1.398368027756570e+000	-2.102851230251026e+001
1	 6.913183125920615e-001	 1.405887131539728e+000	-2.145682635213025e+001
1	 6.761797416801598e-001	 1.413230548898594e+000	-2.191474473838296e+001
1	 6.609911737543870e-001	 1.420397927693902e+000	-2.239772416407291e+001
1	 6.457555775893359e-001	 1.427388980715904e+000	-2.290116494388369e+001
1	 6.304759161940763e-001	 1.434203485251044e+000	-2.342041926252945e+001
1	 6.151551451251107e-001	 1.440841282596636e+000	-2.395079939111212e+001
1	 7.694175282550058e-001	 1.372359461599866e+000	-1.939290179206365e+001
1	 7.545103857417111e-001	 1.380611446759200e+000	-1.966611630361079e+001
1	 7.395381004674815e-001	 1.388689071273012e+000	-1.998691458502505e+001
1	 7.245036565849833e-001	 1.396591717414220e+000	-2.035104654798367e+001
1	 7.094100412580943e-001	 1.404318833856632e+000	-2.075417038171214e+001
1	 6.942602428640373e-001	 1.411869935460181e+000	-2.119186091559652e+001
1	 6.790572492123411e-001	 1.419244602999491e+000	-2.165961800902021e+001
1	 6.638040457826309e-001	 1.426442482836743e+000	-2.215287495097612e+001
1	 6.485036139832108e-001	 1.433463286539943e+000	-2.266700685227356e+001
1	 6.331589294323280e-001	 1.440306790447758e+000	-2.319733901346591e+001
1	 6.177729602639465e-001	 1.446972835182127e+000	-2.373915525198616e+001
1	 7.726779377921003e-001	 1.378174839744830e+000	-1.908334744770308e+001
1	 7.577076262091770e-001	 1.386461792720868e+000	-1.936395806178723e+001
1	 7.426718958226916e-001	 1.394573646197594e+000	-1.969252138164907e+001
1	 7.275737434306515e-001	 1.402509779830296e+000	-2.006479625801037e+001
1	 7.124161688550333e-001	 1.410269639956520e+000	-2.047644825617179e+001
1	 6.972021731363018e-001	 1.417852739380413e+000	-2.092305806971426e+001
1	 6.819347567448212e-001	 1.425258657100116e+000	-2.140012996313514e+001
1	 6.666169178111804e-001	 1.432487037979258e+000	-2.190310022581710e+001
1	 6.512516503773947e-001	 1.439537592363605e+000	-2.242734562000032e+001
1	 6.358419426708865e-001	 1.446410095644047e+000	-2.296819180573180e+001
1	 6.203907754030812e-001	 1.453104387767148e+000	-2.352092172612558e+001
1	 7.759383473295118e-001	 1.383990217889825e+000	-1.877102995783046e+001
1	 7.609048666769722e-001	 1.392312138682556e+000	-1.905906157365280e+001
1	 7.458056911782389e-001	 1.400458221122166e+000	-1.939525545076020e+001
1	 7.306438302766598e-001	 1.408427842246315e+000	-1.977540317788196e+001
1	 7.154222964523117e-001	 1.416220446056298e+000	-2.019520214165724e+001
1	 7.001441034089011e-001	 1.423835543300468e+000	-2.065026393970582e+001
1	 6.848122642776282e-001	 1.431272711200492e+000	-2.113612282400752e+001
1	 6.694297898400456e-001	 1.438531593121451e+000	-2.164824415695415e+001
1	 6.539996867718797e-001	 1.445611898186873e+000	-2.218203286270196e+001
1	 6.385249559097294e-001	 1.452513400839875e+000	-2.273284185675675e+001
1	 6.230085905424815e-001	 1.459235940351649e+000	-2.329598043708425e+001
1	 7.791987568673571e-001	 1.389805596034953e+000	-1.845591506694772e+001
1	 7.641021071452054e-001	 1.398162484644362e+000	-1.875135503982396e+001
1	 7.489394865342205e-001	 1.406342796046818e+000	-1.909501483840086e+001
1	 7.337139171230911e-001	 1.414345904662357e+000	-1.948274226891225e+001
1	 7.184284240499951e-001	 1.422171252156024e+000	-1.991029066048731e+001
1	 7.030860336818822e-001	 1.429818347220387e+000	-2.037332722623180e+001
1	 6.876897718107899e-001	 1.437286765300642e+000	-2.086744145566287e+001
1	 6.722426618692355e-001	 1.444576148263326e+000	-2.138815352093601e+001
1	 6.567477231666584e-001	 1.451686204009731e+000	-2.193092267955833e+001
1	 6.412079691488344e-001	 1.458616706035207e+000	-2.249115565659387e+001
1	 6.256264056821129e-001	 1.465367492935579e+000	-2.306421498970876e+001
1	 7.824591664057522e-001	 1.395620974180313e+000	-1.813796909051080e+001
1	 7.672993476139858e-001	 1.404012830606383e+000	-1.844076785763427e+001
1	 7.520732818907336e-001	 1.412227370971638e+000	-1.879169928993120e+001
1	 7.367840039700269e-001	 1.420263967078496e+000	-1.918669057649728e+001
1	 7.214345516481479e-001	 1.428122058255759e+000	-1.962157479139226e+001
1	 7.060279639552908e-001	 1.435801151140213e+000	-2.009209915173311e+001
1	 6.905672793443338e-001	 1.443300819400590e+000	-2.059393330785461e+001
1	 6.750555338987601e-001	 1.450620703404885e+000	-2.112267764816192e+001
1	 6.594957595617234e-001	 1.457760509832163e+000	-2.167387160155092e+001
1	 6.438909823881793e-001	 1.464720011230009e+000	-2.224300192057247e+001
1	 6.282442208219421e-001	 1.471499045518887e+000	-2.282551092886124e+001
1	 6.020660694366056e-001	 1.410183519663929e+000	-2.491446657921804e+001
1	 5.870316800788019e-001	 1.416507975416695e+000	-2.539988051896349e+001
1	 5.719628035567330e-001	 1.422659308219669e+000	-2.591770996908014e+001
1	 5.568623029941295e-001	 1.428637548482971e+000	-2.646528423899479e+001
1	 5.417330278466271e-001	 1.434442786918363e+000	-2.703993700978927e+001
1	 5.265778123931376e-001	 1.440075173828057e+000	-2.763900827341608e+001
1	 5.113994742604214e-001	 1.445534918351047e+000	-2.825984623489521e+001
1	 4.962008129821307e-001	 1.450822287668565e+000	-2.889980917532815e+001
1	 4.809846085935219e-001	 1.455937606170270e+000	-2.955626727368576e+001
1	 4.657536202629571e-001	 1.460881254582814e+000	-3.022660438544741e+001
1	 4.505105849612260e-001	 1.465653669062488e+000	-3.090821977629485e+001
1	 6.046838845734370e-001	 1.416315072251001e+000	-2.473392135617394e+001
1	 5.895841248949770e-001	 1.422667027072372e+000	-2.523394013040372e+001
1	 5.744497281002313e-001	 1.428845106196179e+000	-2.576678648504704e+001
1	 5.592835697619472e-001	 1.434849340164768e+000	-2.632972505114826e+001
1	 5.440885117253452e-001	 1.440679820084324e+000	-2.692002475291310e+001
1	 5.288674005929339e-001	 1.446336696910580e+000	-2.753496085603948e+001
1	 5.136230662426655e-001	 1.451820180691880e+000	-2.817181697701713e+001
1	 4.983583203807139e-001	 1.457130539771175e+000	-2.882788705106113e+001
1	 4.830759551300781e-001	 1.462268099948586e+000	-2.950047725646770e+001
1	 4.677787416561318e-001	 1.467233243606192e+000	-3.018690789331333e+001
1	 4.524694288301597e-001	 1.472026408796709e+000	-3.088451521455403e+001
1	 6.073016997107373e-001	 1.422446624837860e+000	-2.454740986870616e+001
1	 5.921365697116462e-001	 1.428826078727865e+000	-2.506147227924362e+001
1	 5.769366526442280e-001	 1.435030904172531e+000	-2.560883929360055e+001
1	 5.617048365302478e-001	 1.441061131846431e+000	-2.618670307499436e+001
1	 5.464439956045160e-001	 1.446916853250171e+000	-2.679225976138482e+001
1	 5.311569887931402e-001	 1.452598219993009e+000	-2.742271164179707e+001
1	 5.158466582252692e-001	 1.458105443032639e+000	-2.807526929163657e+001
1	 5.005158277796019e-001	 1.463438791873734e+000	-2.874715366444244e+001
1	 4.851673016668830e-001	 1.468598593726882e+000	-2.943559813766425e+001
1	 4.698038630495010e-001	 1.473585232629580e+000	-3.013785051018795e+001
1	 4.544282726992399e-001	 1.478399148530984e+000	-3.085117494948883e+001
1	 6.099195148484722e-001	 1.428578177424451e+000	-2.435480317653028e+001
1	 5.946890145287685e-001	 1.434985130383111e+000	-2.488236797147706e+001
1	 5.794235771886765e-001	 1.441216702148652e+000	-2.544377641116498e+001
1	 5.641261032989836e-001	 1.447272923527875e+000	-2.603614051457724e+001
1	 5.487994794840923e-001	 1.453153886415813e+000	-2.665657571872469e+001
1	 5.334465769937136e-001	 1.458859743075247e+000	-2.730220320171440e+001
1	 5.180702502081939e-001	 1.464390705373224e+000	-2.797015216285717e+001
1	 5.026733351787615e-001	 1.469747043976140e+000	-2.865756205700901e+001
1	 4.872586482039089e-001	 1.474929087505048e+000	-2.936158478049117e+001
1	 4.718289844430433e-001	 1.479937221652870e+000	-3.007938680608376e+001
1	 4.563871165684502e-001	 1.484771888265196e+000	-3.080815126474632e+001
1	 6.125373299866083e-001	 1.434709730010727e+000	-2.415597454358139e+001
1	 5.972414593463017e-001	 1.441144182038046e+000	-2.469652007633772e+001
1	 5.819105017335308e-001	 1.447402500124465e+000	-2.527150742661374e+001
1	 5.665473700681072e-001	 1.453484715209018e+000	-2.587796090385308e+001
1	 5.511549633640280e-001	 1.459390919581159e+000	-2.651290744212492e+001
1	 5.357361651946101e-001	 1.465121266157198e+000	-2.717337908855895e+001
1	 5.202938421914004e-001	 1.470675967713535e+000	-2.785641544689296e+001
1	 5.048308425781587e-001	 1.476055296078286e+000	-2.855906607304557e+001
1	 4.893499947411286e-001	 1.481259581282975e+000	-2.927839281977195e+001
1	 4.738541058367372e-001	 1.486289210675947e+000	-3.001147212763268e+001
1	 4.583459604377743e-001	 1.491144627999229e+000	-3.075539725967866e+001
1	 6.151551451251107e-001	 1.440841282596636e+000	-2.395079939111212e+001
1	 5.997939041642040e-001	 1.447303233692604e+000	-2.450382328665300e+001
1	 5.843974262787448e-001	 1.453588298099896e+000	-2.509194346781018e+001
1	 5.689686368375712e-001	 1.459696506889774e+000	-2.571208907839242e+001
1	 5.535104472442770e-001	 1.465627952746118e+000	-2.636119085832736e+001
1	 5.380257533957867e-001	 1.471382789238767e+000	-2.703618381594875e+001
1	 5.225174341748505e-001	 1.476961230053470e+000	-2.773400985351141e+001
1	 5.069883499777607e-001	 1.482363548180068e+000	-2.845162034250586e+001
1	 4.914413412785140e-001	 1.487590075060555e+000	-2.918597864551865e+001
1	 4.758792272305609e-001	 1.492641199698700e+000	-2.993406258156208e+001
1	 4.603048043071963e-001	 1.497517367732963e+000	-3.069286683198626e+001
1	 6.177729602639465e-001	 1.446972835182127e+000	-2.373915525198615e+001
1	 6.023463489824342e-001	 1.453462285346721e+000	-2.430417408020748e+001
1	 5.868843508242729e-001	 1.459774096074869e+000	-2.490499716899902e+001
1	 5.713899036073282e-001	 1.465908298570060e+000	-2.553845114780365e+001
1	 5.558659311247928e-001	 1.471864985910601e+000	-2.620136298011592e+001
1	 5.403153415972000e-001	 1.477644312319856e+000	-2.689056283799667e+001
1	 5.247410261585047e-001	 1.483246492392929e+000	-2.760288692794868e+001
1	 5.091458573775339e-001	 1.488671800281383e+000	-2.833518026436503e+001
1	 4.935326878160387e-001	 1.493920568837680e+000	-2.908429938693294e+001
1	 4.779043486244928e-001	 1.498993188721015e+000	-2.984711501858982e+001
1	 4.622636481766994e-001	 1.503890107466283e+000	-3.062051466080352e+001
1	 6.203907754030812e-001	 1.453104387767148e+000	-2.352092172612558e+001
1	 6.048987938009504e-001	 1.459621337000335e+000	-2.409747068208298e+001
1	 5.893712753700684e-001	 1.465959894049310e+000	-2.471058263902734e+001
1	 5.738111703773307e-001	 1.472120090249793e+000	-2.535697446885102e+001
1	 5.582214150055291e-001	 1.478102019074516e+000	-2.603336188340181e+001
1	 5.426049297988068e-001	 1.483905835400370e+000	-2.673646252946561e+001
1	 5.269646181423247e-001	 1.489531754731810e+000	-2.746299903328368e+001
1	 5.113033647774449e-001	 1.494980052382124e+000	-2.820970199039437e+001
1	 4.956240343536744e-001	 1.500251062614241e+000	-2.897331289680904e+001
1	 4.799294700185112e-001	 1.505345177742780e+000	-2.975058701772657e+001
1	 4.642224920462677e-001	 1.510262847199072e+000	-3.053829619021064e+001
1	 6.230085905424815e-001	 1.459235940351649e+000	-2.329598043708425e+001
1	 6.074512386197107e-001	 1.465780388653379e+000	-2.388361302794837e+001
1	 5.918581999160855e-001	 1.472145692023142e+000	-2.450861543036160e+001
1	 5.762324371475311e-001	 1.478331881928889e+000	-2.516758761925490e+001
1	 5.605768988864394e-001	 1.484339052237773e+000	-2.585712668488810e+001
1	 5.448945180005639e-001	 1.490167358480213e+000	-2.657383016642807e+001
1	 5.291882101262714e-001	 1.495817017070015e+000	-2.731429933325426e+001
1	 5.134608721774606e-001	 1.501288304482188e+000	-2.807514240934734e+001
1	 4.977153808913936e-001	 1.506581556390130e+000	-2.885297773633228e+001
1	 4.819545914125948e-001	 1.511697166763884e+000	-2.964443687097637e+001
1	 4.661813359158847e-001	 1.516635586931213e+000	-3.044616761316389e+001
1	 6.256264056821129e-001	 1.465367492935579e+000	-2.306421498970876e+001
1	 6.100036834386735e-001	 1.471939440305789e+000	-2.366250272827270e+001
1	 5.943451244622784e-001	 1.478331489996291e+000	-2.429901250888542e+001
1	 5.786537039178824e-001	 1.484543673607263e+000	-2.497022037214494e+001
1	 5.629323827674774e-001	 1.490576085400281e+000	-2.567259752029574e+001
1	 5.471841062024277e-001	 1.496428881559288e+000	-2.640261390740753e+001
1	 5.314118021103059e-001	 1.502102279407441e+000	-2.715674177550724e+001
1	 5.156183795775471e-001	 1.507596556581470e+000	-2.793145913153855e+001
1	 4.998067274291692e-001	 1.512912050165238e+000	-2.872325316025868e+001
1	 4.839797128067216e-001	 1.518049155784212e+000	-2.952862356841855e+001
1	 4.681401797855343e-001	 1.523008326662587e+000	-3.034408585582740e+001
1	 6.282442208219421e-001	 1.471499045518887e+000	-2.282551092886124e+001
1	 6.125561282577968e-001	 1.478098491957502e+000	-2.343404303343072e+001
1	 5.968320490086007e-001	 1.484517287968683e+000	-2.408169222445233e+001
1	 5.810749706883369e-001	 1.490755465284833e+000	-2.476480367115629e+001
1	 5.652878666485968e-001	 1.496813118561950e+000	-2.547971552313155e+001
1	 5.494736944043552e-001	 1.502690404637500e+000	-2.622276277499442e+001
1	 5.336353940943900e-001	 1.508387541743989e+000	-2.699028107526539e+001
1	 5.177758869776715e-001	 1.513904808679865e+000	-2.777861047381218e+001
1	 5.018980739669736e-001	 1.519242543939458e+000	-2.858409910246371e+001
1	 4.860048342008704e-001	 1.524401144803653e+000	-2.940310678366379e+001
1	 4.700990236552003e-001	 1.529381066393079e+000	-3.023200856229692e+001
1	 4.505105849612260e-001	 1.465653669062488e+000	-3.090821977629485e+001
1	 4.352582159519864e-001	 1.470255339887630e+000	-3.159500467836232e+001
1	 4.199992009085988e-001	 1.474686809389286e+000	-3.228046091431720e+001
1	 4.047362013938896e-001	 1.478948672050239e+000	-3.296143513337191e+001
1	 3.894718519125411e-001	 1.483041573840250e+000	-3.363480179637100e+001
1	 3.742087587819934e-001	 1.486966211157460e+000	-3.429746631654820e+001
1	 3.589494990456079e-001	 1.490723329744274e+000	-3.494636809498464e+001
1	 3.436966194285619e-001	 1.494313723579467e+000	-3.557848344770752e+001
1	 3.284526353368803e-001	 1.497738233748321e+000	-3.619082842168196e+001
1	 3.132200298999260e-001	 1.500997747292519e+000	-3.678046149726051e+001
1	 2.980012530565967e-001	 1.504093196041590e+000	-3.734448617497484e+001
1	 4.524694288301597e-001	 1.472026408796709e+000	-3.088451521455403e+001
1	 4.371507417132339e-001	 1.476648087930236e+000	-3.158708664240137e+001
1	 4.218253796648540e-001	 1.481098825695898e+000	-3.228803477644318e+001
1	 4.064960158204544e-001	 1.485379219161321e+000	-3.298416558585652e+001
1	 3.911652961396743e-001	 1.489489917104969e+000	-3.367231289970505e+001
1	 3.758358382723524e-001	 1.493431618952961e+000	-3.434934162592947e+001
1	 3.605102304669627e-001	 1.497205073690221e+000	-3.501215086317296e+001
1	 3.451910305219705e-001	 1.500811078747787e+000	-3.565767690226630e+001
1	 3.298807647805114e-001	 1.504250478868019e+000	-3.628289611452282e+001
1	 3.145819271687184e-001	 1.507524164949504e+000	-3.688482772431571e+001
1	 2.992969782779455e-001	 1.510633072873409e+000	-3.746053646372755e+001
1	 4.544282726992399e-001	 1.478399148530984e+000	-3.085117494948883e+001
1	 4.390432674745879e-001	 1.483040835972945e+000	-3.156924577863215e+001
1	 4.236515584211841e-001	 1.487510842002673e+000	-3.228538642490280e+001
1	 4.082558302470692e-001	 1.491809766272625e+000	-3.299636708594535e+001
1	 3.928587403668398e-001	 1.495938260369978e+000	-3.369898593381328e+001
1	 3.774629177627315e-001	 1.499897026748817e+000	-3.439007240282478e+001
1	 3.620709618883305e-001	 1.503686817636593e+000	-3.506649036849094e+001
1	 3.466854416153891e-001	 1.507308433916597e+000	-3.572514121424047e+001
1	 3.313088942241526e-001	 1.510762723988268e+000	-3.636296678300928e+001
1	 3.159438244375234e-001	 1.514050582607094e+000	-3.697695221107860e+001
1	 3.005927034993116e-001	 1.517172949705882e+000	-3.756412864188801e+001
1	 4.563871165684502e-001	 1.484771888265196e+000	-3.080815126474632e+001
1	 4.409357932360367e-001	 1.489433584015637e+000	-3.154143178320238e+001
1	 4.254777371775806e-001	 1.493922858309479e+000	-3.227246423350452e+001
1	 4.100156446737294e-001	 1.498240313384018e+000	-3.299798788357419e+001
1	 3.945521845940355e-001	 1.502386603635133e+000	-3.371477015609568e+001
1	 3.790899972531312e-001	 1.506362434544881e+000	-3.441960997593831e+001
1	 3.636316933097140e-001	 1.510168561583230e+000	-3.510934100698864e+001
1	 3.481798527088230e-001	 1.513805789085729e+000	-3.578083477504070e+001
1	 3.327370236678124e-001	 1.517274969108895e+000	-3.643100367373145e+001
1	 3.173057217063539e-001	 1.520577000265112e+000	-3.705680385084988e+001
1	 3.018884287207118e-001	 1.523712826538826e+000	-3.765523797267355e+001
1	 4.583459604377743e-001	 1.491144627999229e+000	-3.075539725967866e+001
1	 4.428283189975681e-001	 1.495826332058187e+000	-3.150359521219818e+001
1	 4.273039159340356e-001	 1.500334874616189e+000	-3.224921745859865e+001
1	 4.117754591004298e-001	 1.504670860495363e+000	-3.298897711333864e+001
1	 3.962456288212590e-001	 1.508834946900292e+000	-3.371961569139090e+001
1	 3.807170767435516e-001	 1.512827842340999e+000	-3.443790650600432e+001
1	 3.651924247311161e-001	 1.516650305529975e+000	-3.514065795431062e+001
1	 3.496742638022776e-001	 1.520303144255020e+000	-3.582471668736950e+001
1	 3.341651531114998e-001	 1.523787214229728e+000	-3.648697066157338e+001
1	 3.186676189752222e-001	 1.527103417923380e+000	-3.712435206869411e+001
1	 3.031841539421639e-001	 1.530252703372057e+000	-3.773384014217212e+001
1	 4.603048043071963e-001	 1.497517367732963e+000	-3.069286683198626e+001
1	 4.447208447591707e-001	 1.502219080100473e+000	-3.145568746334488e+001
1	 4.291300946905407e-001	 1.506746890922672e+000	-3.221559622030117e+001
1	 4.135352735271654e-001	 1.511101407606524e+000	-3.296928477567188e+001
1	 3.979390730485077e-001	 1.515283290165310e+000	-3.371347351351864e+001
1	 3.823441562339925e-001	 1.519293250137022e+000	-3.444491496808205e+001
1	 3.667531561525392e-001	 1.523132049476669e+000	-3.516039714910600e+001
1	 3.511686748957588e-001	 1.526800499424304e+000	-3.585674675008796e+001
1	 3.355932825552234e-001	 1.530299459350595e+000	-3.653083223634476e+001
1	 3.200295162441409e-001	 1.533629835581718e+000	-3.717956681012438e+001
1	 3.044798791636848e-001	 1.536792580205390e+000	-3.779991125034557e+001
1	 4.622636481766994e-001	 1.503890107466283e+000	-3.062051466080352e+001
1	 4.466133705208326e-001	 1.508611828142373e+000	-3.139766075817724e+001
1	 4.309562734470883e-001	 1.513158907228801e+000	-3.217155148419108e+001
1	 4.152950879539309e-001	 1.517531954717364e+000	-3.293886171849887e+001
1	 3.996325172757795e-001	 1.521731633430045e+000	-3.369629542729055e+001
1	 3.839712357244544e-001	 1.525758657932800e+000	-3.444058913430319e+001
1	 3.683138875739864e-001	 1.529613793423154e+000	-3.516851527686296e+001
1	 3.526630859892719e-001	 1.533297854593416e+000	-3.587688544346613e+001
1	 3.370214119989919e-001	 1.536811704471323e+000	-3.656255348975144e+001
1	 3.213914135131226e-001	 1.540156253239948e+000	-3.722241853007769e+001
1	 3.057756043852917e-001	 1.543332457038643e+000	-3.785342780226009e+001
1	 4.642224920462677e-001	 1.510262847199072e+000	-3.053829619021064e+001
1	 4.485058962825420e-001	 1.515004576183763e+000	-3.132946812465598e+001
1	 4.327824522036696e-001	 1.519570923534446e+000	-3.211703504347292e+001
1	 4.170549023807214e-001	 1.523962501827749e+000	-3.289765961935613e+001
1	 4.013259615030718e-001	 1.528179976694353e+000	-3.366803405098059e+001
1	 3.855983152149377e-001	 1.532224065728180e+000	-3.442488355705420e+001
1	 3.698746189954602e-001	 1.536095537369272e+000	-3.516496975415200e+001
1	 3.541574970828225e-001	 1.539795209762189e+000	-3.588509391480497e+001
1	 3.384495414428142e-001	 1.543323949591740e+000	-3.658210010269771e+001
1	 3.227533107821799e-001	 1.546682670897893e+000	-3.725287818216398e+001
1	 3.070713296070020e-001	 1.549872333871631e+000	-3.789436669953800e+001
1	 4.661813359158847e-001	 1.516635586931213e+000	-3.044616761316389e+001
1	 4.503984220442867e-001	 1.521397324224522e+000	-3.125106338022740e+001
1	 4.346086309602770e-001	 1.525982939839478e+000	-3.205199950158924e+001
1	 4.188147168075319e-001	 1.530393048937541e+000	-3.284563096796261e+001
1	 4.030194057303825e-001	 1.534628319958090e+000	-3.362864279923122e+001
1	 3.872253947054421e-001	 1.538689473523013e+000	-3.439775355258437e+001
1	 3.714353504169633e-001	 1.542577281314865e+000	-3.514971871326564e+001
1	 3.556519081764161e-001	 1.546292564930458e+000	-3.588133396442361e+001
1	 3.398776708866989e-001	 1.549836194711674e+000	-3.658943833290555e+001
1	 3.241152080513252e-001	 1.553209088555371e+000	-3.727091720819174e+001
1	 3.083670548288326e-001	 1.556412210704171e+000	-3.792270523202885e+001
1	 4.681401797855343e-001	 1.523008326662587e+000	-3.034408585582740e+001
1	 4.522909478060553e-001	 1.527790072264526e+000	-3.116240111530448e+001
1	 4.364348097169019e-001	 1.532394956143769e+000	-3.197639825526884e+001
1	 4.205745312343572e-001	 1.536823596046605e+000	-3.278272904922545e+001
1	 4.047128499577090e-001	 1.541076663221114e+000	-3.357807586639549e+001
1	 3.888524741959679e-001	 1.545154881317146e+000	-3.435915518502394e+001
1	 3.729960818384989e-001	 1.549059025259775e+000	-3.512272098724499e+001
1	 3.571463192700581e-001	 1.552789920098058e+000	-3.586556803199706e+001
1	 3.413058003306548e-001	 1.556348439830952e+000	-3.658453500284924e+001
1	 3.254771053205714e-001	 1.559735506212208e+000	-3.727650752795174e+001
1	 3.096627800508011e-001	 1.562952087536078e+000	-3.793842106968427e+001
1	 4.700990236552003e-001	 1.529381066393079e+000	-3.023200856229692e+001
1	 4.541834735678362e-001	 1.534182820303653e+000	-3.106343667716320e+001
1	 4.382609884735363e-001	 1.538806972447188e+000	-3.189018547799910e+001
1	 4.223343456611924e-001	 1.543254143154806e+000	-3.270890792667579e+001
1	 4.064062941850493e-001	 1.547525006483282e+000	-3.351628821028923e+001
1	 3.904795536865156e-001	 1.551620289110432e+000	-3.430904525080274e+001
1	 3.745568132600691e-001	 1.555540769203842e+000	-3.508393609527951e+001
1	 3.586407303637542e-001	 1.559287275264824e+000	-3.583775918323433e+001
1	 3.427339297746908e-001	 1.562860684949402e+000	-3.656735748798664e+001
1	 3.268390025899309e-001	 1.566261923868223e+000	-3.726962152926053e+001
1	 3.109585052729244e-001	 1.569491964367168e+000	-3.794149225464099e+001
1	 2.980012530565967e-001	 1.504093196041590e+000	-3.734448617497484e+001
1	 2.828009990314218e-001	 1.507025127989463e+000	-3.788013810106606e+001
1	 2.676193610623530e-001	 1.509795038149035e+000	-3.838462138371557e+001
1	 2.524586800298293e-001	 1.512403986319364e+000	-3.885481639522561e+001
1	 2.373212605084651e-001	 1.514853072217832e+000	-3.928765437960453e+001
1	 2.222093700739263e-001	 1.517143434246501e+000	-3.968012005300873e+001
1	 2.071252386533723e-001	 1.519276248250174e+000	-4.002925407195978e+001
1	 1.920710579192460e-001	 1.521252726267772e+000	-4.033215536840292e+001
1	 1.770489807261170e-001	 1.523074115278612e+000	-4.058598335098502e+001
1	 1.620611205902298e-001	 1.524741695945114e+000	-4.078795997223290e+001
1	 1.471095512113652e-001	 1.526256781353464e+000	-4.093537166161659e+001
1	 2.992969782779455e-001	 1.510633072873409e+000	-3.746053646372755e+001
1	 2.840306327434565e-001	 1.513577753016370e+000	-3.800717115366937e+001
1	 2.687829842086254e-001	 1.516359706891685e+000	-3.852184337962430e+001
1	 2.535563837321868e-001	 1.518979998906481e+000	-3.900138250541878e+001
1	 2.383531459091907e-001	 1.521439733559776e+000	-3.944267017415739e+001
1	 2.231755481748648e-001	 1.523740054203473e+000	-3.984264297416096e+001
1	 2.080258301522327e-001	 1.525882141795015e+000	-4.019829496867880e+001
1	 1.929061930432675e-001	 1.527867213643340e+000	-4.050668008842014e+001
1	 1.778187990632861e-001	 1.529696522149704e+000	-4.076491438628480e+001
1	 1.627657709182356e-001	 1.531371353544922e+000	-4.097017815397630e+001
1	 1.477491913244744e-001	 1.532893026624554e+000	-4.111971790049560e+001
1	 3.005927034993116e-001	 1.517172949705882e+000	-3.756412864188801e+001
1	 2.852602664555143e-001	 1.520130378043972e+000	-3.812156402303708e+001
1	 2.699466073549285e-001	 1.522924375635062e+000	-3.864627848535552e+001
1	 2.546540874345853e-001	 1.525556011494349e+000	-3.913504826908974e+001
1	 2.393850313099713e-001	 1.528026394902491e+000	-3.958470322208899e+001
1	 2.241417262758770e-001	 1.530336674161230e+000	-3.999212953709451e+001
1	 2.089264216511907e-001	 1.532488035340652e+000	-4.035427234875463e+001
1	 1.937413281674166e-001	 1.534481701019713e+000	-4.066813818939531e+001
1	 1.785886174006201e-001	 1.536318929021609e+000	-4.093079730290624e+001
1	 1.634704212464511e-001	 1.538001011145548e+000	-4.113938581642289e+001
1	 1.483888314378467e-001	 1.539529271896469e+000	-4.129110776981134e+001
1	 3.018884287207118e-001	 1.523712826538826e+000	-3.765523797267355e+001
1	 2.864899001676177e-001	 1.526683003072079e+000	-3.822329808821909e+001
1	 2.711102305012906e-001	 1.529489044378973e+000	-3.875791303198679e+001
1	 2.557517911370589e-001	 1.532132024082775e+000	-3.925580383599490e+001
1	 2.404169167108455e-001	 1.534613056245783e+000	-3.971374638949916e+001
1	 2.251079043770039e-001	 1.536933294119577e+000	-4.012857425343930e+001
1	 2.098270131502878e-001	 1.539093928886893e+000	-4.049718133053536e+001
1	 1.945764632917323e-001	 1.541096188396701e+000	-4.081652439001911e+001
1	 1.793584357381515e-001	 1.542941335894138e+000	-4.108362544634019e+001
1	 1.641750715748986e-001	 1.544630668746812e+000	-4.129557399152043e+001
1	 1.490284715514893e-001	 1.546165517169035e+000	-4.144952908114927e+001
1	 3.031841539421639e-001	 1.530252703372057e+000	-3.773384014217212e+001
1	 2.877195338797896e-001	 1.533235628100504e+000	-3.831235504658785e+001
1	 2.722738536477407e-001	 1.536053713123227e+000	-3.885673358426166e+001
1	 2.568494948396415e-001	 1.538708036671565e+000	-3.936363952427791e+001
1	 2.414488021118516e-001	 1.541199717589455e+000	-3.982979266443878e+001
1	 2.260740824782869e-001	 1.543529914078321e+000	-4.025197172864804e+001
1	 2.107276046495657e-001	 1.545699822433543e+000	-4.062701711582020e+001
1	 1.954115984162537e-001	 1.547710675774113e+000	-4.095183349926335e+001
1	 1.801282540759133e-001	 1.549563742767107e+000	-4.122339227583392e+001
1	 1.648797219036005e-001	 1.551260326348532e+000	-4.143873386452404e+001
1	 1.496681116654092e-001	 1.552801762442078e+000	-4.159496985445458e+001
1	 3.044798791636848e-001	 1.536792580205390e+000	-3.779991125034557e+001
1	 2.889491675920525e-001	 1.539788253129059e+000	-3.838871690706311e+001
1	 2.734374767943067e-001	 1.542618381867632e+000	-3.894272693561886e+001
1	 2.579471985423670e-001	 1.545284049260524e+000	-3.945854581688571e+001
1	 2.424806875130279e-001	 1.547786378933312e+000	-3.993283515431529e+001
1	 2.270402605797669e-001	 1.550126534037266e+000	-4.036231665999722e+001
1	 2.116281961490656e-001	 1.552305715980410e+000	-4.074377498808176e+001
1	 1.962467335410196e-001	 1.554325163151758e+000	-4.107406041446109e+001
1	 1.808980724139381e-001	 1.556186149640328e+000	-4.135009136197066e+001
1	 1.655843722325789e-001	 1.557889983950527e+000	-4.156885677073156e+001
1	 1.503077517796134e-001	 1.559438007715424e+000	-4.172741831359454e+001
1	 3.057756043852917e-001	 1.543332457038643e+000	-3.785342780226009e+001
1	 2.901788013044292e-001	 1.546340878157556e+000	-3.845236598351244e+001
1	 2.746010999410176e-001	 1.549183050611998e+000	-3.901588010334769e+001
1	 2.590449022452694e-001	 1.551860061849460e+000	-3.954051335807866e+001
1	 2.435125729144129e-001	 1.554373040277161e+000	-4.002286708336421e+001
1	 2.280064386814851e-001	 1.556723153996217e+000	-4.045960383464352e+001
1	 2.125287876488293e-001	 1.558911609527300e+000	-4.084745031073500e+001
1	 1.970818686660689e-001	 1.560939650529444e+000	-4.118320011943266e+001
1	 1.816678907522587e-001	 1.562808556513615e+000	-4.146371638430959e+001
1	 1.662890225618565e-001	 1.564519641552616e+000	-4.168593419230668e+001
1	 1.509473918941091e-001	 1.566074252988898e+000	-4.184686288204294e+001
1	 3.070713296070020e-001	 1.549872333871631e+000	-3.789436669953800e+001
1	 2.914084350169423e-001	 1.552893503185805e+000	-3.850328488831651e+001
1	 2.757647230879016e-001	 1.555747719356131e+000	-3.907618032386326e+001
1	 2.601426059483829e-001	 1.558436074438178e+000	-3.960953295002583e+001
1	 2.445444583160451e-001	 1.560959701620807e+000	-4.009988179018401e+001
1	 2.289726167834827e-001	 1.563319773954980e+000	-4.054382812772644e+001
1	 2.134293791488982e-001	 1.565517503074020e+000	-4.093803852545270e+001
1	 1.979170037914407e-001	 1.567554137906983e+000	-4.127924768266384e+001
1	 1.824377090909079e-001	 1.569430963386780e+000	-4.156426112908910e+001
1	 1.669936728914553e-001	 1.571149299154617e+000	-4.178995775517872e+001
1	 1.515870320089033e-001	 1.572710498262325e+000	-4.195329217866362e+001
1	 3.083670548288326e-001	 1.556412210704171e+000	-3.792270523202885e+001
1	 2.926380687296148e-001	 1.559446128213619e+000	-3.854145652609802e+001
1	 2.769283462349874e-001	 1.562312388099841e+000	-3.912361504810382e+001
1	 2.612403096517411e-001	 1.565012087026484e+000	-3.966559554948679e+001
1	 2.455763437179627e-001	 1.567546362964053e+000	-4.016387272533253e+001
1	 2.299387948858007e-001	 1.569916393913360e+000	-4.061498450051983e+001
1	 2.143299706493139e-001	 1.572123396620375e+000	-4.101553515051967e+001
1	 1.987521389171738e-001	 1.574168625284182e+000	-4.136219825552353e+001
1	 1.832075274299184e-001	 1.576053370259636e+000	-4.165171948698207e+001
1	 1.676983232213979e-001	 1.577778956756348e+000	-4.188091922602356e+001
1	 1.522266721240030e-001	 1.579346743535532e+000	-4.204669501360925e+001
1	 3.096627800508011e-001	 1.562952087536078e+000	-3.793842106968427e+001
1	 2.938677024424692e-001	 1.565998753240810e+000	-3.856686408760678e+001
1	 2.780919693823034e-001	 1.568877056842937e+000	-3.915817193704279e+001
1	 2.623380133553782e-001	 1.571588099614185e+000	-3.970869226457887e+001
1	 2.466082291202042e-001	 1.574133024306707e+000	-4.021483344898584e+001
1	 2.309049729884803e-001	 1.576513013871161e+000	-4.067306799863027e+001
1	 2.152305621501179e-001	 1.578729290166173e+000	-4.107993577923033e+001
1	 1.995872740433073e-001	 1.580783112660851e+000	-4.143204707053227e+001
1	 1.839773457693229e-001	 1.582675777131999e+000	-4.172608545091375e+001
1	 1.684029735517064e-001	 1.584408614357631e+000	-4.195881050931760e+001
1	 1.528663122394154e-001	 1.585982988808343e+000	-4.212706038431723e+001
1	 3.109585052729244e-001	 1.569491964367168e+000	-3.794149225464099e+001
1	 2.950973361555283e-001	 1.572551378267190e+000	-3.857949104375959e+001
1	 2.792555925298783e-001	 1.575441725585226e+000	-3.917983885731130e+001
1	 2.634357170593281e-001	 1.578164112201086e+000	-3.973881435162269e+001
1	 2.476401145228079e-001	 1.580719685648571e+000	-4.025275762865322e+001
1	 2.318711510915625e-001	 1.583109633828190e+000	-4.071807375023927e+001
1	 2.161311536513517e-001	 1.585335183711221e+000	-4.113123607832556e+001
1	 2.004224091698800e-001	 1.587397600036800e+000	-4.148878943966986e+001
1	 1.847471641091543e-001	 1.589298184003680e+000	-4.178735311393022e+001
1	 1.691076238824034e-001	 1.591038271958281e+000	-4.202362364446803e+001
1	 1.535059523551476e-001	 1.592619234080585e+000	-4.219437747160812e+001
1	 1.471095512113652e-001	 1.526256781353464e+000	-4.093537166161659e+001
1	 1.321940769904347e-001	 1.527620909144472e+000	-4.102582982373782e+001
1	 1.173189629895987e-001	 1.528835215667850e+000	-4.105785594442555e+001
1	 1.024861918480412e-001	 1.529901104708160e+000	-4.103024547108831e+001
1	 8.769770393849952e-002	 1.530820007478312e+000	-4.094184787364264e+001
1	 7.295539709772317e-002	 1.531593381358124e+000	-4.079156616232262e+001
1	 5.826112639675777e-002	 1.532222708639553e+000	-4.057835635831854e+001
1	 4.361670395028588e-002	 1.532709495279816e+000	-4.030122691956323e+001
1	 2.902389876422843e-002	 1.533055269663587e+000	-3.995923812400318e+001
1	 1.448443662077806e-002	 1.533261581375402e+000	-3.955150141267072e+001
1	 0.000000000000000e+000	 1.533329999983334e+000	-3.907717869488561e+001
1	 1.477491913244744e-001	 1.532893026624554e+000	-4.111971790049560e+001
1	 1.327688638324483e-001	 1.534263085715157e+000	-4.121113216636606e+001
1	 1.178290720489962e-001	 1.535482672107356e+000	-4.124290015226386e+001
1	 1.029318072338744e-001	 1.536553195689441e+000	-4.121373660648076e+001
1	 8.807901819661552e-002	 1.537476093897312e+000	-4.112241214913593e+001
1	 7.327261102581678e-002	 1.538252830447551e+000	-4.096775287824222e+001
1	 5.851444885842478e-002	 1.538884894077196e+000	-4.074863992317520e+001
1	 4.380635168824693e-002	 1.539373797291449e+000	-4.046400894787880e+001
1	 2.915009621289072e-002	 1.539721075120482e+000	-4.011284960616714e+001
1	 1.454741571829701e-002	 1.539928283886501e+000	-3.969420495147991e+001
1	 0.000000000000000e+000	 1.539996999982150e+000	-3.920717080346026e+001
1	 1.483888314378467e-001	 1.539529271896469e+000	-4.129110776981133e+001
1	 1.333436506747863e-001	 1.540905262286677e+000	-4.138354368007602e+001
1	 1.183391811087811e-001	 1.542130128547706e+000	-4.141513045126369e+001
1	 1.033774226201508e-001	 1.543205286671577e+000	-4.138450731303206e+001
1	 8.846033245521598e-002	 1.544132180317176e+000	-4.129037122293011e+001
1	 7.358982495441387e-002	 1.544912279537849e+000	-4.113147655285210e+001
1	 5.876777132058422e-002	 1.545547079515722e+000	-4.090663471767869e+001
1	 4.399599942665190e-002	 1.546038099303972e+000	-4.061471374847611e+001
1	 2.927629366190350e-002	 1.546386880578270e+000	-4.025463781263274e+001
1	 1.461039481602085e-002	 1.546594986398501e+000	-3.982538668334375e+001
1	 0.000000000000000e+000	 1.546663999981867e+000	-3.932599516085154e+001
1	 1.490284715514893e-001	 1.546165517169035e+000	-4.144952908114927e+001
1	 1.339184375174359e-001	 1.547547438858865e+000	-4.154304900540927e+001
1	 1.188492901689171e-001	 1.548777584988743e+000	-4.157452924681068e+001
1	 1.038230380068114e-001	 1.549857377654417e+000	-4.154253862468681e+001
1	 8.884164671422185e-002	 1.550788266737764e+000	-4.144570554923708e+001
1	 7.390703888342050e-002	 1.551571728628892e+000	-4.128271778054334e+001
1	 5.902109378313513e-002	 1.552209264955009e+000	-4.105232212479387e+001
1	 4.418564716540320e-002	 1.552702401317272e+000	-4.075332407009869e+001
1	 2.940249111118554e-002	 1.553052686036848e+000	-4.038458736432474e+001
1	 1.467337391390007e-002	 1.553261688911296e+000	-3.994503353739946e+001
1	 0.000000000000000e+000	 1.553330999982383e+000	-3.943364137055727e+001
1	 1.496681116654092e-001	 1.552801762442078e+000	-4.159496985445458e+001
1	 1.344932243603838e-001	 1.554189615431554e+000	-4.168963304547425e+001
1	 1.193593992293684e-001	 1.555425041430308e+000	-4.172107924506494e+001
1	 1.042686533937975e-001	 1.556509468637817e+000	-4.168781189961177e+001
1	 8.922296097355417e-002	 1.557444353158942e+000	-4.158839591640015e+001
1	 7.422425281274273e-002	 1.558231177720554e+000	-4.142145748744309e+001
1	 5.927441624597661e-002	 1.558871450394940e+000	-4.118568384574073e+001
1	 4.437529490440334e-002	 1.559366703331239e+000	-4.087982295639863e+001
1	 2.952868856065562e-002	 1.559718491496112e+000	-4.050268314507005e+001
1	 1.473635301188516e-002	 1.559928391424788e+000	-4.005313266622793e+001
1	 0.000000000000000e+000	 1.559997999983599e+000	-3.953009921380066e+001
1	 1.503077517796134e-001	 1.559438007715424e+000	-4.172741831359454e+001
1	 1.350680112036169e-001	 1.560831792004578e+000	-4.182328096035899e+001
1	 1.198695082900991e-001	 1.562072497872247e+000	-4.185476344656472e+001
1	 1.047142687810503e-001	 1.563161559621628e+000	-4.182030881329529e+001
1	 8.960427523313397e-002	 1.564100439580570e+000	-4.171842343978521e+001
1	 7.454146674228666e-002	 1.564890626812705e+000	-4.154767692435468e+001
1	 5.952773870900770e-002	 1.565533635835396e+000	-4.130670189322269e+001
1	 4.456494264355475e-002	 1.566031005345761e+000	-4.099419373966042e+001
1	 2.965488601023249e-002	 1.566384296955954e+000	-4.060891029600535e+001
1	 1.479933210992658e-002	 1.566595093938874e+000	-4.014967144110033e+001
1	 0.000000000000000e+000	 1.566664999985416e+000	-3.961535864575048e+001
1	 1.509473918941091e-001	 1.566074252988898e+000	-4.184686288204294e+001
1	 1.356427980471223e-001	 1.567473968577772e+000	-4.194397816168688e+001
1	 1.203796173510732e-001	 1.568719954314401e+000	-4.197556513998732e+001
1	 1.051598841685111e-001	 1.569813650605705e+000	-4.194001135182538e+001
1	 8.998558949288221e-002	 1.570756526002515e+000	-4.183576955485110e+001
1	 7.485868067195843e-002	 1.571550075905218e+000	-4.166135765988050e+001
1	 5.978106117212745e-002	 1.572195821276259e+000	-4.141535858482741e+001
1	 4.475459038275984e-002	 1.572695307360727e+000	-4.109642003468526e+001
1	 2.978108345983493e-002	 1.573050102416269e+000	-4.070325421012428e+001
1	 1.486231120797482e-002	 1.573261796453454e+000	-4.023463744734388e+001
1	 0.000000000000000e+000	 1.573331999987733e+000	-3.968940979183420e+001
1	 1.515870320089033e-001	 1.572710498262325e+000	-4.195329217866362e+001
1	 1.362175848908868e-001	 1.574116145150969e+000	-4.205171030730902e+001
1	 1.208897264122548e-001	 1.575367410756614e+000	-4.208346789607021e+001
1	 1.056054995561209e-001	 1.576465741589899e+000	-4.204690180533639e+001
1	 9.036690375271989e-002	 1.577412612424635e+000	-4.194041601039777e+001
1	 7.517589460166406e-002	 1.578209524997966e+000	-4.176248157371494e+001
1	 6.003438363523492e-002	 1.578858006717409e+000	-4.151163653659398e+001
1	 4.494423812192110e-002	 1.579359609376027e+000	-4.118648573283108e+001
1	 2.990728090938170e-002	 1.579715907876953e+000	-4.078570052696431e+001
1	 1.492529030598035e-002	 1.579928498968426e+000	-4.030801847982698e+001
1	 0.000000000000000e+000	 1.579998999990450e+000	-3.975224294414637e+001
1	 1.522266721240030e-001	 1.579346743535532e+000	-4.204669501360925e+001
1	 1.367923717348973e-001	 1.580758321724004e+000	-4.214646329613115e+001
1	 1.213998354736080e-001	 1.582014867198729e+000	-4.217845556168472e+001
1	 1.060511149438211e-001	 1.583117832574064e+000	-4.214096276162033e+001
1	 9.074821801256802e-002	 1.584068698846796e+000	-4.203234486198112e+001
1	 7.549310853130965e-002	 1.584868974090821e+000	-4.185103085011054e+001
1	 6.028770609822916e-002	 1.585520192158728e+000	-4.159551865674285e+001
1	 4.513388586094098e-002	 1.586023911391548e+000	-4.126437499620347e+001
1	 3.003347835879158e-002	 1.586381713337902e+000	-4.085623512742634e+001
1	 1.498826940389365e-002	 1.586595201483688e+000	-4.036980253855455e+001
1	 0.000000000000000e+000	 1.586665999993466e+000	-3.980384855794740e+001
1	 1.528663122394154e-001	 1.585982988808343e+000	-4.212706038431723e+001
1	 1.373671585791408e-001	 1.587400498296709e+000	-4.222822326307132e+001
1	 1.219099445350967e-001	 1.588662323640588e+000	-4.226051225406010e+001
1	 1.064967303315527e-001	 1.589769923558053e+000	-4.222217709990034e+001
1	 9.112953227234756e-002	 1.590724785268860e+000	-4.211153846549650e+001
1	 7.581032246080133e-002	 1.591528423183657e+000	-4.192698797150427e+001
1	 6.054102856100924e-002	 1.592182377600097e+000	-4.166698813956175e+001
1	 4.532353359972191e-002	 1.592688213407181e+000	-4.133007225198748e+001
1	 3.015967580798333e-002	 1.593047518799007e+000	-4.091484412872529e+001
1	 1.505124850166521e-002	 1.593261903999138e+000	-4.041997782437898e+001
1	 0.000000000000000e+000	 1.593332999996683e+000	-3.984421724824899e+001
1	 1.535059523551476e-001	 1.592619234080585e+000	-4.219437747160812e+001
1	 1.379419454236043e-001	 1.594042674868919e+000	-4.229697657414089e+001
1	 1.224200535966850e-001	 1.595309780082036e+000	-4.232962235514928e+001
1	 1.069423457192570e-001	 1.596422014541718e+000	-4.229052798475829e+001
1	 9.151084653197959e-002	 1.597380871690691e+000	-4.217797947092110e+001
1	 7.612753639004517e-002	 1.598187872276344e+000	-4.199033571230639e+001
1	 6.079435102347421e-002	 1.598844563041398e+000	-4.172602845944743e+001
1	 4.551318133816635e-002	 1.599352515422813e+000	-4.138356218692927e+001
1	 3.028587325687572e-002	 1.599713324260166e+000	-4.096151387946708e+001
1	 1.511422759924549e-002	 1.599928606514677e+000	-4.045853273481401e+001
1	 0.000000000000000e+000	 1.600000000000000e+000	-3.987333978648677e+001
1	 1.600000000000000e+000	 0.000000000000000e+000	 1.992016368683176e+001
1	 1.599928606514677e+000	 1.511422759924554e-002	 1.915961371720324e+001
1	 1.599713324260166e+000	 3.028587325687582e-002	 1.840385900632708e+001
1	 1.599352515422813e+000	 4.551318133816625e-002	 1.765365384926486e+001
1	 1.598844563041397e+000	 6.079435102347415e-002	 1.690976913346291e+001
1	 1.598187872276344e+000	 7.612753639004513e-002	 1.617299205242367e+001
1	 1.597380871690691e+000	 9.151084653197962e-002	 1.544412578726549e+001
1	 1.596422014541718e+000	 1.069423457192571e-001	 1.472398915555497e+001
1	 1.595309780082036e+000	 1.224200535966849e-001	 1.401341622684132e+001
1	 1.594042674868919e+000	 1.379419454236041e-001	 1.331325590437112e+001
1	 1.592619234080585e+000	 1.535059523551476e-001	 1.262437147251350e+001
1	 1.606667000003317e+000	 0.000000000000000e+000	 1.970184936369346e+001
1	 1.606595309030202e+000	 1.517720669660131e-002	 1.894885934134084e+001
1	 1.606379129721276e+000	 3.041207070541383e-002	 1.820042442153203e+001
1	 1.606016817438340e+000	 4.570282907620737e-002	 1.745732473858132e+001
1	 1.605506748482524e+000	 6.104767348555376e-002	 1.672035642543024e+001
1	 1.604847321368774e+000	 7.644475031897424e-002	 1.599033127717425e+001
1	 1.604036958112174e+000	 9.189216079140578e-002	 1.526807638210228e+001
1	 1.603074105524943e+000	 1.073879611068879e-001	 1.455443371971438e+001
1	 1.601957236522952e+000	 1.229301626583409e-001	 1.385025972523232e+001
1	 1.600684851440510e+000	 1.385167322682696e-001	 1.315642482016864e+001
1	 1.599255479352130e+000	 1.541455924711944e-001	 1.247381290857791e+001
1	 1.613334000006534e+000	 0.000000000000000e+000	 1.948040770652770e+001
1	 1.613262011545619e+000	 1.524018579376445e-002	 1.873530651550632e+001
1	 1.613044935182250e+000	 3.053826815364738e-002	 1.799451204499602e+001
1	 1.612681119453689e+000	 4.589247681390126e-002	 1.725883047843754e+001
1	 1.612168933923417e+000	 6.130099594730055e-002	 1.652908340430071e+001
1	 1.611506770460910e+000	 7.676196424762995e-002	 1.580610742889983e+001
1	 1.610693044533295e+000	 9.227347505065069e-002	 1.509075375632920e+001
1	 1.609726196507734e+000	 1.078335764944499e-001	 1.438388773506477e+001
1	 1.608604692963363e+000	 1.234402717200478e-001	 1.368638837083319e+001
1	 1.607327028011525e+000	 1.390915191131004e-001	 1.299914780540338e+001
1	 1.605891724623038e+000	 1.547852325875027e-001	 1.232307076101513e+001
1	 1.620001000009550e+000	 0.000000000000000e+000	 1.925591430516773e+001
1	 1.619928714060829e+000	 1.530316489078311e-002	 1.851902420713317e+001
1	 1.619710740643001e+000	 3.066446560165258e-002	 1.778618425293184e+001
1	 1.619345421468792e+000	 4.608212455133472e-002	 1.705822688154531e+001
1	 1.618831119364034e+000	 6.155431840879772e-002	 1.633599934348159e+001
1	 1.618166219552731e+000	 7.707917817608065e-002	 1.562036326231485e+001
1	 1.617349130954059e+000	 9.265478930975966e-002	 1.491219416293366e+001
1	 1.616378287490125e+000	 1.082791918819602e-001	 1.421238096612815e+001
1	 1.615252149403328e+000	 1.239503807817929e-001	 1.352182544920214e+001
1	 1.613969204582053e+000	 1.396663059580555e-001	 1.284144167235586e+001
1	 1.612527969893416e+000	 1.554248727040071e-001	 1.217215537064698e+001
1	 1.626668000012268e+000	 0.000000000000000e+000	 1.902844351021174e+001
1	 1.626595416575738e+000	 1.536614398770546e-002	 1.830008025298770e+001
1	 1.626376546103448e+000	 3.079066304950555e-002	 1.757550239894212e+001
1	 1.626009723483583e+000	 4.627177228859459e-002	 1.685556884560896e+001
1	 1.625493304804328e+000	 6.180764087012846e-002	 1.614115270857933e+001
1	 1.624825668644219e+000	 7.739639210439459e-002	 1.543314083120145e+001
1	 1.624005217374477e+000	 9.303610356877803e-002	 1.473243326056147e+001
1	 1.623030378472153e+000	 1.087248072694361e-001	 1.403994268945851e+001
1	 1.621899605842912e+000	 1.244604898435636e-001	 1.335659386414684e+001
1	 1.620611381152179e+000	 1.402410928030932e-001	 1.268332295768062e+001
1	 1.619164215163372e+000	 1.560645128206422e-001	 1.202107690876433e+001
1	 1.633335000014584e+000	 0.000000000000000e+000	 1.879806845831458e+001
1	 1.633262119090249e+000	 1.542912308457965e-002	 1.807854138224478e+001
1	 1.633042351563504e+000	 3.091686049728242e-002	 1.736252683488963e+001
1	 1.632674025497995e+000	 4.646142002576765e-002	 1.665091037199996e+001
1	 1.632155490244256e+000	 6.206096333137600e-002	 1.594459117388571e+001
1	 1.631485117735354e+000	 7.771360603264023e-002	 1.524448150271465e+001
1	 1.630661303794554e+000	 9.341741782775105e-002	 1.455150612564649e+001
1	 1.629682469453853e+000	 1.091704226568948e-001	 1.386660170360056e+001
1	 1.628547062282178e+000	 1.249705989053470e-001	 1.319071614551583e+001
1	 1.627253557721992e+000	 1.408158796481723e-001	 1.252480792803196e+001
1	 1.625800460433011e+000	 1.567041529373426e-001	 1.186984538058756e+001
1	 1.640002000016400e+000	 0.000000000000000e+000	 1.856486109686261e+001
1	 1.639928821604268e+000	 1.549210218145386e-002	 1.785447323900136e+001
1	 1.639708157023086e+000	 3.104305794505928e-002	 1.714731693125936e+001
1	 1.639338327511960e+000	 4.665106776294072e-002	 1.644430458397594e+001
1	 1.638817675683773e+000	 6.231428579262357e-002	 1.574636163846252e+001
1	 1.638144566826117e+000	 7.803081996088587e-002	 1.505442597133912e+001
1	 1.637317390214301e+000	 9.379873208672412e-002	 1.436944726424529e+001
1	 1.636334560435261e+000	 1.096160380443534e-001	 1.369238633880567e+001
1	 1.635194518721186e+000	 1.254807079671303e-001	 1.302421445679940e+001
1	 1.633895734291576e+000	 1.413906664932513e-001	 1.236591258555186e+001
1	 1.632436705702442e+000	 1.573437930540431e-001	 1.171847062864190e+001
1	 1.646669000017617e+000	 0.000000000000000e+000	 1.832889220804918e+001
1	 1.646595524117697e+000	 1.555508127837624e-002	 1.762794040424235e+001
1	 1.646373962482109e+000	 3.116925539291229e-002	 1.692993109702492e+001
1	 1.646002629525412e+000	 4.684071550020064e-002	 1.623580374445707e+001
1	 1.645479861122833e+000	 6.256760825395438e-002	 1.554651024183491e+001
1	 1.644804015916487e+000	 7.834803388919986e-002	 1.486301427250657e+001
1	 1.643973476633723e+000	 9.418004634574252e-002	 1.418629062358339e+001
1	 1.642986651416412e+000	 1.100616534318293e-001	 1.351732446651239e+001
1	 1.641841975160000e+000	 1.259908170289009e-001	 1.285711060254645e+001
1	 1.640537910861019e+000	 1.419654533382890e-001	 1.220665267322467e+001
1	 1.639072950971772e+000	 1.579834331706781e-001	 1.156696233605102e+001
1	 1.653336000018133e+000	 0.000000000000000e+000	 1.809023143236764e+001
1	 1.653262226630441e+000	 1.561806037539494e-002	 1.739900641727552e+001
1	 1.653039767940489e+000	 3.129545284091757e-002	 1.671042679903518e+001
1	 1.652666931538284e+000	 4.703036323763419e-002	 1.602545927337255e+001
1	 1.652142046561392e+000	 6.282093071545158e-002	 1.534508237930577e+001
1	 1.651463465006448e+000	 7.866524781765064e-002	 1.467028579588356e+001
1	 1.650629563052829e+000	 9.456136060485153e-002	 1.400206960332276e+001
1	 1.649638742397343e+000	 1.105072688193396e-001	 1.334144350859685e+001
1	 1.648489431598683e+000	 1.265009260906461e-001	 1.268942603560147e+001
1	 1.647180087430408e+000	 1.425402401832440e-001	 1.204704368010242e+001
1	 1.645709196241108e+000	 1.586230732871825e-001	 1.141533002975102e+001
1	 1.660003000017850e+000	 0.000000000000000e+000	 1.784894729153801e+001
1	 1.659928929142405e+000	 1.568103947255814e-002	 1.716773379664971e+001
1	 1.659705573398140e+000	 3.142165028915121e-002	 1.648886058093306e+001
1	 1.659331233550508e+000	 4.722001097532819e-002	 1.581332176458865e+001
1	 1.658804231999406e+000	 6.307425317719849e-002	 1.514212271690035e+001
1	 1.658122914095977e+000	 7.898246174630641e-002	 1.447627929833969e+001
1	 1.657285649471628e+000	 9.494267486409651e-002	 1.381681706655766e+001
1	 1.656290833378088e+000	 1.109528842069017e-001	 1.316477044640062e+001
1	 1.655136888037296e+000	 1.270110351523530e-001	 1.252118186416718e+001
1	 1.653822263999829e+000	 1.431150270280748e-001	 1.188710084640422e+001
1	 1.652345441510555e+000	 1.592627134034907e-001	 1.126358308362697e+001
1	 1.666670000016666e+000	 0.000000000000000e+000	 1.760510721088368e+001
1	 1.666595631653491e+000	 1.574401856991399e-002	 1.693418406057099e+001
1	 1.666371378854980e+000	 3.154784773768937e-002	 1.626528808162069e+001
1	 1.665995535562018e+000	 4.740965871336945e-002	 1.559944100243115e+001
1	 1.665466417436829e+000	 6.332757563927825e-002	 1.493767520595259e+001
1	 1.664782363185057e+000	 7.929967567523566e-002	 1.428103291660375e+001
1	 1.663941735890127e+000	 9.532398912352275e-002	 1.363056535054639e+001
1	 1.662942924358684e+000	 1.113984995945326e-001	 1.298733182954210e+001
1	 1.661784344475902e+000	 1.275211442140089e-001	 1.235239885869765e+001
1	 1.660464440569369e+000	 1.436898138727402e-001	 1.172683916849300e+001
1	 1.658981686780223e+000	 1.599023535195375e-001	 1.111173072157392e+001
1	 1.592619234080585e+000	 1.535059523551476e-001	 1.262437147251350e+001
1	 1.591038271958281e+000	 1.691076238824034e-001	 1.194478291601698e+001
1	 1.589298184003680e+000	 1.847471641091542e-001	 1.127240874027014e+001
1	 1.587397600036800e+000	 2.004224091698800e-001	 1.060826853339770e+001
1	 1.585335183711221e+000	 2.161311536513516e-001	 9.953368267574328e+000
1	 1.583109633828190e+000	 2.318711510915626e-001	 9.308698745203861e+000
1	 1.580719685648572e+000	 2.476401145228081e-001	 8.675234029106342e+000
1	 1.578164112201086e+000	 2.634357170593281e-001	 8.053929859132188e+000
1	 1.575441725585226e+000	 2.792555925298784e-001	 7.445722057729210e+000
1	 1.572551378267189e+000	 2.950973361555282e-001	 6.851524927091241e+000
1	 1.569491964367168e+000	 3.109585052729245e-001	 6.272229640616210e+000
1	 1.599255479352130e+000	 1.541455924711944e-001	 1.247381290857791e+001
1	 1.597667929558169e+000	 1.698122742134936e-001	 1.180031018819024e+001
1	 1.595920590874547e+000	 1.855169824494244e-001	 1.113370595476970e+001
1	 1.594012087411892e+000	 2.012575442969085e-001	 1.047504320558348e+001
1	 1.591941077255381e+000	 2.170317451530340e-001	 9.825350533034078e+000
1	 1.589706253784308e+000	 2.328373291950672e-001	 9.185640515373072e+000
1	 1.587306346989509e+000	 2.486719999257927e-001	 8.556908091448035e+000
1	 1.584740124787051e+000	 2.645334207636076e-001	 7.940128922011058e+000
1	 1.582006394326573e+000	 2.804192156777262e-001	 7.336257740228484e+000
1	 1.579104003292623e+000	 2.963269698688031e-001	 6.746226694136979e+000
1	 1.576031841197312e+000	 3.122542304952113e-001	 6.170943683892011e+000
1	 1.605891724623038e+000	 1.547852325875027e-001	 1.232307076101513e+001
1	 1.604297587157367e+000	 1.705169245449124e-001	 1.165591089351622e+001
1	 1.602542997744677e+000	 1.862868007900623e-001	 1.099532874271944e+001
1	 1.600626574786213e+000	 2.020926794243195e-001	 1.034238960006528e+001
1	 1.598546970798739e+000	 2.179323366550936e-001	 9.698143555389022e+000
1	 1.596302873739601e+000	 2.338035072989267e-001	 9.063623833529110e+000
1	 1.593893008329605e+000	 2.497038853290979e-001	 8.439845115040511e+000
1	 1.591316137372162e+000	 2.656311244681645e-001	 7.827801843650717e+000
1	 1.588571063067057e+000	 2.815828388258037e-001	 7.228466523209050e+000
1	 1.585656628317191e+000	 2.975566035822602e-001	 6.642788006989582e+000
1	 1.582571718026589e+000	 3.135499557176359e-001	 6.071689782312165e+000
1	 1.612527969893416e+000	 1.554248727040071e-001	 1.217215537064698e+001
1	 1.610927244755997e+000	 1.712215748765774e-001	 1.151158896353331e+001
1	 1.609165404614206e+000	 1.870566191309759e-001	 1.085727475797936e+001
1	 1.607241062159900e+000	 2.029278145520175e-001	 1.021029923727599e+001
1	 1.605152864341439e+000	 2.188329281574359e-001	 9.571732878571968e+000
1	 1.602899493694213e+000	 2.347696854030525e-001	 8.942628436726421e+000
1	 1.600479669669002e+000	 2.507357707326435e-001	 8.324019212384240e+000
1	 1.597892149956558e+000	 2.667288281729294e-001	 7.716917307019946e+000
1	 1.595135731806818e+000	 2.827464619740537e-001	 7.122311867812631e+000
1	 1.592209253341028e+000	 2.987862372958533e-001	 6.541167325323539e+000
1	 1.589111594855133e+000	 3.148456809401637e-001	 5.974421627058042e+000
1	 1.619164215163372e+000	 1.560645128206422e-001	 1.202107690876433e+001
1	 1.617556902354181e+000	 1.719262252084069e-001	 1.136734826532484e+001
1	 1.615787811483266e+000	 1.878264374720733e-001	 1.071954169287260e+001
1	 1.613855549533095e+000	 2.037629496799067e-001	 1.007876377666460e+001
1	 1.611758757883622e+000	 2.197335196599668e-001	 9.446104283512346e+000
1	 1.609496113648288e+000	 2.357358635073560e-001	 8.822634394215966e+000
1	 1.607066331007840e+000	 2.517676561363493e-001	 8.209404920386296e+000
1	 1.604468162540381e+000	 2.678265318778332e-001	 7.607444508507191e+000
1	 1.601700400545990e+000	 2.839100851224186e-001	 7.017757834208691e+000
1	 1.598761878364269e+000	 3.000158710095375e-001	 6.441323789836194e+000
1	 1.595651471683077e+000	 3.161414061627604e-001	 5.879093668509801e+000
1	 1.625800460433011e+000	 1.567041529373426e-001	 1.186984538058756e+001
1	 1.624186559952042e+000	 1.726308755403184e-001	 1.122319260283466e+001
1	 1.622410218351989e+000	 1.885962558132626e-001	 1.058212727740036e+001
1	 1.620470036905936e+000	 2.045980848078916e-001	 9.947775013859388e+000
1	 1.618364651425431e+000	 2.206341111625919e-001	 9.321243783299501e+000
1	 1.616092733601967e+000	 2.367020416117481e-001	 8.703622100664813e+000
1	 1.613652992346263e+000	 2.527995415401352e-001	 8.095977191698694e+000
1	 1.611044175123768e+000	 2.689242355828062e-001	 7.499353147442145e+000
1	 1.608265069284713e+000	 2.850737082708411e-001	 6.914769069368694e+000
1	 1.605314503387048e+000	 3.012455047232673e-001	 6.343217208348742e+000
1	 1.602191348510555e+000	 3.174371313853915e-001	 5.785661100751602e+000
1	 1.632436705702442e+000	 1.573437930540431e-001	 1.171847062864190e+001
1	 1.630816217549701e+000	 1.733355258722299e-001	 1.107912571815057e+001
1	 1.629032625220509e+000	 1.893660741544520e-001	 1.044502927847619e+001
1	 1.627084524278562e+000	 2.054332199358764e-001	 9.817324877899615e+000
1	 1.624970544967010e+000	 2.215347026652170e-001	 9.197137618463440e+000
1	 1.622689353555394e+000	 2.376682197161403e-001	 8.585572269542089e+000
1	 1.620239653684412e+000	 2.538314269439212e-001	 7.983711386267669e+000
1	 1.617620187706860e+000	 2.700219392877792e-001	 7.392613415873057e+000
1	 1.614829738023121e+000	 2.862373314192635e-001	 6.813310795138771e+000
1	 1.611867128409499e+000	 3.024751384369968e-001	 6.246808042246149e+000
1	 1.608731225337699e+000	 3.187328566080225e-001	 5.694079846455179e+000
1	 1.639072950971772e+000	 1.579834331706781e-001	 1.156696233605102e+001
1	 1.637445875147284e+000	 1.740401762040592e-001	 1.093515129275659e+001
1	 1.635655032088957e+000	 1.901358924955492e-001	 1.030824549917876e+001
1	 1.633699011651114e+000	 2.062683550637655e-001	 9.687405428534879e+000
1	 1.631576438508499e+000	 2.224352941677479e-001	 9.073772252370926e+000
1	 1.629285973508712e+000	 2.386343978204436e-001	 8.468465926664925e+000
1	 1.626826315022428e+000	 2.548633123476269e-001	 7.872583263088593e+000
1	 1.624196200289796e+000	 2.711196429926829e-001	 7.287195988591837e+000
1	 1.621394406761351e+000	 2.874009545676284e-001	 6.713348796601803e+000
1	 1.618419753431758e+000	 3.037047721506811e-001	 6.152057393246354e+000
1	 1.615271102164644e+000	 3.200285818306192e-001	 5.604306542130050e+000
1	 1.645709196241108e+000	 1.586230732871825e-001	 1.141533002975102e+001
1	 1.644075532744909e+000	 1.747448265357242e-001	 1.079127294875458e+001
1	 1.642277438957468e+000	 1.909057108364628e-001	 1.017177377802257e+001
1	 1.640313499023730e+000	 2.071034901914634e-001	 9.558008853589730e+000
1	 1.638182332050043e+000	 2.233358856700901e-001	 8.951134366732275e+000
1	 1.635882593462066e+000	 2.396005759245694e-001	 8.352284403900923e+000
1	 1.633412976360455e+000	 2.558951977511725e-001	 7.762568972160199e+000
1	 1.630772212872714e+000	 2.722173466974477e-001	 7.183072013401096e+000
1	 1.627959075499540e+000	 2.885645777158784e-001	 6.614849410721313e+000
1	 1.624972378453958e+000	 3.049344058642744e-001	 6.058926990489817e+000
1	 1.621810978991522e+000	 3.213243070531469e-001	 5.516298523731249e+000
1	 1.652345441510555e+000	 1.592627134034907e-001	 1.126358308362697e+001
1	 1.650705190342700e+000	 1.754494768671429e-001	 1.064749425005727e+001
1	 1.648899845826174e+000	 1.916755291771005e-001	 1.003561198824644e+001
1	 1.646927986396549e+000	 2.079386253188743e-001	 9.429127466391730e+000
1	 1.644788225591782e+000	 2.242364771721496e-001	 8.829210857216964e+000
1	 1.642479213415595e+000	 2.405667540284289e-001	 8.237009333022138e+000
1	 1.639999637698632e+000	 2.569270831544776e-001	 7.653645046632616e+000
1	 1.637348225455756e+000	 2.733150504020045e-001	 7.080213101615331e+000
1	 1.634523744237826e+000	 2.897282008639558e-001	 6.517779515259078e+000
1	 1.631525003476235e+000	 3.061640395777312e-001	 5.967379177939922e+000
1	 1.628350855818468e+000	 3.226200322755715e-001	 5.430013812613284e+000
1	 1.658981686780223e+000	 1.599023535195375e-001	 1.111173072157392e+001
1	 1.657334847940780e+000	 1.761541271982330e-001	 1.050381870355157e+001
1	 1.655522252695209e+000	 1.924453475173706e-001	 9.899758037119034e+000
1	 1.653542473769712e+000	 2.087737604459026e-001	 9.300753703261275e+000
1	 1.651394119133861e+000	 2.251370686738319e-001	 8.707988829174083e+000
1	 1.649075833369447e+000	 2.415329321319333e-001	 8.122622639706895e+000
1	 1.646586299037103e+000	 2.579589685574621e-001	 7.545788395144105e+000
1	 1.643924238039060e+000	 2.744127541062840e-001	 6.978591318790344e+000
1	 1.641088412976345e+000	 2.908918240118035e-001	 6.422106517958623e+000
1	 1.638077628498721e+000	 3.073936732910060e-001	 5.877376902085929e+000
1	 1.634890732645614e+000	 3.239157574978582e-001	 5.345411101821616e+000
1	 1.569491964367168e+000	 3.109585052729245e-001	 6.272229640616210e+000
1	 1.566261923868223e+000	 3.268390025899310e-001	 5.707635786503475e+000
1	 1.562860684949402e+000	 3.427339297746908e-001	 5.157548077463809e+000
1	 1.559287275264824e+000	 3.586407303637541e-001	 4.622574292696122e+000
1	 1.555540769203843e+000	 3.745568132600691e-001	 4.103300623484901e+000
1	 1.551620289110432e+000	 3.904795536865157e-001	 3.600290600759519e+000
1	 1.547525006483282e+000	 4.064062941850495e-001	 3.114084033774335e+000
1	 1.543254143154806e+000	 4.223343456611926e-001	 2.645195962122100e+000
1	 1.538806972447188e+000	 4.382609884735363e-001	 2.194115623321329e+000
1	 1.534182820303653e+000	 4.541834735678361e-001	 1.761305438241273e+000
1	 1.529381066393079e+000	 4.700990236552003e-001	 1.347200016645388e+000
1	 1.576031841197312e+000	 3.122542304952113e-001	 6.170943683892011e+000
1	 1.572788341523290e+000	 3.282008998594101e-001	 5.610268480567326e+000
1	 1.569372930066905e+000	 3.441620592188109e-001	 5.064055327978093e+000
1	 1.565784630430640e+000	 3.601351414575069e-001	 4.532913010784301e+000
1	 1.562022513146961e+000	 3.761175446816751e-001	 4.017427850584785e+000
1	 1.558085696902766e+000	 3.921066331770839e-001	 3.518162616437617e+000
1	 1.553973349744499e+000	 4.080997384124002e-001	 3.035655447691825e+000
1	 1.549684690262056e+000	 4.240941600880323e-001	 2.570418791404723e+000
1	 1.545218988749658e+000	 4.400871672301722e-001	 2.122938356647055e+000
1	 1.540575568341829e+000	 4.560759993296170e-001	 1.693672088018666e+000
1	 1.535753806122621e+000	 4.720578675248663e-001	 1.283049160713675e+000
1	 1.582571718026589e+000	 3.135499557176359e-001	 6.071689782312165e+000
1	 1.579314759177490e+000	 3.295627971289897e-001	 5.515093787742746e+000
1	 1.575885175183543e+000	 3.455901886630018e-001	 4.972906695895506e+000
1	 1.572281985595597e+000	 3.616295525513067e-001	 4.445738637616951e+000
1	 1.568504257089225e+000	 3.776782761033101e-001	 3.934176451989964e+000
1	 1.564551104694252e+000	 3.937337126676677e-001	 3.438782580068992e+000
1	 1.560421693004875e+000	 4.097931826397565e-001	 2.960093972044303e+000
1	 1.556115237368471e+000	 4.258539745148701e-001	 2.498621010170279e+000
1	 1.551631005051299e+000	 4.419133459868008e-001	 2.054846449818442e+000
1	 1.546968316379183e+000	 4.579685250913861e-001	 1.629224381035680e+000
1	 1.542126545851345e+000	 4.740167113945158e-001	 1.222179213002663e+000
1	 1.589111594855133e+000	 3.148456809401637e-001	 5.974421627058042e+000
1	 1.585841176830959e+000	 3.309246943986449e-001	 5.422060984903388e+000
1	 1.582397420299454e+000	 3.470183181072454e-001	 4.884047509354718e+000
1	 1.578779340759835e+000	 3.631239636451417e-001	 4.360993013602663e+000
1	 1.574986001030779e+000	 3.792390075249656e-001	 3.853485236389477e+000
1	 1.571016512485042e+000	 3.953607921582605e-001	 3.362086719209839e+000
1	 1.566870036264566e+000	 4.114866268671125e-001	 2.887333697986942e+000
1	 1.562545784474214e+000	 4.276137889416999e-001	 2.429735011616651e+000
1	 1.558043021352281e+000	 4.437395247434138e-001	 1.989771029797383e+000
1	 1.553361064415891e+000	 4.598610508531317e-001	 1.567892602582323e+000
1	 1.548499285579435e+000	 4.759755552641329e-001	 1.164520034102410e+000
1	 1.595651471683077e+000	 3.161414061627604e-001	 5.879093668509801e+000
1	 1.592367594483831e+000	 3.322865916683504e-001	 5.331120180490739e+000
1	 1.588909665414776e+000	 3.484464475515245e-001	 4.797423992798797e+000
1	 1.585276695923495e+000	 3.646183747389991e-001	 4.278618932633134e+000
1	 1.581467744971771e+000	 3.807997389466333e-001	 3.775294015658032e+000
1	 1.577481920275285e+000	 3.969878716488561e-001	 3.288012306917723e+000
1	 1.573318379523730e+000	 4.131800710944627e-001	 2.817309797201018e+000
1	 1.568976331579452e+000	 4.293736033685149e-001	 2.363694297304477e+000
1	 1.564455037652777e+000	 4.455657035000024e-001	 1.927644352667581e+000
1	 1.559753812452132e+000	 4.617535766148418e-001	 1.509608180868991e+000
1	 1.554872025307074e+000	 4.779343991337012e-001	 1.110002634485910e+000
1	 1.602191348510555e+000	 3.174371313853915e-001	 5.785661100751602e+000
1	 1.598894012136239e+000	 3.336484889380810e-001	 5.242222297542718e+000
1	 1.595421910529644e+000	 3.498745769958206e-001	 4.712983248682453e+000
1	 1.591774051086716e+000	 3.661127858328666e-001	 4.198560122623194e+000
1	 1.587949488912343e+000	 3.823604703683042e-001	 3.699543584381877e+000
1	 1.583947328065134e+000	 3.986149511394479e-001	 3.216497640413908e+000
1	 1.579766722782525e+000	 4.148735153218011e-001	 2.749958499841149e+000
1	 1.575406878684347e+000	 4.311334177953086e-001	 2.300433454536410e+000
1	 1.570867053952957e+000	 4.473918822565583e-001	 1.868399780589931e+000
1	 1.566146560488082e+000	 4.636461023765048e-001	 1.454303663700226e+000
1	 1.561244765034445e+000	 4.798932430032044e-001	 1.058559151040915e+000
1	 1.608731225337699e+000	 3.187328566080225e-001	 5.694079846455179e+000
1	 1.605420429788318e+000	 3.350103862078115e-001	 5.155319057135793e+000
1	 1.601934155644195e+000	 3.513027064401160e-001	 4.630673239625115e+000
1	 1.598271406249640e+000	 3.676071969267319e-001	 4.120761226525816e+000
1	 1.594431232852644e+000	 3.839212017899701e-001	 3.626175699884037e+000
1	 1.590412735854740e+000	 4.002420306300298e-001	 3.147482020265754e+000
1	 1.586215066041111e+000	 4.165669595491220e-001	 2.685217073020740e+000
1	 1.581837425789064e+000	 4.328932322220745e-001	 2.239888134288107e+000
1	 1.577279070252993e+000	 4.492180610130727e-001	 1.811971759320372e+000
1	 1.572539308523918e+000	 4.655386281381084e-001	 1.401912695717827e+000
1	 1.567617504761729e+000	 4.818520868726262e-001	 1.010122824174306e+000
1	 1.615271102164644e+000	 3.200285818306192e-001	 5.604306542130050e+000
1	 1.611946847440201e+000	 3.363722834775168e-001	 5.070362962229665e+000
1	 1.608446400758565e+000	 3.527308358843929e-001	 4.550442770998115e+000
1	 1.604768761412407e+000	 3.691016080205827e-001	 4.045167783808072e+000
1	 1.600912976792819e+000	 3.854819332116223e-001	 3.555133062734705e+000
1	 1.596878143644255e+000	 4.018691101205954e-001	 3.080905730075358e+000
1	 1.592663409299643e+000	 4.182604037764201e-001	 2.623023799819682e+000
1	 1.588267972893769e+000	 4.346530466488066e-001	 2.181995029675312e+000
1	 1.583691086553055e+000	 4.510442397695371e-001	 1.758295796273599e+000
1	 1.578932056559818e+000	 4.674311538996413e-001	 1.352369996196512e+000
1	 1.573990244489111e+000	 4.838109307419503e-001	 9.646279754725586e-001
1	 1.621810978991522e+000	 3.213243070531469e-001	 5.516298523731249e+000
1	 1.618473265092024e+000	 3.377341807471715e-001	 4.987307281902710e+000
1	 1.614958645872892e+000	 3.541589653286336e-001	 4.472241473932810e+000
1	 1.611266116575157e+000	 3.705960191144069e-001	 3.971726212375352e+000
1	 1.607394720733012e+000	 3.870426646332523e-001	 3.486359297733276e+000
1	 1.603343551433830e+000	 4.034961896111379e-001	 3.016710016659078e+000
1	 1.599111752558279e+000	 4.199538480036892e-001	 2.563317958800354e+000
1	 1.594698519998625e+000	 4.364128610754979e-001	 2.126691854942051e+000
1	 1.590103102853316e+000	 4.528704185259428e-001	 1.707308439117665e+000
1	 1.585324804595960e+000	 4.693236796610911e-001	 1.305611337376894e+000
1	 1.580362984216773e+000	 4.857697746111607e-001	 9.220099859026979e-001
1	 1.628350855818468e+000	 3.226200322755715e-001	 5.430013812613284e+000
1	 1.624999682743919e+000	 3.390960780167505e-001	 4.906106035967244e+000
1	 1.621470890987312e+000	 3.555870947728200e-001	 4.396019788738148e+000
1	 1.617763471738032e+000	 3.720904302081917e-001	 3.900383790931328e+000
1	 1.613876464673369e+000	 3.886033960548515e-001	 3.419798935348554e+000
1	 1.609808959223615e+000	 4.051232691016515e-001	 2.954837070705156e+000
1	 1.605560095817179e+000	 4.216472922309239e-001	 2.506039804016992e+000
1	 1.601129067103797e+000	 4.381726755021420e-001	 2.073917324954957e+000
1	 1.596515119153944e+000	 4.546965972822814e-001	 1.658947254884378e+000
1	 1.591717552632520e+000	 4.712162054224461e-001	 1.261573523320589e+000
1	 1.586735723944898e+000	 4.877286184802407e-001	 8.822052745386175e-001
1	 1.634890732645614e+000	 3.239157574978582e-001	 5.345411101821616e+000
1	 1.631526100396023e+000	 3.404579752862290e-001	 4.826713979954236e+000
1	 1.627983136101961e+000	 3.570152242169341e-001	 4.321728948716427e+000
1	 1.624260826901171e+000	 3.735848413019251e-001	 3.831088641760930e+000
1	 1.620358208614037e+000	 3.901641274764114e-001	 3.355397393604670e+000
1	 1.616274367013765e+000	 4.067503485921295e-001	 2.895230007895327e+000
1	 1.612008439076500e+000	 4.233407364581182e-001	 2.451130545504800e+000
1	 1.607559614209450e+000	 4.399324899287324e-001	 2.023611135189876e+000
1	 1.602927135455114e+000	 4.565227760385444e-001	 1.613150809580963e+000
1	 1.598110300669677e+000	 4.731087311836948e-001	 1.220194369272870e+000
1	 1.593108463673670e+000	 4.896874623491745e-001	 8.451512777979618e-001
1	 1.529381066393079e+000	 4.700990236552003e-001	 1.347200016645388e+000
1	 1.524401144803653e+000	 4.860048342008704e-001	 9.529711881771881e-001
1	 1.519242543939458e+000	 5.018980739669736e-001	 5.800125180503842e-001
1	 1.513904808679865e+000	 5.177758869776713e-001	 2.290631616201919e-001
1	 1.508387541743989e+000	 5.336353940943899e-001	-9.914732484583873e-002
1	 1.502690404637501e+000	 5.494736944043553e-001	-4.038999662824485e-001
1	 1.496813118561950e+000	 5.652878666485969e-001	-6.844873570891025e-001
1	 1.490755465284833e+000	 5.810749706883370e-001	-9.402146539055009e-001
1	 1.484517287968682e+000	 5.968320490086004e-001	-1.170400571216254e+000
1	 1.478098491957502e+000	 6.125561282577968e-001	-1.374378378054026e+000
1	 1.471499045518887e+000	 6.282442208219421e-001	-1.551496894027999e+000
1	 1.535753806122621e+000	 4.720578675248663e-001	 1.283049160713675e+000
1	 1.530753133822144e+000	 4.880299555950192e-001	 8.923327938368187e-001
1	 1.525573037712730e+000	 5.039894205047790e-001	 5.230277296494803e-001
1	 1.520213060777319e+000	 5.199333943777997e-001	 1.758959354528331e-001
1	 1.514672804079606e+000	 5.358589860784834e-001	-1.483112150276694e-001
1	 1.508951927714800e+000	 5.517632826063016e-001	-4.488539821093505e-001
1	 1.503050151722735e+000	 5.676433505297490e-001	-7.250053061289875e-001
1	 1.496967256961559e+000	 5.834962374588435e-001	-9.760518571630286e-001
1	 1.490703085940282e+000	 5.993189735550005e-001	-1.201295086673699e+000
1	 1.484257543608491e+000	 6.151085730770314e-001	-1.400052279216765e+000
1	 1.477630598101556e+000	 6.308620359619237e-001	-1.571657602303102e+000
1	 1.542126545851345e+000	 4.740167113945158e-001	 1.222179213002663e+000
1	 1.537105122839823e+000	 4.900550769891465e-001	 8.350645115957495e-001
1	 1.531903531485195e+000	 5.060807670425580e-001	 4.694939013164436e-001
1	 1.526521312873974e+000	 5.220909017778974e-001	 1.262508923333348e-001
1	 1.520958066414437e+000	 5.380825780625442e-001	-1.938927195934216e-001
1	 1.515213450791333e+000	 5.540528708082165e-001	-4.901779522363879e-001
1	 1.509287184882779e+000	 5.699988344108758e-001	-7.618597406803380e-001
1	 1.503179048637579e+000	 5.859175042293359e-001	-1.008208043853351e+000
1	 1.496888883911224e+000	 6.018058981014046e-001	-1.228508951855034e+000
1	 1.490416595258883e+000	 6.176610178962955e-001	-1.422065792078852e+000
1	 1.483762150683703e+000	 6.334798511019699e-001	-1.588200232083115e+000
1	 1.548499285579435e+000	 4.759755552641329e-001	 1.164520034102410e+000
1	 1.543457111856877e+000	 4.920801983832308e-001	 7.810954664181308e-001
1	 1.538234025257044e+000	 5.081721135802821e-001	 4.193383962633525e-001
1	 1.532829564970023e+000	 5.242484091779291e-001	 8.005261947118714e-002
1	 1.527243328748675e+000	 5.403061700465296e-001	-2.359710287116682e-001
1	 1.521474973867289e+000	 5.563424590100491e-001	-5.279558317095169e-001
1	 1.515524218042269e+000	 5.723543182919169e-001	-7.951403532871931e-001
1	 1.509390840313075e+000	 5.883387709997445e-001	-1.036779600759631e+000
1	 1.503074681881681e+000	 6.042928226477330e-001	-1.252146187644174e+000
1	 1.496575646908840e+000	 6.202134627154999e-001	-1.440531493611121e+000
1	 1.489893703265480e+000	 6.360976662419809e-001	-1.601246819544770e+000
1	 1.554872025307074e+000	 4.779343991337012e-001	 1.110002634485910e+000
1	 1.549809100873494e+000	 4.941053197772500e-001	 7.303559452111909e-001
1	 1.544564519028469e+000	 5.102634601179236e-001	 3.724897685279865e-001
1	 1.539137817065659e+000	 5.264059165778598e-001	 3.722694041212634e-002
1	 1.533528591082512e+000	 5.425297620303964e-001	-2.746240342875173e-001
1	 1.527736496942861e+000	 5.586320472117478e-001	-5.622701991944661e-001
1	 1.521761251201395e+000	 5.747098021728120e-001	-8.249353660513868e-001
1	 1.515602631988232e+000	 5.907600377699998e-001	-1.061861334475656e+000
1	 1.509260479851831e+000	 6.067797471939068e-001	-1.272309109580224e+000
1	 1.502734698558529e+000	 6.227659075345557e-001	-1.455560115168769e+000
1	 1.496025255847036e+000	 6.387154813818570e-001	-1.610917400172432e+000
1	 1.561244765034445e+000	 4.798932430032044e-001	 1.058559151040915e+000
1	 1.556161089889861e+000	 4.961304411711826e-001	 6.827773731107214e-001
1	 1.550895012799658e+000	 5.123548066554543e-001	 3.288777386699849e-001
1	 1.545446069161075e+000	 5.285634239776547e-001	-2.299110194608225e-003
1	 1.539813853416144e+000	 5.447533540141015e-001	-3.099283564590151e-001
1	 1.533998020018241e+000	 5.609216354132609e-001	-5.932022850676296e-001
1	 1.527998284360344e+000	 5.770652860535005e-001	-8.513315606430434e-001
1	 1.521814423663232e+000	 5.931813045400319e-001	-1.083546503656265e+000
1	 1.515446277821846e+000	 6.092666717398457e-001	-1.289098362662125e+000
1	 1.508893750208113e+000	 6.253183523533730e-001	-1.467260580158909e+000
1	 1.502156808428522e+000	 6.413332965214997e-001	-1.617330049590564e+000
1	 1.567617504761729e+000	 4.818520868726262e-001	 1.010122824174306e+000
1	 1.562513078906165e+000	 4.981555625650069e-001	 6.382922903455688e-001
1	 1.557225506570805e+000	 5.144461531928465e-001	 2.884331700599822e-001
1	 1.551754321256463e+000	 5.307209313772781e-001	-3.859731121323037e-002
1	 1.546099115749762e+000	 5.469769459976024e-001	-3.419593694473727e-001
1	 1.540259543093620e+000	 5.632112236145372e-001	-6.208319988215328e-001
1	 1.534235317519306e+000	 5.794207699339223e-001	-8.744143075789758e-001
1	 1.528026215338257e+000	 5.956025713097708e-001	-1.101926850480899e+000
1	 1.521632075791902e+000	 6.117535962854714e-001	-1.302612955304340e+000
1	 1.515052801857755e+000	 6.278707971718626e-001	-1.475740040789162e+000
1	 1.508288361010091e+000	 6.439511116608094e-001	-1.620600923400227e+000
1	 1.573990244489111e+000	 4.838109307419503e-001	 9.646279754725586e-001
1	 1.568865067922594e+000	 5.001806839587015e-001	 5.968343296635884e-001
1	 1.563556000342099e+000	 5.165374997300719e-001	 2.510880457445970e-001
1	 1.558062573352017e+000	 5.328784387766951e-001	-7.173827904059414e-002
1	 1.552384378083559e+000	 5.492005379808558e-001	-3.707912267790617e-001
1	 1.546521066169190e+000	 5.655008118155256e-001	-6.452379558046304e-001
1	 1.540472350678467e+000	 5.817762538140169e-001	-8.942675947899312e-001
1	 1.534238007013491e+000	 5.980238380791468e-001	-1.117092631353008e+000
1	 1.527817873762175e+000	 6.142405208307039e-001	-1.312950292467617e+000
1	 1.521211853507622e+000	 6.304232419899353e-001	-1.481103913923678e+000
1	 1.514419913591893e+000	 6.465689267996868e-001	-1.620844296047771e+000
1	 1.580362984216773e+000	 4.857697746111607e-001	 9.220099859026979e-001
1	 1.575217056939336e+000	 5.022058053522445e-001	 5.583381943040665e-001
1	 1.569886494113732e+000	 5.186288462671026e-001	 2.167754458713798e-001
1	 1.564370825447929e+000	 5.350359461758706e-001	-1.017914910440577e-001
1	 1.558669640417730e+000	 5.514241299638190e-001	-3.964968858977772e-001
1	 1.552782589245143e+000	 5.677904000161739e-001	-6.664975033142491e-001
1	 1.546709383838018e+000	 5.841317376937238e-001	-9.109740554966651e-001
1	 1.540449798689115e+000	 6.004451048480910e-001	-1.129132646856618e+000
1	 1.534003671732837e+000	 6.167274453754639e-001	-1.320206207988322e+000
1	 1.527370905157877e+000	 6.329756868075017e-001	-1.483455916071464e+000
1	 1.520551466174078e+000	 6.491867419380324e-001	-1.618172598753229e+000
1	 1.586735723944898e+000	 4.877286184802407e-001	 8.822052745386175e-001
1	 1.581569045956577e+000	 5.042309267456141e-001	 5.227396365009402e-001
1	 1.576216987885892e+000	 5.207201928039106e-001	 1.854295256574983e-001
1	 1.570679077544392e+000	 5.371934535747697e-001	-1.288253084347342e-001
1	 1.564954902752466e+000	 5.536477219464489e-001	-4.191481321834060e-001
1	 1.559044112321671e+000	 5.700799882164317e-001	-6.846867460606184e-001
1	 1.552946416998145e+000	 5.864872215729831e-001	-9.246149954141950e-001
1	 1.546661590365314e+000	 6.028663716165327e-001	-1.138134270991041e+000
1	 1.540189469704066e+000	 6.192143699196715e-001	-1.324474996128554e+000
1	 1.533529956808685e+000	 6.355281316244724e-001	-1.482898097531839e+000
1	 1.526683018756797e+000	 6.518045570757469e-001	-1.612696456524534e+000
1	 1.593108463673670e+000	 4.896874623491745e-001	 8.451512777979618e-001
1	 1.587921034974506e+000	 5.062560481387889e-001	 4.899754365018404e-001
1	 1.582547481658774e+000	 5.228115393404682e-001	 1.569854938874400e-001
1	 1.576987329641599e+000	 5.393509609733571e-001	-1.529069985916096e-001
1	 1.571240165087962e+000	 5.558713139287027e-001	-4.388156023942290e-001
1	 1.565305635398965e+000	 5.723695764162470e-001	-6.998805710197013e-001
1	 1.559183450159039e+000	 5.888427054517342e-001	-9.352704193031680e-001
1	 1.552873382042270e+000	 6.052876383844026e-001	-1.144183479703925e+000
1	 1.546375267676036e+000	 6.217012944632478e-001	-1.325849442369084e+000
1	 1.539689008460209e+000	 6.380805764407584e-001	-1.479530875720074e+000
1	 1.532814571340203e+000	 6.544223722127311e-001	-1.604524724283589e+000
1	 1.471499045518887e+000	 6.282442208219421e-001	-1.551496894027999e+000
1	 1.464720011230010e+000	 6.438909823881791e-001	-1.717189067809301e+000
1	 1.457760509832163e+000	 6.594957595617235e-001	-1.886901314973459e+000
1	 1.450620703404884e+000	 6.750555338987602e-001	-2.059962538149988e+000
1	 1.443300819400589e+000	 6.905672793443340e-001	-2.235731042963366e+000
1	 1.435801151140213e+000	 7.060279639552906e-001	-2.413595958503513e+000
1	 1.428122058255759e+000	 7.214345516481479e-001	-2.592978622305617e+000
1	 1.420263967078497e+000	 7.367840039700271e-001	-2.773333926403606e+000
1	 1.412227370971638e+000	 7.520732818907335e-001	-2.954151621059881e+000
1	 1.404012830606383e+000	 7.672993476139858e-001	-3.134957572823377e+000
1	 1.395620974180313e+000	 7.824591664057522e-001	-3.315314973628678e+000
1	 1.477630598101556e+000	 6.308620359619237e-001	-1.571657602303100e+000
1	 1.470823316424275e+000	 6.465739956277269e-001	-1.731652027789493e+000
1	 1.463834815654174e+000	 6.622437959570482e-001	-1.895623524233311e+000
1	 1.456665258546147e+000	 6.778684059286054e-001	-2.062941074506259e+000
1	 1.449314873500366e+000	 6.934447868782609e-001	-2.233004172625313e+000
1	 1.441783955059992e+000	 7.089698942291430e-001	-2.405244197183289e+000
1	 1.434072864355559e+000	 7.244406792467995e-001	-2.579125746704298e+000
1	 1.426182029494800e+000	 7.398540908175103e-001	-2.754147933545152e+000
1	 1.418111945896701e+000	 7.552070772478327e-001	-2.929845633009257e+000
1	 1.409863176568699e+000	 7.704965880833778e-001	-3.105790684396500e+000
1	 1.401436352325989e+000	 7.857195759447688e-001	-3.281593040780580e+000
1	 1.483762150683703e+000	 6.334798511019699e-001	-1.588200232083117e+000
1	 1.476926621618111e+000	 6.492570088673831e-001	-1.742559346665247e+000
1	 1.469909121475858e+000	 6.649918323525330e-001	-1.900869273512985e+000
1	 1.462709813687193e+000	 6.806812779586664e-001	-2.062538908148199e+000
1	 1.455328927600040e+000	 6.963222944124613e-001	-2.227008505393715e+000
1	 1.447766758979777e+000	 7.119118245033265e-001	-2.393751002782794e+000
1	 1.440023670455469e+000	 7.274468068458373e-001	-2.562273303728096e+000
1	 1.432100091911302e+000	 7.429241776654280e-001	-2.732117517140264e+000
1	 1.423996520822031e+000	 7.583408726054052e-001	-2.902862150238243e+000
1	 1.415713522531330e+000	 7.736938285532719e-001	-3.074123251357017e+000
1	 1.407251730471996e+000	 7.889799854843013e-001	-3.245555499630904e+000
1	 1.489893703265480e+000	 6.360976662419809e-001	-1.601246819544770e+000
1	 1.483029926811650e+000	 6.519400221070379e-001	-1.750041792440359e+000
1	 1.475983427297332e+000	 6.677398687480577e-001	-1.902775721202870e+000
1	 1.468754368828120e+000	 6.834941499888146e-001	-2.058897248597605e+000
1	 1.461342981699688e+000	 6.991998019467995e-001	-2.217886966996653e+000
1	 1.453749562899628e+000	 7.148537547776983e-001	-2.379258688805507e+000
1	 1.445974476555527e+000	 7.304529344451120e-001	-2.542560674900667e+000
1	 1.438018154328025e+000	 7.459942645136272e-001	-2.707376817849500e+000
1	 1.429881095747642e+000	 7.614746679632979e-001	-2.873327776741046e+000
1	 1.421563868494278e+000	 7.768910690235144e-001	-3.040072060525679e+000
1	 1.413067108618336e+000	 7.922403950241996e-001	-3.207307056839419e+000
1	 1.496025255847036e+000	 6.387154813818570e-001	-1.610917400172432e+000
1	 1.489133232005029e+000	 6.546230353465825e-001	-1.754227989274369e+000
1	 1.482057733118712e+000	 6.704879051435041e-001	-1.901477777083356e+000
1	 1.474798923969025e+000	 6.863070220189227e-001	-2.052154990351065e+000
1	 1.467357035799388e+000	 7.020773094811391e-001	-2.205780140001065e+000
1	 1.459732366819600e+000	 7.177956850521153e-001	-2.361907235630604e+000
1	 1.451925282655773e+000	 7.334590620444750e-001	-2.520124956689085e+000
1	 1.443936216744994e+000	 7.490643513619558e-001	-2.680057777197097e+000
1	 1.435765670673543e+000	 7.646084633213550e-001	-2.841367040933578e+000
1	 1.427414214457547e+000	 7.800883094939519e-001	-3.003751984090546e+000
1	 1.418882486765009e+000	 7.955008045643135e-001	-3.166950702478844e+000
1	 1.502156808428522e+000	 6.413332965214997e-001	-1.617330049590564e+000
1	 1.495236537198382e+000	 6.573060485859074e-001	-1.755244461236610e+000
1	 1.488132038940116e+000	 6.732359415387536e-001	-1.897108148217116e+000
1	 1.480843479110006e+000	 6.891198940488619e-001	-2.042448760127531e+000
1	 1.473371089899215e+000	 7.049548170153438e-001	-2.190826311634497e+000
1	 1.465715170739753e+000	 7.207376153264335e-001	-2.341834338130155e+000
1	 1.457876088756247e+000	 7.364651896437771e-001	-2.495101007139947e+000
1	 1.449854279162232e+000	 7.521344382102602e-001	-2.650290182453472e+000
1	 1.441650245599747e+000	 7.677422586794240e-001	-2.807102438014497e+000
1	 1.433264560421141e+000	 7.832855499644303e-001	-2.965276018683056e+000
1	 1.424697864912015e+000	 7.987612141044927e-001	-3.124587745068881e+000
1	 1.508288361010091e+000	 6.439511116608094e-001	-1.620600923400227e+000
1	 1.501339842391843e+000	 6.599890618249034e-001	-1.753215674993085e+000
1	 1.494206344761659e+000	 6.759839779336863e-001	-1.889797383721971e+000
1	 1.486888034251159e+000	 6.919327660785050e-001	-2.029912962963675e+000
1	 1.479385143999247e+000	 7.078323245492770e-001	-2.173161520440779e+000
1	 1.471697974660143e+000	 7.236795456005103e-001	-2.319175452124725e+000
1	 1.463826894856989e+000	 7.394713172428699e-001	-2.467621491378022e+000
1	 1.455772341579763e+000	 7.552045250583886e-001	-2.618201710422895e+000
1	 1.447534820526264e+000	 7.708760540373491e-001	-2.770654471292628e+000
1	 1.439114906385063e+000	 7.864827904347969e-001	-2.924755323501036e+000
1	 1.430513243059354e+000	 8.020216236445870e-001	-3.080317845755805e+000
1	 1.514419913591893e+000	 6.465689267996868e-001	-1.620844296047772e+000
1	 1.507443147585549e+000	 6.626720750634609e-001	-1.748264081456255e+000
1	 1.500280650583457e+000	 6.787320143281838e-001	-1.879673918456076e+000
1	 1.492932589392580e+000	 6.947456381077229e-001	-2.014679827189368e+000
1	 1.485399198099562e+000	 7.107098320828028e-001	-2.152919601802118e+000
1	 1.477680778580827e+000	 7.266214758742019e-001	-2.294063839710578e+000
1	 1.469777700958038e+000	 7.424774448416041e-001	-2.437816925999425e+000
1	 1.461690403997612e+000	 7.582746119061881e-001	-2.583917970167786e+000
1	 1.453419395453107e+000	 7.740098493949766e-001	-2.732141692510722e+000
1	 1.444965252349315e+000	 7.896800309048969e-001	-2.882299257505506e+000
1	 1.436328621207025e+000	 8.052820331844464e-001	-3.034239051661794e+000
1	 1.520551466174078e+000	 6.491867419380324e-001	-1.618172598753229e+000
1	 1.513546452779633e+000	 6.653550883014709e-001	-1.740510156427173e+000
1	 1.506354956405627e+000	 6.814800507221271e-001	-1.866864115646173e+000
1	 1.498977144534367e+000	 6.975585101363886e-001	-1.996879448315051e+000
1	 1.491413252200236e+000	 7.135873396157850e-001	-2.130232232359697e+000
1	 1.483663582501865e+000	 7.295634061473652e-001	-2.266630613490015e+000
1	 1.475728507059432e+000	 7.454835724398310e-001	-2.405815722390939e+000
1	 1.467608466415802e+000	 7.613446987535060e-001	-2.547562544698836e+000
1	 1.459303970380288e+000	 7.771436447521523e-001	-2.691680741193414e+000
1	 1.450815598313903e+000	 7.928772713745778e-001	-2.838015415717436e+000
1	 1.442143999355031e+000	 8.085424427239210e-001	-2.986447828427290e+000
1	 1.526683018756797e+000	 6.518045570757469e-001	-1.612696456524535e+000
1	 1.519649757974229e+000	 6.680381015388242e-001	-1.730072440258317e+000
1	 1.512429262228287e+000	 6.842280871153971e-001	-1.851492308488604e+000
1	 1.505021699676617e+000	 7.003713821643733e-001	-1.976639831861383e+000
1	 1.497427306301345e+000	 7.164648471480870e-001	-2.105228973364157e+000
1	 1.489646386423312e+000	 7.325053364198568e-001	-2.237004779736182e+000
1	 1.481679313161213e+000	 7.484897000374020e-001	-2.371744229005285e+000
1	 1.473526528834358e+000	 7.644147856001899e-001	-2.509257031660948e+000
1	 1.465188545307817e+000	 7.802774401087216e-001	-2.649386383047030e+000
1	 1.456665944278828e+000	 7.960745118436855e-001	-2.792009664640096e+000
1	 1.447959377503370e+000	 8.118028522628601e-001	-2.937039091969197e+000
1	 1.532814571340203e+000	 6.544223722127311e-001	-1.604524724283588e+000
1	 1.525753063169474e+000	 6.707211147754112e-001	-1.717067576564322e+000
1	 1.518503568051552e+000	 6.869761235078752e-001	-1.833680840751853e+000
1	 1.511066254819426e+000	 7.031842541915490e-001	-1.954086935161207e+000
1	 1.503441360402968e+000	 7.193423546795729e-001	-2.078037312985319e+000
1	 1.495629190345228e+000	 7.354472666915337e-001	-2.205313280521467e+000
1	 1.487630119263421e+000	 7.514958276341680e-001	-2.335726772621825e+000
1	 1.479444591253303e+000	 7.674848724460874e-001	-2.469121083042353e+000
1	 1.471073120235707e+000	 7.834112354645308e-001	-2.605371547437740e+000
1	 1.462516290244094e+000	 7.992717523120667e-001	-2.744386176830982e+000
1	 1.453774755652043e+000	 8.150632618011136e-001	-2.886106239476824e+000
1	 1.395620974180313e+000	 7.824591664057522e-001	-3.315314973628678e+000
1	 1.387051199153357e+000	 7.975519670414789e-001	-3.502877637667244e+000
1	 1.378305516103771e+000	 8.125724465820544e-001	-3.705549648645861e+000
1	 1.369384758037725e+000	 8.275175901418119e-001	-3.923344602491202e+000
1	 1.360289825796497e+000	 8.423843933767854e-001	-4.156229392243303e+000
1	 1.351021687972676e+000	 8.571698643667016e-001	-4.404123723693560e+000
1	 1.341581380764360e+000	 8.718710255006921e-001	-4.666899704272954e+000
1	 1.331970007767004e+000	 8.864849153643604e-001	-4.944381506884158e+000
1	 1.322188739702620e+000	 9.010085906258275e-001	-5.236345110207737e+000
1	 1.312238814086172e+000	 9.154391279183470e-001	-5.542518116840932e+000
1	 1.302121534829085e+000	 9.297736257170631e-001	-5.862579650452150e+000
1	 1.401436352325989e+000	 7.857195759447688e-001	-3.281593040780581e+000
1	 1.392830868117783e+000	 8.008752663938653e-001	-3.464586391536312e+000
1	 1.384048742900173e+000	 8.159583343948758e-001	-3.662322450931505e+000
1	 1.375090813150366e+000	 8.309657524994859e-001	-3.874811341601853e+000
1	 1.365957983463345e+000	 8.458945038450078e-001	-4.102015891657835e+000
1	 1.356651226467707e+000	 8.607415840442136e-001	-4.343851158598374e+000
1	 1.347171582679268e+000	 8.755040030789069e-001	-4.600184027818111e+000
1	 1.337520160292034e+000	 8.901787871948502e-001	-4.870832887395166e+000
1	 1.327698134906279e+000	 9.047629807956737e-001	-5.155567380678934e+000
1	 1.317706749193543e+000	 9.192536483333296e-001	-5.454108238023456e+000
1	 1.307547312498496e+000	 9.336478761926755e-001	-5.766127188830519e+000
1	 1.407251730471996e+000	 7.889799854843013e-001	-3.245555499630904e+000
1	 1.398610537082528e+000	 8.041985657467651e-001	-3.424166762596419e+000
1	 1.389791969696849e+000	 8.193442222081938e-001	-3.617150998184254e+000
1	 1.380796868263218e+000	 8.344139148576278e-001	-3.824513224402419e+000
1	 1.371626141130321e+000	 8.494046143136590e-001	-4.046210652557652e+000
1	 1.362280764962774e+000	 8.643133037221088e-001	-4.282152222657238e+000
1	 1.352761784594115e+000	 8.791369806574538e-001	-4.532198214632306e+000
1	 1.343070312816907e+000	 8.938726590256205e-001	-4.796159937055273e+000
1	 1.333207530109690e+000	 9.085173709657479e-001	-5.073799494852718e+000
1	 1.323174684300590e+000	 9.230681687484917e-001	-5.364829637338657e+000
1	 1.312973090167526e+000	 9.375221266684231e-001	-5.668913687706637e+000
1	 1.413067108618336e+000	 7.922403950241996e-001	-3.207307056839420e+000
1	 1.404390206047592e+000	 8.075218651000345e-001	-3.381710637727185e+000
1	 1.395535196493812e+000	 8.227301100218739e-001	-3.570115143177956e+000
1	 1.386502923376301e+000	 8.378620772161132e-001	-3.772518870873278e+000
1	 1.377294298797461e+000	 8.529147247826278e-001	-3.988871878401608e+000
1	 1.367910303457928e+000	 8.678850234002892e-001	-4.219075533340813e+000
1	 1.358351986508967e+000	 8.827699582362498e-001	-4.462982140274983e+000
1	 1.348620465341704e+000	 8.975665308566001e-001	-4.720394646396477e+000
1	 1.338716925312952e+000	 9.122717611359928e-001	-4.991066427169606e+000
1	 1.328642619407423e+000	 9.268826891637870e-001	-5.274701153351412e+000
1	 1.318398867836291e+000	 9.413963771442714e-001	-5.570952740478381e+000
1	 1.418882486765009e+000	 7.955008045643135e-001	-3.166950702478845e+000
1	 1.410169875012980e+000	 8.108451644535302e-001	-3.337308397392182e+000
1	 1.401278423291070e+000	 8.261159978357805e-001	-3.521293429561042e+000
1	 1.392208978489639e+000	 8.413102395748180e-001	-3.718895776022739e+000
1	 1.382962456464800e+000	 8.564248352518021e-001	-3.930056818447729e+000
1	 1.373539841953220e+000	 8.714567430786561e-001	-4.154668911074218e+000
1	 1.363942188423892e+000	 8.864029358152089e-001	-4.392575026577133e+000
1	 1.354170617866511e+000	 9.012604026877193e-001	-4.643568481491393e+000
1	 1.344226320516161e+000	 9.160261513063513e-001	-4.907392742633754e+000
1	 1.334110554514149e+000	 9.306972095791719e-001	-5.183741315783378e+000
1	 1.323824645504908e+000	 9.452706276201872e-001	-5.472257717690678e+000
1	 1.424697864912015e+000	 7.987612141044927e-001	-3.124587745068882e+000
1	 1.415949543978694e+000	 8.141684638071076e-001	-3.291048946383729e+000
1	 1.407021650088633e+000	 8.295018856497785e-001	-3.470763118574489e+000
1	 1.397915033603250e+000	 8.447584019336178e-001	-3.663710332846948e+000
1	 1.388630614132374e+000	 8.599349457210699e-001	-3.869821787227712e+000
1	 1.379169380448703e+000	 8.750284627571104e-001	-4.088979395503997e+000
1	 1.369532390338960e+000	 8.900359133942477e-001	-4.321015454983380e+000
1	 1.359720770391410e+000	 9.049542745189065e-001	-4.565712394656959e+000
1	 1.349735715719415e+000	 9.197805414767666e-001	-4.822802605169845e+000
1	 1.339578489620878e+000	 9.345117299946012e-001	-5.091968351816196e+000
1	 1.329250423173492e+000	 9.491448780961367e-001	-5.372841771583695e+000
1	 1.430513243059354e+000	 8.020216236445870e-001	-3.080317845755805e+000
1	 1.421729212944737e+000	 8.174917631606233e-001	-3.243019743817609e+000
1	 1.412764876886513e+000	 8.328877734637328e-001	-3.418600215118378e+000
1	 1.403621088717157e+000	 8.482065642923887e-001	-3.607027854729267e+000
1	 1.394298771800219e+000	 8.634450561903191e-001	-3.808222183546341e+000
1	 1.384798918944425e+000	 8.786001824355540e-001	-4.022053261368382e+000
1	 1.375122592254236e+000	 8.936688909732813e-001	-4.248341379568409e+000
1	 1.365270922916484e+000	 9.086481463500917e-001	-4.486856834897085e+000
1	 1.355245110922812e+000	 9.235349316471814e-001	-4.737319785775010e+000
1	 1.345046424727719e+000	 9.383262504100308e-001	-4.999400192241143e+000
1	 1.334676200842162e+000	 9.530191285720863e-001	-5.272717840530204e+000
1	 1.436328621207025e+000	 8.052820331844464e-001	-3.034239051661793e+000
1	 1.427508881911111e+000	 8.208150625139330e-001	-3.193306832399119e+000
1	 1.418508103684719e+000	 8.362736612775090e-001	-3.364879493185125e+000
1	 1.409327143831382e+000	 8.516547266510055e-001	-3.548912597296155e+000
1	 1.399966929468371e+000	 8.669551666594381e-001	-3.745312509019216e+000
1	 1.390428457440441e+000	 8.821719021138889e-001	-3.953936033981925e+000
1	 1.380712794169788e+000	 8.973018685522239e-001	-4.174590139737518e+000
1	 1.370821075441817e+000	 9.123420181812034e-001	-4.407031758091707e+000
1	 1.360754506126449e+000	 9.272893218175381e-001	-4.650967670473446e+000
1	 1.350514359834781e+000	 9.421407708254155e-001	-4.906054477458942e+000
1	 1.340101978511031e+000	 9.568933790480022e-001	-5.171898653365045e+000
1	 1.442143999355031e+000	 8.085424427239210e-001	-2.986447828427288e+000
1	 1.433288550877820e+000	 8.241383618668932e-001	-3.141994866981359e+000
1	 1.424251330483261e+000	 8.396595490909711e-001	-3.309674520677296e+000
1	 1.415033198945946e+000	 8.551028890093451e-001	-3.489427779743676e+000
1	 1.405635087136863e+000	 8.704652771283146e-001	-3.681146386162366e+000
1	 1.396057995936800e+000	 8.857436217920154e-001	-3.884672504345718e+000
1	 1.386302996085685e+000	 9.009348461309924e-001	-4.099798472619618e+000
1	 1.376371227967492e+000	 9.160358900121718e-001	-4.326266636939356e+000
1	 1.366263901330424e+000	 9.310437119877798e-001	-4.563769268078144e+000
1	 1.355982294942172e+000	 9.459552912407105e-001	-4.811948563334883e+000
1	 1.345527756180218e+000	 9.607676295238505e-001	-5.070396733609941e+000
1	 1.447959377503370e+000	 8.118028522628601e-001	-2.937039091969197e+000
1	 1.439068219844865e+000	 8.274616612193595e-001	-3.089167142434744e+000
1	 1.429994557282150e+000	 8.430454369039845e-001	-3.253057683627557e+000
1	 1.420739254060870e+000	 8.585510513672825e-001	-3.428635605650642e+000
1	 1.411303244805733e+000	 8.739753875968371e-001	-3.615776576045461e+000
1	 1.401687534433554e+000	 8.893153414698360e-001	-3.814306743893158e+000
1	 1.391893198001993e+000	 9.045678237095013e-001	-4.024002525161730e+000
1	 1.381921380493594e+000	 9.197297618429259e-001	-4.244590470659720e+000
1	 1.371773296534834e+000	 9.347981021578489e-001	-4.475747217765934e+000
1	 1.361450230050001e+000	 9.497698116558712e-001	-4.717099526912540e+000
1	 1.350953533849838e+000	 9.646418799995978e-001	-4.968224403596330e+000
1	 1.453774755652043e+000	 8.150632618011136e-001	-2.886106239476825e+000
1	 1.444847888812251e+000	 8.307849605711887e-001	-3.034905620848289e+000
1	 1.435737784081395e+000	 8.464313247164139e-001	-3.195100209837079e+000
1	 1.426445309176177e+000	 8.619992137246938e-001	-3.366597283291591e+000
1	 1.416971402475017e+000	 8.774854980648936e-001	-3.549254995521650e+000
1	 1.407317072930754e+000	 8.928870611472519e-001	-3.742882118882065e+000
1	 1.397483399918780e+000	 9.082008012876665e-001	-3.947237865933285e+000
1	 1.387471533020204e+000	 9.234236336733949e-001	-4.162031794463985e+000
1	 1.377282691739777e+000	 9.385524923276887e-001	-4.386923796470469e+000
1	 1.366918165158378e+000	 9.535843320708535e-001	-4.621524171990600e+000
1	 1.356379311520008e+000	 9.685161304752106e-001	-4.865393788489502e+000
1	 1.302121534829085e+000	 9.297736257170631e-001	-5.862579650452149e+000
1	 1.291838271412590e+000	 9.440092058928340e-001	-6.194030406493382e+000
1	 1.281390457273991e+000	 9.581430146068060e-001	-6.534812456378614e+000
1	 1.270779590343483e+000	 9.721722250661671e-001	-6.885251472798017e+000
1	 1.260007232770287e+000	 9.860940396648253e-001	-7.245700448838795e+000
1	 1.249075010217361e+000	 9.999056917964071e-001	-7.616539022717283e+000
1	 1.237984611095045e+000	 1.013604447646933e+000	-7.998172744631265e+000
1	 1.226737785734286e+000	 1.027187607964766e+000	-8.391032286994911e+000
1	 1.215336345500255e+000	 1.040652509805476e+000	-8.795572599479282e+000
1	 1.203782161847228e+000	 1.053996528249277e+000	-9.212272010434420e+000
1	 1.192077165315749e+000	 1.067217078088745e+000	-9.641631276419215e+000
1	 1.307547312498496e+000	 9.336478761926755e-001	-5.766127188830519e+000
1	 1.297221200008832e+000	 9.479427742517655e-001	-6.089430684658401e+000
1	 1.286729851134805e+000	 9.621354767801472e-001	-6.422275161657898e+000
1	 1.276074770048297e+000	 9.762231452061034e-001	-6.764990389407043e+000
1	 1.265257525407802e+000	 9.902029702662547e-001	-7.117932059458101e+000
1	 1.254279749650210e+000	 1.004072173826112e+000	-7.481481097091872e+000
1	 1.243143138221249e+000	 1.017828010680223e+000	-7.856042917596608e+000
1	 1.231849448745274e+000	 1.031467770329494e+000	-8.242046628373865e+000
1	 1.220400500135180e+000	 1.044988778733324e+000	-8.639944178322654e+000
1	 1.208798171643360e+000	 1.058388400034204e+000	-9.050209456105732e+000
1	 1.197044401854670e+000	 1.071664038252461e+000	-9.473337339041875e+000
1	 1.312973090167526e+000	 9.375221266684231e-001	-5.668913687706637e+000
1	 1.302604128604659e+000	 9.518763426107960e-001	-5.984159046001015e+000
1	 1.292069244995194e+000	 9.661279389535573e-001	-6.309132598683017e+000
1	 1.281369949752692e+000	 9.802740653460861e-001	-6.644168667486986e+000
1	 1.270507818044919e+000	 9.943119008677132e-001	-6.989626168286661e+000
1	 1.259484489082694e+000	 1.008238655855835e+000	-7.345887909141090e+000
1	 1.248301665347130e+000	 1.022051573713523e+000	-7.713359835147148e+000
1	 1.236961111755985e+000	 1.035747932694226e+000	-8.092470221438674e+000
1	 1.225464654769880e+000	 1.049325047661174e+000	-8.483668815817422e+000
1	 1.213814181439313e+000	 1.062780271819132e+000	-8.887425932645247e+000
1	 1.202011638393457e+000	 1.076110998416176e+000	-9.304231499764301e+000
1	 1.318398867836291e+000	 9.413963771442714e-001	-5.570952740478381e+000
1	 1.307987057200190e+000	 9.558099109698998e-001	-5.878224606519289e+000
1	 1.297408638855273e+000	 9.701204011270199e-001	-6.195390039982097e+000
1	 1.286665129456777e+000	 9.843249854861029e-001	-6.522788363117670e+000
1	 1.275758110681742e+000	 9.984208314691937e-001	-6.860782234463546e+000
1	 1.264689228514906e+000	 1.012405137885569e+000	-7.209756932456815e+000
1	 1.253460192472771e+000	 1.026275136746828e+000	-7.570119588012260e+000
1	 1.242072774766491e+000	 1.040028095058960e+000	-7.942298367444207e+000
1	 1.230528809404411e+000	 1.053661316589025e+000	-8.326741607254002e+000
1	 1.218830191235135e+000	 1.067172143604060e+000	-8.723916902439296e+000
1	 1.206978874932142e+000	 1.080557958579892e+000	-9.134310150116301e+000
1	 1.323824645504908e+000	 9.452706276201872e-001	-5.472257717690678e+000
1	 1.313369985795545e+000	 9.597434793290529e-001	-5.771636332761656e+000
1	 1.302748032715160e+000	 9.741128633005165e-001	-6.081052671644278e+000
1	 1.291960309160667e+000	 9.883759056261438e-001	-6.400851498670622e+000
1	 1.281008403318373e+000	 1.002529762070689e+000	-6.731399725994144e+000
1	 1.269893967946941e+000	 1.016571619915313e+000	-7.073085682048805e+000
1	 1.258618719598252e+000	 1.030498699780137e+000	-7.426318331009994e+000
1	 1.247184437776860e+000	 1.044308257423696e+000	-7.791526444676577e+000
1	 1.235592964038830e+000	 1.057997585516876e+000	-8.169157728330914e+000
1	 1.223846201030866e+000	 1.071564015388988e+000	-8.559677902264451e+000
1	 1.211946111470761e+000	 1.085004918743608e+000	-8.963569740785466e+000
1	 1.329250423173492e+000	 9.491448780961367e-001	-5.372841771583695e+000
1	 1.318752914390841e+000	 9.636770476882306e-001	-5.664403044876910e+000
1	 1.308087426574972e+000	 9.781053254740306e-001	-5.966125595083372e+000
1	 1.297255488864473e+000	 9.924268257661957e-001	-6.278360063497155e+000
1	 1.286258695954919e+000	 1.006638692672191e+000	-6.601478119569600e+000
1	 1.275098707378892e+000	 1.020738101945060e+000	-6.935871713499458e+000
1	 1.263777246723657e+000	 1.034722262813450e+000	-7.281952281739489e+000
1	 1.252296100787163e+000	 1.048588419788433e+000	-7.640149906881709e+000
1	 1.240657118673191e+000	 1.062333854444727e+000	-8.010912433513914e+000
1	 1.228862210826554e+000	 1.075955887173916e+000	-8.394704541768991e+000
1	 1.216913348009347e+000	 1.089451878907324e+000	-8.792006780409375e+000
1	 1.334676200842162e+000	 9.530191285720863e-001	-5.272717840530204e+000
1	 1.324135842986200e+000	 9.676106160474087e-001	-5.556533419590142e+000
1	 1.313426820434828e+000	 9.820977876475449e-001	-5.850613828759495e+000
1	 1.302550668568309e+000	 9.964777459062482e-001	-6.155316014599685e+000
1	 1.291508988591483e+000	 1.010747623273693e+000	-6.471016900390178e+000
1	 1.280303446810855e+000	 1.024904583974808e+000	-6.798112622139157e+000
1	 1.268935773849067e+000	 1.038945825846762e+000	-7.137017719304489e+000
1	 1.257407763797467e+000	 1.052868582153170e+000	-7.488164281731011e+000
1	 1.245721273307554e+000	 1.066670123372579e+000	-7.852001054435075e+000
1	 1.233878220622241e+000	 1.080347758958844e+000	-8.228992501991908e+000
1	 1.221880584547932e+000	 1.093898839071040e+000	-8.619617834398065e+000
1	 1.340101978511031e+000	 9.568933790480022e-001	-5.171898653365047e+000
1	 1.329518771581738e+000	 9.715441844065615e-001	-5.448035993105979e+000
1	 1.318766214294844e+000	 9.860902498210419e-001	-5.734522309858067e+000
1	 1.307845848272286e+000	 1.000528666046288e+000	-6.031721277286203e+000
1	 1.296759281228171e+000	 1.014856553875189e+000	-6.340015561992677e+000
1	 1.285508186242921e+000	 1.029071066004551e+000	-6.659806042241566e+000
1	 1.274094300974564e+000	 1.043169388880072e+000	-6.991510983068514e+000
1	 1.262519426807842e+000	 1.057148744517906e+000	-7.335565169325313e+000
1	 1.250785427941975e+000	 1.071006392300430e+000	-7.692418998330468e+000
1	 1.238894230417973e+000	 1.084739630743772e+000	-8.062537533917602e+000
1	 1.226847821086551e+000	 1.098345799234756e+000	-8.446399523784333e+000
1	 1.345527756180218e+000	 9.607676295238505e-001	-5.070396733609941e+000
1	 1.334901700177577e+000	 9.754777527656657e-001	-5.338919163942012e+000
1	 1.324105608155139e+000	 9.900827119945039e-001	-5.617855895928621e+000
1	 1.313141027976517e+000	 1.004579586186306e+000	-5.907577745809831e+000
1	 1.302009573865084e+000	 1.018965484476669e+000	-6.208473606082752e+000
1	 1.290712925675187e+000	 1.033237548034286e+000	-6.520949646238495e+000
1	 1.279252828100232e+000	 1.047392951913377e+000	-6.845428471439694e+000
1	 1.267631089818360e+000	 1.061428906882640e+000	-7.182348240734013e+000
1	 1.255849582576509e+000	 1.075342661228281e+000	-7.532161746515884e+000
1	 1.243910240213795e+000	 1.089131502528700e+000	-7.895335457065529e+000
1	 1.231815057625237e+000	 1.102792759398472e+000	-8.272348524102899e+000
1	 1.350953533849838e+000	 9.646418799995978e-001	-4.968224403596329e+000
1	 1.340284628773834e+000	 9.794113211246958e-001	-5.229191195693443e+000
1	 1.329445002015830e+000	 9.940751741679142e-001	-5.500619366483984e+000
1	 1.318436207681113e+000	 1.008630506326288e+000	-5.782887283992068e+000
1	 1.307259866502329e+000	 1.023074415078128e+000	-6.076390542370748e+000
1	 1.295917665107744e+000	 1.037404030064008e+000	-6.381541143953608e+000
1	 1.284411355226151e+000	 1.051616514946676e+000	-6.698766640685195e+000
1	 1.272742752829088e+000	 1.065709069247372e+000	-7.028509236570369e+000
1	 1.260913737211214e+000	 1.079678930156131e+000	-7.371224852899101e+000
1	 1.248926250009749e+000	 1.093523374313627e+000	-7.727382158114204e+000
1	 1.236782294164024e+000	 1.107239719562188e+000	-8.097461564295220e+000
1	 1.356379311520008e+000	 9.685161304752106e-001	-4.865393788489502e+000
1	 1.345667557370631e+000	 9.833448894836275e-001	-5.118860219732020e+000
1	 1.334784395877035e+000	 9.980676363412555e-001	-5.382817424560985e+000
1	 1.323731387386189e+000	 1.012681426466225e+000	-5.657651725831617e+000
1	 1.312510159140009e+000	 1.027183345679557e+000	-5.943765888411502e+000
1	 1.301122404540689e+000	 1.041570512093714e+000	-6.241578281854661e+000
1	 1.289569882352404e+000	 1.055840077979967e+000	-6.551522003774056e+000
1	 1.277854415840096e+000	 1.069989231612100e+000	-6.874043965600343e+000
1	 1.265977891846146e+000	 1.084015199083979e+000	-7.209603942528247e+000
1	 1.253942259805881e+000	 1.097915246098555e+000	-7.558673589557713e+000
1	 1.241749530702945e+000	 1.111686679725904e+000	-7.921735425641879e+000
1	 1.192077165315749e+000	 1.067217078088745e+000	-9.641631276419215e+000
1	 1.180225133691511e+000	 1.080309661145249e+000	-1.007197854596604e+001
1	 1.168226368000712e+000	 1.093273770847345e+000	-1.049181258505924e+001
1	 1.156082969537323e+000	 1.106106953056207e+000	-1.090172113755719e+001
1	 1.143797094061159e+000	 1.118806799749355e+000	-1.130230606047756e+001
1	 1.131370950524538e+000	 1.131370950524538e+000	-1.169418267519603e+001
1	 1.118806799749355e+000	 1.143797094061159e+000	-1.207797909790857e+001
1	 1.106106953056207e+000	 1.156082969537324e+000	-1.245433555058098e+001
1	 1.093273770847345e+000	 1.168226368000712e+000	-1.282390365365638e+001
1	 1.080309661145249e+000	 1.180225133691511e+000	-1.318734570183485e+001
1	 1.067217078088744e+000	 1.192077165315749e+000	-1.354533392427893e+001
1	 1.197044401854670e+000	 1.071664038252461e+000	-9.473337339041875e+000
1	 1.185142984296360e+000	 1.084811176466104e+000	-9.897571065552562e+000
1	 1.173094221248963e+000	 1.097829305992875e+000	-1.031129479693984e+001
1	 1.160900222762272e+000	 1.110715962467861e+000	-1.071504639773462e+001
1	 1.148563153578878e+000	 1.123468727834659e+000	-1.110937639671676e+001
1	 1.136085231855524e+000	 1.136085231855524e+000	-1.149484742736988e+001
1	 1.123468727834659e+000	 1.148563153578878e+000	-1.187203365019685e+001
1	 1.110715962467860e+000	 1.160900222762272e+000	-1.224152015792752e+001
1	 1.097829305992875e+000	 1.173094221248962e+000	-1.260390236469026e+001
1	 1.084811176466104e+000	 1.185142984296360e+000	-1.295978538025755e+001
1	 1.071664038252461e+000	 1.197044401854670e+000	-1.330978337050976e+001
1	 1.202011638393457e+000	 1.076110998416176e+000	-9.304231499764304e+000
1	 1.190060834901111e+000	 1.089312691786960e+000	-9.722244237041997e+000
1	 1.177962074497144e+000	 1.102384841138404e+000	-1.012973448499436e+001
1	 1.165717475987175e+000	 1.115324971879510e+000	-1.052719183805870e+001
1	 1.153329213096569e+000	 1.128130655919955e+000	-1.091511710270334e+001
1	 1.140799513186493e+000	 1.140799513186493e+000	-1.129402182473966e+001
1	 1.128130655919955e+000	 1.153329213096568e+000	-1.166442780110794e+001
1	 1.115324971879511e+000	 1.165717475987175e+000	-1.202686657697684e+001
1	 1.102384841138404e+000	 1.177962074497144e+000	-1.238187892903825e+001
1	 1.089312691786960e+000	 1.190060834901111e+000	-1.273001433590565e+001
1	 1.076110998416176e+000	 1.202011638393457e+000	-1.307183043655570e+001
1	 1.206978874932142e+000	 1.080557958579892e+000	-9.134310150116304e+000
1	 1.194978685505789e+000	 1.093814207107816e+000	-9.545995677753220e+000
1	 1.182829927745275e+000	 1.106940376283932e+000	-9.947130518705819e+000
1	 1.170534729212043e+000	 1.119933981291159e+000	-1.033815758725158e+001
1	 1.158095272614237e+000	 1.132792584005244e+000	-1.071952955415360e+001
1	 1.145513794517449e+000	 1.145513794517449e+000	-1.109170845845276e+001
1	 1.132792584005244e+000	 1.158095272614237e+000	-1.145516530635712e+001
1	 1.119933981291158e+000	 1.170534729212043e+000	-1.181037965789043e+001
1	 1.106940376283932e+000	 1.182829927745275e+000	-1.215783920198652e+001
1	 1.093814207107815e+000	 1.194978685505789e+000	-1.249803932074720e+001
1	 1.080557958579892e+000	 1.206978874932142e+000	-1.283148264360114e+001
1	 1.211946111470761e+000	 1.085004918743608e+000	-8.963569740785466e+000
1	 1.199896536110419e+000	 1.098315722428671e+000	-9.368823044066660e+000
1	 1.187697780993371e+000	 1.111495911429459e+000	-9.763481786090686e+000
1	 1.175351982436888e+000	 1.124542990702804e+000	-1.014794377192483e+001
1	 1.162861332131892e+000	 1.137454512090529e+000	-1.052261510423057e+001
1	 1.150228075848397e+000	 1.150228075848397e+000	-1.088790987717637e+001
1	 1.137454512090529e+000	 1.162861332131891e+000	-1.124424986008772e+001
1	 1.124542990702804e+000	 1.175351982436888e+000	-1.159206417131526e+001
1	 1.111495911429459e+000	 1.187697780993371e+000	-1.193178894282831e+001
1	 1.098315722428672e+000	 1.199896536110419e+000	-1.226386697605676e+001
1	 1.085004918743608e+000	 1.211946111470761e+000	-1.258874738952627e+001
1	 1.216913348009347e+000	 1.089451878907324e+000	-8.792006780409377e+000
1	 1.204814386715023e+000	 1.102817237749527e+000	-9.190724030627344e+000
1	 1.192565634241450e+000	 1.116051446574986e+000	-9.578787193320988e+000
1	 1.180169235661721e+000	 1.129152000114449e+000	-9.956550516622553e+000
1	 1.167627391649538e+000	 1.142116440175812e+000	-1.032437508400294e+001
1	 1.154942357179341e+000	 1.154942357179341e+000	-1.068262858796513e+001
1	 1.142116440175812e+000	 1.167627391649538e+000	-1.103168509612752e+001
1	 1.129152000114449e+000	 1.180169235661721e+000	-1.137192481000648e+001
1	 1.116051446574986e+000	 1.192565634241450e+000	-1.170373381682333e+001
1	 1.102817237749527e+000	 1.204814386715024e+000	-1.202750383467561e+001
1	 1.089451878907324e+000	 1.216913348009347e+000	-1.234363195142460e+001
1	 1.221880584547932e+000	 1.093898839071040e+000	-8.619617834398065e+000
1	 1.209732237319628e+000	 1.107318753070382e+000	-9.011696369567153e+000
1	 1.197433487489529e+000	 1.120606981720514e+000	-9.393045664354903e+000
1	 1.184986488886555e+000	 1.133761009526094e+000	-9.763977943863329e+000
1	 1.172393451167185e+000	 1.146778368261094e+000	-1.012481080289516e+001
1	 1.159656638510284e+000	 1.159656638510284e+000	-1.047586705710621e+001
1	 1.146778368261095e+000	 1.172393451167185e+000	-1.081747458921509e+001
1	 1.133761009526094e+000	 1.184986488886555e+000	-1.114996619041084e+001
1	 1.120606981720514e+000	 1.197433487489529e+000	-1.147367939710902e+001
1	 1.107318753070383e+000	 1.209732237319629e+000	-1.178895632321457e+001
1	 1.093898839071040e+000	 1.221880584547932e+000	-1.209614348805772e+001
1	 1.226847821086551e+000	 1.098345799234756e+000	-8.446399523784333e+000
1	 1.214650087924258e+000	 1.111820268391238e+000	-8.831737829745929e+000
1	 1.202301340737625e+000	 1.125162516866041e+000	-9.206256140576977e+000
1	 1.189803742111400e+000	 1.138370018937739e+000	-9.570226174181354e+000
1	 1.177159510684839e+000	 1.151440296346380e+000	-9.923923549125080e+000
1	 1.164370919841233e+000	 1.164370919841232e+000	-1.026762771094506e+001
1	 1.151440296346380e+000	 1.177159510684839e+000	-1.060162185619564e+001
1	 1.138370018937740e+000	 1.189803742111400e+000	-1.092619285421143e+001
1	 1.125162516866041e+000	 1.202301340737625e+000	-1.124163116656560e+001
1	 1.111820268391238e+000	 1.214650087924257e+000	-1.154823076420559e+001
1	 1.098345799234756e+000	 1.226847821086551e+000	-1.184628904225053e+001
1	 1.231815057625237e+000	 1.102792759398472e+000	-8.272348524102899e+000
1	 1.219567938528936e+000	 1.116321783712094e+000	-8.650846216010990e+000
1	 1.207169193985755e+000	 1.129718052011569e+000	-9.018417580446769e+000
1	 1.194620995336268e+000	 1.142979028349387e+000	-9.375295326166450e+000
1	 1.181925570202508e+000	 1.156102224431669e+000	-9.721714590131969e+000
1	 1.169085201172189e+000	 1.169085201172189e+000	-1.005791293669057e+001
1	 1.156102224431669e+000	 1.181925570202508e+000	-1.038413035718823e+001
1	 1.142979028349387e+000	 1.194620995336268e+000	-1.070060926983484e+001
1	 1.129718052011569e+000	 1.207169193985755e+000	-1.100759451963569e+001
1	 1.116321783712094e+000	 1.219567938528936e+000	-1.130533337819965e+001
1	 1.102792759398472e+000	 1.231815057625237e+000	-1.159407554322911e+001
1	 1.236782294164024e+000	 1.107239719562188e+000	-8.097461564295220e+000
1	 1.224485789133687e+000	 1.120823299032949e+000	-8.469019368474271e+000
1	 1.212037047233937e+000	 1.134273587157098e+000	-8.829528959155642e+000
1	 1.199438248561171e+000	 1.147588037761037e+000	-9.179185516502919e+000
1	 1.186691629720198e+000	 1.160764152516964e+000	-9.518185172993253e+000
1	 1.173799482503158e+000	 1.173799482503158e+000	-9.846725083201182e+000
1	 1.160764152516964e+000	 1.186691629720198e+000	-1.016500349672546e+001
1	 1.147588037761037e+000	 1.199438248561170e+000	-1.047321983392255e+001
1	 1.134273587157098e+000	 1.212037047233937e+000	-1.077157476410037e+001
1	 1.120823299032949e+000	 1.224485789133687e+000	-1.106027028581469e+001
1	 1.107239719562188e+000	 1.236782294164024e+000	-1.133950980890198e+001
1	 1.241749530702945e+000	 1.111686679725904e+000	-7.921735425641879e+000
1	 1.229403639738536e+000	 1.125324814353805e+000	-8.286255161807123e+000
1	 1.216904900482188e+000	 1.138829122302628e+000	-8.639589268292637e+000
1	 1.204255501786119e+000	 1.152197047172691e+000	-8.981896860007986e+000
1	 1.191457689237918e+000	 1.165426080602269e+000	-9.313336524832172e+000
1	 1.178513763834143e+000	 1.178513763834143e+000	-9.634066461751564e+000
1	 1.165426080602269e+000	 1.191457689237918e+000	-9.944244624864581e+000
1	 1.152197047172691e+000	 1.204255501786119e+000	-1.024402887276663e+001
1	 1.138829122302628e+000	 1.216904900482188e+000	-1.053357712281243e+001
1	 1.125324814353805e+000	 1.229403639738537e+000	-1.081304750973488e+001
1	 1.111686679725904e+000	 1.241749530702945e+000	-1.108259854808647e+001
1	 1.067217078088744e+000	 1.192077165315749e+000	-1.354533392427892e+001
1	 1.053996528249277e+000	 1.203782161847228e+000	-1.389063751278181e+001
1	 1.040652509805476e+000	 1.215336345500255e+000	-1.421598646755011e+001
1	 1.027187607964766e+000	 1.226737785734287e+000	-1.452215793079139e+001
1	 1.013604447646933e+000	 1.237984611095045e+000	-1.480992420911485e+001
1	 9.999056917964071e-001	 1.249075010217361e+000	-1.508005221948846e+001
1	 9.860940396648253e-001	 1.260007232770287e+000	-1.533330295471061e+001
1	 9.721722250661673e-001	 1.270779590343483e+000	-1.557043096906458e+001
1	 9.581430146068056e-001	 1.281390457273991e+000	-1.579218388476595e+001
1	 9.440092058928338e-001	 1.291838271412590e+000	-1.599930191975057e+001
1	 9.297736257170630e-001	 1.302121534829085e+000	-1.619251743729064e+001
1	 1.071664038252461e+000	 1.197044401854670e+000	-1.330978337050976e+001
1	 1.058388400034204e+000	 1.208798171643360e+000	-1.364656595229957e+001
1	 1.044988778733324e+000	 1.220400500135181e+000	-1.396289559074430e+001
1	 1.031467770329494e+000	 1.231849448745274e+000	-1.425968888226177e+001
1	 1.017828010680223e+000	 1.243143138221250e+000	-1.453786237953999e+001
1	 1.004072173826113e+000	 1.254279749650210e+000	-1.479833175880769e+001
1	 9.902029702662547e-001	 1.265257525407803e+000	-1.504201099955825e+001
1	 9.762231452061034e-001	 1.276074770048297e+000	-1.526981157803526e+001
1	 9.621354767801471e-001	 1.286729851134806e+000	-1.548264167573834e+001
1	 9.479427742517657e-001	 1.297221200008832e+000	-1.568140540416104e+001
1	 9.336478761926755e-001	 1.307547312498496e+000	-1.586700204691731e+001
1	 1.076110998416176e+000	 1.202011638393457e+000	-1.307183043655570e+001
1	 1.062780271819132e+000	 1.213814181439313e+000	-1.339992546699733e+001
1	 1.049325047661174e+000	 1.225464654769881e+000	-1.370712261262004e+001
1	 1.035747932694225e+000	 1.236961111755985e+000	-1.399447948988797e+001
1	 1.022051573713522e+000	 1.248301665347130e+000	-1.426305851139208e+001
1	 1.008238655855835e+000	 1.259484489082694e+000	-1.451392576988786e+001
1	 9.943119008677130e-001	 1.270507818044919e+000	-1.474814992764541e+001
1	 9.802740653460859e-001	 1.281369949752691e+000	-1.496680111306577e+001
1	 9.661279389535574e-001	 1.292069244995194e+000	-1.517094982648749e+001
1	 9.518763426107957e-001	 1.302604128604659e+000	-1.536166585706433e+001
1	 9.375221266684231e-001	 1.312973090167526e+000	-1.554001721255595e+001
1	 1.080557958579892e+000	 1.206978874932142e+000	-1.283148264360114e+001
1	 1.067172143604060e+000	 1.218830191235134e+000	-1.315072442514288e+001
1	 1.053661316589025e+000	 1.230528809404411e+000	-1.344867703137923e+001
1	 1.040028095058960e+000	 1.242072774766491e+000	-1.372654064530198e+001
1	 1.026275136746828e+000	 1.253460192472771e+000	-1.398552513361322e+001
1	 1.012405137885570e+000	 1.264689228514906e+000	-1.422684864300693e+001
1	 9.984208314691935e-001	 1.275758110681741e+000	-1.445173619453718e+001
1	 9.843249854861030e-001	 1.286665129456777e+000	-1.466141827868919e+001
1	 9.701204011270196e-001	 1.297408638855273e+000	-1.485712945374629e+001
1	 9.558099109698999e-001	 1.307987057200191e+000	-1.504010695002209e+001
1	 9.413963771442712e-001	 1.318398867836291e+000	-1.521158928248792e+001
1	 1.085004918743608e+000	 1.211946111470761e+000	-1.258874738952627e+001
1	 1.071564015388988e+000	 1.223846201030866e+000	-1.289897105781318e+001
1	 1.057997585516876e+000	 1.235592964038829e+000	-1.318756818950891e+001
1	 1.044308257423696e+000	 1.247184437776860e+000	-1.345588306157630e+001
1	 1.030498699780138e+000	 1.258618719598252e+000	-1.370527456974381e+001
1	 1.016571619915313e+000	 1.269893967946941e+000	-1.393711453252553e+001
1	 1.002529762070689e+000	 1.281008403318373e+000	-1.415278598602299e+001
1	 9.883759056261438e-001	 1.291960309160667e+000	-1.435368147279220e+001
1	 9.741128633005166e-001	 1.302748032715160e+000	-1.454120132805496e+001
1	 9.597434793290529e-001	 1.313369985795545e+000	-1.471675196651772e+001
1	 9.452706276201874e-001	 1.323824645504908e+000	-1.488174417303409e+001
1	 1.089451878907324e+000	 1.216913348009347e+000	-1.234363195142460e+001
1	 1.075955887173916e+000	 1.228862210826554e+000	-1.264467346169434e+001
1	 1.062333854444727e+000	 1.240657118673191e+000	-1.292380527695858e+001
1	 1.048588419788433e+000	 1.252296100787162e+000	-1.318251727686827e+001
1	 1.034722262813450e+000	 1.263777246723657e+000	-1.342231894211431e+001
1	 1.020738101945060e+000	 1.275098707378892e+000	-1.364473736170246e+001
1	 1.006638692672191e+000	 1.286258695954919e+000	-1.385131522362238e+001
1	 9.924268257661959e-001	 1.297255488864473e+000	-1.404360879287384e+001
1	 9.781053254740306e-001	 1.308087426574972e+000	-1.422318588082619e+001
1	 9.636770476882308e-001	 1.318752914390842e+000	-1.439162380987797e+001
1	 9.491448780961366e-001	 1.329250423173492e+000	-1.455050737737045e+001
1	 1.093898839071040e+000	 1.221880584547932e+000	-1.209614348805772e+001
1	 1.080347758958844e+000	 1.233878220622241e+000	-1.238783960181336e+001
1	 1.066670123372579e+000	 1.245721273307555e+000	-1.265739733424158e+001
1	 1.052868582153170e+000	 1.257407763797467e+000	-1.290645365797578e+001
1	 1.038945825846762e+000	 1.268935773849067e+000	-1.313667017593536e+001
1	 1.024904583974807e+000	 1.280303446810854e+000	-1.334973082739165e+001
1	 1.010747623273693e+000	 1.291508988591483e+000	-1.354733956995603e+001
1	 9.964777459062479e-001	 1.302550668568309e+000	-1.373121804215075e+001
1	 9.820977876475447e-001	 1.313426820434828e+000	-1.390310321123878e+001
1	 9.676106160474087e-001	 1.324135842986200e+000	-1.406474501099946e+001
1	 9.530191285720864e-001	 1.334676200842162e+000	-1.421790397412907e+001
1	 1.098345799234756e+000	 1.226847821086551e+000	-1.184628904225053e+001
1	 1.084739630743772e+000	 1.238894230417973e+000	-1.212847731420325e+001
1	 1.071006392300430e+000	 1.250785427941975e+000	-1.238835325545940e+001
1	 1.057148744517906e+000	 1.262519426807842e+000	-1.262770240380577e+001
1	 1.043169388880072e+000	 1.274094300974564e+000	-1.284834000328869e+001
1	 1.029071066004551e+000	 1.285508186242921e+000	-1.305210840462557e+001
1	 1.014856553875189e+000	 1.296759281228170e+000	-1.324087443398742e+001
1	 1.000528666046289e+000	 1.307845848272286e+000	-1.341652673551504e+001
1	 9.860902498210417e-001	 1.318766214294844e+000	-1.358097309296318e+001
1	 9.715441844065617e-001	 1.329518771581739e+000	-1.373613773588796e+001
1	 9.568933790480022e-001	 1.340101978511031e+000	-1.388395863579049e+001
1	 1.102792759398472e+000	 1.231815057625237e+000	-1.159407554322911e+001
1	 1.089131502528700e+000	 1.243910240213795e+000	-1.186659430850391e+001
1	 1.075342661228281e+000	 1.255849582576509e+000	-1.211668179125448e+001
1	 1.061428906882640e+000	 1.267631089818360e+000	-1.234627354875950e+001
1	 1.047392951913378e+000	 1.279252828100232e+000	-1.255733996701963e+001
1	 1.033237548034286e+000	 1.290712925675186e+000	-1.275188335108770e+001
1	 1.018965484476669e+000	 1.302009573865083e+000	-1.293193497613708e+001
1	 1.004579586186306e+000	 1.313141027976516e+000	-1.309955210534708e+001
1	 9.900827119945040e-001	 1.324105608155139e+000	-1.325681498072470e+001
1	 9.754777527656655e-001	 1.334901700177577e+000	-1.340582379301593e+001
1	 9.607676295238505e-001	 1.345527756180218e+000	-1.354869563687183e+001
1	 1.107239719562188e+000	 1.236782294164024e+000	-1.133950980890198e+001
1	 1.093523374313627e+000	 1.248926250009749e+000	-1.160219817050043e+001
1	 1.079678930156131e+000	 1.260913737211214e+000	-1.184239155169048e+001
1	 1.065709069247372e+000	 1.272742752829088e+000	-1.206217696603632e+001
1	 1.051616514946676e+000	 1.284411355226151e+000	-1.226368142453916e+001
1	 1.037404030064008e+000	 1.295917665107744e+000	-1.244906871147724e+001
1	 1.023074415078128e+000	 1.307259866502329e+000	-1.262053611327331e+001
1	 1.008630506326288e+000	 1.318436207681113e+000	-1.278031110718937e+001
1	 9.940751741679140e-001	 1.329445002015830e+000	-1.293064801670773e+001
1	 9.794113211246958e-001	 1.340284628773835e+000	-1.307382464050175e+001
1	 9.646418799995977e-001	 1.350953533849838e+000	-1.321213886191928e+001
1	 1.111686679725904e+000	 1.241749530702945e+000	-1.108259854808647e+001
1	 1.097915246098555e+000	 1.253942259805881e+000	-1.133529636460019e+001
1	 1.084015199083980e+000	 1.265977891846146e+000	-1.156549100906430e+001
1	 1.069989231612100e+000	 1.277854415840096e+000	-1.177542237085750e+001
1	 1.055840077979967e+000	 1.289569882352404e+000	-1.196737555153103e+001
1	 1.041570512093714e+000	 1.301122404540689e+000	-1.214367732176891e+001
1	 1.027183345679557e+000	 1.312510159140009e+000	-1.230669252358413e+001
1	 1.012681426466225e+000	 1.323731387386190e+000	-1.245882042528301e+001
1	 9.980676363412553e-001	 1.334784395877035e+000	-1.260249103680758e+001
1	 9.833448894836278e-001	 1.345667557370631e+000	-1.274016139311770e+001
1	 9.685161304752106e-001	 1.356379311520008e+000	-1.287431181330755e+001
1	 9.297736257170630e-001	 1.302121534829085e+000	-1.619251743729064e+001
1	 9.154391279183470e-001	 1.312238814086172e+000	-1.637326422634494e+001
1	 9.010085906258274e-001	 1.322188739702620e+000	-1.654532400878058e+001
1	 8.864849153643600e-001	 1.331970007767004e+000	-1.671300072104942e+001
1	 8.718710255006918e-001	 1.341581380764360e+000	-1.688066666600047e+001
1	 8.571698643667016e-001	 1.351021687972676e+000	-1.705275488238256e+001
1	 8.423843933767853e-001	 1.360289825796497e+000	-1.723375146999747e+001
1	 8.275175901418119e-001	 1.369384758037725e+000	-1.742818788672604e+001
1	 8.125724465820543e-001	 1.378305516103772e+000	-1.764063323354641e+001
1	 7.975519670414791e-001	 1.387051199153357e+000	-1.787568654351855e+001
1	 7.824591664057522e-001	 1.395620974180313e+000	-1.813796909051080e+001
1	 9.336478761926755e-001	 1.307547312498496e+000	-1.586700204691731e+001
1	 9.192536483333296e-001	 1.317706749193543e+000	-1.604143814900831e+001
1	 9.047629807956740e-001	 1.327698134906279e+000	-1.620891478375630e+001
1	 8.901787871948500e-001	 1.337520160292034e+000	-1.637367287774424e+001
1	 8.755040030789064e-001	 1.347171582679268e+000	-1.654001926583222e+001
1	 8.607415840442136e-001	 1.356651226467707e+000	-1.671231916884480e+001
1	 8.458945038450076e-001	 1.365957983463344e+000	-1.689498862970930e+001
1	 8.309657524994858e-001	 1.375090813150366e+000	-1.709248692402430e+001
1	 8.159583343948756e-001	 1.384048742900173e+000	-1.730930896093039e+001
1	 8.008752663938652e-001	 1.392830868117783e+000	-1.754997769000414e+001
1	 7.857195759447690e-001	 1.401436352325989e+000	-1.781903652970101e+001
1	 9.375221266684231e-001	 1.312973090167526e+000	-1.554001721255595e+001
1	 9.230681687484915e-001	 1.323174684300590e+000	-1.570855602473101e+001
1	 9.085173709657477e-001	 1.333207530109689e+000	-1.587186424477446e+001
1	 8.938726590256203e-001	 1.343070312816907e+000	-1.603410443133426e+001
1	 8.791369806574539e-001	 1.352761784594114e+000	-1.619950232808822e+001
1	 8.643133037221090e-001	 1.362280764962774e+000	-1.637233948046382e+001
1	 8.494046143136589e-001	 1.371626141130321e+000	-1.655694581377933e+001
1	 8.344139148576283e-001	 1.380796868263218e+000	-1.675769218846973e+001
1	 8.193442222081936e-001	 1.389791969696849e+000	-1.697898294795603e+001
1	 8.041985657467650e-001	 1.398610537082528e+000	-1.722524847456332e+001
1	 7.889799854843013e-001	 1.407251730471996e+000	-1.750093776869405e+001
1	 9.413963771442712e-001	 1.318398867836291e+000	-1.521158928248792e+001
1	 9.268826891637869e-001	 1.328642619407423e+000	-1.537464541841959e+001
1	 9.122717611359931e-001	 1.338716925312952e+000	-1.553419827240302e+001
1	 8.975665308566001e-001	 1.348620465341704e+000	-1.569431686951893e+001
1	 8.827699582362499e-001	 1.358351986508967e+000	-1.585913043344168e+001
1	 8.678850234002893e-001	 1.367910303457928e+000	-1.603282117283710e+001
1	 8.529147247826276e-001	 1.377294298797460e+000	-1.621961703231187e+001
1	 8.378620772161134e-001	 1.386502923376302e+000	-1.642378442320539e+001
1	 8.227301100218737e-001	 1.395535196493812e+000	-1.664962094939612e+001
1	 8.075218651000348e-001	 1.404390206047592e+000	-1.690144814314939e+001
1	 7.922403950241997e-001	 1.413067108618336e+000	-1.718360422582928e+001
1	 9.452706276201874e-001	 1.323824645504908e+000	-1.488174417303409e+001
1	 9.306972095791717e-001	 1.334110554514149e+000	-1.503973344307354e+001
1	 9.160261513063516e-001	 1.344226320516161e+000	-1.519594232291610e+001
1	 9.012604026877193e-001	 1.354170617866511e+000	-1.535433132772109e+001
1	 8.864029358152090e-001	 1.363942188423893e+000	-1.551891792352593e+001
1	 8.714567430786560e-001	 1.373539841953220e+000	-1.569376951376005e+001
1	 8.564248352518022e-001	 1.382962456464800e+000	-1.588299639360987e+001
1	 8.413102395748181e-001	 1.392208978489638e+000	-1.609074468707449e+001
1	 8.261159978357805e-001	 1.401278423291070e+000	-1.632118928144640e+001
1	 8.108451644535302e-001	 1.410169875012980e+000	-1.657852677378907e+001
1	 7.955008045643135e-001	 1.418882486765009e+000	-1.686696844379014e+001
1	 9.491448780961366e-001	 1.329250423173492e+000	-1.455050737737045e+001
1	 9.345117299946012e-001	 1.339578489620878e+000	-1.470384676900867e+001
1	 9.197805414767668e-001	 1.349735715719415e+000	-1.485712143695389e+001
1	 9.049542745189065e-001	 1.359720770391410e+000	-1.501416859627771e+001
1	 8.900359133942477e-001	 1.369532390338960e+000	-1.517887890581142e+001
1	 8.750284627571104e-001	 1.379169380448702e+000	-1.535518968501761e+001
1	 8.599349457210699e-001	 1.388630614132375e+000	-1.554707810216993e+001
1	 8.447584019336180e-001	 1.397915033603250e+000	-1.575855434817727e+001
1	 8.295018856497786e-001	 1.407021650088634e+000	-1.599365481026845e+001
1	 8.141684638071076e-001	 1.415949543978694e+000	-1.625643525960040e+001
1	 7.987612141044927e-001	 1.424697864912014e+000	-1.655096406665741e+001
1	 9.530191285720864e-001	 1.334676200842162e+000	-1.421790397412907e+001
1	 9.383262504100309e-001	 1.345046424727719e+000	-1.436701163285524e+001
1	 9.235349316471814e-001	 1.355245110922812e+000	-1.451776024797087e+001
1	 9.086481463500914e-001	 1.365270922916484e+000	-1.467384912745319e+001
1	 8.936688909732813e-001	 1.375122592254236e+000	-1.483902725836682e+001
1	 8.786001824355540e-001	 1.384798918944425e+000	-1.501708678413226e+001
1	 8.634450561903191e-001	 1.394298771800219e+000	-1.521185645672826e+001
1	 8.482065642923892e-001	 1.403621088717157e+000	-1.542719507758543e+001
1	 8.328877734637327e-001	 1.412764876886513e+000	-1.566698494081019e+001
1	 8.174917631606233e-001	 1.421729212944737e+000	-1.593512529222589e+001
1	 8.020216236445871e-001	 1.430513243059354e+000	-1.623552581752190e+001
1	 9.568933790480022e-001	 1.340101978511031e+000	-1.388395863579049e+001
1	 9.421407708254154e-001	 1.350514359834781e+000	-1.402925384633745e+001
1	 9.272893218175382e-001	 1.360754506126449e+000	-1.417788299047820e+001
1	 9.123420181812031e-001	 1.370821075441817e+000	-1.433339304228414e+001
1	 8.973018685522237e-001	 1.380712794169788e+000	-1.449937663450202e+001
1	 8.821719021138887e-001	 1.390428457440441e+000	-1.467946582607001e+001
1	 8.669551666594380e-001	 1.399966929468371e+000	-1.487732584835180e+001
1	 8.516547266510058e-001	 1.409327143831381e+000	-1.509664884320850e+001
1	 8.362736612775088e-001	 1.418508103684719e+000	-1.534114760589980e+001
1	 8.208150625139332e-001	 1.427508881911112e+000	-1.561454934566636e+001
1	 8.052820331844467e-001	 1.436328621207025e+000	-1.592058947664140e+001
1	 9.607676295238505e-001	 1.345527756180218e+000	-1.354869563687183e+001
1	 9.459552912407105e-001	 1.355982294942172e+000	-1.369059880484024e+001
1	 9.310437119877796e-001	 1.366263901330424e+000	-1.383751350808829e+001
1	 9.160358900121717e-001	 1.376371227967493e+000	-1.399282013725712e+001
1	 9.009348461309924e-001	 1.386302996085685e+000	-1.415994046730041e+001
1	 8.857436217920156e-001	 1.396057995936800e+000	-1.434233174490481e+001
1	 8.704652771283146e-001	 1.405635087136863e+000	-1.454348075857749e+001
1	 8.551028890093452e-001	 1.415033198945946e+000	-1.476689790380854e+001
1	 8.396595490909711e-001	 1.424251330483261e+000	-1.501611125560108e+001
1	 8.241383618668934e-001	 1.433288550877820e+000	-1.529466066050716e+001
1	 8.085424427239210e-001	 1.442143999355031e+000	-1.560609186012519e+001
1	 9.646418799995977e-001	 1.350953533849838e+000	-1.321213886191928e+001
1	 9.497698116558712e-001	 1.361450230050001e+000	-1.335107149577010e+001
1	 9.347981021578486e-001	 1.371773296534834e+000	-1.349667526136399e+001
1	 9.197297618429253e-001	 1.381921380493593e+000	-1.365214989082640e+001
1	 9.045678237095014e-001	 1.391893198001993e+000	-1.382073197404066e+001
1	 8.893153414698359e-001	 1.401687534433554e+000	-1.400568939544329e+001
1	 8.739753875968371e-001	 1.411303244805733e+000	-1.421031575759441e+001
1	 8.585510513672827e-001	 1.420739254060870e+000	-1.443792480316022e+001
1	 8.430454369039842e-001	 1.429994557282150e+000	-1.469184484682785e+001
1	 8.274616612193595e-001	 1.439068219844866e+000	-1.497541322852492e+001
1	 8.118028522628600e-001	 1.447959377503370e+000	-1.529197079913361e+001
1	 9.685161304752106e-001	 1.356379311520008e+000	-1.287431181330755e+001
1	 9.535843320708534e-001	 1.366918165158378e+000	-1.301069650671523e+001
1	 9.385524923276887e-001	 1.377282691739777e+000	-1.315539133547980e+001
1	 9.234236336733949e-001	 1.387471533020204e+000	-1.331140146977447e+001
1	 9.082008012876665e-001	 1.397483399918780e+000	-1.348176416051372e+001
1	 8.928870611472519e-001	 1.407317072930754e+000	-1.366954355480989e+001
1	 8.774854980648936e-001	 1.416971402475017e+000	-1.387782550247216e+001
1	 8.619992137246938e-001	 1.426445309176177e+000	-1.410971236434984e+001
1	 8.464313247164138e-001	 1.435737784081395e+000	-1.436831783320583e+001
1	 8.307849605711887e-001	 1.444847888812251e+000	-1.465676177766165e+001
1	 8.150632618011137e-001	 1.453774755652043e+000	-1.497816511957554e+001
1	 7.824591664057522e-001	 1.395620974180313e+000	-1.813796909051080e+001
1	 7.672993476139858e-001	 1.404012830606383e+000	-1.844076785763427e+001
1	 7.520732818907336e-001	 1.412227370971638e+000	-1.879169928993120e+001
1	 7.367840039700269e-001	 1.420263967078496e+000	-1.918669057649728e+001
1	 7.214345516481479e-001	 1.428122058255759e+000	-1.962157479139226e+001
1	 7.060279639552908e-001	 1.435801151140213e+000	-2.009209915173311e+001
1	 6.905672793443338e-001	 1.443300819400590e+000	-2.059393330785461e+001
1	 6.750555338987601e-001	 1.450620703404885e+000	-2.112267764816192e+001
1	 6.594957595617234e-001	 1.457760509832163e+000	-2.167387160155092e+001
1	 6.438909823881793e-001	 1.464720011230009e+000	-2.224300192057247e+001
1	 6.282442208219421e-001	 1.471499045518887e+000	-2.282551092886124e+001
1	 7.857195759447690e-001	 1.401436352325989e+000	-1.781903652970101e+001
1	 7.704965880833782e-001	 1.409863176568699e+000	-1.812902929700316e+001
1	 7.552070772478325e-001	 1.418111945896701e+000	-1.848695001702012e+001
1	 7.398540908175103e-001	 1.426182029494800e+000	-1.888882528720792e+001
1	 7.244406792467997e-001	 1.434072864355559e+000	-1.933058840547273e+001
1	 7.089698942291433e-001	 1.441783955059992e+000	-1.980808748240789e+001
1	 6.934447868782606e-001	 1.449314873500366e+000	-2.031709358617903e+001
1	 6.778684059286053e-001	 1.456665258546147e+000	-2.085330890296055e+001
1	 6.622437959570482e-001	 1.463834815654174e+000	-2.141237489606592e+001
1	 6.465739956277268e-001	 1.470823316424275e+000	-2.198988044721263e+001
1	 6.308620359619235e-001	 1.477630598101556e+000	-2.258136996369478e+001
1	 7.889799854843013e-001	 1.407251730471996e+000	-1.750093776869405e+001
1	 7.736938285532721e-001	 1.415713522531330e+000	-1.781785758714298e+001
1	 7.583408726054054e-001	 1.423996520822031e+000	-1.818240779293799e+001
1	 7.429241776654281e-001	 1.432100091911302e+000	-1.859073133785376e+001
1	 7.274468068458374e-001	 1.440023670455469e+000	-1.903887896124268e+001
1	 7.119118245033267e-001	 1.447766758979777e+000	-1.952281712159812e+001
1	 6.963222944124613e-001	 1.455328927600040e+000	-2.003843596141244e+001
1	 6.806812779586661e-001	 1.462709813687193e+000	-2.058155728857584e+001
1	 6.649918323525327e-001	 1.469909121475858e+000	-2.114794255780078e+001
1	 6.492570088673833e-001	 1.476926621618111e+000	-2.173330083583951e+001
1	 6.334798511019699e-001	 1.483762150683703e+000	-2.233329673459388e+001
1	 7.922403950241997e-001	 1.413067108618336e+000	-1.718360422582928e+001
1	 7.768910690235145e-001	 1.421563868494278e+000	-1.750716751215609e+001
1	 7.614746679632978e-001	 1.429881095747641e+000	-1.787797418911106e+001
1	 7.459942645136269e-001	 1.438018154328024e+000	-1.829230029172477e+001
1	 7.304529344451121e-001	 1.445974476555527e+000	-1.874633099971447e+001
1	 7.148537547776986e-001	 1.453749562899628e+000	-1.923616835379196e+001
1	 6.991998019467994e-001	 1.461342981699689e+000	-1.975783900597083e+001
1	 6.834941499888144e-001	 1.468754368828120e+000	-2.030730198753748e+001
1	 6.677398687480575e-001	 1.475983427297332e+000	-2.088045647858026e+001
1	 6.519400221070382e-001	 1.483029926811650e+000	-2.147314956324118e+001
1	 6.360976662419806e-001	 1.489893703265480e+000	-2.208118395517527e+001
1	 7.955008045643135e-001	 1.418882486765009e+000	-1.686696844379014e+001
1	 7.800883094939518e-001	 1.427414214457547e+000	-1.719687525319447e+001
1	 7.646084633213555e-001	 1.435765670673543e+000	-1.757355239062829e+001
1	 7.490643513619556e-001	 1.443936216744994e+000	-1.799342548984911e+001
1	 7.334590620444750e-001	 1.451925282655774e+000	-1.845283095476414e+001
1	 7.177956850521154e-001	 1.459732366819600e+000	-1.894802342612400e+001
1	 7.020773094811390e-001	 1.467357035799387e+000	-1.947518328298493e+001
1	 6.863070220189225e-001	 1.474798923969026e+000	-2.003042416308728e+001
1	 6.704879051435043e-001	 1.482057733118713e+000	-2.060980048652468e+001
1	 6.546230353465827e-001	 1.489133232005029e+000	-2.120931496733336e+001
1	 6.387154813818570e-001	 1.496025255847035e+000	-2.182492609793581e+001
1	 7.987612141044927e-001	 1.424697864912014e+000	-1.655096406665741e+001
1	 7.832855499644306e-001	 1.433264560421141e+000	-1.688689835994837e+001
1	 7.677422586794239e-001	 1.441650245599746e+000	-1.726904716330742e+001
1	 7.521344382102603e-001	 1.449854279162232e+000	-1.769400201471176e+001
1	 7.364651896437771e-001	 1.457876088756247e+000	-1.815826711449980e+001
1	 7.207376153264338e-001	 1.465715170739753e+000	-1.865826650831933e+001
1	 7.049548170153437e-001	 1.473371089899215e+000	-1.919035130567120e+001
1	 6.891198940488618e-001	 1.480843479110007e+000	-1.975080691875439e+001
1	 6.732359415387536e-001	 1.488132038940116e+000	-2.033586030653186e+001
1	 6.573060485859077e-001	 1.495236537198382e+000	-2.094168720917705e+001
1	 6.413332965214997e-001	 1.502156808428522e+000	-2.156441935835574e+001
1	 8.020216236445871e-001	 1.430513243059354e+000	-1.623552581752190e+001
1	 7.864827904347969e-001	 1.439114906385062e+000	-1.657715572282855e+001
1	 7.708760540373492e-001	 1.447534820526264e+000	-1.696436482156495e+001
1	 7.552045250583886e-001	 1.455772341579763e+000	-1.739392665485656e+001
1	 7.394713172428697e-001	 1.463826894856989e+000	-1.786252958357199e+001
1	 7.236795456005105e-001	 1.471697974660143e+000	-1.836678365361430e+001
1	 7.078323245492768e-001	 1.479385143999247e+000	-1.890322749769413e+001
1	 6.919327660785049e-001	 1.486888034251159e+000	-1.946833525891779e+001
1	 6.759839779336863e-001	 1.494206344761659e+000	-2.005852352172277e+001
1	 6.599890618249036e-001	 1.501339842391844e+000	-2.067015823591979e+001
1	 6.439511116608094e-001	 1.508288361010091e+000	-2.129956161987673e+001
1	 8.052820331844467e-001	 1.436328621207025e+000	-1.592058947664140e+001
1	 7.896800309048970e-001	 1.444965252349316e+000	-1.626756754582481e+001
1	 7.740098493949770e-001	 1.453419395453107e+000	-1.665941319706681e+001
1	 7.582746119061880e-001	 1.461690403997612e+000	-1.709309787034989e+001
1	 7.424774448416042e-001	 1.469777700958038e+000	-1.756551024640013e+001
1	 7.266214758742023e-001	 1.477680778580828e+000	-1.807346276062749e+001
1	 7.107098320828028e-001	 1.485399198099562e+000	-1.861369815449142e+001
1	 6.947456381077226e-001	 1.492932589392580e+000	-1.918289605032442e+001
1	 6.787320143281836e-001	 1.500280650583457e+000	-1.977767953582390e+001
1	 6.626720750634609e-001	 1.507443147585549e+000	-2.039462174463889e+001
1	 6.465689267996867e-001	 1.514419913591893e+000	-2.103025241973184e+001
1	 8.085424427239210e-001	 1.442143999355031e+000	-1.560609186012519e+001
1	 7.928772713745780e-001	 1.450815598313902e+000	-1.595805532002157e+001
1	 7.771436447521524e-001	 1.459303970380288e+000	-1.635410160813694e+001
1	 7.613446987535059e-001	 1.467608466415802e+000	-1.679141575907816e+001
1	 7.454835724398311e-001	 1.475728507059433e+000	-1.726710273128790e+001
1	 7.295634061473653e-001	 1.483663582501865e+000	-1.777819353615206e+001
1	 7.135873396157849e-001	 1.491413252200236e+000	-1.832165140553505e+001
1	 6.975585101363884e-001	 1.498977144534367e+000	-1.889437798454077e+001
1	 6.814800507221271e-001	 1.506354956405627e+000	-1.949321953646002e+001
1	 6.653550883014708e-001	 1.513546452779633e+000	-2.011497314705942e+001
1	 6.491867419380324e-001	 1.520551466174078e+000	-2.075639291559997e+001
1	 8.118028522628600e-001	 1.447959377503370e+000	-1.529197079913361e+001
1	 7.960745118436858e-001	 1.456665944278828e+000	-1.564854179775130e+001
1	 7.802774401087218e-001	 1.465188545307817e+000	-1.604834082990332e+001
1	 7.644147856001898e-001	 1.473526528834358e+000	-1.648878202385889e+001
1	 7.484897000374019e-001	 1.481679313161214e+000	-1.696720237540446e+001
1	 7.325053364198569e-001	 1.489646386423312e+000	-1.748086745884628e+001
1	 7.164648471480870e-001	 1.497427306301345e+000	-1.802697717750105e+001
1	 7.003713821643731e-001	 1.505021699676617e+000	-1.860267154130733e+001
1	 6.842280871153970e-001	 1.512429262228287e+000	-1.920503645933137e+001
1	 6.680381015388242e-001	 1.519649757974229e+000	-1.983110953512086e+001
1	 6.518045570757469e-001	 1.526683018756798e+000	-2.047788585306704e+001
1	 8.150632618011137e-001	 1.453774755652043e+000	-1.497816511957554e+001
1	 7.992717523120669e-001	 1.462516290244094e+000	-1.533895096736832e+001
1	 7.834112354645310e-001	 1.471073120235707e+000	-1.574204306516063e+001
1	 7.674848724460873e-001	 1.479444591253303e+000	-1.618509994034047e+001
1	 7.514958276341680e-001	 1.487630119263421e+000	-1.666570619060517e+001
1	 7.354472666915338e-001	 1.495629190345228e+000	-1.718137774379344e+001
1	 7.193423546795726e-001	 1.503441360402968e+000	-1.772956715832439e+001
1	 7.031842541915491e-001	 1.511066254819426e+000	-1.830766895277420e+001
1	 6.869761235078749e-001	 1.518503568051551e+000	-1.891302495324996e+001
1	 6.707211147754113e-001	 1.525753063169474e+000	-1.954292964737244e+001
1	 6.544223722127310e-001	 1.532814571340203e+000	-2.019463553386490e+001
1	 6.282442208219421e-001	 1.471499045518887e+000	-2.282551092886124e+001
1	 6.125561282577968e-001	 1.478098491957502e+000	-2.343404303343072e+001
1	 5.968320490086007e-001	 1.484517287968683e+000	-2.408169222445233e+001
1	 5.810749706883369e-001	 1.490755465284833e+000	-2.476480367115629e+001
1	 5.652878666485968e-001	 1.496813118561950e+000	-2.547971552313155e+001
1	 5.494736944043552e-001	 1.502690404637500e+000	-2.622276277499442e+001
1	 5.336353940943900e-001	 1.508387541743989e+000	-2.699028107526539e+001
1	 5.177758869776715e-001	 1.513904808679865e+000	-2.777861047381218e+001
1	 5.018980739669736e-001	 1.519242543939458e+000	-2.858409910246371e+001
1	 4.860048342008704e-001	 1.524401144803653e+000	-2.940310678366379e+001
1	 4.700990236552003e-001	 1.529381066393079e+000	-3.023200856229692e+001
1	 6.308620359619235e-001	 1.477630598101556e+000	-2.258136996369478e+001
1	 6.151085730770313e-001	 1.484257543608491e+000	-2.319972849914432e+001
1	 5.993189735550006e-001	 1.490703085940283e+000	-2.385813031667621e+001
1	 5.834962374588432e-001	 1.496967256961559e+000	-2.455278428032240e+001
1	 5.676433505297488e-001	 1.503050151722735e+000	-2.527988992686274e+001
1	 5.517632826063015e-001	 1.508951927714800e+000	-2.603564161841294e+001
1	 5.358589860784835e-001	 1.514672804079606e+000	-2.681623263741773e+001
1	 5.199333943777998e-001	 1.520213060777319e+000	-2.761785921786540e+001
1	 5.039894205047790e-001	 1.525573037712730e+000	-2.843672450680032e+001
1	 4.880299555950191e-001	 1.530753133822143e+000	-2.926904245049460e+001
1	 4.720578675248663e-001	 1.535753806122621e+000	-3.011104159992168e+001
1	 6.334798511019699e-001	 1.483762150683703e+000	-2.233329673459388e+001
1	 6.176610178962955e-001	 1.490416595258882e+000	-2.296104951825868e+001
1	 6.018058981014047e-001	 1.496888883911224e+000	-2.362979269654200e+001
1	 5.859175042293358e-001	 1.503179048637579e+000	-2.433559486770616e+001
1	 5.699988344108758e-001	 1.509287184882779e+000	-2.507451296907839e+001
1	 5.540528708082165e-001	 1.515213450791333e+000	-2.584259672656968e+001
1	 5.380825780625443e-001	 1.520958066414437e+000	-2.663589304465494e+001
1	 5.220909017778975e-001	 1.526521312873974e+000	-2.745045033006927e+001
1	 5.060807670425579e-001	 1.531903531485195e+000	-2.828232274275586e+001
1	 4.900550769891465e-001	 1.537105122839823e+000	-2.912757436790396e+001
1	 4.740167113945158e-001	 1.542126545851345e+000	-2.998228330321802e+001
1	 6.360976662419806e-001	 1.489893703265480e+000	-2.208118395517527e+001
1	 6.202134627155002e-001	 1.496575646908841e+000	-2.271790556292376e+001
1	 6.042928226477331e-001	 1.503074681881681e+000	-2.339658516913253e+001
1	 5.883387709997444e-001	 1.509390840313075e+000	-2.411314719921663e+001
1	 5.723543182919169e-001	 1.515524218042269e+000	-2.486350205778785e+001
1	 5.563424590100491e-001	 1.521474973867289e+000	-2.564355088406800e+001
1	 5.403061700465296e-001	 1.527243328748675e+000	-2.644919024567727e+001
1	 5.242484091779293e-001	 1.532829564970023e+000	-2.727631676347234e+001
1	 5.081721135802820e-001	 1.538234025257044e+000	-2.812083166042218e+001
1	 4.920801983832305e-001	 1.543457111856877e+000	-2.897864522781174e+001
1	 4.759755552641329e-001	 1.548499285579436e+000	-2.984568120241261e+001
1	 6.387154813818570e-001	 1.496025255847035e+000	-2.182492609793581e+001
1	 6.227659075345555e-001	 1.502734698558528e+000	-2.247019775336903e+001
1	 6.067797471939067e-001	 1.509260479851831e+000	-2.315841508378673e+001
1	 5.907600377699994e-001	 1.515602631988232e+000	-2.388535448729526e+001
1	 5.747098021728117e-001	 1.521761251201395e+000	-2.464677595503467e+001
1	 5.586320472117475e-001	 1.527736496942861e+000	-2.543842814140128e+001
1	 5.425297620303964e-001	 1.533528591082513e+000	-2.625605337041323e+001
1	 5.264059165778601e-001	 1.539137817065659e+000	-2.709539257030952e+001
1	 5.102634601179235e-001	 1.544564519028469e+000	-2.795219012879300e+001
1	 4.941053197772500e-001	 1.549809100873494e+000	-2.882219866166158e+001
1	 4.779343991337011e-001	 1.554872025307074e+000	-2.970118368793671e+001
1	 6.413332965214997e-001	 1.502156808428522e+000	-2.156441935835574e+001
1	 6.253183523533731e-001	 1.508893750208112e+000	-2.221782882426711e+001
1	 6.092666717398461e-001	 1.515446277821846e+000	-2.291519130258233e+001
1	 5.931813045400316e-001	 1.521814423663232e+000	-2.365213136139352e+001
1	 5.770652860535005e-001	 1.527998284360345e+000	-2.442425474926302e+001
1	 5.609216354132608e-001	 1.533998020018241e+000	-2.522715378911625e+001
1	 5.447533540141016e-001	 1.539813853416144e+000	-2.605641270591134e+001
1	 5.285634239776547e-001	 1.545446069161075e+000	-2.690761287956697e+001
1	 5.123548066554542e-001	 1.550895012799658e+000	-2.777633801496931e+001
1	 4.961304411711825e-001	 1.556161089889861e+000	-2.865817922124674e+001
1	 4.798932430032044e-001	 1.561244765034445e+000	-2.954873999286833e+001
1	 6.439511116608094e-001	 1.508288361010091e+000	-2.129956161987673e+001
1	 6.278707971718623e-001	 1.515052801857756e+000	-2.196070309191961e+001
1	 6.117535962854716e-001	 1.521632075791902e+000	-2.266682416958756e+001
1	 5.956025713097707e-001	 1.528026215338257e+000	-2.341339383917091e+001
1	 5.794207699339221e-001	 1.534235317519306e+000	-2.419585982835598e+001
1	 5.632112236145370e-001	 1.540259543093620e+000	-2.500965433260774e+001
1	 5.469769459976025e-001	 1.546099115749762e+000	-2.585019967282062e+001
1	 5.307209313772782e-001	 1.551754321256463e+000	-2.671291387509669e+001
1	 5.144461531928464e-001	 1.557225506570805e+000	-2.759321616387227e+001
1	 4.981555625650069e-001	 1.562513078906165e+000	-2.848653236000260e+001
1	 4.818520868726261e-001	 1.567617504761729e+000	-2.938830017580600e+001
1	 6.465689267996867e-001	 1.514419913591893e+000	-2.103025241973184e+001
1	 6.304232419899352e-001	 1.521211853507622e+000	-2.169872642223703e+001
1	 6.142405208307040e-001	 1.527817873762174e+000	-2.241322548086018e+001
1	 5.980238380791469e-001	 1.534238007013491e+000	-2.316905929839180e+001
1	 5.817762538140169e-001	 1.540472350678467e+000	-2.396151385333062e+001
1	 5.655008118155254e-001	 1.546521066169190e+000	-2.478585746752598e+001
1	 5.492005379808558e-001	 1.552384378083559e+000	-2.563734680244210e+001
1	 5.328784387766953e-001	 1.558062573352017e+000	-2.651123277426266e+001
1	 5.165374997300717e-001	 1.563556000342099e+000	-2.740276637844742e+001
1	 5.001806839587015e-001	 1.568865067922594e+000	-2.830720441475360e+001
1	 4.838109307419504e-001	 1.573990244489111e+000	-2.921981510415676e+001
1	 6.491867419380324e-001	 1.520551466174078e+000	-2.075639291559997e+001
1	 6.329756868075016e-001	 1.527370905157877e+000	-2.143180619949703e+001
1	 6.167274453754639e-001	 1.534003671732837e+000	-2.215430845517263e+001
1	 6.004451048480909e-001	 1.540449798689115e+000	-2.291904644950290e+001
1	 5.841317376937240e-001	 1.546709383838018e+000	-2.372114073266815e+001
1	 5.677904000161740e-001	 1.552782589245143e+000	-2.455569205577832e+001
1	 5.514241299638191e-001	 1.558669640417730e+000	-2.541778771433556e+001
1	 5.350359461758709e-001	 1.564370825447929e+000	-2.630250780710217e+001
1	 5.186288462671024e-001	 1.569886494113732e+000	-2.720493140034993e+001
1	 5.022058053522444e-001	 1.575217056939336e+000	-2.812014258790287e+001
1	 4.857697746111607e-001	 1.580362984216774e+000	-2.904323643782780e+001
1	 6.518045570757469e-001	 1.526683018756798e+000	-2.047788585306704e+001
1	 6.355281316244723e-001	 1.533529956808685e+000	-2.115985129585252e+001
1	 6.192143699196715e-001	 1.540189469704066e+000	-2.188998770544107e+001
1	 6.028663716165326e-001	 1.546661590365314e+000	-2.266327530887180e+001
1	 5.864872215729831e-001	 1.552946416998145e+000	-2.347466559726429e+001
1	 5.700799882164317e-001	 1.559044112321670e+000	-2.431908810210841e+001
1	 5.536477219464489e-001	 1.564954902752466e+000	-2.519145709446613e+001
1	 5.371934535747698e-001	 1.570679077544392e+000	-2.608667819599038e+001
1	 5.207201928039105e-001	 1.576216987885893e+000	-2.699965489109256e+001
1	 5.042309267456142e-001	 1.581569045956577e+000	-2.792529493005010e+001
1	 4.877286184802408e-001	 1.586735723944899e+000	-2.885851661331361e+001
1	 6.544223722127310e-001	 1.532814571340203e+000	-2.019463553386490e+001
1	 6.380805764407583e-001	 1.539689008460209e+000	-2.088277204157324e+001
1	 6.217012944632482e-001	 1.546375267676036e+000	-2.162017921084237e+001
1	 6.052876383844025e-001	 1.552873382042270e+000	-2.240166717266623e+001
1	 5.888427054517341e-001	 1.559183450159039e+000	-2.322201477597889e+001
1	 5.723695764162470e-001	 1.565305635398965e+000	-2.407597673123993e+001
1	 5.558713139287028e-001	 1.571240165087963e+000	-2.495829067387491e+001
1	 5.393509609733571e-001	 1.576987329641599e+000	-2.586368413579206e+001
1	 5.228115393404681e-001	 1.582547481658774e+000	-2.678688141364917e+001
1	 5.062560481387889e-001	 1.587921034974506e+000	-2.772261032302648e+001
1	 4.896874623491745e-001	 1.593108463673670e+000	-2.866560882816215e+001
1	 4.700990236552003e-001	 1.529381066393079e+000	-3.023200856229692e+001
1	 4.541834735678362e-001	 1.534182820303653e+000	-3.106343667716320e+001
1	 4.382609884735363e-001	 1.538806972447188e+000	-3.189018547799910e+001
1	 4.223343456611924e-001	 1.543254143154806e+000	-3.270890792667579e+001
1	 4.064062941850493e-001	 1.547525006483282e+000	-3.351628821028923e+001
1	 3.904795536865156e-001	 1.551620289110432e+000	-3.430904525080274e+001
1	 3.745568132600691e-001	 1.555540769203842e+000	-3.508393609527951e+001
1	 3.586407303637542e-001	 1.559287275264824e+000	-3.583775918323433e+001
1	 3.427339297746908e-001	 1.562860684949402e+000	-3.656735748798664e+001
1	 3.268390025899309e-001	 1.566261923868223e+000	-3.726962152926053e+001
1	 3.109585052729244e-001	 1.569491964367168e+000	-3.794149225464099e+001
1	 4.720578675248663e-001	 1.535753806122621e+000	-3.011104159992168e+001
1	 4.560759993296170e-001	 1.540575568341829e+000	-3.095523151273867e+001
1	 4.400871672301723e-001	 1.545218988749658e+000	-3.179438413890227e+001
1	 4.240941600880320e-001	 1.549684690262056e+000	-3.262515654295102e+001
1	 4.080997384124002e-001	 1.553973349744499e+000	-3.344423764276993e+001
1	 3.921066331770839e-001	 1.558085696902767e+000	-3.424835171067713e+001
1	 3.761175446816750e-001	 1.562022513146960e+000	-3.503426175425435e+001
1	 3.601351414575070e-001	 1.565784630430640e+000	-3.579877277347993e+001
1	 3.441620592188107e-001	 1.569372930066904e+000	-3.653873489107993e+001
1	 3.282008998594099e-001	 1.572788341523290e+000	-3.725104635338686e+001
1	 3.122542304952113e-001	 1.576031841197312e+000	-3.793265639934023e+001
1	 4.740167113945158e-001	 1.542126545851345e+000	-2.998228330321802e+001
1	 4.579685250913861e-001	 1.546968316379183e+000	-3.083884416738526e+001
1	 4.419133459868009e-001	 1.551631005051298e+000	-3.169001787646100e+001
1	 4.258539745148700e-001	 1.556115237368471e+000	-3.253246704960684e+001
1	 4.097931826397563e-001	 1.560421693004874e+000	-3.336288672233594e+001
1	 3.937337126676676e-001	 1.564551104694253e+000	-3.417800783807682e+001
1	 3.776782761033100e-001	 1.568504257089224e+000	-3.497460061876136e+001
1	 3.616295525513068e-001	 1.572281985595597e+000	-3.574947781102461e+001
1	 3.455901886630016e-001	 1.575885175183543e+000	-3.649949780496979e+001
1	 3.295627971289896e-001	 1.579314759177490e+000	-3.722156762281992e+001
1	 3.135499557176358e-001	 1.582571718026590e+000	-3.791264577512169e+001
1	 4.759755552641329e-001	 1.548499285579436e+000	-2.984568120241261e+001
1	 4.598610508531317e-001	 1.553361064415891e+000	-3.071422679233372e+001
1	 4.437395247434138e-001	 1.558043021352281e+000	-3.157704298738131e+001
1	 4.276137889416997e-001	 1.562545784474214e+000	-3.243079939841098e+001
1	 4.114866268671124e-001	 1.566870036264565e+000	-3.327219855106711e+001
1	 3.953607921582604e-001	 1.571016512485042e+000	-3.409797936686183e+001
1	 3.792390075249657e-001	 1.574986001030779e+000	-3.490492052268285e+001
1	 3.631239636451417e-001	 1.578779340759835e+000	-3.568984368535196e+001
1	 3.470183181072453e-001	 1.582397420299454e+000	-3.644961661822084e+001
1	 3.309246943986448e-001	 1.585841176830959e+000	-3.718115615714987e+001
1	 3.148456809401636e-001	 1.589111594855133e+000	-3.788143105357955e+001
1	 4.779343991337011e-001	 1.554872025307074e+000	-2.970118368793671e+001
1	 4.617535766148420e-001	 1.559753812452132e+000	-3.058133232326073e+001
1	 4.455657035000026e-001	 1.564455037652777e+000	-3.145541648485414e+001
1	 4.293736033685146e-001	 1.568976331579451e+000	-3.232011419769407e+001
1	 4.131800710944626e-001	 1.573318379523730e+000	-3.317213683595894e+001
1	 3.969878716488561e-001	 1.577481920275285e+000	-3.400823259266035e+001
1	 3.807997389466332e-001	 1.581467744971770e+000	-3.482518982723986e+001
1	 3.646183747389991e-001	 1.585276695923494e+000	-3.561984028778235e+001
1	 3.484464475515243e-001	 1.588909665414775e+000	-3.638906220485486e+001
1	 3.322865916683502e-001	 1.592367594483831e+000	-3.712978325435920e+001
1	 3.161414061627602e-001	 1.595651471683077e+000	-3.783898338712601e+001
1	 4.798932430032044e-001	 1.561244765034445e+000	-2.954873999286833e+001
1	 4.636461023765049e-001	 1.566146560488082e+000	-3.044011446427936e+001
1	 4.473918822565585e-001	 1.570867053952957e+000	-3.132509608393041e+001
1	 4.311334177953083e-001	 1.575406878684347e+000	-3.220037269894829e+001
1	 4.148735153218010e-001	 1.579766722782525e+000	-3.306266587657557e+001
1	 3.986149511394479e-001	 1.583947328065134e+000	-3.390873436140447e+001
1	 3.823604703683042e-001	 1.587949488912343e+000	-3.473537741023353e+001
1	 3.661127858328667e-001	 1.591774051086716e+000	-3.553943800123192e+001
1	 3.498745769958204e-001	 1.595421910529643e+000	-3.631780591444513e+001
1	 3.336484889380808e-001	 1.598894012136239e+000	-3.706742068105813e+001
1	 3.174371313853914e-001	 1.602191348510555e+000	-3.778527439917818e+001
1	 4.818520868726261e-001	 1.567617504761729e+000	-2.938830017580600e+001
1	 4.655386281381087e-001	 1.572539308523918e+000	-3.029052767231894e+001
1	 4.492180610130728e-001	 1.577279070252993e+000	-3.118604018725665e+001
1	 4.328932322220744e-001	 1.581837425789064e+000	-3.207153678375481e+001
1	 4.165669595491220e-001	 1.586215066041111e+000	-3.294375055300559e+001
1	 4.002420306300298e-001	 1.590412735854740e+000	-3.379945205814396e+001
1	 3.839212017899701e-001	 1.594431232852644e+000	-3.463545265554161e+001
1	 3.676071969267320e-001	 1.598271406249639e+000	-3.544860769022029e+001
1	 3.513027064401157e-001	 1.601934155644195e+000	-3.623581956244861e+001
1	 3.350103862078114e-001	 1.605420429788318e+000	-3.699404066296036e+001
1	 3.187328566080224e-001	 1.608731225337699e+000	-3.772027617458488e+001
1	 4.838109307419504e-001	 1.573990244489111e+000	-2.921981510415676e+001
1	 4.674311538996414e-001	 1.578932056559819e+000	-3.013252714188567e+001
1	 4.510442397695371e-001	 1.583691086553055e+000	-3.103820787115498e+001
1	 4.346530466488063e-001	 1.588267972893769e+000	-3.193356895102882e+001
1	 4.182604037764201e-001	 1.592663409299643e+000	-3.281535631411010e+001
1	 4.018691101205954e-001	 1.596878143644255e+000	-3.368035359613290e+001
1	 3.854819332116223e-001	 1.600912976792819e+000	-3.452538544287447e+001
1	 3.691016080205829e-001	 1.604768761412406e+000	-3.534732069111990e+001
1	 3.527308358843927e-001	 1.608446400758566e+000	-3.614307542077568e+001
1	 3.363722834775167e-001	 1.611946847440201e+000	-3.690961587558788e+001
1	 3.200285818306191e-001	 1.615271102164644e+000	-3.764396125028519e+001
1	 4.857697746111607e-001	 1.580362984216774e+000	-2.904323643782780e+001
1	 4.693236796610911e-001	 1.585324804595960e+000	-2.996606879019147e+001
1	 4.528704185259429e-001	 1.590103102853316e+000	-3.088155887203978e+001
1	 4.364128610754976e-001	 1.594698519998625e+000	-3.178643230457199e+001
1	 4.199538480036892e-001	 1.599111752558280e+000	-3.267744916605480e+001
1	 4.034961896111380e-001	 1.603343551433830e+000	-3.355140740618055e+001
1	 3.870426646332523e-001	 1.607394720733012e+000	-3.440514613777939e+001
1	 3.705960191144070e-001	 1.611266116575157e+000	-3.523554880264420e+001
1	 3.541589653286333e-001	 1.614958645872892e+000	-3.603954620858711e+001
1	 3.377341807471714e-001	 1.618473265092024e+000	-3.681411943520401e+001
1	 3.213243070531469e-001	 1.621810978991523e+000	-3.755630260619315e+001
1	 4.877286184802408e-001	 1.586735723944899e+000	-2.885851661331361e+001
1	 4.712162054224462e-001	 1.591717552632520e+000	-2.979110924264109e+001
1	 4.546965972822816e-001	 1.596515119153945e+000	-3.071605357316258e+001
1	 4.381726755021417e-001	 1.601129067103797e+000	-3.163009054092595e+001
1	 4.216472922309238e-001	 1.605560095817179e+000	-3.252999566111897e+001
1	 4.051232691016514e-001	 1.609808959223615e+000	-3.341258242625631e+001
1	 3.886033960548516e-001	 1.613876464673370e+000	-3.427470558188227e+001
1	 3.720904302081917e-001	 1.617763471738032e+000	-3.511326427656200e+001
1	 3.555870947728198e-001	 1.621470890987311e+000	-3.592520508331170e+001
1	 3.390960780167504e-001	 1.624999682743920e+000	-3.670752488995888e+001
1	 3.226200322755714e-001	 1.628350855818469e+000	-3.745727365630209e+001
1	 4.896874623491745e-001	 1.593108463673670e+000	-2.866560882816215e+001
1	 4.731087311836948e-001	 1.598110300669677e+000	-2.960760581866731e+001
1	 4.565227760385447e-001	 1.602927135455114e+000	-3.054165299167478e+001
1	 4.399324899287324e-001	 1.607559614209450e+000	-3.146450793751703e+001
1	 4.233407364581182e-001	 1.612008439076500e+000	-3.237296288677183e+001
1	 4.067503485921295e-001	 1.616274367013764e+000	-3.326384809134835e+001
1	 3.901641274764115e-001	 1.620358208614037e+000	-3.413403508336729e+001
1	 3.735848413019252e-001	 1.624260826901171e+000	-3.498043980863655e+001
1	 3.570152242169341e-001	 1.627983136101961e+000	-3.580002563188149e+001
1	 3.404579752862288e-001	 1.631526100396023e+000	-3.658980621125553e+001
1	 3.239157574978582e-001	 1.634890732645615e+000	-3.734684824000337e+001
1	 3.109585052729244e-001	 1.569491964367168e+000	-3.794149225464099e+001
1	 2.950973361555283e-001	 1.572551378267190e+000	-3.857949104375959e+001
1	 2.792555925298783e-001	 1.575441725585226e+000	-3.917983885731130e+001
1	 2.634357170593281e-001	 1.578164112201086e+000	-3.973881435162269e+001
1	 2.476401145228079e-001	 1.580719685648571e+000	-4.025275762865322e+001
1	 2.318711510915625e-001	 1.583109633828190e+000	-4.071807375023927e+001
1	 2.161311536513517e-001	 1.585335183711221e+000	-4.113123607832556e+001
1	 2.004224091698800e-001	 1.587397600036800e+000	-4.148878943966986e+001
1	 1.847471641091543e-001	 1.589298184003680e+000	-4.178735311393022e+001
1	 1.691076238824034e-001	 1.591038271958281e+000	-4.202362364446803e+001
1	 1.535059523551476e-001	 1.592619234080585e+000	-4.219437747160812e+001
1	 3.122542304952113e-001	 1.576031841197312e+000	-3.793265639934023e+001
1	 2.963269698688031e-001	 1.579104003292622e+000	-3.858001615620058e+001
1	 2.804192156777261e-001	 1.582006394326573e+000	-3.918922743796781e+001
1	 2.645334207636076e-001	 1.584740124787051e+000	-3.975650039192238e+001
1	 2.486719999257926e-001	 1.587306346989509e+000	-4.027810729410579e+001
1	 2.328373291950671e-001	 1.589706253784308e+000	-4.075038618094982e+001
1	 2.170317451530342e-001	 1.591941077255381e+000	-4.116974430257144e+001
1	 2.012575442969084e-001	 1.594012087411892e+000	-4.153266139610976e+001
1	 1.855169824494246e-001	 1.595920590874547e+000	-4.183569277792531e+001
1	 1.698122742134936e-001	 1.597667929558169e+000	-4.207547225391899e+001
1	 1.541455924711945e-001	 1.599255479352131e+000	-4.224871484764759e+001
1	 3.135499557176358e-001	 1.582571718026590e+000	-3.791264577512169e+001
1	 2.975566035822601e-001	 1.585656628317190e+000	-3.856910917075958e+001
1	 2.815828388258038e-001	 1.588571063067058e+000	-3.918693767478234e+001
1	 2.656311244681645e-001	 1.591316137372162e+000	-3.976227573049964e+001
1	 2.497038853290978e-001	 1.593893008329605e+000	-4.029133060717207e+001
1	 2.338035072989267e-001	 1.596302873739601e+000	-4.077037614463500e+001
1	 2.179323366550938e-001	 1.598546970798740e+000	-4.119575631534391e+001
1	 2.020926794243194e-001	 1.600626574786212e+000	-4.156388860212281e+001
1	 1.862868007900624e-001	 1.602542997744678e+000	-4.187126719035494e+001
1	 1.705169245449123e-001	 1.604297587157367e+000	-4.211446597379607e+001
1	 1.547852325875027e-001	 1.605891724623038e+000	-4.229014137363166e+001
1	 3.148456809401636e-001	 1.589111594855133e+000	-3.788143105357956e+001
1	 2.987862372958534e-001	 1.592209253341028e+000	-3.854674060974293e+001
1	 2.827464619740536e-001	 1.595135731806818e+000	-3.917294049950258e+001
1	 2.667288281729294e-001	 1.597892149956559e+000	-3.975611223028164e+001
1	 2.507357707326434e-001	 1.600479669669002e+000	-4.029240084663844e+001
1	 2.347696854030525e-001	 1.602899493694213e+000	-4.077801878351968e+001
1	 2.188329281574361e-001	 1.605152864341439e+000	-4.120924953278063e+001
1	 2.029278145520174e-001	 1.607241062159900e+000	-4.158245112115944e+001
1	 1.870566191309760e-001	 1.609165404614206e+000	-4.189405939836945e+001
1	 1.712215748765773e-001	 1.610927244755997e+000	-4.214059113441886e+001
1	 1.554248727040072e-001	 1.612527969893416e+000	-4.231864692572670e+001
1	 3.161414061627602e-001	 1.595651471683077e+000	-3.783898338712601e+001
1	 3.000158710095376e-001	 1.598761878364269e+000	-3.851288147872241e+001
1	 2.839100851224186e-001	 1.601700400545991e+000	-3.914720732042782e+001
1	 2.678265318778331e-001	 1.604468162540381e+000	-3.973798221548296e+001
1	 2.517676561363493e-001	 1.607066331007840e+000	-4.028129172936706e+001
1	 2.357358635073559e-001	 1.609496113648287e+000	-4.077328964735448e+001
1	 2.197335196599669e-001	 1.611758757883622e+000	-4.121020174126512e+001
1	 2.037629496799067e-001	 1.613855549533095e+000	-4.158832934351499e+001
1	 1.878264374720734e-001	 1.615787811483266e+000	-4.190405272704876e+001
1	 1.719262252084068e-001	 1.617556902354182e+000	-4.215383429021185e+001
1	 1.560645128206423e-001	 1.619164215163372e+000	-4.233422154607148e+001
1	 3.174371313853914e-001	 1.602191348510555e+000	-3.778527439917818e+001
1	 3.012455047232674e-001	 1.605314503387048e+000	-3.846750325667285e+001
1	 2.850737082708409e-001	 1.608265069284713e+000	-3.910971001268558e+001
1	 2.689242355828062e-001	 1.611044175123768e+000	-3.970785846219085e+001
1	 2.527995415401351e-001	 1.613652992346263e+000	-4.025797740135491e+001
1	 2.367020416117482e-001	 1.616092733601967e+000	-4.075616468509806e+001
1	 2.206341111625921e-001	 1.618364651425432e+000	-4.119859108987204e+001
1	 2.045980848078915e-001	 1.620470036905936e+000	-4.158150397966081e+001
1	 1.885962558132627e-001	 1.622410218351989e+000	-4.190123077373158e+001
1	 1.726308755403183e-001	 1.624186559952042e+000	-4.215418221513080e+001
1	 1.567041529373427e-001	 1.625800460433011e+000	-4.233685543939225e+001
1	 3.187328566080224e-001	 1.608731225337699e+000	-3.772027617458488e+001
1	 3.024751384369969e-001	 1.611867128409499e+000	-3.841057788634910e+001
1	 2.862373314192634e-001	 1.614829738023120e+000	-3.906042090874106e+001
1	 2.700219392877792e-001	 1.617620187706860e+000	-3.966571418918105e+001
1	 2.538314269439211e-001	 1.620239653684411e+000	-4.022243242900959e+001
1	 2.376682197161404e-001	 1.622689353555394e+000	-4.072662023680331e+001
1	 2.215347026652172e-001	 1.624970544967009e+000	-4.117439608299362e+001
1	 2.054332199358763e-001	 1.627084524278562e+000	-4.156195605373537e+001
1	 1.893660741544520e-001	 1.629032625220509e+000	-4.188557740248042e+001
1	 1.733355258722298e-001	 1.630816217549702e+000	-4.214162189820243e+001
1	 1.573437930540432e-001	 1.632436705702442e+000	-4.232653896969637e+001
1	 3.200285818306191e-001	 1.615271102164644e+000	-3.764396125028519e+001
1	 3.037047721506812e-001	 1.618419753431758e+000	-3.834207776489725e+001
1	 2.874009545676282e-001	 1.621394406761351e+000	-3.899931278913995e+001
1	 2.711196429926829e-001	 1.624196200289796e+000	-3.961152304895441e+001
1	 2.548633123476269e-001	 1.626826315022429e+000	-4.017463179064132e+001
1	 2.386343978204437e-001	 1.629285973508712e+000	-4.068463302570019e+001
1	 2.224352941677480e-001	 1.631576438508499e+000	-4.113759557314690e+001
1	 2.062683550637655e-001	 1.633699011651114e+000	-4.152966689719415e+001
1	 1.901358924955494e-001	 1.635655032088957e+000	-4.185707673868228e+001
1	 1.740401762040591e-001	 1.637445875147284e+000	-4.211614053916639e+001
1	 1.579834331706782e-001	 1.639072950971772e+000	-4.230326265704817e+001
1	 3.213243070531469e-001	 1.621810978991523e+000	-3.755630260619315e+001
1	 3.049344058642744e-001	 1.624972378453958e+000	-3.826197573469297e+001
1	 2.885645777158782e-001	 1.627959075499541e+000	-3.892635887347350e+001
1	 2.722173466974478e-001	 1.630772212872715e+000	-3.954525911899423e+001
1	 2.558951977511724e-001	 1.633412976360454e+000	-4.011455086815590e+001
1	 2.396005759245694e-001	 1.635882593462065e+000	-4.063018015046902e+001
1	 2.233358856700902e-001	 1.638182332050043e+000	-4.108816875395561e+001
1	 2.071034901914634e-001	 1.640313499023730e+000	-4.148461814261525e+001
1	 1.909057108364629e-001	 1.642277438957469e+000	-4.181571316378000e+001
1	 1.747448265357242e-001	 1.644075532744909e+000	-4.207772554423100e+001
1	 1.586230732871825e-001	 1.645709196241107e+000	-4.226701717442307e+001
1	 3.226200322755714e-001	 1.628350855818469e+000	-3.745727365630209e+001
1	 3.061640395777312e-001	 1.631525003476234e+000	-3.817024507440230e+001
1	 2.897282008639557e-001	 1.634523744237826e+000	-3.884153281156215e+001
1	 2.733150504020046e-001	 1.637348225455756e+000	-3.946689689322965e+001
1	 2.569270831544775e-001	 1.639999637698632e+000	-4.004216543895091e+001
1	 2.405667540284290e-001	 1.642479213415595e+000	-4.056323907770216e+001
1	 2.242364771721496e-001	 1.644788225591782e+000	-4.102609515329947e+001
1	 2.079386253188743e-001	 1.646927986396549e+000	-4.142679171764960e+001
1	 1.916755291771006e-001	 1.648899845826174e+000	-4.176147131013084e+001
1	 1.754494768671429e-001	 1.650705190342700e+000	-4.202636452192456e+001
1	 1.592627134034907e-001	 1.652345441510555e+000	-4.221779334463637e+001
1	 3.239157574978582e-001	 1.634890732645615e+000	-3.734684824000337e+001
1	 3.073936732910061e-001	 1.638077628498721e+000	-3.806685949025275e+001
1	 2.908918240118034e-001	 1.641088412976345e+000	-3.874480867485028e+001
1	 2.744127541062840e-001	 1.643924238039060e+000	-3.937641127370863e+001
1	 2.579589685574620e-001	 1.646586299037103e+000	-3.995745166800521e+001
1	 2.415329321319333e-001	 1.649075833369447e+000	-4.048378763454516e+001
1	 2.251370686738320e-001	 1.651394119133861e+000	-4.095135462662886e+001
1	 2.087737604459027e-001	 1.653542473769713e+000	-4.135616983912226e+001
1	 1.924453475173707e-001	 1.655522252695209e+000	-4.169433605598616e+001
1	 1.761541271982328e-001	 1.657334847940780e+000	-4.196204527905087e+001
1	 1.599023535195375e-001	 1.658981686780223e+000	-4.215558213734576e+001
1	 1.535059523551476e-001	 1.592619234080585e+000	-4.219437747160812e+001
1	 1.379419454236043e-001	 1.594042674868919e+000	-4.229697657414089e+001
1	 1.224200535966850e-001	 1.595309780082036e+000	-4.232962235514928e+001
1	 1.069423457192570e-001	 1.596422014541718e+000	-4.229052798475829e+001
1	 9.151084653197959e-002	 1.597380871690691e+000	-4.217797947092110e+001
1	 7.612753639004517e-002	 1.598187872276344e+000	-4.199033571230639e+001
1	 6.079435102347421e-002	 1.598844563041398e+000	-4.172602845944743e+001
1	 4.551318133816635e-002	 1.599352515422813e+000	-4.138356218692927e+001
1	 3.028587325687572e-002	 1.599713324260166e+000	-4.096151387946708e+001
1	 1.511422759924549e-002	 1.599928606514677e+000	-4.045853273481401e+001
1	 0.000000000000000e+000	 1.600000000000000e+000	-3.987333978648677e+001
1	 1.541455924711945e-001	 1.599255479352131e+000	-4.224871484764759e+001
1	 1.385167322682697e-001	 1.600684851440509e+000	-4.235276067108413e+001
1	 1.229301626583410e-001	 1.601957236522953e+000	-4.238580490999371e+001
1	 1.073879611068879e-001	 1.603074105524943e+000	-4.234602611404321e+001
1	 9.189216079140575e-002	 1.604036958112175e+000	-4.223167754775982e+001
1	 7.644475031897427e-002	 1.604847321368774e+000	-4.204108726092048e+001
1	 6.104767348555383e-002	 1.605506748482524e+000	-4.177265806381005e+001
1	 4.570282907620749e-002	 1.606016817438340e+000	-4.142486741019257e+001
1	 3.041207070541374e-002	 1.606379129721276e+000	-4.099626719093710e+001
1	 1.517720669660126e-002	 1.606595309030202e+000	-4.048548344131176e+001
1	 0.000000000000000e+000	 1.606667000003317e+000	-3.989121596503265e+001
1	 1.547852325875027e-001	 1.605891724623038e+000	-4.229014137363166e+001
1	 1.390915191131006e-001	 1.607327028011525e+000	-4.239561724723877e+001
1	 1.234402717200479e-001	 1.608604692963362e+000	-4.242908590569520e+001
1	 1.078335764944499e-001	 1.609726196507734e+000	-4.238869059496632e+001
1	 9.227347505065067e-002	 1.610693044533295e+000	-4.227265106827591e+001
1	 7.676196424762999e-002	 1.611506770460910e+000	-4.207926367753696e+001
1	 6.130099594730060e-002	 1.612168933923417e+000	-4.180690136627069e+001
1	 4.589247681390136e-002	 1.612681119453689e+000	-4.145401356692355e+001
1	 3.053826815364729e-002	 1.613044935182250e+000	-4.101912600560294e+001
1	 1.524018579376439e-002	 1.613262011545619e+000	-4.050084041731446e+001
1	 0.000000000000000e+000	 1.613334000006534e+000	-3.989783417487644e+001
1	 1.554248727040072e-001	 1.612527969893416e+000	-4.231864692572670e+001
1	 1.396663059580556e-001	 1.613969204582053e+000	-4.242553930392716e+001
1	 1.239503807817931e-001	 1.615252149403328e+000	-4.245946039438273e+001
1	 1.082791918819602e-001	 1.616378287490125e+000	-4.241851746612495e+001
1	 9.265478930975965e-002	 1.617349130954059e+000	-4.230089600382981e+001
1	 7.707917817608065e-002	 1.618166219552732e+000	-4.210485982380688e+001
1	 6.155431840879776e-002	 1.618831119364033e+000	-4.182875108810923e+001
1	 4.608212455133484e-002	 1.619345421468792e+000	-4.147099021973819e+001
1	 3.066446560165248e-002	 1.619710740643001e+000	-4.103007572202181e+001
1	 1.530316489078306e-002	 1.619928714060829e+000	-4.050458390533586e+001
1	 0.000000000000000e+000	 1.620001000009550e+000	-3.989316852440261e+001
1	 1.560645128206423e-001	 1.619164215163372e+000	-4.233422154607148e+001
1	 1.402410928030933e-001	 1.620611381152179e+000	-4.244251995720978e+001
1	 1.244604898435637e-001	 1.621899605842912e+000	-4.247692350930299e+001
1	 1.087248072694361e-001	 1.623030378472153e+000	-4.243550283106187e+001
1	 9.303610356877803e-002	 1.624005217374477e+000	-4.231640839182827e+001
1	 7.739639210439463e-002	 1.624825668644220e+000	-4.211787064561938e+001
1	 6.180764087012852e-002	 1.625493304804328e+000	-4.183820006993452e+001
1	 4.627177228859470e-002	 1.626009723483584e+000	-4.147578710236305e+001
1	 3.079066304950546e-002	 1.626376546103448e+000	-4.102910197812817e+001
1	 1.536614398770540e-002	 1.626595416575738e+000	-4.049669447179650e+001
1	 0.000000000000000e+000	 1.626668000012268e+000	-3.987719354646867e+001
1	 1.567041529373427e-001	 1.625800460433011e+000	-4.233685543939225e+001
1	 1.408158796481724e-001	 1.627253557721992e+000	-4.244655243554571e+001
1	 1.249705989053471e-001	 1.628547062282178e+000	-4.248147046316414e+001
1	 1.091704226568947e-001	 1.629682469453853e+000	-4.243964285693774e+001
1	 9.341741782775104e-002	 1.630661303794554e+000	-4.231918433437720e+001
1	 7.771360603264023e-002	 1.631485117735354e+000	-4.211829117138463e+001
1	 6.206096333137607e-002	 1.632155490244256e+000	-4.183524126924817e+001
1	 4.646142002576775e-002	 1.632674025497995e+000	-4.146839411614623e+001
1	 3.091686049728231e-002	 1.633042351563504e+000	-4.101619064634976e+001
1	 1.542912308457960e-002	 1.633262119090249e+000	-4.047715300041534e+001
1	 0.000000000000000e+000	 1.633335000014584e+000	-3.984988418974074e+001
1	 1.573437930540432e-001	 1.632436705702442e+000	-4.232653896969637e+001
1	 1.413906664932514e-001	 1.633895734291576e+000	-4.243763007750544e+001
1	 1.254807079671305e-001	 1.635194518721186e+000	-4.247309654652120e+001
1	 1.096160380443534e-001	 1.636334560435261e+000	-4.243093377324041e+001
1	 9.379873208672410e-002	 1.637317390214300e+000	-4.230921999696548e+001
1	 7.803081996088587e-002	 1.638144566826117e+000	-4.210611651035447e+001
1	 6.231428579262363e-002	 1.638817675683773e+000	-4.181986775806913e+001
1	 4.665106776294084e-002	 1.639338327511960e+000	-4.144880132664736e+001
1	 3.104305794505919e-002	 1.639708157023086e+000	-4.099132782884141e+001
1	 1.549210218145381e-002	 1.639928821604267e+000	-4.044594068575799e+001
1	 0.000000000000000e+000	 1.640002000016400e+000	-3.981121581024255e+001
1	 1.579834331706782e-001	 1.639072950971772e+000	-4.230326265704817e+001
1	 1.419654533382891e-001	 1.640537910861019e+000	-4.241574632954353e+001
1	 1.259908170289011e-001	 1.641841975160000e+000	-4.245179712619967e+001
1	 1.100616534318293e-001	 1.642986651416412e+000	-4.240937187052079e+001
1	 9.418004634574248e-002	 1.643973476633723e+000	-4.228651160718210e+001
1	 7.834803388919989e-002	 1.644804015916488e+000	-4.208134185098658e+001
1	 6.256760825395444e-002	 1.645479861122833e+000	-4.179207272061457e+001
1	 4.684071550020075e-002	 1.646002629525412e+000	-4.141699896031560e+001
1	 3.116925539291220e-002	 1.646373962482108e+000	-4.095449985283274e+001
1	 1.555508127837619e-002	 1.646595524117697e+000	-4.040303902694505e+001
1	 0.000000000000000e+000	 1.646669000017617e+000	-3.976116416310826e+001
1	 1.586230732871825e-001	 1.645709196241107e+000	-4.226701717442307e+001
1	 1.425402401832440e-001	 1.647180087430407e+000	-4.238089474382318e+001
1	 1.265009260906462e-001	 1.648489431598683e+000	-4.241756764375808e+001
1	 1.105072688193396e-001	 1.649638742397343e+000	-4.237495349916413e+001
1	 9.456136060485151e-002	 1.650629563052830e+000	-4.225105545346474e+001
1	 7.866524781765064e-002	 1.651463465006448e+000	-4.204396245934827e+001
1	 6.282093071545165e-002	 1.652142046561392e+000	-4.175184945103908e+001
1	 4.703036323763429e-002	 1.652666931538284e+000	-4.137297740124321e+001
1	 3.129545284091747e-002	 1.653039767940489e+000	-4.090569326609323e+001
1	 1.561806037539490e-002	 1.653262226630441e+000	-4.034842982151184e+001
1	 0.000000000000000e+000	 1.653336000018133e+000	-3.969970539453632e+001
1	 1.592627134034907e-001	 1.652345441510555e+000	-4.221779334463637e+001
1	 1.431150270280749e-001	 1.653822263999829e+000	-4.233306897609246e+001
1	 1.270110351523531e-001	 1.655136888037296e+000	-4.237040361398663e+001
1	 1.109528842069016e-001	 1.656290833378089e+000	-4.232767506818616e+001
1	 9.494267486409647e-002	 1.657285649471628e+000	-4.220284788387782e+001
1	 7.898246174630642e-002	 1.658122914095977e+000	-4.199397367755655e+001
1	 6.307425317719857e-002	 1.658804231999406e+000	-4.169919135122503e+001
1	 4.722001097532829e-002	 1.659331233550508e+000	-4.131672718800218e+001
1	 3.142165028915112e-002	 1.659705573398140e+000	-4.084489483249925e+001
1	 1.568103947255809e-002	 1.659928929142404e+000	-4.028209515941535e+001
1	 0.000000000000000e+000	 1.660003000017850e+000	-3.962681603393500e+001
1	 1.599023535195375e-001	 1.658981686780223e+000	-4.215558213734576e+001
1	 1.436898138727403e-001	 1.660464440569369e+000	-4.227226278361417e+001
1	 1.275211442140091e-001	 1.661784344475902e+000	-4.231030062344421e+001
1	 1.113984995945325e-001	 1.662942924358685e+000	-4.226753304406237e+001
1	 9.532398912352270e-002	 1.663941735890127e+000	-4.214188530491868e+001
1	 7.929967567523567e-002	 1.664782363185058e+000	-4.193137092225842e+001
1	 6.332757563927832e-002	 1.665466417436829e+000	-4.163409192862989e+001
1	 4.740965871336957e-002	 1.665995535562018e+000	-4.124823901055348e+001
1	 3.154784773768926e-002	 1.666371378854980e+000	-4.077209152771532e+001
1	 1.574401856991394e-002	 1.666595631653491e+000	-4.020401741718509e+001
1	 0.000000000000000e+000	 1.666670000016666e+000	-3.954247298625919e+001
1	 1.666670000016666e+000	 0.000000000000000e+000	 1.760510721088368e+001
1	 1.666595631653491e+000	 1.574401856991399e-002	 1.693418406057099e+001
1	 1.666371378854980e+000	 3.154784773768937e-002	 1.626528808162069e+001
1	 1.665995535562018e+000	 4.740965871336945e-002	 1.559944100243115e+001
1	 1.665466417436829e+000	 6.332757563927825e-002	 1.493767520595259e+001
1	 1.664782363185057e+000	 7.929967567523566e-002	 1.428103291660375e+001
1	 1.663941735890127e+000	 9.532398912352275e-002	 1.363056535054639e+001
1	 1.662942924358684e+000	 1.113984995945326e-001	 1.298733182954210e+001
1	 1.661784344475902e+000	 1.275211442140089e-001	 1.235239885869765e+001
1	 1.660464440569369e+000	 1.436898138727402e-001	 1.172683916849300e+001
1	 1.658981686780223e+000	 1.599023535195375e-001	 1.111173072157393e+001
1	 1.673336000014533e+000	 0.000000000000000e+000	 1.735887102069200e+001
1	 1.673261334208274e+000	 1.580698822110226e-002	 1.669850358856900e+001
1	 1.673036184490139e+000	 3.167402625791183e-002	 1.603984367937478e+001
1	 1.672658837977462e+000	 4.759927800607734e-002	 1.538394069550501e+001
1	 1.672127603595793e+000	 6.358086010527679e-002	 1.473185410400659e+001
1	 1.671440813406267e+000	 7.961684202477344e-002	 1.408465256803926e+001
1	 1.670596823945298e+000	 9.570524618888120e-002	 1.344341304114960e+001
1	 1.669594017575405e+000	 1.118440481432776e-001	 1.280921982466831e+001
1	 1.668430803845940e+000	 1.280311767630718e-001	 1.218316358862711e+001
1	 1.667105620862422e+000	 1.442645145034966e-001	 1.156634035668515e+001
1	 1.665616936663168e+000	 1.605418976940590e-001	 1.095985045564423e+001
1	 1.680002000011600e+000	 0.000000000000000e+000	 1.711033321009564e+001
1	 1.679927036762280e+000	 1.586995787248314e-002	 1.646077462348070e+001
1	 1.679700990124582e+000	 3.180020477843872e-002	 1.581259882562233e+001
1	 1.679322140392283e+000	 4.778889729913242e-002	 1.516688285064053e+001
1	 1.678788789754250e+000	 6.383414457160808e-002	 1.452471321675534e+001
1	 1.678099263627101e+000	 7.993400837458459e-002	 1.388718500229559e+001
1	 1.677251912000235e+000	 9.608650325442089e-002	 1.325540088395707e+001
1	 1.676245110792035e+000	 1.122895966920916e-001	 1.263047013770648e+001
1	 1.675077263216021e+000	 1.285412093120837e-001	 1.201350760281940e+001
1	 1.673746801155640e+000	 1.448392151340876e-001	 1.140563260963480e+001
1	 1.672252186546373e+000	 1.611814418683190e-001	 1.080796787170482e+001
1	 1.686668000008066e+000	 0.000000000000000e+000	 1.685957173577468e+001
1	 1.686592739315701e+000	 1.593292752400844e-002	 1.622106650358054e+001
1	 1.686365795758486e+000	 3.192638329919390e-002	 1.558361441635522e+001
1	 1.685985442806634e+000	 4.797851659244783e-002	 1.494832009694143e+001
1	 1.685449975912325e+000	 6.408742903818895e-002	 1.431629708094424e+001
1	 1.684757713847654e+000	 8.025117472460075e-002	 1.368866683728500e+001
1	 1.683907000054997e+000	 9.646776032009649e-002	 1.306655775042673e+001
1	 1.682896204008598e+000	 1.127351452409572e-001	 1.245110406474962e+001
1	 1.681723722586136e+000	 1.290512418610573e-001	 1.184344479165671e+001
1	 1.680387981448981e+000	 1.454139157645546e-001	 1.124472258008511e+001
1	 1.678887436429775e+000	 1.618209860423830e-001	 1.065608255119986e+001
1	 1.693334000004133e+000	 0.000000000000000e+000	 1.660666332686491e+001
1	 1.693258441868734e+000	 1.599589717563005e-002	 1.597944747530937e+001
1	 1.693030601392032e+000	 3.205256182010128e-002	 1.535295038866856e+001
1	 1.692648745220673e+000	 4.816813588593683e-002	 1.472830423479019e+001
1	 1.692111162070147e+000	 6.434071350493616e-002	 1.410664953202382e+001
1	 1.691416164068019e+000	 8.056834107475357e-002	 1.348913411431864e+001
1	 1.690562088109642e+000	 9.684901738586264e-002	 1.287691205739476e+001
1	 1.689547297225114e+000	 1.131806937898572e-001	 1.227114256655411e+001
1	 1.688370181956273e+000	 1.295612744100055e-001	 1.167298882679838e+001
1	 1.687029161742404e+000	 1.459886163949388e-001	 1.108361681602329e+001
1	 1.685522686313308e+000	 1.624605302163164e-001	 1.050419408216502e+001
1	 1.700000000000000e+000	 0.000000000000000e+000	 1.635168350902503e+001
1	 1.699924144421573e+000	 1.605886682729980e-002	 1.573598471468085e+001
1	 1.699695407025399e+000	 3.217874034108477e-002	 1.512066573956123e+001
1	 1.699312047634556e+000	 4.835775517951264e-002	 1.450688625209541e+001
1	 1.698772348227841e+000	 6.459399797176661e-002	 1.389581371789915e+001
1	 1.698074614288291e+000	 8.088550742497475e-002	 1.328862230941121e+001
1	 1.697217176164229e+000	 9.723027445167416e-002	 1.268649177598877e+001
1	 1.696198390441607e+000	 1.136262423387745e-001	 1.209060627511440e+001
1	 1.695016641326421e+000	 1.300713069589410e-001	 1.150215316546877e+001
1	 1.693670342035869e+000	 1.465633170252817e-001	 1.092232176273406e+001
1	 1.692157936196906e+000	 1.631000743901843e-001	 1.035230205909813e+001
1	 1.706665999995867e+000	 0.000000000000000e+000	 1.609470662793963e+001
1	 1.706589846974411e+000	 1.612183647896955e-002	 1.549074434818617e+001
1	 1.706360212658765e+000	 3.230491886206825e-002	 1.488681854429505e+001
1	 1.705975350048439e+000	 4.854737447308842e-002	 1.428411634015915e+001
1	 1.705433534385535e+000	 6.484728243859705e-002	 1.368383211235719e+001
1	 1.704733064508563e+000	 8.120267377519590e-002	 1.308716634432108e+001
1	 1.703872264218816e+000	 9.761153151748565e-002	 1.249532444033246e+001
1	 1.702849483658101e+000	 1.140717908876918e-001	 1.190951550008321e+001
1	 1.701663100696569e+000	 1.305813395078764e-001	 1.133095105464541e+001
1	 1.700311522329333e+000	 1.471380176556246e-001	 1.076084376480574e+001
1	 1.698793186080504e+000	 1.637396185640524e-001	 1.020040608283292e+001
1	 1.713331999991934e+000	 0.000000000000000e+000	 1.583580587227364e+001
1	 1.713255549527444e+000	 1.618480613059116e-002	 1.524379147321089e+001
1	 1.713025018292311e+000	 3.243109738297564e-002	 1.465146597432587e+001
1	 1.712638652462478e+000	 4.873699376657743e-002	 1.406004390917363e+001
1	 1.712094720543356e+000	 6.510056690534430e-002	 1.347074652818047e+001
1	 1.711391514728927e+000	 8.151984012534873e-002	 1.288480059733240e+001
1	 1.710527352273460e+000	 9.799278858325182e-002	 1.230343715604646e+001
1	 1.709500576874617e+000	 1.145173394365918e-001	 1.172789023504246e+001
1	 1.708309560066707e+000	 1.310913720568246e-001	 1.115939553514860e+001
1	 1.706952702622756e+000	 1.477127182860088e-001	 1.059918906808874e+001
1	 1.705428435964036e+000	 1.643791627379857e-001	 1.004850576041592e+001
1	 1.719997999988401e+000	 0.000000000000000e+000	 1.557505329609302e+001
1	 1.719921252080866e+000	 1.624777578211647e-002	 1.499519017797669e+001
1	 1.719689823926216e+000	 3.255727590373082e-002	 1.441466431481706e+001
1	 1.719301954876829e+000	 4.892661305989284e-002	 1.383471760335738e+001
1	 1.718755906701431e+000	 6.535385137192518e-002	 1.325659812995617e+001
1	 1.718049964949481e+000	 8.183700647536488e-002	 1.268155891378621e+001
1	 1.717182440328223e+000	 9.837404564892741e-002	 1.211085660855208e+001
1	 1.716151670091179e+000	 1.149628879854574e-001	 1.154575016362796e+001
1	 1.714956019436821e+000	 1.316014046057983e-001	 1.098749944563663e+001
1	 1.713593882916098e+000	 1.482874189164758e-001	 1.043736382160911e+001
1	 1.712063685847439e+000	 1.650187069120498e-001	 9.896600704985932e+000
1	 1.726663999985468e+000	 0.000000000000000e+000	 1.531251984076600e+001
1	 1.726586954634872e+000	 1.631074543349734e-002	 1.474500356102142e+001
1	 1.726354629560658e+000	 3.268345442425769e-002	 1.417646898174832e+001
1	 1.725965257291649e+000	 4.911623235294792e-002	 1.360818531574099e+001
1	 1.725417092859888e+000	 6.560713583825646e-002	 1.304142744658825e+001
1	 1.724708415170315e+000	 8.215417282517601e-002	 1.247747461636826e+001
1	 1.723837528383160e+000	 9.875530271446710e-002	 1.191760907118226e+001
1	 1.722802763307809e+000	 1.154084365342713e-001	 1.136311466551216e+001
1	 1.721602478806902e+000	 1.321114371548102e-001	 1.081527542650783e+001
1	 1.720235063209315e+000	 1.488621195470668e-001	 1.027537407943748e+001
1	 1.718698935730645e+000	 1.656582510863099e-001	 9.744690535656302e+000
1	 1.733329999983334e+000	 0.000000000000000e+000	 1.504827535635915e+001
1	 1.733252657189655e+000	 1.637371508468560e-002	 1.449329375022997e+001
1	 1.733019435195817e+000	 3.280963294448016e-002	 1.393693453862857e+001
1	 1.732628559707093e+000	 4.930585164565578e-002	 1.338049420261174e+001
1	 1.732078279018852e+000	 6.586042030425496e-002	 1.282527438352105e+001
1	 1.731366865391524e+000	 8.247133917471382e-002	 1.227258051515876e+001
1	 1.730492616438330e+000	 9.913655977982551e-002	 1.172372041310586e+001
1	 1.729453856524530e+000	 1.158539850830164e-001	 1.118000282224932e+001
1	 1.728248938176940e+000	 1.326214697038731e-001	 1.064273592371318e+001
1	 1.726876243502368e+000	 1.494368201778232e-001	 1.011322580251494e+001
1	 1.725334185613589e+000	 1.662977952608313e-001	 9.592774877400343e+000
1	 1.658981686780223e+000	 1.599023535195375e-001	 1.111173072157392e+001
1	 1.657334847940780e+000	 1.761541271982330e-001	 1.050381870355157e+001
1	 1.655522252695209e+000	 1.924453475173706e-001	 9.899758037119034e+000
1	 1.653542473769712e+000	 2.087737604459026e-001	 9.300753703261275e+000
1	 1.651394119133861e+000	 2.251370686738319e-001	 8.707988829174083e+000
1	 1.649075833369447e+000	 2.415329321319333e-001	 8.122622639706895e+000
1	 1.646586299037103e+000	 2.579589685574621e-001	 7.545788395144105e+000
1	 1.643924238039060e+000	 2.744127541062840e-001	 6.978591318790344e+000
1	 1.641088412976345e+000	 2.908918240118035e-001	 6.422106517958622e+000
1	 1.638077628498721e+000	 3.073936732910060e-001	 5.877376902085929e+000
1	 1.634890732645614e+000	 3.239157574978582e-001	 5.345411101821616e+000
1	 1.665616936663168e+000	 1.605418976940590e-001	 1.095985045564423e+001
1	 1.663963511140317e+000	 1.768586718366747e-001	 1.036032028523861e+001
1	 1.662143666253301e+000	 1.932150503902340e-001	 9.764282965297378e+000
1	 1.660155969019819e+000	 2.096087703084788e-001	 9.172956116924349e+000
1	 1.657999021841892e+000	 2.260375250931031e-001	 8.587534657130671e+000
1	 1.655671463880202e+000	 2.424989653155540e-001	 8.009188708578115e+000
1	 1.653171972426168e+000	 2.589906991850011e-001	 7.439061496133441e+000
1	 1.650499264270160e+000	 2.755102931629164e-001	 6.878267233796808e+000
1	 1.647652097064122e+000	 2.920552726246376e-001	 6.327889005701261e+000
1	 1.644629270676909e+000	 3.086231225682336e-001	 5.788976645008770e+000
1	 1.641429628540587e+000	 3.252112883709185e-001	 5.262544614647884e+000
1	 1.672252186546373e+000	 1.611814418683190e-001	 1.080796787170482e+001
1	 1.670592174340183e+000	 1.775632164747879e-001	 1.021702273260108e+001
1	 1.668765079811762e+000	 1.939847532627299e-001	 9.629209390688869e+000
1	 1.666769464270311e+000	 2.104437801706726e-001	 9.045756788167816e+000
1	 1.664603924550310e+000	 2.269379815119976e-001	 8.467870336052705e+000
1	 1.662267094391329e+000	 2.434649984988196e-001	 7.896729784734694e+000
1	 1.659757645815585e+000	 2.600224298122194e-001	 7.333487081851536e+000
1	 1.657074290501588e+000	 2.766078322192714e-001	 6.779264221123309e+000
1	 1.654215781152202e+000	 2.932187212372420e-001	 6.235151085944622e+000
1	 1.651180912855386e+000	 3.098525718452793e-001	 5.702203291653705e+000
1	 1.647968524435843e+000	 3.265068192438411e-001	 5.181440030521553e+000
1	 1.678887436429775e+000	 1.618209860423830e-001	 1.065608255119986e+001
1	 1.677220837540294e+000	 1.782677611126548e-001	 1.007391886584822e+001
1	 1.675386493370501e+000	 1.947544561349501e-001	 9.494523835539834e+000
1	 1.673382959521094e+000	 2.112787900325795e-001	 8.919136419929805e+000
1	 1.671208827259018e+000	 2.278384379306091e-001	 8.348971243402078e+000
1	 1.668862724902740e+000	 2.444310316818189e-001	 7.785216428947595e+000
1	 1.666343319205270e+000	 2.610541604391978e-001	 7.229031419875907e+000
1	 1.663649316733267e+000	 2.777053712754186e-001	 6.681544793103578e+000
1	 1.660779465240521e+000	 2.943821698496740e-001	 6.143852067901782e+000
1	 1.657732555034092e+000	 3.110820211221886e-001	 5.617013514113872e+000
1	 1.654507420331330e+000	 3.278023501166605e-001	 5.102051963978618e+000
1	 1.685522686313308e+000	 1.624605302163164e-001	 1.050419408216502e+001
1	 1.683849500740571e+000	 1.789723057503575e-001	 9.931001618245794e+000
1	 1.682007906929424e+000	 1.955241590069866e-001	 9.360213034323378e+000
1	 1.679996454772071e+000	 2.121137998942951e-001	 8.793076019008511e+000
1	 1.677813729967922e+000	 2.287388943490322e-001	 8.230813144357782e+000
1	 1.675458355414341e+000	 2.453970648646408e-001	 7.674619665550843e+000
1	 1.672928992595139e+000	 2.620858910660156e-001	 7.125661308949735e+000
1	 1.670224342965123e+000	 2.788029103314271e-001	 6.585072052368630e+000
1	 1.667343149329012e+000	 2.955456184619912e-001	 6.053951901520918e+000
1	 1.664284197212972e+000	 3.123114703990072e-001	 5.533364666742776e+000
1	 1.661046316227001e+000	 3.290978809894109e-001	 5.024335744214723e+000
1	 1.692157936196906e+000	 1.631000743901843e-001	 1.035230205909813e+001
1	 1.690478163940929e+000	 1.796768503879781e-001	 9.788264033899550e+000
1	 1.688629320488439e+000	 1.962938618789311e-001	 9.226263929578654e+000
1	 1.686609950023146e+000	 2.129488097559151e-001	 8.667556890104862e+000
1	 1.684418632676925e+000	 2.296393507673610e-001	 8.113372184214844e+000
1	 1.682053985926044e+000	 2.463630980473739e-001	 7.564910973352912e+000
1	 1.679514665985109e+000	 2.631176216927534e-001	 7.023344068567746e+000
1	 1.676799369197082e+000	 2.799004493873660e-001	 6.489809680273288e+000
1	 1.673906833417610e+000	 2.967090670742509e-001	 5.965411164923066e+000
1	 1.670835839391969e+000	 3.135409196757802e-001	 5.451214772777875e+000
1	 1.667585212122803e+000	 3.303934118621271e-001	 4.948247401073694e+000
1	 1.698793186080504e+000	 1.637396185640524e-001	 1.020040608283292e+001
1	 1.697106827141288e+000	 1.803813950255987e-001	 9.645699265590658e+000
1	 1.695250734047455e+000	 1.970635647508755e-001	 9.092663667847258e+000
1	 1.693223445274223e+000	 2.137838196175351e-001	 8.542560630004592e+000
1	 1.691023535385935e+000	 2.305398071856900e-001	 7.996624880960578e+000
1	 1.688649616437755e+000	 2.473291312301070e-001	 7.456062276761267e+000
1	 1.686100339375097e+000	 2.641493523194912e-001	 6.922047528806305e+000
1	 1.683374395429068e+000	 2.809979884433050e-001	 6.395721925594554e+000
1	 1.680470517506249e+000	 2.978725156865105e-001	 5.878191052134362e+000
1	 1.677387481571024e+000	 3.147703689525531e-001	 5.370522511278037e+000
1	 1.674124108018686e+000	 3.316889427348433e-001	 4.873743651364273e+000
1	 1.705428435964036e+000	 1.643791627379857e-001	 1.004850576041592e+001
1	 1.703735490341565e+000	 1.810859396633014e-001	 9.503300572661319e+000
1	 1.701872147606379e+000	 1.978332676229120e-001	 8.959399595705005e+000
1	 1.699836940525207e+000	 2.146188294792508e-001	 8.418069121896194e+000
1	 1.697628438094854e+000	 2.314402636041131e-001	 7.880548118024625e+000
1	 1.695245246949386e+000	 2.482951644129290e-001	 7.348045937113734e+000
1	 1.692686012765018e+000	 2.651810829463092e-001	 6.821740020390858e+000
1	 1.689949421661007e+000	 2.820955274993134e-001	 6.302773593492844e+000
1	 1.687034201594864e+000	 2.990359642988277e-001	 5.792253361104756e+000
1	 1.683939123750080e+000	 3.159998182293716e-001	 5.291247204365365e+000
1	 1.680663003914598e+000	 3.329844736075937e-001	 4.800781885496515e+000
1	 1.712063685847439e+000	 1.650187069120498e-001	 9.896600704985932e+000
1	 1.710364153541677e+000	 1.817904843011683e-001	 9.361061318950275e+000
1	 1.708493561165121e+000	 1.986029704951322e-001	 8.826459255885380e+000
1	 1.706450435776001e+000	 2.154538393411577e-001	 8.294064529821243e+000
1	 1.704233340803587e+000	 2.323407200227247e-001	 7.765119137197423e+000
1	 1.701840877460846e+000	 2.492611975959284e-001	 7.240834744212013e+000
1	 1.699271686154788e+000	 2.662128135732873e-001	 6.722390364994656e+000
1	 1.696524447892823e+000	 2.831930665554607e-001	 6.210930034730852e+000
1	 1.693597885683388e+000	 3.001994129112597e-001	 5.707560482005097e+000
1	 1.690490765929081e+000	 3.172292675062810e-001	 5.213348804764102e+000
1	 1.687201899810491e+000	 3.342800044804131e-001	 4.729320154428714e+000
1	 1.718698935730645e+000	 1.656582510863099e-001	 9.744690535656302e+000
1	 1.716992816741543e+000	 1.824950289392815e-001	 9.218974970775197e+000
1	 1.715114974723587e+000	 1.993726733676280e-001	 8.693830383493225e+000
1	 1.713063931026507e+000	 2.162888492033513e-001	 8.170529293252708e+000
1	 1.710838243512040e+000	 2.332411764416190e-001	 7.650315531712636e+000
1	 1.708436507972044e+000	 2.502272307791940e-001	 7.134401908050773e+000
1	 1.705857359544326e+000	 2.672445442005058e-001	 6.623967865761532e+000
1	 1.703099474124443e+000	 2.842906056118157e-001	 6.120157135141561e+000
1	 1.700161569771757e+000	 3.013628615238641e-001	 5.624075385795464e+000
1	 1.697042408107968e+000	 3.184587167833267e-001	 5.136787883628194e+000
1	 1.693740795706314e+000	 3.355755353533357e-001	 4.659317156916796e+000
1	 1.725334185613589e+000	 1.662977952608313e-001	 9.592774877400343e+000
1	 1.723621479941080e+000	 1.831995735777232e-001	 9.077035094962485e+000
1	 1.721736388281684e+000	 2.001423762404914e-001	 8.561500902305651e+000
1	 1.719677426276633e+000	 2.171238590659275e-001	 8.047446121799002e+000
1	 1.717443146220116e+000	 2.341416328608902e-001	 7.536115239489384e+000
1	 1.715032138482888e+000	 2.511932639628145e-001	 7.028721050737913e+000
1	 1.712443032933547e+000	 2.682762748280447e-001	 6.526442298048115e+000
1	 1.709674500355791e+000	 2.853881446684482e-001	 6.030421305339439e+000
1	 1.706725253859903e+000	 3.025263101366982e-001	 5.541761613057376e+000
1	 1.703594050286686e+000	 3.196881660605542e-001	 5.061525618649216e+000
1	 1.700279691602013e+000	 3.368710662263961e-001	 4.590732227057884e+000
1	 1.634890732645614e+000	 3.239157574978582e-001	 5.345411101821616e+000
1	 1.631526100396023e+000	 3.404579752862290e-001	 4.826713979954236e+000
1	 1.627983136101961e+000	 3.570152242169341e-001	 4.321728948716425e+000
1	 1.624260826901171e+000	 3.735848413019251e-001	 3.831088641760930e+000
1	 1.620358208614037e+000	 3.901641274764114e-001	 3.355397393604670e+000
1	 1.616274367013765e+000	 4.067503485921295e-001	 2.895230007895328e+000
1	 1.612008439076500e+000	 4.233407364581182e-001	 2.451130545504800e+000
1	 1.607559614209450e+000	 4.399324899287324e-001	 2.023611135189875e+000
1	 1.602927135455114e+000	 4.565227760385444e-001	 1.613150809580963e+000
1	 1.598110300669677e+000	 4.731087311836948e-001	 1.220194369272869e+000
1	 1.593108463673670e+000	 4.896874623491745e-001	 8.451512777979623e-001
1	 1.641429628540587e+000	 3.252112883709185e-001	 5.262544614647884e+000
1	 1.638051539134735e+000	 3.418196682812129e-001	 4.749182937092075e+000
1	 1.634494404429018e+000	 3.584431394522586e-001	 4.249418380757961e+000
1	 1.630757207510138e+000	 3.750790282451421e-001	 3.763887952656112e+000
1	 1.626838980342146e+000	 3.917246247999180e-001	 3.293199894536980e+000
1	 1.622738805041713e+000	 4.083771840328471e-001	 2.837932435508785e+000
1	 1.618455815133233e+000	 4.250339266813353e-001	 2.398632565011044e+000
1	 1.613989196781871e+000	 4.416920403963000e-001	 1.975814828929011e+000
1	 1.609338190002595e+000	 4.583486808816095e-001	 1.569960151653880e+000
1	 1.604502089843302e+000	 4.750009730801597e-001	 1.181514686906813e+000
1	 1.599480247540058e+000	 4.916460124060639e-001	 8.108887001506823e-001
1	 1.647968524435843e+000	 3.265068192438411e-001	 5.181440030521553e+000
1	 1.644576977873742e+000	 3.431813612760960e-001	 4.673539061762717e+000
1	 1.641005672756396e+000	 3.598710546875106e-001	 4.179114185591891e+000
1	 1.637253588119463e+000	 3.765732151883082e-001	 3.698807393209339e+000
1	 1.633319752070662e+000	 3.932851221233866e-001	 3.233231413079688e+000
1	 1.629203243070121e+000	 4.100040194735312e-001	 2.782968446075524e+000
1	 1.624903191190486e+000	 4.267271169045155e-001	 2.348568921519688e+000
1	 1.620418779354871e+000	 4.434515908638193e-001	 1.930550276959274e+000
1	 1.615749244550718e+000	 4.601745857246073e-001	 1.529395764525316e+000
1	 1.610893879017623e+000	 4.768932149765299e-001	 1.145553286743598e+000
1	 1.605852031407194e+000	 4.936045624628233e-001	 7.794342646684312e-001
1	 1.654507420331330e+000	 3.278023501166605e-001	 5.102051963978618e+000
1	 1.651102416612997e+000	 3.445430542709037e-001	 4.599735041179162e+000
1	 1.647516941084049e+000	 3.612989699227090e-001	 4.110766789347773e+000
1	 1.643749968729099e+000	 3.780674021314358e-001	 3.635794785374473e+000
1	 1.639800523799534e+000	 3.948456194468263e-001	 3.175436814789311e+000
1	 1.635667681098937e+000	 4.116308549141900e-001	 2.730279587619127e+000
1	 1.631350567248200e+000	 4.284203071276679e-001	 2.300877475698723e+000
1	 1.626848361928386e+000	 4.452111413313026e-001	 1.887751274322800e+000
1	 1.622160299099407e+000	 4.620004905675545e-001	 1.491386991144504e+000
1	 1.617285668192562e+000	 4.787854568728293e-001	 1.112234665238686e+000
1	 1.612223815274991e+000	 4.955631125194851e-001	 7.507072192532919e-001
1	 1.661046316227001e+000	 3.290978809894109e-001	 5.024335744214723e+000
1	 1.657627855352454e+000	 3.459047472656610e-001	 4.527724307562606e+000
1	 1.654028209411931e+000	 3.627268851578712e-001	 4.044327398767578e+000
1	 1.650246349339003e+000	 3.795615890745382e-001	 3.574798772724195e+000
1	 1.646281295528715e+000	 3.964061167702468e-001	 3.119761833394091e+000
1	 1.642132119128106e+000	 4.132576903548320e-001	 2.679808328574275e+000
1	 1.637797943306315e+000	 4.301134973508023e-001	 2.255497066690130e+000
1	 1.633277944502351e+000	 4.469706917987621e-001	 1.847352658554842e+000
1	 1.628571353648595e+000	 4.638263954104682e-001	 1.455864287058448e+000
1	 1.623677457368042e+000	 4.806776987690811e-001	 1.081484507760526e+000
1	 1.618595599143369e+000	 4.975216625760818e-001	 7.246280833663340e-001
1	 1.667585212122803e+000	 3.303934118621271e-001	 4.948247401073694e+000
1	 1.664153294092064e+000	 3.472664402603927e-001	 4.457461023535924e+000
1	 1.660539477739998e+000	 3.641548003930156e-001	 3.979747985900990e+000
1	 1.656742729949124e+000	 3.810557760176273e-001	 3.515768804341693e+000
1	 1.652762067258152e+000	 3.979666140936578e-001	 3.066153053772704e+000
1	 1.648596557157575e+000	 4.148845257954658e-001	 2.631498039741355e+000
1	 1.644245319364772e+000	 4.318066875739274e-001	 2.212367492925984e+000
1	 1.639707527076701e+000	 4.487302422662094e-001	 1.809290289244875e+000
1	 1.634982408198208e+000	 4.656523002533648e-001	 1.422759198598583e+000
1	 1.630069246543986e+000	 4.825699406653090e-001	 1.053229665280775e+000
1	 1.624967383012244e+000	 4.994802126326459e-001	 7.011186230975607e-001
1	 1.674124108018686e+000	 3.316889427348433e-001	 4.873743651364273e+000
1	 1.670678732831782e+000	 3.486281332551248e-001	 4.388900067859540e+000
1	 1.667050746068203e+000	 3.655827156281600e-001	 3.916981273159601e+000
1	 1.663239110559418e+000	 3.825499629607166e-001	 3.458655119089420e+000
1	 1.659242838987799e+000	 3.995271114170690e-001	 3.014557895332083e+000
1	 1.655060995187289e+000	 4.165113612360995e-001	 2.585292976663891e+000
1	 1.650692695423513e+000	 4.334998777970525e-001	 2.171429493394282e+000
1	 1.646137109651372e+000	 4.504897927336566e-001	 1.773501028076577e+000
1	 1.641393462748176e+000	 4.674782050962614e-001	 1.392004341578431e+000
1	 1.636461035720316e+000	 4.844621825615372e-001	 1.027398131610879e+000
1	 1.631339166881533e+000	 5.014387626892100e-001	 6.801018268201423e-001
1	 1.680663003914598e+000	 3.329844736075937e-001	 4.800781885496515e+000
1	 1.677204171571562e+000	 3.499898262498820e-001	 4.321997021500068e+000
1	 1.673562014396502e+000	 3.670106308633223e-001	 3.855980718719751e+000
1	 1.669735491169838e+000	 3.840441499038187e-001	 3.403408730245329e+000
1	 1.665723610717605e+000	 4.010876087404895e-001	 2.964924595772729e+000
1	 1.661525433217197e+000	 4.181381966767416e-001	 2.541138262417408e+000
1	 1.657140071482478e+000	 4.351930680201866e-001	 2.132624729341920e+000
1	 1.652566692226297e+000	 4.522493432011159e-001	 1.739922719333648e+000
1	 1.647804517298428e+000	 4.693041099391749e-001	 1.363533380488664e+000
1	 1.642852824896957e+000	 4.863544244577892e-001	 1.003919021170033e+000
1	 1.637710950751154e+000	 5.033973127458068e-001	 6.615018814128157e-001
1	 1.687201899810491e+000	 3.342800044804131e-001	 4.729320154428714e+000
1	 1.683729610311356e+000	 3.513515192446896e-001	 4.256708154023079e+000
1	 1.680073282724848e+000	 3.684385460985206e-001	 3.796700502265071e+000
1	 1.676231871780339e+000	 3.855383368469466e-001	 3.349981410496332e+000
1	 1.672204382447522e+000	 4.026481060639292e-001	 2.917202195232322e+000
1	 1.667989871247243e+000	 4.197650321174004e-001	 2.498979870798315e+000
1	 1.663587447541608e+000	 4.368862582433393e-001	 2.095895766403193e+000
1	 1.658996274801414e+000	 4.540088936685994e-001	 1.708494170859140e+000
1	 1.654215571848892e+000	 4.711300147821222e-001	 1.337281008175862e+000
1	 1.649244614073828e+000	 4.882466663540884e-001	 9.827225472700465e-001
1	 1.644082734621023e+000	 5.053558628024685e-001	 6.452441490354374e-001
1	 1.693740795706314e+000	 3.355755353533357e-001	 4.659317156916796e+000
1	 1.690255049051116e+000	 3.527132122395728e-001	 4.192990410301029e+000
1	 1.686584551053196e+000	 3.698664613337728e-001	 3.739095511059073e+000
1	 1.682728252390872e+000	 3.870325237901126e-001	 3.298325677279326e+000
1	 1.678685154177500e+000	 4.042086033873977e-001	 2.871340520795850e+000
1	 1.674454309277374e+000	 4.213918675580843e-001	 2.458764609902499e+000
1	 1.670034823600847e+000	 4.385794484665195e-001	 2.061186057142431e+000
1	 1.665425857376654e+000	 4.557684441361188e-001	 1.679155135455774e+000
1	 1.660626626399497e+000	 4.729559196251200e-001	 1.313182925991967e+000
1	 1.655636403250854e+000	 4.901389082504588e-001	 9.637400009033947e-001
1	 1.650454518491058e+000	 5.073144128592279e-001	 6.312551444422413e-001
1	 1.700279691602013e+000	 3.368710662263961e-001	 4.590732227057882e+000
1	 1.696780487790798e+000	 3.540749052345567e-001	 4.130801397527790e+000
1	 1.693095819381501e+000	 3.712943765690969e-001	 3.683121326339241e+000
1	 1.689224633001393e+000	 3.885267107333296e-001	 3.248394778460547e+000
1	 1.685165925907488e+000	 4.057691007109044e-001	 2.827290171363504e+000
1	 1.680918747307537e+000	 4.230187029988018e-001	 2.420440106082538e+000
1	 1.676482199660132e+000	 4.402726386897363e-001	 2.028439923999142e+000
1	 1.671855439951955e+000	 4.575279946036862e-001	 1.651846292715309e+000
1	 1.667037680950171e+000	 4.747818244681850e-001	 1.291175824402024e+000
1	 1.662028192427957e+000	 4.920311501469236e-001	 9.469037300205088e-001
1	 1.656826302361175e+000	 5.092729629161171e-001	 6.194625128187835e-001
1	 1.593108463673670e+000	 4.896874623491745e-001	 8.451512777979623e-001
1	 1.587921034974506e+000	 5.062560481387889e-001	 4.899754365018411e-001
1	 1.582547481658774e+000	 5.228115393404682e-001	 1.569854938874400e-001
1	 1.576987329641599e+000	 5.393509609733571e-001	-1.529069985916101e-001
1	 1.571240165087962e+000	 5.558713139287027e-001	-4.388156023942290e-001
1	 1.565305635398965e+000	 5.723695764162470e-001	-6.998805710197014e-001
1	 1.559183450159039e+000	 5.888427054517342e-001	-9.352704193031681e-001
1	 1.552873382042270e+000	 6.052876383844026e-001	-1.144183479703925e+000
1	 1.546375267676036e+000	 6.217012944632478e-001	-1.325849442369084e+000
1	 1.539689008460209e+000	 6.380805764407584e-001	-1.479530875720074e+000
1	 1.532814571340203e+000	 6.544223722127311e-001	-1.604524724283588e+000
1	 1.599480247540058e+000	 4.916460124060639e-001	 8.108887001506823e-001
1	 1.594272071242548e+000	 5.082808657787366e-001	 4.600856358919538e-001
1	 1.588877025905930e+000	 5.249025721904650e-001	 1.314812627706196e-001
1	 1.583294635549190e+000	 5.415081447616857e-001	-1.740026883804519e-001
1	 1.577524484682149e+000	 5.580945723884372e-001	-4.554717386785408e-001
1	 1.571566219295666e+000	 5.746588211945348e-001	-7.120602996095686e-001
1	 1.565419547812639e+000	 5.911978360250292e-001	-9.429332989617276e-001
1	 1.559084241997952e+000	 6.077085419798073e-001	-1.147287790924372e+000
1	 1.552560137825569e+000	 6.241878459861199e-001	-1.324354546963067e+000
1	 1.545847136301012e+000	 6.406326384087306e-001	-1.473399624050135e+000
1	 1.538945204237500e+000	 6.570397946962920e-001	-1.593725906807440e+000
1	 1.605852031407194e+000	 4.936045624628233e-001	 7.794342646684312e-001
1	 1.600623107511378e+000	 5.103056834185110e-001	 4.330845250157908e-001
1	 1.595206570153903e+000	 5.269936050402385e-001	 1.089281970259469e-001
1	 1.589601941457623e+000	 5.436653285497373e-001	-1.921048631791435e-001
1	 1.583808804277191e+000	 5.603178308478363e-001	-4.691141572923683e-001
1	 1.577826803193227e+000	 5.769480659724274e-001	-7.212302388040757e-001
1	 1.571655645467094e+000	 5.935529665978695e-001	-9.476163918336263e-001
1	 1.565295101954475e+000	 6.101294455746986e-001	-1.147470291293055e+000
1	 1.558745007975918e+000	 6.266743975084232e-001	-1.320025640829023e+000
1	 1.552005264142597e+000	 6.431847003760839e-001	-1.464553784961547e+000
1	 1.545075837135533e+000	 6.596572171791894e-001	-1.580365291820020e+000
1	 1.612223815274991e+000	 4.955631125194851e-001	 7.507072192532919e-001
1	 1.606974143780907e+000	 5.123305010581556e-001	 4.088861619544710e-001
1	 1.601536114402605e+000	 5.290846378898453e-001	 8.923570461137834e-002
1	 1.595909247366803e+000	 5.458225123375806e-001	-2.073082028528938e-001
1	 1.590093123872993e+000	 5.625410893069841e-001	-4.798410413257997e-001
1	 1.584087387091552e+000	 5.792373107500243e-001	-7.274914683507362e-001
1	 1.577891743122305e+000	 5.959080971703684e-001	-9.494230461426328e-001
1	 1.571505961911738e+000	 6.125503491692055e-001	-1.144835948096332e+000
1	 1.564929878126983e+000	 6.291609490303003e-001	-1.312968640076786e+000
1	 1.558163391984861e+000	 6.457367623429725e-001	-1.453099532756086e+000
1	 1.551206470034202e+000	 6.622746396615893e-001	-1.564548601249086e+000
1	 1.618595599143369e+000	 4.975216625760818e-001	 7.246280833663340e-001
1	 1.613325180051048e+000	 5.143553186977137e-001	 3.874059580692718e-001
1	 1.607865658651945e+000	 5.311756707393406e-001	 7.231461998807368e-002
1	 1.602216553276638e+000	 5.479796961252855e-001	-2.197058963951981e-001
1	 1.596377443469460e+000	 5.647643477659644e-001	-4.877490278338947e-001
1	 1.590347970990539e+000	 5.815265555274233e-001	-7.309434763499813e-001
1	 1.584127840778174e+000	 5.982632277426403e-001	-9.484549827449850e-001
1	 1.577716821869641e+000	 6.149712527634555e-001	-1.139488075758578e+000
1	 1.571114748278663e+000	 6.316475005518931e-001	-1.303287793013672e+000
1	 1.564321519827708e+000	 6.482888243095517e-001	-1.439141369867383e+000
1	 1.557337102933408e+000	 6.648920621436569e-001	-1.546379892277626e+000
1	 1.624967383012244e+000	 4.994802126326459e-001	 7.011186230975607e-001
1	 1.619676216321714e+000	 5.163801363372280e-001	 3.685606514695165e-001
1	 1.614195202901830e+000	 5.332667035887803e-001	 5.807717615233394e-002
1	 1.608523859187033e+000	 5.501368799129206e-001	-2.293896711575847e-001
1	 1.602661763066491e+000	 5.669876062248608e-001	-4.929332381479780e-001
1	 1.596608554890094e+000	 5.838158003047238e-001	-7.316841904607839e-001
1	 1.590363938434600e+000	 6.006183583147985e-001	-9.448123270354288e-001
1	 1.583927681828086e+000	 6.173921563575771e-001	-1.131528368248010e+000
1	 1.577299618430859e+000	 6.341340520733437e-001	-1.291085712843257e+000
1	 1.570479647671034e+000	 6.508408862759760e-001	-1.422782159639455e+000
1	 1.563467735833050e+000	 6.675094846255592e-001	-1.525961589982575e+000
1	 1.631339166881533e+000	 5.014387626892100e-001	 6.801018268201423e-001
1	 1.626027252592817e+000	 5.184049539767426e-001	 3.522682811018338e-001
1	 1.620524747152169e+000	 5.353577364382198e-001	 4.643697732332433e-002
1	 1.614831165097894e+000	 5.522940637005561e-001	-2.364498213946515e-001
1	 1.608946082663995e+000	 5.692108646837572e-001	-4.954873074767864e-001
1	 1.602869138790118e+000	 5.861050450820242e-001	-7.298100083750585e-001
1	 1.596600036091486e+000	 6.029734888869563e-001	-9.385936401054508e-001
1	 1.590138541786973e+000	 6.198130599516991e-001	-1.121056930723187e+000
1	 1.583484488583469e+000	 6.366206035947941e-001	-1.276463409597791e+000
1	 1.576637775514741e+000	 6.533929482424004e-001	-1.404123158336978e+000
1	 1.569598368733029e+000	 6.701269071074611e-001	-1.503394519208841e+000
1	 1.637710950751154e+000	 5.033973127458068e-001	 6.615018814128157e-001
1	 1.632378288864269e+000	 5.204297716163004e-001	 3.384481614448198e-001
1	 1.626854291402873e+000	 5.374487692877151e-001	 3.730897226807220e-002
1	 1.621138471009127e+000	 5.544512474882608e-001	-2.409752361424536e-001
1	 1.615230402261874e+000	 5.714341231427373e-001	-4.955034138164976e-001
1	 1.609129722690512e+000	 5.883942898594232e-001	-7.254158275806593e-001
1	 1.602836133748732e+000	 6.053286194592281e-001	-9.298959491742984e-001
1	 1.596349401746202e+000	 6.222339635459491e-001	-1.108172310440593e+000
1	 1.589669358736397e+000	 6.391071551163871e-001	-1.259520321325280e+000
1	 1.582795903358730e+000	 6.559450102089796e-001	-1.383264046408332e+000
1	 1.575729001633243e+000	 6.727443295895290e-001	-1.478777935699039e+000
1	 1.644082734621023e+000	 5.053558628024685e-001	 6.452441490354374e-001
1	 1.638729325135984e+000	 5.224545892559449e-001	 3.270208577915790e-001
1	 1.633183835653848e+000	 5.395398021373219e-001	 3.060942824695400e-002
1	 1.627445776920638e+000	 5.566084312761040e-001	-2.430534264488957e-001
1	 1.621514721860030e+000	 5.736573816018852e-001	-4.930723061885687e-001
1	 1.615390306591181e+000	 5.906835346370200e-001	-7.185950744321811e-001
1	 1.609072231406240e+000	 6.076837500317271e-001	-9.188147773121743e-001
1	 1.602560261705674e+000	 6.246548671404556e-001	-1.092971526943624e+000
1	 1.595854228889540e+000	 6.415937066382640e-001	-1.240354344551260e+000
1	 1.588954031202899e+000	 6.584970721758683e-001	-1.360302959021710e+000
1	 1.581859634533595e+000	 6.753617520719287e-001	-1.452209556499533e+000
1	 1.650454518491058e+000	 5.073144128592279e-001	 6.312551444422413e-001
1	 1.645080361407874e+000	 5.244794068957194e-001	 3.179081621052265e-001
1	 1.639513379905004e+000	 5.416308349870956e-001	 2.625590556259856e-002
1	 1.633753082832332e+000	 5.587656150641555e-001	-2.427705519730868e-001
1	 1.627799041458369e+000	 5.758806400612844e-001	-4.882833322233257e-001
1	 1.621650890492024e+000	 5.929727794149128e-001	-7.094397325485264e-001
1	 1.615308329063910e+000	 6.100388806045675e-001	-9.054441724750938e-001
1	 1.608771121665290e+000	 6.270757707353474e-001	-1.075550101552195e+000
1	 1.602039099042800e+000	 6.440802581605672e-001	-1.219061864035068e+000
1	 1.595112159047149e+000	 6.610491341432214e-001	-1.335336515893839e+000
1	 1.587990267433982e+000	 6.779791745548263e-001	-1.423785589662041e+000
1	 1.656826302361175e+000	 5.092729629161171e-001	 6.194625128187835e-001
1	 1.651431397679850e+000	 5.265042245356668e-001	 3.110330694313268e-001
1	 1.645842924156249e+000	 5.437218678370922e-001	 2.416723269612245e-002
1	 1.640060388744116e+000	 5.609227988524841e-001	-2.402114469712099e-001
1	 1.634083361056793e+000	 5.781038985210186e-001	-4.812244651073077e-001
1	 1.627911474392944e+000	 5.952620241932002e-001	-6.980403705550989e-001
1	 1.621544426721645e+000	 6.123940111778623e-001	-8.898767358696961e-001
1	 1.614981981624948e+000	 6.294966743307519e-001	-1.056002086171981e+000
1	 1.608223969196076e+000	 6.465668096834393e-001	-1.195737781839398e+000
1	 1.601270286891380e+000	 6.636011961111936e-001	-1.308459850430422e+000
1	 1.594120900334306e+000	 6.805965970383868e-001	-1.393600763259972e+000
1	 1.532814571340203e+000	 6.544223722127311e-001	-1.604524724283587e+000
1	 1.525753063169474e+000	 6.707211147754112e-001	-1.717067576564322e+000
1	 1.518503568051552e+000	 6.869761235078752e-001	-1.833680840751853e+000
1	 1.511066254819426e+000	 7.031842541915490e-001	-1.954086935161207e+000
1	 1.503441360402968e+000	 7.193423546795729e-001	-2.078037312985319e+000
1	 1.495629190345228e+000	 7.354472666915337e-001	-2.205313280521467e+000
1	 1.487630119263421e+000	 7.514958276341680e-001	-2.335726772621825e+000
1	 1.479444591253303e+000	 7.674848724460874e-001	-2.469121083042354e+000
1	 1.471073120235707e+000	 7.834112354645308e-001	-2.605371547437739e+000
1	 1.462516290244094e+000	 7.992717523120667e-001	-2.744386176830982e+000
1	 1.453774755652043e+000	 8.150632618011136e-001	-2.886106239476824e+000
1	 1.538945204237500e+000	 6.570397946962920e-001	-1.593725906807441e+000
1	 1.531855452915456e+000	 6.734037255793064e-001	-1.701588455653263e+000
1	 1.524576962775183e+000	 6.897237477146424e-001	-1.813546198250412e+000
1	 1.517109903324919e+000	 7.059967043081323e-001	-1.929359097487666e+000
1	 1.509454512442138e+000	 7.222194306056111e-001	-2.048814843006183e+000
1	 1.501611096891923e+000	 7.383887556948313e-001	-2.171729596159196e+000
1	 1.493580032789782e+000	 7.545015043334429e-001	-2.297948693563573e+000
1	 1.485361766007659e+000	 7.705544988011007e-001	-2.427347307085683e+000
1	 1.476956812521841e+000	 7.865445607736817e-001	-2.559831058177418e+000
1	 1.468365758701666e+000	 8.024685132175328e-001	-2.695336584557176e+000
1	 1.459589261537921e+000	 8.183231823016085e-001	-2.833832057318912e+000
1	 1.545075837135533e+000	 6.596572171791894e-001	-1.580365291820020e+000
1	 1.537957842662119e+000	 6.760863363825016e-001	-1.683717526162921e+000
1	 1.530650357499435e+000	 6.924713719206811e-001	-1.791188363563795e+000
1	 1.523153551830967e+000	 7.088091544239664e-001	-1.902573282816073e+000
1	 1.515467664481798e+000	 7.250965065308890e-001	-2.017694122437951e+000
1	 1.507593003439040e+000	 7.413302446973648e-001	-2.136399754983668e+000
1	 1.499529946316507e+000	 7.575071810319587e-001	-2.258566721456254e+000
1	 1.491278940762324e+000	 7.736241251553686e-001	-2.384099823830006e+000
1	 1.482840504808239e+000	 7.896778860821095e-001	-2.512932673761729e+000
1	 1.474215227159471e+000	 8.056652741223067e-001	-2.645028195648492e+000
1	 1.465403767424016e+000	 8.215831028014514e-001	-2.780379082274282e+000
1	 1.551206470034202e+000	 6.622746396615893e-001	-1.564548601249086e+000
1	 1.544060232409364e+000	 6.787689471851713e-001	-1.663559524887616e+000
1	 1.536723752224209e+000	 6.952189961261734e-001	-1.766710761960453e+000
1	 1.529197200337471e+000	 7.116216045392396e-001	-1.873831302452323e+000
1	 1.521480816521845e+000	 7.279735824555974e-001	-1.984775070559855e+000
1	 1.513574909986478e+000	 7.442717336993273e-001	-2.099421530953293e+000
1	 1.505479859843488e+000	 7.605128577299092e-001	-2.217676256790846e+000
1	 1.497196115517190e+000	 7.766937515090843e-001	-2.339471457655758e+000
1	 1.488724197094792e+000	 7.928112113900053e-001	-2.464766465655792e+000
1	 1.480064695617395e+000	 8.088620350265763e-001	-2.593548178000487e+000
1	 1.471218273310213e+000	 8.248430233008258e-001	-2.725831454454584e+000
1	 1.557337102933408e+000	 6.648920621436569e-001	-1.546379892277626e+000
1	 1.550162622157093e+000	 6.814515579874914e-001	-1.641217539389257e+000
1	 1.542797146949404e+000	 6.979666203313018e-001	-1.740215190128251e+000
1	 1.535240848844329e+000	 7.144340546541393e-001	-1.843233364535870e+000
1	 1.527493968562179e+000	 7.308506583799278e-001	-1.950156033277332e+000
1	 1.519556816534137e+000	 7.472132227009128e-001	-2.060891158433944e+000
1	 1.511429773370626e+000	 7.635185344274887e-001	-2.175371197839354e+000
1	 1.503113290272153e+000	 7.797633778624412e-001	-2.293553571288913e+000
1	 1.494607889381393e+000	 7.959445366975606e-001	-2.415421087018766e+000
1	 1.485914164075328e+000	 8.120587959305301e-001	-2.540982326923686e+000
1	 1.477032779196395e+000	 8.281029437999159e-001	-2.670271989063253e+000
1	 1.563467735833050e+000	 6.675094846255592e-001	-1.525961589982575e+000
1	 1.556265011905203e+000	 6.841341687896364e-001	-1.616793040331965e+000
1	 1.548870541674919e+000	 7.007142445362485e-001	-1.711801848104295e+000
1	 1.541284497351443e+000	 7.172465047688535e-001	-1.810878105471274e+000
1	 1.533507120602699e+000	 7.337277343040723e-001	-1.913933813969517e+000
1	 1.525538723081911e+000	 7.501547117023149e-001	-2.020903362384014e+000
1	 1.517379686897813e+000	 7.665242111248920e-001	-2.131743970107185e+000
1	 1.509030465027107e+000	 7.828330042156327e-001	-2.246436094458082e+000
1	 1.500491581667931e+000	 7.990778620049666e-001	-2.364983800511201e+000
1	 1.491763632533159e+000	 8.152555568343560e-001	-2.487415092054399e+000
1	 1.482847285082444e+000	 8.313628642989046e-001	-2.613782202371475e+000
1	 1.569598368733029e+000	 6.701269071074611e-001	-1.503394519208840e+000
1	 1.562367401653596e+000	 6.868167795917815e-001	-1.590385913058939e+000
1	 1.554943936400655e+000	 7.034618687411961e-001	-1.681569370456304e+000
1	 1.547328145858710e+000	 7.200589548835701e-001	-1.776862620623056e+000
1	 1.539520272643303e+000	 7.366048102282217e-001	-1.876203703613600e+000
1	 1.531520629629700e+000	 7.530962007037272e-001	-1.979551387831955e+000
1	 1.523329600424948e+000	 7.695298878223129e-001	-2.086885555095201e+000
1	 1.514947639781945e+000	 7.859026305688526e-001	-2.198207551879888e+000
1	 1.506375273954299e+000	 8.022111873124145e-001	-2.313540505450362e+000
1	 1.497613100990774e+000	 8.184523177382413e-001	-2.432929603634654e+000
1	 1.488661790968246e+000	 8.346227847979755e-001	-2.556442337085357e+000
1	 1.575729001633243e+000	 6.727443295895290e-001	-1.478777935699039e+000
1	 1.568469791402172e+000	 6.894993903941017e-001	-1.562094488432346e+000
1	 1.561017331126513e+000	 7.062094929463263e-001	-1.649614856736304e+000
1	 1.553371794366031e+000	 7.228714049984765e-001	-1.741282494294075e+000
1	 1.545533424683890e+000	 7.394818861525678e-001	-1.837059510206156e+000
1	 1.537502536177404e+000	 7.560376897053434e-001	-1.936927028666017e+000
1	 1.529279513951928e+000	 7.725355645199454e-001	-2.040885518390454e+000
1	 1.520864814536564e+000	 7.889722569222935e-001	-2.148955090591143e+000
1	 1.512258966240389e+000	 8.053445126200955e-001	-2.261175764331810e+000
1	 1.503462569448062e+000	 8.216490786423748e-001	-2.377607698178910e+000
1	 1.494476296853683e+000	 8.378827052973118e-001	-2.498331387121063e+000
1	 1.581859634533595e+000	 6.753617520719287e-001	-1.452209556499532e+000
1	 1.574572181150829e+000	 6.921820011967721e-001	-1.532015572955811e+000
1	 1.567090725852390e+000	 7.089571171518222e-001	-1.616033901225974e+000
1	 1.559415442873305e+000	 7.256838551137604e-001	-1.704231829006741e+000
1	 1.551546576724361e+000	 7.423589620773023e-001	-1.796593587500219e+000
1	 1.543484442724917e+000	 7.589791787073568e-001	-1.893120655754188e+000
1	 1.535229427478648e+000	 7.755412412179844e-001	-1.993832037103585e+000
1	 1.526781989290855e+000	 7.920418832761493e-001	-2.098764506645455e+000
1	 1.518142658526092e+000	 8.084778379282009e-001	-2.207972828734260e+000
1	 1.509312037904910e+000	 8.248458395469440e-001	-2.321529943543784e+000
1	 1.500290802738639e+000	 8.411426257970976e-001	-2.439527121803783e+000
1	 1.587990267433982e+000	 6.779791745548263e-001	-1.423785589662041e+000
1	 1.580674570899469e+000	 6.948646119999676e-001	-1.500244478199379e+000
1	 1.573164120578188e+000	 7.117047413578652e-001	-1.580920621993123e+000
1	 1.565459091380432e+000	 7.284963052296100e-001	-1.665803274106058e+000
1	 1.557559728764613e+000	 7.452360380026165e-001	-1.754896863076658e+000
1	 1.549466349272140e+000	 7.619206677099614e-001	-1.848221244413012e+000
1	 1.541179341005006e+000	 7.785469179166236e-001	-1.945811926670831e+000
1	 1.532699164044716e+000	 7.951115096306138e-001	-2.047720271191346e+000
1	 1.524026350811299e+000	 8.116111632369228e-001	-2.154013664624383e+000
1	 1.515161506361208e+000	 8.280426004521366e-001	-2.264775663417129e+000
1	 1.506105308622997e+000	 8.444025462975161e-001	-2.380106109506141e+000
1	 1.594120900334306e+000	 6.805965970383868e-001	-1.393600763259971e+000
1	 1.586776960647991e+000	 6.975472228038634e-001	-1.466875049545406e+000
1	 1.579237515303806e+000	 7.144523655646381e-001	-1.544367689277625e+000
1	 1.571502739887311e+000	 7.313087553462129e-001	-1.626088053702519e+000
1	 1.563572880804545e+000	 7.481131139287018e-001	-1.712058865767953e+000
1	 1.555448255818969e+000	 7.648621567133505e-001	-1.802316401242422e+000
1	 1.547129254530897e+000	 7.815525946160573e-001	-1.896910667037446e+000
1	 1.538616338798039e+000	 7.981811359858799e-001	-1.995905555948775e+000
1	 1.529910043095903e+000	 8.147444885464511e-001	-2.099378977077599e+000
1	 1.521010974816841e+000	 8.312393613581415e-001	-2.207422961241951e+000
1	 1.511919814506641e+000	 8.476624667987508e-001	-2.320143740741169e+000
1	 1.453774755652043e+000	 8.150632618011136e-001	-2.886106239476824e+000
1	 1.444847888812251e+000	 8.307849605711887e-001	-3.034905620848288e+000
1	 1.435737784081395e+000	 8.464313247164139e-001	-3.195100209837079e+000
1	 1.426445309176177e+000	 8.619992137246938e-001	-3.366597283291591e+000
1	 1.416971402475017e+000	 8.774854980648936e-001	-3.549254995521650e+000
1	 1.407317072930754e+000	 8.928870611472519e-001	-3.742882118882065e+000
1	 1.397483399918780e+000	 9.082008012876665e-001	-3.947237865933284e+000
1	 1.387471533020204e+000	 9.234236336733949e-001	-4.162031794463984e+000
1	 1.377282691739777e+000	 9.385524923276887e-001	-4.386923796470469e+000
1	 1.366918165158378e+000	 9.535843320708535e-001	-4.621524171990600e+000
1	 1.356379311520008e+000	 9.685161304752106e-001	-4.865393788489502e+000
1	 1.459589261537921e+000	 8.183231823016085e-001	-2.833832057318913e+000
1	 1.450626690872958e+000	 8.341077614523109e-001	-2.979380002015922e+000
1	 1.441480149440036e+000	 8.498167046703964e-001	-3.135957392460177e+000
1	 1.432150508426388e+000	 8.654468588830088e-001	-3.303454463984278e+000
1	 1.422638709963577e+000	 8.809950820421709e-001	-3.481712494448622e+000
1	 1.412945767039864e+000	 8.964582450930405e-001	-3.670523580722905e+000
1	 1.403072763347715e+000	 9.118332339460495e-001	-3.869630496950540e+000
1	 1.393020853066112e+000	 9.271169514504697e-001	-4.078726635806550e+000
1	 1.382791260577346e+000	 9.423063193669026e-001	-4.297456033767579e+000
1	 1.372385280118109e+000	 9.573982803361828e-001	-4.525413481215465e+000
1	 1.361804275364840e+000	 9.723897998421610e-001	-4.762144717992567e+000
1	 1.465403767424016e+000	 8.215831028014514e-001	-2.780379082274282e+000
1	 1.456405492933886e+000	 8.374305623328302e-001	-2.922744336733923e+000
1	 1.447222514798917e+000	 8.532020846238327e-001	-3.075773158410652e+000
1	 1.437855707676866e+000	 8.688945040408381e-001	-3.239341361633448e+000
1	 1.428306017452446e+000	 8.845046660190273e-001	-3.413276024198343e+000
1	 1.418574461149325e+000	 9.000294290384739e-001	-3.597355295562791e+000
1	 1.408662126777046e+000	 9.154656666041431e-001	-3.791308286888970e+000
1	 1.398570173112460e+000	 9.308102692273191e-001	-3.994815044079968e+000
1	 1.388299829415390e+000	 9.460601464059500e-001	-4.207506604759415e+000
1	 1.377852395078342e+000	 9.612122286013992e-001	-4.428965139947267e+000
1	 1.367229239210188e+000	 9.762634692090429e-001	-4.658724180981148e+000
1	 1.471218273310213e+000	 8.248430233008258e-001	-2.725831454454583e+000
1	 1.462184294994912e+000	 8.407533632129244e-001	-2.865079881924906e+000
1	 1.452964880157909e+000	 8.565874645768929e-001	-3.014626257090075e+000
1	 1.443560906927481e+000	 8.723421491983462e-001	-3.174334562071905e+000
1	 1.433973324941484e+000	 8.880142499956196e-001	-3.344020318803222e+000
1	 1.424203155258993e+000	 9.036006129837008e-001	-3.523450424778645e+000
1	 1.414251490206624e+000	 9.190980992620879e-001	-3.712343070581650e+000
1	 1.404119493159094e+000	 9.345035870040727e-001	-3.910367740272061e+000
1	 1.393808398253756e+000	 9.498139734449510e-001	-4.117145295525355e+000
1	 1.383319510038922e+000	 9.650261768666124e-001	-4.332248144215398e+000
1	 1.372654203055902e+000	 9.801371385759574e-001	-4.555200493929567e+000
1	 1.477032779196395e+000	 8.281029437999159e-001	-2.670271989063253e+000
1	 1.467963097055914e+000	 8.440761640927719e-001	-2.806466615003163e+000
1	 1.458707245516883e+000	 8.599728445297498e-001	-2.952594197876231e+000
1	 1.449266106178097e+000	 8.757897943556976e-001	-3.108509445177081e+000
1	 1.439640632430548e+000	 8.915238339721038e-001	-3.274018935499470e+000
1	 1.429831849368722e+000	 9.071717969288694e-001	-3.448880977715027e+000
1	 1.419840853636299e+000	 9.227305319200212e-001	-3.632805551717662e+000
1	 1.409668813205860e+000	 9.381969047808599e-001	-3.825454331765810e+000
1	 1.399316967092287e+000	 9.535678004840261e-001	-4.026440793261559e+000
1	 1.388786624999699e+000	 9.688401251319329e-001	-4.235330403606390e+000
1	 1.378079166901831e+000	 9.840108079430039e-001	-4.451640897570350e+000
1	 1.482847285082444e+000	 8.313628642989046e-001	-2.613782202371476e+000
1	 1.473741899116773e+000	 8.473989649725507e-001	-2.746983258960485e+000
1	 1.464449610875713e+000	 8.633582244825743e-001	-2.889753274434726e+000
1	 1.454971305428580e+000	 8.792374395130571e-001	-3.041940208514818e+000
1	 1.445307939919501e+000	 8.950334179486370e-001	-3.203344277799367e+000
1	 1.435460543478365e+000	 9.107429808741275e-001	-3.373717834270771e+000
1	 1.425430217065921e+000	 9.263629645780832e-001	-3.552765325019272e+000
1	 1.415218133252607e+000	 9.418902225578115e-001	-3.740143334172679e+000
1	 1.404825535930833e+000	 9.573216275232955e-001	-3.935460707825608e+000
1	 1.394253739960518e+000	 9.726540733974712e-001	-4.138278762565023e+000
1	 1.383504130747827e+000	 9.878844773102833e-001	-4.348111577984970e+000
1	 1.488661790968246e+000	 8.346227847979755e-001	-2.556442337085358e+000
1	 1.479520701177364e+000	 8.507217658524385e-001	-2.686707306864236e+000
1	 1.470191976234270e+000	 8.667436044355391e-001	-2.826178588461068e+000
1	 1.460676504678797e+000	 8.826850846705892e-001	-2.974699890429201e+000
1	 1.450975247408202e+000	 8.985430019253763e-001	-3.132067618022620e+000
1	 1.441089237587779e+000	 9.143141648196237e-001	-3.298030766956102e+000
1	 1.431019580495339e+000	 9.299953972364131e-001	-3.472290897899175e+000
1	 1.420767453299181e+000	 9.455835403350569e-001	-3.654502192654098e+000
1	 1.410334104769236e+000	 9.610754545628794e-001	-3.844271592776110e+000
1	 1.399720854921226e+000	 9.764680216633375e-001	-4.041159021195557e+000
1	 1.388929094593738e+000	 9.917581466778956e-001	-4.244677687200674e+000
1	 1.494476296853683e+000	 8.378827052973118e-001	-2.498331387121063e+000
1	 1.485299503237567e+000	 8.540445667326138e-001	-2.625715045783386e+000
1	 1.475934341592428e+000	 8.701289843888155e-001	-2.761944072868512e+000
1	 1.466381703928612e+000	 8.861327298284578e-001	-2.906860392593093e+000
1	 1.456642554896511e+000	 9.020525859024777e-001	-3.060259119301836e+000
1	 1.446717931696817e+000	 9.178853487655067e-001	-3.221888462435411e+000
1	 1.436608943924405e+000	 9.336278298951505e-001	-3.391449711612297e+000
1	 1.426316773345427e+000	 9.492768581127260e-001	-3.568597302745224e+000
1	 1.415842673607342e+000	 9.648292816028974e-001	-3.752938965921278e+000
1	 1.405187969881668e+000	 9.802819699296413e-001	-3.944035955577689e+000
1	 1.394354058439414e+000	 9.956318160459410e-001	-4.141403363305795e+000
1	 1.500290802738639e+000	 8.411426257970976e-001	-2.439527121803783e+000
1	 1.491078305297259e+000	 8.573673676132541e-001	-2.564081580158330e+000
1	 1.481676706950058e+000	 8.735143643425752e-001	-2.697122514436573e+000
1	 1.472086903177893e+000	 8.895803749868285e-001	-2.838492502034655e+000
1	 1.462309862384287e+000	 9.055621698800983e-001	-2.987987857076290e+000
1	 1.452346625805334e+000	 9.214565327119234e-001	-3.145358542568331e+000
1	 1.442198307352966e+000	 9.372602625544341e-001	-3.310308161915755e+000
1	 1.431866093391196e+000	 9.529701758909489e-001	-3.482494030694552e+000
1	 1.421351242444999e+000	 9.685831086434706e-001	-3.661527329389526e+000
1	 1.410655084841691e+000	 9.840959181964941e-001	-3.846973337610071e+000
1	 1.399779022284706e+000	 9.995054854145197e-001	-4.038351750098348e+000
1	 1.506105308622997e+000	 8.444025462975161e-001	-2.380106109506141e+000
1	 1.496857107356318e+000	 8.606901684945385e-001	-2.501880854629272e+000
1	 1.487419072307031e+000	 8.768997442969899e-001	-2.631785575935007e+000
1	 1.477792102426505e+000	 8.930280201458656e-001	-2.769665912653387e+000
1	 1.467977169871392e+000	 9.090717538583950e-001	-2.915321840087844e+000
1	 1.457975319913183e+000	 9.250277166590232e-001	-3.068507584963964e+000
1	 1.447787670780874e+000	 9.408926952144032e-001	-3.228931619250265e+000
1	 1.437415413436331e+000	 9.566634936698549e-001	-3.396256733332430e+000
1	 1.426859811282049e+000	 9.723369356847182e-001	-3.570100189235328e+000
1	 1.416122199801143e+000	 9.879098664640057e-001	-3.750033954393998e+000
1	 1.405203986129465e+000	 1.003379154783733e+000	-3.935585016278410e+000
1	 1.511919814506641e+000	 8.476624667987508e-001	-2.320143740741169e+000
1	 1.502635909414624e+000	 8.640129693766441e-001	-2.439185676337979e+000
1	 1.493161437663220e+000	 8.802851242522312e-001	-2.566003817737211e+000
1	 1.483497301674313e+000	 8.964756653057330e-001	-2.700449246239812e+000
1	 1.473644477357683e+000	 9.125813378375239e-001	-2.842328030892202e+000
1	 1.463604014020220e+000	 9.285989006069539e-001	-2.991401143060672e+000
1	 1.453377034207980e+000	 9.445251278751972e-001	-3.147384448455817e+000
1	 1.442964733480680e+000	 9.603568114495741e-001	-3.309948777480993e+000
1	 1.432368380118340e+000	 9.760907627267612e-001	-3.478720074592694e+000
1	 1.421589314759868e+000	 9.917238147322857e-001	-3.653279627170100e+000
1	 1.410628949973539e+000	 1.007252824153679e+000	-3.833164374198551e+000
1	 1.356379311520008e+000	 9.685161304752106e-001	-4.865393788489502e+000
1	 1.345667557370631e+000	 9.833448894836275e-001	-5.118860219732020e+000
1	 1.334784395877035e+000	 9.980676363412555e-001	-5.382817424560985e+000
1	 1.323731387386189e+000	 1.012681426466225e+000	-5.657651725831616e+000
1	 1.312510159140009e+000	 1.027183345679557e+000	-5.943765888411500e+000
1	 1.301122404540689e+000	 1.041570512093714e+000	-6.241578281854661e+000
1	 1.289569882352404e+000	 1.055840077979967e+000	-6.551522003774057e+000
1	 1.277854415840096e+000	 1.069989231612100e+000	-6.874043965600343e+000
1	 1.265977891846146e+000	 1.084015199083979e+000	-7.209603942528247e+000
1	 1.253942259805881e+000	 1.097915246098555e+000	-7.558673589557712e+000
1	 1.241749530702945e+000	 1.111686679725904e+000	-7.921735425641879e+000
1	 1.361804275364840e+000	 9.723897998421610e-001	-4.762144717992567e+000
1	 1.351049678569120e+000	 9.872778678367018e-001	-5.008230492082754e+000
1	 1.340122988869792e+000	 1.002059499675142e+000	-5.264831247128741e+000
1	 1.329025772854573e+000	 1.016731738998476e+000	-5.532337808603274e+000
1	 1.317759664273673e+000	 1.031291659972187e+000	-5.811156573696186e+000
1	 1.306326363302200e+000	 1.045736369182350e+000	-6.101708660303790e+000
1	 1.294727635738664e+000	 1.060063007510474e+000	-6.404429018220526e+000
1	 1.282965312140314e+000	 1.074268751984574e+000	-6.719765504258051e+000
1	 1.271041286896127e+000	 1.088350817604013e+000	-7.048177923124685e+000
1	 1.258957517238369e+000	 1.102306459135656e+000	-7.390137036002185e+000
1	 1.246716022193793e+000	 1.116132972878948e+000	-7.746123538855362e+000
1	 1.367229239210188e+000	 9.762634692090429e-001	-4.658724180981148e+000
1	 1.356431799768122e+000	 9.912108461897435e-001	-4.897612765758080e+000
1	 1.345461581863046e+000	 1.006051363009023e+000	-5.147046272920338e+000
1	 1.334320158323423e+000	 1.020782051530740e+000	-5.407412785421178e+000
1	 1.323009169407765e+000	 1.035399974264841e+000	-5.679114850650976e+000
1	 1.311530322064093e+000	 1.049902226271017e+000	-5.962568627758072e+000
1	 1.299885389125255e+000	 1.064285937041014e+000	-6.258202999161967e+000
1	 1.288076208440811e+000	 1.078548272357080e+000	-6.566458647995115e+000
1	 1.276104681946334e+000	 1.092686436124073e+000	-6.887787103315085e+000
1	 1.263972774671036e+000	 1.106697672172779e+000	-7.222649755025393e+000
1	 1.251682513684775e+000	 1.120579266032010e+000	-7.571516840539148e+000
1	 1.372654203055902e+000	 9.801371385759574e-001	-4.555200493929566e+000
1	 1.361813920967494e+000	 9.951438245428429e-001	-4.787073799923541e+000
1	 1.350800174856662e+000	 1.010043226342979e+000	-5.029525915037901e+000
1	 1.339614543792616e+000	 1.024832364063088e+000	-5.282935017325516e+000
1	 1.328258674542174e+000	 1.039508288557581e+000	-5.547692406868693e+000
1	 1.316734280826272e+000	 1.054068083359768e+000	-5.824201663372230e+000
1	 1.305043142512094e+000	 1.068508866571631e+000	-6.112877770418922e+000
1	 1.293187104741517e+000	 1.082827792729652e+000	-6.414146208114246e+000
1	 1.281168076996712e+000	 1.097022054644190e+000	-6.728442015943946e+000
1	 1.268988032103835e+000	 1.111088885209946e+000	-7.056208827760916e+000
1	 1.256649005175858e+000	 1.125025559185105e+000	-7.397897880904512e+000
1	 1.378079166901831e+000	 9.840108079430039e-001	-4.451640897570350e+000
1	 1.367196042167092e+000	 9.990768028960905e-001	-4.676679302524859e+000
1	 1.356138767850504e+000	 1.014035089677089e+000	-4.912332588052832e+000
1	 1.344908929262028e+000	 1.028882676595589e+000	-5.158961946377576e+000
1	 1.333508179676787e+000	 1.043616602850469e+000	-5.416940116046571e+000
1	 1.321938239588635e+000	 1.058233940448654e+000	-5.686650561659319e+000
1	 1.310200895899095e+000	 1.072731796102369e+000	-5.968486623207748e+000
1	 1.298298001042361e+000	 1.087107313102328e+000	-6.262850636721711e+000
1	 1.286231472047204e+000	 1.101357673164391e+000	-6.570153028001542e+000
1	 1.274003289536723e+000	 1.115480098247180e+000	-6.890811381304923e+000
1	 1.261615496667008e+000	 1.129471852338250e+000	-7.225249484935235e+000
1	 1.383504130747827e+000	 9.878844773102833e-001	-4.348111577984970e+000
1	 1.372578163366772e+000	 1.003009781249576e+000	-4.566493950898520e+000
1	 1.361477360844436e+000	 1.018026953011434e+000	-4.795527727582610e+000
1	 1.350203314731536e+000	 1.032932989128315e+000	-5.035550113677430e+000
1	 1.338757684811494e+000	 1.047724917143565e+000	-5.286908053943503e+000
1	 1.327142198351086e+000	 1.062399797537729e+000	-5.549957445913623e+000
1	 1.315358649286176e+000	 1.076954725633270e+000	-5.825062326582360e+000
1	 1.303408897343274e+000	 1.091386833475143e+000	-6.112594033769723e+000
1	 1.291294867097751e+000	 1.105693291684706e+000	-6.412930343875358e+000
1	 1.279018546969656e+000	 1.119871311284503e+000	-6.726454587814582e+000
1	 1.266581988158192e+000	 1.133918145491462e+000	-7.053554747000638e+000
1	 1.388929094593738e+000	 9.917581466778956e-001	-4.244677687200674e+000
1	 1.377960284566391e+000	 1.006942759603390e+000	-4.456581411898276e+000
1	 1.366815953838327e+000	 1.022018816346095e+000	-4.679171809409309e+000
1	 1.355497700201014e+000	 1.036983301661337e+000	-4.912755176958733e+000
1	 1.344007189946183e+000	 1.051833231436931e+000	-5.157645513963000e+000
1	 1.332346157113527e+000	 1.066565654627043e+000	-5.414163781319116e+000
1	 1.320516402673251e+000	 1.081177655164380e+000	-5.682637137631716e+000
1	 1.308519793644184e+000	 1.095666353848132e+000	-5.963398153933699e+000
1	 1.296358262148298e+000	 1.110028910205162e+000	-6.256784008525951e+000
1	 1.284033804402589e+000	 1.124262524321937e+000	-6.563135663628184e+000
1	 1.271548479649375e+000	 1.138364438644758e+000	-6.882797025594670e+000
1	 1.394354058439414e+000	 9.956318160459410e-001	-4.141403363305795e+000
1	 1.383342405765805e+000	 1.010875737957623e+000	-4.347004361552805e+000
1	 1.372154546832039e+000	 1.026010679681152e+000	-4.563324368151339e+000
1	 1.360792085670339e+000	 1.041033614194725e+000	-4.790631927773625e+000
1	 1.349256695080741e+000	 1.055941545730628e+000	-5.029201022372836e+000
1	 1.337550115875858e+000	 1.070731511716650e+000	-5.279310387751751e+000
1	 1.325674156060236e+000	 1.085400584695741e+000	-5.541242811439471e+000
1	 1.313630689945021e+000	 1.099945874221332e+000	-5.815284413329134e+000
1	 1.301421657198787e+000	 1.114364528725790e+000	-6.101723910587990e+000
1	 1.289049061835477e+000	 1.128653737359504e+000	-6.400851868405711e+000
1	 1.276514971140525e+000	 1.142810731798155e+000	-6.712959938197703e+000
1	 1.399779022284706e+000	 9.995054854145197e-001	-4.038351750098348e+000
1	 1.388724526964869e+000	 1.014808716312365e+000	-4.237824504265622e+000
1	 1.377493139825438e+000	 1.030002543016684e+000	-4.448044015501328e+000
1	 1.366086471139387e+000	 1.045083926728551e+000	-4.669234308276846e+000
1	 1.354506200215058e+000	 1.060049860024718e+000	-4.901622353170296e+000
1	 1.342754074637983e+000	 1.074897368806602e+000	-5.145437452284422e+000
1	 1.330831909447048e+000	 1.089623514227398e+000	-5.400910610811430e+000
1	 1.318741586245716e+000	 1.104225394594779e+000	-5.668273896071891e+000
1	 1.306485052249162e+000	 1.118700147246616e+000	-5.947759785399673e+000
1	 1.294064319268276e+000	 1.133044950397226e+000	-6.239600504289228e+000
1	 1.281481462631608e+000	 1.147257024951669e+000	-6.544027356257948e+000
1	 1.405203986129465e+000	 1.003379154783733e+000	-3.935585016278409e+000
1	 1.394106648163441e+000	 1.018741694667706e+000	-4.129102591570502e+000
1	 1.382831732818390e+000	 1.033994406352774e+000	-4.333388458041530e+000
1	 1.371380856608035e+000	 1.049134239262883e+000	-4.548615427622413e+000
1	 1.359755705349022e+000	 1.064158174319261e+000	-4.774956542603508e+000
1	 1.347958033399803e+000	 1.079063225896950e+000	-5.012584541401703e+000
1	 1.335989662833601e+000	 1.093846443759394e+000	-5.261671315778389e+000
1	 1.323852482546198e+000	 1.108504914968508e+000	-5.522387360687120e+000
1	 1.311548447299365e+000	 1.123035765767670e+000	-5.794901217961738e+000
1	 1.299079576700941e+000	 1.137436163435127e+000	-6.079378915083003e+000
1	 1.286447954122590e+000	 1.151703318105316e+000	-6.375983400288982e+000
1	 1.410628949973539e+000	 1.007252824153679e+000	-3.833164374198551e+000
1	 1.399488769361377e+000	 1.022674673023736e+000	-4.020898440454063e+000
1	 1.388170325810758e+000	 1.037986269689500e+000	-4.219414514647926e+000
1	 1.376675242076157e+000	 1.053184551797793e+000	-4.428827577980692e+000
1	 1.365005210482521e+000	 1.068266488614319e+000	-4.649249903357323e+000
1	 1.353161992161219e+000	 1.083229082987748e+000	-4.880790612933292e+000
1	 1.341147416219812e+000	 1.098069373291773e+000	-5.123555232878941e+000
1	 1.328963378846395e+000	 1.112784435342554e+000	-5.377645246369862e+000
1	 1.316611842349339e+000	 1.127371384288980e+000	-5.643157645828294e+000
1	 1.304094834133428e+000	 1.141827376473227e+000	-5.920184485452132e+000
1	 1.291414445613439e+000	 1.156149611259114e+000	-6.208812435080673e+000
1	 1.241749530702945e+000	 1.111686679725904e+000	-7.921735425641879e+000
1	 1.229403639738536e+000	 1.125324814353805e+000	-8.286255161807123e+000
1	 1.216904900482188e+000	 1.138829122302628e+000	-8.639589268292637e+000
1	 1.204255501786119e+000	 1.152197047172691e+000	-8.981896860007986e+000
1	 1.191457689237918e+000	 1.165426080602269e+000	-9.313336524832170e+000
1	 1.178513763834143e+000	 1.178513763834143e+000	-9.634066461751566e+000
1	 1.165426080602269e+000	 1.191457689237918e+000	-9.944244624864579e+000
1	 1.152197047172691e+000	 1.204255501786119e+000	-1.024402887276663e+001
1	 1.138829122302628e+000	 1.216904900482188e+000	-1.053357712281243e+001
1	 1.125324814353805e+000	 1.229403639738537e+000	-1.081304750973488e+001
1	 1.111686679725904e+000	 1.241749530702945e+000	-1.108259854808647e+001
1	 1.246716022193793e+000	 1.116132972878948e+000	-7.746123538855362e+000
1	 1.234320752702791e+000	 1.129825654481125e+000	-8.103508261084109e+000
1	 1.221772023589038e+000	 1.143383974152054e+000	-8.449534322465517e+000
1	 1.209072032459265e+000	 1.156805365267505e+000	-8.784332862607673e+000
1	 1.196223033882487e+000	 1.170087309433334e+000	-9.108033301171043e+000
1	 1.183227338058305e+000	 1.183227338058305e+000	-9.420763529625363e+000
1	 1.170087309433334e+000	 1.196223033882487e+000	-9.722650111092692e+000
1	 1.156805365267504e+000	 1.209072032459265e+000	-1.001381848767304e+001
1	 1.143383974152054e+000	 1.221772023589038e+000	-1.029439319462598e+001
1	 1.129825654481125e+000	 1.234320752702791e+000	-1.056449808075882e+001
1	 1.116132972878949e+000	 1.246716022193793e+000	-1.082425653435375e+001
1	 1.251682513684775e+000	 1.120579266032010e+000	-7.571516840539148e+000
1	 1.239237865667143e+000	 1.134326494608457e+000	-7.921659479391226e+000
1	 1.226639146695958e+000	 1.147938826001489e+000	-8.260217855339853e+000
1	 1.213888563132458e+000	 1.161413683362326e+000	-8.587309730856433e+000
1	 1.200988378527087e+000	 1.174748538264411e+000	-8.903050528390137e+000
1	 1.187940912282485e+000	 1.187940912282484e+000	-9.207553548652255e+000
1	 1.174748538264411e+000	 1.200988378527087e+000	-9.500930198190108e+000
1	 1.161413683362327e+000	 1.213888563132458e+000	-9.783290225588718e+000
1	 1.147938826001489e+000	 1.226639146695958e+000	-1.005474196561009e+001
1	 1.134326494608457e+000	 1.239237865667143e+000	-1.031539259055848e+001
1	 1.120579266032010e+000	 1.251682513684776e+000	-1.056534836813424e+001
1	 1.256649005175858e+000	 1.125025559185105e+000	-7.397897880904511e+000
1	 1.244154978631569e+000	 1.138827334735813e+000	-7.740678750669336e+000
1	 1.231506269802929e+000	 1.152493677850942e+000	-8.071601909846727e+000
1	 1.218705093805686e+000	 1.166022001457163e+000	-8.390786165345546e+000
1	 1.205753723171710e+000	 1.179409767095502e+000	-8.698347932327055e+000
1	 1.192654486506682e+000	 1.192654486506682e+000	-8.994401452105739e+000
1	 1.179409767095502e+000	 1.205753723171710e+000	-9.279059019532616e+000
1	 1.166022001457163e+000	 1.218705093805686e+000	-9.552431219198947e+000
1	 1.152493677850942e+000	 1.231506269802929e+000	-9.814627169770972e+000
1	 1.138827334735813e+000	 1.244154978631569e+000	-1.006575477574041e+001
1	 1.125025559185105e+000	 1.256649005175858e+000	-1.030592098585445e+001
1	 1.261615496667008e+000	 1.129471852338250e+000	-7.225249484935235e+000
1	 1.249072091596043e+000	 1.143328174863207e+000	-7.560536482293335e+000
1	 1.236373392909934e+000	 1.157048529700422e+000	-7.883649126606533e+000
1	 1.223521624478938e+000	 1.170630319552019e+000	-8.194721516985366e+000
1	 1.210519067816351e+000	 1.184070995926608e+000	-8.493885872994643e+000
1	 1.197368060730894e+000	 1.197368060730893e+000	-8.781272725436224e+000
1	 1.184070995926608e+000	 1.210519067816351e+000	-9.057011115803615e+000
1	 1.170630319552019e+000	 1.223521624478938e+000	-9.321228803803745e+000
1	 1.157048529700422e+000	 1.236373392909934e+000	-9.574052482317311e+000
1	 1.143328174863206e+000	 1.249072091596043e+000	-9.815607999143671e+000
1	 1.129471852338250e+000	 1.261615496667008e+000	-1.004602058485852e+001
1	 1.266581988158192e+000	 1.133918145491462e+000	-7.053554747000638e+000
1	 1.253989204560542e+000	 1.147829014990649e+000	-7.381203545790148e+000
1	 1.241240516016958e+000	 1.161603381549936e+000	-7.696322732210737e+000
1	 1.228338155152204e+000	 1.175238637646899e+000	-7.999075774255541e+000
1	 1.215284412461003e+000	 1.188732224757730e+000	-8.289625332147322e+000
1	 1.202081634955118e+000	 1.202081634955118e+000	-8.568133395444406e+000
1	 1.188732224757730e+000	 1.215284412461003e+000	-8.834761427008203e+000
1	 1.175238637646899e+000	 1.228338155152204e+000	-9.089670513344998e+000
1	 1.161603381549936e+000	 1.241240516016958e+000	-9.333021520813125e+000
1	 1.147829014990649e+000	 1.253989204560542e+000	-9.564975257167928e+000
1	 1.133918145491462e+000	 1.266581988158192e+000	-9.785692637898430e+000
1	 1.271548479649375e+000	 1.138364438644758e+000	-6.882797025594670e+000
1	 1.258906317525041e+000	 1.152329855118152e+000	-7.202651267773904e+000
1	 1.246107639123982e+000	 1.166158233399493e+000	-7.509586527778435e+000
1	 1.233154685825472e+000	 1.179846955741808e+000	-7.803809550753639e+000
1	 1.220049757105661e+000	 1.193393453588871e+000	-8.085527901139043e+000
1	 1.206795209179352e+000	 1.206795209179352e+000	-8.354950019709431e+000
1	 1.193393453588871e+000	 1.220049757105661e+000	-8.612285284674941e+000
1	 1.179846955741807e+000	 1.233154685825472e+000	-8.857744076527180e+000
1	 1.166158233399493e+000	 1.246107639123982e+000	-9.091537846303652e+000
1	 1.152329855118152e+000	 1.258906317525041e+000	-9.313879186929613e+000
1	 1.138364438644758e+000	 1.271548479649375e+000	-9.524981907284952e+000
1	 1.276514971140525e+000	 1.142810731798155e+000	-6.712959938197703e+000
1	 1.263823430489515e+000	 1.156830695245728e+000	-7.024851421093444e+000
1	 1.250974762230989e+000	 1.170713085249101e+000	-7.323404877779701e+000
1	 1.237971216498730e+000	 1.184455273836749e+000	-7.608884073034420e+000
1	 1.224815101750318e+000	 1.198054682420031e+000	-7.881555769064471e+000
1	 1.211508783403595e+000	 1.211508783403595e+000	-8.141689676263621e+000
1	 1.198054682420031e+000	 1.224815101750318e+000	-8.389558404239489e+000
1	 1.184455273836749e+000	 1.237971216498730e+000	-8.625437413028815e+000
1	 1.170713085249101e+000	 1.250974762230990e+000	-8.849604964414326e+000
1	 1.156830695245728e+000	 1.263823430489516e+000	-9.062342073251205e+000
1	 1.142810731798155e+000	 1.276514971140525e+000	-9.263932458708009e+000
1	 1.281481462631608e+000	 1.147257024951669e+000	-6.544027356257950e+000
1	 1.268740543453941e+000	 1.161331535373390e+000	-6.847776216184559e+000
1	 1.255841885337964e+000	 1.175267937098768e+000	-7.137742699119097e+000
1	 1.242787747171970e+000	 1.189063591931730e+000	-7.414261168732056e+000
1	 1.229580446394968e+000	 1.202715911251213e+000	-7.677671711175960e+000
1	 1.216222357627845e+000	 1.216222357627845e+000	-7.928319953506755e+000
1	 1.202715911251212e+000	 1.229580446394968e+000	-8.166556877604823e+000
1	 1.189063591931730e+000	 1.242787747171970e+000	-8.392738629801437e+000
1	 1.175267937098769e+000	 1.255841885337964e+000	-8.607226326425145e+000
1	 1.161331535373390e+000	 1.268740543453941e+000	-8.810385855488017e+000
1	 1.147257024951669e+000	 1.281481462631608e+000	-9.002587674735924e+000
1	 1.286447954122590e+000	 1.151703318105316e+000	-6.375983400288982e+000
1	 1.273657656418294e+000	 1.165832375501149e+000	-6.671398292623722e+000
1	 1.260709008444888e+000	 1.179822788948504e+000	-6.952565450471804e+000
1	 1.247604277845178e+000	 1.193671910026754e+000	-7.219903254957605e+000
1	 1.234345791039605e+000	 1.207377140082416e+000	-7.473839077568880e+000
1	 1.220935931852098e+000	 1.220935931852098e+000	-7.714808940354684e+000
1	 1.207377140082416e+000	 1.234345791039605e+000	-7.943257165874839e+000
1	 1.193671910026753e+000	 1.247604277845179e+000	-8.159636017454917e+000
1	 1.179822788948504e+000	 1.260709008444888e+000	-8.364405330319698e+000
1	 1.165832375501150e+000	 1.273657656418294e+000	-8.558032134196800e+000
1	 1.151703318105316e+000	 1.286447954122590e+000	-8.740990268001392e+000
1	 1.291414445613439e+000	 1.156149611259114e+000	-6.208812435080673e+000
1	 1.278574769382549e+000	 1.170333215629018e+000	-6.495690710875941e+000
1	 1.265576131551744e+000	 1.184377640798316e+000	-6.767839121866213e+000
1	 1.252420808518344e+000	 1.198280228121825e+000	-7.025773326963602e+000
1	 1.239111135684223e+000	 1.212038368913644e+000	-7.270021782128209e+000
1	 1.225649506076354e+000	 1.225649506076354e+000	-7.501125216614895e+000
1	 1.212038368913644e+000	 1.239111135684222e+000	-7.719636092254526e+000
1	 1.198280228121825e+000	 1.252420808518344e+000	-7.926118046725995e+000
1	 1.184377640798316e+000	 1.265576131551744e+000	-8.121145321809681e+000
1	 1.170333215629018e+000	 1.278574769382549e+000	-8.305302177650322e+000
1	 1.156149611259114e+000	 1.291414445613438e+000	-8.479182294083987e+000
1	 1.111686679725904e+000	 1.241749530702945e+000	-1.108259854808647e+001
1	 1.097915246098555e+000	 1.253942259805881e+000	-1.133529636460019e+001
1	 1.084015199083980e+000	 1.265977891846146e+000	-1.156549100906430e+001
1	 1.069989231612100e+000	 1.277854415840096e+000	-1.177542237085750e+001
1	 1.055840077979967e+000	 1.289569882352404e+000	-1.196737555153103e+001
1	 1.041570512093714e+000	 1.301122404540689e+000	-1.214367732176891e+001
1	 1.027183345679557e+000	 1.312510159140009e+000	-1.230669252358413e+001
1	 1.012681426466225e+000	 1.323731387386190e+000	-1.245882042528301e+001
1	 9.980676363412553e-001	 1.334784395877035e+000	-1.260249103680757e+001
1	 9.833448894836278e-001	 1.345667557370631e+000	-1.274016139311771e+001
1	 9.685161304752106e-001	 1.356379311520008e+000	-1.287431181330756e+001
1	 1.116132972878949e+000	 1.246716022193793e+000	-1.082425653435375e+001
1	 1.102306459135656e+000	 1.258957517238369e+000	-1.106693033435415e+001
1	 1.088350817604013e+000	 1.271041286896127e+000	-1.128718466471888e+001
1	 1.074268751984574e+000	 1.282965312140314e+000	-1.148740224246542e+001
1	 1.060063007510474e+000	 1.294727635738664e+000	-1.167001586979335e+001
1	 1.045736369182350e+000	 1.306326363302200e+000	-1.183750459090105e+001
1	 1.031291659972187e+000	 1.317759664273673e+000	-1.199238978673419e+001
1	 1.016731738998476e+000	 1.329025772854573e+000	-1.213723121589152e+001
1	 1.002059499675142e+000	 1.340122988869793e+000	-1.227462301000267e+001
1	 9.872778678367018e-001	 1.351049678569120e+000	-1.240718963195670e+001
1	 9.723897998421612e-001	 1.361804275364840e+000	-1.253758180540062e+001
1	 1.120579266032010e+000	 1.251682513684776e+000	-1.056534836813424e+001
1	 1.106697672172779e+000	 1.263972774671036e+000	-1.079810225956775e+001
1	 1.092686436124073e+000	 1.276104681946334e+000	-1.100864410361807e+001
1	 1.078548272357080e+000	 1.288076208440811e+000	-1.119947816292761e+001
1	 1.064285937041014e+000	 1.299885389125255e+000	-1.137316293436276e+001
1	 1.049902226271017e+000	 1.311530322064094e+000	-1.153230704724576e+001
1	 1.035399974264841e+000	 1.323009169407765e+000	-1.167956509326563e+001
1	 1.020782051530740e+000	 1.334320158323423e+000	-1.181763339689426e+001
1	 1.006051363009023e+000	 1.345461581863046e+000	-1.194924573522794e+001
1	 9.912108461897440e-001	 1.356431799768123e+000	-1.207716901625414e+001
1	 9.762634692090429e-001	 1.367229239210187e+000	-1.220419892458689e+001
1	 1.125025559185105e+000	 1.256649005175858e+000	-1.030592098585445e+001
1	 1.111088885209946e+000	 1.268988032103835e+000	-1.052888046212305e+001
1	 1.097022054644190e+000	 1.281168076996712e+000	-1.072995250877093e+001
1	 1.082827792729652e+000	 1.293187104741517e+000	-1.091174191355115e+001
1	 1.068508866571631e+000	 1.305043142512093e+000	-1.107691112911578e+001
1	 1.054068083359768e+000	 1.316734280826272e+000	-1.122817595393564e+001
1	 1.039508288557581e+000	 1.328258674542173e+000	-1.136830113969365e+001
1	 1.024832364063088e+000	 1.339614543792616e+000	-1.150009593448028e+001
1	 1.010043226342979e+000	 1.350800174856662e+000	-1.162640957122588e+001
1	 9.951438245428430e-001	 1.361813920967494e+000	-1.175012671088868e+001
1	 9.801371385759574e-001	 1.372654203055902e+000	-1.187416284997083e+001
1	 1.129471852338250e+000	 1.261615496667008e+000	-1.004602058485852e+001
1	 1.115480098247180e+000	 1.274003289536723e+000	-1.025933218807425e+001
1	 1.101357673164392e+000	 1.286231472047204e+000	-1.045119175334911e+001
1	 1.087107313102328e+000	 1.298298001042362e+000	-1.062428383041315e+001
1	 1.072731796102369e+000	 1.310200895899095e+000	-1.078135335171735e+001
1	 1.058233940448655e+000	 1.321938239588635e+000	-1.092520113703251e+001
1	 1.043616602850469e+000	 1.333508179676787e+000	-1.105867932035649e+001
1	 1.028882676595589e+000	 1.344908929262028e+000	-1.118468670886592e+001
1	 1.014035089677089e+000	 1.356138767850504e+000	-1.130616408376740e+001
1	 9.990768028960902e-001	 1.367196042167092e+000	-1.142608945298850e+001
1	 9.840108079430038e-001	 1.378079166901831e+000	-1.154747326570996e+001
1	 1.133918145491462e+000	 1.266581988158192e+000	-9.785692637898428e+000
1	 1.119871311284503e+000	 1.279018546969656e+000	-9.989523628740887e+000
1	 1.105693291684706e+000	 1.291294867097751e+000	-1.017244242636707e+001
1	 1.091386833475143e+000	 1.303408897343274e+000	-1.033719283269511e+001
1	 1.076954725633270e+000	 1.315358649286176e+000	-1.048658104275926e+001
1	 1.062399797537729e+000	 1.327142198351086e+000	-1.062347101370248e+001
1	 1.047724917143565e+000	 1.338757684811494e+000	-1.075077975294567e+001
1	 1.032932989128316e+000	 1.350203314731536e+000	-1.087147253558567e+001
1	 1.018026953011434e+000	 1.361477360844436e+000	-1.098855806119875e+001
1	 1.003009781249576e+000	 1.372578163366772e+000	-1.110508356031803e+001
1	 9.878844773102833e-001	 1.383504130747827e+000	-1.122412986091613e+001
1	 1.138364438644758e+000	 1.271548479649375e+000	-9.524981907284953e+000
1	 1.124262524321937e+000	 1.284033804402589e+000	-9.719519941305750e+000
1	 1.110028910205163e+000	 1.296358262148297e+000	-9.893783857760903e+000
1	 1.095666353848132e+000	 1.308519793644184e+000	-1.005055645035456e+001
1	 1.081177655164380e+000	 1.320516402673251e+000	-1.019268421421618e+001
1	 1.066565654627043e+000	 1.332346157113527e+000	-1.032307261973052e+001
1	 1.051833231436931e+000	 1.344007189946183e+000	-1.044468130343828e+001
1	 1.036983301661338e+000	 1.355497700201014e+000	-1.056051918628529e+001
1	 1.022018816346095e+000	 1.366815953838327e+000	-1.067363952962406e+001
1	 1.006942759603390e+000	 1.377960284566391e+000	-1.078713493946720e+001
1	 9.917581466778954e-001	 1.388929094593737e+000	-1.090413232955845e+001
1	 1.142810731798155e+000	 1.276514971140525e+000	-9.263932458708009e+000
1	 1.128653737359504e+000	 1.289049061835476e+000	-9.449385268932071e+000
1	 1.114364528725790e+000	 1.301421657198787e+000	-9.615294142881666e+000
1	 1.099945874221332e+000	 1.313630689945021e+000	-9.764460851149504e+000
1	 1.085400584695741e+000	 1.325674156060237e+000	-9.899751477236594e+000
1	 1.070731511716650e+000	 1.337550115875858e+000	-1.002409163639303e+001
1	 1.055941545730628e+000	 1.349256695080741e+000	-1.014046161044665e+001
1	 1.041033614194725e+000	 1.360792085670339e+000	-1.025189140902860e+001
1	 1.026010679681151e+000	 1.372154546832039e+000	-1.036145576773345e+001
1	 1.010875737957623e+000	 1.383342405765804e+000	-1.047226909385100e+001
1	 9.956318160459409e-001	 1.394354058439414e+000	-1.058748037036886e+001
1	 1.147257024951669e+000	 1.281481462631608e+000	-9.002587674735924e+000
1	 1.133044950397227e+000	 1.294064319268276e+000	-9.179182760413676e+000
1	 1.118700147246616e+000	 1.306485052249161e+000	-9.337050166419111e+000
1	 1.104225394594779e+000	 1.318741586245716e+000	-9.478990867035666e+000
1	 1.089623514227398e+000	 1.330831909447048e+000	-9.607870069288255e+000
1	 1.074897368806601e+000	 1.342754074637983e+000	-9.726612416705532e+000
1	 1.060049860024718e+000	 1.354506200215058e+000	-9.838197109002591e+000
1	 1.045083926728551e+000	 1.366086471139387e+000	-9.945652948132443e+000
1	 1.030002543016684e+000	 1.377493139825438e+000	-1.005205332128666e+001
1	 1.014808716312365e+000	 1.388724526964869e+000	-1.016051113152151e+001
1	 9.995054854145198e-001	 1.399779022284707e+000	-1.027417368674997e+001
1	 1.151703318105316e+000	 1.286447954122590e+000	-8.740990268001392e+000
1	 1.137436163435127e+000	 1.299079576700941e+000	-8.908974589369043e+000
1	 1.123035765767670e+000	 1.311548447299364e+000	-9.059127625771193e+000
1	 1.108504914968508e+000	 1.323852482546198e+000	-9.194230019951032e+000
1	 1.093846443759394e+000	 1.335989662833602e+000	-9.317125880674148e+000
1	 1.079063225896950e+000	 1.347958033399803e+000	-9.430718011062250e+000
1	 1.064158174319261e+000	 1.359755705349022e+000	-9.537963053789923e+000
1	 1.049134239262883e+000	 1.371380856608035e+000	-9.641866563542193e+000
1	 1.033994406352774e+000	 1.382831732818390e+000	-9.745478017260458e+000
1	 1.018741694667706e+000	 1.394106648163441e+000	-9.851885772800141e+000
1	 1.003379154783733e+000	 1.405203986129465e+000	-9.964211986684678e+000
1	 1.156149611259114e+000	 1.291414445613438e+000	-8.479182294083987e+000
1	 1.141827376473228e+000	 1.304094834133428e+000	-8.638821972992799e+000
1	 1.127371384288980e+000	 1.316611842349339e+000	-8.781601053874175e+000
1	 1.112784435342554e+000	 1.328963378846395e+000	-8.910260547006532e+000
1	 1.098069373291773e+000	 1.341147416219812e+000	-9.027603480437385e+000
1	 1.083229082987748e+000	 1.353161992161219e+000	-9.136490192283830e+000
1	 1.068266488614319e+000	 1.365005210482521e+000	-9.239833541841378e+000
1	 1.053184551797793e+000	 1.376675242076157e+000	-9.340594049760203e+000
1	 1.037986269689500e+000	 1.388170325810758e+000	-9.441774977670452e+000
1	 1.022674673023736e+000	 1.399488769361377e+000	-9.546417357732763e+000
1	 1.007252824153679e+000	 1.410628949973538e+000	-9.657594982648391e+000
1	 9.685161304752106e-001	 1.356379311520008e+000	-1.287431181330756e+001
1	 9.535843320708534e-001	 1.366918165158378e+000	-1.301069650671523e+001
1	 9.385524923276887e-001	 1.377282691739777e+000	-1.315539133547980e+001
1	 9.234236336733949e-001	 1.387471533020204e+000	-1.331140146977447e+001
1	 9.082008012876665e-001	 1.397483399918780e+000	-1.348176416051372e+001
1	 8.928870611472519e-001	 1.407317072930754e+000	-1.366954355480989e+001
1	 8.774854980648936e-001	 1.416971402475017e+000	-1.387782550247216e+001
1	 8.619992137246938e-001	 1.426445309176177e+000	-1.410971236434984e+001
1	 8.464313247164138e-001	 1.435737784081395e+000	-1.436831783320583e+001
1	 8.307849605711887e-001	 1.444847888812251e+000	-1.465676177766165e+001
1	 8.150632618011137e-001	 1.453774755652043e+000	-1.497816511957554e+001
1	 9.723897998421612e-001	 1.361804275364840e+000	-1.253758180540062e+001
1	 9.573982803361829e-001	 1.372385280118109e+000	-1.267177837731908e+001
1	 9.423063193669027e-001	 1.382791260577346e+000	-1.281583808652601e+001
1	 9.271169514504698e-001	 1.393020853066112e+000	-1.297257218659585e+001
1	 9.118332339460493e-001	 1.403072763347715e+000	-1.314481936100932e+001
1	 8.964582450930406e-001	 1.412945767039864e+000	-1.333544091651257e+001
1	 8.809950820421710e-001	 1.422638709963577e+000	-1.354731597159154e+001
1	 8.654468588830089e-001	 1.432150508426387e+000	-1.378333665003312e+001
1	 8.498167046703966e-001	 1.441480149440036e+000	-1.404640328942655e+001
1	 8.341077614523108e-001	 1.450626690872958e+000	-1.433941967431868e+001
1	 8.183231823016085e-001	 1.459589261537921e+000	-1.466528830356500e+001
1	 9.762634692090429e-001	 1.367229239210187e+000	-1.220419892458689e+001
1	 9.612122286013992e-001	 1.377852395078342e+000	-1.233648476123708e+001
1	 9.460601464059503e-001	 1.388299829415390e+000	-1.248004079992647e+001
1	 9.308102692273189e-001	 1.398570173112461e+000	-1.263749927031778e+001
1	 9.154656666041432e-001	 1.408662126777046e+000	-1.281151567889250e+001
1	 9.000294290384739e-001	 1.418574461149325e+000	-1.300476434979283e+001
1	 8.845046660190273e-001	 1.428306017452446e+000	-1.321993396431151e+001
1	 8.688945040408380e-001	 1.437855707676866e+000	-1.345972310823324e+001
1	 8.532020846238323e-001	 1.447222514798917e+000	-1.372683583612470e+001
1	 8.374305623328302e-001	 1.456405492933886e+000	-1.402397726152701e+001
1	 8.215831028014518e-001	 1.465403767424017e+000	-1.435384918184086e+001
1	 9.801371385759574e-001	 1.372654203055902e+000	-1.187416284997083e+001
1	 9.650261768666123e-001	 1.383319510038923e+000	-1.200478829845860e+001
1	 9.498139734449511e-001	 1.393808398253756e+000	-1.214794993913824e+001
1	 9.345035870040723e-001	 1.404119493159094e+000	-1.230611568077973e+001
1	 9.190980992620879e-001	 1.414251490206624e+000	-1.248177304997306e+001
1	 9.036006129837009e-001	 1.424203155258993e+000	-1.267742504925166e+001
1	 8.880142499956196e-001	 1.433973324941483e+000	-1.289558601685341e+001
1	 8.723421491983465e-001	 1.443560906927481e+000	-1.313877749663088e+001
1	 8.565874645768926e-001	 1.452964880157908e+000	-1.340952412651353e+001
1	 8.407533632129244e-001	 1.462184294994912e+000	-1.371034955378941e+001
1	 8.248430233008260e-001	 1.471218273310214e+000	-1.404377238531421e+001
1	 9.840108079430038e-001	 1.378079166901831e+000	-1.154747326570996e+001
1	 9.688401251319329e-001	 1.388786624999700e+000	-1.167666205979637e+001
1	 9.535678004840261e-001	 1.399316967092288e+000	-1.181951674764366e+001
1	 9.381969047808600e-001	 1.409668813205861e+000	-1.197835543346671e+001
1	 9.227305319200210e-001	 1.419840853636299e+000	-1.215551267078901e+001
1	 9.071717969288693e-001	 1.429831849368721e+000	-1.235333560786024e+001
1	 8.915238339721037e-001	 1.439640632430548e+000	-1.257418013716163e+001
1	 8.757897943556977e-001	 1.449266106178097e+000	-1.282040705688923e+001
1	 8.599728445297495e-001	 1.458707245516883e+000	-1.309437825219432e+001
1	 8.440761640927721e-001	 1.467963097055915e+000	-1.339845290382875e+001
1	 8.281029437999159e-001	 1.477032779196395e+000	-1.373498373169264e+001
1	 9.878844773102833e-001	 1.383504130747827e+000	-1.122412986091613e+001
1	 9.726540733974713e-001	 1.394253739960519e+000	-1.135207953843987e+001
1	 9.573216275232955e-001	 1.404825535930832e+000	-1.149469323365740e+001
1	 9.418902225578113e-001	 1.415218133252607e+000	-1.165415357881169e+001
1	 9.263629645780832e-001	 1.425430217065921e+000	-1.183265697388801e+001
1	 9.107429808741278e-001	 1.435460543478365e+000	-1.203240998954459e+001
1	 8.950334179486370e-001	 1.445307939919501e+000	-1.225562577604998e+001
1	 8.792374395130574e-001	 1.454971305428580e+000	-1.250452048555975e+001
1	 8.633582244825742e-001	 1.464449610875713e+000	-1.278130971495612e+001
1	 8.473989649725507e-001	 1.473741899116773e+000	-1.308820497635216e+001
1	 8.313628642989047e-001	 1.482847285082444e+000	-1.342741020221127e+001
1	 9.917581466778954e-001	 1.388929094593737e+000	-1.090413232955845e+001
1	 9.764680216633372e-001	 1.399720854921225e+000	-1.103101464170658e+001
1	 9.610754545628796e-001	 1.410334104769236e+000	-1.117343215519159e+001
1	 9.455835403350567e-001	 1.420767453299180e+000	-1.133344618198468e+001
1	 9.299953972364135e-001	 1.431019580495340e+000	-1.151312960368899e+001
1	 9.143141648196238e-001	 1.441089237587779e+000	-1.171456350241069e+001
1	 8.985430019253762e-001	 1.450975247408202e+000	-1.193983379902321e+001
1	 8.826850846705890e-001	 1.460676504678796e+000	-1.219102790566865e+001
1	 8.667436044355391e-001	 1.470191976234270e+000	-1.247023139923524e+001
1	 8.507217658524386e-001	 1.479520701177364e+000	-1.277952472242747e+001
1	 8.346227847979756e-001	 1.488661790968246e+000	-1.312097991891043e+001
1	 9.956318160459409e-001	 1.394354058439414e+000	-1.058748037036886e+001
1	 9.802819699296413e-001	 1.405187969881668e+000	-1.071344168298608e+001
1	 9.648292816028976e-001	 1.415842673607342e+000	-1.085568700546947e+001
1	 9.492768581127261e-001	 1.426316773345427e+000	-1.101617030315166e+001
1	 9.336278298951504e-001	 1.436608943924404e+000	-1.119685539290755e+001
1	 9.178853487655067e-001	 1.446717931696817e+000	-1.139971277259650e+001
1	 9.020525859024777e-001	 1.456642554896511e+000	-1.162671645875600e+001
1	 8.861327298284579e-001	 1.466381703928612e+000	-1.187984083896762e+001
1	 8.701289843888153e-001	 1.475934341592428e+000	-1.216105754521841e+001
1	 8.540445667326138e-001	 1.485299503237567e+000	-1.247233235446042e+001
1	 8.378827052973118e-001	 1.494476296853683e+000	-1.281562212244310e+001
1	 9.995054854145198e-001	 1.399779022284707e+000	-1.027417368674997e+001
1	 9.840959181964941e-001	 1.410655084841691e+000	-1.039933537387075e+001
1	 9.685831086434708e-001	 1.421351242444998e+000	-1.054141199867924e+001
1	 9.529701758909484e-001	 1.431866093391195e+000	-1.070226397819451e+001
1	 9.372602625544341e-001	 1.442198307352966e+000	-1.088376033952878e+001
1	 9.214565327119235e-001	 1.452346625805334e+000	-1.108777571873079e+001
1	 9.055621698800984e-001	 1.462309862384287e+000	-1.131618736821322e+001
1	 8.895803749868287e-001	 1.472086903177893e+000	-1.157087217882907e+001
1	 8.735143643425752e-001	 1.481676706950057e+000	-1.185370372257079e+001
1	 8.573673676132543e-001	 1.491078305297259e+000	-1.216654932175147e+001
1	 8.411426257970979e-001	 1.500290802738638e+000	-1.251126715039806e+001
1	 1.003379154783733e+000	 1.405203986129465e+000	-9.964211986684678e+000
1	 9.879098664640053e-001	 1.416122199801143e+000	-1.008867081646946e+001
1	 9.723369356847186e-001	 1.426859811282049e+000	-1.023056205605638e+001
1	 9.566634936698545e-001	 1.437415413436331e+000	-1.039166619987610e+001
1	 9.408926952144034e-001	 1.447787670780874e+000	-1.057377158431407e+001
1	 9.250277166590233e-001	 1.457975319913183e+000	-1.077867152698400e+001
1	 9.090717538583948e-001	 1.467977169871391e+000	-1.100816147439138e+001
1	 8.930280201458658e-001	 1.477792102426505e+000	-1.126403616376923e+001
1	 8.768997442969899e-001	 1.487419072307031e+000	-1.154808680477341e+001
1	 8.606901684945385e-001	 1.496857107356318e+000	-1.186209828662040e+001
1	 8.444025462975162e-001	 1.506105308622997e+000	-1.220784641612606e+001
1	 1.007252824153679e+000	 1.410628949973538e+000	-9.657594982648391e+000
1	 9.917238147322854e-001	 1.421589314759868e+000	-9.781423495898446e+000
1	 9.760907627267612e-001	 1.432368380118340e+000	-9.923092792288530e+000
1	 9.603568114495741e-001	 1.442964733480680e+000	-1.008431689944040e+001
1	 9.445251278751973e-001	 1.453377034207980e+000	-1.026681738882693e+001
1	 9.285989006069539e-001	 1.463604014020220e+000	-1.047232062669489e+001
1	 9.125813378375239e-001	 1.473644477357683e+000	-1.070255503266715e+001
1	 8.964756653057331e-001	 1.483497301674313e+000	-1.095924835158338e+001
1	 8.802851242522309e-001	 1.493161437663220e+000	-1.124412494405147e+001
1	 8.640129693766441e-001	 1.502635909414624e+000	-1.155890310108113e+001
1	 8.476624667987510e-001	 1.511919814506641e+000	-1.190529238805367e+001
1	 8.150632618011137e-001	 1.453774755652043e+000	-1.497816511957554e+001
1	 7.992717523120669e-001	 1.462516290244094e+000	-1.533895096736832e+001
1	 7.834112354645310e-001	 1.471073120235707e+000	-1.574204306516063e+001
1	 7.674848724460873e-001	 1.479444591253303e+000	-1.618509994034047e+001
1	 7.514958276341680e-001	 1.487630119263421e+000	-1.666570619060517e+001
1	 7.354472666915338e-001	 1.495629190345228e+000	-1.718137774379344e+001
1	 7.193423546795726e-001	 1.503441360402968e+000	-1.772956715832439e+001
1	 7.031842541915491e-001	 1.511066254819426e+000	-1.830766895277420e+001
1	 6.869761235078749e-001	 1.518503568051551e+000	-1.891302495324996e+001
1	 6.707211147754113e-001	 1.525753063169474e+000	-1.954292964737245e+001
1	 6.544223722127310e-001	 1.532814571340203e+000	-2.019463553386491e+001
1	 8.183231823016085e-001	 1.459589261537921e+000	-1.466528830356500e+001
1	 8.024685132175328e-001	 1.468365758701667e+000	-1.502986938950663e+001
1	 7.865445607736817e-001	 1.476956812521842e+000	-1.543583451824232e+001
1	 7.705544988011007e-001	 1.485361766007659e+000	-1.588108912367176e+001
1	 7.545015043334430e-001	 1.493580032789783e+000	-1.636346793625417e+001
1	 7.383887556948314e-001	 1.501611096891922e+000	-1.688073978466395e+001
1	 7.222194306056113e-001	 1.509454512442139e+000	-1.743061243923806e+001
1	 7.059967043081321e-001	 1.517109903324919e+000	-1.801073748666474e+001
1	 6.897237477146422e-001	 1.524576962775183e+000	-1.861871522546976e+001
1	 6.734037255793064e-001	 1.531855452915456e+000	-1.925209957198310e+001
1	 6.570397946962922e-001	 1.538945204237500e+000	-1.990840296663490e+001
1	 8.215831028014518e-001	 1.465403767424017e+000	-1.435384918184086e+001
1	 8.056652741223067e-001	 1.474215227159471e+000	-1.472179659202703e+001
1	 7.896778860821095e-001	 1.482840504808239e+000	-1.513026794780022e+001
1	 7.736241251553686e-001	 1.491278940762324e+000	-1.557740558679645e+001
1	 7.575071810319586e-001	 1.499529946316506e+000	-1.606128416031576e+001
1	 7.413302446973650e-001	 1.507593003439040e+000	-1.657991499547562e+001
1	 7.250965065308890e-001	 1.515467664481798e+000	-1.713125050042795e+001
1	 7.088091544239663e-001	 1.523153551830967e+000	-1.771318860296604e+001
1	 6.924713719206810e-001	 1.530650357499436e+000	-1.832357721293604e+001
1	 6.760863363825016e-001	 1.537957842662119e+000	-1.896021869896905e+001
1	 6.596572171791894e-001	 1.545075837135533e+000	-1.962087437019883e+001
1	 8.248430233008260e-001	 1.471218273310214e+000	-1.404377238531421e+001
1	 8.088620350265764e-001	 1.480064695617395e+000	-1.441466705009236e+001
1	 7.928112113900055e-001	 1.488724197094793e+000	-1.482528510160749e+001
1	 7.766937515090844e-001	 1.497196115517191e+000	-1.527399590414998e+001
1	 7.605128577299093e-001	 1.505479859843489e+000	-1.575910394521683e+001
1	 7.442717336993275e-001	 1.513574909986478e+000	-1.627885277669951e+001
1	 7.279735824555976e-001	 1.521480816521845e+000	-1.683142900048954e+001
1	 7.116216045392393e-001	 1.529197200337471e+000	-1.741496628966984e+001
1	 6.952189961261736e-001	 1.536723752224209e+000	-1.802754943652141e+001
1	 6.787689471851715e-001	 1.544060232409364e+000	-1.866721841866445e+001
1	 6.622746396615893e-001	 1.551206470034202e+000	-1.933197247476905e+001
1	 8.281029437999159e-001	 1.477032779196395e+000	-1.373498373169264e+001
1	 8.120587959305302e-001	 1.485914164075329e+000	-1.410841627064916e+001
1	 7.959445366975607e-001	 1.494607889381393e+000	-1.452082864470396e+001
1	 7.797633778624412e-001	 1.503113290272153e+000	-1.497080749143103e+001
1	 7.635185344274886e-001	 1.511429773370625e+000	-1.545687717515544e+001
1	 7.472132227009128e-001	 1.519556816534136e+000	-1.597750332556952e+001
1	 7.308506583799279e-001	 1.527493968562179e+000	-1.653109642220998e+001
1	 7.144340546541391e-001	 1.535240848844330e+000	-1.711601541675837e+001
1	 6.979666203313018e-001	 1.542797146949404e+000	-1.773057138517707e+001
1	 6.814515579874914e-001	 1.550162622157092e+000	-1.837303120176210e+001
1	 6.648920621436569e-001	 1.557337102933408e+000	-1.904162122728285e+001
1	 8.313628642989047e-001	 1.482847285082444e+000	-1.342741020221127e+001
1	 8.152555568343562e-001	 1.491763632533159e+000	-1.380298077219931e+001
1	 7.990778620049666e-001	 1.500491581667931e+000	-1.421684214141140e+001
1	 7.828330042156325e-001	 1.509030465027107e+000	-1.466778858910814e+001
1	 7.665242111248921e-001	 1.517379686897813e+000	-1.515455452038142e+001
1	 7.501547117023151e-001	 1.525538723081911e+000	-1.567581762046174e+001
1	 7.337277343040722e-001	 1.533507120602698e+000	-1.623020205640893e+001
1	 7.172465047688535e-001	 1.541284497351443e+000	-1.681628171891201e+001
1	 7.007142445362485e-001	 1.548870541674919e+000	-1.743258349695216e+001
1	 6.841341687896364e-001	 1.556265011905203e+000	-1.807759057813216e+001
1	 6.675094846255589e-001	 1.563467735833050e+000	-1.874974576754763e+001
1	 8.346227847979756e-001	 1.488661790968246e+000	-1.312097991891043e+001
1	 8.184523177382415e-001	 1.497613100990774e+000	-1.349829806504458e+001
1	 8.022111873124143e-001	 1.506375273954299e+000	-1.391327003777163e+001
1	 7.859026305688525e-001	 1.514947639781945e+000	-1.436488824631185e+001
1	 7.695298878223130e-001	 1.523329600424948e+000	-1.485208742184577e+001
1	 7.530962007037274e-001	 1.531520629629700e+000	-1.537374740563885e+001
1	 7.366048102282213e-001	 1.539520272643303e+000	-1.592869598615774e+001
1	 7.200589548835696e-001	 1.547328145858710e+000	-1.651571177862230e+001
1	 7.034618687411962e-001	 1.554943936400656e+000	-1.713352714045826e+001
1	 6.868167795917815e-001	 1.562367401653596e+000	-1.778083111613730e+001
1	 6.701269071074611e-001	 1.569598368733029e+000	-1.845627240494456e+001
1	 8.378827052973118e-001	 1.494476296853683e+000	-1.281562212244310e+001
1	 8.216490786423749e-001	 1.503462569448061e+000	-1.319430663199232e+001
1	 8.053445126200955e-001	 1.512258966240389e+000	-1.361005764439386e+001
1	 7.889722569222933e-001	 1.520864814536564e+000	-1.406205630510388e+001
1	 7.725355645199455e-001	 1.529279513951928e+000	-1.454942807620646e+001
1	 7.560376897053434e-001	 1.537502536177403e+000	-1.507124517635099e+001
1	 7.394818861525677e-001	 1.545533424683890e+000	-1.562652907136800e+001
1	 7.228714049984761e-001	 1.553371794366031e+000	-1.621425300969935e+001
1	 7.062094929463262e-001	 1.561017331126513e+000	-1.683334459676759e+001
1	 6.894993903941017e-001	 1.568469791402172e+000	-1.748268840242973e+001
1	 6.727443295895290e-001	 1.575729001633244e+000	-1.816112859567664e+001
1	 8.411426257970979e-001	 1.500290802738638e+000	-1.251126715039806e+001
1	 8.248458395469445e-001	 1.509312037904910e+000	-1.289094590951151e+001
1	 8.084778379282012e-001	 1.518142658526092e+000	-1.330715111970147e+001
1	 7.920418832761492e-001	 1.526781989290855e+000	-1.375924338511154e+001
1	 7.755412412179843e-001	 1.535229427478648e+000	-1.424652942118625e+001
1	 7.589791787073572e-001	 1.543484442724917e+000	-1.476826416428315e+001
1	 7.423589620773023e-001	 1.551546576724361e+000	-1.532365293373790e+001
1	 7.256838551137602e-001	 1.559415442873306e+000	-1.591185364116171e+001
1	 7.089571171518222e-001	 1.567090725852390e+000	-1.653197904173046e+001
1	 6.921820011967720e-001	 1.574572181150829e+000	-1.718309902221991e+001
1	 6.753617520719286e-001	 1.581859634533595e+000	-1.786424292054555e+001
1	 8.444025462975162e-001	 1.506105308622997e+000	-1.220784641612606e+001
1	 8.280426004521371e-001	 1.515161506361207e+000	-1.258815626932289e+001
1	 8.116111632369227e-001	 1.524026350811300e+000	-1.300449745356575e+001
1	 7.951115096306137e-001	 1.532699164044716e+000	-1.345640086851872e+001
1	 7.785469179166235e-001	 1.541179341005006e+000	-1.394334512126650e+001
1	 7.619206677099617e-001	 1.549466349272139e+000	-1.446475832334002e+001
1	 7.452360380026164e-001	 1.557559728764613e+000	-1.502001994204714e+001
1	 7.284963052296100e-001	 1.565459091380433e+000	-1.560846270150169e+001
1	 7.117047413578653e-001	 1.573164120578188e+000	-1.622937452870403e+001
1	 6.948646119999676e-001	 1.580674570899469e+000	-1.688200054000055e+001
1	 6.779791745548262e-001	 1.587990267433982e+000	-1.756554506324313e+001
1	 8.476624667987510e-001	 1.511919814506641e+000	-1.190529238805367e+001
1	 8.312393613581415e-001	 1.521010974816841e+000	-1.228587900041588e+001
1	 8.147444885464512e-001	 1.529910043095903e+000	-1.270204445131918e+001
1	 7.981811359858797e-001	 1.538616338798039e+000	-1.315348088540200e+001
1	 7.815525946160575e-001	 1.547129254530897e+000	-1.363982955371295e+001
1	 7.648621567133508e-001	 1.555448255818969e+000	-1.416068231575813e+001
1	 7.481131139287017e-001	 1.563572880804544e+000	-1.471558319779131e+001
1	 7.313087553462125e-001	 1.571502739887311e+000	-1.530403000331132e+001
1	 7.144523655646381e-001	 1.579237515303805e+000	-1.592547597167825e+001
1	 6.975472228038638e-001	 1.586776960647991e+000	-1.657933148071610e+001
1	 6.805965970383868e-001	 1.594120900334306e+000	-1.726496578914470e+001
1	 6.544223722127310e-001	 1.532814571340203e+000	-2.019463553386491e+001
1	 6.380805764407583e-001	 1.539689008460209e+000	-2.088277204157324e+001
1	 6.217012944632482e-001	 1.546375267676036e+000	-2.162017921084237e+001
1	 6.052876383844025e-001	 1.552873382042270e+000	-2.240166717266623e+001
1	 5.888427054517341e-001	 1.559183450159039e+000	-2.322201477597889e+001
1	 5.723695764162470e-001	 1.565305635398965e+000	-2.407597673123992e+001
1	 5.558713139287028e-001	 1.571240165087963e+000	-2.495829067387491e+001
1	 5.393509609733571e-001	 1.576987329641599e+000	-2.586368413579206e+001
1	 5.228115393404681e-001	 1.582547481658774e+000	-2.678688141364917e+001
1	 5.062560481387889e-001	 1.587921034974506e+000	-2.772261032302648e+001
1	 4.896874623491745e-001	 1.593108463673670e+000	-2.866560882816215e+001
1	 6.570397946962922e-001	 1.538945204237500e+000	-1.990840296663490e+001
1	 6.406326384087309e-001	 1.545847136301012e+000	-2.060237269583815e+001
1	 6.241878459861200e-001	 1.552560137825569e+000	-2.134668244789621e+001
1	 6.077085419798072e-001	 1.559084241997953e+000	-2.213597638442647e+001
1	 5.911978360250292e-001	 1.565419547812639e+000	-2.296486490494864e+001
1	 5.746588211945348e-001	 1.571566219295666e+000	-2.382793215136526e+001
1	 5.580945723884372e-001	 1.577524484682149e+000	-2.471974342924699e+001
1	 5.415081447616859e-001	 1.583294635549190e+000	-2.563485253346743e+001
1	 5.249025721904647e-001	 1.588877025905929e+000	-2.656780896621580e+001
1	 5.082808657787364e-001	 1.594272071242548e+000	-2.751316503592384e+001
1	 4.916460124060640e-001	 1.599480247540058e+000	-2.846548282616294e+001
1	 6.596572171791894e-001	 1.545075837135533e+000	-1.962087437019883e+001
1	 6.431847003760837e-001	 1.552005264142596e+000	-2.032037509579086e+001
1	 6.266743975084234e-001	 1.558745007975918e+000	-2.107120910489212e+001
1	 6.101294455746984e-001	 1.565295101954474e+000	-2.186786622093400e+001
1	 5.935529665978694e-001	 1.571655645467095e+000	-2.270480018293358e+001
1	 5.769480659724273e-001	 1.577826803193227e+000	-2.357643648968605e+001
1	 5.603178308478363e-001	 1.583808804277191e+000	-2.447718015784656e+001
1	 5.436653285497375e-001	 1.589601941457622e+000	-2.540142338081285e+001
1	 5.269936050402385e-001	 1.595206570153903e+000	-2.634355307583512e+001
1	 5.103056834185109e-001	 1.600623107511378e+000	-2.729795830729397e+001
1	 4.936045624628233e-001	 1.605852031407194e+000	-2.825903757465410e+001
1	 6.622746396615893e-001	 1.551206470034202e+000	-1.933197247476905e+001
1	 6.457367623429725e-001	 1.558163391984861e+000	-2.003669388455423e+001
1	 6.291609490303003e-001	 1.564929878126983e+000	-2.079366823311975e+001
1	 6.125503491692053e-001	 1.571505961911738e+000	-2.159724249553290e+001
1	 5.959080971703684e-001	 1.577891743122306e+000	-2.244172539682867e+001
1	 5.792373107500242e-001	 1.584087387091551e+000	-2.332139557487384e+001
1	 5.625410893069842e-001	 1.590093123872994e+000	-2.423050965434639e+001
1	 5.458225123375806e-001	 1.595909247366803e+000	-2.516331021814931e+001
1	 5.290846378898453e-001	 1.601536114402606e+000	-2.611403366310830e+001
1	 5.123305010581554e-001	 1.606974143780907e+000	-2.707691792734986e+001
1	 4.955631125194850e-001	 1.612223815274991e+000	-2.804621007734101e+001
1	 6.648920621436569e-001	 1.557337102933408e+000	-1.904162122728285e+001
1	 6.482888243095516e-001	 1.564321519827707e+000	-1.975124504932052e+001
1	 6.316475005518932e-001	 1.571114748278663e+000	-2.051397031598709e+001
1	 6.149712527634552e-001	 1.577716821869641e+000	-2.132401250467268e+001
1	 5.982632277426402e-001	 1.584127840778174e+000	-2.217554683279742e+001
1	 5.815265555274233e-001	 1.590347970990540e+000	-2.306271671846324e+001
1	 5.647643477659645e-001	 1.596377443469459e+000	-2.397964214957940e+001
1	 5.479796961252855e-001	 1.602216553276638e+000	-2.492042794723065e+001
1	 5.311756707393405e-001	 1.607865658651945e+000	-2.587917190960282e+001
1	 5.143553186977136e-001	 1.613325180051048e+000	-2.684997282335138e+001
1	 4.975216625760818e-001	 1.618595599143369e+000	-2.782693832989622e+001
1	 6.675094846255589e-001	 1.563467735833050e+000	-1.874974576754763e+001
1	 6.508408862759760e-001	 1.570479647671034e+000	-1.946394589499699e+001
1	 6.341340520733438e-001	 1.577299618430859e+000	-2.023202724094458e+001
1	 6.173921563575771e-001	 1.583927681828087e+000	-2.104808499883040e+001
1	 6.006183583147983e-001	 1.590363938434600e+000	-2.190617224687674e+001
1	 5.838158003047237e-001	 1.596608554890094e+000	-2.280030868578050e+001
1	 5.669876062248608e-001	 1.602661763066491e+000	-2.372448928238076e+001
1	 5.501368799129207e-001	 1.608523859187033e+000	-2.467269280455021e+001
1	 5.332667035887800e-001	 1.614195202901830e+000	-2.563889023312963e+001
1	 5.163801363372280e-001	 1.619676216321714e+000	-2.661705303731311e+001
1	 4.994802126326459e-001	 1.624967383012244e+000	-2.760116130051182e+001
1	 6.701269071074611e-001	 1.569598368733029e+000	-1.845627240494456e+001
1	 6.533929482424004e-001	 1.576637775514741e+000	-1.917471501847344e+001
1	 6.366206035947943e-001	 1.583484488583470e+000	-1.994775227206296e+001
1	 6.198130599516989e-001	 1.590138541786973e+000	-2.076937015411517e+001
1	 6.029734888869563e-001	 1.596600036091486e+000	-2.163351083627200e+001
1	 5.861050450820241e-001	 1.602869138790117e+000	-2.253408166755127e+001
1	 5.692108646837572e-001	 1.608946082663995e+000	-2.346496407209168e+001
1	 5.522940637005561e-001	 1.614831165097894e+000	-2.442002233527666e+001
1	 5.353577364382198e-001	 1.620524747152170e+000	-2.539311226360029e+001
1	 5.184049539767426e-001	 1.626027252592817e+000	-2.637808970423404e+001
1	 5.014387626892101e-001	 1.631339166881533e+000	-2.736881891090651e+001
1	 6.727443295895290e-001	 1.575729001633244e+000	-1.816112859567664e+001
1	 6.559450102089794e-001	 1.582795903358730e+000	-1.888347228348808e+001
1	 6.391071551163871e-001	 1.589669358736397e+000	-1.966106002325504e+001
1	 6.222339635459488e-001	 1.596349401746202e+000	-2.048777954453423e+001
1	 6.053286194592281e-001	 1.602836133748733e+000	-2.135747321132099e+001
1	 5.883942898594234e-001	 1.609129722690513e+000	-2.226394725217192e+001
1	 5.714341231427375e-001	 1.615230402261874e+000	-2.320098089170212e+001
1	 5.544512474882609e-001	 1.621138471009127e+000	-2.416233536779377e+001
1	 5.374487692877151e-001	 1.626854291402873e+000	-2.514176281944695e+001
1	 5.204297716163004e-001	 1.632378288864270e+000	-2.613301503083436e+001
1	 5.033973127458067e-001	 1.637710950751154e+000	-2.712985201777562e+001
1	 6.753617520719286e-001	 1.581859634533595e+000	-1.786424292054555e+001
1	 6.584970721758683e-001	 1.588954031202899e+000	-1.859013879607898e+001
1	 6.415937066382641e-001	 1.595854228889541e+000	-1.937186643211757e+001
1	 6.246548671404557e-001	 1.602560261705675e+000	-2.020322611490418e+001
1	 6.076837500317269e-001	 1.609072231406239e+000	-2.107797136811046e+001
1	 5.906835346370200e-001	 1.615390306591181e+000	-2.198981839862540e+001
1	 5.736573816018853e-001	 1.621514721860030e+000	-2.293245544162197e+001
1	 5.566084312761043e-001	 1.627445776920638e+000	-2.389955198883521e+001
1	 5.395398021373217e-001	 1.633183835653848e+000	-2.488476788459232e+001
1	 5.224545892559448e-001	 1.638729325135984e+000	-2.588176227478955e+001
1	 5.053558628024685e-001	 1.644082734621023e+000	-2.688420239467449e+001
1	 6.779791745548262e-001	 1.587990267433982e+000	-1.756554506324314e+001
1	 6.610491341432212e-001	 1.595112159047149e+000	-1.829463688060311e+001
1	 6.440802581605674e-001	 1.602039099042800e+000	-1.908008873438002e+001
1	 6.270757707353472e-001	 1.608771121665290e+000	-1.991562415439103e+001
1	 6.100388806045674e-001	 1.615308329063911e+000	-2.079491866172655e+001
1	 5.929727794149129e-001	 1.621650890492024e+000	-2.171160941002422e+001
1	 5.758806400612844e-001	 1.627799041458369e+000	-2.265930472405610e+001
1	 5.587656150641557e-001	 1.633753082832332e+000	-2.363159351919466e+001
1	 5.416308349870956e-001	 1.639513379905004e+000	-2.462205458595114e+001
1	 5.244794068957194e-001	 1.645080361407874e+000	-2.562426572444135e+001
1	 5.073144128592277e-001	 1.650454518491057e+000	-2.663181271431906e+001
1	 6.805965970383868e-001	 1.594120900334306e+000	-1.726496578914470e+001
1	 6.636011961111934e-001	 1.601270286891380e+000	-1.799689005631047e+001
1	 6.465668096834394e-001	 1.608223969196076e+000	-1.878564543894358e+001
1	 6.294966743307516e-001	 1.614981981624948e+000	-1.962488927065911e+001
1	 6.123940111778622e-001	 1.621544426721644e+000	-2.050822978012304e+001
1	 5.952620241932003e-001	 1.627911474392944e+000	-2.142923590776554e+001
1	 5.781038985210186e-001	 1.634083361056792e+000	-2.238144701797275e+001
1	 5.609227988524843e-001	 1.640060388744116e+000	-2.335838248999533e+001
1	 5.437218678370922e-001	 1.645842924156250e+000	-2.435355117145174e+001
1	 5.265042245356669e-001	 1.651431397679850e+000	-2.536046067898111e+001
1	 5.092729629161171e-001	 1.656826302361175e+000	-2.637262653129608e+001
1	 4.896874623491745e-001	 1.593108463673670e+000	-2.866560882816215e+001
1	 4.731087311836948e-001	 1.598110300669677e+000	-2.960760581866731e+001
1	 4.565227760385447e-001	 1.602927135455114e+000	-3.054165299167478e+001
1	 4.399324899287324e-001	 1.607559614209450e+000	-3.146450793751703e+001
1	 4.233407364581182e-001	 1.612008439076500e+000	-3.237296288677183e+001
1	 4.067503485921295e-001	 1.616274367013764e+000	-3.326384809134834e+001
1	 3.901641274764115e-001	 1.620358208614037e+000	-3.413403508336729e+001
1	 3.735848413019252e-001	 1.624260826901171e+000	-3.498043980863654e+001
1	 3.570152242169341e-001	 1.627983136101961e+000	-3.580002563188149e+001
1	 3.404579752862288e-001	 1.631526100396023e+000	-3.658980621125553e+001
1	 3.239157574978582e-001	 1.634890732645615e+000	-3.734684824000337e+001
1	 4.916460124060640e-001	 1.599480247540058e+000	-2.846548282616294e+001
1	 4.750009730801597e-001	 1.604502089843302e+000	-2.941644265842994e+001
1	 4.583486808816097e-001	 1.609338190002596e+000	-3.035917478252113e+001
1	 4.416920403962998e-001	 1.613989196781871e+000	-3.129045150704630e+001
1	 4.250339266813351e-001	 1.618455815133233e+000	-3.220707976752501e+001
1	 4.083771840328469e-001	 1.622738805041712e+000	-3.310590449527143e+001
1	 3.917246247999181e-001	 1.626838980342146e+000	-3.398381186436109e+001
1	 3.750790282451423e-001	 1.630757207510138e+000	-3.483773241348894e+001
1	 3.584431394522583e-001	 1.634494404429018e+000	-3.566464403989522e+001
1	 3.418196682812127e-001	 1.638051539134735e+000	-3.646157486288756e+001
1	 3.252112883709185e-001	 1.641429628540587e+000	-3.722560595484832e+001
1	 4.936045624628233e-001	 1.605852031407194e+000	-2.825903757465410e+001
1	 4.768932149765300e-001	 1.610893879017622e+000	-2.921843934943870e+001
1	 4.601745857246076e-001	 1.615749244550718e+000	-3.016937755911381e+001
1	 4.434515908638193e-001	 1.620418779354871e+000	-3.110863407820978e+001
1	 4.267271169045154e-001	 1.624903191190487e+000	-3.203302530689947e+001
1	 4.100040194735311e-001	 1.629203243070121e+000	-3.293940553836288e+001
1	 3.932851221233866e-001	 1.633319752070662e+000	-3.382467020440245e+001
1	 3.765732151883082e-001	 1.637253588119463e+000	-3.468575899613006e+001
1	 3.598710546875104e-001	 1.641005672756396e+000	-3.551965885687810e+001
1	 3.431813612760959e-001	 1.644576977873742e+000	-3.632340684487077e+001
1	 3.265068192438411e-001	 1.647968524435843e+000	-3.709409286353072e+001
1	 4.955631125194850e-001	 1.612223815274991e+000	-2.804621007734101e+001
1	 4.787854568728292e-001	 1.617285668192561e+000	-2.901354204149268e+001
1	 4.620004905675545e-001	 1.622160299099407e+000	-2.997221528001673e+001
1	 4.452111413313025e-001	 1.626848361928386e+000	-3.091901614793108e+001
1	 4.284203071276679e-001	 1.631350567248200e+000	-3.185076533714294e+001
1	 4.116308549141898e-001	 1.635667681098937e+000	-3.276432125289454e+001
1	 3.948456194468263e-001	 1.639800523799534e+000	-3.365658326853395e+001
1	 3.780674021314359e-001	 1.643749968729099e+000	-3.452449485539400e+001
1	 3.612989699227087e-001	 1.647516941084049e+000	-3.536504658492358e+001
1	 3.445430542709035e-001	 1.651102416612997e+000	-3.617527900057076e+001
1	 3.278023501166604e-001	 1.654507420331330e+000	-3.695228535728193e+001
1	 4.975216625760818e-001	 1.618595599143369e+000	-2.782693832989622e+001
1	 4.806776987690811e-001	 1.623677457368042e+000	-2.880169773234017e+001
1	 4.638263954104682e-001	 1.628571353648595e+000	-2.976764262878298e+001
1	 4.469706917987620e-001	 1.633277944502351e+000	-3.072155883516820e+001
1	 4.301134973508022e-001	 1.637797943306314e+000	-3.166026622852260e+001
1	 4.132576903548320e-001	 1.642132119128106e+000	-3.258062214302331e+001
1	 3.964061167702470e-001	 1.646281295528714e+000	-3.347952464435161e+001
1	 3.795615890745382e-001	 1.650246349339002e+000	-3.435391567907003e+001
1	 3.627268851578711e-001	 1.654028209411931e+000	-3.520078409613292e+001
1	 3.459047472656608e-001	 1.657627855352454e+000	-3.601716853798643e+001
1	 3.290978809894109e-001	 1.661046316227001e+000	-3.680016019908721e+001
1	 4.994802126326459e-001	 1.624967383012244e+000	-2.760116130051182e+001
1	 4.825699406653091e-001	 1.630069246543986e+000	-2.858285425105380e+001
1	 4.656523002533649e-001	 1.634982408198208e+000	-2.955561499974003e+001
1	 4.487302422662093e-001	 1.639707527076702e+000	-3.051622386871532e+001
1	 4.318066875739272e-001	 1.644245319364772e+000	-3.146149487877793e+001
1	 4.148845257954658e-001	 1.648596557157575e+000	-3.238827917554001e+001
1	 3.979666140936579e-001	 1.652762067258152e+000	-3.329346833372330e+001
1	 3.810557760176275e-001	 1.656742729949124e+000	-3.417399753627746e+001
1	 3.641548003930153e-001	 1.660539477739997e+000	-3.502684862536170e+001
1	 3.472664402603927e-001	 1.664153294092064e+000	-3.584905302260358e+001
1	 3.303934118621270e-001	 1.667585212122803e+000	-3.663769451639713e+001
1	 5.014387626892101e-001	 1.631339166881533e+000	-2.736881891090651e+001
1	 4.844621825615373e-001	 1.636461035720317e+000	-2.835696024179499e+001
1	 4.674782050962617e-001	 1.641393462748176e+000	-2.933608848410899e+001
1	 4.504897927336566e-001	 1.646137109651372e+000	-3.030297357529387e+001
1	 4.334998777970523e-001	 1.650692695423513e+000	-3.125441870281953e+001
1	 4.165113612360994e-001	 1.655060995187289e+000	-3.218726377083254e+001
1	 3.995271114170690e-001	 1.659242838987799e+000	-3.309838874469619e+001
1	 3.825499629607168e-001	 1.663239110559418e+000	-3.398471687001732e+001
1	 3.655827156281598e-001	 1.667050746068203e+000	-3.484321776313565e+001
1	 3.486281332551247e-001	 1.670678732831783e+000	-3.567091037041199e+001
1	 3.316889427348432e-001	 1.674124108018686e+000	-3.646486579401032e+001
1	 5.033973127458067e-001	 1.637710950751154e+000	-2.712985201777562e+001
1	 4.863544244577892e-001	 1.642852824896956e+000	-2.812396514795831e+001
1	 4.693041099391750e-001	 1.647804517298428e+000	-2.910901985644826e+001
1	 4.522493432011158e-001	 1.652566692226297e+000	-3.008177086792276e+001
1	 4.351930680201865e-001	 1.657140071482478e+000	-3.103900562266830e+001
1	 4.181381966767416e-001	 1.661525433217197e+000	-3.197754779406449e+001
1	 4.010876087404895e-001	 1.665723610717605e+000	-3.289426068359632e+001
1	 3.840441499038189e-001	 1.669735491169838e+000	-3.378605048990048e+001
1	 3.670106308633221e-001	 1.673562014396501e+000	-3.464986944873071e+001
1	 3.499898262498818e-001	 1.677204171571562e+000	-3.548271884108543e+001
1	 3.329844736075938e-001	 1.680663003914599e+000	-3.628165186712119e+001
1	 5.053558628024685e-001	 1.644082734621023e+000	-2.688420239467449e+001
1	 4.882466663540884e-001	 1.649244614073828e+000	-2.788381919668351e+001
1	 4.711300147821223e-001	 1.654215571848892e+000	-2.887436656141083e+001
1	 4.540088936685993e-001	 1.658996274801413e+000	-2.985257923455386e+001
1	 4.368862582433391e-001	 1.663587447541609e+000	-3.081522405762797e+001
1	 4.197650321174003e-001	 1.667989871247243e+000	-3.175910354655407e+001
1	 4.026481060639292e-001	 1.672204382447522e+000	-3.268105934730984e+001
1	 3.855383368469467e-001	 1.676231871780339e+000	-3.357797556504313e+001
1	 3.684385460985205e-001	 1.680073282724848e+000	-3.444678196341542e+001
1	 3.513515192446895e-001	 1.683729610311356e+000	-3.528445703132577e+001
1	 3.342800044804131e-001	 1.687201899810492e+000	-3.608803091453085e+001
1	 5.073144128592277e-001	 1.650454518491057e+000	-2.663181271431906e+001
1	 4.901389082504586e-001	 1.655636403250854e+000	-2.763647338372729e+001
1	 4.729559196251201e-001	 1.660626626399497e+000	-2.863208670081019e+001
1	 4.557684441361187e-001	 1.665425857376654e+000	-2.961536272697669e+001
1	 4.385794484665194e-001	 1.670034823600846e+000	-3.058304291468742e+001
1	 4.213918675580844e-001	 1.674454309277374e+000	-3.153190375735607e+001
1	 4.042086033873978e-001	 1.678685154177500e+000	-3.245876031574524e+001
1	 3.870325237901126e-001	 1.682728252390872e+000	-3.336046961712599e+001
1	 3.698664613337727e-001	 1.686584551053196e+000	-3.423393392384972e+001
1	 3.527132122395726e-001	 1.690255049051117e+000	-3.507610386835324e+001
1	 3.355755353533356e-001	 1.693740795706313e+000	-3.588398145201293e+001
1	 5.092729629161171e-001	 1.656826302361175e+000	-2.637262653129608e+001
1	 4.920311501469236e-001	 1.662028192427957e+000	-2.738187945868268e+001
1	 4.747818244681851e-001	 1.667037680950171e+000	-2.838213902098376e+001
1	 4.575279946036860e-001	 1.671855439951955e+000	-2.937008594997497e+001
1	 4.402726386897362e-001	 1.676482199660132e+000	-3.034243157914169e+001
1	 4.230187029988017e-001	 1.680918747307537e+000	-3.129592157503712e+001
1	 4.057691007109044e-001	 1.685165925907489e+000	-3.222733954446711e+001
1	 3.885267107333296e-001	 1.689224633001393e+000	-3.313351051361710e+001
1	 3.712943765690968e-001	 1.693095819381501e+000	-3.401130427563513e+001
1	 3.540749052345564e-001	 1.696780487790798e+000	-3.485763860355357e+001
1	 3.368710662263960e-001	 1.700279691602014e+000	-3.566948232583579e+001
1	 3.239157574978582e-001	 1.634890732645615e+000	-3.734684824000337e+001
1	 3.073936732910061e-001	 1.638077628498721e+000	-3.806685949025275e+001
1	 2.908918240118034e-001	 1.641088412976345e+000	-3.874480867485029e+001
1	 2.744127541062840e-001	 1.643924238039060e+000	-3.937641127370863e+001
1	 2.579589685574620e-001	 1.646586299037103e+000	-3.995745166800520e+001
1	 2.415329321319333e-001	 1.649075833369447e+000	-4.048378763454516e+001
1	 2.251370686738320e-001	 1.651394119133861e+000	-4.095135462662886e+001
1	 2.087737604459027e-001	 1.653542473769713e+000	-4.135616983912226e+001
1	 1.924453475173707e-001	 1.655522252695209e+000	-4.169433605598615e+001
1	 1.761541271982328e-001	 1.657334847940780e+000	-4.196204527905086e+001
1	 1.599023535195375e-001	 1.658981686780223e+000	-4.215558213734576e+001
1	 3.252112883709185e-001	 1.641429628540587e+000	-3.722560595484832e+001
1	 3.086231225682338e-001	 1.644629270676910e+000	-3.795235776151106e+001
1	 2.920552726246377e-001	 1.647652097064122e+000	-3.863667706716755e+001
1	 2.755102931629164e-001	 1.650499264270161e+000	-3.927423920288376e+001
1	 2.589906991850010e-001	 1.653171972426168e+000	-3.986078919953634e+001
1	 2.424989653155539e-001	 1.655671463880202e+000	-4.039214635457174e+001
1	 2.260375250931032e-001	 1.657999021841892e+000	-4.086420858187121e+001
1	 2.096087703084788e-001	 1.660155969019819e+000	-4.127295654238359e+001
1	 1.932150503902341e-001	 1.662143666253301e+000	-4.161445755373874e+001
1	 1.768586718366746e-001	 1.663963511140317e+000	-4.188486927760410e+001
1	 1.605418976940590e-001	 1.665616936663167e+000	-4.208044318407869e+001
1	 3.265068192438411e-001	 1.647968524435843e+000	-3.709409286353072e+001
1	 3.098525718452795e-001	 1.651180912855387e+000	-3.782724693568206e+001
1	 2.932187212372420e-001	 1.654215781152202e+000	-3.851759858924341e+001
1	 2.766078322192715e-001	 1.657074290501588e+000	-3.916078923224927e+001
1	 2.600224298122194e-001	 1.659757645815585e+000	-3.975253074090114e+001
1	 2.434649984988196e-001	 1.662267094391330e+000	-4.028861008961660e+001
1	 2.269379815119977e-001	 1.664603924550310e+000	-4.076489376107956e+001
1	 2.104437801706726e-001	 1.666769464270312e+000	-4.117733193391361e+001
1	 1.939847532627300e-001	 1.668765079811762e+000	-4.152196244616590e+001
1	 1.775632164747878e-001	 1.670592174340182e+000	-4.179491453334479e+001
1	 1.611814418683190e-001	 1.672252186546373e+000	-4.199241234029059e+001
1	 3.278023501166604e-001	 1.654507420331330e+000	-3.695228535728193e+001
1	 3.110820211221888e-001	 1.657732555034092e+000	-3.769150287384147e+001
1	 2.943821698496740e-001	 1.660779465240521e+000	-3.838754911299854e+001
1	 2.777053712754186e-001	 1.663649316733266e+000	-3.903603771023526e+001
1	 2.610541604391976e-001	 1.666343319205270e+000	-3.963265350776506e+001
1	 2.444310316818189e-001	 1.668862724902740e+000	-4.017315723882854e+001
1	 2.278384379306092e-001	 1.671208827259018e+000	-4.065338998917358e+001
1	 2.112787900325794e-001	 1.673382959521094e+000	-4.106927743330635e+001
1	 1.947544561349502e-001	 1.675386493370500e+000	-4.141683384368738e+001
1	 1.782677611126548e-001	 1.677220837540294e+000	-4.169216587160128e+001
1	 1.618209860423831e-001	 1.678887436429775e+000	-4.189147609896669e+001
1	 3.290978809894109e-001	 1.661046316227001e+000	-3.680016019908721e+001
1	 3.123114703990073e-001	 1.664284197212973e+000	-3.754510181716665e+001
1	 2.955456184619911e-001	 1.667343149329012e+000	-3.824650489028578e+001
1	 2.788029103314271e-001	 1.670224342965123e+000	-3.889996135770125e+001
1	 2.620858910660155e-001	 1.672928992595140e+000	-3.950113507456705e+001
1	 2.453970648646408e-001	 1.675458355414341e+000	-4.004576654149332e+001
1	 2.287388943490323e-001	 1.677813729967921e+000	-4.052967740875818e+001
1	 2.121137998942950e-001	 1.679996454772071e+000	-4.094877475273056e+001
1	 1.955241590069866e-001	 1.682007906929424e+000	-4.129905512267385e+001
1	 1.789723057503575e-001	 1.683849500740571e+000	-4.157660835664783e+001
1	 1.624605302163164e-001	 1.685522686313308e+000	-4.177762116577942e+001
1	 3.303934118621270e-001	 1.667585212122803e+000	-3.663769451639713e+001
1	 3.135409196757802e-001	 1.670835839391968e+000	-3.738802037948462e+001
1	 2.967090670742507e-001	 1.673906833417610e+000	-3.809444254543856e+001
1	 2.799004493873660e-001	 1.676799369197082e+000	-3.875253726063109e+001
1	 2.631176216927533e-001	 1.679514665985110e+000	-3.935795336748246e+001
1	 2.463630980473739e-001	 1.682053985926043e+000	-3.990641707036389e+001
1	 2.296393507673612e-001	 1.684418632676925e+000	-4.039373647389523e+001
1	 2.129488097559151e-001	 1.686609950023146e+000	-4.081580589119346e+001
1	 1.962938618789311e-001	 1.688629320488438e+000	-4.116860992023099e+001
1	 1.796768503879780e-001	 1.690478163940929e+000	-4.144822728702068e+001
1	 1.631000743901845e-001	 1.692157936196906e+000	-4.165083445491790e+001
1	 3.316889427348432e-001	 1.674124108018686e+000	-3.646486579401032e+001
1	 3.147703689525531e-001	 1.677387481571024e+000	-3.722023553999566e+001
1	 2.978725156865105e-001	 1.680470517506249e+000	-3.793133906800072e+001
1	 2.809979884433051e-001	 1.683374395429068e+000	-3.859374286300536e+001
1	 2.641493523194912e-001	 1.686100339375096e+000	-3.920308665755611e+001
1	 2.473291312301070e-001	 1.688649616437755e+000	-3.975508822514736e+001
1	 2.305398071856901e-001	 1.691023535385935e+000	-4.024554794402010e+001
1	 2.137838196175352e-001	 1.693223445274223e+000	-4.067035312893979e+001
1	 1.970635647508757e-001	 1.695250734047455e+000	-4.102548212910813e+001
1	 1.803813950255986e-001	 1.697106827141288e+000	-4.130700819094290e+001
1	 1.637396185640525e-001	 1.698793186080504e+000	-4.151110308501586e+001
1	 3.329844736075938e-001	 1.680663003914599e+000	-3.628165186712119e+001
1	 3.159998182293716e-001	 1.683939123750080e+000	-3.704172463616296e+001
1	 2.990359642988275e-001	 1.687034201594863e+000	-3.775717180561789e+001
1	 2.820955274993135e-001	 1.689949421661007e+000	-3.842355595983474e+001
1	 2.651810829463090e-001	 1.692686012765018e+000	-3.903651355399250e+001
1	 2.482951644129290e-001	 1.695245246949386e+000	-3.959175972614639e+001
1	 2.314402636041132e-001	 1.697628438094853e+000	-4.008509287800274e+001
1	 2.146188294792508e-001	 1.699836940525207e+000	-4.051239902197857e+001
1	 1.978332676229121e-001	 1.701872147606379e+000	-4.086965589272678e+001
1	 1.810859396633013e-001	 1.703735490341565e+000	-4.115293682185647e+001
1	 1.643791627379858e-001	 1.705428435964037e+000	-4.135841437517533e+001
1	 3.342800044804131e-001	 1.687201899810492e+000	-3.608803091453085e+001
1	 3.172292675062811e-001	 1.690490765929081e+000	-3.685246535677295e+001
1	 3.001994129112596e-001	 1.693597885683388e+000	-3.757191845709993e+001
1	 2.831930665554606e-001	 1.696524447892823e+000	-3.824195469035961e+001
1	 2.662128135732872e-001	 1.699271686154789e+000	-3.885821299760282e+001
1	 2.492611975959284e-001	 1.701840877460847e+000	-3.941641160804586e+001
1	 2.323407200227248e-001	 1.704233340803587e+000	-3.991235262834282e+001
1	 2.154538393411576e-001	 1.706450435776000e+000	-4.034192639674202e+001
1	 1.986029704951323e-001	 1.708493561165121e+000	-4.070111560032061e+001
1	 1.817904843011682e-001	 1.710364153541677e+000	-4.098599915405683e+001
1	 1.650187069120498e-001	 1.712063685847439e+000	-4.119275584108114e+001
1	 3.355755353533356e-001	 1.693740795706313e+000	-3.588398145201293e+001
1	 3.184587167833267e-001	 1.697042408107969e+000	-3.665243573515262e+001
1	 3.013628615238639e-001	 1.700161569771757e+000	-3.737555706564290e+001
1	 2.842906056118157e-001	 1.703099474124443e+000	-3.804891753140370e+001
1	 2.672445442005057e-001	 1.705857359544326e+000	-3.866816425440343e+001
1	 2.502272307791939e-001	 1.708436507972044e+000	-3.922902421384320e+001
1	 2.332411764416191e-001	 1.710838243512040e+000	-3.972730883550424e+001
1	 2.162888492033513e-001	 1.713063931026508e+000	-4.015891834486313e+001
1	 1.993726733676282e-001	 1.715114974723586e+000	-4.051984588219201e+001
1	 1.824950289392815e-001	 1.716992816741543e+000	-4.080618137843072e+001
1	 1.656582510863099e-001	 1.718698935730644e+000	-4.101411519120588e+001
1	 3.368710662263960e-001	 1.700279691602014e+000	-3.566948232583579e+001
1	 3.196881660605543e-001	 1.703594050286686e+000	-3.644161414254343e+001
1	 3.025263101366981e-001	 1.706725253859904e+000	-3.716806601220634e+001
1	 2.853881446684482e-001	 1.709674500355790e+000	-3.784442329088417e+001
1	 2.682762748280446e-001	 1.712443032933547e+000	-3.846634690936403e+001
1	 2.511932639628146e-001	 1.715032138482888e+000	-3.902957818892204e+001
1	 2.341416328608904e-001	 1.717443146220116e+000	-3.952994342237633e+001
1	 2.171238590659275e-001	 1.719677426276633e+000	-3.996335821807794e+001
1	 2.001423762404916e-001	 1.721736388281684e+000	-4.032583160507563e+001
1	 1.831995735777232e-001	 1.723621479941080e+000	-4.061346989829172e+001
1	 1.662977952608313e-001	 1.725334185613589e+000	-4.082248032310416e+001
1	 1.599023535195375e-001	 1.658981686780223e+000	-4.215558213734576e+001
1	 1.436898138727403e-001	 1.660464440569369e+000	-4.227226278361417e+001
1	 1.275211442140091e-001	 1.661784344475902e+000	-4.231030062344420e+001
1	 1.113984995945325e-001	 1.662942924358685e+000	-4.226753304406236e+001
1	 9.532398912352270e-002	 1.663941735890127e+000	-4.214188530491868e+001
1	 7.929967567523567e-002	 1.664782363185058e+000	-4.193137092225842e+001
1	 6.332757563927832e-002	 1.665466417436829e+000	-4.163409192862991e+001
1	 4.740965871336957e-002	 1.665995535562018e+000	-4.124823901055348e+001
1	 3.154784773768926e-002	 1.666371378854980e+000	-4.077209152771532e+001
1	 1.574401856991394e-002	 1.666595631653491e+000	-4.020401741718509e+001
1	 0.000000000000000e+000	 1.666670000016666e+000	-3.954247298625918e+001
1	 1.605418976940590e-001	 1.665616936663167e+000	-4.208044318407869e+001
1	 1.442645145034967e-001	 1.667105620862422e+000	-4.219850168501032e+001
1	 1.280311767630719e-001	 1.668430803845940e+000	-4.223725763324774e+001
1	 1.118440481432776e-001	 1.669594017575405e+000	-4.219450749391672e+001
1	 9.570524618888120e-002	 1.670596823945298e+000	-4.206813668109289e+001
1	 7.961684202477348e-002	 1.671440813406267e+000	-4.185611999353240e+001
1	 6.358086010527686e-002	 1.672127603595793e+000	-4.155652192207361e+001
1	 4.759927800607747e-002	 1.672658837977463e+000	-4.116749683194313e+001
1	 3.167402625791174e-002	 1.673036184490139e+000	-4.068728902335532e+001
1	 1.580698822110221e-002	 1.673261334208274e+000	-4.011423267391643e+001
1	 0.000000000000000e+000	 1.673336000014533e+000	-3.944675166647653e+001
1	 1.611814418683190e-001	 1.672252186546373e+000	-4.199241234029059e+001
1	 1.448392151340877e-001	 1.673746801155640e+000	-4.211178694937433e+001
1	 1.285412093120838e-001	 1.675077263216021e+000	-4.215124900150071e+001
1	 1.122895966920915e-001	 1.676245110792036e+000	-4.210855363244492e+001
1	 9.608650325442086e-002	 1.677251912000235e+000	-4.198154596334214e+001
1	 7.993400837458460e-002	 1.678099263627101e+000	-4.176816158938605e+001
1	 6.383414457160815e-002	 1.678788789754250e+000	-4.146642693692437e+001
1	 4.778889729913253e-002	 1.679322140392283e+000	-4.107445949220157e+001
1	 3.180020477843861e-002	 1.679700990124582e+000	-4.059046790514571e+001
1	 1.586995787248308e-002	 1.679927036762280e+000	-4.001275197173935e+001
1	 0.000000000000000e+000	 1.680002000011600e+000	-3.933970249864225e+001
1	 1.618209860423831e-001	 1.678887436429775e+000	-4.189147609896669e+001
1	 1.454139157645546e-001	 1.680387981448981e+000	-4.201210646273783e+001
1	 1.290512418610575e-001	 1.681723722586136e+000	-4.205226355404948e+001
1	 1.127351452409571e-001	 1.682896204008598e+000	-4.200966077532689e+001
1	 9.646776032009645e-002	 1.683907000054997e+000	-4.188210251067679e+001
1	 8.025117472460075e-002	 1.684757713847654e+000	-4.166748466934570e+001
1	 6.408742903818900e-002	 1.685449975912325e+000	-4.136379509430663e+001
1	 4.797851659244794e-002	 1.685985442806634e+000	-4.096911383922412e+001
1	 3.192638329919379e-002	 1.686365795758486e+000	-4.048161331721213e+001
1	 1.593292752400839e-002	 1.686592739315701e+000	-3.989955832493702e+001
1	 0.000000000000000e+000	 1.686668000008066e+000	-3.922130594576408e+001
1	 1.624605302163164e-001	 1.685522686313308e+000	-4.177762116577942e+001
1	 1.459886163949389e-001	 1.687029161742404e+000	-4.189944830188393e+001
1	 1.295612744100057e-001	 1.688370181956273e+000	-4.194029029269186e+001
1	 1.131806937898572e-001	 1.689547297225114e+000	-4.189781840648326e+001
1	 9.684901738586264e-002	 1.690562088109642e+000	-4.176979584966651e+001
1	 8.056834107475359e-002	 1.691416164068020e+000	-4.155407836678813e+001
1	 6.434071350493623e-002	 1.692111162070146e+000	-4.124861470239539e+001
1	 4.816813588593695e-002	 1.692648745220673e+000	-4.085144692800662e+001
1	 3.205256182010117e-002	 1.693030601392032e+000	-4.036071063760980e+001
1	 1.599589717563000e-002	 1.693258441868734e+000	-3.977463501525846e+001
1	 0.000000000000000e+000	 1.693334000004133e+000	-3.909154277849024e+001
1	 1.631000743901845e-001	 1.692157936196906e+000	-4.165083445491790e+001
1	 1.465633170252818e-001	 1.693670342035869e+000	-4.177380073060879e+001
1	 1.300713069589412e-001	 1.695016641326421e+000	-4.181531839173029e+001
1	 1.136262423387744e-001	 1.696198390441608e+000	-4.177301617477619e+001
1	 9.723027445167415e-002	 1.697217176164229e+000	-4.164461567115436e+001
1	 8.088550742497476e-002	 1.698074614288291e+000	-4.142793198553103e+001
1	 6.459399797176668e-002	 1.698772348227841e+000	-4.112087425275122e+001
1	 4.835775517951275e-002	 1.699312047634556e+000	-4.072144601658681e+001
1	 3.217874034108466e-002	 1.699695407025399e+000	-4.022774547373721e+001
1	 1.605886682729975e-002	 1.699924144421573e+000	-3.963796558667709e+001
1	 0.000000000000000e+000	 1.700000000000000e+000	-3.895039406907861e+001
1	 1.637396185640525e-001	 1.698793186080504e+000	-4.151110308501586e+001
1	 1.471380176556247e-001	 1.700311522329333e+000	-4.163515219606627e+001
1	 1.305813395078766e-001	 1.701663100696570e+000	-4.167733719460215e+001
1	 1.140717908876917e-001	 1.702849483658101e+000	-4.163524389078947e+001
1	 9.761153151748563e-002	 1.703872264218816e+000	-4.150655182704852e+001
1	 8.120267377519592e-002	 1.704733064508563e+000	-4.128903499650353e+001
1	 6.484728243859711e-002	 1.705433534385534e+000	-4.098056241673726e+001
1	 4.854737447308854e-002	 1.705975350048439e+000	-4.057909856207578e+001
1	 3.230491886206814e-002	 1.706360212658766e+000	-4.008270365785754e+001
1	 1.612183647896950e-002	 1.706589846974412e+000	-3.948953384026859e+001
1	 0.000000000000000e+000	 1.706665999995867e+000	-3.879784118550585e+001
1	 1.643791627379858e-001	 1.705428435964037e+000	-4.135841437517533e+001
1	 1.477127182860090e-001	 1.706952702622757e+000	-4.148349132520364e+001
1	 1.310913720568248e-001	 1.708309560066706e+000	-4.152633621058764e+001
1	 1.145173394365917e-001	 1.709500576874617e+000	-4.148449152368117e+001
1	 9.799278858325179e-002	 1.710527352273461e+000	-4.135559432718829e+001
1	 8.151984012534874e-002	 1.711391514728928e+000	-4.113737703449791e+001
1	 6.510056690534437e-002	 1.712094720543356e+000	-4.082766804202204e+001
1	 4.873699376657754e-002	 1.712638652462478e+000	-4.042439221678991e+001
1	 3.243109738297553e-002	 1.713025018292312e+000	-3.992557124272456e+001
1	 1.618480613059111e-002	 1.713255549527444e+000	-3.932932382920954e+001
1	 0.000000000000000e+000	 1.713331999991934e+000	-3.863386578571510e+001
1	 1.650187069120498e-001	 1.712063685847439e+000	-4.119275584108114e+001
1	 1.482874189164758e-001	 1.713593882916097e+000	-4.131880692127741e+001
1	 1.316014046057985e-001	 1.714956019436821e+000	-4.136230511159980e+001
1	 1.149628879854574e-001	 1.716151670091179e+000	-4.132074919811045e+001
1	 9.837404564892738e-002	 1.717182440328223e+000	-4.119173333628685e+001
1	 8.183700647536490e-002	 1.718049964949481e+000	-4.097294789499146e+001
1	 6.535385137192523e-002	 1.718755906701431e+000	-4.066218014916290e+001
1	 4.892661305989297e-002	 1.719301954876830e+000	-4.025731482446348e+001
1	 3.255727590373070e-002	 1.719689823926216e+000	-3.975633449730757e+001
1	 1.624777578211642e-002	 1.719921252080867e+000	-3.915731985389129e+001
1	 0.000000000000000e+000	 1.719997999988401e+000	-3.845844981199718e+001
1	 1.656582510863099e-001	 1.718698935730644e+000	-4.101411519120588e+001
1	 1.488621195470669e-001	 1.720235063209314e+000	-4.114108796044838e+001
1	 1.321114371548103e-001	 1.721602478806902e+000	-4.118523372904112e+001
1	 1.154084365342713e-001	 1.722802763307809e+000	-4.114400719123771e+001
1	 9.875530271446709e-002	 1.723837528383160e+000	-4.101495917093772e+001
1	 8.215417282517604e-002	 1.724708415170315e+000	-4.079573753104627e+001
1	 6.560713583825652e-002	 1.725417092859887e+000	-4.048408792826985e+001
1	 4.911623235294803e-002	 1.725965257291649e+000	-4.007785441655758e+001
1	 3.268345442425758e-002	 1.726354629560658e+000	-3.957497990262193e+001
1	 1.631074543349728e-002	 1.726586954634872e+000	-3.897350645715066e+001
1	 0.000000000000000e+000	 1.726663999985468e+000	-3.827157548550157e+001
1	 1.662977952608313e-001	 1.725334185613589e+000	-4.082248032310416e+001
1	 1.494368201778233e-001	 1.726876243502368e+000	-4.095032358845818e+001
1	 1.326214697038732e-001	 1.728248938176940e+000	-4.099511205073957e+001
1	 1.158539850830164e-001	 1.729453856524530e+000	-4.095425592979156e+001
1	 9.913655977982550e-002	 1.730492616438330e+000	-4.082526229669697e+001
1	 8.247133917471385e-002	 1.731366865391524e+000	-4.060573605027950e+001
1	 6.586042030425503e-002	 1.732078279018852e+000	-4.029338073574330e+001
1	 4.930585164565591e-002	 1.732628559707094e+000	-3.988599920864771e+001
1	 3.280963294448005e-002	 1.733019435195818e+000	-3.938149414764802e+001
1	 1.637371508468555e-002	 1.733252657189655e+000	-3.877786841960513e+001
1	 0.000000000000000e+000	 1.733329999983334e+000	-3.807322530087446e+001
1	 1.733329999983334e+000	 0.000000000000000e+000	 1.504827535635915e+001
1	 1.733252657189655e+000	 1.637371508468560e-002	 1.449329375022997e+001
1	 1.733019435195817e+000	 3.280963294448016e-002	 1.393693453862857e+001
1	 1.732628559707093e+000	 4.930585164565578e-002	 1.338049420261174e+001
1	 1.732078279018852e+000	 6.586042030425496e-002	 1.282527438352105e+001
1	 1.731366865391524e+000	 8.247133917471382e-002	 1.227258051515876e+001
1	 1.730492616438330e+000	 9.913655977982551e-002	 1.172372041310586e+001
1	 1.729453856524530e+000	 1.158539850830164e-001	 1.118000282224932e+001
1	 1.728248938176940e+000	 1.326214697038731e-001	 1.064273592371318e+001
1	 1.726876243502368e+000	 1.494368201778232e-001	 1.011322580251494e+001
1	 1.725334185613589e+000	 1.662977952608313e-001	 9.592774877400343e+000
1	 1.739996999982150e+000	 0.000000000000000e+000	 1.478240338586132e+001
1	 1.739919359700741e+000	 1.643669418203721e-002	 1.424013346872969e+001
1	 1.739685240652657e+000	 3.293583039301111e-002	 1.369612452907563e+001
1	 1.739292861718604e+000	 4.949549938368804e-002	 1.315170005999353e+001
1	 1.738740464456275e+000	 6.611374276632483e-002	 1.260818822249157e+001
1	 1.738026314480604e+000	 8.278855310363308e-002	 1.206692042270882e+001
1	 1.737148702856828e+000	 9.951787403924238e-002	 1.152922984556168e+001
1	 1.736105947505125e+000	 1.162996004706390e-001	 1.099644994596853e+001
1	 1.734896394615545e+000	 1.331315787655219e-001	 1.046991289893256e+001
1	 1.733518420071906e+000	 1.500116070224829e-001	 9.950948009893343e+000
1	 1.731970430883254e+000	 1.669374353768737e-001	 9.440880086894547e+000
1	 1.746663999981866e+000	 0.000000000000000e+000	 1.451507044988630e+001
1	 1.746586062212704e+000	 1.649967327917074e-002	 1.398567289223495e+001
1	 1.746351046110308e+000	 3.306202784119438e-002	 1.345417471804499e+001
1	 1.745957163730827e+000	 4.968514712131888e-002	 1.292192596303109e+001
1	 1.745402649894287e+000	 6.636706522800251e-002	 1.239028086647356e+001
1	 1.744685763570132e+000	 8.310576703221921e-002	 1.186059639462319e+001
1	 1.743804789275623e+000	 9.989918829842162e-002	 1.133423071980923e+001
1	 1.742758038485864e+000	 1.167452158581424e-001	 1.081254165647708e+001
1	 1.741543851054149e+000	 1.336416878271795e-001	 1.029688505551808e+001
1	 1.740160596641313e+000	 1.505863938672744e-001	 9.788613158389508e+000
1	 1.738606676152682e+000	 1.675770754931521e-001	 9.289072912662846e+000
1	 1.753330999982383e+000	 0.000000000000000e+000	 1.424634991588946e+001
1	 1.753252764725449e+000	 1.656265237610888e-002	 1.372997526663877e+001
1	 1.753016851568687e+000	 3.318822528906295e-002	 1.321113865905879e+001
1	 1.752621465743698e+000	 4.987479485858096e-002	 1.269121620649793e+001
1	 1.752064835332843e+000	 6.662038768931183e-002	 1.217158778928305e+001
1	 1.751345212660085e+000	 8.342298096048077e-002	 1.165363552545058e+001
1	 1.750460875694719e+000	 1.002805025573522e-001	 1.113874219643902e+001
1	 1.749410129466778e+000	 1.171908312454938e-001	 1.062828962904556e+001
1	 1.748191307492805e+000	 1.341517968887906e-001	 1.012365703508970e+001
1	 1.746802773210664e+000	 1.511611807121225e-001	 9.626219310365158e+000
1	 1.745242921421967e+000	 1.682167156095753e-001	 9.137345294608480e+000
1	 1.759997999983599e+000	 0.000000000000000e+000	 1.397631403964280e+001
1	 1.759919467238878e+000	 1.662563147287437e-002	 1.347310287951475e+001
1	 1.759682657027710e+000	 3.331442273664976e-002	 1.296706909418084e+001
1	 1.759285767757147e+000	 5.006444259550699e-002	 1.245961441399979e+001
1	 1.758727020771897e+000	 6.687371015027672e-002	 1.195214392722592e+001
1	 1.758004661750444e+000	 8.374019488842645e-002	 1.144606449919470e+001
1	 1.757116962114120e+000	 1.006618168160231e-001	 1.094278314571394e+001
1	 1.756062220447895e+000	 1.176364466326602e-001	 1.044370536203672e+001
1	 1.754838763931569e+000	 1.346619059503003e-001	 9.950233408935318e+000
1	 1.753444949780036e+000	 1.517359675569519e-001	 9.463764557541410e+000
1	 1.751879166691197e+000	 1.688563557260526e-001	 8.985689294763432e+000
1	 1.766664999985416e+000	 0.000000000000000e+000	 1.370503398621113e+001
1	 1.766586169752895e+000	 1.668861056948992e-002	 1.321511707819967e+001
1	 1.766348462487290e+000	 3.344062018398774e-002	 1.272201796932782e+001
1	 1.765950069771108e+000	 5.025409033212962e-002	 1.222716355063906e+001
1	 1.765389206211403e+000	 6.712703261092110e-002	 1.173198368924006e+001
1	 1.764664110841186e+000	 8.405740881606484e-002	 1.123790959706032e+001
1	 1.763773048533831e+000	 1.010431310744234e-001	 1.074637215304729e+001
1	 1.762714311429247e+000	 1.180820620196086e-001	 1.025880018024323e+001
1	 1.761486220370494e+000	 1.351720150116536e-001	 9.776618679338254e+000
1	 1.760087126349500e+000	 1.523107544016878e-001	 9.301247020444249e+000
1	 1.758515411960465e+000	 1.694959958424926e-001	 8.834097094983727e+000
1	 1.773331999987732e+000	 0.000000000000000e+000	 1.343257985045524e+001
1	 1.773252872267407e+000	 1.675158966597828e-002	 1.295607828746767e+001
1	 1.773014267947344e+000	 3.356681763110986e-002	 1.247603644923528e+001
1	 1.772614371785513e+000	 5.044373806848151e-002	 1.199390593539319e+001
1	 1.772051391651317e+000	 6.738035507126874e-002	 1.151114096680872e+001
1	 1.771323559932291e+000	 8.437462274340453e-002	 1.102919670502531e+001
1	 1.770429134953857e+000	 1.014244453325420e-001	 1.054952752435756e+001
1	 1.769366402410864e+000	 1.185276774063061e-001	 1.007358523815096e+001
1	 1.768133676809635e+000	 1.356821240727953e-001	 9.602817280874005e+000
1	 1.766729302919135e+000	 1.528855412462549e-001	 9.138664847863552e+000
1	 1.765151657229859e+000	 1.701356359588047e-001	 8.682560994697393e+000
1	 1.779998999990449e+000	 0.000000000000000e+000	 1.315902067707403e+001
1	 1.779919574782316e+000	 1.681456876236214e-002	 1.269604602680800e+001
1	 1.779680073407788e+000	 3.369301507804907e-002	 1.222917493208722e+001
1	 1.779278673800295e+000	 5.063338580459535e-002	 1.175988325321513e+001
1	 1.778713577091589e+000	 6.763367753134363e-002	 1.128964914365140e+001
1	 1.777983009023737e+000	 8.469183667045423e-002	 1.081995132124229e+001
1	 1.777085221374202e+000	 1.018057595903678e-001	 1.035226729130240e+001
1	 1.776018493392776e+000	 1.189732927927196e-001	 9.888071523127872e+000
1	 1.774781133249046e+000	 1.361922331336704e-001	 9.428833581678594e+000
1	 1.773371479489014e+000	 1.534603280905781e-001	 8.976016216323412e+000
1	 1.771787902499474e+000	 1.707752760748979e-001	 8.531073408702202e+000
1	 1.786665999993466e+000	 0.000000000000000e+000	 1.288442448019816e+001
1	 1.786586277297526e+000	 1.687754785866422e-002	 1.243507892731511e+001
1	 1.786345878868537e+000	 3.381921252483833e-002	 1.198148306381811e+001
1	 1.785942975815387e+000	 5.082303354050381e-002	 1.152513656686260e+001
1	 1.785375762532177e+000	 6.788699999116955e-002	 1.106754110519738e+001
1	 1.784642458115503e+000	 8.500905059722247e-002	 1.061019856327445e+001
1	 1.783741307794869e+000	 1.021870738478898e-001	 1.015460921639599e+001
1	 1.782670584375014e+000	 1.194189081788164e-001	 9.702269858542561e+000
1	 1.781428589688781e+000	 1.367023421942238e-001	 9.254671884687957e+000
1	 1.780013656059212e+000	 1.540351149345822e-001	 8.813299329565135e+000
1	 1.778424147769398e+000	 1.714149161906810e-001	 8.379626865013456e+000
1	 1.793332999996683e+000	 0.000000000000000e+000	 1.260885826254648e+001
1	 1.793252979812941e+000	 1.694052695490725e-002	 1.217323474820265e+001
1	 1.793011684329505e+000	 3.394540997151059e-002	 1.173300975209605e+001
1	 1.792607277830720e+000	 5.101268127623954e-002	 1.128970632846369e+001
1	 1.792037947973034e+000	 6.814032245077047e-002	 1.084484924784804e+001
1	 1.791301907207566e+000	 8.532626452371793e-002	 1.039996317517007e+001
1	 1.790397394215866e+000	 1.025683881050970e-001	 9.956570798011736e+000
1	 1.789322675357607e+000	 1.198645235645632e-001	 9.516190906812371e+000
1	 1.788076046128894e+000	 1.372124512544006e-001	 9.080336428849980e+000
1	 1.786655832629805e+000	 1.546099017781922e-001	 8.650512418040877e+000
1	 1.785060393039723e+000	 1.720545563060633e-001	 8.228214002759405e+000
1	 1.800000000000000e+000	 0.000000000000000e+000	 1.233238803415683e+001
1	 1.799919682328466e+000	 1.700350605111395e-002	 1.191057039295008e+001
1	 1.799677489790610e+000	 3.407160741809879e-002	 1.148380317999482e+001
1	 1.799271579846228e+000	 5.120232901183521e-002	 1.105363239082540e+001
1	 1.798700133414114e+000	 6.839364491017019e-002	 1.062160548803345e+001
1	 1.797961356299908e+000	 8.564347844994921e-002	 1.018926953437991e+001
1	 1.797053480637194e+000	 1.029497023619785e-001	 9.758169275274199e+000
1	 1.795974766340585e+000	 1.203101389499273e-001	 9.329845172384271e+000
1	 1.794723502569440e+000	 1.377225603141456e-001	 8.905831390309761e+000
1	 1.793298009200867e+000	 1.551846886213329e-001	 8.487653738419272e+000
1	 1.791696638310540e+000	 1.726941964209536e-001	 8.076827570123408e+000
1	 1.725334185613589e+000	 1.662977952608313e-001	 9.592774877400343e+000
1	 1.723621479941080e+000	 1.831995735777232e-001	 9.077035094962485e+000
1	 1.721736388281684e+000	 2.001423762404914e-001	 8.561500902305653e+000
1	 1.719677426276633e+000	 2.171238590659275e-001	 8.047446121799002e+000
1	 1.717443146220116e+000	 2.341416328608902e-001	 7.536115239489385e+000
1	 1.715032138482888e+000	 2.511932639628145e-001	 7.028721050737913e+000
1	 1.712443032933547e+000	 2.682762748280447e-001	 6.526442298048114e+000
1	 1.709674500355791e+000	 2.853881446684482e-001	 6.030421305339439e+000
1	 1.706725253859903e+000	 3.025263101366982e-001	 5.541761613057377e+000
1	 1.703594050286686e+000	 3.196881660605542e-001	 5.061525618649215e+000
1	 1.700279691602013e+000	 3.368710662263961e-001	 4.590732227057883e+000
1	 1.731970430883254e+000	 1.669374353768737e-001	 9.440880086894547e+000
1	 1.730251137539157e+000	 1.839042239088101e-001	 8.935265647113312e+000
1	 1.728358795150721e+000	 2.009121945807593e-001	 8.429492730148173e+000
1	 1.726291913649813e+000	 2.179589941929544e-001	 7.924835317187059e+000
1	 1.724049039762244e+000	 2.350422243625717e-001	 7.422537416711090e+000
1	 1.721628758436840e+000	 2.521594420663184e-001	 6.923810692522961e+000
1	 1.719029694272197e+000	 2.693081602310289e-001	 6.429832084695682e+000
1	 1.716250512939384e+000	 2.864858483727273e-001	 5.941741427750557e+000
1	 1.713289922598861e+000	 3.036899332845457e-001	 5.460639070515494e+000
1	 1.710146675309802e+000	 3.209177997738291e-001	 4.987583502248679e+000
1	 1.706819568430031e+000	 3.381667914486827e-001	 4.523588989737462e+000
1	 1.738606676152682e+000	 1.675770754931521e-001	 9.289072912662846e+000
1	 1.736880795136925e+000	 1.846088742402069e-001	 8.793728045809871e+000
1	 1.734981202019403e+000	 2.016820129213816e-001	 8.297862295659639e+000
1	 1.732906401022620e+000	 2.187941293203549e-001	 7.802748714882629e+000
1	 1.730654933303999e+000	 2.359428158646245e-001	 7.309629749995274e+000
1	 1.728225378390438e+000	 2.531256201701740e-001	 6.819714853523107e+000
1	 1.725616355610525e+000	 2.703400456343321e-001	 6.334178089850526e+000
1	 1.722826525522695e+000	 2.875835520772833e-001	 5.854155739121580e+000
1	 1.719854591337579e+000	 3.048535564326230e-001	 5.380743903697643e+000
1	 1.716699300332726e+000	 3.221474334872859e-001	 4.914996121811477e+000
1	 1.713359445257894e+000	 3.394625166711073e-001	 4.457920993182342e+000
1	 1.745242921421967e+000	 1.682167156095753e-001	 9.137345294608480e+000
1	 1.743510452734483e+000	 1.853135245718127e-001	 8.652408439083931e+000
1	 1.741603608887835e+000	 2.024518312622533e-001	 8.166590163783775e+000
1	 1.739520888395156e+000	 2.196292644480248e-001	 7.681161516926902e+000
1	 1.737260826845480e+000	 2.368434073669490e-001	 7.197362310023006e+000
1	 1.734821998343771e+000	 2.540917982742895e-001	 6.716398715901831e+000
1	 1.732203016948608e+000	 2.713719310378722e-001	 6.239440861233955e+000
1	 1.729402538105790e+000	 2.886812557820459e-001	 5.767620417960050e+000
1	 1.726419260076111e+000	 3.060171795808724e-001	 5.302028198187232e+000
1	 1.723251925355489e+000	 3.233770672008791e-001	 4.843711757244973e+000
1	 1.719899322085622e+000	 3.407582418936351e-001	 4.393673009715018e+000
1	 1.751879166691197e+000	 1.688563557260526e-001	 8.985689294763432e+000
1	 1.750140110331933e+000	 1.860181749035265e-001	 8.511293184856386e+000
1	 1.748226015756122e+000	 2.032216496032693e-001	 8.035657193950044e+000
1	 1.746135375767526e+000	 2.204643995758591e-001	 7.560049301107105e+000
1	 1.743866720386786e+000	 2.377439988694453e-001	 7.085705620973240e+000
1	 1.741418618296932e+000	 2.550579763785728e-001	 6.613827989393055e+000
1	 1.738789678286527e+000	 2.724038164415678e-001	 6.145581544360236e+000
1	 1.735978550688731e+000	 2.897789594869453e-001	 5.682092306769699e+000
1	 1.732983928814502e+000	 3.071808027292359e-001	 5.224444765581263e+000
1	 1.729804550378127e+000	 3.246067009145631e-001	 4.773679472134987e+000
1	 1.726439198913232e+000	 3.420539671162316e-001	 4.330790648484149e+000
1	 1.758515411960465e+000	 1.694959958424926e-001	 8.834097094983726e+000
1	 1.756769767929376e+000	 1.867228252352476e-001	 8.370368846976591e+000
1	 1.754848422624370e+000	 2.039914679443244e-001	 7.905044534517059e+000
1	 1.752749863139835e+000	 2.212995347037537e-001	 7.439388013866706e+000
1	 1.750472613928017e+000	 2.386445903720133e-001	 6.974630651966026e+000
1	 1.748015238250009e+000	 2.560241544829318e-001	 6.511968901346304e+000
1	 1.745376339624358e+000	 2.734357018453367e-001	 6.052561871256517e+000
1	 1.742554563271583e+000	 2.908766631919111e-001	 5.597528899521996e+000
1	 1.739548597552804e+000	 3.083444258776562e-001	 5.147947129791058e+000
1	 1.736357175400671e+000	 3.258363346282924e-001	 4.704849098958142e+000
1	 1.732979075740743e+000	 3.433496923388628e-001	 4.269220339674473e+000
1	 1.765151657229859e+000	 1.701356359588047e-001	 8.682560994697393e+000
1	 1.763399425526912e+000	 1.874274755668750e-001	 8.229622191351471e+000
1	 1.761470829492683e+000	 2.047612862853135e-001	 7.774733617341249e+000
1	 1.759364350512185e+000	 2.221346698316040e-001	 7.319153963375443e+000
1	 1.757078507469271e+000	 2.395451818745535e-001	 6.864108808698457e+000
1	 1.754611858203091e+000	 2.569903325872746e-001	 6.410788186996578e+000
1	 1.751963000962180e+000	 2.744675872490972e-001	 5.960344149437902e+000
1	 1.749130575854412e+000	 2.919743668968733e-001	 5.513888329409493e+000
1	 1.746113266291066e+000	 3.095080490260753e-001	 5.072489513652467e+000
1	 1.742909800423157e+000	 3.270659683420218e-001	 4.637171224628701e+000
1	 1.739518952568174e+000	 3.446454175614939e-001	 4.208909319073100e+000
1	 1.771787902499474e+000	 1.707752760748979e-001	 8.531073408702202e+000
1	 1.770029083124643e+000	 1.881321258983079e-001	 8.089040182161702e+000
1	 1.768093236361167e+000	 2.055311046261315e-001	 7.644706152467537e+000
1	 1.765978837884681e+000	 2.229698049593054e-001	 7.199323812754892e+000
1	 1.763684401010645e+000	 2.404457733769656e-001	 6.754111925268743e+000
1	 1.761208478156271e+000	 2.579565106915091e-001	 6.310253079953130e+000
1	 1.758549662300072e+000	 2.754994726527677e-001	 5.868891251129857e+000
1	 1.755706588437281e+000	 2.930720706017621e-001	 5.431129356874969e+000
1	 1.752677935029338e+000	 3.106716721744358e-001	 4.998026825836531e+000
1	 1.749462425445618e+000	 3.282956020557054e-001	 4.570597176369588e+000
1	 1.746058829395541e+000	 3.459411427840905e-001	 4.149805612982446e+000
1	 1.778424147769398e+000	 1.714149161906810e-001	 8.379626865013456e+000
1	 1.776658740722669e+000	 1.888367762294454e-001	 7.948609978161910e+000
1	 1.774715643229925e+000	 2.063009229666732e-001	 7.514944122939384e+000
1	 1.772593325257429e+000	 2.238049400867535e-001	 7.079874573456131e+000
1	 1.770290294552242e+000	 2.413463648791500e-001	 6.644612256183046e+000
1	 1.767805098109637e+000	 2.589226887955433e-001	 6.210331302900615e+000
1	 1.765136323638111e+000	 2.765313580562662e-001	 5.778166602731909e+000
1	 1.762282601020255e+000	 2.941697743065070e-001	 5.349211357908236e+000
1	 1.759242603767669e+000	 3.118352953226800e-001	 4.924514648053431e+000
1	 1.756015050468088e+000	 3.295252357692979e-001	 4.505079007899989e+000
1	 1.752598706222864e+000	 3.472368680066182e-001	 4.091858023471152e+000
1	 1.785060393039723e+000	 1.720545563060633e-001	 8.228214002759405e+000
1	 1.783288398321091e+000	 1.895414265601867e-001	 7.808318929064463e+000
1	 1.781338050099065e+000	 2.070707413068336e-001	 7.385429779723758e+000
1	 1.779207812630531e+000	 2.246400752138435e-001	 6.960783598784816e+000
1	 1.776896188094157e+000	 2.422469563810069e-001	 6.535582468541106e+000
1	 1.774401718063279e+000	 2.598888668992851e-001	 6.110991058508446e+000
1	 1.771722984976377e+000	 2.775632434595108e-001	 5.688134174516687e+000
1	 1.768858613603400e+000	 2.952674780110384e-001	 5.268094312604484e+000
1	 1.765807272506106e+000	 3.129989184707498e-001	 4.851909222541874e+000
1	 1.762567675490600e+000	 3.307548694827538e-001	 4.440569485931001e+000
1	 1.759138583050161e+000	 3.485325932290429e-001	 4.035016113953827e+000
1	 1.791696638310540e+000	 1.726941964209536e-001	 8.076827570123408e+000
1	 1.789918055920010e+000	 1.902460768904308e-001	 7.668154572002553e+000
1	 1.787960456968690e+000	 2.078405596465076e-001	 7.256145636749599e+000
1	 1.785822300004091e+000	 2.254752103404711e-001	 6.842028577570081e+000
1	 1.783502081636491e+000	 2.431475478824360e-001	 6.426995634394903e+000
1	 1.780998338017287e+000	 2.608550450026427e-001	 6.012201020541338e+000
1	 1.778309646314947e+000	 2.785951288624201e-001	 5.598758470557619e+000
1	 1.775434626186778e+000	 2.963651817152860e-001	 5.187738793976187e+000
1	 1.772371941244703e+000	 3.141625416185883e-001	 4.780167439836432e+000
1	 1.769120300513189e+000	 3.319845031960277e-001	 4.377022076961517e+000
1	 1.765678459877450e+000	 3.498283184513297e-001	 3.979230195091337e+000
1	 1.700279691602013e+000	 3.368710662263961e-001	 4.590732227057883e+000
1	 1.696780487790798e+000	 3.540749052345567e-001	 4.130801397527790e+000
1	 1.693095819381501e+000	 3.712943765690969e-001	 3.683121326339241e+000
1	 1.689224633001393e+000	 3.885267107333296e-001	 3.248394778460547e+000
1	 1.685165925907488e+000	 4.057691007109044e-001	 2.827290171363504e+000
1	 1.680918747307537e+000	 4.230187029988018e-001	 2.420440106082539e+000
1	 1.676482199660132e+000	 4.402726386897363e-001	 2.028439923999141e+000
1	 1.671855439951955e+000	 4.575279946036862e-001	 1.651846292715309e+000
1	 1.667037680950171e+000	 4.747818244681850e-001	 1.291175824402025e+000
1	 1.662028192427957e+000	 4.920311501469236e-001	 9.469037300205088e-001
1	 1.656826302361175e+000	 5.092729629161171e-001	 6.194625128187835e-001
1	 1.706819568430031e+000	 3.381667914486827e-001	 4.523588989737462e+000
1	 1.703306905444065e+000	 3.554368025040349e-001	 4.070167023150343e+000
1	 1.699608064497652e+000	 3.727225060132112e-001	 3.628805726993947e+000
1	 1.695721988166405e+000	 3.900211218270627e-001	 3.200217703586116e+000
1	 1.691647669850424e+000	 4.073298321324640e-001	 2.785080463279606e+000
1	 1.687384155100361e+000	 4.246457824892795e-001	 2.384034923085532e+000
1	 1.682930542922536e+000	 4.419660829169301e-001	 1.997683931661291e+000
1	 1.678285987061092e+000	 4.592878090302757e-001	 1.626590824108203e+000
1	 1.673449697255204e+000	 4.766080032244467e-001	 1.271278010046487e+000
1	 1.668420940469325e+000	 4.939236759081699e-001	 9.322255984479270e-001
1	 1.663199042094462e+000	 5.112318067850482e-001	 6.098700627106584e-001
1	 1.713359445257894e+000	 3.394625166711073e-001	 4.457920993182342e+000
1	 1.709833323097210e+000	 3.567986997736140e-001	 4.011120138894963e+000
1	 1.706120309613704e+000	 3.741506354573975e-001	 3.576180871531030e+000
1	 1.702219343331335e+000	 3.915155329208471e-001	 3.153825673144434e+000
1	 1.698129413793288e+000	 4.088905635540621e-001	 2.744741212683137e+000
1	 1.693849562893120e+000	 4.262728619797906e-001	 2.349576812350013e+000
1	 1.689378886184878e+000	 4.436595271441607e-001	 1.968942940932285e+000
1	 1.684716534170167e+000	 4.610476234569134e-001	 1.603409737624525e+000
1	 1.679861713560173e+000	 4.784341819807756e-001	 1.253505569893765e+000
1	 1.674813688510627e+000	 4.958162016695114e-001	 9.197156289485506e-001
1	 1.669571781827683e+000	 5.131906506541094e-001	 6.024805663773223e-001
1	 1.719899322085622e+000	 3.407582418936351e-001	 4.393673009715018e+000
1	 1.716359740750236e+000	 3.581605970432687e-001	 3.953602281938790e+000
1	 1.712632554729648e+000	 3.755787649016377e-001	 3.525185301740560e+000
1	 1.708716698496162e+000	 3.930099440146698e-001	 3.109154471836738e+000
1	 1.704611157736048e+000	 4.104512949756887e-001	 2.706205683815333e+000
1	 1.700314970685772e+000	 4.278999414703268e-001	 2.316996752406191e+000
1	 1.695827229447108e+000	 4.453529713714187e-001	 1.942145877287654e+000
1	 1.691147081279122e+000	 4.628074378835871e-001	 1.582230136034700e+000
1	 1.686273729865016e+000	 4.802603607371551e-001	 1.237784011836413e+000
1	 1.681206436551799e+000	 4.977087274309236e-001	 9.092979596252908e-001
1	 1.675944521560770e+000	 5.151494945232681e-001	 5.972170142637249e-001
1	 1.726439198913232e+000	 3.420539671162316e-001	 4.330790648484149e+000
1	 1.722886158403147e+000	 3.595224943129740e-001	 3.897555875304811e+000
1	 1.719144799845473e+000	 3.770068943459138e-001	 3.475758490645557e+000
1	 1.715214053660861e+000	 3.945043551085180e-001	 3.066140857373215e+000
1	 1.711092901678671e+000	 4.120120263973348e-001	 2.669408152117103e+000
1	 1.706780378478273e+000	 4.295270209608801e-001	 2.286226767617689e+000
1	 1.702275572709173e+000	 4.470464155986954e-001	 1.917222743144864e+000
1	 1.697577628387899e+000	 4.645672523102848e-001	 1.562980226669225e+000
1	 1.692685746169670e+000	 4.820865394935684e-001	 1.224039972493125e+000
1	 1.687599184592773e+000	 4.996012531923834e-001	 9.008978780625334e-001
1	 1.682317261293658e+000	 5.171083383924920e-001	 5.940035636859323e-001
1	 1.732979075740743e+000	 3.433496923388628e-001	 4.269220339674473e+000
1	 1.729412576055947e+000	 3.608843915827041e-001	 3.842924211147055e+000
1	 1.725657044961170e+000	 3.784350237902079e-001	 3.427840824930466e+000
1	 1.721711408825414e+000	 3.959987662023791e-001	 3.024722542113493e+000
1	 1.717574645621123e+000	 4.135727578189902e-001	 2.634283885148948e+000
1	 1.713245786270582e+000	 4.311541004514415e-001	 2.257199908447917e+000
1	 1.708723915971023e+000	 4.487398598259810e-001	 1.894104597542558e+000
1	 1.704008175496442e+000	 4.663270667369946e-001	 1.545589300576836e+000
1	 1.699097762474073e+000	 4.839127182499985e-001	 1.212201195910751e+000
1	 1.693991932633487e+000	 5.014937789538670e-001	 8.944417996367472e-001
1	 1.688690001026278e+000	 5.190671822617484e-001	 5.927655168136108e-001
1	 1.739518952568174e+000	 3.446454175614939e-001	 4.208909319073098e+000
1	 1.735938993708639e+000	 3.622462888524344e-001	 3.789651434412558e+000
1	 1.732169290076729e+000	 3.798631532345022e-001	 3.381373587766277e+000
1	 1.728208763989794e+000	 3.974931772962400e-001	 2.984838175121214e+000
1	 1.724056389563372e+000	 4.151334892406455e-001	 2.600769123940983e+000
1	 1.719711194062654e+000	 4.327811799420031e-001	 2.229850232171450e+000
1	 1.715172259232606e+000	 4.504333040532667e-001	 1.872723536278307e+000
1	 1.710438722604692e+000	 4.680868811637045e-001	 1.529987712152846e+000
1	 1.705509778778163e+000	 4.857388970064288e-001	 1.202196512747199e+000
1	 1.700384680673871e+000	 5.033863047153503e-001	 8.898572463163200e-001
1	 1.695062740758567e+000	 5.210260261310048e-001	 5.934292991490905e-001
1	 1.746058829395541e+000	 3.459411427840905e-001	 4.149805612982445e+000
1	 1.742465411361228e+000	 3.636081861221397e-001	 3.737682526870837e+000
1	 1.738681535192140e+000	 3.812912826787783e-001	 3.336298942021610e+000
1	 1.734706119153983e+000	 3.989875883900884e-001	 2.946427324621771e+000
1	 1.730538133505383e+000	 4.166942206622915e-001	 2.568801064762411e+000
1	 1.726176601854446e+000	 4.344082594325562e-001	 2.204112784018947e+000
1	 1.721620602493873e+000	 4.521267482805432e-001	 1.853012672492725e+000
1	 1.716869269712593e+000	 4.698466955904023e-001	 1.516106859225225e+000
1	 1.711921795081877e+000	 4.875650757628420e-001	 1.193955819921597e+000
1	 1.706777428713864e+000	 5.052788304768102e-001	 8.870728259378391e-001
1	 1.701435480490456e+000	 5.229848700002288e-001	 5.959224384902262e-001
1	 1.752598706222864e+000	 3.472368680066182e-001	 4.091858023471152e+000
1	 1.748991829013715e+000	 3.649700833917944e-001	 3.686963291500510e+000
1	 1.745193780307393e+000	 3.827194121230186e-001	 3.292559913849478e+000
1	 1.741203474317956e+000	 4.004819994839109e-001	 2.909430460853036e+000
1	 1.737019877447124e+000	 4.182549520839182e-001	 2.538317841298958e+000
1	 1.732642009645917e+000	 4.360353389230924e-001	 2.179923578744195e+000
1	 1.728068945754770e+000	 4.538201925078013e-001	 1.834906117688084e+000
1	 1.723299816820085e+000	 4.716065100170760e-001	 1.503879163586659e+000
1	 1.718333811385152e+000	 4.893912545192214e-001	 1.187410060720665e+000
1	 1.713170176753398e+000	 5.071713562382227e-001	 8.860182119463127e-001
1	 1.707808220221878e+000	 5.249437138693874e-001	 6.001735443640572e-001
1	 1.759138583050161e+000	 3.485325932290429e-001	 4.035016113953827e+000
1	 1.755518246666106e+000	 3.663319806613735e-001	 3.637440337224734e+000
1	 1.751706025422479e+000	 3.841475415672048e-001	 3.250100376640446e+000
1	 1.747700829481692e+000	 4.019764105776953e-001	 2.873788939298335e+000
1	 1.743501621388562e+000	 4.198156835055162e-001	 2.509258507227737e+000
1	 1.739107417437024e+000	 4.376624184136038e-001	 2.157219582602420e+000
1	 1.734517289015250e+000	 4.555136367350319e-001	 1.818338963170675e+000
1	 1.729730363927113e+000	 4.733663244437137e-001	 1.493238051960838e+000
1	 1.724745827687928e+000	 4.912174332755505e-001	 1.182491205348267e+000
1	 1.719562924792408e+000	 5.090638819995640e-001	 8.866241235873693e-001
1	 1.714180959952767e+000	 5.269025577384489e-001	 6.061122879193149e-001
1	 1.765678459877450e+000	 3.498283184513297e-001	 3.979230195091336e+000
1	 1.762044664318403e+000	 3.676938779308519e-001	 3.589061063985194e+000
1	 1.758218270537386e+000	 3.855756710113191e-001	 3.208865035332063e+000
1	 1.754198184645169e+000	 4.034708216714287e-001	 2.839444984292268e+000
1	 1.749983365329663e+000	 4.213764149270760e-001	 2.481563019179815e+000
1	 1.745572825227723e+000	 4.392894979040814e-001	 2.135938695728857e+000
1	 1.740965632275259e+000	 4.572070809622258e-001	 1.803247261905115e+000
1	 1.736160911033618e+000	 4.751261388703035e-001	 1.484117937391558e+000
1	 1.731157843990141e+000	 4.930436120318121e-001	 1.179132231907683e+000
1	 1.725955672830829e+000	 5.109564077608105e-001	 8.888223065396015e-001
1	 1.720553699683057e+000	 5.288614016073798e-001	 6.136693822659228e-001
1	 1.656826302361175e+000	 5.092729629161171e-001	 6.194625128187835e-001
1	 1.651431397679850e+000	 5.265042245356668e-001	 3.110330694313268e-001
1	 1.645842924156249e+000	 5.437218678370922e-001	 2.416723269612295e-002
1	 1.640060388744116e+000	 5.609227988524841e-001	-2.402114469712099e-001
1	 1.634083361056793e+000	 5.781038985210186e-001	-4.812244651073082e-001
1	 1.627911474392944e+000	 5.952620241932002e-001	-6.980403705550984e-001
1	 1.621544426721645e+000	 6.123940111778623e-001	-8.898767358696961e-001
1	 1.614981981624948e+000	 6.294966743307519e-001	-1.056002086171981e+000
1	 1.608223969196076e+000	 6.465668096834393e-001	-1.195737781839398e+000
1	 1.601270286891380e+000	 6.636011961111936e-001	-1.308459850430422e+000
1	 1.594120900334306e+000	 6.805965970383868e-001	-1.393600763259972e+000
1	 1.663199042094462e+000	 5.112318067850482e-001	 6.098700627106584e-001
1	 1.657783386702546e+000	 5.285293459288381e-001	 3.063901003420763e-001
1	 1.652173417934089e+000	 5.458132143736451e-001	 2.432805059677961e-002
1	 1.646368640846407e+000	 5.630803062510660e-001	-2.354015826397910e-001
1	 1.640368623397428e+000	 5.803274905032655e-001	-4.719311791643779e-001
1	 1.634172997475358e+000	 5.975516123930078e-001	-6.844420337749131e-001
1	 1.627781459887553e+000	 6.147494950566041e-001	-8.721663478417308e-001
1	 1.621193773306730e+000	 6.319179410986118e-001	-1.034389176419902e+000
1	 1.614409767172589e+000	 6.490537342270052e-001	-1.170450326189785e+000
1	 1.607429338547067e+000	 6.661536409274684e-001	-1.279746199525052e+000
1	 1.600252452921389e+000	 6.832144121753601e-001	-1.361731580013624e+000
1	 1.669571781827683e+000	 5.131906506541094e-001	 6.024805663773223e-001
1	 1.664135375725177e+000	 5.305544673221825e-001	 3.039736579545876e-001
1	 1.658503911711865e+000	 5.479045609104210e-001	 2.672360056422755e-002
1	 1.652676892948635e+000	 5.652378136499248e-001	-2.283653156047725e-001
1	 1.646653885738001e+000	 5.825510824858480e-001	-4.604375253457927e-001
1	 1.640434520557706e+000	 5.998412005932102e-001	-6.686882418657789e-001
1	 1.634018493053394e+000	 6.171049789358011e-001	-8.523654676245462e-001
1	 1.627405564988432e+000	 6.343392078669852e-001	-1.010771957766219e+000
1	 1.620595565149006e+000	 6.515406587711398e-001	-1.143267131331441e+000
1	 1.613588390202636e+000	 6.687060857443629e-001	-1.249268925454825e+000
1	 1.606384005508325e+000	 6.858322273129968e-001	-1.328255587784822e+000
1	 1.675944521560770e+000	 5.151494945232681e-001	 5.972170142637249e-001
1	 1.670487364747675e+000	 5.325795887156569e-001	 3.037057475404147e-001
1	 1.664834405489513e+000	 5.499959074473638e-001	 3.127501576565690e-002
1	 1.658985145050743e+000	 5.673953210489919e-001	-2.191822595033425e-001
1	 1.652939148078459e+000	 5.847746744686813e-001	-4.468237265667484e-001
1	 1.646696043639944e+000	 6.021307887937087e-001	-6.508596772847825e-001
1	 1.640255526219127e+000	 6.194604628153395e-001	-8.305550752994662e-001
1	 1.633617356670030e+000	 6.367604746357437e-001	-9.852315338584342e-001
1	 1.626781363125316e+000	 6.540275833157008e-001	-1.114269238332587e+000
1	 1.619747441858088e+000	 6.712585305617219e-001	-1.217108808541464e+000
1	 1.612515558095128e+000	 6.884500424511315e-001	-1.293253096038185e+000
1	 1.682317261293658e+000	 5.171083383924920e-001	 5.940035636859323e-001
1	 1.676839353769976e+000	 5.346047101092180e-001	 3.055095561698997e-001
1	 1.671164899266971e+000	 5.520872539844181e-001	 3.790462438140631e-002
1	 1.665293397152670e+000	 5.695528284481980e-001	-2.079308216437971e-001
1	 1.659224410418750e+000	 5.869982664516829e-001	-4.311687901816915e-001
1	 1.652957566722031e+000	 6.044203769944051e-001	-6.310357999650542e-001
1	 1.646492559384722e+000	 6.218159466951052e-001	-8.068149239142524e-001
1	 1.639829148351499e+000	 6.391817414047586e-001	-9.578477794382100e-001
1	 1.632967161101506e+000	 6.565145078605460e-001	-1.083536460303843e+000
1	 1.625906493513425e+000	 6.738109753793903e-001	-1.183345405100122e+000
1	 1.618647110681814e+000	 6.910678575895980e-001	-1.256803197366415e+000
1	 1.688690001026278e+000	 5.190671822617484e-001	 5.927655168136108e-001
1	 1.683191342792014e+000	 5.366298315028224e-001	 3.093094304129216e-001
1	 1.677495393044174e+000	 5.541786005215282e-001	 4.653592705631472e-002
1	 1.671601649254359e+000	 5.717103358474733e-001	-1.946882257676453e-001
1	 1.665509672758822e+000	 5.892218584347682e-001	-4.135505309204817e-001
1	 1.659219089803919e+000	 6.067099651952000e-001	-6.092948703835155e-001
1	 1.652729592550140e+000	 6.241714305749843e-001	-7.812235626358831e-001
1	 1.646040940032815e+000	 6.416030081739023e-001	-9.286993635294719e-001
1	 1.639152959077564e+000	 6.590014324055339e-001	-1.051147405568485e+000
1	 1.632065545168649e+000	 6.763634201972142e-001	-1.148057070534926e+000
1	 1.624778663268401e+000	 6.936856727282307e-001	-1.218983790451213e+000
1	 1.695062740758567e+000	 5.210260261310048e-001	 5.934292991490905e-001
1	 1.689543331813722e+000	 5.386549528964267e-001	 3.150308545426213e-001
1	 1.683825886821062e+000	 5.562699470586384e-001	 5.709357485993765e-002
1	 1.677909901355751e+000	 5.738678432467484e-001	-1.795305342981492e-001
1	 1.671794935098621e+000	 5.914454504178531e-001	-3.940455933073317e-001
1	 1.665480612885564e+000	 6.089995533959950e-001	-5.857139721081215e-001
1	 1.658966625715349e+000	 6.265269144548639e-001	-7.538583593809349e-001
1	 1.652252731713956e+000	 6.440242749430456e-001	-8.978637721033482e-001
1	 1.645338757053478e+000	 6.614883569505218e-001	-1.017179500309878e+000
1	 1.638224596823758e+000	 6.789158650150375e-001	-1.111320981913729e+000
1	 1.630910215854901e+000	 6.963034878668630e-001	-1.179871602506380e+000
1	 1.701435480490456e+000	 5.229848700002288e-001	 5.959224384902262e-001
1	 1.695895320835035e+000	 5.406800742899879e-001	 3.226004292292163e-001
1	 1.690156380597569e+000	 5.583612935956929e-001	 6.950334774179706e-002
1	 1.684218153456787e+000	 5.760253506459545e-001	-1.625326700890019e-001
1	 1.678080197438097e+000	 5.936690424008546e-001	-3.727294735757520e-001
1	 1.671742135966923e+000	 6.112891415966912e-001	-5.603690338384302e-001
1	 1.665203658880313e+000	 6.288823983346294e-001	-7.247955229375546e-001
1	 1.658464523394895e+000	 6.464455417120607e-001	-8.654173302338699e-001
1	 1.651524555029236e+000	 6.639752814953672e-001	-9.817090107100533e-001
1	 1.644383648478757e+000	 6.814683098327062e-001	-1.073213160035308e+000
1	 1.637041768441332e+000	 6.989213030053300e-001	-1.139542211216497e+000
1	 1.707808220221878e+000	 5.249437138693874e-001	 6.001735443640572e-001
1	 1.702247309855889e+000	 5.427051956834623e-001	 3.319458507104564e-001
1	 1.696486874373634e+000	 5.604526401326357e-001	 8.369213346926220e-002
1	 1.690526405557408e+000	 5.781828580450215e-001	-1.437684376859707e-001
1	 1.684365459777196e+000	 5.958926343836883e-001	-3.496765410930900e-001
1	 1.678003659047950e+000	 6.135787297971899e-001	-5.333348509527528e-001
1	 1.671440692044997e+000	 6.312378822141678e-001	-6.941101245919910e-001
1	 1.664676315075607e+000	 6.488668084808190e-001	-8.314352237575230e-001
1	 1.657710353004827e+000	 6.664622060399285e-001	-9.448110645926054e-001
1	 1.650542700133645e+000	 6.840207546500652e-001	-1.033808491002708e+000
1	 1.643173321027709e+000	 7.015391181434645e-001	-1.098070066184420e+000
1	 1.714180959952767e+000	 5.269025577384489e-001	 6.061122879193149e-001
1	 1.708599298876214e+000	 5.447303170768069e-001	 3.429958904270974e-001
1	 1.702817368149193e+000	 5.625439866694116e-001	 9.958790703507417e-002
1	 1.696834657657558e+000	 5.803403654438809e-001	-1.233105441142904e-001
1	 1.690650722115867e+000	 5.981162263662708e-001	-3.249600593068677e-001
1	 1.684265182128602e+000	 6.158683179973924e-001	-5.046851065746211e-001
1	 1.677677725209364e+000	 6.335933660933647e-001	-6.618761192728326e-001
1	 1.670888106756072e+000	 6.512880752491927e-001	-7.959915204497201e-001
1	 1.663896150980237e+000	 6.689491305840634e-001	-9.065596725827951e-001
1	 1.656701751788424e+000	 6.865731994669597e-001	-9.931807473152386e-001
1	 1.649304873614048e+000	 7.041569332811017e-001	-1.055528509900389e+000
1	 1.720553699683057e+000	 5.288614016073798e-001	 6.136693822659228e-001
1	 1.714951287895949e+000	 5.467554384699779e-001	 3.556803751106169e-001
1	 1.709147861924184e+000	 5.646353332059646e-001	 1.171197105225790e-001
1	 1.703142909757176e+000	 5.824978728424625e-001	-1.012306192041660e-001
1	 1.696935984454057e+000	 6.003398183485178e-001	-2.986522062259290e-001
1	 1.690526705208835e+000	 6.181579061972001e-001	-4.744923921710974e-001
1	 1.683914758373382e+000	 6.359488499721072e-001	-6.281663662253170e-001
1	 1.677099898436262e+000	 6.537093420170529e-001	-7.591591907306615e-001
1	 1.670081948955454e+000	 6.714360551276295e-001	-8.670277487974347e-001
1	 1.662860803443096e+000	 6.891256442832350e-001	-9.514026084917781e-001
1	 1.655436426200365e+000	 7.067747484180751e-001	-1.011989798245127e+000
1	 1.594120900334306e+000	 6.805965970383868e-001	-1.393600763259971e+000
1	 1.586776960647991e+000	 6.975472228038634e-001	-1.466875049545406e+000
1	 1.579237515303806e+000	 7.144523655646381e-001	-1.544367689277626e+000
1	 1.571502739887311e+000	 7.313087553462129e-001	-1.626088053702519e+000
1	 1.563572880804545e+000	 7.481131139287018e-001	-1.712058865767953e+000
1	 1.555448255818969e+000	 7.648621567133505e-001	-1.802316401242422e+000
1	 1.547129254530897e+000	 7.815525946160573e-001	-1.896910667037446e+000
1	 1.538616338798039e+000	 7.981811359858799e-001	-1.995905555948775e+000
1	 1.529910043095903e+000	 8.147444885464511e-001	-2.099378977077599e+000
1	 1.521010974816841e+000	 8.312393613581415e-001	-2.207422961241951e+000
1	 1.511919814506641e+000	 8.476624667987508e-001	-2.320143740741169e+000
1	 1.600252452921389e+000	 6.832144121753601e-001	-1.361731580013624e+000
1	 1.592880265846325e+000	 7.002302360404402e-001	-1.431985322190580e+000
1	 1.585311821129488e+000	 7.172004019571125e-001	-1.506453317562941e+000
1	 1.577547295031810e+000	 7.341216273734027e-001	-1.585163568424390e+000
1	 1.569586934907099e+000	 7.509906214602354e-001	-1.668155557891457e+000
1	 1.561431059741056e+000	 7.678040869851310e-001	-1.755480402607955e+000
1	 1.553080060632540e+000	 7.845587222130090e-001	-1.847200985386929e+000
1	 1.544534401215737e+000	 8.012512228320780e-001	-1.943392067142419e+000
1	 1.535794618021945e+000	 8.178782839027143e-001	-2.044140377504831e+000
1	 1.526861320779763e+000	 8.344366018271732e-001	-2.149544683557483e+000
1	 1.517735192652611e+000	 8.509228763379011e-001	-2.259715836178735e+000
1	 1.606384005508325e+000	 6.858322273129968e-001	-1.328255587784822e+000
1	 1.598983571044472e+000	 7.029132492777178e-001	-1.395655435719024e+000
1	 1.591386126954937e+000	 7.199484383503170e-001	-1.467258958542633e+000
1	 1.583591850176024e+000	 7.369344994013459e-001	-1.543111651467427e+000
1	 1.575600989009313e+000	 7.538681289925396e-001	-1.623268581642168e+000
1	 1.567413863662745e+000	 7.707460172576940e-001	-1.707794493912419e+000
1	 1.559030866733727e+000	 7.875648498107523e-001	-1.796763899343280e+000
1	 1.550452463632922e+000	 8.043213096790730e-001	-1.890261145992856e+000
1	 1.541679192947415e+000	 8.210120792597763e-001	-1.988380471461160e+000
1	 1.532711666742066e+000	 8.376338422970052e-001	-2.091226036776930e+000
1	 1.523550570797915e+000	 8.541832858778508e-001	-2.198911941225972e+000
1	 1.612515558095128e+000	 6.884500424511315e-001	-1.293253096038185e+000
1	 1.605086876242463e+000	 7.055962625155204e-001	-1.357965026945705e+000
1	 1.597460432780201e+000	 7.226964747440691e-001	-1.426863399298566e+000
1	 1.589636405320017e+000	 7.397473714298536e-001	-1.500010076241101e+000
1	 1.581615043111267e+000	 7.567456365254215e-001	-1.577474546185055e+000
1	 1.573396667584132e+000	 7.736879475308442e-001	-1.659333983083832e+000
1	 1.564981672834569e+000	 7.905709774090889e-001	-1.745673292385960e+000
1	 1.556370526049719e+000	 8.073913965266647e-001	-1.836585142290093e+000
1	 1.547563767872459e+000	 8.241458746174377e-001	-1.932169979954701e+000
1	 1.538562012703903e+000	 8.408310827674368e-001	-2.032536032348062e+000
1	 1.529365948942723e+000	 8.574436954184008e-001	-2.137799291458701e+000
1	 1.618647110681814e+000	 6.910678575895980e-001	-1.256803197366414e+000
1	 1.611190181440331e+000	 7.082792757536738e-001	-1.318992526005873e+000
1	 1.603534738605327e+000	 7.254445111381856e-001	-1.385344233108354e+000
1	 1.595680960463853e+000	 7.425602434587380e-001	-1.455935437710094e+000
1	 1.587629097213043e+000	 7.596231440586885e-001	-1.530848899881330e+000
1	 1.579379471505315e+000	 7.766298778043861e-001	-1.610173036963169e+000
1	 1.570932478935180e+000	 7.935771050078214e-001	-1.694001928491040e+000
1	 1.562288588466257e+000	 8.104614833746550e-001	-1.782435309559612e+000
1	 1.553448342797217e+000	 8.272796699754988e-001	-1.875578552408764e+000
1	 1.544412358665429e+000	 8.440283232382685e-001	-1.973542636037580e+000
1	 1.535181327087197e+000	 8.607041049593510e-001	-2.076444103680091e+000
1	 1.624778663268401e+000	 6.936856727282307e-001	-1.218983790451212e+000
1	 1.617293486638105e+000	 7.109622889920020e-001	-1.278815179123736e+000
1	 1.609609044430361e+000	 7.281925475324854e-001	-1.342777881971079e+000
1	 1.601725515607597e+000	 7.453731154878104e-001	-1.410963174630301e+000
1	 1.593643151314718e+000	 7.625006515921481e-001	-1.483465952191495e+000
1	 1.585362275426390e+000	 7.795718080781234e-001	-1.560384702835356e+000
1	 1.576883285035673e+000	 7.965832326067517e-001	-1.641821473254972e+000
1	 1.568206650882666e+000	 8.135315702228443e-001	-1.727881825747669e+000
1	 1.559332917721832e+000	 8.304134653337596e-001	-1.818674786881506e+000
1	 1.550262704626801e+000	 8.472255637093004e-001	-1.914312787661838e+000
1	 1.540996705231507e+000	 8.639645145005013e-001	-2.014911595143700e+000
1	 1.630910215854901e+000	 6.963034878668630e-001	-1.179871602506379e+000
1	 1.623396791835816e+000	 7.136453022303302e-001	-1.237509070867552e+000
1	 1.615683350255351e+000	 7.309405839267845e-001	-1.299239618624910e+000
1	 1.607770070751310e+000	 7.481859875168831e-001	-1.365167591283049e+000
1	 1.599657205416376e+000	 7.653781591256081e-001	-1.435398895084301e+000
1	 1.591345079347454e+000	 7.825137383518612e-001	-1.510040929474680e+000
1	 1.582834091136160e+000	 7.995893602056818e-001	-1.589202514541837e+000
1	 1.574124713299071e+000	 8.166016570710337e-001	-1.672993813439939e+000
1	 1.565217492646447e+000	 8.335472606920200e-001	-1.761526249829333e+000
1	 1.556113050588172e+000	 8.504228041803321e-001	-1.854912420372695e+000
1	 1.546812083375814e+000	 8.672249240416514e-001	-1.953266002343021e+000
1	 1.637041768441332e+000	 6.989213030053300e-001	-1.139542211216498e+000
1	 1.629500097033497e+000	 7.163283154684836e-001	-1.195149145904548e+000
1	 1.621757656080346e+000	 7.336886203209018e-001	-1.254803588069927e+000
1	 1.613814625895058e+000	 7.509988595457676e-001	-1.318621878721094e+000
1	 1.605671259518095e+000	 7.682556666588754e-001	-1.386719823964629e+000
1	 1.597327883268604e+000	 7.854556686254028e-001	-1.459212587717112e+000
1	 1.588784897236754e+000	 8.025954878044141e-001	-1.536214582666606e+000
1	 1.580042775715603e+000	 8.196717439190239e-001	-1.617839359625830e+000
1	 1.571102067571203e+000	 8.366810560500813e-001	-1.704199495426363e+000
1	 1.561963396549698e+000	 8.536200446511639e-001	-1.795406479509834e+000
1	 1.552627461520289e+000	 8.704853335826015e-001	-1.891570599378659e+000
1	 1.643173321027709e+000	 7.015391181434645e-001	-1.098070066184420e+000
1	 1.635603402231177e+000	 7.190113287062864e-001	-1.151809230268827e+000
1	 1.627831961905391e+000	 7.364366567146536e-001	-1.209542828609028e+000
1	 1.619859181038904e+000	 7.538117315742755e-001	-1.271398135538807e+000
1	 1.611685313619956e+000	 7.711331741917576e-001	-1.337499758132772e+000
1	 1.603310687189938e+000	 7.883975988985532e-001	-1.407969490572123e+000
1	 1.594735703337569e+000	 8.056016154027513e-001	-1.482926170126534e+000
1	 1.585960838132388e+000	 8.227418307666160e-001	-1.562485535020239e+000
1	 1.576986642496242e+000	 8.398148514077428e-001	-1.646760084451122e+000
1	 1.567813742511534e+000	 8.568172851215961e-001	-1.735858941030979e+000
1	 1.558442839665096e+000	 8.737457431231520e-001	-1.829887715914269e+000
1	 1.649304873614048e+000	 7.041569332811017e-001	-1.055528509900389e+000
1	 1.641706707428888e+000	 7.216943419435641e-001	-1.107562052154775e+000
1	 1.633906267730533e+000	 7.391846931078582e-001	-1.163529292419572e+000
1	 1.625903736182912e+000	 7.566246036022185e-001	-1.223567388179092e+000
1	 1.617699367722041e+000	 7.740106817240621e-001	-1.287808660787397e+000
1	 1.609293491111552e+000	 7.913395291711169e-001	-1.356380412885895e+000
1	 1.600686509438716e+000	 8.086077430004947e-001	-1.429404750892411e+000
1	 1.591878900549555e+000	 8.258119176136108e-001	-1.506998412954369e+000
1	 1.582871217421709e+000	 8.429486467648052e-001	-1.589272602752103e+000
1	 1.573664088473836e+000	 8.600145255914281e-001	-1.676332829531032e+000
1	 1.564258217810401e+000	 8.770061526631022e-001	-1.768278754732147e+000
1	 1.655436426200365e+000	 7.067747484180751e-001	-1.011989798245127e+000
1	 1.647810012626662e+000	 7.243773551801414e-001	-1.062479262248480e+000
1	 1.639980573555821e+000	 7.419327295003327e-001	-1.116833865667775e+000
1	 1.631948291327146e+000	 7.594374756294089e-001	-1.175199610789049e+000
1	 1.623713421824428e+000	 7.768881892555959e-001	-1.237715458583922e+000
1	 1.615276295033542e+000	 7.942814594428974e-001	-1.304513110567423e+000
1	 1.606637315540310e+000	 8.116138705974469e-001	-1.375716799271073e+000
1	 1.597796962967233e+000	 8.288820044598098e-001	-1.451443087846715e+000
1	 1.588755792347744e+000	 8.460824421210691e-001	-1.531800679302978e+000
1	 1.579514434436758e+000	 8.632117660604604e-001	-1.616890235860860e+000
1	 1.570073595956371e+000	 8.802665622022525e-001	-1.706804208898388e+000
1	 1.511919814506641e+000	 8.476624667987508e-001	-2.320143740741168e+000
1	 1.502635909414624e+000	 8.640129693766441e-001	-2.439185676337979e+000
1	 1.493161437663220e+000	 8.802851242522312e-001	-2.566003817737210e+000
1	 1.483497301674313e+000	 8.964756653057330e-001	-2.700449246239812e+000
1	 1.473644477357683e+000	 9.125813378375239e-001	-2.842328030892201e+000
1	 1.463604014020220e+000	 9.285989006069539e-001	-2.991401143060672e+000
1	 1.453377034207980e+000	 9.445251278751972e-001	-3.147384448455817e+000
1	 1.442964733480680e+000	 9.603568114495741e-001	-3.309948777480993e+000
1	 1.432368380118340e+000	 9.760907627267612e-001	-3.478720074592694e+000
1	 1.421589314759868e+000	 9.917238147322857e-001	-3.653279627170101e+000
1	 1.410628949973539e+000	 1.007252824153679e+000	-3.833164374198551e+000
1	 1.517735192652611e+000	 8.509228763379011e-001	-2.259715836178734e+000
1	 1.508415578379102e+000	 8.673362687296659e-001	-2.376076993672513e+000
1	 1.498904664459498e+000	 8.836710120661887e-001	-2.499865144277330e+000
1	 1.489203356786712e+000	 8.999238276650293e-001	-2.630938492700428e+000
1	 1.479312635024218e+000	 9.160914483078293e-001	-2.769110931627849e+000
1	 1.469233552514910e+000	 9.321706202869717e-001	-2.914151952793396e+000
1	 1.458967236122551e+000	 9.481581054562910e-001	-3.065786634360677e+000
1	 1.448514886005403e+000	 9.640506832832556e-001	-3.223695705488517e+000
1	 1.437877775321736e+000	 9.798451529000368e-001	-3.387515688766468e+000
1	 1.427057249867028e+000	 9.955383351508511e-001	-3.556839121020013e+000
1	 1.416054727642790e+000	 1.011127074632929e+000	-3.731214852793925e+000
1	 1.523550570797915e+000	 8.541832858778508e-001	-2.198911941225972e+000
1	 1.514195247342880e+000	 8.706595680834878e-001	-2.312650885858582e+000
1	 1.504647891255046e+000	 8.870568998809448e-001	-2.433474090612190e+000
1	 1.494909411898361e+000	 9.033719900251217e-001	-2.561247875037439e+000
1	 1.484980792689991e+000	 9.196015587789251e-001	-2.695794991538274e+000
1	 1.474863091008834e+000	 9.357423399677712e-001	-2.836894531432459e+000
1	 1.464557438036359e+000	 9.517910830381531e-001	-2.984281906090498e+000
1	 1.454065038529374e+000	 9.677445551176858e-001	-3.137648904021448e+000
1	 1.443387170524401e+000	 9.835995430740369e-001	-3.296643824594249e+000
1	 1.432525184973485e+000	 9.993528555701080e-001	-3.460871688898996e+000
1	 1.421480505311373e+000	 1.015001325112831e+000	-3.629894528063381e+000
1	 1.529365948942723e+000	 8.574436954184008e-001	-2.137799291458702e+000
1	 1.519974916306132e+000	 8.739828674379097e-001	-2.248972943323783e+000
1	 1.510391118050047e+000	 8.904427876963005e-001	-2.366894913129499e+000
1	 1.500615467009447e+000	 9.068201523858109e-001	-2.491440615234545e+000
1	 1.490648950355192e+000	 9.231116692506125e-001	-2.622442686029529e+000
1	 1.480492629502183e+000	 9.393140596491543e-001	-2.759690883495158e+000
1	 1.470147639949596e+000	 9.554240606205862e-001	-2.902932060506930e+000
1	 1.459615191052782e+000	 9.714384269526708e-001	-3.051870212755195e+000
1	 1.448896565726516e+000	 9.873539332485685e-001	-3.206166601973796e+000
1	 1.437993120079414e+000	 1.003167375989869e+000	-3.365439954988659e+000
1	 1.426906282979456e+000	 1.018875575593200e+000	-3.529266738912873e+000
1	 1.535181327087197e+000	 8.607041049593510e-001	-2.076444103680091e+000
1	 1.525754585269033e+000	 8.773061667927314e-001	-2.185107762650729e+000
1	 1.516134344844684e+000	 8.938286755120547e-001	-2.300190894585632e+000
1	 1.506321522120159e+000	 9.102683147468972e-001	-2.421578977317657e+000
1	 1.496317108020012e+000	 9.266217797226927e-001	-2.549115543862143e+000
1	 1.486122167995148e+000	 9.428857793309232e-001	-2.682602073988208e+000
1	 1.475737841862451e+000	 9.590570382033947e-001	-2.821797958107348e+000
1	 1.465165343575815e+000	 9.751322987880163e-001	-2.966420534352128e+000
1	 1.454405960928265e+000	 9.911083234234417e-001	-3.116145199543614e+000
1	 1.443461055184991e+000	 1.006981896409945e+000	-3.270605594570379e+000
1	 1.432332060647205e+000	 1.022749826073854e+000	-3.429393864518456e+000
1	 1.540996705231507e+000	 8.639645145005013e-001	-2.014911595143700e+000
1	 1.531534254231759e+000	 8.806294661477532e-001	-2.121118965329681e+000
1	 1.521877571639137e+000	 8.972145633280085e-001	-2.233424362476891e+000
1	 1.512027577230683e+000	 9.137164771081806e-001	-2.351724285430412e+000
1	 1.501985265684642e+000	 9.301318901949668e-001	-2.475874165013261e+000
1	 1.491751706487921e+000	 9.464574990128795e-001	-2.605688246135177e+000
1	 1.481328043775115e+000	 9.626900157863823e-001	-2.740939540693102e+000
1	 1.470715496098660e+000	 9.788261706235283e-001	-2.881359852141982e+000
1	 1.459915356129833e+000	 9.948627135984642e-001	-3.026639872443756e+000
1	 1.448928990290392e+000	 1.010796416830149e+000	-3.176429351929977e+000
1	 1.437757838314787e+000	 1.026624076554607e+000	-3.330337342435101e+000
1	 1.546812083375814e+000	 8.672249240416514e-001	-1.953266002343021e+000
1	 1.537313923194485e+000	 8.839527655027748e-001	-2.057069216088435e+000
1	 1.527620798433591e+000	 9.006004511439616e-001	-2.166656706996614e+000
1	 1.517733632341208e+000	 9.171646394694619e-001	-2.281936941502014e+000
1	 1.507653423349271e+000	 9.336420006672358e-001	-2.402778238135745e+000
1	 1.497381244980695e+000	 9.500292186948257e-001	-2.529008638704225e+000
1	 1.486918245687779e+000	 9.663229933693520e-001	-2.660415848639073e+000
1	 1.476265648621504e+000	 9.825200424590115e-001	-2.796747247403456e+000
1	 1.465424751331400e+000	 9.986171037734436e-001	-2.937709969675443e+000
1	 1.454396925395793e+000	 1.014610937250293e+000	-3.082971057858645e+000
1	 1.443183615982369e+000	 1.030498327035279e+000	-3.232157686297477e+000
1	 1.552627461520289e+000	 8.704853335826015e-001	-1.891570599378660e+000
1	 1.543093592157386e+000	 8.872760648575966e-001	-1.993020240810063e+000
1	 1.533364025228227e+000	 9.039863389597144e-001	-2.099948398588304e+000
1	 1.523439687451919e+000	 9.206128018305413e-001	-2.212276442518133e+000
1	 1.513321581014091e+000	 9.371521111393001e-001	-2.329886557625155e+000
1	 1.503010783473660e+000	 9.536009383765636e-001	-2.452621602946279e+000
1	 1.492508447600634e+000	 9.699559709521071e-001	-2.580285037775079e+000
1	 1.481815801144537e+000	 9.862139142942725e-001	-2.712640916257332e+000
1	 1.470934146533150e+000	 1.002371493948190e+000	-2.849413951071034e+000
1	 1.459864860501370e+000	 1.018425457670188e+000	-2.990289646760293e+000
1	 1.448609393650117e+000	 1.034372577515684e+000	-3.134914503122646e+000
1	 1.558442839665096e+000	 8.737457431231520e-001	-1.829887715914269e+000
1	 1.548873261120638e+000	 8.905993642120184e-001	-1.929032844049494e+000
1	 1.539107252023228e+000	 9.073722267750666e-001	-2.033359005106169e+000
1	 1.529145742563005e+000	 9.240609641912194e-001	-2.142801397404931e+000
1	 1.518989738679292e+000	 9.406622216109617e-001	-2.257257040304432e+000
1	 1.508640321967009e+000	 9.571726580578954e-001	-2.376584619153986e+000
1	 1.498098649513870e+000	 9.735889485344519e-001	-2.500604395889623e+000
1	 1.487365953667945e+000	 9.899077861291162e-001	-2.629098186181538e+000
1	 1.476443541735266e+000	 1.006125884122511e+000	-2.761809403883738e+000
1	 1.465332795607299e+000	 1.022239978089648e+000	-2.898443173376208e+000
1	 1.454035171318200e+000	 1.038246827995640e+000	-3.038666510225412e+000
1	 1.564258217810401e+000	 8.770061526631022e-001	-1.768278754732147e+000
1	 1.554652930084415e+000	 8.939226635658399e-001	-1.865166926159494e+000
1	 1.544850478818776e+000	 9.107581145898186e-001	-1.966947208592716e+000
1	 1.534851797674654e+000	 9.275091265512968e-001	-2.073569543536586e+000
1	 1.524657896345065e+000	 9.441723320820211e-001	-2.184946741736490e+000
1	 1.514269860460932e+000	 9.607443777386230e-001	-2.300954312851386e+000
1	 1.503688851427678e+000	 9.772219261161892e-001	-2.421430358865082e+000
1	 1.492916106191916e+000	 9.936016579633485e-001	-2.546175532157733e+000
1	 1.481952936937929e+000	 1.009880274296215e+000	-2.674953059007430e+000
1	 1.470800730713755e+000	 1.026054498508483e+000	-2.807488829136370e+000
1	 1.459460948986784e+000	 1.042121078474962e+000	-2.943471551756441e+000
1	 1.570073595956371e+000	 8.802665622022525e-001	-1.706804208898388e+000
1	 1.560432599048893e+000	 8.972459629188613e-001	-1.801481500035899e+000
1	 1.550593705615053e+000	 9.141440024037704e-001	-1.900770821683358e+000
1	 1.540557852787052e+000	 9.309572889105736e-001	-2.004637762876054e+000
1	 1.530326054011600e+000	 9.476824425522793e-001	-2.113011872174319e+000
1	 1.519899398955622e+000	 9.643160974185487e-001	-2.225786470623780e+000
1	 1.509279053342249e+000	 9.808549036971231e-001	-2.342818526454757e+000
1	 1.498466258716638e+000	 9.972955297967757e-001	-2.463928592459090e+000
1	 1.487462332141325e+000	 1.013634664469111e+000	-2.588900806835913e+000
1	 1.476268665820915e+000	 1.029869018926507e+000	-2.717482958147719e+000
1	 1.464886726656035e+000	 1.045995328953468e+000	-2.849386614872752e+000
1	 1.410628949973539e+000	 1.007252824153679e+000	-3.833164374198551e+000
1	 1.399488769361377e+000	 1.022674673023736e+000	-4.020898440454063e+000
1	 1.388170325810758e+000	 1.037986269689500e+000	-4.219414514647926e+000
1	 1.376675242076157e+000	 1.053184551797793e+000	-4.428827577980693e+000
1	 1.365005210482521e+000	 1.068266488614319e+000	-4.649249903357322e+000
1	 1.353161992161219e+000	 1.083229082987748e+000	-4.880790612933292e+000
1	 1.341147416219812e+000	 1.098069373291773e+000	-5.123555232878941e+000
1	 1.328963378846395e+000	 1.112784435342554e+000	-5.377645246369863e+000
1	 1.316611842349339e+000	 1.127371384288980e+000	-5.643157645828293e+000
1	 1.304094834133428e+000	 1.141827376473227e+000	-5.920184485452132e+000
1	 1.291414445613439e+000	 1.156149611259114e+000	-6.208812435080673e+000
1	 1.416054727642790e+000	 1.011127074632929e+000	-3.731214852793925e+000
1	 1.404871697957502e+000	 1.026608241386256e+000	-3.913328691772705e+000
1	 1.393509719671491e+000	 1.041978731866286e+000	-4.106227315340130e+000
1	 1.381970421780917e+000	 1.057235471940954e+000	-4.309964195619209e+000
1	 1.370255503120003e+000	 1.072375419218692e+000	-4.524587011232508e+000
1	 1.358366731594048e+000	 1.087395565020072e+000	-4.750137303161437e+000
1	 1.346305943346006e+000	 1.102292936327329e+000	-4.986650133894169e+000
1	 1.334075041857377e+000	 1.117064597709183e+000	-5.234153750687403e+000
1	 1.321675996984263e+000	 1.131707653218370e+000	-5.492669253765910e+000
1	 1.309110843929558e+000	 1.146219248259358e+000	-5.762210270282082e+000
1	 1.296381682152357e+000	 1.160596571423735e+000	-6.042782634852244e+000
1	 1.421480505311373e+000	 1.015001325112831e+000	-3.629894528063382e+000
1	 1.410254626553004e+000	 1.030541809749378e+000	-3.806546063240070e+000
1	 1.398849113531651e+000	 1.045971194043619e+000	-3.993971855416885e+000
1	 1.387265601485157e+000	 1.061286392084600e+000	-4.192163104168755e+000
1	 1.375505795757022e+000	 1.076484349823485e+000	-4.401102060276360e+000
1	 1.363571471026473e+000	 1.091562047052749e+000	-4.620761781548108e+000
1	 1.351464470471854e+000	 1.106516499363172e+000	-4.851105898145076e+000
1	 1.339186704868070e+000	 1.121344760076036e+000	-5.092088388047099e+000
1	 1.326740151618949e+000	 1.136043922147925e+000	-5.343653363281191e+000
1	 1.314126853725497e+000	 1.150611120045603e+000	-5.605734867514311e+000
1	 1.301348918691124e+000	 1.165043531588422e+000	-5.878256685592628e+000
1	 1.426906282979456e+000	 1.018875575593200e+000	-3.529266738912873e+000
1	 1.415637555148037e+000	 1.034475378112925e+000	-3.700614487912914e+000
1	 1.404188507391379e+000	 1.049963656221326e+000	-3.882712224994712e+000
1	 1.392560781189007e+000	 1.065337312228566e+000	-4.075488121960333e+000
1	 1.380756088393693e+000	 1.080593280428541e+000	-4.278858176857188e+000
1	 1.368776210458593e+000	 1.095728529085633e+000	-4.492726071405081e+000
1	 1.356622997597439e+000	 1.110740062399165e+000	-4.716983044283946e+000
1	 1.344298367878539e+000	 1.125624922442983e+000	-4.951507780729816e+000
1	 1.331804306253448e+000	 1.140380191077526e+000	-5.196166318853362e+000
1	 1.319142863521279e+000	 1.155002991831848e+000	-5.450811973059945e+000
1	 1.306316155229757e+000	 1.169490491753078e+000	-5.715285274913423e+000
1	 1.432332060647205e+000	 1.022749826073854e+000	-3.429393864518456e+000
1	 1.421020483742758e+000	 1.038408946476717e+000	-3.595596930115191e+000
1	 1.409527901250820e+000	 1.053956118399235e+000	-3.772511543077423e+000
1	 1.397855960892595e+000	 1.069388232372687e+000	-3.960002100330528e+000
1	 1.386006381030130e+000	 1.084702211033705e+000	-4.157917530833641e+000
1	 1.373980949890507e+000	 1.099895011118573e+000	-4.366091256248156e+000
1	 1.361781524722843e+000	 1.114963625435166e+000	-4.584341173966318e+000
1	 1.349410030888850e+000	 1.129905084809896e+000	-4.812469662754087e+000
1	 1.336868460887806e+000	 1.144716460007051e+000	-5.050263611213289e+000
1	 1.324158873316935e+000	 1.159394863617986e+000	-5.297494469213410e+000
1	 1.311283391768273e+000	 1.173937451917599e+000	-5.553918322392530e+000
1	 1.437757838314787e+000	 1.026624076554607e+000	-3.330337342435101e+000
1	 1.426403412337323e+000	 1.042342514840577e+000	-3.491555403717064e+000
1	 1.414867295110117e+000	 1.057948580577176e+000	-3.663431975880132e+000
1	 1.403151140596052e+000	 1.073439152516799e+000	-3.845766941867510e+000
1	 1.391256673666448e+000	 1.088811141638818e+000	-4.038341353603002e+000
1	 1.379185689322312e+000	 1.104061493151422e+000	-4.240917497530406e+000
1	 1.366940051848146e+000	 1.119187188471039e+000	-4.453238989153696e+000
1	 1.354521693899067e+000	 1.134185247176644e+000	-4.675030896636632e+000
1	 1.341932615522074e+000	 1.149052728936382e+000	-4.905999893452807e+000
1	 1.329174883112497e+000	 1.163786735403905e+000	-5.145834440004983e+000
1	 1.316250628306690e+000	 1.178384412081889e+000	-5.394204994066048e+000
1	 1.443183615982369e+000	 1.030498327035279e+000	-3.232157686297477e+000
1	 1.431786340931887e+000	 1.046276083204328e+000	-3.388550990001372e+000
1	 1.420206688969413e+000	 1.061941042754976e+000	-3.555534754739659e+000
1	 1.408446320299508e+000	 1.077490072660739e+000	-3.732843618245763e+000
1	 1.396506966302761e+000	 1.092920072243724e+000	-3.920189955742447e+000
1	 1.384390428754105e+000	 1.108227975184033e+000	-4.117264051974929e+000
1	 1.372098578973432e+000	 1.123410751506642e+000	-4.323734309025988e+000
1	 1.359633356909255e+000	 1.138465409543098e+000	-4.539247489774877e+000
1	 1.346996770156299e+000	 1.153388997865399e+000	-4.763428996770509e+000
1	 1.334190892908001e+000	 1.168178607189497e+000	-4.995883186206149e+000
1	 1.321217864845022e+000	 1.182831372245845e+000	-5.236193716593319e+000
1	 1.448609393650117e+000	 1.034372577515684e+000	-3.134914503122646e+000
1	 1.437169269526609e+000	 1.050209651567791e+000	-3.286643855128782e+000
1	 1.425546082828852e+000	 1.065933504932463e+000	-3.448880193622470e+000
1	 1.413741500003090e+000	 1.081540992804341e+000	-3.621292187659557e+000
1	 1.401757258939182e+000	 1.097029002848268e+000	-3.803522744253633e+000
1	 1.389595168185988e+000	 1.112394457216257e+000	-3.995189288518036e+000
1	 1.377257106098781e+000	 1.127634314541839e+000	-4.195884086513956e+000
1	 1.364745019919480e+000	 1.142745571909127e+000	-4.405174610461176e+000
1	 1.352060924790529e+000	 1.157725266793980e+000	-4.622603945863991e+000
1	 1.339206902703474e+000	 1.172570478974651e+000	-4.847691239998377e+000
1	 1.326185101383289e+000	 1.187278332409369e+000	-5.079932191103702e+000
1	 1.454035171318200e+000	 1.038246827995640e+000	-3.038666510225412e+000
1	 1.442552198121641e+000	 1.054143219930787e+000	-3.185893267211961e+000
1	 1.430885476688577e+000	 1.069925967109467e+000	-3.343527706240727e+000
1	 1.419036679706928e+000	 1.085591912947441e+000	-3.511171811866811e+000
1	 1.407007551575826e+000	 1.101137933452291e+000	-3.688398239421373e+000
1	 1.394799907618056e+000	 1.116560939247946e+000	-3.874750704873811e+000
1	 1.382415633224277e+000	 1.131857877576488e+000	-4.069744424461240e+000
1	 1.369856682929806e+000	 1.147025734274602e+000	-4.272866603538721e+000
1	 1.357125079424815e+000	 1.162061535722006e+000	-4.483576973977096e+000
1	 1.344222912498953e+000	 1.176962350759256e+000	-4.701308379313096e+000
1	 1.331152337921506e+000	 1.191725292572359e+000	-4.925467406733293e+000
1	 1.459460948986784e+000	 1.042121078474962e+000	-2.943471551756441e+000
1	 1.447935126717141e+000	 1.058076788293140e+000	-3.086357613008589e+000
1	 1.436224870548732e+000	 1.073918429285816e+000	-3.239535822786690e+000
1	 1.424331859411153e+000	 1.089642833089873e+000	-3.402540772851839e+000
1	 1.412257844212809e+000	 1.105246864055639e+000	-3.574874091296305e+000
1	 1.400004647050408e+000	 1.120727421278952e+000	-3.756004943728225e+000
1	 1.387574160350000e+000	 1.136081440610451e+000	-3.945370591426260e+000
1	 1.374968345940299e+000	 1.151305896639394e+000	-4.142377005707894e+000
1	 1.362189234059203e+000	 1.166397804649358e+000	-4.346399537611927e+000
1	 1.349238922294467e+000	 1.181354222543202e+000	-4.556783641852026e+000
1	 1.336119574459690e+000	 1.196172252734715e+000	-4.772845653859657e+000
1	 1.464886726656035e+000	 1.045995328953468e+000	-2.849386614872752e+000
1	 1.453318055313266e+000	 1.062010356654672e+000	-2.988094414243700e+000
1	 1.441564264409459e+000	 1.077910891461337e+000	-3.136962206294686e+000
1	 1.429627039115891e+000	 1.093693753231475e+000	-3.295456489118743e+000
1	 1.417508136850242e+000	 1.109355794658154e+000	-3.463007095811072e+000
1	 1.405209386483143e+000	 1.124893903309127e+000	-3.639007808574027e+000
1	 1.392732687476031e+000	 1.140305003643589e+000	-3.822817037132529e+000
1	 1.380080008951025e+000	 1.155586059003373e+000	-4.013758560492866e+000
1	 1.367253388693743e+000	 1.170734073575915e+000	-4.211122330913569e+000
1	 1.354254932090051e+000	 1.185746094326380e+000	-4.414165338795900e+000
1	 1.341086810997859e+000	 1.200619212896339e+000	-4.622112537042504e+000
1	 1.291414445613439e+000	 1.156149611259114e+000	-6.208812435080673e+000
1	 1.278574769382549e+000	 1.170333215629018e+000	-6.495690710875941e+000
1	 1.265576131551744e+000	 1.184377640798316e+000	-6.767839121866213e+000
1	 1.252420808518344e+000	 1.198280228121825e+000	-7.025773326963601e+000
1	 1.239111135684223e+000	 1.212038368913644e+000	-7.270021782128209e+000
1	 1.225649506076354e+000	 1.225649506076354e+000	-7.501125216614895e+000
1	 1.212038368913644e+000	 1.239111135684222e+000	-7.719636092254526e+000
1	 1.198280228121825e+000	 1.252420808518344e+000	-7.926118046725994e+000
1	 1.184377640798316e+000	 1.265576131551744e+000	-8.121145321809681e+000
1	 1.170333215629018e+000	 1.278574769382549e+000	-8.305302177650324e+000
1	 1.156149611259114e+000	 1.291414445613438e+000	-8.479182294083987e+000
1	 1.296381682152357e+000	 1.160596571423735e+000	-6.042782634852244e+000
1	 1.283492619987396e+000	 1.174834730950531e+000	-6.321023005238132e+000
1	 1.270443984799997e+000	 1.188933175944304e+000	-6.584058372778537e+000
1	 1.257238061743312e+000	 1.202889237533783e+000	-6.832508389918729e+000
1	 1.243877195201993e+000	 1.216700296999137e+000	-7.067009592939855e+000
1	 1.230363787407445e+000	 1.230363787407445e+000	-7.288214680539086e+000
1	 1.216700296999137e+000	 1.243877195201994e+000	-7.496791768216401e+000
1	 1.202889237533783e+000	 1.257238061743312e+000	-7.693423619855567e+000
1	 1.188933175944304e+000	 1.270443984799997e+000	-7.878806857942457e+000
1	 1.174834730950530e+000	 1.283492619987395e+000	-8.053651153912687e+000
1	 1.160596571423735e+000	 1.296381682152357e+000	-8.218678400167073e+000
1	 1.301348918691124e+000	 1.165043531588422e+000	-5.878256685592628e+000
1	 1.288410470592122e+000	 1.179336246272075e+000	-6.147867136450066e+000
1	 1.275311838048155e+000	 1.193488711090297e+000	-6.401825597647628e+000
1	 1.262055314968202e+000	 1.207498246945725e+000	-6.640855955830310e+000
1	 1.248643254719702e+000	 1.221362225084596e+000	-6.865703091064288e+000
1	 1.235078068738490e+000	 1.235078068738489e+000	-7.077131956003478e+000
1	 1.221362225084597e+000	 1.248643254719702e+000	-7.275926623580506e+000
1	 1.207498246945725e+000	 1.262055314968202e+000	-7.462889305047662e+000
1	 1.193488711090297e+000	 1.275311838048155e+000	-7.638839340264775e+000
1	 1.179336246272075e+000	 1.288410470592122e+000	-7.804612162198215e+000
1	 1.165043531588422e+000	 1.301348918691123e+000	-7.961058237654285e+000
1	 1.306316155229757e+000	 1.169490491753078e+000	-5.715285274913422e+000
1	 1.293328321196732e+000	 1.183837761593561e+000	-5.976270637493567e+000
1	 1.280179691296205e+000	 1.198044246236214e+000	-6.221185229873186e+000
1	 1.266872568192991e+000	 1.212107256357580e+000	-6.450857408228270e+000
1	 1.253409314237314e+000	 1.226024153169964e+000	-6.666140654484498e+000
1	 1.239792350069438e+000	 1.239792350069438e+000	-6.867912454328447e+000
1	 1.226024153169964e+000	 1.253409314237314e+000	-7.057073136407903e+000
1	 1.212107256357580e+000	 1.266872568192991e+000	-7.234544674988068e+000
1	 1.198044246236215e+000	 1.280179691296205e+000	-7.401269458420653e+000
1	 1.183837761593561e+000	 1.293328321196732e+000	-7.558209025864922e+000
1	 1.169490491753078e+000	 1.306316155229757e+000	-7.706342774775929e+000
1	 1.311283391768273e+000	 1.173937451917599e+000	-5.553918322392530e+000
1	 1.298246171801226e+000	 1.188339276914900e+000	-5.806280321116274e+000
1	 1.285047544544136e+000	 1.202599781381977e+000	-6.042181029586796e+000
1	 1.271689821417654e+000	 1.216716265769280e+000	-6.262553503587117e+000
1	 1.258175373754790e+000	 1.230686081255180e+000	-6.468360079669072e+000
1	 1.244506631400244e+000	 1.244506631400243e+000	-6.660591050272058e+000
1	 1.230686081255180e+000	 1.258175373754790e+000	-6.840263292642974e+000
1	 1.216716265769280e+000	 1.271689821417654e+000	-7.008418854269144e+000
1	 1.202599781381977e+000	 1.285047544544136e+000	-7.166123497645046e+000
1	 1.188339276914900e+000	 1.298246171801226e+000	-7.314465207292759e+000
1	 1.173937451917600e+000	 1.311283391768273e+000	-7.454552662045976e+000
1	 1.316250628306690e+000	 1.178384412081889e+000	-5.394204994066048e+000
1	 1.303164022405607e+000	 1.192840792236000e+000	-5.637942293422374e+000
1	 1.289915397791938e+000	 1.207155316527504e+000	-5.864856096355979e+000
1	 1.276507074642168e+000	 1.221325275180754e+000	-6.075984383158000e+000
1	 1.262941433272095e+000	 1.235348009340186e+000	-6.272398592544815e+000
1	 1.249220912730856e+000	 1.249220912730856e+000	-6.455202092154022e+000
1	 1.235348009340186e+000	 1.262941433272095e+000	-6.625528595398740e+000
1	 1.221325275180754e+000	 1.276507074642168e+000	-6.784540527844372e+000
1	 1.207155316527504e+000	 1.289915397791938e+000	-6.933427346394832e+000
1	 1.192840792235999e+000	 1.303164022405607e+000	-7.073403814694804e+000
1	 1.178384412081889e+000	 1.316250628306690e+000	-7.205708238257165e+000
1	 1.321217864845022e+000	 1.182831372245845e+000	-5.236193716593318e+000
1	 1.308081873009877e+000	 1.197342307556770e+000	-5.471301967155658e+000
1	 1.294783251039599e+000	 1.211710851672715e+000	-5.689252881601457e+000
1	 1.281324327866507e+000	 1.225934284591933e+000	-5.891189584533304e+000
1	 1.267707492789194e+000	 1.240009937424922e+000	-6.078292859221790e+000
1	 1.253935194061230e+000	 1.253935194061230e+000	-6.251779411751934e+000
1	 1.240009937424922e+000	 1.267707492789194e+000	-6.412900074033525e+000
1	 1.225934284591933e+000	 1.281324327866507e+000	-6.562937949292935e+000
1	 1.211710851672716e+000	 1.294783251039599e+000	-6.703206503807199e+000
1	 1.197342307556771e+000	 1.308081873009878e+000	-6.835047608775035e+000
1	 1.182831372245845e+000	 1.321217864845022e+000	-6.959829536340525e+000
1	 1.326185101383289e+000	 1.187278332409369e+000	-5.079932191103702e+000
1	 1.312999723614040e+000	 1.201843822877124e+000	-5.306404074684465e+000
1	 1.299651104287106e+000	 1.216266386817533e+000	-5.515413200735202e+000
1	 1.286141581090649e+000	 1.230543294002748e+000	-5.708208052952084e+000
1	 1.272473552306048e+000	 1.244671865509330e+000	-5.886078996477223e+000
1	 1.258649475391316e+000	 1.258649475391316e+000	-6.050356333974681e+000
1	 1.244671865509330e+000	 1.272473552306049e+000	-6.202408293022879e+000
1	 1.230543294002748e+000	 1.286141581090648e+000	-6.343638948898422e+000
1	 1.216266386817532e+000	 1.299651104287106e+000	-6.475486086990932e+000
1	 1.201843822877123e+000	 1.312999723614040e+000	-6.599419009236065e+000
1	 1.187278332409369e+000	 1.326185101383289e+000	-6.716936289093535e+000
1	 1.331152337921506e+000	 1.191725292572359e+000	-4.925467406733293e+000
1	 1.317917574218097e+000	 1.206345338196968e+000	-5.143292680696188e+000
1	 1.304518957534450e+000	 1.220821921961874e+000	-5.343378245027173e+000
1	 1.290958834314567e+000	 1.235152303413128e+000	-5.527078152351822e+000
1	 1.277239611822623e+000	 1.249333793593351e+000	-5.695792582004812e+000
1	 1.263363756721067e+000	 1.263363756721067e+000	-5.850965686319587e+000
1	 1.249333793593351e+000	 1.277239611822623e+000	-5.994083360633427e+000
1	 1.235152303413128e+000	 1.290958834314567e+000	-6.126670941546242e+000
1	 1.220821921961874e+000	 1.304518957534450e+000	-6.250290838153895e+000
1	 1.206345338196968e+000	 1.317917574218097e+000	-6.366540101141787e+000
1	 1.191725292572359e+000	 1.331152337921506e+000	-6.477047934779920e+000
1	 1.336119574459690e+000	 1.196172252734715e+000	-4.772845653859657e+000
1	 1.322835424822050e+000	 1.210846853516214e+000	-4.982011194608069e+000
1	 1.309386810781618e+000	 1.225377457105661e+000	-5.173188593206724e+000
1	 1.295776087538239e+000	 1.239761312823005e+000	-5.347837676173876e+000
1	 1.282005671338881e+000	 1.253995721676927e+000	-5.507468664435603e+000
1	 1.268078038050434e+000	 1.268078038050434e+000	-5.653639808118347e+000
1	 1.253995721676926e+000	 1.282005671338881e+000	-5.787954937402848e+000
1	 1.239761312823005e+000	 1.295776087538239e+000	-5.912060934445320e+000
1	 1.225377457105661e+000	 1.309386810781618e+000	-6.027645131572078e+000
1	 1.210846853516214e+000	 1.322835424822051e+000	-6.136432641137471e+000
1	 1.196172252734716e+000	 1.336119574459690e+000	-6.240183622604434e+000
1	 1.341086810997859e+000	 1.200619212896339e+000	-4.622112537042504e+000
1	 1.327753275425902e+000	 1.215348368834772e+000	-4.822602382702648e+000
1	 1.314254664028600e+000	 1.229932992248813e+000	-5.004884222806848e+000
1	 1.300593340761641e+000	 1.244370322232309e+000	-5.170523857928739e+000
1	 1.286771730854787e+000	 1.258657649759996e+000	-5.321141773135582e+000
1	 1.272792319379371e+000	 1.272792319379371e+000	-5.458410559577610e+000
1	 1.258657649759996e+000	 1.286771730854787e+000	-5.584052244431843e+000
1	 1.244370322232309e+000	 1.300593340761641e+000	-5.699835534678104e+000
1	 1.229932992248813e+000	 1.314254664028600e+000	-5.807572980403210e+000
1	 1.215348368834772e+000	 1.327753275425902e+000	-5.909118063531939e+000
1	 1.200619212896339e+000	 1.341086810997858e+000	-6.006362218066194e+000
1	 1.156149611259114e+000	 1.291414445613438e+000	-8.479182294083987e+000
1	 1.141827376473228e+000	 1.304094834133428e+000	-8.638821972992799e+000
1	 1.127371384288980e+000	 1.316611842349339e+000	-8.781601053874176e+000
1	 1.112784435342554e+000	 1.328963378846395e+000	-8.910260547006530e+000
1	 1.098069373291773e+000	 1.341147416219812e+000	-9.027603480437385e+000
1	 1.083229082987748e+000	 1.353161992161219e+000	-9.136490192283830e+000
1	 1.068266488614319e+000	 1.365005210482521e+000	-9.239833541841378e+000
1	 1.053184551797793e+000	 1.376675242076157e+000	-9.340594049760201e+000
1	 1.037986269689500e+000	 1.388170325810758e+000	-9.441774977670452e+000
1	 1.022674673023736e+000	 1.399488769361377e+000	-9.546417357732763e+000
1	 1.007252824153679e+000	 1.410628949973538e+000	-9.657594982648392e+000
1	 1.160596571423735e+000	 1.296381682152357e+000	-8.218678400167073e+000
1	 1.146219248259359e+000	 1.309110843929558e+000	-8.370254513829188e+000
1	 1.131707653218370e+000	 1.321675996984262e+000	-8.505971018841873e+000
1	 1.117064597709183e+000	 1.334075041857377e+000	-8.628516925830876e+000
1	 1.102292936327329e+000	 1.346305943346006e+000	-8.740641445019422e+000
1	 1.087395565020072e+000	 1.358366731594048e+000	-8.845149367486025e+000
1	 1.072375419218692e+000	 1.370255503120003e+000	-8.944896367708038e+000
1	 1.057235471940954e+000	 1.381970421780917e+000	-9.042784237449878e+000
1	 1.041978731866286e+000	 1.393509719671491e+000	-9.141756061177141e+000
1	 1.026608241386256e+000	 1.404871697957502e+000	-9.244791343265925e+000
1	 1.011127074632929e+000	 1.416054727642790e+000	-9.354901097332352e+000
1	 1.165043531588422e+000	 1.301348918691123e+000	-7.961058237654285e+000
1	 1.150611120045602e+000	 1.314126853725497e+000	-8.104854529968579e+000
1	 1.136043922147926e+000	 1.326740151618949e+000	-8.233781693050529e+000
1	 1.121344760076035e+000	 1.339186704868070e+000	-8.350471206285766e+000
1	 1.106516499363172e+000	 1.351464470471854e+000	-8.457612869680945e+000
1	 1.091562047052749e+000	 1.363571471026473e+000	-8.557950284769481e+000
1	 1.076484349823485e+000	 1.375505795757022e+000	-8.654276259336561e+000
1	 1.061286392084600e+000	 1.387265601485157e+000	-8.749428145801129e+000
1	 1.045971194043619e+000	 1.398849113531651e+000	-8.846283123212150e+000
1	 1.030541809749378e+000	 1.410254626553004e+000	-8.947753432896922e+000
1	 1.015001325112831e+000	 1.421480505311373e+000	-9.056781577856825e+000
1	 1.169490491753078e+000	 1.306316155229757e+000	-7.706342774775929e+000
1	 1.155002991831848e+000	 1.319142863521279e+000	-7.842639840766617e+000
1	 1.140380191077526e+000	 1.331804306253448e+000	-7.965047193726560e+000
1	 1.125624922442983e+000	 1.344298367878539e+000	-8.076133311756687e+000
1	 1.110740062399165e+000	 1.356622997597439e+000	-8.178523054198889e+000
1	 1.095728529085632e+000	 1.368776210458593e+000	-8.274893252815813e+000
1	 1.080593280428541e+000	 1.380756088393693e+000	-8.367968229380022e+000
1	 1.065337312228566e+000	 1.392560781189007e+000	-8.460515249268482e+000
1	 1.049963656221326e+000	 1.404188507391379e+000	-8.555339920768446e+000
1	 1.034475378112924e+000	 1.415637555148037e+000	-8.655281549882544e+000
1	 1.018875575593200e+000	 1.426906282979456e+000	-8.763208460471647e+000
1	 1.173937451917600e+000	 1.311283391768273e+000	-7.454552662045976e+000
1	 1.159394863617986e+000	 1.324158873316934e+000	-7.583627995575184e+000
1	 1.144716460007052e+000	 1.336868460887806e+000	-7.699781424188524e+000
1	 1.129905084809896e+000	 1.349410030888850e+000	-7.805513015267880e+000
1	 1.114963625435166e+000	 1.361781524722843e+000	-7.903377218047280e+000
1	 1.099895011118573e+000	 1.373980949890507e+000	-7.995978575629736e+000
1	 1.084702211033704e+000	 1.386006381030130e+000	-8.085967366061686e+000
1	 1.069388232372687e+000	 1.397855960892596e+000	-8.176035181792976e+000
1	 1.053956118399235e+000	 1.409527901250820e+000	-8.268910456958425e+000
1	 1.038408946476717e+000	 1.421020483742758e+000	-8.367353951993177e+000
1	 1.022749826073853e+000	 1.432332060647205e+000	-8.474154205142009e+000
1	 1.178384412081889e+000	 1.316250628306690e+000	-7.205708238257165e+000
1	 1.163786735403906e+000	 1.329174883112497e+000	-7.327836278837252e+000
1	 1.149052728936382e+000	 1.341932615522073e+000	-7.437998077883282e+000
1	 1.134185247176644e+000	 1.354521693899066e+000	-7.538619942318900e+000
1	 1.119187188471039e+000	 1.366940051848147e+000	-7.632180501911626e+000
1	 1.104061493151423e+000	 1.379185689322312e+000	-7.721206552627631e+000
1	 1.088811141638818e+000	 1.391256673666449e+000	-7.808268831749136e+000
1	 1.073439152516800e+000	 1.403151140596052e+000	-7.895977733792844e+000
1	 1.057948580577175e+000	 1.414867295110117e+000	-7.986978976369398e+000
1	 1.042342514840577e+000	 1.426403412337323e+000	-8.083949225200776e+000
1	 1.026624076554608e+000	 1.437757838314787e+000	-8.189591687552973e+000
1	 1.182831372245845e+000	 1.321217864845022e+000	-6.959829536340525e+000
1	 1.168178607189497e+000	 1.334190892908000e+000	-7.075281715066727e+000
1	 1.153388997865399e+000	 1.346996770156299e+000	-7.179710642331423e+000
1	 1.138465409543097e+000	 1.359633356909255e+000	-7.275463573658505e+000
1	 1.123410751506643e+000	 1.372098578973432e+000	-7.364937969170851e+000
1	 1.108227975184033e+000	 1.384390428754105e+000	-7.450577478723519e+000
1	 1.092920072243724e+000	 1.396506966302761e+000	-7.534867861560521e+000
1	 1.077490072660739e+000	 1.408446320299507e+000	-7.620332849222100e+000
1	 1.061941042754975e+000	 1.420206688969413e+000	-7.709529960524610e+000
1	 1.046276083204328e+000	 1.431786340931888e+000	-7.805046277509333e+000
1	 1.030498327035279e+000	 1.443183615982369e+000	-7.909494191295059e+000
1	 1.187278332409369e+000	 1.326185101383289e+000	-6.716936289093535e+000
1	 1.172570478974651e+000	 1.339206902703475e+000	-6.825981073716155e+000
1	 1.157725266793980e+000	 1.352060924790529e+000	-6.924932402983363e+000
1	 1.142745571909126e+000	 1.364745019919480e+000	-7.016053247994701e+000
1	 1.127634314541839e+000	 1.377257106098782e+000	-7.101654607344555e+000
1	 1.112394457216257e+000	 1.389595168185987e+000	-7.184091644413544e+000
1	 1.097029002848268e+000	 1.401757258939182e+000	-7.265759762001857e+000
1	 1.081540992804341e+000	 1.413741500003090e+000	-7.349090622695047e+000
1	 1.065933504932463e+000	 1.425546082828852e+000	-7.436548123446016e+000
1	 1.050209651567791e+000	 1.437169269526609e+000	-7.530624332924271e+000
1	 1.034372577515684e+000	 1.448609393650118e+000	-7.633835400225082e+000
1	 1.191725292572359e+000	 1.331152337921506e+000	-6.477047934779922e+000
1	 1.176962350759256e+000	 1.344222912498952e+000	-6.579950873935531e+000
1	 1.162061535722006e+000	 1.357125079424815e+000	-6.673676446989819e+000
1	 1.147025734274602e+000	 1.369856682929806e+000	-6.760398164645513e+000
1	 1.131857877576487e+000	 1.382415633224277e+000	-6.842335329508374e+000
1	 1.116560939247946e+000	 1.394799907618056e+000	-6.921749335858251e+000
1	 1.101137933452292e+000	 1.407007551575827e+000	-7.000939909635292e+000
1	 1.085591912947441e+000	 1.419036679706928e+000	-7.082241296675545e+000
1	 1.069925967109467e+000	 1.430885476688577e+000	-7.168018407316109e+000
1	 1.054143219930787e+000	 1.442552198121641e+000	-7.260662925556148e+000
1	 1.038246827995640e+000	 1.454035171318201e+000	-7.362589390998115e+000
1	 1.196172252734716e+000	 1.336119574459690e+000	-6.240183622604435e+000
1	 1.181354222543202e+000	 1.349238922294467e+000	-6.337207389225082e+000
1	 1.166397804649358e+000	 1.362189234059203e+000	-6.425955666887681e+000
1	 1.151305896639394e+000	 1.374968345940300e+000	-6.508507386129462e+000
1	 1.136081440610451e+000	 1.387574160349999e+000	-6.586984975677908e+000
1	 1.120727421278952e+000	 1.400004647050408e+000	-6.663550834963229e+000
1	 1.105246864055639e+000	 1.412257844212808e+000	-6.740403749776887e+000
1	 1.089642833089873e+000	 1.424331859411152e+000	-6.819775258728472e+000
1	 1.073918429285816e+000	 1.436224870548732e+000	-6.903925978237328e+000
1	 1.058076788293140e+000	 1.447935126717141e+000	-6.995141893856836e+000
1	 1.042121078474962e+000	 1.459460948986784e+000	-7.095730625766210e+000
1	 1.200619212896339e+000	 1.341086810997858e+000	-6.006362218066194e+000
1	 1.185746094326380e+000	 1.354254932090050e+000	-6.097766651984522e+000
1	 1.170734073575915e+000	 1.367253388693742e+000	-6.181782764204113e+000
1	 1.155586059003373e+000	 1.380080008951025e+000	-6.260389840699491e+000
1	 1.140305003643589e+000	 1.392732687476031e+000	-6.335608314161657e+000
1	 1.124893903309127e+000	 1.405209386483143e+000	-6.409496419457924e+000
1	 1.109355794658154e+000	 1.417508136850241e+000	-6.484146795223240e+000
1	 1.093693753231475e+000	 1.429627039115892e+000	-6.561683038832664e+000
1	 1.077910891461337e+000	 1.441564264409459e+000	-6.644256222084601e+000
1	 1.062010356654672e+000	 1.453318055313266e+000	-6.734041374982789e+000
1	 1.045995328953468e+000	 1.464886726656035e+000	-6.833233945038889e+000
1	 1.007252824153679e+000	 1.410628949973538e+000	-9.657594982648392e+000
1	 9.917238147322854e-001	 1.421589314759868e+000	-9.781423495898444e+000
1	 9.760907627267612e-001	 1.432368380118340e+000	-9.923092792288530e+000
1	 9.603568114495741e-001	 1.442964733480680e+000	-1.008431689944040e+001
1	 9.445251278751973e-001	 1.453377034207980e+000	-1.026681738882693e+001
1	 9.285989006069539e-001	 1.463604014020220e+000	-1.047232062669489e+001
1	 9.125813378375239e-001	 1.473644477357683e+000	-1.070255503266715e+001
1	 8.964756653057331e-001	 1.483497301674313e+000	-1.095924835158338e+001
1	 8.802851242522309e-001	 1.493161437663220e+000	-1.124412494405147e+001
1	 8.640129693766441e-001	 1.502635909414624e+000	-1.155890310108113e+001
1	 8.476624667987510e-001	 1.511919814506641e+000	-1.190529238805367e+001
1	 1.011127074632929e+000	 1.416054727642790e+000	-9.354901097332352e+000
1	 9.955383351508508e-001	 1.427057249867028e+000	-9.478094508548177e+000
1	 9.798451529000372e-001	 1.437877775321736e+000	-9.619459810322885e+000
1	 9.640506832832554e-001	 1.448514886005403e+000	-9.780654497531694e+000
1	 9.481581054562910e-001	 1.458967236122552e+000	-9.963343587916732e+000
1	 9.321706202869717e-001	 1.469233552514910e+000	-1.016919696423647e+001
1	 9.160914483078293e-001	 1.479312635024218e+000	-1.039988672311369e+001
1	 8.999238276650297e-001	 1.489203356786712e+000	-1.065708453596670e+001
1	 8.836710120661887e-001	 1.498904664459498e+000	-1.094245902732550e+001
1	 8.673362687296657e-001	 1.508415578379102e+000	-1.125767317573928e+001
1	 8.509228763379010e-001	 1.517735192652611e+000	-1.160438174236892e+001
1	 1.015001325112831e+000	 1.421480505311373e+000	-9.056781577856825e+000
1	 9.993528555701078e-001	 1.432525184973485e+000	-9.179270276444516e+000
1	 9.835995430740369e-001	 1.443387170524400e+000	-9.320214186338127e+000
1	 9.677445551176854e-001	 1.454065038529375e+000	-9.481220760444195e+000
1	 9.517910830381530e-001	 1.464557438036359e+000	-9.663905039608785e+000
1	 9.357423399677713e-001	 1.474863091008833e+000	-9.869887073821827e+000
1	 9.196015587789252e-001	 1.484980792689991e+000	-1.010078934912157e+001
1	 9.033719900251219e-001	 1.494909411898361e+000	-1.035823422543463e+001
1	 8.870568998809447e-001	 1.504647891255046e+000	-1.064384139050802e+001
1	 8.706595680834880e-001	 1.514195247342880e+000	-1.095922533499767e+001
1	 8.541832858778508e-001	 1.523550570797915e+000	-1.130599285367597e+001
1	 1.018875575593200e+000	 1.426906282979456e+000	-8.763208460471647e+000
1	 1.003167375989868e+000	 1.437993120079414e+000	-8.884917431230903e+000
1	 9.873539332485689e-001	 1.448896565726516e+000	-9.025318072823026e+000
1	 9.714384269526708e-001	 1.459615191052782e+000	-9.185974210599632e+000
1	 9.554240606205866e-001	 1.470147639949597e+000	-9.368457408494370e+000
1	 9.393140596491543e-001	 1.480492629502183e+000	-9.574344457190543e+000
1	 9.231116692506126e-001	 1.490648950355192e+000	-9.805214866972987e+000
1	 9.068201523858113e-001	 1.500615467009447e+000	-1.006264837037509e+001
1	 8.904427876963000e-001	 1.510391118050047e+000	-1.034822243965548e+001
1	 8.739828674379098e-001	 1.519974916306132e+000	-1.066350982405805e+001
1	 8.574436954184010e-001	 1.529365948942723e+000	-1.101007611170122e+001
1	 1.022749826073853e+000	 1.432332060647205e+000	-8.474154205142009e+000
1	 1.006981896409945e+000	 1.443461055184991e+000	-8.595003110158109e+000
1	 9.911083234234418e-001	 1.454405960928265e+000	-8.734734195742819e+000
1	 9.751322987880163e-001	 1.465165343575815e+000	-8.894873998899941e+000
1	 9.590570382033951e-001	 1.475737841862451e+000	-9.076957030947572e+000
1	 9.428857793309232e-001	 1.486122167995148e+000	-9.282523320637225e+000
1	 9.266217797226927e-001	 1.496317108020013e+000	-9.513115960922562e+000
1	 9.102683147468975e-001	 1.506321522120159e+000	-9.770278664389098e+000
1	 8.938286755120545e-001	 1.516134344844683e+000	-1.005555333228617e+001
1	 8.773061667927314e-001	 1.525754585269033e+000	-1.037047764202148e+001
1	 8.607041049593510e-001	 1.535181327087197e+000	-1.071658265788005e+001
1	 1.026624076554608e+000	 1.437757838314787e+000	-8.189591687552973e+000
1	 1.010796416830149e+000	 1.448928990290392e+000	-8.309494946543648e+000
1	 9.948627135984640e-001	 1.459915356129833e+000	-8.448425843718409e+000
1	 9.788261706235282e-001	 1.470715496098660e+000	-8.607879892868521e+000
1	 9.626900157863823e-001	 1.481328043775115e+000	-8.789360902449642e+000
1	 9.464574990128795e-001	 1.491751706487922e+000	-8.994378561717559e+000
1	 9.301318901949669e-001	 1.501985265684642e+000	-9.224446029460989e+000
1	 9.137164771081805e-001	 1.512027577230683e+000	-9.481077530268426e+000
1	 8.972145633280082e-001	 1.521877571639137e+000	-9.765785963200605e+000
1	 8.806294661477533e-001	 1.531534254231759e+000	-1.008008052766230e+001
1	 8.639645145005009e-001	 1.540996705231506e+000	-1.042546437117291e+001
1	 1.030498327035279e+000	 1.443183615982369e+000	-7.909494191295059e+000
1	 1.014610937250293e+000	 1.454396925395793e+000	-8.028361060447042e+000
1	 9.986171037734440e-001	 1.465424751331400e+000	-8.166356857449816e+000
1	 9.825200424590114e-001	 1.476265648621505e+000	-8.324952265059538e+000
1	 9.663229933693518e-001	 1.486918245687779e+000	-8.505626665199220e+000
1	 9.500292186948255e-001	 1.497381244980695e+000	-8.709865756253732e+000
1	 9.336420006672358e-001	 1.507653423349272e+000	-8.939159171889187e+000
1	 9.171646394694617e-001	 1.517733632341207e+000	-9.194998106287736e+000
1	 9.006004511439614e-001	 1.527620798433591e+000	-9.478872950622595e+000
1	 8.839527655027748e-001	 1.537313923194485e+000	-9.792270945524349e+000
1	 8.672249240416515e-001	 1.546812083375814e+000	-1.013667385420142e+001
1	 1.034372577515684e+000	 1.448609393650118e+000	-7.633835400225082e+000
1	 1.018425457670188e+000	 1.459864860501370e+000	-7.751570049554363e+000
1	 1.002371493948190e+000	 1.470934146533150e+000	-7.888491619376928e+000
1	 9.862139142942723e-001	 1.481815801144537e+000	-8.046052081726456e+000
1	 9.699559709521071e-001	 1.492508447600634e+000	-8.225712596000905e+000
1	 9.536009383765637e-001	 1.503010783473660e+000	-8.428941145632393e+000
1	 9.371521111392999e-001	 1.513321581014091e+000	-8.657210175193539e+000
1	 9.206128018305414e-001	 1.523439687451919e+000	-8.911994232805380e+000
1	 9.039863389597143e-001	 1.533364025228227e+000	-9.194767622650920e+000
1	 8.872760648575968e-001	 1.543093592157386e+000	-9.507002072329144e+000
1	 8.704853335826015e-001	 1.552627461520289e+000	-9.850164419696169e+000
1	 1.038246827995640e+000	 1.454035171318201e+000	-7.362589390998115e+000
1	 1.022239978089648e+000	 1.465332795607299e+000	-7.479090980266685e+000
1	 1.006125884122511e+000	 1.476443541735265e+000	-7.614795043571905e+000
1	 9.899077861291159e-001	 1.487365953667944e+000	-7.771140891745946e+000
1	 9.735889485344518e-001	 1.498098649513870e+000	-7.949577594425124e+000
1	 9.571726580578953e-001	 1.508640321967009e+000	-8.151561624386849e+000
1	 9.406622216109615e-001	 1.518989738679292e+000	-8.378554501215952e+000
1	 9.240609641912196e-001	 1.529145742563005e+000	-8.632020439164286e+000
1	 9.073722267750664e-001	 1.539107252023227e+000	-8.913424004015015e+000
1	 8.905993642120184e-001	 1.548873261120638e+000	-9.224227783688328e+000
1	 8.737457431231518e-001	 1.558442839665096e+000	-9.565890077247525e+000
1	 1.042121078474962e+000	 1.459460948986784e+000	-7.095730625766210e+000
1	 1.026054498508483e+000	 1.470800730713755e+000	-7.210893378987509e+000
1	 1.009880274296215e+000	 1.481952936937929e+000	-7.345232565857097e+000
1	 9.936016579633483e-001	 1.492916106191916e+000	-7.500180815787072e+000
1	 9.772219261161895e-001	 1.503688851427678e+000	-7.677181171231673e+000
1	 9.607443777386231e-001	 1.514269860460932e+000	-7.877684728056148e+000
1	 9.441723320820210e-001	 1.524657896345065e+000	-8.103148274108555e+000
1	 9.275091265512970e-001	 1.534851797674654e+000	-8.355031930885001e+000
1	 9.107581145898184e-001	 1.544850478818776e+000	-8.634796803125720e+000
1	 8.939226635658397e-001	 1.554652930084415e+000	-8.943902641112143e+000
1	 8.770061526631022e-001	 1.564258217810401e+000	-9.283805520352468e+000
1	 1.045995328953468e+000	 1.464886726656035e+000	-6.833233945038889e+000
1	 1.029869018926506e+000	 1.476268665820915e+000	-6.946947223603897e+000
1	 1.013634664469111e+000	 1.487462332141325e+000	-7.079770134142620e+000
1	 9.972955297967756e-001	 1.498466258716638e+000	-7.233134535722549e+000
1	 9.808549036971231e-001	 1.509279053342249e+000	-7.408483437051283e+000
1	 9.643160974185489e-001	 1.519899398955622e+000	-7.607268621313985e+000
1	 9.476824425522794e-001	 1.530326054011600e+000	-7.830948268069158e+000
1	 9.309572889105739e-001	 1.540557852787053e+000	-8.080984577143223e+000
1	 9.141440024037704e-001	 1.550593705615053e+000	-8.358841399414196e+000
1	 8.972459629188613e-001	 1.560432599048893e+000	-8.665981879307543e+000
1	 8.802665622022525e-001	 1.570073595956371e+000	-9.003866113748918e+000
1	 8.476624667987510e-001	 1.511919814506641e+000	-1.190529238805367e+001
1	 8.312393613581415e-001	 1.521010974816841e+000	-1.228587900041588e+001
1	 8.147444885464512e-001	 1.529910043095903e+000	-1.270204445131918e+001
1	 7.981811359858797e-001	 1.538616338798039e+000	-1.315348088540200e+001
1	 7.815525946160575e-001	 1.547129254530897e+000	-1.363982955371295e+001
1	 7.648621567133508e-001	 1.555448255818969e+000	-1.416068231575813e+001
1	 7.481131139287017e-001	 1.563572880804544e+000	-1.471558319779131e+001
1	 7.313087553462125e-001	 1.571502739887311e+000	-1.530403000331132e+001
1	 7.144523655646381e-001	 1.579237515303805e+000	-1.592547597167825e+001
1	 6.975472228038638e-001	 1.586776960647991e+000	-1.657933148071610e+001
1	 6.805965970383868e-001	 1.594120900334306e+000	-1.726496578914470e+001
1	 8.509228763379010e-001	 1.517735192652611e+000	-1.160438174236892e+001
1	 8.344366018271733e-001	 1.526861320779763e+000	-1.198495068154464e+001
1	 8.178782839027142e-001	 1.535794618021944e+000	-1.240067883426715e+001
1	 8.012512228320780e-001	 1.544534401215738e+000	-1.285141136355950e+001
1	 7.845587222130093e-001	 1.553080060632541e+000	-1.333694384347862e+001
1	 7.678040869851311e-001	 1.561431059741056e+000	-1.385702348086747e+001
1	 7.509906214602353e-001	 1.569586934907099e+000	-1.441135039523438e+001
1	 7.341216273734027e-001	 1.577547295031810e+000	-1.499957895326772e+001
1	 7.172004019571124e-001	 1.585311821129488e+000	-1.562131915442403e+001
1	 7.002302360404403e-001	 1.592880265846325e+000	-1.627613806397289e+001
1	 6.832144121753598e-001	 1.600252452921389e+000	-1.696356128983607e+001
1	 8.541832858778508e-001	 1.523550570797915e+000	-1.130599285367597e+001
1	 8.376338422970054e-001	 1.532711666742066e+000	-1.168630374551251e+001
1	 8.210120792597762e-001	 1.541679192947415e+000	-1.210137865218571e+001
1	 8.043213096790726e-001	 1.550452463632922e+000	-1.255120828918606e+001
1	 7.875648498107525e-001	 1.559030866733727e+000	-1.303573509467353e+001
1	 7.707460172576941e-001	 1.567413863662744e+000	-1.355485418280489e+001
1	 7.538681289925395e-001	 1.575600989009313e+000	-1.410841435688309e+001
1	 7.369344994013454e-001	 1.583591850176024e+000	-1.469621917935930e+001
1	 7.199484383503170e-001	 1.591386126954937e+000	-1.531802809563657e+001
1	 7.029132492777179e-001	 1.598983571044472e+000	-1.597355760854961e+001
1	 6.858322273129970e-001	 1.606384005508325e+000	-1.666248250033702e+001
1	 8.574436954184010e-001	 1.529365948942723e+000	-1.101007611170122e+001
1	 8.408310827674369e-001	 1.538562012703903e+000	-1.138988858043928e+001
1	 8.241458746174377e-001	 1.547563767872459e+000	-1.180409380337802e+001
1	 8.073913965266649e-001	 1.556370526049720e+000	-1.225282066850927e+001
1	 7.905709774090891e-001	 1.564981672834569e+000	-1.273615110505469e+001
1	 7.736879475308445e-001	 1.573396667584132e+000	-1.325412078015390e+001
1	 7.567456365254215e-001	 1.581615043111268e+000	-1.380671985688176e+001
1	 7.397473714298533e-001	 1.589636405320017e+000	-1.439389381112829e+001
1	 7.226964747440688e-001	 1.597460432780201e+000	-1.501554430477830e+001
1	 7.055962625155205e-001	 1.605086876242463e+000	-1.567153011254288e+001
1	 6.884500424511314e-001	 1.612515558095128e+000	-1.636166809971302e+001
1	 8.607041049593510e-001	 1.535181327087197e+000	-1.071658265788005e+001
1	 8.440283232382684e-001	 1.544412358665429e+000	-1.109565632617819e+001
1	 8.272796699754990e-001	 1.553448342797217e+000	-1.150877494530221e+001
1	 8.104614833746549e-001	 1.562288588466257e+000	-1.195619828042853e+001
1	 7.935771050078215e-001	 1.570932478935180e+000	-1.243814046336204e+001
1	 7.766298778043863e-001	 1.579379471505314e+000	-1.295477044428790e+001
1	 7.596231440586885e-001	 1.587629097213042e+000	-1.350621250617319e+001
1	 7.425602434587377e-001	 1.595680960463853e+000	-1.409254683983444e+001
1	 7.254445111381856e-001	 1.603534738605327e+000	-1.471381017757736e+001
1	 7.082792757536738e-001	 1.611190181440331e+000	-1.536999648321525e+001
1	 6.910678575895980e-001	 1.618647110681815e+000	-1.606105769618204e+001
1	 8.639645145005009e-001	 1.540996705231506e+000	-1.042546437117291e+001
1	 8.472255637093006e-001	 1.550262704626801e+000	-1.080355886013132e+001
1	 8.304134653337593e-001	 1.559332917721832e+000	-1.121537348024715e+001
1	 8.135315702228441e-001	 1.568206650882666e+000	-1.166129166193595e+001
1	 7.965832326067517e-001	 1.576883285035673e+000	-1.214165253439384e+001
1	 7.795718080781237e-001	 1.585362275426389e+000	-1.265675114403374e+001
1	 7.625006515921482e-001	 1.593643151314718e+000	-1.320683873670816e+001
1	 7.453731154878102e-001	 1.601725515607597e+000	-1.379212310219511e+001
1	 7.281925475324853e-001	 1.609609044430361e+000	-1.441276897930329e+001
1	 7.109622889920020e-001	 1.617293486638105e+000	-1.506889851984028e+001
1	 6.936856727282305e-001	 1.624778663268400e+000	-1.576059180958200e+001
1	 8.672249240416515e-001	 1.546812083375814e+000	-1.013667385420142e+001
1	 8.504228041803323e-001	 1.556113050588172e+000	-1.051354878338532e+001
1	 8.335472606920200e-001	 1.565217492646447e+000	-1.092384154133121e+001
1	 8.166016570710336e-001	 1.574124713299071e+000	-1.136805209386597e+001
1	 7.995893602056821e-001	 1.582834091136160e+000	-1.184663744441845e+001
1	 7.825137383518610e-001	 1.591345079347453e+000	-1.236001163068132e+001
1	 7.653781591256081e-001	 1.599657205416376e+000	-1.290854578601252e+001
1	 7.481859875168829e-001	 1.607770070751310e+000	-1.349256826449241e+001
1	 7.309405839267849e-001	 1.615683350255352e+000	-1.411236482842335e+001
1	 7.136453022303304e-001	 1.623396791835816e+000	-1.476817889693438e+001
1	 6.963034878668631e-001	 1.630910215854901e+000	-1.546021185423438e+001
1	 8.704853335826015e-001	 1.552627461520289e+000	-9.850164419696167e+000
1	 8.536200446511640e-001	 1.561963396549699e+000	-1.022557940715872e+001
1	 8.366810560500814e-001	 1.571102067571204e+000	-1.063413197881560e+001
1	 8.196717439190238e-001	 1.580042775715602e+000	-1.107643158696475e+001
1	 8.025954878044144e-001	 1.588784897236754e+000	-1.155304606691378e+001
1	 7.854556686254030e-001	 1.597327883268604e+000	-1.206450142333023e+001
1	 7.682556666588754e-001	 1.605671259518095e+000	-1.261128168210121e+001
1	 7.509988595457673e-001	 1.613814625895058e+000	-1.319382880703768e+001
1	 7.336886203209017e-001	 1.621757656080346e+000	-1.381254268062281e+001
1	 7.163283154684836e-001	 1.629500097033496e+000	-1.446778114786609e+001
1	 6.989213030053297e-001	 1.637041768441332e+000	-1.515986012219319e+001
1	 8.737457431231518e-001	 1.558442839665096e+000	-9.565890077247527e+000
1	 8.568172851215963e-001	 1.567813742511534e+000	-9.939604739552356e+000
1	 8.398148514077427e-001	 1.576986642496242e+000	-1.034619834672429e+001
1	 8.227418307666160e-001	 1.585960838132388e+000	-1.078638286827166e+001
1	 8.056016154027514e-001	 1.594735703337569e+000	-1.126083000862557e+001
1	 7.883975988985537e-001	 1.603310687189938e+000	-1.177017079456372e+001
1	 7.711331741917573e-001	 1.611685313619956e+000	-1.231499522872898e+001
1	 7.538117315742753e-001	 1.619859181038905e+000	-1.289585200898360e+001
1	 7.364366567146536e-001	 1.627831961905391e+000	-1.351324831318556e+001
1	 7.190113287062863e-001	 1.635603402231177e+000	-1.416764964883154e+001
1	 7.015391181434644e-001	 1.643173321027709e+000	-1.485947976686806e+001
1	 8.770061526631022e-001	 1.564258217810401e+000	-9.283805520352468e+000
1	 8.600145255914282e-001	 1.573664088473836e+000	-9.655579472596065e+000
1	 8.429486467648053e-001	 1.582871217421709e+000	-1.005999488976233e+001
1	 8.258119176136107e-001	 1.591878900549556e+000	-1.049785936780488e+001
1	 8.086077430004947e-001	 1.600686509438716e+000	-1.096994159593862e+001
1	 7.913395291711171e-001	 1.609293491111551e+000	-1.147697075644325e+001
1	 7.740106817240618e-001	 1.617699367722041e+000	-1.201963599097088e+001
1	 7.566246036022185e-001	 1.625903736182913e+000	-1.259858593347488e+001
1	 7.391846931078581e-001	 1.633906267730533e+000	-1.321442830972097e+001
1	 7.216943419435642e-001	 1.641706707428889e+000	-1.386772960318790e+001
1	 7.041569332811017e-001	 1.649304873614048e+000	-1.455901478701334e+001
1	 8.802665622022525e-001	 1.570073595956371e+000	-9.003866113748918e+000
1	 8.632117660604605e-001	 1.579514434436757e+000	-9.373458969581760e+000
1	 8.460824421210690e-001	 1.588755792347743e+000	-9.775476530524545e+000
1	 8.288820044598098e-001	 1.597796962967234e+000	-1.021081520554292e+001
1	 8.116138705974474e-001	 1.606637315540310e+000	-1.068033386154795e+001
1	 7.942814594428975e-001	 1.615276295033541e+000	-1.118485304681359e+001
1	 7.768881892555959e-001	 1.623713421824429e+000	-1.172515428112372e+001
1	 7.594374756294086e-001	 1.631948291327146e+000	-1.230197941312983e+001
1	 7.419327295003328e-001	 1.639980573555821e+000	-1.291603004523191e+001
1	 7.243773551801412e-001	 1.647810012626662e+000	-1.356796702613503e+001
1	 7.067747484180751e-001	 1.655436426200365e+000	-1.425841001107261e+001
1	 6.805965970383868e-001	 1.594120900334306e+000	-1.726496578914470e+001
1	 6.636011961111934e-001	 1.601270286891380e+000	-1.799689005631047e+001
1	 6.465668096834394e-001	 1.608223969196076e+000	-1.878564543894358e+001
1	 6.294966743307516e-001	 1.614981981624948e+000	-1.962488927065911e+001
1	 6.123940111778622e-001	 1.621544426721644e+000	-2.050822978012304e+001
1	 5.952620241932003e-001	 1.627911474392944e+000	-2.142923590776554e+001
1	 5.781038985210186e-001	 1.634083361056792e+000	-2.238144701797276e+001
1	 5.609227988524843e-001	 1.640060388744116e+000	-2.335838248999533e+001
1	 5.437218678370922e-001	 1.645842924156250e+000	-2.435355117145174e+001
1	 5.265042245356669e-001	 1.651431397679850e+000	-2.536046067898111e+001
1	 5.092729629161171e-001	 1.656826302361175e+000	-2.637262653129608e+001
1	 6.832144121753598e-001	 1.600252452921389e+000	-1.696356128983607e+001
1	 6.661536409274683e-001	 1.607429338547066e+000	-1.769796660282800e+001
1	 6.490537342270052e-001	 1.614409767172589e+000	-1.848961977897568e+001
1	 6.319179410986119e-001	 1.621193773306730e+000	-1.933212125089991e+001
1	 6.147494950566040e-001	 1.627781459887554e+000	-2.021902132062003e+001
1	 5.975516123930077e-001	 1.634172997475357e+000	-2.114383013528537e+001
1	 5.803274905032655e-001	 1.640368623397429e+000	-2.210002755674798e+001
1	 5.630803062510660e-001	 1.646368640846407e+000	-2.308107290791719e+001
1	 5.458132143736448e-001	 1.652173417934089e+000	-2.408041457948766e+001
1	 5.285293459288381e-001	 1.657783386702547e+000	-2.509149948131801e+001
1	 5.112318067850481e-001	 1.663199042094462e+000	-2.610778232344802e+001
1	 6.858322273129970e-001	 1.606384005508325e+000	-1.666248250033702e+001
1	 6.687060857443627e-001	 1.613588390202636e+000	-1.739903294867012e+001
1	 6.515406587711398e-001	 1.620595565149006e+000	-1.819319535738863e+001
1	 6.343392078669849e-001	 1.627405564988432e+000	-1.903852132943288e+001
1	 6.171049789358011e-001	 1.634018493053393e+000	-1.992851130377063e+001
1	 5.998412005932101e-001	 1.640434520557706e+000	-2.085662467726534e+001
1	 5.825510824858481e-001	 1.646653885738002e+000	-2.181628981901650e+001
1	 5.652378136499249e-001	 1.652676892948636e+000	-2.280091395983468e+001
1	 5.479045609104207e-001	 1.658503911711865e+000	-2.380389294017109e+001
1	 5.305544673221824e-001	 1.664135375725176e+000	-2.481862080052059e+001
1	 5.131906506541093e-001	 1.669571781827682e+000	-2.583849919904805e+001
1	 6.884500424511314e-001	 1.612515558095128e+000	-1.636166809971302e+001
1	 6.712585305617217e-001	 1.619747441858088e+000	-1.710002692025845e+001
1	 6.540275833157010e-001	 1.626781363125316e+000	-1.789630977329886e+001
1	 6.367604746357436e-001	 1.633617356670030e+000	-1.874402741349350e+001
1	 6.194604628153395e-001	 1.640255526219128e+000	-1.963663839067302e+001
1	 6.021307887937086e-001	 1.646696043639945e+000	-2.056755930504910e+001
1	 5.847746744686816e-001	 1.652939148078460e+000	-2.153017495379280e+001
1	 5.673953210489919e-001	 1.658985145050743e+000	-2.251784835137958e+001
1	 5.499959074473635e-001	 1.664834405489513e+000	-2.352393060677788e+001
1	 5.325795887156568e-001	 1.670487364747675e+000	-2.454177064125737e+001
1	 5.151494945232681e-001	 1.675944521560770e+000	-2.556472473133105e+001
1	 6.910678575895980e-001	 1.618647110681815e+000	-1.606105769618204e+001
1	 6.738109753793902e-001	 1.625906493513425e+000	-1.680088728608629e+001
1	 6.565145078605460e-001	 1.632967161101506e+000	-1.759890157133955e+001
1	 6.391817414047586e-001	 1.639829148351499e+000	-1.844857835116511e+001
1	 6.218159466951049e-001	 1.646492559384722e+000	-1.934334217184996e+001
1	 6.044203769944051e-001	 1.652957566722031e+000	-2.027657470258334e+001
1	 5.869982664516829e-001	 1.659224410418750e+000	-2.124162500181831e+001
1	 5.695528284481979e-001	 1.665293397152670e+000	-2.223181965632320e+001
1	 5.520872539844181e-001	 1.671164899266971e+000	-2.324047277576040e+001
1	 5.346047101092180e-001	 1.676839353769976e+000	-2.426089582634936e+001
1	 5.171083383924920e-001	 1.682317261293657e+000	-2.528640728791710e+001
1	 6.936856727282305e-001	 1.624778663268400e+000	-1.576059180958200e+001
1	 6.763634201972141e-001	 1.632065545168648e+000	-1.650155373894298e+001
1	 6.590014324055339e-001	 1.639152959077564e+000	-1.730091022381840e+001
1	 6.416030081739019e-001	 1.646040940032816e+000	-1.815211391362442e+001
1	 6.241714305749840e-001	 1.652729592550140e+000	-1.904856314971137e+001
1	 6.067099651952000e-001	 1.659219089803919e+000	-1.998361244919543e+001
1	 5.892218584347683e-001	 1.665509672758822e+000	-2.095058287873547e+001
1	 5.717103358474736e-001	 1.671601649254359e+000	-2.194277230019759e+001
1	 5.541786005215280e-001	 1.677495393044175e+000	-2.295346547083502e+001
1	 5.366298315028222e-001	 1.683191342792013e+000	-2.397594398133263e+001
1	 5.190671822617483e-001	 1.688690001026278e+000	-2.500349601582244e+001
1	 6.963034878668631e-001	 1.630910215854901e+000	-1.546021185423438e+001
1	 6.789158650150372e-001	 1.638224596823758e+000	-1.620196687853913e+001
1	 6.614883569505218e-001	 1.645338757053478e+000	-1.700227611328029e+001
1	 6.440242749430453e-001	 1.652252731713956e+000	-1.785457477779170e+001
1	 6.265269144548638e-001	 1.658966625715349e+000	-1.875224272141341e+001
1	 6.089995533959948e-001	 1.665480612885564e+000	-1.968861500276455e+001
1	 5.914454504178532e-001	 1.671794935098621e+000	-2.065699235864132e+001
1	 5.738678432467487e-001	 1.677909901355751e+000	-2.165065154428281e+001
1	 5.562699470586383e-001	 1.683825886821061e+000	-2.266285552743323e+001
1	 5.386549528964268e-001	 1.689543331813722e+000	-2.368686351936951e+001
1	 5.210260261310047e-001	 1.695062740758567e+000	-2.471594082680852e+001
1	 6.989213030053297e-001	 1.637041768441332e+000	-1.515986012219319e+001
1	 6.814683098327063e-001	 1.644383648478757e+000	-1.590206819452176e+001
1	 6.639752814953673e-001	 1.651524555029236e+000	-1.670294051546015e+001
1	 6.464455417120605e-001	 1.658464523394895e+000	-1.755590250936660e+001
1	 6.288823983346291e-001	 1.665203658880313e+000	-1.845432316210142e+001
1	 6.112891415966912e-001	 1.671742135966922e+000	-1.939152568326671e+001
1	 5.936690424008549e-001	 1.678080197438097e+000	-2.036079805801114e+001
1	 5.760253506459544e-001	 1.684218153456787e+000	-2.135540346995577e+001
1	 5.583612935956925e-001	 1.690156380597569e+000	-2.236859057749961e+001
1	 5.406800742899878e-001	 1.695895320835035e+000	-2.339360362649699e+001
1	 5.229848700002286e-001	 1.701435480490455e+000	-2.442369238305975e+001
1	 7.015391181434644e-001	 1.643173321027709e+000	-1.485947976686805e+001
1	 6.840207546500652e-001	 1.650542700133645e+000	-1.560180004987071e+001
1	 6.664622060399287e-001	 1.657710353004827e+000	-1.640284558261885e+001
1	 6.488668084808190e-001	 1.664676315075607e+000	-1.725603954624655e+001
1	 6.312378822141675e-001	 1.671440692044997e+000	-1.815474760852863e+001
1	 6.135787297971900e-001	 1.678003659047950e+000	-1.909228865669147e+001
1	 5.958926343836886e-001	 1.684365459777196e+000	-2.006194541998124e+001
1	 5.781828580450218e-001	 1.690526405557409e+000	-2.105697496338954e+001
1	 5.604526401326355e-001	 1.696486874373634e+000	-2.207061903462981e+001
1	 5.427051956834623e-001	 1.702247309855889e+000	-2.309611424720715e+001
1	 5.249437138693874e-001	 1.707808220221878e+000	-2.412670208318314e+001
1	 7.041569332811017e-001	 1.649304873614048e+000	-1.455901478701334e+001
1	 6.865731994669597e-001	 1.656701751788424e+000	-1.530110566466493e+001
1	 6.689491305840634e-001	 1.663896150980237e+000	-1.610193432724942e+001
1	 6.512880752491925e-001	 1.670888106756072e+000	-1.695492918231359e+001
1	 6.335933660933646e-001	 1.677677725209364e+000	-1.785346004304144e+001
1	 6.158683179973926e-001	 1.684265182128603e+000	-1.879084891931493e+001
1	 5.981162263662709e-001	 1.690650722115867e+000	-1.976038069898299e+001
1	 5.803403654438809e-001	 1.696834657657558e+000	-2.075531370059320e+001
1	 5.625439866694115e-001	 1.702817368149193e+000	-2.176889007954273e+001
1	 5.447303170768068e-001	 1.708599298876215e+000	-2.279434607034978e+001
1	 5.269025577384487e-001	 1.714180959952767e+000	-2.382492204851811e+001
1	 7.067747484180751e-001	 1.655436426200365e+000	-1.425841001107262e+001
1	 6.891256442832350e-001	 1.662860803443096e+000	-1.499992910020892e+001
1	 6.714360551276295e-001	 1.670081948955455e+000	-1.580015060614631e+001
1	 6.537093420170530e-001	 1.677099898436262e+000	-1.665251555158237e+001
1	 6.359488499721071e-001	 1.683914758373383e+000	-1.755040527791816e+001
1	 6.181579061972000e-001	 1.690526705208835e+000	-1.848715228232401e+001
1	 6.003398183485179e-001	 1.696935984454056e+000	-1.945605094571805e+001
1	 5.824978728424627e-001	 1.703142909757176e+000	-2.045036813278483e+001
1	 5.646353332059645e-001	 1.709147861924183e+000	-2.146335364587239e+001
1	 5.467554384699780e-001	 1.714951287895949e+000	-2.248825051534581e+001
1	 5.288614016073797e-001	 1.720553699683057e+000	-2.351830510975359e+001
1	 5.092729629161171e-001	 1.656826302361175e+000	-2.637262653129608e+001
1	 4.920311501469236e-001	 1.662028192427957e+000	-2.738187945868269e+001
1	 4.747818244681851e-001	 1.667037680950171e+000	-2.838213902098375e+001
1	 4.575279946036860e-001	 1.671855439951955e+000	-2.937008594997496e+001
1	 4.402726386897362e-001	 1.676482199660132e+000	-3.034243157914169e+001
1	 4.230187029988017e-001	 1.680918747307537e+000	-3.129592157503712e+001
1	 4.057691007109044e-001	 1.685165925907489e+000	-3.222733954446711e+001
1	 3.885267107333296e-001	 1.689224633001393e+000	-3.313351051361711e+001
1	 3.712943765690968e-001	 1.693095819381501e+000	-3.401130427563513e+001
1	 3.540749052345564e-001	 1.696780487790798e+000	-3.485763860355357e+001
1	 3.368710662263960e-001	 1.700279691602014e+000	-3.566948232583579e+001
1	 5.112318067850481e-001	 1.663199042094462e+000	-2.610778232344802e+001
1	 4.939236759081701e-001	 1.668420940469325e+000	-2.712115060534923e+001
1	 4.766080032244467e-001	 1.673449697255204e+000	-2.812560002689878e+001
1	 4.592878090302757e-001	 1.678285987061092e+000	-2.911777891154241e+001
1	 4.419660829169300e-001	 1.682930542922536e+000	-3.009436536599622e+001
1	 4.246457824892794e-001	 1.687384155100361e+000	-3.105207109936767e+001
1	 4.073298321324640e-001	 1.691647669850424e+000	-3.198764511732325e+001
1	 3.900211218270629e-001	 1.695721988166405e+000	-3.289787728726932e+001
1	 3.727225060132111e-001	 1.699608064497652e+000	-3.377960177090336e+001
1	 3.554368025040346e-001	 1.703306905444065e+000	-3.462970032087889e+001
1	 3.381667914486827e-001	 1.706819568430031e+000	-3.544510543872923e+001
1	 5.131906506541093e-001	 1.669571781827682e+000	-2.583849919904805e+001
1	 4.958162016695114e-001	 1.674813688510627e+000	-2.685547497724917e+001
1	 4.784341819807758e-001	 1.679861713560173e+000	-2.786361638957297e+001
1	 4.610476234569132e-001	 1.684716534170166e+000	-2.885953782145669e+001
1	 4.436595271441606e-001	 1.689378886184879e+000	-2.983988264932694e+001
1	 4.262728619797906e-001	 1.693849562893120e+000	-3.080132714994937e+001
1	 4.088905635540621e-001	 1.698129413793288e+000	-3.174058428394393e+001
1	 3.915155329208472e-001	 1.702219343331335e+000	-3.265440734927122e+001
1	 3.741506354573972e-001	 1.706120309613704e+000	-3.353959350089123e+001
1	 3.567986997736138e-001	 1.709833323097210e+000	-3.439298713320117e+001
1	 3.394625166711072e-001	 1.713359445257894e+000	-3.521148312225107e+001
1	 5.151494945232681e-001	 1.675944521560770e+000	-2.556472473133105e+001
1	 4.977087274309238e-001	 1.681206436551799e+000	-2.658480170535388e+001
1	 4.802603607371552e-001	 1.686273729865015e+000	-2.759613892861773e+001
1	 4.628074378835870e-001	 1.691147081279122e+000	-2.859531533725407e+001
1	 4.453529713714186e-001	 1.695827229447108e+000	-2.957893809194120e+001
1	 4.278999414703269e-001	 1.700314970685772e+000	-3.054364657994209e+001
1	 4.104512949756888e-001	 1.704611157736048e+000	-3.148611629031477e+001
1	 3.930099440146699e-001	 1.708716698496161e+000	-3.240306255794690e+001
1	 3.755787649016374e-001	 1.712632554729648e+000	-3.329124417245442e+001
1	 3.581605970432686e-001	 1.716359740750236e+000	-3.414746684840826e+001
1	 3.407582418936350e-001	 1.719899322085622e+000	-3.496858655374846e+001
1	 5.171083383924920e-001	 1.682317261293657e+000	-2.528640728791710e+001
1	 4.996012531923835e-001	 1.687599184592773e+000	-2.630908069141682e+001
1	 4.820865394935687e-001	 1.692685746169670e+000	-2.732311920884006e+001
1	 4.645672523102847e-001	 1.697577628387900e+000	-2.832506483381697e+001
1	 4.470464155986951e-001	 1.702275572709173e+000	-2.931148704360932e+001
1	 4.295270209608801e-001	 1.706780378478274e+000	-3.027898689627900e+001
1	 4.120120263973347e-001	 1.711092901678670e+000	-3.122420099993737e+001
1	 3.945043551085182e-001	 1.715214053660861e+000	-3.214380534955406e+001
1	 3.770068943459136e-001	 1.719144799845473e+000	-3.303451902721972e+001
1	 3.595224943129738e-001	 1.722886158403147e+000	-3.389310776217109e+001
1	 3.420539671162315e-001	 1.726439198913232e+000	-3.471638734729805e+001
1	 5.190671822617483e-001	 1.688690001026278e+000	-2.500349601582244e+001
1	 5.014937789538669e-001	 1.693991932633486e+000	-2.602826259342895e+001
1	 4.839127182499985e-001	 1.699097762474072e+000	-2.704450952618086e+001
1	 4.663270667369946e-001	 1.704008175496442e+000	-2.804874038983914e+001
1	 4.487398598259808e-001	 1.708723915971023e+000	-2.903748552810079e+001
1	 4.311541004514417e-001	 1.713245786270581e+000	-3.000730624733084e+001
1	 4.135727578189902e-001	 1.717574645621123e+000	-3.095479888217781e+001
1	 3.959987662023792e-001	 1.721711408825413e+000	-3.187659872737867e+001
1	 3.784350237902078e-001	 1.725657044961170e+000	-3.276938383149613e+001
1	 3.608843915827040e-001	 1.729412576055947e+000	-3.362987864874143e+001
1	 3.433496923388628e-001	 1.732979075740743e+000	-3.445485754546509e+001
1	 5.210260261310047e-001	 1.695062740758567e+000	-2.471594082680852e+001
1	 5.033863047153504e-001	 1.700384680673872e+000	-2.574229881140476e+001
1	 4.857388970064288e-001	 1.705509778778162e+000	-2.676026289397116e+001
1	 4.680868811637042e-001	 1.710438722604692e+000	-2.776629677459435e+001
1	 4.504333040532665e-001	 1.715172259232606e+000	-2.875689023051474e+001
1	 4.327811799420031e-001	 1.719711194062654e+000	-2.972856341084768e+001
1	 4.151334892406456e-001	 1.724056389563371e+000	-3.067787100087826e+001
1	 3.974931772962400e-001	 1.728208763989794e+000	-3.160140625107740e+001
1	 3.798631532345019e-001	 1.732169290076729e+000	-3.249580486641074e+001
1	 3.622462888524343e-001	 1.735938993708639e+000	-3.335774875195527e+001
1	 3.446454175614937e-001	 1.739518952568173e+000	-3.418396961124887e+001
1	 5.229848700002286e-001	 1.701435480490455e+000	-2.442369238305975e+001
1	 5.052788304768102e-001	 1.706777428713864e+000	-2.545114147348430e+001
1	 4.875650757628420e-001	 1.711921795081876e+000	-2.647033302949838e+001
1	 4.698466955904022e-001	 1.716869269712593e+000	-2.747768943500489e+001
1	 4.521267482805431e-001	 1.721620602493873e+000	-2.846965848489626e+001
1	 4.344082594325561e-001	 1.726176601854446e+000	-2.944271778217214e+001
1	 4.166942206622915e-001	 1.730538133505383e+000	-3.039337900322319e+001
1	 3.989875883900885e-001	 1.734706119153983e+000	-3.131819202625554e+001
1	 3.812912826787781e-001	 1.738681535192139e+000	-3.221374891826773e+001
1	 3.636081861221395e-001	 1.742465411361227e+000	-3.307668777643784e+001
1	 3.459411427840904e-001	 1.746058829395541e+000	-3.390369642020893e+001
1	 5.249437138693874e-001	 1.707808220221878e+000	-2.412670208318314e+001
1	 5.071713562382227e-001	 1.713170176753398e+000	-2.515474342234843e+001
1	 4.893912545192216e-001	 1.718333811385152e+000	-2.617467434086983e+001
1	 4.716065100170758e-001	 1.723299816820086e+000	-2.718287448299711e+001
1	 4.538201925078014e-001	 1.728068945754771e+000	-2.817574826212679e+001
1	 4.360353389230924e-001	 1.732642009645917e+000	-2.914972936271690e+001
1	 4.182549520839181e-001	 1.737019877447124e+000	-3.010128510885562e+001
1	 4.004819994839111e-001	 1.741203474317956e+000	-3.102692069428398e+001
1	 3.827194121230183e-001	 1.745193780307393e+000	-3.192318326912292e+001
1	 3.649700833917943e-001	 1.748991829013714e+000	-3.278666587900676e+001
1	 3.472368680066182e-001	 1.752598706222864e+000	-3.361401125276738e+001
1	 5.269025577384487e-001	 1.714180959952767e+000	-2.382492204851811e+001
1	 5.090638819995640e-001	 1.719562924792408e+000	-2.485305820193790e+001
1	 4.912174332755506e-001	 1.724745827687927e+000	-2.587324191417382e+001
1	 4.733663244437135e-001	 1.729730363927113e+000	-2.688180868314079e+001
1	 4.555136367350318e-001	 1.734517289015250e+000	-2.787511815808739e+001
1	 4.376624184136037e-001	 1.739107417437024e+000	-2.884955874869916e+001
1	 4.198156835055162e-001	 1.743501621388562e+000	-2.980155209923678e+001
1	 4.019764105776953e-001	 1.747700829481692e+000	-3.072755742233784e+001
1	 3.841475415672045e-001	 1.751706025422478e+000	-3.162407568756870e+001
1	 3.663319806613733e-001	 1.755518246666105e+000	-3.248765366026807e+001
1	 3.485325932290428e-001	 1.759138583050161e+000	-3.331488778668434e+001
1	 5.288614016073797e-001	 1.720553699683057e+000	-2.351830510975359e+001
1	 5.109564077608105e-001	 1.725955672830829e+000	-2.454604004446437e+001
1	 4.930436120318122e-001	 1.731157843990140e+000	-2.556599150092301e+001
1	 4.751261388703033e-001	 1.736160911033619e+000	-2.657444944056239e+001
1	 4.572070809622256e-001	 1.740965632275259e+000	-2.756772738208398e+001
1	 4.392894979040813e-001	 1.745572825227723e+000	-2.854216712012444e+001
1	 4.213764149270760e-001	 1.749983365329664e+000	-2.949414330724037e+001
1	 4.034708216714287e-001	 1.754198184645169e+000	-3.042006789366018e+001
1	 3.855756710113190e-001	 1.758218270537386e+000	-3.131639441972392e+001
1	 3.676938779308517e-001	 1.762044664318403e+000	-3.217962215639507e+001
1	 3.498283184513297e-001	 1.765678459877450e+000	-3.300630008969816e+001
1	 3.368710662263960e-001	 1.700279691602014e+000	-3.566948232583579e+001
1	 3.196881660605543e-001	 1.703594050286686e+000	-3.644161414254343e+001
1	 3.025263101366981e-001	 1.706725253859904e+000	-3.716806601220635e+001
1	 2.853881446684482e-001	 1.709674500355790e+000	-3.784442329088417e+001
1	 2.682762748280446e-001	 1.712443032933547e+000	-3.846634690936404e+001
1	 2.511932639628146e-001	 1.715032138482888e+000	-3.902957818892203e+001
1	 2.341416328608904e-001	 1.717443146220116e+000	-3.952994342237633e+001
1	 2.171238590659275e-001	 1.719677426276633e+000	-3.996335821807794e+001
1	 2.001423762404916e-001	 1.721736388281684e+000	-4.032583160507563e+001
1	 1.831995735777232e-001	 1.723621479941080e+000	-4.061346989829172e+001
1	 1.662977952608313e-001	 1.725334185613589e+000	-4.082248032310417e+001
1	 3.381667914486827e-001	 1.706819568430031e+000	-3.544510543872923e+001
1	 3.209177997738292e-001	 1.710146675309803e+000	-3.622050977990796e+001
1	 3.036899332845457e-001	 1.713289922598861e+000	-3.694989680061071e+001
1	 2.864858483727275e-001	 1.716250512939384e+000	-3.762887047713485e+001
1	 2.693081602310288e-001	 1.719029694272197e+000	-3.825311083773702e+001
1	 2.521594420663184e-001	 1.721628758436840e+000	-3.881837876372249e+001
1	 2.350422243625718e-001	 1.724049039762243e+000	-3.932052055525843e+001
1	 2.179589941929544e-001	 1.726291913649813e+000	-3.975547225958071e+001
1	 2.009121945807594e-001	 1.728358795150721e+000	-4.011926375988318e+001
1	 1.839042239088101e-001	 1.730251137539158e+000	-4.040802262375068e+001
1	 1.669374353768738e-001	 1.731970430883254e+000	-4.061797771058198e+001
1	 3.394625166711072e-001	 1.713359445257894e+000	-3.521148312225107e+001
1	 3.221474334872860e-001	 1.716699300332726e+000	-3.598969382349264e+001
1	 3.048535564326230e-001	 1.719854591337579e+000	-3.672156405406651e+001
1	 2.875835520772833e-001	 1.722826525522695e+000	-3.740272146177995e+001
1	 2.703400456343320e-001	 1.725616355610525e+000	-3.802887012406819e+001
1	 2.531256201701740e-001	 1.728225378390438e+000	-3.859579532856020e+001
1	 2.359428158646247e-001	 1.730654933303998e+000	-3.909936811810379e+001
1	 2.187941293203549e-001	 1.732906401022619e+000	-3.953554959796750e+001
1	 2.016820129213818e-001	 1.734981202019402e+000	-3.990039500354459e+001
1	 1.846088742402069e-001	 1.736880795136925e+000	-4.019005752745563e+001
1	 1.675770754931522e-001	 1.738606676152682e+000	-4.040079190554010e+001
1	 3.407582418936350e-001	 1.719899322085622e+000	-3.496858655374846e+001
1	 3.233770672008791e-001	 1.723251925355489e+000	-3.574914083963402e+001
1	 3.060171795808722e-001	 1.726419260076110e+000	-3.648304545166566e+001
1	 2.886812557820460e-001	 1.729402538105790e+000	-3.716595670479067e+001
1	 2.713719310378722e-001	 1.732203016948609e+000	-3.779360762253390e+001
1	 2.540917982742895e-001	 1.734821998343772e+000	-3.836181269121127e+001
1	 2.368434073669492e-001	 1.737260826845480e+000	-3.886647237865923e+001
1	 2.196292644480247e-001	 1.739520888395156e+000	-3.930357741523491e+001
1	 2.024518312622534e-001	 1.741603608887835e+000	-3.966921283545484e+001
1	 1.853135245718126e-001	 1.743510452734483e+000	-3.995956177921146e+001
1	 1.682167156095754e-001	 1.745242921421967e+000	-4.017090905208699e+001
1	 3.420539671162315e-001	 1.726439198913232e+000	-3.471638734729805e+001
1	 3.246067009145632e-001	 1.729804550378126e+000	-3.549882578004847e+001
1	 3.071808027292358e-001	 1.732983928814503e+000	-3.623431901071182e+001
1	 2.897789594869453e-001	 1.735978550688731e+000	-3.691855696221434e+001
1	 2.724038164415676e-001	 1.738789678286527e+000	-3.754730644710972e+001
1	 2.550579763785727e-001	 1.741418618296932e+000	-3.811641588965191e+001
1	 2.377439988694454e-001	 1.743866720386786e+000	-3.862181981274909e+001
1	 2.204643995758591e-001	 1.746135375767526e+000	-3.905954308760152e+001
1	 2.032216496032694e-001	 1.748226015756122e+000	-3.942570494442175e+001
1	 1.860181749035264e-001	 1.750140110331933e+000	-3.971652274323223e+001
1	 1.688563557260526e-001	 1.751879166691197e+000	-3.992831550428005e+001
1	 3.433496923388628e-001	 1.732979075740743e+000	-3.445485754546509e+001
1	 3.258363346282925e-001	 1.736357175400671e+000	-3.523872397455809e+001
1	 3.083444258776562e-001	 1.739548597552805e+000	-3.597536308034062e+001
1	 2.908766631919112e-001	 1.742554563271583e+000	-3.666050328058841e+001
1	 2.734357018453366e-001	 1.745376339624358e+000	-3.728994996666735e+001
1	 2.560241544829318e-001	 1.748015238250009e+000	-3.785959018771010e+001
1	 2.386445903720135e-001	 1.750472613928017e+000	-3.836539710034716e+001
1	 2.212995347037537e-001	 1.752749863139834e+000	-3.880343418184499e+001
1	 2.039914679443245e-001	 1.754848422624370e+000	-3.916985920509368e+001
1	 1.867228252352475e-001	 1.756769767929376e+000	-3.946092797446994e+001
1	 1.694959958424927e-001	 1.758515411960465e+000	-3.967299782216497e+001
1	 3.446454175614937e-001	 1.739518952568173e+000	-3.418396961124887e+001
1	 3.270659683420218e-001	 1.742909800423157e+000	-3.496881112398495e+001
1	 3.095080490260753e-001	 1.746113266291067e+000	-3.570615633528166e+001
1	 2.919743668968735e-001	 1.749130575854412e+000	-3.639177699147975e+001
1	 2.744675872490970e-001	 1.751963000962180e+000	-3.702152180018512e+001
1	 2.569903325872746e-001	 1.754611858203091e+000	-3.759132107082386e+001
1	 2.395451818745536e-001	 1.757078507469270e+000	-3.809719112173835e+001
1	 2.221346698316040e-001	 1.759364350512185e+000	-3.853523845171910e+001
1	 2.047612862853136e-001	 1.761470829492683e+000	-3.890166367446521e+001
1	 1.874274755668749e-001	 1.763399425526912e+000	-3.919276521503269e+001
1	 1.701356359588048e-001	 1.765151657229859e+000	-3.940494276790351e+001
1	 3.459411427840904e-001	 1.746058829395541e+000	-3.390369642020893e+001
1	 3.282956020557055e-001	 1.749462425445618e+000	-3.468906329320193e+001
1	 3.106716721744357e-001	 1.752677935029338e+000	-3.542667776976087e+001
1	 2.930720706017621e-001	 1.755706588437281e+000	-3.611235970614705e+001
1	 2.754994726527676e-001	 1.758549662300072e+000	-3.674200581206207e+001
1	 2.579565106915092e-001	 1.761208478156271e+000	-3.731159424188953e+001
1	 2.404457733769658e-001	 1.763684401010646e+000	-3.781718895376952e+001
1	 2.229698049593054e-001	 1.765978837884682e+000	-3.825494383445236e+001
1	 2.055311046261316e-001	 1.768093236361167e+000	-3.862110658846203e+001
1	 1.881321258983078e-001	 1.770029083124643e+000	-3.891202239067569e+001
1	 1.707752760748979e-001	 1.771787902499474e+000	-3.912413730198767e+001
1	 3.472368680066182e-001	 1.752598706222864e+000	-3.361401125276738e+001
1	 3.295252357692980e-001	 1.756015050468088e+000	-3.439945690434062e+001
1	 3.118352953226799e-001	 1.759242603767669e+000	-3.513690669153855e+001
1	 2.941697743065072e-001	 1.762282601020256e+000	-3.582223331032214e+001
1	 2.765313580562660e-001	 1.765136323638111e+000	-3.645138610754112e+001
1	 2.589226887955433e-001	 1.767805098109637e+000	-3.702039561720405e+001
1	 2.413463648791502e-001	 1.770290294552241e+000	-3.752537786618103e+001
1	 2.238049400867534e-001	 1.772593325257429e+000	-3.796253844732487e+001
1	 2.063009229666734e-001	 1.774715643229926e+000	-3.832817635860362e+001
1	 1.888367762294454e-001	 1.776658740722669e+000	-3.861868760737931e+001
1	 1.714149161906811e-001	 1.778424147769398e+000	-3.883056857954023e+001
1	 3.485325932290428e-001	 1.759138583050161e+000	-3.331488778668434e+001
1	 3.307548694827539e-001	 1.762567675490601e+000	-3.409996873015119e+001
1	 3.129989184707498e-001	 1.765807272506106e+000	-3.483682271608338e+001
1	 2.952674780110385e-001	 1.768858613603399e+000	-3.552137995910797e+001
1	 2.775632434595108e-001	 1.771722984976377e+000	-3.614964702822940e+001
1	 2.598888668992851e-001	 1.774401718063279e+000	-3.671771132249964e+001
1	 2.422469563810069e-001	 1.776896188094157e+000	-3.722174531802058e+001
1	 2.246400752138434e-001	 1.779207812630530e+000	-3.765801058432115e+001
1	 2.070707413068338e-001	 1.781338050099065e+000	-3.802286156873844e+001
1	 1.895414265601866e-001	 1.783288398321091e+000	-3.831274914799416e+001
1	 1.720545563060633e-001	 1.785060393039723e+000	-3.852422394669590e+001
1	 3.498283184513297e-001	 1.765678459877450e+000	-3.300630008969816e+001
1	 3.319845031960278e-001	 1.769120300513190e+000	-3.379057588750906e+001
1	 3.141625416185881e-001	 1.772371941244703e+000	-3.452640576087152e+001
1	 2.963651817152860e-001	 1.775434626186778e+000	-3.520978207199001e+001
1	 2.785951288624198e-001	 1.778309646314946e+000	-3.583677314772396e+001
1	 2.608550450026426e-001	 1.780998338017287e+000	-3.640352768906393e+001
1	 2.431475478824362e-001	 1.783502081636492e+000	-3.690627895413949e+001
1	 2.254752103404711e-001	 1.785822300004091e+000	-3.734134871285793e+001
1	 2.078405596465077e-001	 1.787960456968690e+000	-3.770515097185282e+001
1	 1.902460768904307e-001	 1.789918055920011e+000	-3.799419546896989e+001
1	 1.726941964209537e-001	 1.791696638310540e+000	-3.820509093706500e+001
1	 1.662977952608313e-001	 1.725334185613589e+000	-4.082248032310417e+001
1	 1.494368201778233e-001	 1.726876243502368e+000	-4.095032358845819e+001
1	 1.326214697038732e-001	 1.728248938176940e+000	-4.099511205073957e+001
1	 1.158539850830164e-001	 1.729453856524530e+000	-4.095425592979156e+001
1	 9.913655977982550e-002	 1.730492616438330e+000	-4.082526229669697e+001
1	 8.247133917471385e-002	 1.731366865391524e+000	-4.060573605027950e+001
1	 6.586042030425503e-002	 1.732078279018852e+000	-4.029338073574330e+001
1	 4.930585164565591e-002	 1.732628559707094e+000	-3.988599920864771e+001
1	 3.280963294448005e-002	 1.733019435195818e+000	-3.938149414764803e+001
1	 1.637371508468555e-002	 1.733252657189655e+000	-3.877786841960513e+001
1	 0.000000000000000e+000	 1.733329999983334e+000	-3.807322530087446e+001
1	 1.669374353768738e-001	 1.731970430883254e+000	-4.061797771058198e+001
1	 1.500116070224830e-001	 1.733518420071905e+000	-4.074661008484971e+001
1	 1.331315787655221e-001	 1.734896394615545e+000	-4.079200776714134e+001
1	 1.162996004706389e-001	 1.736105947505125e+000	-4.075153672647441e+001
1	 9.951787403924237e-002	 1.737148702856828e+000	-4.062266048943047e+001
1	 8.278855310363309e-002	 1.738026314480603e+000	-4.040294118388347e+001
1	 6.611374276632490e-002	 1.738740464456275e+000	-4.009004042158130e+001
1	 4.949549938368816e-002	 1.739292861718604e+000	-3.968172002276696e+001
1	 3.293583039301100e-002	 1.739685240652657e+000	-3.917584258625233e+001
1	 1.643669418203716e-002	 1.739919359700741e+000	-3.857037190855774e+001
1	 0.000000000000000e+000	 1.739996999982150e+000	-3.786337325593011e+001
1	 1.675770754931522e-001	 1.738606676152682e+000	-4.040079190554010e+001
1	 1.505863938672745e-001	 1.740160596641313e+000	-4.053009988880314e+001
1	 1.336416878271796e-001	 1.741543851054148e+000	-4.057604332270830e+001
1	 1.167452158581423e-001	 1.742758038485864e+000	-4.053594475702415e+001
1	 9.989918829842161e-002	 1.743804789275623e+000	-4.040722501309035e+001
1	 8.310576703221921e-002	 1.744685763570131e+000	-4.018740429319725e+001
1	 6.636706522800258e-002	 1.745402649894287e+000	-3.987410312555910e+001
1	 4.968514712131898e-002	 1.745957163730827e+000	-3.946504314805242e+001
1	 3.306202784119428e-002	 1.746351046110308e+000	-3.895804773413028e+001
1	 1.649967327917068e-002	 1.746586062212705e+000	-3.835104246453219e+001
1	 0.000000000000000e+000	 1.746663999981866e+000	-3.764205544859660e+001
1	 1.682167156095754e-001	 1.745242921421967e+000	-4.017090905208699e+001
1	 1.511611807121226e-001	 1.746802773210665e+000	-4.030077789537099e+001
1	 1.341517968887908e-001	 1.748191307492805e+000	-4.034720263596717e+001
1	 1.171908312454937e-001	 1.749410129466777e+000	-4.030746322162297e+001
1	 1.002805025573522e-001	 1.750460875694719e+000	-4.017893859324897e+001
1	 8.342298096048080e-002	 1.751345212660085e+000	-3.995910785838154e+001
1	 6.662038768931190e-002	 1.752064835332843e+000	-3.964555129701090e+001
1	 4.987479485858106e-002	 1.752621465743697e+000	-3.923595120292935e+001
1	 3.318822528906285e-002	 1.753016851568687e+000	-3.872809256400465e+001
1	 1.656265237610882e-002	 1.753252764725449e+000	-3.811986358500542e+001
1	 0.000000000000000e+000	 1.753330999982383e+000	-3.740925605679644e+001
1	 1.688563557260526e-001	 1.751879166691197e+000	-3.992831550428005e+001
1	 1.517359675569521e-001	 1.753444949780036e+000	-4.005862922848102e+001
1	 1.346619059503005e-001	 1.754838763931569e+000	-4.010546986911445e+001
1	 1.176364466326601e-001	 1.756062220447895e+000	-4.006607557500938e+001
1	 1.006618168160231e-001	 1.757116962114120e+000	-3.993778421722561e+001
1	 8.374019488842646e-002	 1.758004661750443e+000	-3.971803462506020e+001
1	 6.687371015027681e-002	 1.758727020771897e+000	-3.940436765120289e+001
1	 5.006444259550710e-002	 1.759285767757147e+000	-3.899442706919490e+001
1	 3.331442273664965e-002	 1.759682657027710e+000	-3.848596030659954e+001
1	 1.662563147287431e-002	 1.759919467238878e+000	-3.787681901750302e+001
1	 0.000000000000000e+000	 1.759997999983599e+000	-3.716495949819177e+001
1	 1.694959958424927e-001	 1.758515411960465e+000	-3.967299782216497e+001
1	 1.523107544016880e-001	 1.760087126349501e+000	-3.980363923661719e+001
1	 1.351720150116537e-001	 1.761486220370494e+000	-3.985082942342304e+001
1	 1.180820620196085e-001	 1.762714311429247e+000	-3.981176552167485e+001
1	 1.010431310744234e-001	 1.763773048533831e+000	-3.968374512914866e+001
1	 8.405740881606484e-002	 1.764664110841186e+000	-3.946416759931573e+001
1	 6.712703261092116e-002	 1.765389206211404e+000	-3.915053516431453e+001
1	 5.025409033212975e-002	 1.765950069771108e+000	-3.874045388704507e+001
1	 3.344062018398762e-002	 1.766348462487290e+000	-3.823163444577143e+001
1	 1.668861056948988e-002	 1.766586169752896e+000	-3.762189275488299e+001
1	 0.000000000000000e+000	 1.766664999985416e+000	-3.690915042566015e+001
1	 1.701356359588048e-001	 1.765151657229859e+000	-3.940494276790351e+001
1	 1.528855412462550e-001	 1.766729302919135e+000	-3.953579348860019e+001
1	 1.356821240727954e-001	 1.768133676809635e+000	-3.958326593474362e+001
1	 1.185276774063060e-001	 1.769366402410864e+000	-3.954451701116808e+001
1	 1.014244453325419e-001	 1.770429134953857e+000	-3.941680482512680e+001
1	 8.437462274340456e-002	 1.771323559932291e+000	-3.919749004278852e+001
1	 6.738035507126883e-002	 1.772051391651316e+000	-3.888403706853700e+001
1	 5.044373806848163e-002	 1.772614371785513e+000	-3.847401505021934e+001
1	 3.356681763110974e-002	 1.773014267947344e+000	-3.796509871375130e+001
1	 1.675158966597823e-002	 1.773252872267407e+000	-3.735506903072295e+001
1	 0.000000000000000e+000	 1.773331999987732e+000	-3.664181372287396e+001
1	 1.707752760748979e-001	 1.771787902499474e+000	-3.912413730198767e+001
1	 1.534603280905781e-001	 1.773371479489014e+000	-3.925507776945839e+001
1	 1.361922331336705e-001	 1.774781133249046e+000	-3.930276426911568e+001
1	 1.189732927927196e-001	 1.776018493392776e+000	-3.926431423350780e+001
1	 1.018057595903678e-001	 1.777085221374202e+000	-3.913694704853041e+001
1	 8.469183667045425e-002	 1.777983009023737e+000	-3.891798546789548e+001
1	 6.763367753134368e-002	 1.778713577091589e+000	-3.860485684727468e+001
1	 5.063338580459548e-002	 1.779278673800295e+000	-3.819509420125105e+001
1	 3.369301507804896e-002	 1.779680073407788e+000	-3.768633708649379e+001
1	 1.681456876236208e-002	 1.779919574782316e+000	-3.707633231481300e+001
1	 0.000000000000000e+000	 1.779998999990449e+000	-3.636293449997685e+001
1	 1.714149161906811e-001	 1.778424147769398e+000	-3.883056857954023e+001
1	 1.540351149345823e-001	 1.780013656059212e+000	-3.896147807639703e+001
1	 1.367023421942240e-001	 1.781428589688781e+000	-3.900930951846807e+001
1	 1.194189081788163e-001	 1.782670584375014e+000	-3.897114161469388e+001
1	 1.021870738478898e-001	 1.783741307794869e+000	-3.884415578537867e+001
1	 8.500905059722247e-002	 1.784642458115502e+000	-3.862563763314832e+001
1	 6.788699999116962e-002	 1.785375762532177e+000	-3.831297823046194e+001
1	 5.082303354050392e-002	 1.785942975815386e+000	-3.790367522682725e+001
1	 3.381921252483822e-002	 1.786345878868537e+000	-3.739533377912957e+001
1	 1.687754785866416e-002	 1.786586277297526e+000	-3.678566730874626e+001
1	 0.000000000000000e+000	 1.786665999993466e+000	-3.607249808935953e+001
1	 1.720545563060633e-001	 1.785060393039723e+000	-3.852422394669590e+001
1	 1.546099017781923e-001	 1.786655832629805e+000	-3.865498061485084e+001
1	 1.372124512544007e-001	 1.788076046128894e+000	-3.870288699642499e+001
1	 1.198645235645631e-001	 1.789322675357607e+000	-3.866498381232175e+001
1	 1.025683881050970e-001	 1.790397394215865e+000	-3.853841525982885e+001
1	 8.532626452371796e-002	 1.791301907207567e+000	-3.832043053857836e+001
1	 6.814032245077055e-002	 1.792037947973034e+000	-3.800838518997665e+001
1	 5.101268127623966e-002	 1.792607277830720e+000	-3.759974225324852e+001
1	 3.394540997151047e-002	 1.793011684329505e+000	-3.709207324151758e+001
1	 1.694052695490719e-002	 1.793252979812941e+000	-3.648305894161260e+001
1	 0.000000000000000e+000	 1.793332999996683e+000	-3.577049004152757e+001
1	 1.726941964209537e-001	 1.791696638310540e+000	-3.820509093706500e+001
1	 1.551846886213330e-001	 1.793298009200866e+000	-3.833557179463105e+001
1	 1.377225603141458e-001	 1.794723502569441e+000	-3.838348223419670e+001
1	 1.203101389499272e-001	 1.795974766340585e+000	-3.834582571129386e+001
1	 1.029497023619784e-001	 1.797053480637194e+000	-3.821970992976584e+001
1	 8.564347844994923e-002	 1.797961356299908e+000	-3.800234842126679e+001
1	 6.839364491017026e-002	 1.798700133414114e+000	-3.769106193516372e+001
1	 5.120232901183534e-002	 1.799271579846228e+000	-3.728327964199261e+001
1	 3.407160741809868e-002	 1.799677489790610e+000	-3.677654015390151e+001
1	 1.700350605111390e-002	 1.799919682328466e+000	-3.616849236578456e+001
1	 0.000000000000000e+000	 1.800000000000000e+000	-3.545689612106253e+001
1	 1.800000000000000e+000	 0.000000000000000e+000	 1.233238803415683e+001
1	 1.799919682328466e+000	 1.700350605111395e-002	 1.191057039295008e+001
1	 1.799677489790610e+000	 3.407160741809879e-002	 1.148380317999482e+001
1	 1.799271579846228e+000	 5.120232901183521e-002	 1.105363239082540e+001
1	 1.798700133414114e+000	 6.839364491017019e-002	 1.062160548803345e+001
1	 1.797961356299908e+000	 8.564347844994921e-002	 1.018926953437991e+001
1	 1.797053480637194e+000	 1.029497023619785e-001	 9.758169275274199e+000
1	 1.795974766340585e+000	 1.203101389499273e-001	 9.329845172384271e+000
1	 1.794723502569440e+000	 1.377225603141456e-001	 8.905831390309761e+000
1	 1.793298009200867e+000	 1.551846886213329e-001	 8.487653738419272e+000
1	 1.791696638310540e+000	 1.726941964209536e-001	 8.076827570123408e+000
1	 1.806667000003317e+000	 0.000000000000000e+000	 1.205515314431135e+001
1	 1.806586384844004e+000	 1.706648514730794e-002	 1.164720706613376e+001
1	 1.806343295251762e+000	 3.419780486463929e-002	 1.123396804110031e+001
1	 1.805935881861839e+000	 5.139197674733068e-002	 1.081700464488484e+001
1	 1.805362318855363e+000	 6.864696736940450e-002	 1.039788665207803e+001
1	 1.804620805392491e+000	 8.596069237594195e-002	 9.978183124146552e+000
1	 1.803709567058843e+000	 1.033310166185455e-001	 9.559460445938113e+000
1	 1.802626857323959e+000	 1.207557543349033e-001	 9.143280312554817e+000
1	 1.801370959010450e+000	 1.382326693734363e-001	 8.731197668590678e+000
1	 1.799940185772448e+000	 1.557594754639656e-001	 8.324758601902428e+000
1	 1.798332883581914e+000	 1.733338365353000e-001	 7.925498194255428e+000
1	 1.813334000006534e+000	 0.000000000000000e+000	 1.177727794308940e+001
1	 1.813253087359455e+000	 1.712946424351649e-002	 1.138325481649204e+001
1	 1.813009100712867e+000	 3.432400231118209e-002	 1.098360109364019e+001
1	 1.812600183877458e+000	 5.158162448279437e-002	 1.057990764178868e+001
1	 1.812024504296691e+000	 6.890028982855627e-002	 1.017376619557120e+001
1	 1.811280254485235e+000	 8.627790630179003e-002	 9.766767398358965e+000
1	 1.810365653480736e+000	 1.037123308748993e-001	 9.360498791397816e+000
1	 1.809278948307660e+000	 1.212013697195969e-001	 8.956542752610606e+000
1	 1.808018415451863e+000	 1.387427784323799e-001	 8.556474387128761e+000
1	 1.806582362344496e+000	 1.563342623061965e-001	 8.161859371793184e+000
1	 1.804969128853802e+000	 1.739734766492057e-001	 7.774251756043343e+000
1	 1.820001000009551e+000	 0.000000000000000e+000	 1.149880473813691e+001
1	 1.819919789874721e+000	 1.719244333976776e-002	 1.111875274695770e+001
1	 1.819674906173823e+000	 3.445019975778057e-002	 1.073273768943992e+001
1	 1.819264485892985e+000	 5.177127221830193e-002	 1.034237243675238e+001
1	 1.818686689738000e+000	 6.915361228772037e-002	 9.949270332910588e+000
1	 1.817939703578042e+000	 8.659512022760428e-002	 9.555043188095214e+000
1	 1.817021739902779e+000	 1.040936451311638e-001	 9.161299219035390e+000
1	 1.815931039291598e+000	 1.216469851041414e-001	 8.769640938413609e+000
1	 1.814665871893595e+000	 1.392528874911159e-001	 8.381662995426892e+000
1	 1.813224538916936e+000	 1.569090491481683e-001	 7.998949969822344e+000
1	 1.811605374126138e+000	 1.746131167628129e-001	 7.623074121904806e+000
1	 1.826668000012267e+000	 0.000000000000000e+000	 1.121977521944091e+001
1	 1.826586492389699e+000	 1.725542243608990e-002	 1.085373938959070e+001
1	 1.826340711634530e+000	 3.457639720448812e-002	 1.048141266421546e+001
1	 1.825928787908323e+000	 5.196091995392898e-002	 1.010442963160907e+001
1	 1.825348875179192e+000	 6.940693474699157e-002	 9.724424895783633e+000
1	 1.824599152670816e+000	 8.691233415349547e-002	 9.343031020315383e+000
1	 1.823677826324880e+000	 1.044749593874626e-001	 8.961876418596622e+000
1	 1.822583130275685e+000	 1.220926004886702e-001	 8.582583192522597e+000
1	 1.821313328335564e+000	 1.397629965497843e-001	 8.206764921826345e+000
1	 1.819866715489690e+000	 1.574838359900236e-001	 7.836024406458591e+000
1	 1.818241619398854e+000	 1.752527568762638e-001	 7.471951364597075e+000
1	 1.833335000014584e+000	 0.000000000000000e+000	 1.094023047056017e+001
1	 1.833253194904292e+000	 1.731840153251111e-002	 1.058825271595820e+001
1	 1.833006517094890e+000	 3.470259465135817e-002	 1.022966034695740e+001
1	 1.832593089923372e+000	 5.215056768975115e-002	 9.866109383052971e+000
1	 1.832011060620171e+000	 6.966025720646468e-002	 9.499255340125918e+000
1	 1.831258601763462e+000	 8.722954807957448e-002	 9.130751123391272e+000
1	 1.830333912746944e+000	 1.048562736439194e-001	 8.762244866147853e+000
1	 1.829235221259832e+000	 1.225382158733166e-001	 8.395377716435171e+000
1	 1.827960784777684e+000	 1.402731056085245e-001	 8.031781573891443e+000
1	 1.826508892062683e+000	 1.580586228319053e-001	 7.673076779295440e+000
1	 1.824877864671880e+000	 1.758923969897006e-001	 7.320869759465216e+000
1	 1.840002000016400e+000	 0.000000000000000e+000	 1.066021097961186e+001
1	 1.839919897418398e+000	 1.738138062905952e-002	 1.032233014728919e+001
1	 1.839672322554802e+000	 3.482879209844406e-002	 9.977514569111207e+000
1	 1.839257391938031e+000	 5.234021542584406e-002	 9.627441410704309e+000
1	 1.838673246060836e+000	 6.991357966623446e-002	 9.273786752929215e+000
1	 1.837918050855883e+000	 8.754676200595220e-002	 8.918223432515907e+000
1	 1.836989999168880e+000	 1.052375879006579e-001	 8.562418827947298e+000
1	 1.835887312243949e+000	 1.229838312582140e-001	 8.208032592780793e+000
1	 1.834608241219874e+000	 1.407832146674763e-001	 7.856714338786007e+000
1	 1.833151068635837e+000	 1.586334096739556e-001	 7.510101271472345e+000
1	 1.831514109945151e+000	 1.765320371032654e-001	 7.169815780771813e+000
1	 1.846669000017617e+000	 0.000000000000000e+000	 1.037975665001989e+001
1	 1.846586599931918e+000	 1.744435972576330e-002	 1.005600856440839e+001
1	 1.846338128014167e+000	 3.495498954579921e-002	 9.725008673558810e+000
1	 1.845921693952203e+000	 5.252986316228332e-002	 9.388455004998576e+000
1	 1.845335431501090e+000	 7.016690212639573e-002	 9.048043858900844e+000
1	 1.844577499947983e+000	 8.786397593273947e-002	 8.705467594995703e+000
1	 1.843646085590595e+000	 1.056189021578019e-001	 8.362412364232442e+000
1	 1.842539403227947e+000	 1.234294466434957e-001	 8.020555787466584e+000
1	 1.841255697662049e+000	 1.412933237267793e-001	 7.681564583641593e+000
1	 1.839793245209076e+000	 1.592081965163174e-001	 7.347092150130949e+000
1	 1.838150355218598e+000	 1.771716772171005e-001	 7.018776098106422e+000
1	 1.853336000018133e+000	 0.000000000000000e+000	 1.009890681103165e+001
1	 1.853253302444752e+000	 1.750733882265064e-002	 9.789324317456536e+000
1	 1.853003933472884e+000	 3.508118699347702e-002	 9.472175523405857e+000
1	 1.852585995965789e+000	 5.271951089914458e-002	 9.149179034906531e+000
1	 1.851997616940836e+000	 7.042022458704333e-002	 8.822051026980205e+000
1	 1.851236949039666e+000	 8.818118986004707e-002	 8.492502975428684e+000
1	 1.850302172011993e+000	 1.060002164154751e-001	 8.162239332925415e+000
1	 1.849191494211737e+000	 1.238750620292951e-001	 7.832955151776950e+000
1	 1.847903154104124e+000	 1.418034327865733e-001	 7.506333655917682e+000
1	 1.846435421782323e+000	 1.597829833591333e-001	 7.184043764903742e+000
1	 1.844786600492154e+000	 1.778113173313480e-001	 6.867737572872016e+000
1	 1.860003000017850e+000	 0.000000000000000e+000	 9.817700228008222e+000
1	 1.859920004956799e+000	 1.757031791974967e-002	 9.522313235401235e+000
1	 1.859669738930854e+000	 3.520738444153087e-002	 9.219047510580353e+000
1	 1.859250297978689e+000	 5.290915863650345e-002	 8.909641955487427e+000
1	 1.858659802379975e+000	 7.067354704827196e-002	 8.595832276714845e+000
1	 1.857896398130836e+000	 8.849840378798594e-002	 8.279348660771053e+000
1	 1.856958258432983e+000	 1.063815306738011e-001	 7.961913393259187e+000
1	 1.855843585195231e+000	 1.243206774157455e-001	 7.645238424427537e+000
1	 1.854550610546017e+000	 1.423135418469979e-001	 7.331022883754565e+000
1	 1.853077598355501e+000	 1.603577702025460e-001	 7.020950546435927e+000
1	 1.851422845765751e+000	 1.784509574461501e-001	 6.716687254847480e+000
1	 1.866670000016666e+000	 0.000000000000000e+000	 9.536175112494369e+000
1	 1.866586707467961e+000	 1.763329701708859e-002	 9.255010635343915e+000
1	 1.866335544387978e+000	 3.533358189001417e-002	 8.965656564246970e+000
1	 1.865914599990803e+000	 5.309880637443554e-002	 8.669871815280450e+000
1	 1.865321987818409e+000	 7.092686951017646e-002	 8.369411284499522e+000
1	 1.864555847221398e+000	 8.881561771666689e-002	 8.066023465295233e+000
1	 1.863614344853473e+000	 1.067628449329038e-001	 7.761448009325304e+000
1	 1.862495676178339e+000	 1.247662928029803e-001	 7.457413233575607e+000
1	 1.861198066987645e+000	 1.428236509081927e-001	 7.155633576317889e+000
1	 1.859719774928535e+000	 1.609325570466981e-001	 6.857807004938567e+000
1	 1.858059091039319e+000	 1.790905975616489e-001	 6.565612378823559e+000
1	 1.791696638310540e+000	 1.726941964209536e-001	 8.076827570123408e+000
1	 1.789918055920010e+000	 1.902460768904308e-001	 7.668154572002553e+000
1	 1.787960456968690e+000	 2.078405596465076e-001	 7.256145636749599e+000
1	 1.785822300004091e+000	 2.254752103404711e-001	 6.842028577570081e+000
1	 1.783502081636491e+000	 2.431475478824360e-001	 6.426995634394903e+000
1	 1.780998338017287e+000	 2.608550450026427e-001	 6.012201020541338e+000
1	 1.778309646314947e+000	 2.785951288624201e-001	 5.598758470557619e+000
1	 1.775434626186778e+000	 2.963651817152860e-001	 5.187738793976187e+000
1	 1.772371941244703e+000	 3.141625416185883e-001	 4.780167439836432e+000
1	 1.769120300513189e+000	 3.319845031960277e-001	 4.377022076961517e+000
1	 1.765678459877450e+000	 3.498283184513297e-001	 3.979230195091337e+000
1	 1.798332883581914e+000	 1.733338365353000e-001	 7.925498194255428e+000
1	 1.796547713519502e+000	 1.909507272201168e-001	 7.528143484492353e+000
1	 1.794582863838879e+000	 2.086103779856293e-001	 7.127114709820149e+000
1	 1.792436787378191e+000	 2.263103454665698e-001	 6.723629355312348e+000
1	 1.790107975179323e+000	 2.440481393833731e-001	 6.318868752877910e+000
1	 1.787594957971737e+000	 2.618212231055554e-001	 5.913975628098647e+000
1	 1.784896307653890e+000	 2.796270142649396e-001	 5.510051649328490e+000
1	 1.782010638770450e+000	 2.974628854192032e-001	 5.108154983812672e+000
1	 1.778936609983506e+000	 3.153261647661564e-001	 4.709297865718058e+000
1	 1.775672925535893e+000	 3.332141369090891e-001	 4.314444181090121e+000
1	 1.772218336704760e+000	 3.511240436734559e-001	 3.924507074864813e+000
1	 1.804969128853802e+000	 1.739734766492057e-001	 7.774251756043343e+000
1	 1.803177371119533e+000	 1.916553775493431e-001	 7.388305576227429e+000
1	 1.801205270709615e+000	 2.093801963242911e-001	 6.998351805335173e+000
1	 1.799051274752824e+000	 2.271454805922235e-001	 6.605596408543410e+000
1	 1.796713868722657e+000	 2.449487308838937e-001	 6.211208678360819e+000
1	 1.794191577926644e+000	 2.627874012080904e-001	 5.816318784961942e+000
1	 1.791482968993232e+000	 2.806588996671269e-001	 5.422015329843509e+000
1	 1.788586651354454e+000	 2.985605891228380e-001	 5.029342907587576e+000
1	 1.785501278722566e+000	 3.164897879134934e-001	 4.639299680647429e+000
1	 1.782225550558774e+000	 3.344437706219683e-001	 4.252834972192432e+000
1	 1.778758213532162e+000	 3.524197688954445e-001	 3.870846882162818e+000
1	 1.811605374126138e+000	 1.746131167628129e-001	 7.623074121904806e+000
1	 1.809807028720049e+000	 1.923600278782482e-001	 7.248618766444182e+000
1	 1.807827677580853e+000	 2.101500146626242e-001	 6.869827642773347e+000
1	 1.805665762127958e+000	 2.279806157175550e-001	 6.487894017460401e+000
1	 1.803319762266476e+000	 2.458493223841091e-001	 6.103974024833479e+000
1	 1.800788197882007e+000	 2.637535793103460e-001	 5.719184224109785e+000
1	 1.798069630332990e+000	 2.816907850690671e-001	 5.334599160891405e+000
1	 1.795162663938824e+000	 2.996582928262621e-001	 4.951248937830418e+000
1	 1.792065947461933e+000	 3.176534110606569e-001	 4.570116799396975e+000
1	 1.788778175581896e+000	 3.356734043347111e-001	 4.192136735801661e+000
1	 1.785298090359737e+000	 3.537154941173297e-001	 3.818191111235464e+000
1	 1.818241619398854e+000	 1.752527568762638e-001	 7.471951364597075e+000
1	 1.816436686320991e+000	 1.930646782069702e-001	 7.109061296741494e+000
1	 1.814450084452545e+000	 2.109198330007604e-001	 6.741513369086843e+000
1	 1.812280249503562e+000	 2.288157508426863e-001	 6.370486983742927e+000
1	 1.809925655810766e+000	 2.467499138841305e-001	 5.997124010490552e+000
1	 1.807384817837828e+000	 2.647197574124209e-001	 5.622526353984721e+000
1	 1.804656291673181e+000	 2.827226704708454e-001	 5.247753526351091e+000
1	 1.801738676523593e+000	 3.007559965295466e-001	 4.873820229991765e+000
1	 1.798630616201657e+000	 3.188170342077054e-001	 4.501693955541919e+000
1	 1.795330800605327e+000	 3.369030380473631e-001	 4.132292600039319e+000
1	 1.791837967187568e+000	 3.550112193391459e-001	 3.766482110473398e+000
1	 1.824877864671880e+000	 1.758923969897006e-001	 7.320869759465216e+000
1	 1.823066343922302e+000	 1.937693285356476e-001	 6.969611725219603e+000
1	 1.821072491324651e+000	 2.116896513388310e-001	 6.613380550929086e+000
1	 1.818894736879606e+000	 2.296508859677397e-001	 6.253340621070933e+000
1	 1.816531549355510e+000	 2.476505053840687e-001	 5.890618446745440e+000
1	 1.813981437794106e+000	 2.656859355144135e-001	 5.526300246211358e+000
1	 1.811242953013821e+000	 2.837545558725471e-001	 5.161429531825816e+000
1	 1.808314689108793e+000	 3.018537002327632e-001	 4.797004708207644e+000
1	 1.805195284941788e+000	 3.199806573546970e-001	 4.433976686571881e+000
1	 1.801883425629133e+000	 3.381326717599695e-001	 4.073246520294759e+000
1	 1.798377844015737e+000	 3.563069445609279e-001	 3.715663066877116e+000
1	 1.831514109945151e+000	 1.765320371032654e-001	 7.169815780771813e+000
1	 1.829696001523926e+000	 1.944739788644186e-001	 6.830248920745585e+000
1	 1.827694898197124e+000	 2.124594696769677e-001	 6.485401167050584e+000
1	 1.825509224256060e+000	 2.304860210928375e-001	 6.136420745849016e+000
1	 1.823137442900693e+000	 2.485510968840351e-001	 5.784417727483032e+000
1	 1.820578057750842e+000	 2.666521136164224e-001	 5.430461623582045e+000
1	 1.817829614354928e+000	 2.847864412742570e-001	 5.075578991567487e+000
1	 1.814890701694459e+000	 3.029514039359832e-001	 4.720751051373669e+000
1	 1.811759953682375e+000	 3.211442805016896e-001	 4.366911319326791e+000
1	 1.808436050653380e+000	 3.393623054725760e-001	 4.014943264237638e+000
1	 1.804917720844325e+000	 3.576026697827099e-001	 3.665677990864205e+000
1	 1.838150355218598e+000	 1.771716772171005e-001	 7.018776098106422e+000
1	 1.836325659125807e+000	 1.951786291934217e-001	 6.690952057343987e+000
1	 1.834317305069919e+000	 2.132292880153019e-001	 6.357547600860348e+000
1	 1.832123711632891e+000	 2.313211562181020e-001	 6.019693668131329e+000
1	 1.829743336446300e+000	 2.494516883841405e-001	 5.678482818545230e+000
1	 1.827174677708035e+000	 2.676182917185461e-001	 5.334966848301860e+000
1	 1.824416275696517e+000	 2.858183266760604e-001	 4.990154415684972e+000
1	 1.821466714280624e+000	 3.040491076392786e-001	 4.645008679520067e+000
1	 1.818324622423470e+000	 3.223079036487412e-001	 4.300444955747843e+000
1	 1.814988675678134e+000	 3.405919391852282e-001	 3.957328397155145e+000
1	 1.811457597673414e+000	 3.588983950045264e-001	 3.616471701405331e+000
1	 1.844786600492154e+000	 1.778113173313480e-001	 6.867737572872016e+000
1	 1.842955316727885e+000	 1.958832795227951e-001	 6.551700608707940e+000
1	 1.840939711942994e+000	 2.139991063539653e-001	 6.229792633147553e+000
1	 1.838738199010071e+000	 2.321562913436554e-001	 5.903126182742803e+000
1	 1.836349229992314e+000	 2.503522798844963e-001	 5.572775247443564e+000
1	 1.833771297665687e+000	 2.685844698208832e-001	 5.239772910488077e+000
1	 1.831002937038606e+000	 2.868502120780426e-001	 4.905108997627779e+000
1	 1.828042726867321e+000	 3.051468113427203e-001	 4.569727740481895e+000
1	 1.824889291165121e+000	 3.234715267959102e-001	 4.234525458936146e+000
1	 1.821541300703462e+000	 3.418215728979717e-001	 3.900348267605717e+000
1	 1.817997474503085e+000	 3.601941202264115e-001	 3.567989811481283e+000
1	 1.851422845765751e+000	 1.784509574461501e-001	 6.716687254847480e+000
1	 1.849584974330105e+000	 1.965879298526773e-001	 6.412474342828471e+000
1	 1.847562118816300e+000	 2.147689246930893e-001	 6.102109434959314e+000
1	 1.845352686387567e+000	 2.329914264696200e-001	 5.786685560590965e+000
1	 1.842955123538719e+000	 2.512528713852133e-001	 5.467257093292828e+000
1	 1.840367917623796e+000	 2.695506479235322e-001	 5.144837416916872e+000
1	 1.837589598381211e+000	 2.878820974802886e-001	 4.820396601939366e+000
1	 1.834618739454583e+000	 3.062445150463798e-001	 4.494859096854801e+000
1	 1.831453959907378e+000	 3.246351499432544e-001	 4.169101439511405e+000
1	 1.828093925729430e+000	 3.430512066108520e-001	 3.843949993381179e+000
1	 1.824537351333421e+000	 3.614898454484002e-001	 3.520178713852812e+000
1	 1.858059091039319e+000	 1.790905975616489e-001	 6.565612378823558e+000
1	 1.856214631932410e+000	 1.972925801832065e-001	 6.273253316739009e+000
1	 1.854184525689797e+000	 2.155387430328054e-001	 5.974471560631902e+000
1	 1.851967173765350e+000	 2.338265615961181e-001	 5.670339540163996e+000
1	 1.849561017085502e+000	 2.521534628864028e-001	 5.361890976960568e+000
1	 1.846964537582364e+000	 2.705168260265918e-001	 5.050118580010712e+000
1	 1.844176259724348e+000	 2.889139828828836e-001	 4.735971752272694e+000
1	 1.841194752042445e+000	 3.073422187503292e-001	 4.420354313231091e+000
1	 1.838018628650292e+000	 3.257987730908322e-001	 4.104122242262511e+000
1	 1.834646550756102e+000	 3.442808403239147e-001	 3.788081447769854e+000
1	 1.831077228164503e+000	 3.627855706705264e-001	 3.472985567135198e+000
1	 1.765678459877450e+000	 3.498283184513297e-001	 3.979230195091336e+000
1	 1.762044664318403e+000	 3.676938779308519e-001	 3.589061063985194e+000
1	 1.758218270537386e+000	 3.855756710113191e-001	 3.208865035332063e+000
1	 1.754198184645169e+000	 4.034708216714287e-001	 2.839444984292268e+000
1	 1.749983365329663e+000	 4.213764149270760e-001	 2.481563019179815e+000
1	 1.745572825227723e+000	 4.392894979040814e-001	 2.135938695728857e+000
1	 1.740965632275259e+000	 4.572070809622258e-001	 1.803247261905115e+000
1	 1.736160911033618e+000	 4.751261388703035e-001	 1.484117937391558e+000
1	 1.731157843990141e+000	 4.930436120318121e-001	 1.179132231907683e+000
1	 1.725955672830829e+000	 5.109564077608105e-001	 8.888223065396015e-001
1	 1.720553699683057e+000	 5.288614016073798e-001	 6.136693822659228e-001
1	 1.772218336704760e+000	 3.511240436734559e-001	 3.924507074864813e+000
1	 1.768571081970627e+000	 3.690557752002125e-001	 3.541832252167556e+000
1	 1.764730515652127e+000	 3.870038004553495e-001	 3.168860988017130e+000
1	 1.760695539808388e+000	 4.049652327651022e-001	 2.806406173587830e+000
1	 1.756465109270422e+000	 4.229371463485910e-001	 2.455239390675390e+000
1	 1.752038233018001e+000	 4.409165773945200e-001	 2.116089095058122e+000
1	 1.747413975534779e+000	 4.589005251893766e-001	 1.789638830732838e+000
1	 1.742591458139577e+000	 4.768859532968367e-001	 1.476525479226649e+000
1	 1.737569860291762e+000	 4.948697907879950e-001	 1.177337548216896e+000
1	 1.732348420868631e+000	 5.128489335219466e-001	 8.926135037105011e-001
1	 1.726926439412715e+000	 5.308202454761590e-001	 6.228401500414824e-001
1	 1.778758213532162e+000	 3.524197688954445e-001	 3.870846882162818e+000
1	 1.775097499622857e+000	 3.704176724694724e-001	 3.495755621382076e+000
1	 1.771242760766789e+000	 3.884319298993078e-001	 3.130091645973373e+000
1	 1.767192894971447e+000	 4.064596438587248e-001	 2.774677530323649e+000
1	 1.762946853210942e+000	 4.244978777700678e-001	 2.430293973885845e+000
1	 1.758503640807968e+000	 4.425436568849251e-001	 2.097677953560321e+000
1	 1.753862318793922e+000	 4.605939694164907e-001	 1.777520907318542e+000
1	 1.749022005245102e+000	 4.786457677233224e-001	 1.470466953344483e+000
1	 1.743981876592904e+000	 4.966959695441106e-001	 1.177111148999026e+000
1	 1.738741168905919e+000	 5.147414592829877e-001	 8.979977939337365e-001
1	 1.733299179141840e+000	 5.327790893448082e-001	 6.336187816886655e-001
1	 1.785298090359737e+000	 3.537154941173297e-001	 3.818191111235464e+000
1	 1.781623917275190e+000	 3.717795697386566e-001	 3.450772219933276e+000
1	 1.777755005881483e+000	 3.898600593432123e-001	 3.092497460027086e+000
1	 1.773690250134468e+000	 4.079540549523091e-001	 2.744198758881746e+000
1	 1.769428597151355e+000	 4.260586091915157e-001	 2.406665580504917e+000
1	 1.764969048597762e+000	 4.441707363753049e-001	 2.080643046873258e+000
1	 1.760310662052832e+000	 4.622874136435772e-001	 1.766830090908165e+000
1	 1.755452552350340e+000	 4.804055821497718e-001	 1.465877645449163e+000
1	 1.750393892893712e+000	 4.985221483001754e-001	 1.178386872606241e+000
1	 1.745133916942836e+000	 5.166339850439580e-001	 9.049074378932499e-001
1	 1.739671918870567e+000	 5.347379332133595e-001	 6.459358335529196e-001
1	 1.791837967187568e+000	 3.550112193391459e-001	 3.766482110473398e+000
1	 1.788150334927723e+000	 3.731414670077906e-001	 3.406823956776719e+000
1	 1.784267250996319e+000	 3.912881887870808e-001	 3.056019750378193e+000
1	 1.780187605297569e+000	 4.094484660458675e-001	 2.714910443915555e+000
1	 1.775910341091791e+000	 4.276193406129448e-001	 2.384293915530268e+000
1	 1.771434456387523e+000	 4.457978158656683e-001	 2.064923059064483e+000
1	 1.766759005311653e+000	 4.639808578706453e-001	 1.757503906351842e+000
1	 1.761883099455437e+000	 4.821653965761971e-001	 1.462693786025582e+000
1	 1.756805909194333e+000	 5.003483270562067e-001	 1.181099523301948e+000
1	 1.751526664979524e+000	 5.185265108048806e-001	 9.132756852171037e-001
1	 1.746044658599031e+000	 5.366967770818458e-001	 6.597228758058003e-001
1	 1.798377844015737e+000	 3.563069445609279e-001	 3.715663066877116e+000
1	 1.794676752580552e+000	 3.745033642768991e-001	 3.363853585870023e+000
1	 1.790779496111406e+000	 3.927163182309313e-001	 3.020600690792994e+000
1	 1.786684960460875e+000	 4.109428771394136e-001	 2.686754034344083e+000
1	 1.782392085032382e+000	 4.291800720343642e-001	 2.363119561020831e+000
1	 1.777899864177388e+000	 4.474248953560228e-001	 2.050457566113425e+000
1	 1.773207348570529e+000	 4.656743020977042e-001	 1.749480787273726e+000
1	 1.768313646560540e+000	 4.839252110026103e-001	 1.460852533160891e+000
1	 1.763217925494911e+000	 5.021745058122212e-001	 1.185184853697845e+000
1	 1.757919413016124e+000	 5.204190365657796e-001	 9.230367564955621e-001
1	 1.752417398327365e+000	 5.386556209502998e-001	 6.749124740109052e-001
1	 1.804917720844325e+000	 3.576026697827099e-001	 3.665677990864205e+000
1	 1.801203170233773e+000	 3.758652615460078e-001	 3.321804690864114e+000
1	 1.797291741226853e+000	 3.941444476747818e-001	 2.986183293139956e+000
1	 1.793182315624507e+000	 4.124372882329594e-001	 2.659671827694182e+000
1	 1.788873828973259e+000	 4.307408034557834e-001	 2.343083960207288e+000
1	 1.784365271967497e+000	 4.490519748463777e-001	 2.037187019752813e+000
1	 1.779655691829604e+000	 4.673677463247631e-001	 1.742700059608097e+000
1	 1.774744193665795e+000	 4.856850254290235e-001	 1.460291955739184e+000
1	 1.769629941795594e+000	 5.040006845682356e-001	 1.190579547572835e+000
1	 1.764312161052779e+000	 5.223115623266788e-001	 9.341258256905749e-001
1	 1.758790138055704e+000	 5.406144648187536e-001	 6.914381710905634e-001
1	 1.811457597673414e+000	 3.588983950045264e-001	 3.616471701405331e+000
1	 1.807729587887482e+000	 3.772271588151418e-001	 3.280621670126108e+000
1	 1.803803986342771e+000	 3.955725771186503e-001	 2.952711392261024e+000
1	 1.799679670788585e+000	 4.139316993265181e-001	 2.633606954782034e+000
1	 1.795355572914553e+000	 4.323015348772123e-001	 2.324129401946592e+000
1	 1.790830679757990e+000	 4.506790543367409e-001	 2.025052731660095e+000
1	 1.786104035089022e+000	 4.690611905518310e-001	 1.737101925491633e+000
1	 1.781174740771349e+000	 4.874448398554490e-001	 1.460951017000418e+000
1	 1.776041958096526e+000	 5.058268633242670e-001	 1.197221203064195e+000
1	 1.770704909089630e+000	 5.242040880876013e-001	 9.464790029258942e-001
1	 1.765162877784180e+000	 5.425733086872400e-001	 7.092344696829981e-001
1	 1.817997474503085e+000	 3.601941202264115e-001	 3.567989811481284e+000
1	 1.814256005541776e+000	 3.785890560843259e-001	 3.240249722085352e+000
1	 1.810316231459269e+000	 3.970007065625548e-001	 2.920129631169124e+000
1	 1.806177025953231e+000	 4.154261104201023e-001	 2.608503364725254e+000
1	 1.801837316856396e+000	 4.338622662986603e-001	 2.306199005512270e+000
1	 1.797296087549004e+000	 4.523061338271208e-001	 2.013996857990013e+000
1	 1.792552378348927e+000	 4.707546347789177e-001	 1.732627447503935e+000
1	 1.787605287877348e+000	 4.892046542818984e-001	 1.462769558453991e+000
1	 1.782453974397853e+000	 5.076530420803319e-001	 1.205048316221399e+000
1	 1.777097657126819e+000	 5.260966138485717e-001	 9.600333176488082e-001
1	 1.771535617512930e+000	 5.445321525557915e-001	 7.282368148805114e-001
1	 1.824537351333421e+000	 3.614898454484002e-001	 3.520178713852812e+000
1	 1.820782423196752e+000	 3.799509533535859e-001	 3.200634830894894e+000
1	 1.816828476576456e+000	 3.984288360065132e-001	 2.888383446564080e+000
1	 1.812674381118566e+000	 4.169205215137248e-001	 2.584305810277199e+000
1	 1.808319060798919e+000	 4.354229977201371e-001	 2.289236705711546e+000
1	 1.803761495340678e+000	 4.539332133175258e-001	 2.003962384240015e+000
1	 1.799000721609464e+000	 4.724480790060318e-001	 1.729218533246347e+000
1	 1.794035834983939e+000	 4.909644687083838e-001	 1.465688284138476e+000
1	 1.788865990699722e+000	 5.094792208364475e-001	 1.214000264913802e+000
1	 1.783490405164487e+000	 5.279891396096127e-001	 9.747267021540894e-001
1	 1.777908357242085e+000	 5.464909964244405e-001	 7.483815773387055e-001
1	 1.831077228164503e+000	 3.627855706705264e-001	 3.472985567135198e+000
1	 1.827308840852505e+000	 3.813128506229466e-001	 3.161723752399823e+000
1	 1.823340721694443e+000	 3.998569654505436e-001	 2.857419054659072e+000
1	 1.819171736284712e+000	 4.184149326073986e-001	 2.560959833475614e+000
1	 1.814800804742252e+000	 4.369837291416522e-001	 2.273187238321683e+000
1	 1.810226903133151e+000	 4.555602928079645e-001	 1.994893110439683e+000
1	 1.805449064870776e+000	 4.741415232331826e-001	 1.726817920251761e+000
1	 1.800466382091268e+000	 4.927242831349174e-001	 1.469648745218509e+000
1	 1.795278007002279e+000	 5.113053995926306e-001	 1.224017293082994e+000
1	 1.789883153202777e+000	 5.298816653707489e-001	 9.904979754609120e-001
1	 1.784281096971782e+000	 5.484498402932200e-001	 7.696060367478675e-001
1	 1.720553699683057e+000	 5.288614016073798e-001	 6.136693822659228e-001
1	 1.714951287895949e+000	 5.467554384699779e-001	 3.556803751106169e-001
1	 1.709147861924184e+000	 5.646353332059646e-001	 1.171197105225790e-001
1	 1.703142909757176e+000	 5.824978728424625e-001	-1.012306192041660e-001
1	 1.696935984454057e+000	 6.003398183485178e-001	-2.986522062259290e-001
1	 1.690526705208835e+000	 6.181579061972001e-001	-4.744923921710974e-001
1	 1.683914758373382e+000	 6.359488499721072e-001	-6.281663662253170e-001
1	 1.677099898436262e+000	 6.537093420170529e-001	-7.591591907306615e-001
1	 1.670081948955454e+000	 6.714360551276295e-001	-8.670277487974347e-001
1	 1.662860803443096e+000	 6.891256442832350e-001	-9.514026084917781e-001
1	 1.655436426200365e+000	 7.067747484180751e-001	-1.011989798245127e+000
1	 1.726926439412715e+000	 5.308202454761590e-001	 6.228401500414824e-001
1	 1.721303276915056e+000	 5.487805598629469e-001	 3.699872427173364e-001
1	 1.715478355698569e+000	 5.667266797422572e-001	 1.362664652932441e-001
1	 1.709451161856229e+000	 5.846553802407206e-001	-7.755990948423484e-002
1	 1.703221246791734e+000	 6.025634103303735e-001	-2.707950308340504e-001
1	 1.696788228288618e+000	 6.204474943965467e-001	-4.428096411229475e-001
1	 1.690151791537024e+000	 6.383043338503186e-001	-5.930441769388407e-001
1	 1.683311690116158e+000	 6.561306087843145e-001	-7.210107944268482e-001
1	 1.676267746930466e+000	 6.739229796705319e-001	-8.262953133141665e-001
1	 1.669019855097652e+000	 6.916780890987875e-001	-9.085590741210583e-001
1	 1.661567978786661e+000	 7.093925635542742e-001	-9.675407031447731e-001
1	 1.733299179141840e+000	 5.327790893448082e-001	 6.336187816886655e-001
1	 1.727655265933628e+000	 5.508056812557428e-001	 3.859029020394105e-001
1	 1.721808849472432e+000	 5.688180262783275e-001	 1.570055190806117e-001
1	 1.715759413954782e+000	 5.868128876387013e-001	-5.233093336302724e-002
1	 1.709506509128947e+000	 6.047870023118943e-001	-2.414312126849581e-001
1	 1.703049751367984e+000	 6.227370825954985e-001	-4.096894435144353e-001
1	 1.696388824700308e+000	 6.406598177280756e-001	-5.565712205423433e-001
1	 1.689523481795759e+000	 6.585518755510625e-001	-6.816156324529075e-001
1	 1.682453544905252e+000	 6.764099042128660e-001	-7.844372013188727e-001
1	 1.675178906752058e+000	 6.942305339137208e-001	-8.647277318956047e-001
1	 1.667699531372885e+000	 7.120103786898093e-001	-9.222580653457891e-001
1	 1.739671918870567e+000	 5.347379332133595e-001	 6.459358335529196e-001
1	 1.734007254951787e+000	 5.528308026484087e-001	 4.033564536156834e-001
1	 1.728139343245877e+000	 5.709093728142304e-001	 1.792651390583902e-001
1	 1.722067666052925e+000	 5.889703950364738e-001	-2.561563316427049e-002
1	 1.715791771465766e+000	 6.070105942931632e-001	-2.106322788391691e-001
1	 1.709311274446982e+000	 6.250266707941542e-001	-3.752022860307275e-001
1	 1.702625857863253e+000	 6.430153016054911e-001	-5.188163184318150e-001
1	 1.695735273475063e+000	 6.609731423174257e-001	-6.410402367571115e-001
1	 1.688639342879789e+000	 6.788968287547734e-001	-7.415170324726168e-001
1	 1.681337958406270e+000	 6.967829787281894e-001	-8.199686682388457e-001
1	 1.673831083958972e+000	 7.146281938248470e-001	-8.761978195481425e-001
1	 1.746044658599031e+000	 5.366967770818458e-001	 6.597228758058003e-001
1	 1.740359243969655e+000	 5.548559240409877e-001	 4.222780330649120e-001
1	 1.734469837019012e+000	 5.730007193500216e-001	 2.029746396468231e-001
1	 1.728375918150747e+000	 5.911279024341080e-001	 2.515099093383863e-003
1	 1.722077033802260e+000	 6.092341862742643e-001	-1.784687121146019e-001
1	 1.715572797525657e+000	 6.273162589926120e-001	-3.394176263031626e-001
1	 1.708862891025889e+000	 6.453707854826793e-001	-4.798472872614204e-001
1	 1.701947065154075e+000	 6.633944090835324e-001	-5.993501679700922e-001
1	 1.694825140854057e+000	 6.813837532963969e-001	-6.975974976360219e-001
1	 1.687497010060242e+000	 6.993354235423485e-001	-7.743410923564540e-001
1	 1.679962636544856e+000	 7.172460089595523e-001	-8.294150838461735e-001
1	 1.752417398327365e+000	 5.386556209502998e-001	 6.749124740109052e-001
1	 1.746711232987356e+000	 5.568810454335238e-001	 4.425987922651615e-001
1	 1.740800330791946e+000	 5.750920658857573e-001	 2.280643634708008e-001
1	 1.734684170248338e+000	 5.932854098316724e-001	 3.199140259883341e-002
1	 1.728362296138499e+000	 6.114577782552818e-001	-1.450099700739216e-001
1	 1.721834320604059e+000	 6.296058471909711e-001	-3.024039116202648e-001
1	 1.715099924188238e+000	 6.477262693597538e-001	-4.397309572123694e-001
1	 1.708158856832794e+000	 6.658156758495105e-001	-5.566100330660367e-001
1	 1.701010938828034e+000	 6.838706778378773e-001	-6.527403757574698e-001
1	 1.693656061713931e+000	 7.018878683563526e-001	-7.279033521866193e-001
1	 1.686094189130473e+000	 7.198638240940923e-001	-7.819641745767432e-001
1	 1.758790138055704e+000	 5.406144648187536e-001	 6.914381710905634e-001
1	 1.753063222005010e+000	 5.589061668260598e-001	 4.642508809424284e-001
1	 1.747130824564784e+000	 5.771834124214931e-001	 2.544656627321033e-001
1	 1.740992422345786e+000	 5.954429172292369e-001	 6.274442906638374e-002
1	 1.734647558474552e+000	 6.136813702362994e-001	-1.103245035987968e-001
1	 1.728095843682236e+000	 6.318954353893305e-001	-2.642285972319229e-001
1	 1.721336957350326e+000	 6.500817532368282e-001	-3.985331898647692e-001
1	 1.714370648511223e+000	 6.682369426154887e-001	-5.128835026400028e-001
1	 1.707196736801698e+000	 6.863576023793584e-001	-6.070065503940683e-001
1	 1.699815113367292e+000	 7.044403131703569e-001	-6.807129500034547e-001
1	 1.692225741715756e+000	 7.224816392286320e-001	-7.338986208445238e-001
1	 1.765162877784180e+000	 5.425733086872400e-001	 7.092344696829981e-001
1	 1.759415211022741e+000	 5.609312882186387e-001	 4.871674286581186e-001
1	 1.753461318337636e+000	 5.792747589572844e-001	 2.821108809849635e-001
1	 1.747300674443183e+000	 5.976004246268710e-001	 9.470632445817395e-002
1	 1.740932820810489e+000	 6.159049622174005e-001	-7.447977506199389e-002
1	 1.734357366760235e+000	 6.341850235877884e-001	-2.249581642571953e-001
1	 1.727573990512178e+000	 6.524372371140165e-001	-3.563188956822527e-001
1	 1.720582440189362e+000	 6.706582093815950e-001	-4.682333278108687e-001
1	 1.713382534775026e+000	 6.888445269209819e-001	-5.604560258747411e-001
1	 1.705974165020281e+000	 7.069927579845158e-001	-6.328265576825084e-001
1	 1.698357294300641e+000	 7.250994543633379e-001	-6.852711787327162e-001
1	 1.771535617512930e+000	 5.445321525557915e-001	 7.282368148805114e-001
1	 1.765767200040672e+000	 5.629564096113043e-001	 5.112825271850982e-001
1	 1.759791812110608e+000	 5.813661054931872e-001	 3.109333353053019e-001
1	 1.753608926540618e+000	 5.997579320246437e-001	 1.278102111011848e-001
1	 1.747218083146380e+000	 6.181285541986697e-001	-3.754227610723045e-002
1	 1.740618889838102e+000	 6.364746117864440e-001	-1.846581372054937e-001
1	 1.733811023673818e+000	 6.547927209914324e-001	-3.131520511192329e-001
1	 1.726794231867214e+000	 6.730794761479584e-001	-4.227213567594875e-001
1	 1.719568332747999e+000	 6.913314514628892e-001	-5.131479431144986e-001
1	 1.712133216672855e+000	 7.095452027989848e-001	-5.843000316366862e-001
1	 1.704488846885063e+000	 7.277172694983755e-001	-6.361338452069792e-001
1	 1.777908357242085e+000	 5.464909964244405e-001	 7.483815773387055e-001
1	 1.772119189058924e+000	 5.649815310041002e-001	 5.365312132630045e-001
1	 1.766122305883807e+000	 5.834574520292573e-001	 3.408672988430314e-001
1	 1.759917178638179e+000	 6.019154394226243e-001	 1.619901701886617e-001
1	 1.753503345482292e+000	 6.203521461801902e-001	 4.224549534298145e-004
1	 1.746880412915887e+000	 6.387641999853959e-001	-1.433931011209464e-001
1	 1.740048056835272e+000	 6.571482048691891e-001	-2.690957153602793e-001
1	 1.733006023544780e+000	 6.755007429147066e-001	-3.764085509112569e-001
1	 1.725754130720593e+000	 6.938183760052232e-001	-4.651405950885753e-001
1	 1.718292268324968e+000	 7.120976476139181e-001	-5.351884274310442e-001
1	 1.710620399468956e+000	 7.303350846339110e-001	-5.865378717203875e-001
1	 1.784281096971782e+000	 5.484498402932200e-001	 7.696060367478675e-001
1	 1.778471178077622e+000	 5.670066523970694e-001	 5.628494517230053e-001
1	 1.772452799657343e+000	 5.855487985655503e-001	 3.718479837486197e-001
1	 1.766225430735958e+000	 6.040729468208824e-001	 1.971812246567930e-001
1	 1.759788607818298e+000	 6.225757381620464e-001	 3.934981611491960e-002
1	 1.753141935993637e+000	 6.410537881847428e-001	-1.012267183594344e-001
1	 1.746285089996563e+000	 6.595036887474010e-001	-2.242120467007402e-001
1	 1.739217815222061e+000	 6.779220096819685e-001	-3.293550007717432e-001
1	 1.731939928692788e+000	 6.963053005481263e-001	-4.164914419749527e-001
1	 1.724451319976577e+000	 7.146500924294711e-001	-4.855460140843495e-001
1	 1.716751952052255e+000	 7.329528997701102e-001	-5.365337775267971e-001
1	 1.655436426200365e+000	 7.067747484180751e-001	-1.011989798245127e+000
1	 1.647810012626662e+000	 7.243773551801414e-001	-1.062479262248480e+000
1	 1.639980573555821e+000	 7.419327295003327e-001	-1.116833865667775e+000
1	 1.631948291327146e+000	 7.594374756294089e-001	-1.175199610789049e+000
1	 1.623713421824428e+000	 7.768881892555959e-001	-1.237715458583922e+000
1	 1.615276295033542e+000	 7.942814594428974e-001	-1.304513110567423e+000
1	 1.606637315540310e+000	 8.116138705974469e-001	-1.375716799271073e+000
1	 1.597796962967233e+000	 8.288820044598098e-001	-1.451443087846715e+000
1	 1.588755792347744e+000	 8.460824421210691e-001	-1.531800679302978e+000
1	 1.579514434436758e+000	 8.632117660604604e-001	-1.616890235860860e+000
1	 1.570073595956371e+000	 8.802665622022525e-001	-1.706804208898388e+000
1	 1.661567978786661e+000	 7.093925635542742e-001	-9.675407031447739e-001
1	 1.653913317824509e+000	 7.270603684159012e-001	-1.016645796579629e+000
1	 1.646054879381276e+000	 7.446807658919559e-001	-1.069536552374932e+000
1	 1.637992846471639e+000	 7.622503476557206e-001	-1.126367445032472e+000
1	 1.629727475927164e+000	 7.797656967862311e-001	-1.187283729103513e+000
1	 1.621259098955966e+000	 7.972233897137646e-001	-1.252421186437754e+000
1	 1.612588121642419e+000	 8.146199981934755e-001	-1.321905885561954e+000
1	 1.603715025385502e+000	 8.319520913050783e-001	-1.395853953823966e+000
1	 1.594640367274438e+000	 8.492162374763990e-001	-1.474371362917593e+000
1	 1.585364780400401e+000	 8.664090065285576e-001	-1.557553728380684e+000
1	 1.575888974103115e+000	 8.835269717404666e-001	-1.645486123634032e+000
1	 1.667699531372885e+000	 7.120103786898093e-001	-9.222580653457891e-001
1	 1.660016623022366e+000	 7.297433816509610e-001	-9.701343126226950e-001
1	 1.652129185206822e+000	 7.474288022828487e-001	-1.021703353839049e+000
1	 1.644037401616305e+000	 7.650632196812788e-001	-1.077128419286808e+000
1	 1.635741530030153e+000	 7.826432043160948e-001	-1.136561429458395e+000
1	 1.627241902878723e+000	 8.001653199838462e-001	-1.200142708203503e+000
1	 1.618538927744937e+000	 8.176261257887096e-001	-1.268000711383233e+000
1	 1.609633087804251e+000	 8.350221781495452e-001	-1.340251771774625e+000
1	 1.600524942201681e+000	 8.523500328309214e-001	-1.416999860951693e+000
1	 1.591215126364653e+000	 8.696062469958423e-001	-1.498336368838629e+000
1	 1.581704352250523e+000	 8.867873812778637e-001	-1.584339901598628e+000
1	 1.673831083958972e+000	 7.146281938248470e-001	-8.761978195481430e-001
1	 1.666119928220147e+000	 7.324263948854949e-001	-9.229966708164277e-001
1	 1.658203491032356e+000	 7.501768386731936e-001	-9.733828249521563e-001
1	 1.650081956761026e+000	 7.678760917062715e-001	-1.027528548932642e+000
1	 1.641755584133266e+000	 7.855207118453783e-001	-1.085592798147189e+000
1	 1.633224706801671e+000	 8.031072502533370e-001	-1.147720895973674e+000
1	 1.624489733847713e+000	 8.206322533833429e-001	-1.214044232074228e+000
1	 1.615551150223324e+000	 8.380922649934034e-001	-1.284679980277665e+000
1	 1.606409517129309e+000	 8.554838281848282e-001	-1.359730836882322e+000
1	 1.597065472329349e+000	 8.728034874625036e-001	-1.439284780176118e+000
1	 1.587519730398429e+000	 8.900477908146286e-001	-1.523414851930912e+000
1	 1.679962636544856e+000	 7.172460089595523e-001	-8.294150838461735e-001
1	 1.672223233417767e+000	 7.351094081196790e-001	-8.752839744751804e-001
1	 1.664277796857779e+000	 7.529248750631739e-001	-9.246228117404582e-001
1	 1.656126511905686e+000	 7.706889637308859e-001	-9.776131775597543e-001
1	 1.647769638236373e+000	 7.883982193742738e-001	-1.034421427818947e+000
1	 1.639207510724670e+000	 8.060491805224306e-001	-1.095198338875476e+000
1	 1.630440539950598e+000	 8.236383809775704e-001	-1.160078775857964e+000
1	 1.621469212642564e+000	 8.411623518368471e-001	-1.229181383740816e+000
1	 1.612294092057161e+000	 8.586176235383101e-001	-1.302608302132719e+000
1	 1.602915818294325e+000	 8.760007279287293e-001	-1.380444904674143e+000
1	 1.593335108546665e+000	 8.933082003509443e-001	-1.462759563892688e+000
1	 1.686094189130473e+000	 7.198638240940923e-001	-7.819641745767428e-001
1	 1.678326538615143e+000	 7.377924213536876e-001	-8.270465835555023e-001
1	 1.670352102682987e+000	 7.556729114529706e-001	-8.754704642534641e-001
1	 1.662171067050169e+000	 7.735018357553108e-001	-9.274269891821269e-001
1	 1.653783692339343e+000	 7.912757269029728e-001	-9.830902770163997e-001
1	 1.645190314647578e+000	 8.089911107913198e-001	-1.042617006527255e+000
1	 1.636391346053441e+000	 8.266445085715856e-001	-1.106146055243779e+000
1	 1.627387275061813e+000	 8.442324386800688e-001	-1.173798163931566e+000
1	 1.618178666985074e+000	 8.617514188915592e-001	-1.245675627928492e+000
1	 1.608766164259413e+000	 8.791979683947067e-001	-1.321862016329483e+000
1	 1.599150486695066e+000	 8.965686098869936e-001	-1.402421919958223e+000
1	 1.692225741715756e+000	 7.224816392286320e-001	-7.338986208445238e-001
1	 1.684429843812190e+000	 7.404754345876964e-001	-7.783341281234584e-001
1	 1.676426408507879e+000	 7.584209478427667e-001	-8.259722491728637e-001
1	 1.668215622194357e+000	 7.763147077797337e-001	-8.770140201873693e-001
1	 1.659797746442048e+000	 7.941532344316662e-001	-9.316416816640127e-001
1	 1.651173118570255e+000	 8.119330410601993e-001	-9.900182602620435e-001
1	 1.642342152156093e+000	 8.296506361655833e-001	-1.052287178182184e+000
1	 1.633305337480912e+000	 8.473025255232625e-001	-1.118571891257393e+000
1	 1.624063241912885e+000	 8.648852142447658e-001	-1.188975556895938e+000
1	 1.614616510224449e+000	 8.823952088606245e-001	-1.263580732961938e+000
1	 1.604965864843464e+000	 8.998290194229611e-001	-1.342449108618953e+000
1	 1.698357294300641e+000	 7.250994543633379e-001	-6.852711787327158e-001
1	 1.690533149008824e+000	 7.431584478218801e-001	-7.291955215301952e-001
1	 1.682500714332354e+000	 7.611689842327448e-001	-7.761739621483577e-001
1	 1.674260177338134e+000	 7.791275798043420e-001	-8.264176710273133e-001
1	 1.665811800544357e+000	 7.970307419605462e-001	-8.801173663071235e-001
1	 1.657155922492560e+000	 8.148749713292620e-001	-9.374428641080174e-001
1	 1.648292958258401e+000	 8.326567637597577e-001	-9.985426589779660e-001
1	 1.639223399899707e+000	 8.503726123666218e-001	-1.063543535801731e+000
1	 1.629947816840433e+000	 8.680190095981221e-001	-1.132550214409153e+000
1	 1.620466856189266e+000	 8.855924493266703e-001	-1.205645028059243e+000
1	 1.610781242991693e+000	 9.030894289590298e-001	-1.282887636910897e+000
1	 1.704488846885063e+000	 7.277172694983755e-001	-6.361338452069798e-001
1	 1.696636454204961e+000	 7.458414610564140e-001	-6.796789733031359e-001
1	 1.688575020156310e+000	 7.639170206230866e-001	-7.261207398671249e-001
1	 1.680304732481383e+000	 7.819404518293238e-001	-7.756807176562722e-001
1	 1.671825854646140e+000	 7.999082494898043e-001	-8.285584551085206e-001
1	 1.663138726414351e+000	 8.178169015987020e-001	-8.849309955318992e-001
1	 1.654243764360219e+000	 8.356628913543031e-001	-9.449524289678281e-001
1	 1.645141462318039e+000	 8.534426992103398e-001	-1.008753478121656e+000
1	 1.635832391767555e+000	 8.711528049518190e-001	-1.076441119692235e+000
1	 1.626317202153701e+000	 8.887896897930323e-001	-1.148098242366294e+000
1	 1.616596621139586e+000	 9.063498384953834e-001	-1.223783342671604e+000
1	 1.710620399468956e+000	 7.303350846339110e-001	-5.865378717203875e-001
1	 1.702739759400515e+000	 7.485244742914734e-001	-6.298320017599605e-001
1	 1.694649325979647e+000	 7.666650570139754e-001	-6.758570718638104e-001
1	 1.686349287623989e+000	 7.847533238548667e-001	-7.248453227233154e-001
1	 1.677839908747267e+000	 8.027857570196316e-001	-7.770054826085270e-001
1	 1.669121530335487e+000	 8.207588318687129e-001	-8.325222559513115e-001
1	 1.660194570461393e+000	 8.386690189494136e-001	-8.915558469683319e-001
1	 1.651059524735752e+000	 8.565127860546102e-001	-9.542415198134077e-001
1	 1.641716966694088e+000	 8.742866003060478e-001	-1.020689196682749e+000
1	 1.632167548117586e+000	 8.919869302598986e-001	-1.090983095225272e+000
1	 1.622411999286977e+000	 9.096102480322056e-001	-1.165181406533568e+000
1	 1.716751952052255e+000	 7.329528997701102e-001	-5.365337775267968e-001
1	 1.708843064595402e+000	 7.512074875272331e-001	-5.797014463522214e-001
1	 1.700723631802261e+000	 7.694130934055929e-001	-6.254268120773757e-001
1	 1.692393842765832e+000	 7.875661958811594e-001	-6.739530465246731e-001
1	 1.683853962847609e+000	 8.056632645502203e-001	-7.254984042544678e-001
1	 1.675104334255827e+000	 8.237007621394886e-001	-7.802556810219049e-001
1	 1.666145376561775e+000	 8.416751465452835e-001	-8.383917094999858e-001
1	 1.656977587152687e+000	 8.595828728996267e-001	-9.000468938514958e-001
1	 1.647601541619870e+000	 8.774203956610007e-001	-9.653347846623102e-001
1	 1.638017894080758e+000	 8.951841707274575e-001	-1.034341695672567e+000
1	 1.628227377433699e+000	 9.128706575696799e-001	-1.107126363660592e+000
1	 1.570073595956371e+000	 8.802665622022525e-001	-1.706804208898388e+000
1	 1.560432599048893e+000	 8.972459629188613e-001	-1.801481500035899e+000
1	 1.550593705615053e+000	 9.141440024037704e-001	-1.900770821683358e+000
1	 1.540557852787052e+000	 9.309572889105736e-001	-2.004637762876054e+000
1	 1.530326054011600e+000	 9.476824425522793e-001	-2.113011872174319e+000
1	 1.519899398955622e+000	 9.643160974185487e-001	-2.225786470623780e+000
1	 1.509279053342249e+000	 9.808549036971231e-001	-2.342818526454757e+000
1	 1.498466258716638e+000	 9.972955297967757e-001	-2.463928592459090e+000
1	 1.487462332141325e+000	 1.013634664469111e+000	-2.588900806835913e+000
1	 1.476268665820915e+000	 1.029869018926507e+000	-2.717482958147719e+000
1	 1.464886726656035e+000	 1.045995328953468e+000	-2.849386614872752e+000
1	 1.575888974103115e+000	 8.835269717404666e-001	-1.645486123634031e+000
1	 1.566212268014191e+000	 9.005692622709460e-001	-1.738002832947333e+000
1	 1.556336932412184e+000	 9.175298902167840e-001	-1.834864331579301e+000
1	 1.546263907900330e+000	 9.344054512689111e-001	-1.936051546400560e+000
1	 1.535994211679030e+000	 9.511925530215972e-001	-2.041510433854068e+000
1	 1.525528937451213e+000	 9.678878170975326e-001	-2.151151776519010e+000
1	 1.514869255257719e+000	 9.844878812771145e-001	-2.264851039448949e+000
1	 1.504016411242247e+000	 1.000989401629258e+000	-2.382448287238657e+000
1	 1.492971727345584e+000	 1.017389054641061e+000	-2.503748162632410e+000
1	 1.481736600928906e+000	 1.033683539343583e+000	-2.628519927340829e+000
1	 1.470312504326076e+000	 1.049869579431027e+000	-2.756497565584192e+000
1	 1.581704352250523e+000	 8.867873812778637e-001	-1.584339901598628e+000
1	 1.571991936980199e+000	 9.038925616222086e-001	-1.674753372045080e+000
1	 1.562080159210064e+000	 9.209157780289697e-001	-1.769260635874454e+000
1	 1.551969963014387e+000	 9.378536136264144e-001	-1.867856452362883e+000
1	 1.541662369347260e+000	 9.547026634900736e-001	-1.970501598471909e+000
1	 1.531158475947617e+000	 9.714595367756689e-001	-2.077122651067643e+000
1	 1.520459457174004e+000	 9.881208588562517e-001	-2.187611827111256e+000
1	 1.509566563768664e+000	 1.004683273460882e+000	-2.301826882787708e+000
1	 1.498481122550637e+000	 1.021143444812148e+000	-2.419591072403704e+000
1	 1.487204536037667e+000	 1.037498059759795e+000	-2.540693167744550e+000
1	 1.475738281996851e+000	 1.053743829907719e+000	-2.664887538434341e+000
1	 1.587519730398429e+000	 8.900477908146286e-001	-1.523414851930912e+000
1	 1.577771605946751e+000	 9.072158609728270e-001	-1.611785165970486e+000
1	 1.567823386008530e+000	 9.243016658404997e-001	-1.704013918326970e+000
1	 1.557676018129063e+000	 9.413017759832483e-001	-1.800108212315600e+000
1	 1.547330527016136e+000	 9.582127739578679e-001	-1.900042075741810e+000
1	 1.536788014444687e+000	 9.750312564531100e-001	-2.003756230814918e+000
1	 1.526049659090967e+000	 9.917538364346820e-001	-2.111157920390170e+000
1	 1.515116716295762e+000	 1.008377145291788e+000	-2.222120791516839e+000
1	 1.503990517756364e+000	 1.024897834982510e+000	-2.336484837137626e+000
1	 1.492672471147086e+000	 1.041312580175275e+000	-2.454056396647601e+000
1	 1.481164059668261e+000	 1.057618080383677e+000	-2.574608215880598e+000
1	 1.593335108546665e+000	 8.933082003509443e-001	-1.462759563892688e+000
1	 1.583551274913682e+000	 9.105391603229808e-001	-1.549149503493350e+000
1	 1.573566612807418e+000	 9.276875536515454e-001	-1.639177571652422e+000
1	 1.563382073244200e+000	 9.447499383395788e-001	-1.732861744172062e+000
1	 1.552998684685506e+000	 9.617228844251389e-001	-1.830187747458219e+000
1	 1.542417552942276e+000	 9.786029761300081e-001	-1.931108818155115e+000
1	 1.531639861008467e+000	 9.953868140125507e-001	-2.035545517624860e+000
1	 1.520666868823410e+000	 1.012071017122119e+000	-2.143385602257655e+000
1	 1.509499912962644e+000	 1.028652225152283e+000	-2.254483950468907e+000
1	 1.498140406257053e+000	 1.045127100590158e+000	-2.368662547106522e+000
1	 1.486589837340203e+000	 1.061492330859036e+000	-2.485710525855162e+000
1	 1.599150486695066e+000	 8.965686098869936e-001	-1.402421919958224e+000
1	 1.589330943880827e+000	 9.138624596728466e-001	-1.486896927328510e+000
1	 1.579309839606564e+000	 9.310734414622793e-001	-1.574804211907047e+000
1	 1.569088128359639e+000	 9.481981006955713e-001	-1.666171167000575e+000
1	 1.558666842355217e+000	 9.652329948920450e-001	-1.760993682549831e+000
1	 1.548047091440238e+000	 9.821746958065160e-001	-1.859235896498745e+000
1	 1.537230062926369e+000	 9.990197915900062e-001	-1.960829999684366e+000
1	 1.526217021351479e+000	 1.015764888952013e+000	-2.065676095237609e+000
1	 1.515009308169359e+000	 1.032406615321604e+000	-2.173642113359128e+000
1	 1.503608341367459e+000	 1.048941621004579e+000	-2.284563782205173e+000
1	 1.492015615012579e+000	 1.065366581333928e+000	-2.398244655484466e+000
1	 1.604965864843464e+000	 8.998290194229611e-001	-1.342449108618953e+000
1	 1.595110612848018e+000	 9.171857590226028e-001	-1.425077247651928e+000
1	 1.585053066405808e+000	 9.344593292728730e-001	-1.510945692558432e+000
1	 1.574794183475222e+000	 9.516462630513911e-001	-1.600089815496984e+000
1	 1.564335000025114e+000	 9.687431053587454e-001	-1.692514151806102e+000
1	 1.553676629938429e+000	 9.857464154827855e-001	-1.788192145109836e+000
1	 1.542820264844534e+000	 1.002652769167193e+000	-1.887065944777501e+000
1	 1.531767173879839e+000	 1.019458760781614e+000	-1.989046256729333e+000
1	 1.520518703376387e+000	 1.036161005490611e+000	-2.094012248457407e+000
1	 1.509076276478193e+000	 1.052756141418672e+000	-2.201811509004119e+000
1	 1.497441392685288e+000	 1.069240831808488e+000	-2.312260064510193e+000
1	 1.610781242991693e+000	 9.030894289590298e-001	-1.282887636910897e+000
1	 1.600890281815093e+000	 9.205090583724286e-001	-1.363739555324050e+000
1	 1.590796293204986e+000	 9.378452170834997e-001	-1.447653118251238e+000
1	 1.580500238590789e+000	 9.550944254072040e-001	-1.534670254143655e+000
1	 1.570003157695046e+000	 9.722532158253989e-001	-1.624802642284799e+000
1	 1.559306168436700e+000	 9.893181351589695e-001	-1.718031453621947e+000
1	 1.548410466762822e+000	 1.006285746744259e+000	-1.814307142941993e+000
1	 1.537317326408363e+000	 1.023152632611062e+000	-1.913549293382672e+000
1	 1.526028098583609e+000	 1.039915395659440e+000	-2.015646514149962e+000
1	 1.514544211589143e+000	 1.056570661832571e+000	-2.120456392187945e+000
1	 1.502867170358230e+000	 1.073115082282848e+000	-2.227805498419522e+000
1	 1.616596621139586e+000	 9.063498384953834e-001	-1.223783342671604e+000
1	 1.606669950781882e+000	 9.238323577225011e-001	-1.302932234827828e+000
1	 1.596539520003932e+000	 9.412311048943297e-001	-1.384976858275922e+000
1	 1.586206293706182e+000	 9.585425877631757e-001	-1.469964291062909e+000
1	 1.575671315364859e+000	 9.757633262921642e-001	-1.557911871408635e+000
1	 1.564935706934906e+000	 9.928898548352201e-001	-1.648806936240862e+000
1	 1.554000668681096e+000	 1.009918724321349e+000	-1.742606610220894e+000
1	 1.542867478936918e+000	 1.026846504440499e+000	-1.839237646247322e+000
1	 1.531537493790904e+000	 1.043669785828230e+000	-1.938596318306658e+000
1	 1.520012146700202e+000	 1.060385182246412e+000	-2.040548367417916e+000
1	 1.508292948031304e+000	 1.076989332757142e+000	-2.144929001292095e+000
1	 1.622411999286977e+000	 9.096102480322056e-001	-1.165181406533568e+000
1	 1.612449619748222e+000	 9.271556570729985e-001	-1.242702976928351e+000
1	 1.602282746802487e+000	 9.446169927055366e-001	-1.322966559747786e+000
1	 1.591912348821241e+000	 9.619907501194712e-001	-1.406022991572532e+000
1	 1.581339473034401e+000	 9.792734367592008e-001	-1.491893800758580e+000
1	 1.570565245432902e+000	 9.964615745116900e-001	-1.580570945641746e+000
1	 1.559590870599219e+000	 1.013551701898611e+000	-1.672016602534150e+000
1	 1.548417631465376e+000	 1.030540376270066e+000	-1.766163004493879e+000
1	 1.537046888998153e+000	 1.047424175997116e+000	-1.862912331731528e+000
1	 1.525480081811258e+000	 1.064199702660327e+000	-1.962136654397670e+000
1	 1.513718725704411e+000	 1.080863583231503e+000	-2.063677928370597e+000
1	 1.628227377433699e+000	 9.128706575696799e-001	-1.107126363660592e+000
1	 1.618229288713946e+000	 9.304789564240998e-001	-1.183098791061321e+000
1	 1.608025973600485e+000	 9.480028805172917e-001	-1.261671160503531e+000
1	 1.597618403935810e+000	 9.654389124762559e-001	-1.342896691450742e+000
1	 1.587007630703517e+000	 9.827835472266669e-001	-1.426799649571733e+000
1	 1.576194783930540e+000	 1.000033294188532e+000	-1.513375086568585e+000
1	 1.565181072517051e+000	 1.017184679476191e+000	-1.602588629252840e+000
1	 1.553967783993609e+000	 1.034234248099903e+000	-1.694376318840972e+000
1	 1.542556284205236e+000	 1.051178566166237e+000	-1.788644501325513e+000
1	 1.530948016922200e+000	 1.068014223074453e+000	-1.885269769658597e+000
1	 1.519144503377449e+000	 1.084737833706065e+000	-1.984098958362041e+000
1	 1.464886726656035e+000	 1.045995328953468e+000	-2.849386614872752e+000
1	 1.453318055313266e+000	 1.062010356654672e+000	-2.988094414243700e+000
1	 1.441564264409459e+000	 1.077910891461337e+000	-3.136962206294686e+000
1	 1.429627039115891e+000	 1.093693753231475e+000	-3.295456489118743e+000
1	 1.417508136850242e+000	 1.109355794658154e+000	-3.463007095811072e+000
1	 1.405209386483143e+000	 1.124893903309127e+000	-3.639007808574027e+000
1	 1.392732687476031e+000	 1.140305003643589e+000	-3.822817037132529e+000
1	 1.380080008951025e+000	 1.155586059003373e+000	-4.013758560492866e+000
1	 1.367253388693743e+000	 1.170734073575915e+000	-4.211122330913569e+000
1	 1.354254932090051e+000	 1.185746094326380e+000	-4.414165338795900e+000
1	 1.341086810997859e+000	 1.200619212896339e+000	-4.622112537042504e+000
1	 1.470312504326076e+000	 1.049869579431027e+000	-2.756497565584192e+000
1	 1.458700983910129e+000	 1.065943925015255e+000	-2.891172735748217e+000
1	 1.446903658270865e+000	 1.081903353635911e+000	-3.035853071905397e+000
1	 1.434922218821242e+000	 1.097744673372132e+000	-3.189939521563062e+000
1	 1.422758429488212e+000	 1.113464725259729e+000	-3.352792714787956e+000
1	 1.410414125916335e+000	 1.129060385338371e+000	-3.523733687388662e+000
1	 1.397891214602434e+000	 1.144528566675812e+000	-3.702044675654697e+000
1	 1.385191671962032e+000	 1.159866221366456e+000	-3.886969981480954e+000
1	 1.372317543328472e+000	 1.175070342501603e+000	-4.077716906523430e+000
1	 1.359270941885729e+000	 1.190137966108723e+000	-4.273456753851529e+000
1	 1.346054047536028e+000	 1.205066173057170e+000	-4.473325895384749e+000
1	 1.475738281996851e+000	 1.053743829907719e+000	-2.664887538434340e+000
1	 1.464083912507682e+000	 1.069877493374972e+000	-2.795657480465542e+000
1	 1.452243052132907e+000	 1.085895815809623e+000	-2.936250155760126e+000
1	 1.440217398527168e+000	 1.101795593511933e+000	-3.086006701259727e+000
1	 1.428008722126688e+000	 1.117573655860459e+000	-3.244224447529526e+000
1	 1.415618865349959e+000	 1.133226867366784e+000	-3.410157741778880e+000
1	 1.403049741729191e+000	 1.148752129707221e+000	-3.583018849358375e+000
1	 1.390303334973312e+000	 1.164146383728749e+000	-3.761978932376390e+000
1	 1.377381697963391e+000	 1.179406611426530e+000	-3.946169103876378e+000
1	 1.364286951681511e+000	 1.194529837890341e+000	-4.134681555818162e+000
1	 1.351021284074214e+000	 1.209513133217318e+000	-4.326570758911797e+000
1	 1.481164059668261e+000	 1.057618080383677e+000	-2.574608215880598e+000
1	 1.469466841105835e+000	 1.073811061733959e+000	-2.701598731619345e+000
1	 1.457582445995505e+000	 1.089888277982609e+000	-2.838203208845389e+000
1	 1.445512578233598e+000	 1.105846513651019e+000	-2.983708651457876e+000
1	 1.433259014765612e+000	 1.121682586460487e+000	-3.137354930215994e+000
1	 1.420823604783968e+000	 1.137393349394514e+000	-3.298335696417718e+000
1	 1.408208268856266e+000	 1.152975692737969e+000	-3.465799380650084e+000
1	 1.395414997984840e+000	 1.168426546090407e+000	-3.638850275086504e+000
1	 1.382445852598486e+000	 1.183742880350852e+000	-3.816549697587232e+000
1	 1.369302961477398e+000	 1.198921709671388e+000	-3.997917235643751e+000
1	 1.355988520612435e+000	 1.213960093376932e+000	-4.181932067995530e+000
1	 1.486589837340203e+000	 1.061492330859036e+000	-2.485710525855163e+000
1	 1.474849769704496e+000	 1.077744630092348e+000	-2.609045841255834e+000
1	 1.462921839858580e+000	 1.093880740155007e+000	-2.741761255820737e+000
1	 1.450807757940463e+000	 1.109897433789529e+000	-2.883095256345219e+000
1	 1.438509307404924e+000	 1.125791517059957e+000	-3.032236030578820e+000
1	 1.426028344218313e+000	 1.141559831421708e+000	-3.188322462439857e+000
1	 1.413366795983623e+000	 1.157199255768207e+000	-3.350445218573971e+000
1	 1.400526660996592e+000	 1.172706708451582e+000	-3.517647924583187e+000
1	 1.387510007233746e+000	 1.188079149274723e+000	-3.688928429014527e+000
1	 1.374318971273393e+000	 1.203313581452015e+000	-3.863240152966248e+000
1	 1.360955757150707e+000	 1.218407053536164e+000	-4.039493522941740e+000
1	 1.492015615012579e+000	 1.065366581333928e+000	-2.398244655484466e+000
1	 1.480232698303576e+000	 1.081678198450274e+000	-2.518047443538512e+000
1	 1.468261233722049e+000	 1.097873202326953e+000	-2.646972608225310e+000
1	 1.456102937647694e+000	 1.113948353927604e+000	-2.784215674486226e+000
1	 1.443759600044565e+000	 1.129900447659014e+000	-2.928918861873279e+000
1	 1.431233083652948e+000	 1.145726313448514e+000	-3.080172152233847e+000
1	 1.418525323111224e+000	 1.161422818798085e+000	-3.237014454692074e+000
1	 1.405638324008543e+000	 1.176986870812430e+000	-3.398434866121107e+000
1	 1.392574161869159e+000	 1.192415418198297e+000	-3.563374025047623e+000
1	 1.379334981069496e+000	 1.207705453232379e+000	-3.730725556683839e+000
1	 1.365922993689046e+000	 1.222854013695160e+000	-3.899337606537752e+000
1	 1.497441392685288e+000	 1.069240831808488e+000	-2.312260064510193e+000
1	 1.485615626902984e+000	 1.085611766807872e+000	-2.428651467753983e+000
1	 1.473600627585834e+000	 1.101865664498583e+000	-2.553884877397262e+000
1	 1.461398117355220e+000	 1.117999274065383e+000	-2.687118351968163e+000
1	 1.449009892684477e+000	 1.134009378257801e+000	-2.827453796547146e+000
1	 1.436437823087822e+000	 1.149892795475079e+000	-2.973938093912948e+000
1	 1.423683850239033e+000	 1.165646381827755e+000	-3.125564338619053e+000
1	 1.410749987020669e+000	 1.181267033173103e+000	-3.281273172080787e+000
1	 1.397638316504716e+000	 1.196751687121729e+000	-3.439954216485773e+000
1	 1.384350990865711e+000	 1.212097325012632e+000	-3.600447605078133e+000
1	 1.370890230227468e+000	 1.227300973854073e+000	-3.761545606110013e+000
1	 1.502867170358230e+000	 1.073115082282848e+000	-2.227805498419522e+000
1	 1.490998555502631e+000	 1.089545335165276e+000	-2.340905151035902e+000
1	 1.478940021449855e+000	 1.105858126670033e+000	-2.462544987113317e+000
1	 1.466693297062972e+000	 1.122050194203007e+000	-2.591851035262041e+000
1	 1.454260185324599e+000	 1.138118308856462e+000	-2.727890479613227e+000
1	 1.441642562522888e+000	 1.154059277501552e+000	-2.869672845472309e+000
1	 1.428842377367014e+000	 1.169869944857368e+000	-3.016151293220500e+000
1	 1.415861650032945e+000	 1.185547195533754e+000	-3.166224018447611e+000
1	 1.402702471140401e+000	 1.201087956045174e+000	-3.318735756018834e+000
1	 1.389367000662038e+000	 1.216489196792927e+000	-3.472479385500972e+000
1	 1.375857466765991e+000	 1.231747934013053e+000	-3.626197635103760e+000
1	 1.508292948031304e+000	 1.076989332757142e+000	-2.144929001292095e+000
1	 1.496381484102426e+000	 1.093478903522620e+000	-2.254855050814375e+000
1	 1.484279415314031e+000	 1.109850588841442e+000	-2.372999185955694e+000
1	 1.471988476770880e+000	 1.126101114340615e+000	-2.498460783806535e+000
1	 1.459510477964873e+000	 1.142227239455141e+000	-2.630277841733384e+000
1	 1.446847301958099e+000	 1.158225759528081e+000	-2.767428208640625e+000
1	 1.434000904495130e+000	 1.174093507887076e+000	-2.908830929483191e+000
1	 1.420973313045347e+000	 1.189827357894538e+000	-3.053347700934467e+000
1	 1.407766625776206e+000	 1.205424224968786e+000	-3.199784435819994e+000
1	 1.394383010458481e+000	 1.220881068573418e+000	-3.346892933636932e+000
1	 1.380824703304630e+000	 1.236194894172249e+000	-3.493372654197015e+000
1	 1.513718725704411e+000	 1.080863583231503e+000	-2.063677928370597e+000
1	 1.501764412702279e+000	 1.097412471880037e+000	-2.170547056997557e+000
1	 1.489618809178282e+000	 1.113843051012946e+000	-2.285293059412772e+000
1	 1.477283656478874e+000	 1.130152034478348e+000	-2.406993982320708e+000
1	 1.464760770605238e+000	 1.146336170053981e+000	-2.534664112021106e+000
1	 1.452052041393405e+000	 1.162392241554813e+000	-2.667255242434000e+000
1	 1.439159431623343e+000	 1.178317070917030e+000	-2.803658061065599e+000
1	 1.426084976057850e+000	 1.194107520255609e+000	-2.942703650758191e+000
1	 1.412830780412118e+000	 1.209760493892720e+000	-3.083165104760236e+000
1	 1.399399020255041e+000	 1.225272940354258e+000	-3.223759252351218e+000
1	 1.385791939843404e+000	 1.240641854331811e+000	-3.363148491960491e+000
1	 1.519144503377449e+000	 1.084737833706065e+000	-1.984098958362041e+000
1	 1.507147341302099e+000	 1.101346040237664e+000	-2.088026403892313e+000
1	 1.494958203042528e+000	 1.117835513184680e+000	-2.199471541720730e+000
1	 1.482578836186885e+000	 1.134202954616346e+000	-2.317496352853302e+000
1	 1.470011063245638e+000	 1.150445100653127e+000	-2.441096830569679e+000
1	 1.457256780828759e+000	 1.166558723581895e+000	-2.569204276419144e+000
1	 1.444317958751618e+000	 1.182540633947380e+000	-2.700686718536558e+000
1	 1.431196639070430e+000	 1.198387682617118e+000	-2.834350450077601e+000
1	 1.417894935048125e+000	 1.214096762817131e+000	-2.968941685253608e+000
1	 1.404415030051720e+000	 1.229664812135602e+000	-3.103148330133653e+000
1	 1.390759176382327e+000	 1.245088814491888e+000	-3.235601865074632e+000
1	 1.341086810997859e+000	 1.200619212896339e+000	-4.622112537042504e+000
1	 1.327753275425902e+000	 1.215348368834772e+000	-4.822602382702648e+000
1	 1.314254664028600e+000	 1.229932992248813e+000	-5.004884222806848e+000
1	 1.300593340761641e+000	 1.244370322232309e+000	-5.170523857928739e+000
1	 1.286771730854787e+000	 1.258657649759996e+000	-5.321141773135582e+000
1	 1.272792319379371e+000	 1.272792319379371e+000	-5.458410559577610e+000
1	 1.258657649759996e+000	 1.286771730854787e+000	-5.584052244431843e+000
1	 1.244370322232309e+000	 1.300593340761641e+000	-5.699835534678104e+000
1	 1.229932992248813e+000	 1.314254664028600e+000	-5.807572980403210e+000
1	 1.215348368834772e+000	 1.327753275425902e+000	-5.909118063531939e+000
1	 1.200619212896339e+000	 1.341086810997858e+000	-6.006362218066194e+000
1	 1.346054047536028e+000	 1.205066173057170e+000	-4.473325895384748e+000
1	 1.332671126029660e+000	 1.219849884152589e+000	-4.665203596722400e+000
1	 1.319122517275394e+000	 1.234488527391286e+000	-4.838702452417906e+000
1	 1.305410593984761e+000	 1.248979331641002e+000	-4.995488263584267e+000
1	 1.291537790370323e+000	 1.263319577842530e+000	-5.137285600300699e+000
1	 1.277506600707852e+000	 1.277506600707852e+000	-5.265875019804171e+000
1	 1.263319577842531e+000	 1.291537790370323e+000	-5.383090185681094e+000
1	 1.248979331641001e+000	 1.305410593984762e+000	-5.490814893986511e+000
1	 1.234488527391285e+000	 1.319122517275394e+000	-5.590980012456411e+000
1	 1.219849884152589e+000	 1.332671126029660e+000	-5.685560339196244e+000
1	 1.205066173057171e+000	 1.346054047536028e+000	-5.776571387428164e+000
1	 1.351021284074214e+000	 1.209513133217318e+000	-4.326570758911797e+000
1	 1.337588976633350e+000	 1.224351399469772e+000	-4.509985331779905e+000
1	 1.323990370522037e+000	 1.239044062533178e+000	-4.674917381044311e+000
1	 1.310227847207651e+000	 1.253588341049174e+000	-4.823120653280880e+000
1	 1.296303849885549e+000	 1.267981505924611e+000	-4.956411317082141e+000
1	 1.282220882035950e+000	 1.282220882035950e+000	-5.076664999075045e+000
1	 1.267981505924611e+000	 1.296303849885550e+000	-5.185813714337439e+000
1	 1.253588341049174e+000	 1.310227847207652e+000	-5.285842697545899e+000
1	 1.239044062533178e+000	 1.323990370522037e+000	-5.378787141441828e+000
1	 1.224351399469772e+000	 1.337588976633350e+000	-5.466728849434433e+000
1	 1.209513133217318e+000	 1.351021284074214e+000	-5.551792809373382e+000
1	 1.355988520612435e+000	 1.213960093376932e+000	-4.181932067995530e+000
1	 1.342506827237006e+000	 1.228852914786463e+000	-4.357038582901881e+000
1	 1.328858223768578e+000	 1.243599597674624e+000	-4.513622671869133e+000
1	 1.315045100430375e+000	 1.258197350456951e+000	-4.653514103823049e+000
1	 1.301069909400549e+000	 1.272643434006347e+000	-4.778608294538657e+000
1	 1.286935163363761e+000	 1.286935163363761e+000	-4.890863181573117e+000
1	 1.272643434006347e+000	 1.301069909400548e+000	-4.992295987745410e+000
1	 1.258197350456951e+000	 1.315045100430375e+000	-5.084979879855539e+000
1	 1.243599597674625e+000	 1.328858223768578e+000	-5.171040529602768e+000
1	 1.228852914786463e+000	 1.342506827237006e+000	-5.252652583910073e+000
1	 1.213960093376932e+000	 1.355988520612435e+000	-5.332036052085460e+000
1	 1.360955757150707e+000	 1.218407053536164e+000	-4.039493522941742e+000
1	 1.347424677840658e+000	 1.233354430102806e+000	-4.206453016655282e+000
1	 1.333726077015066e+000	 1.248155132815760e+000	-4.354910620662397e+000
1	 1.319862353652996e+000	 1.262806359864455e+000	-4.486760333162788e+000
1	 1.305835968915399e+000	 1.277305362087850e+000	-4.603964598977464e+000
1	 1.291649444691380e+000	 1.291649444691380e+000	-4.708551044352945e+000
1	 1.277305362087850e+000	 1.305835968915399e+000	-4.802609095206083e+000
1	 1.262806359864454e+000	 1.319862353652996e+000	-4.888286485815582e+000
1	 1.248155132815760e+000	 1.333726077015067e+000	-4.967785665247288e+000
1	 1.233354430102806e+000	 1.347424677840658e+000	-5.043360109058199e+000
1	 1.218407053536164e+000	 1.360955757150707e+000	-5.117310544058594e+000
1	 1.365922993689046e+000	 1.222854013695160e+000	-3.899337606537752e+000
1	 1.352342528444339e+000	 1.237855945418944e+000	-4.058316995302334e+000
1	 1.338593930261548e+000	 1.252710667956719e+000	-4.198872180644477e+000
1	 1.324679606875580e+000	 1.267415369271808e+000	-4.322949725107393e+000
1	 1.310602028430182e+000	 1.281967290169231e+000	-4.432567015678285e+000
1	 1.296363726018903e+000	 1.296363726018903e+000	-4.529808879289864e+000
1	 1.281967290169231e+000	 1.310602028430182e+000	-4.616824077396734e+000
1	 1.267415369271808e+000	 1.324679606875580e+000	-4.695821686902188e+000
1	 1.252710667956719e+000	 1.338593930261548e+000	-4.769067375002135e+000
1	 1.237855945418944e+000	 1.352342528444340e+000	-4.838879575780832e+000
1	 1.222854013695160e+000	 1.365922993689046e+000	-4.907625576637607e+000
1	 1.370890230227468e+000	 1.227300973854073e+000	-3.761545606110011e+000
1	 1.357260379048082e+000	 1.242357460735021e+000	-3.912717600430215e+000
1	 1.343461783508072e+000	 1.257266203097635e+000	-4.045596986808554e+000
1	 1.329496860098190e+000	 1.272024378679135e+000	-4.162171353489589e+000
1	 1.315368087944978e+000	 1.286629218250599e+000	-4.264501072101354e+000
1	 1.301078007346426e+000	 1.301078007346426e+000	-4.354715814551478e+000
1	 1.286629218250599e+000	 1.315368087944978e+000	-4.435010945368833e+000
1	 1.272024378679135e+000	 1.329496860098190e+000	-4.507643796991412e+000
1	 1.257266203097635e+000	 1.343461783508072e+000	-4.574929835800131e+000
1	 1.242357460735021e+000	 1.357260379048082e+000	-4.639238726975165e+000
1	 1.227300973854073e+000	 1.370890230227468e+000	-4.702990306502601e+000
1	 1.375857466765991e+000	 1.231747934013053e+000	-3.626197635103761e+000
1	 1.362178229651917e+000	 1.246858976051181e+000	-3.769740656069203e+000
1	 1.348329636754686e+000	 1.261821738238644e+000	-3.895173379716796e+000
1	 1.334314113320891e+000	 1.276633388086560e+000	-4.004513005814620e+000
1	 1.320134147459867e+000	 1.291291146332064e+000	-4.099851060592911e+000
1	 1.305792288674046e+000	 1.305792288674046e+000	-4.183349835604324e+000
1	 1.291291146332064e+000	 1.320134147459867e+000	-4.257238699134094e+000
1	 1.276633388086560e+000	 1.334314113320891e+000	-4.323810287839809e+000
1	 1.261821738238644e+000	 1.348329636754686e+000	-4.385416586608218e+000
1	 1.246858976051181e+000	 1.362178229651917e+000	-4.444464904898468e+000
1	 1.231747934013053e+000	 1.375857466765991e+000	-4.503413758099956e+000
1	 1.380824703304630e+000	 1.236194894172249e+000	-3.493372654197016e+000
1	 1.367096080255878e+000	 1.251360491367567e+000	-3.629470751311461e+000
1	 1.353197490001439e+000	 1.266377273379880e+000	-3.747688428782222e+000
1	 1.339131366543747e+000	 1.281242397494204e+000	-3.850061206396704e+000
1	 1.324900206974929e+000	 1.295953074413737e+000	-3.938700060600471e+000
1	 1.310506570001856e+000	 1.310506570001856e+000	-4.015787805766892e+000
1	 1.295953074413737e+000	 1.324900206974929e+000	-4.083575345849470e+000
1	 1.281242397494204e+000	 1.339131366543747e+000	-4.144377804231566e+000
1	 1.266377273379879e+000	 1.353197490001439e+000	-4.200570539902334e+000
1	 1.251360491367567e+000	 1.367096080255878e+000	-4.254585058374317e+000
1	 1.236194894172249e+000	 1.380824703304631e+000	-4.308904826020703e+000
1	 1.385791939843404e+000	 1.240641854331811e+000	-3.363148491960491e+000
1	 1.372013930859996e+000	 1.255862006684323e+000	-3.491991262443781e+000
1	 1.358065343248378e+000	 1.270932808521476e+000	-3.603227955050445e+000
1	 1.343948619766823e+000	 1.285851406902192e+000	-3.698901238997801e+000
1	 1.329666266490246e+000	 1.300615002495729e+000	-3.781129960410365e+000
1	 1.315220851329954e+000	 1.315220851329954e+000	-3.852105486320966e+000
1	 1.300615002495729e+000	 1.329666266490246e+000	-3.914087917611268e+000
1	 1.285851406902192e+000	 1.343948619766822e+000	-3.969402178799091e+000
1	 1.270932808521476e+000	 1.358065343248378e+000	-4.020433992895069e+000
1	 1.255862006684323e+000	 1.372013930859996e+000	-4.069625749843723e+000
1	 1.240641854331811e+000	 1.385791939843404e+000	-4.119472277327859e+000
1	 1.390759176382327e+000	 1.245088814491888e+000	-3.235601865074632e+000
1	 1.376931781464302e+000	 1.260363522001592e+000	-3.357384374605668e+000
1	 1.362933196495552e+000	 1.275488343663569e+000	-3.461876553492977e+000
1	 1.348765872990182e+000	 1.290460416310646e+000	-3.551117168981461e+000
1	 1.334432326005897e+000	 1.305276930578148e+000	-3.627221478419529e+000
1	 1.319935132658436e+000	 1.319935132658435e+000	-3.692377556191511e+000
1	 1.305276930578149e+000	 1.334432326005897e+000	-3.748842488867616e+000
1	 1.290460416310646e+000	 1.348765872990182e+000	-3.798938446526749e+000
1	 1.275488343663570e+000	 1.362933196495552e+000	-3.845048638523323e+000
1	 1.260363522001592e+000	 1.376931781464302e+000	-3.889613162265175e+000
1	 1.245088814491889e+000	 1.390759176382327e+000	-3.935124753833703e+000
1	 1.200619212896339e+000	 1.341086810997858e+000	-6.006362218066194e+000
1	 1.185746094326380e+000	 1.354254932090050e+000	-6.097766651984522e+000
1	 1.170734073575915e+000	 1.367253388693742e+000	-6.181782764204113e+000
1	 1.155586059003373e+000	 1.380080008951025e+000	-6.260389840699491e+000
1	 1.140305003643589e+000	 1.392732687476031e+000	-6.335608314161657e+000
1	 1.124893903309127e+000	 1.405209386483143e+000	-6.409496419457924e+000
1	 1.109355794658154e+000	 1.417508136850241e+000	-6.484146795223240e+000
1	 1.093693753231475e+000	 1.429627039115892e+000	-6.561683038832664e+000
1	 1.077910891461337e+000	 1.441564264409459e+000	-6.644256222084601e+000
1	 1.062010356654672e+000	 1.453318055313266e+000	-6.734041374982789e+000
1	 1.045995328953468e+000	 1.464886726656035e+000	-6.833233945038889e+000
1	 1.205066173057171e+000	 1.346054047536028e+000	-5.776571387428164e+000
1	 1.190137966108723e+000	 1.359270941885729e+000	-5.862600340105442e+000
1	 1.175070342501603e+000	 1.372317543328472e+000	-5.942078265202123e+000
1	 1.159866221366456e+000	 1.385191671962032e+000	-6.016886637153977e+000
1	 1.144528566675812e+000	 1.397891214602435e+000	-6.088945900112562e+000
1	 1.129060385338371e+000	 1.410414125916335e+000	-6.160212302558515e+000
1	 1.113464725259729e+000	 1.422758429488212e+000	-6.232674680752156e+000
1	 1.097744673372132e+000	 1.434922218821242e+000	-6.308351197878046e+000
1	 1.081903353635911e+000	 1.446903658270865e+000	-6.389286045816247e+000
1	 1.065943925015255e+000	 1.458700983910129e+000	-6.477546116528328e+000
1	 1.049869579431026e+000	 1.470312504326076e+000	-6.575217650081028e+000
1	 1.209513133217318e+000	 1.351021284074214e+000	-5.551792809373381e+000
1	 1.194529837890342e+000	 1.364286951681511e+000	-5.632663317027887e+000
1	 1.179406611426530e+000	 1.377381697963390e+000	-5.707737582336762e+000
1	 1.164146383728749e+000	 1.390303334973312e+000	-5.778807892065027e+000
1	 1.148752129707221e+000	 1.403049741729192e+000	-5.847703730259533e+000
1	 1.133226867366785e+000	 1.415618865349959e+000	-5.916288774339752e+000
1	 1.117573655860459e+000	 1.428008722126688e+000	-5.986457842118001e+000
1	 1.101795593511933e+000	 1.440217398527168e+000	-6.060133796254786e+000
1	 1.085895815809623e+000	 1.452243052132907e+000	-6.139264412727509e+000
1	 1.069877493374973e+000	 1.464083912507682e+000	-6.225819219945279e+000
1	 1.053743829907719e+000	 1.475738281996851e+000	-6.321786315176285e+000
1	 1.213960093376932e+000	 1.355988520612435e+000	-5.332036052085460e+000
1	 1.198921709671387e+000	 1.369302961477398e+000	-5.407946318270840e+000
1	 1.183742880350852e+000	 1.382445852598486e+000	-5.478735881239148e+000
1	 1.168426546090406e+000	 1.395414997984840e+000	-5.546116359996671e+000
1	 1.152975692737969e+000	 1.408208268856267e+000	-5.611835200143990e+000
1	 1.137393349394514e+000	 1.420823604783969e+000	-5.677672813883487e+000
1	 1.121682586460487e+000	 1.433259014765612e+000	-5.745439672439058e+000
1	 1.105846513651019e+000	 1.445512578233598e+000	-5.816973357083001e+000
1	 1.089888277982609e+000	 1.457582445995505e+000	-5.894135575036700e+000
1	 1.073811061733959e+000	 1.469466841105835e+000	-5.978809146565962e+000
1	 1.057618080383677e+000	 1.481164059668260e+000	-6.072894969625990e+000
1	 1.218407053536164e+000	 1.360955757150707e+000	-5.117310544058595e+000
1	 1.203313581452016e+000	 1.374318971273392e+000	-5.188440214606859e+000
1	 1.188079149274723e+000	 1.387510007233746e+000	-5.255048690102917e+000
1	 1.172706708451582e+000	 1.400526660996592e+000	-5.318775339267895e+000
1	 1.157199255768207e+000	 1.413366795983623e+000	-5.381294385696944e+000
1	 1.141559831421708e+000	 1.426028344218314e+000	-5.444312174336732e+000
1	 1.125791517059957e+000	 1.438509307404925e+000	-5.509564391251341e+000
1	 1.109897433789529e+000	 1.450807757940463e+000	-5.578813242602050e+000
1	 1.093880740155007e+000	 1.462921839858580e+000	-5.653844598837840e+000
1	 1.077744630092348e+000	 1.474849769704496e+000	-5.736465110148635e+000
1	 1.061492330859036e+000	 1.486589837340203e+000	-5.828499299269860e+000
1	 1.222854013695160e+000	 1.365922993689046e+000	-4.907625576637607e+000
1	 1.207705453232379e+000	 1.379334981069496e+000	-4.974136009602912e+000
1	 1.192415418198296e+000	 1.392574161869159e+000	-5.036651893091610e+000
1	 1.176986870812430e+000	 1.405638324008543e+000	-5.096748662065479e+000
1	 1.161422818798085e+000	 1.418525323111225e+000	-5.156036030867937e+000
1	 1.145726313448514e+000	 1.431233083652948e+000	-5.216155368837344e+000
1	 1.129900447659014e+000	 1.443759600044566e+000	-5.278777029482169e+000
1	 1.113948353927604e+000	 1.456102937647694e+000	-5.345597638913041e+000
1	 1.097873202326952e+000	 1.468261233722049e+000	-5.418337349302163e+000
1	 1.081678198450274e+000	 1.480232698303576e+000	-5.498737063196341e+000
1	 1.065366581333929e+000	 1.492015615012579e+000	-5.588555634548239e+000
1	 1.227300973854073e+000	 1.370890230227468e+000	-4.702990306502600e+000
1	 1.212097325012632e+000	 1.384350990865711e+000	-4.765024837214435e+000
1	 1.196751687121729e+000	 1.397638316504715e+000	-4.823521723889933e+000
1	 1.181267033173102e+000	 1.410749987020669e+000	-4.880000684772229e+000
1	 1.165646381827755e+000	 1.423683850239034e+000	-4.936015535522283e+000
1	 1.149892795475079e+000	 1.436437823087822e+000	-4.993151656745144e+000
1	 1.134009378257801e+000	 1.449009892684477e+000	-5.053023414750299e+000
1	 1.117999274065384e+000	 1.461398117355220e+000	-5.117271541052964e+000
1	 1.101865664498583e+000	 1.473600627585835e+000	-5.187560476201390e+000
1	 1.085611766807872e+000	 1.485615626902985e+000	-5.265575683572935e+000
1	 1.069240831808489e+000	 1.497441392685288e+000	-5.353020938824427e+000
1	 1.231747934013053e+000	 1.375857466765991e+000	-4.503413758099956e+000
1	 1.216489196792927e+000	 1.389367000662038e+000	-4.561097959431683e+000
1	 1.201087956045174e+000	 1.402702471140401e+000	-4.615634759394229e+000
1	 1.185547195533754e+000	 1.415861650032945e+000	-4.668496278504346e+000
1	 1.169869944857368e+000	 1.428842377367014e+000	-4.721188943601283e+000
1	 1.154059277501552e+000	 1.441642562522888e+000	-4.775251030171834e+000
1	 1.138118308856462e+000	 1.454260185324599e+000	-4.832250156984534e+000
1	 1.122050194203007e+000	 1.466693297062972e+000	-4.893780738392461e+000
1	 1.105858126670033e+000	 1.478940021449855e+000	-4.961461399744693e+000
1	 1.089545335165276e+000	 1.490998555502631e+000	-5.036932361409543e+000
1	 1.073115082282848e+000	 1.502867170358230e+000	-5.121852796959010e+000
1	 1.236194894172249e+000	 1.380824703304631e+000	-4.308904826020703e+000
1	 1.220881068573418e+000	 1.394383010458481e+000	-4.362346763976920e+000
1	 1.205424224968787e+000	 1.407766625776206e+000	-4.412967913539403e+000
1	 1.189827357894538e+000	 1.420973313045347e+000	-4.462200819853273e+000
1	 1.174093507887076e+000	 1.434000904495129e+000	-4.511512931537294e+000
1	 1.158225759528081e+000	 1.446847301958099e+000	-4.562404200801058e+000
1	 1.142227239455140e+000	 1.459510477964873e+000	-4.616404634352669e+000
1	 1.126101114340616e+000	 1.471988476770880e+000	-4.675071800348347e+000
1	 1.109850588841442e+000	 1.484279415314031e+000	-4.739988296721048e+000
1	 1.093478903522619e+000	 1.496381484102427e+000	-4.812759186293389e+000
1	 1.076989332757142e+000	 1.508292948031304e+000	-4.895009404131622e+000
1	 1.240641854331811e+000	 1.385791939843404e+000	-4.119472277327859e+000
1	 1.225272940354258e+000	 1.399399020255041e+000	-4.168762762050994e+000
1	 1.209760493892720e+000	 1.412830780412117e+000	-4.215498431258496e+000
1	 1.194107520255608e+000	 1.426084976057850e+000	-4.261080181826667e+000
1	 1.178317070917029e+000	 1.439159431623343e+000	-4.306944796918401e+000
1	 1.162392241554813e+000	 1.452052041393404e+000	-4.354562586992533e+000
1	 1.146336170053981e+000	 1.464760770605239e+000	-4.405434979493220e+000
1	 1.130152034478348e+000	 1.477283656478874e+000	-4.461092062403810e+000
1	 1.113843051012946e+000	 1.489618809178283e+000	-4.523090086939996e+000
1	 1.097412471880037e+000	 1.501764412702279e+000	-4.593008934731943e+000
1	 1.080863583231503e+000	 1.513718725704410e+000	-4.672449554902756e+000
1	 1.245088814491889e+000	 1.390759176382327e+000	-3.935124753833703e+000
1	 1.229664812135602e+000	 1.404415030051719e+000	-3.980337586128292e+000
1	 1.214096762817131e+000	 1.417894935048125e+000	-4.023203882571776e+000
1	 1.198387682617119e+000	 1.431196639070430e+000	-4.065100724983155e+000
1	 1.182540633947380e+000	 1.444317958751618e+000	-4.107442447395695e+000
1	 1.166558723581895e+000	 1.457256780828759e+000	-4.151678301162094e+000
1	 1.150445100653127e+000	 1.470011063245638e+000	-4.199290066042038e+000
1	 1.134202954616346e+000	 1.482578836186884e+000	-4.251789612427841e+000
1	 1.117835513184680e+000	 1.494958203042528e+000	-4.310716419962568e+000
1	 1.101346040237664e+000	 1.507147341302099e+000	-4.377635057886073e+000
1	 1.084737833706065e+000	 1.519144503377448e+000	-4.454132632509871e+000
1	 1.045995328953468e+000	 1.464886726656035e+000	-6.833233945038889e+000
1	 1.029869018926506e+000	 1.476268665820915e+000	-6.946947223603897e+000
1	 1.013634664469111e+000	 1.487462332141325e+000	-7.079770134142620e+000
1	 9.972955297967756e-001	 1.498466258716638e+000	-7.233134535722549e+000
1	 9.808549036971231e-001	 1.509279053342249e+000	-7.408483437051283e+000
1	 9.643160974185489e-001	 1.519899398955622e+000	-7.607268621313985e+000
1	 9.476824425522794e-001	 1.530326054011600e+000	-7.830948268069158e+000
1	 9.309572889105739e-001	 1.540557852787053e+000	-8.080984577143223e+000
1	 9.141440024037704e-001	 1.550593705615053e+000	-8.358841399414196e+000
1	 8.972459629188613e-001	 1.560432599048893e+000	-8.665981879307543e+000
1	 8.802665622022525e-001	 1.570073595956371e+000	-9.003866113748918e+000
1	 1.049869579431026e+000	 1.470312504326076e+000	-6.575217650081028e+000
1	 1.033683539343583e+000	 1.481736600928906e+000	-6.687336397178250e+000
1	 1.017389054641061e+000	 1.492971727345584e+000	-6.818487165555965e+000
1	 1.000989401629258e+000	 1.504016411242247e+000	-6.970102598579947e+000
1	 9.844878812771145e-001	 1.514869255257719e+000	-7.143627199291174e+000
1	 9.678878170975326e-001	 1.525528937451213e+000	-7.340514937192522e+000
1	 9.511925530215970e-001	 1.535994211679030e+000	-7.562226851025776e+000
1	 9.344054512689113e-001	 1.546263907900330e+000	-7.810228652534123e+000
1	 9.175298902167840e-001	 1.556336932412184e+000	-8.085988336155392e+000
1	 9.005692622709460e-001	 1.566212268014191e+000	-8.390973799528286e+000
1	 8.835269717404662e-001	 1.575888974103115e+000	-8.726650479616110e+000
1	 1.053743829907719e+000	 1.475738281996851e+000	-6.321786315176285e+000
1	 1.037498059759795e+000	 1.487204536037667e+000	-6.432139055782824e+000
1	 1.021143444812148e+000	 1.498481122550637e+000	-6.561464015293817e+000
1	 1.004683273460882e+000	 1.509566563768664e+000	-6.711191887872254e+000
1	 9.881208588562515e-001	 1.520459457174004e+000	-6.882765802829021e+000
1	 9.714595367756690e-001	 1.531158475947617e+000	-7.077638919809048e+000
1	 9.547026634900736e-001	 1.541662369347260e+000	-7.297272019070736e+000
1	 9.378536136264148e-001	 1.551969963014387e+000	-7.543131091891148e+000
1	 9.209157780289695e-001	 1.562080159210064e+000	-7.816684936083330e+000
1	 9.038925616222084e-001	 1.571991936980199e+000	-8.119402761550678e+000
1	 8.867873812778638e-001	 1.581704352250523e+000	-8.452751810725085e+000
1	 1.057618080383677e+000	 1.481164059668260e+000	-6.072894969625990e+000
1	 1.041312580175275e+000	 1.492672471147086e+000	-6.181317341084187e+000
1	 1.024897834982510e+000	 1.503990517756364e+000	-6.308668771341194e+000
1	 1.008377145291788e+000	 1.515116716295762e+000	-6.456375305966682e+000
1	 9.917538364346820e-001	 1.526049659090967e+000	-6.625875867530586e+000
1	 9.750312564531100e-001	 1.536788014444687e+000	-6.818619845598717e+000
1	 9.582127739578679e-001	 1.547330527016136e+000	-7.036064681092644e+000
1	 9.413017759832485e-001	 1.557676018129063e+000	-7.279673450070598e+000
1	 9.243016658404996e-001	 1.567823386008530e+000	-7.550912451940071e+000
1	 9.072158609728270e-001	 1.577771605946751e+000	-7.851248807053152e+000
1	 8.900477908146289e-001	 1.587519730398429e+000	-8.182148068558274e+000
1	 1.061492330859036e+000	 1.486589837340203e+000	-5.828499299269860e+000
1	 1.045127100590158e+000	 1.498140406257054e+000	-5.934833947451978e+000
1	 1.028652225152283e+000	 1.509499912962645e+000	-6.060069987574481e+000
1	 1.012071017122118e+000	 1.520666868823410e+000	-6.205626150835537e+000
1	 9.953868140125510e-001	 1.531639861008467e+000	-6.372934354594386e+000
1	 9.786029761300082e-001	 1.542417552942276e+000	-6.563437293545423e+000
1	 9.617228844251389e-001	 1.552998684685507e+000	-6.778586024696118e+000
1	 9.447499383395789e-001	 1.563382073244200e+000	-7.019837551214179e+000
1	 9.276875536515453e-001	 1.573566612807418e+000	-7.288652410163651e+000
1	 9.105391603229807e-001	 1.583551274913682e+000	-7.586492269090583e+000
1	 8.933082003509443e-001	 1.593335108546665e+000	-7.914817536344142e+000
1	 1.065366581333929e+000	 1.492015615012579e+000	-5.588555634548239e+000
1	 1.048941621004579e+000	 1.503608341367459e+000	-5.692652111909623e+000
1	 1.032406615321604e+000	 1.515009308169358e+000	-5.815636675290539e+000
1	 1.015764888952013e+000	 1.526217021351479e+000	-5.958918108863050e+000
1	 9.990197915900062e-001	 1.537230062926369e+000	-6.123918560344814e+000
1	 9.821746958065158e-001	 1.548047091440238e+000	-6.312071139680228e+000
1	 9.652329948920445e-001	 1.558666842355216e+000	-6.524817511133839e+000
1	 9.481981006955714e-001	 1.569088128359639e+000	-6.763605483852641e+000
1	 9.310734414622792e-001	 1.579309839606565e+000	-7.029886605911615e+000
1	 9.138624596728466e-001	 1.589330943880827e+000	-7.325113766796516e+000
1	 8.965686098869936e-001	 1.599150486695066e+000	-7.650738813206874e+000
1	 1.069240831808489e+000	 1.497441392685288e+000	-5.353020938824427e+000
1	 1.052756141418672e+000	 1.509076276478193e+000	-5.454735604302911e+000
1	 1.036161005490611e+000	 1.520518703376387e+000	-5.575338294919360e+000
1	 1.019458760781614e+000	 1.531767173879840e+000	-5.716225247808673e+000
1	 1.002652769167193e+000	 1.542820264844534e+000	-5.878806110161000e+000
1	 9.857464154827852e-001	 1.553676629938429e+000	-6.064501551700226e+000
1	 9.687431053587454e-001	 1.564335000025115e+000	-6.274740870349118e+000
1	 9.516462630513914e-001	 1.574794183475222e+000	-6.510959596115844e+000
1	 9.344593292728730e-001	 1.585053066405808e+000	-6.774597098192541e+000
1	 9.171857590226031e-001	 1.595110612848019e+000	-7.067094200200435e+000
1	 8.998290194229609e-001	 1.604965864843464e+000	-7.389890808443460e+000
1	 1.073115082282848e+000	 1.502867170358230e+000	-5.121852796959010e+000
1	 1.056570661832571e+000	 1.514544211589144e+000	-5.221048717681883e+000
1	 1.039915395659441e+000	 1.526028098583609e+000	-5.339144747916734e+000
1	 1.023152632611062e+000	 1.537317326408362e+000	-5.477522009922517e+000
1	 1.006285746744259e+000	 1.548410466762821e+000	-5.637574952536776e+000
1	 9.893181351589695e-001	 1.559306168436700e+000	-5.820708983703074e+000
1	 9.722532158253990e-001	 1.570003157695046e+000	-6.028338096125405e+000
1	 9.550944254072042e-001	 1.580500238590789e+000	-6.261882491046586e+000
1	 9.378452170834997e-001	 1.590796293204986e+000	-6.522766205103309e+000
1	 9.205090583724285e-001	 1.600890281815093e+000	-6.812414745156978e+000
1	 9.030894289590297e-001	 1.610781242991693e+000	-7.132252735924554e+000
1	 1.076989332757142e+000	 1.508292948031304e+000	-4.895009404131622e+000
1	 1.060385182246412e+000	 1.520012146700202e+000	-4.991556258890268e+000
1	 1.043669785828230e+000	 1.531537493790905e+000	-5.107026368831898e+000
1	 1.026846504440499e+000	 1.542867478936918e+000	-5.242783205209779e+000
1	 1.009918724321349e+000	 1.554000668681096e+000	-5.400203353269065e+000
1	 9.928898548352203e-001	 1.564935706934907e+000	-5.580674171036094e+000
1	 9.757633262921642e-001	 1.575671315364859e+000	-5.785591441340997e+000
1	 9.585425877631757e-001	 1.586206293706181e+000	-6.016357022015535e+000
1	 9.412311048943298e-001	 1.596539520003933e+000	-6.274376499168820e+000
1	 9.238323577225011e-001	 1.606669950781882e+000	-6.561056848384797e+000
1	 9.063498384953833e-001	 1.616596621139586e+000	-6.877804108616213e+000
1	 1.080863583231503e+000	 1.513718725704410e+000	-4.672449554902756e+000
1	 1.064199702660327e+000	 1.525480081811258e+000	-4.766223539357101e+000
1	 1.047424175997117e+000	 1.537046888998154e+000	-4.878953917545263e+000
1	 1.030540376270066e+000	 1.548417631465377e+000	-5.011984004839700e+000
1	 1.013551701898611e+000	 1.559590870599219e+000	-5.166669889771047e+000
1	 9.964615745116900e-001	 1.570565245432902e+000	-5.344378125255493e+000
1	 9.792734367592008e-001	 1.581339473034401e+000	-5.546483413325019e+000
1	 9.619907501194712e-001	 1.591912348821241e+000	-5.774366288235068e+000
1	 9.446169927055365e-001	 1.602282746802487e+000	-6.029410802782419e+000
1	 9.271556570729986e-001	 1.612449619748221e+000	-6.313002222612266e+000
1	 9.096102480322056e-001	 1.622411999286977e+000	-6.626524733219464e+000
1	 1.084737833706065e+000	 1.519144503377448e+000	-4.454132632509871e+000
1	 1.068014223074453e+000	 1.530948016922200e+000	-4.545016366085952e+000
1	 1.051178566166237e+000	 1.542556284205236e+000	-4.654898571673112e+000
1	 1.034234248099904e+000	 1.553967783993609e+000	-4.785099934695916e+000
1	 1.017184679476191e+000	 1.565181072517051e+000	-4.936953445507401e+000
1	 1.000033294188532e+000	 1.576194783930540e+000	-5.111802129193746e+000
1	 9.827835472266669e-001	 1.587007630703517e+000	-5.310996769314156e+000
1	 9.654389124762561e-001	 1.597618403935809e+000	-5.535893630368661e+000
1	 9.480028805172913e-001	 1.608025973600485e+000	-5.787852183743284e+000
1	 9.304789564241000e-001	 1.618229288713945e+000	-6.068232841826781e+000
1	 9.128706575696799e-001	 1.628227377433698e+000	-6.378394704924934e+000
1	 8.802665622022525e-001	 1.570073595956371e+000	-9.003866113748918e+000
1	 8.632117660604605e-001	 1.579514434436757e+000	-9.373458969581760e+000
1	 8.460824421210690e-001	 1.588755792347743e+000	-9.775476530524545e+000
1	 8.288820044598098e-001	 1.597796962967234e+000	-1.021081520554292e+001
1	 8.116138705974474e-001	 1.606637315540310e+000	-1.068033386154795e+001
1	 7.942814594428975e-001	 1.615276295033541e+000	-1.118485304681359e+001
1	 7.768881892555959e-001	 1.623713421824429e+000	-1.172515428112372e+001
1	 7.594374756294086e-001	 1.631948291327146e+000	-1.230197941312983e+001
1	 7.419327295003328e-001	 1.639980573555821e+000	-1.291603004523191e+001
1	 7.243773551801412e-001	 1.647810012626662e+000	-1.356796702613503e+001
1	 7.067747484180751e-001	 1.655436426200365e+000	-1.425841001107261e+001
1	 8.835269717404662e-001	 1.575888974103115e+000	-8.726650479616110e+000
1	 8.664090065285576e-001	 1.585364780400400e+000	-9.093880639492975e+000
1	 8.492162374763993e-001	 1.594640367274438e+000	-9.493328301754053e+000
1	 8.319520913050782e-001	 1.603715025385501e+000	-9.925973596648905e+000
1	 8.146199981934758e-001	 1.612588121642420e+000	-1.039276049378544e+001
1	 7.972233897137646e-001	 1.621259098955965e+000	-1.089459585721551e+001
1	 7.797656967862306e-001	 1.629727475927164e+000	-1.143234856733250e+001
1	 7.622503476557205e-001	 1.637992846471639e+000	-1.200684871040336e+001
1	 7.446807658919559e-001	 1.646054879381276e+000	-1.261888683639129e+001
1	 7.270603684159014e-001	 1.653913317824509e+000	-1.326921328555202e+001
1	 7.093925635542742e-001	 1.661567978786661e+000	-1.395853758411911e+001
1	 8.867873812778638e-001	 1.581704352250523e+000	-8.452751810725086e+000
1	 8.696062469958423e-001	 1.591215126364653e+000	-8.817494743910993e+000
1	 8.523500328309214e-001	 1.600524942201680e+000	-9.214246610694499e+000
1	 8.350221781495452e-001	 1.609633087804250e+000	-9.644067866383526e+000
1	 8.176261257887098e-001	 1.618538927744937e+000	-1.010798421412629e+001
1	 8.001653199838463e-001	 1.627241902878722e+000	-1.060698549657406e+001
1	 7.826432043160947e-001	 1.635741530030153e+000	-1.114202465431819e+001
1	 7.650632196812786e-001	 1.644037401616305e+000	-1.171401675226363e+001
1	 7.474288022828487e-001	 1.652129185206822e+000	-1.232383807492735e+001
1	 7.297433816509610e-001	 1.660016623022366e+000	-1.297232529146917e+001
1	 7.120103786898093e-001	 1.667699531372885e+000	-1.366027469108812e+001
1	 8.900477908146289e-001	 1.587519730398429e+000	-8.182148068558274e+000
1	 8.728034874625038e-001	 1.597065472329349e+000	-8.544276694233094e+000
1	 8.554838281848283e-001	 1.606409517129309e+000	-8.938204244952411e+000
1	 8.380922649934033e-001	 1.615551150223324e+000	-9.365068141614959e+000
1	 8.206322533833427e-001	 1.624489733847713e+000	-9.825972488376111e+000
1	 8.031072502533373e-001	 1.633224706801671e+000	-1.032198680576028e+001
1	 7.855207118453781e-001	 1.641755584133266e+000	-1.085414483039368e+001
1	 7.678760917062713e-001	 1.650081956761025e+000	-1.142344338285177e+001
1	 7.501768386731937e-001	 1.658203491032357e+000	-1.203084130493408e+001
1	 7.324263948854953e-001	 1.666119928220147e+000	-1.267725846749306e+001
1	 7.146281938248470e-001	 1.673831083958972e+000	-1.336357484976023e+001
1	 8.933082003509443e-001	 1.593335108546665e+000	-7.914817536344141e+000
1	 8.760007279287294e-001	 1.602915818294325e+000	-8.274202260832146e+000
1	 8.586176235383102e-001	 1.612294092057161e+000	-8.665174389415061e+000
1	 8.411623518368468e-001	 1.621469212642563e+000	-9.088944985336694e+000
1	 8.236383809775706e-001	 1.630440539950599e+000	-9.546693257315299e+000
1	 8.060491805224308e-001	 1.639207510724670e+000	-1.003956513894248e+001
1	 7.883982193742737e-001	 1.647769638236373e+000	-1.056867193443478e+001
1	 7.706889637308856e-001	 1.656126511905686e+000	-1.113508903255450e+001
1	 7.529248750631739e-001	 1.664277796857779e+000	-1.173985469032970e+001
1	 7.351094081196791e-001	 1.672223233417767e+000	-1.238396888801271e+001
1	 7.172460089595523e-001	 1.679962636544857e+000	-1.306839225652208e+001
1	 8.965686098869936e-001	 1.599150486695066e+000	-7.650738813206874e+000
1	 8.791979683947069e-001	 1.608766164259413e+000	-8.007247566529237e+000
1	 8.617514188915589e-001	 1.618178666985074e+000	-8.395130619026743e+000
1	 8.442324386800686e-001	 1.627387275061812e+000	-8.815669388738103e+000
1	 8.266445085715856e-001	 1.636391346053441e+000	-9.270114928063260e+000
1	 8.089911107913201e-001	 1.645190314647578e+000	-9.759686354253205e+000
1	 7.912757269029727e-001	 1.653783692339343e+000	-1.028556934586934e+001
1	 7.735018357553106e-001	 1.662171067050169e+000	-1.084891470734503e+001
1	 7.556729114529706e-001	 1.670352102682987e+000	-1.145083700358771e+001
1	 7.377924213536878e-001	 1.678326538615143e+000	-1.209241326636639e+001
1	 7.198638240940923e-001	 1.686094189130473e+000	-1.277468177402757e+001
1	 8.998290194229609e-001	 1.604965864843464e+000	-7.389890808443460e+000
1	 8.823952088606245e-001	 1.614616510224449e+000	-7.743389080208285e+000
1	 8.648852142447659e-001	 1.624063241912885e+000	-8.128046891722295e+000
1	 8.473025255232624e-001	 1.633305337480912e+000	-8.545212763446576e+000
1	 8.296506361655831e-001	 1.642342152156092e+000	-8.996206365629506e+000
1	 8.119330410601997e-001	 1.651173118570255e+000	-9.482316804658540e+000
1	 7.941532344316662e-001	 1.659797746442048e+000	-1.000480097488393e+001
1	 7.763147077797333e-001	 1.668215622194357e+000	-1.056488197835516e+001
1	 7.584209478427668e-001	 1.676426408507879e+000	-1.116374761471121e+001
1	 7.404754345876963e-001	 1.684429843812191e+000	-1.180254894326629e+001
1	 7.224816392286320e-001	 1.692225741715756e+000	-1.248239891912705e+001
1	 9.030894289590297e-001	 1.610781242991693e+000	-7.132252735924554e+000
1	 8.855924493266706e-001	 1.620466856189266e+000	-7.482603610569560e+000
1	 8.680190095981221e-001	 1.629947816840433e+000	-7.863897541513675e+000
1	 8.503726123666219e-001	 1.639223399899708e+000	-8.277546933938059e+000
1	 8.326567637597575e-001	 1.648292958258401e+000	-8.724936884648335e+000
1	 8.148749713292621e-001	 1.657155922492560e+000	-9.207423329026403e+000
1	 7.970307419605464e-001	 1.665811800544357e+000	-9.726331252843316e+000
1	 7.791275798043416e-001	 1.674260177338135e+000	-1.028295297167312e+001
1	 7.611689842327447e-001	 1.682500714332355e+000	-1.087854648044629e+001
1	 7.431584478218802e-001	 1.690533149008824e+000	-1.151433387547303e+001
1	 7.250994543633376e-001	 1.698357294300641e+000	-1.219149985105822e+001
1	 9.063498384953833e-001	 1.616596621139586e+000	-6.877804108616213e+000
1	 8.887896897930325e-001	 1.626317202153701e+000	-7.224868300016643e+000
1	 8.711528049518191e-001	 1.635832391767555e+000	-7.602657271725423e+000
1	 8.534426992103396e-001	 1.645141462318039e+000	-8.012644130111314e+000
1	 8.356628913543031e-001	 1.654243764360218e+000	-8.456276241291167e+000
1	 8.178169015987024e-001	 1.663138726414351e+000	-8.934973243386072e+000
1	 7.999082494898043e-001	 1.671825854646140e+000	-9.450125122915686e+000
1	 7.819404518293236e-001	 1.680304732481384e+000	-1.000309035836195e+001
1	 7.639170206230865e-001	 1.688575020156310e+000	-1.059519413372938e+001
1	 7.458414610564141e-001	 1.696636454204960e+000	-1.122772662471546e+001
1	 7.277172694983755e-001	 1.704488846885063e+000	-1.190194135989187e+001
1	 9.096102480322056e-001	 1.622411999286977e+000	-6.626524733219464e+000
1	 8.919869302598991e-001	 1.632167548117587e+000	-6.970160618676883e+000
1	 8.742866003060481e-001	 1.641716966694088e+000	-7.344301148375761e+000
1	 8.565127860546103e-001	 1.651059524735752e+000	-7.750476980022073e+000
1	 8.386690189494137e-001	 1.660194570461393e+000	-8.190194625353980e+000
1	 8.207588318687134e-001	 1.669121530335487e+000	-8.664934332376999e+000
1	 8.027857570196315e-001	 1.677839908747267e+000	-9.176148030900519e+000
1	 7.847533238548664e-001	 1.686349287623988e+000	-9.725257344692460e+000
1	 7.666650570139753e-001	 1.694649325979646e+000	-1.031365167336008e+001
1	 7.485244742914735e-001	 1.702739759400515e+000	-1.094268634684805e+001
1	 7.303350846339108e-001	 1.710620399468956e+000	-1.161368085522582e+001
1	 9.128706575696799e-001	 1.628227377433698e+000	-6.378394704924934e+000
1	 8.951841707274577e-001	 1.638017894080757e+000	-6.718458358548021e+000
1	 8.774203956610007e-001	 1.647601541619870e+000	-7.088804593699786e+000
1	 8.595828728996265e-001	 1.656977587152687e+000	-7.491018502772304e+000
1	 8.416751465452838e-001	 1.666145376561775e+000	-7.926662652512905e+000
1	 8.237007621394887e-001	 1.675104334255827e+000	-8.397274840880129e+000
1	 8.056632645502202e-001	 1.683853962847609e+000	-8.904365916252482e+000
1	 7.875661958811588e-001	 1.692393842765832e+000	-9.449417662585304e+000
1	 7.694130934055927e-001	 1.700723631802261e+000	-1.003388075389618e+001
1	 7.512074875272330e-001	 1.708843064595402e+000	-1.065917278124143e+001
1	 7.329528997701102e-001	 1.716751952052255e+000	-1.132667635512163e+001
1	 7.067747484180751e-001	 1.655436426200365e+000	-1.425841001107262e+001
1	 6.891256442832350e-001	 1.662860803443096e+000	-1.499992910020892e+001
1	 6.714360551276295e-001	 1.670081948955455e+000	-1.580015060614631e+001
1	 6.537093420170530e-001	 1.677099898436262e+000	-1.665251555158237e+001
1	 6.359488499721071e-001	 1.683914758373383e+000	-1.755040527791816e+001
1	 6.181579061972000e-001	 1.690526705208835e+000	-1.848715228232401e+001
1	 6.003398183485179e-001	 1.696935984454056e+000	-1.945605094571805e+001
1	 5.824978728424627e-001	 1.703142909757176e+000	-2.045036813278483e+001
1	 5.646353332059645e-001	 1.709147861924183e+000	-2.146335364587239e+001
1	 5.467554384699780e-001	 1.714951287895949e+000	-2.248825051534581e+001
1	 5.288614016073797e-001	 1.720553699683057e+000	-2.351830510975359e+001
1	 7.093925635542742e-001	 1.661567978786661e+000	-1.395853758411911e+001
1	 6.916780890987874e-001	 1.669019855097652e+000	-1.469916734766463e+001
1	 6.739229796705322e-001	 1.676267746930466e+000	-1.549841939227913e+001
1	 6.561306087843143e-001	 1.683311690116159e+000	-1.634975306995179e+001
1	 6.383043338503188e-001	 1.690151791537025e+000	-1.724656697144987e+001
1	 6.204474943965466e-001	 1.696788228288618e+000	-1.818220979974119e+001
1	 6.025634103303735e-001	 1.703221246791734e+000	-1.914999113521214e+001
1	 5.846553802407206e-001	 1.709451161856229e+000	-2.014319207370436e+001
1	 5.667266797422573e-001	 1.715478355698570e+000	-2.115507571909733e+001
1	 5.487805598629469e-001	 1.721303276915057e+000	-2.217889751291021e+001
1	 5.308202454761591e-001	 1.726926439412715e+000	-2.320791538417273e+001
1	 7.120103786898093e-001	 1.667699531372885e+000	-1.366027469108812e+001
1	 6.942305339137207e-001	 1.675178906752059e+000	-1.439972191324479e+001
1	 6.764099042128660e-001	 1.682453544905252e+000	-1.519766960679338e+001
1	 6.585518755510623e-001	 1.689523481795759e+000	-1.604759951678041e+001
1	 6.406598177280756e-001	 1.696388824700307e+000	-1.694293156689140e+001
1	 6.227370825954987e-001	 1.703049751367984e+000	-1.787703476215269e+001
1	 6.047870023118943e-001	 1.709506509128947e+000	-1.884323798442551e+001
1	 5.868128876387017e-001	 1.715759413954782e+000	-1.983484066161743e+001
1	 5.688180262783273e-001	 1.721808849472432e+000	-2.084512329223913e+001
1	 5.508056812557428e-001	 1.727655265933628e+000	-2.186735780768793e+001
1	 5.327790893448081e-001	 1.733299179141840e+000	-2.289481775541102e+001
1	 7.146281938248470e-001	 1.673831083958972e+000	-1.336357484976023e+001
1	 6.967829787281894e-001	 1.681337958406270e+000	-1.410154478588599e+001
1	 6.788968287547734e-001	 1.688639342879789e+000	-1.489785219764199e+001
1	 6.609731423174254e-001	 1.695735273475064e+000	-1.574600524371283e+001
1	 6.430153016054910e-001	 1.702625857863253e+000	-1.663944922103464e+001
1	 6.250266707941541e-001	 1.709311274446982e+000	-1.757157748974396e+001
1	 6.070105942931632e-001	 1.715791771465766e+000	-1.853574229202544e+001
1	 5.889703950364740e-001	 1.722067666052925e+000	-1.952526544569265e+001
1	 5.709093728142300e-001	 1.728139343245877e+000	-2.053344889405184e+001
1	 5.528308026484086e-001	 1.734007254951787e+000	-2.155358509433708e+001
1	 5.347379332133595e-001	 1.739671918870567e+000	-2.257896722779305e+001
1	 7.172460089595523e-001	 1.679962636544857e+000	-1.306839225652208e+001
1	 6.993354235423483e-001	 1.687497010060242e+000	-1.380458865545091e+001
1	 6.813837532963969e-001	 1.694825140854057e+000	-1.459891882890188e+001
1	 6.633944090835321e-001	 1.701947065154074e+000	-1.544492132722308e+001
1	 6.453707854826792e-001	 1.708862891025889e+000	-1.633607081834558e+001
1	 6.273162589926119e-001	 1.715572797525657e+000	-1.726578902799021e+001
1	 6.092341862742645e-001	 1.722077033802260e+000	-1.822745557498265e+001
1	 5.911279024341078e-001	 1.728375918150746e+000	-1.921441868244568e+001
1	 5.730007193500214e-001	 1.734469837019012e+000	-2.022000574633505e+001
1	 5.548559240409877e-001	 1.740359243969655e+000	-2.123753374354085e+001
1	 5.366967770818458e-001	 1.746044658599031e+000	-2.226031946254776e+001
1	 7.198638240940923e-001	 1.686094189130473e+000	-1.277468177402757e+001
1	 7.018878683563526e-001	 1.693656061713931e+000	-1.350880689998378e+001
1	 6.838706778378775e-001	 1.701010938828034e+000	-1.430082186775297e+001
1	 6.658156758495102e-001	 1.708158856832794e+000	-1.514429955543539e+001
1	 6.477262693597536e-001	 1.715099924188238e+000	-1.603274795773394e+001
1	 6.296058471909712e-001	 1.721834320604060e+000	-1.695962113446706e+001
1	 6.114577782552817e-001	 1.728362296138498e+000	-1.791833005551071e+001
1	 5.932854098316726e-001	 1.734684170248338e+000	-1.890225332287703e+001
1	 5.750920658857573e-001	 1.740800330791946e+000	-1.990474775133249e+001
1	 5.568810454335235e-001	 1.746711232987356e+000	-2.091915878971319e+001
1	 5.386556209502997e-001	 1.752417398327365e+000	-2.193883076586393e+001
1	 7.224816392286320e-001	 1.692225741715756e+000	-1.248239891912705e+001
1	 7.044403131703568e-001	 1.699815113367292e+000	-1.321415357324221e+001
1	 6.863576023793586e-001	 1.707196736801698e+000	-1.400351437173934e+001
1	 6.682369426154885e-001	 1.714370648511223e+000	-1.484409241523100e+001
1	 6.500817532368282e-001	 1.721336957350326e+000	-1.572943293960869e+001
1	 6.318954353893304e-001	 1.728095843682236e+000	-1.665302626595039e+001
1	 6.136813702362994e-001	 1.734647558474552e+000	-1.760831864828872e+001
1	 5.954429172292370e-001	 1.740992422345786e+000	-1.858872299989058e+001
1	 5.771834124214930e-001	 1.747130824564785e+000	-1.958762947940483e+001
1	 5.589061668260594e-001	 1.753063222005010e+000	-2.059841591897687e+001
1	 5.406144648187535e-001	 1.758790138055704e+000	-2.161445807720535e+001
1	 7.250994543633376e-001	 1.698357294300641e+000	-1.219149985105822e+001
1	 7.069927579845159e-001	 1.705974165020281e+000	-1.292058339250012e+001
1	 6.888445269209820e-001	 1.713382534775026e+000	-1.370695007630775e+001
1	 6.706582093815950e-001	 1.720582440189363e+000	-1.454425307963494e+001
1	 6.524372371140166e-001	 1.727573990512178e+000	-1.542607875321523e+001
1	 6.341850235877884e-001	 1.734357366760234e+000	-1.634595756579493e+001
1	 6.159049622174005e-001	 1.740932820810489e+000	-1.729737494796221e+001
1	 5.976004246268710e-001	 1.747300674443183e+000	-1.827378201598453e+001
1	 5.792747589572844e-001	 1.753461318337636e+000	-1.926860615696821e+001
1	 5.609312882186387e-001	 1.759415211022741e+000	-2.027526145739768e+001
1	 5.425733086872400e-001	 1.765162877784180e+000	-2.128715895787991e+001
1	 7.277172694983755e-001	 1.704488846885063e+000	-1.190194135989187e+001
1	 7.095452027989849e-001	 1.712133216672855e+000	-1.262805172661310e+001
1	 6.913314514628894e-001	 1.719568332747999e+000	-1.341108338261456e+001
1	 6.730794761479583e-001	 1.726794231867214e+000	-1.424473539547446e+001
1	 6.547927209914322e-001	 1.733811023673818e+000	-1.512263906424584e+001
1	 6.364746117864439e-001	 1.740618889838102e+000	-1.603836885158422e+001
1	 6.181285541986700e-001	 1.747218083146380e+000	-1.698545321691207e+001
1	 5.997579320246437e-001	 1.753608926540618e+000	-1.795738533120694e+001
1	 5.813661054931871e-001	 1.759791812110608e+000	-1.894763365469542e+001
1	 5.629564096113042e-001	 1.765767200040672e+000	-1.994965235947430e+001
1	 5.445321525557914e-001	 1.771535617512930e+000	-2.095689157985429e+001
1	 7.303350846339108e-001	 1.710620399468956e+000	-1.161368085522582e+001
1	 7.120976476139183e-001	 1.718292268324968e+000	-1.233651458434084e+001
1	 6.938183760052235e-001	 1.725754130720593e+000	-1.311586934559466e+001
1	 6.755007429147064e-001	 1.733006023544780e+000	-1.394549387130319e+001
1	 6.571482048691891e-001	 1.740048056835272e+000	-1.481906820271670e+001
1	 6.387641999853959e-001	 1.746880412915887e+000	-1.573021460304807e+001
1	 6.203521461801904e-001	 1.753503345482293e+000	-1.667250837328789e+001
1	 6.019154394226245e-001	 1.759917178638180e+000	-1.763948855137251e+001
1	 5.834574520292573e-001	 1.766122305883808e+000	-1.862466847596876e+001
1	 5.649815310041002e-001	 1.772119189058925e+000	-1.962154619687609e+001
1	 5.464909964244404e-001	 1.777908357242085e+000	-2.062361471481043e+001
1	 7.329528997701102e-001	 1.716751952052255e+000	-1.132667635512163e+001
1	 7.146500924294713e-001	 1.724451319976578e+000	-1.204592860291946e+001
1	 6.963053005481267e-001	 1.731939928692788e+000	-1.282126366228625e+001
1	 6.779220096819681e-001	 1.739217815222061e+000	-1.364648366558419e+001
1	 6.595036887474008e-001	 1.746285089996563e+000	-1.451532115110328e+001
1	 6.410537881847429e-001	 1.753141935993637e+000	-1.542144995023709e+001
1	 6.225757381620465e-001	 1.759788607818298e+000	-1.635849597929724e+001
1	 6.040729468208826e-001	 1.766225430735958e+000	-1.732004791652873e+001
1	 5.855487985655503e-001	 1.772452799657344e+000	-1.829966774558107e+001
1	 5.670066523970694e-001	 1.778471178077622e+000	-1.929090114742073e+001
1	 5.484498402932199e-001	 1.784281096971782e+000	-2.028728772343455e+001
1	 5.288614016073797e-001	 1.720553699683057e+000	-2.351830510975359e+001
1	 5.109564077608105e-001	 1.725955672830829e+000	-2.454604004446437e+001
1	 4.930436120318122e-001	 1.731157843990140e+000	-2.556599150092301e+001
1	 4.751261388703033e-001	 1.736160911033619e+000	-2.657444944056239e+001
1	 4.572070809622256e-001	 1.740965632275259e+000	-2.756772738208398e+001
1	 4.392894979040813e-001	 1.745572825227723e+000	-2.854216712012444e+001
1	 4.213764149270760e-001	 1.749983365329664e+000	-2.949414330724037e+001
1	 4.034708216714287e-001	 1.754198184645169e+000	-3.042006789366018e+001
1	 3.855756710113190e-001	 1.758218270537386e+000	-3.131639441972392e+001
1	 3.676938779308517e-001	 1.762044664318403e+000	-3.217962215639507e+001
1	 3.498283184513297e-001	 1.765678459877450e+000	-3.300630008969816e+001
1	 5.308202454761591e-001	 1.726926439412715e+000	-2.320791538417273e+001
1	 5.128489335219464e-001	 1.732348420868630e+000	-2.423473656807993e+001
1	 4.948697907879952e-001	 1.737569860291762e+000	-2.525394448700002e+001
1	 4.768859532968365e-001	 1.742591458139576e+000	-2.626178347724177e+001
1	 4.589005251893766e-001	 1.747413975534780e+000	-2.725452085048914e+001
1	 4.409165773945198e-001	 1.752038233018001e+000	-2.822845172252880e+001
1	 4.229371463485911e-001	 1.756465109270422e+000	-2.917990370353775e+001
1	 4.049652327651024e-001	 1.760695539808388e+000	-3.010524144420541e+001
1	 3.870038004553492e-001	 1.764730515652127e+000	-3.100087103244484e+001
1	 3.690557752002124e-001	 1.768571081970627e+000	-3.186324423591661e+001
1	 3.511240436734558e-001	 1.772218336704760e+000	-3.268886258607375e+001
1	 5.327790893448081e-001	 1.733299179141840e+000	-2.289481775541102e+001
1	 5.147414592829877e-001	 1.738741168905919e+000	-2.392019621246878e+001
1	 4.966959695441108e-001	 1.743981876592904e+000	-2.493812316711764e+001
1	 4.786457677233223e-001	 1.749022005245103e+000	-2.594479852492208e+001
1	 4.605939694164905e-001	 1.753862318793922e+000	-2.693644458569895e+001
1	 4.425436568849251e-001	 1.758503640807968e+000	-2.790931098093358e+001
1	 4.244978777700678e-001	 1.762946853210943e+000	-2.885967947102406e+001
1	 4.064596438587249e-001	 1.767192894971447e+000	-2.978386859645812e+001
1	 3.884319298993076e-001	 1.771242760766789e+000	-3.067823817750679e+001
1	 3.704176724694722e-001	 1.775097499622856e+000	-3.153919365750646e+001
1	 3.524197688954444e-001	 1.778758213532161e+000	-3.236319028528816e+001
1	 5.347379332133595e-001	 1.739671918870567e+000	-2.257896722779305e+001
1	 5.166339850439580e-001	 1.745133916942836e+000	-2.360237543453451e+001
1	 4.985221483001757e-001	 1.750393892893712e+000	-2.461848561359397e+001
1	 4.804055821497716e-001	 1.755452552350340e+000	-2.562345442292703e+001
1	 4.622874136435771e-001	 1.760310662052832e+000	-2.661346033436555e+001
1	 4.441707363753049e-001	 1.764969048597763e+000	-2.758470867835820e+001
1	 4.260586091915158e-001	 1.769428597151354e+000	-2.853343654683878e+001
1	 4.079540549523092e-001	 1.773690250134467e+000	-2.945591754815072e+001
1	 3.898600593432121e-001	 1.777755005881483e+000	-3.034846640844592e+001
1	 3.717795697386564e-001	 1.781623917275190e+000	-3.120744341448088e+001
1	 3.537154941173296e-001	 1.785298090359737e+000	-3.202925869321899e+001
1	 5.366967770818458e-001	 1.746044658599031e+000	-2.226031946254776e+001
1	 5.185265108048808e-001	 1.751526664979524e+000	-2.328123132687823e+001
1	 5.003483270562070e-001	 1.756805909194333e+000	-2.429499051086084e+001
1	 4.821653965761968e-001	 1.761883099455437e+000	-2.529771159689803e+001
1	 4.639808578706451e-001	 1.766759005311653e+000	-2.628553040161272e+001
1	 4.457978158656681e-001	 1.771434456387523e+000	-2.725460912656389e+001
1	 4.276193406129448e-001	 1.775910341091791e+000	-2.820114136541447e+001
1	 4.094484660458677e-001	 1.780187605297570e+000	-2.912135696130558e+001
1	 3.912881887870805e-001	 1.784267250996319e+000	-3.001152670869569e+001
1	 3.731414670077904e-001	 1.788150334927723e+000	-3.086796689443570e+001
1	 3.550112193391459e-001	 1.791837967187569e+000	-3.168704367334151e+001
1	 5.386556209502997e-001	 1.752417398327365e+000	-2.193883076586393e+001
1	 5.204190365657798e-001	 1.757919413016124e+000	-2.295672160624085e+001
1	 5.021745058122215e-001	 1.763217925494912e+000	-2.396759714433427e+001
1	 4.839252110026102e-001	 1.768313646560540e+000	-2.496753104813171e+001
1	 4.656743020977039e-001	 1.773207348570528e+000	-2.595261764088044e+001
1	 4.474248953560228e-001	 1.777899864177388e+000	-2.691897715644046e+001
1	 4.291800720343642e-001	 1.782392085032381e+000	-2.786276084943559e+001
1	 4.109428771394136e-001	 1.786684960460876e+000	-2.878015595379340e+001
1	 3.927163182309312e-001	 1.790779496111406e+000	-2.966739048377049e+001
1	 3.745033642768990e-001	 1.794676752580552e+000	-3.052073787207564e+001
1	 3.563069445609279e-001	 1.798377844015737e+000	-3.133652144022490e+001
1	 5.406144648187535e-001	 1.758790138055704e+000	-2.161445807720535e+001
1	 5.223115623266789e-001	 1.764312161052779e+000	-2.262880460219399e+001
1	 5.040006845682359e-001	 1.769629941795594e+000	-2.363626538952634e+001
1	 4.856850254290233e-001	 1.774744193665795e+000	-2.463287434315211e+001
1	 4.673677463247629e-001	 1.779655691829604e+000	-2.561468544399269e+001
1	 4.490519748463777e-001	 1.784365271967498e+000	-2.657777810860038e+001
1	 4.307408034557834e-001	 1.788873828973259e+000	-2.751826240099159e+001
1	 4.124372882329595e-001	 1.793182315624507e+000	-2.843228409107574e+001
1	 3.941444476747816e-001	 1.797291741226853e+000	-2.931602955361819e+001
1	 3.758652615460078e-001	 1.801203170233773e+000	-3.016573050220129e+001
1	 3.576026697827099e-001	 1.804917720844325e+000	-3.097766855317296e+001
1	 5.425733086872400e-001	 1.765162877784180e+000	-2.128715895787991e+001
1	 5.242040880876014e-001	 1.770704909089630e+000	-2.229743924607874e+001
1	 5.058268633242670e-001	 1.776041958096526e+000	-2.330095570139333e+001
1	 4.874448398554488e-001	 1.781174740771349e+000	-2.429370360350750e+001
1	 4.690611905518310e-001	 1.786104035089022e+000	-2.527169773143746e+001
1	 4.506790543367408e-001	 1.790830679757990e+000	-2.623097782417811e+001
1	 4.323015348772123e-001	 1.795355572914553e+000	-2.716761389292414e+001
1	 4.139316993265182e-001	 1.799679670788585e+000	-2.807771137812378e+001
1	 3.955725771186502e-001	 1.803803986342771e+000	-2.895741614514047e+001
1	 3.772271588151415e-001	 1.807729587887482e+000	-2.980291931284847e+001
1	 3.588983950045264e-001	 1.811457597673414e+000	-3.061046191000053e+001
1	 5.445321525557914e-001	 1.771535617512930e+000	-2.095689157985429e+001
1	 5.260966138485715e-001	 1.777097657126819e+000	-2.196258506018140e+001
1	 5.076530420803319e-001	 1.782453974397854e+000	-2.296162910391299e+001
1	 4.892046542818982e-001	 1.787605287877348e+000	-2.394998149578692e+001
1	 4.707546347789175e-001	 1.792552378348927e+000	-2.492361894285904e+001
1	 4.523061338271208e-001	 1.797296087549003e+000	-2.587854263582754e+001
1	 4.338622662986603e-001	 1.801837316856396e+000	-2.681078366035989e+001
1	 4.154261104201024e-001	 1.806177025953231e+000	-2.771640825151324e+001
1	 3.970007065625546e-001	 1.810316231459269e+000	-2.859152288487157e+001
1	 3.785890560843259e-001	 1.814256005541777e+000	-2.943227919857515e+001
1	 3.601941202264115e-001	 1.817997474503085e+000	-3.023487874094518e+001
1	 5.464909964244404e-001	 1.777908357242085e+000	-2.062361471481043e+001
1	 5.279891396096128e-001	 1.783490405164487e+000	-2.162420214714313e+001
1	 5.094792208364476e-001	 1.788865990699722e+000	-2.261824717988724e+001
1	 4.909644687083836e-001	 1.794035834983939e+000	-2.360167122185209e+001
1	 4.724480790060316e-001	 1.799000721609464e+000	-2.457041402775271e+001
1	 4.539332133175257e-001	 1.803761495340678e+000	-2.552043935891285e+001
1	 4.354229977201372e-001	 1.808319060798918e+000	-2.644774049242488e+001
1	 4.169205215137250e-001	 1.812674381118566e+000	-2.734834557169063e+001
1	 3.984288360065130e-001	 1.816828476576456e+000	-2.821832279181722e+001
1	 3.799509533535858e-001	 1.820782423196752e+000	-2.905378541389149e+001
1	 3.614898454484001e-001	 1.824537351333421e+000	-2.985089660270879e+001
1	 5.484498402932199e-001	 1.784281096971782e+000	-2.028728772343455e+001
1	 5.298816653707491e-001	 1.789883153202778e+000	-2.128225117959519e+001
1	 5.113053995926307e-001	 1.795278007002279e+000	-2.227077206096236e+001
1	 4.927242831349172e-001	 1.800466382091268e+000	-2.324873650927912e+001
1	 4.741415232331826e-001	 1.805449064870776e+000	-2.421204843636055e+001
1	 4.555602928079645e-001	 1.810226903133151e+000	-2.515663528288802e+001
1	 4.369837291416522e-001	 1.814800804742252e+000	-2.607845362413692e+001
1	 4.184149326073985e-001	 1.819171736284711e+000	-2.697349461540262e+001
1	 3.998569654505434e-001	 1.823340721694442e+000	-2.783778927044497e+001
1	 3.813128506229466e-001	 1.827308840852505e+000	-2.866741356683330e+001
1	 3.627855706705263e-001	 1.831077228164503e+000	-2.945849337262858e+001
1	 3.498283184513297e-001	 1.765678459877450e+000	-3.300630008969816e+001
1	 3.319845031960278e-001	 1.769120300513190e+000	-3.379057588750906e+001
1	 3.141625416185881e-001	 1.772371941244703e+000	-3.452640576087152e+001
1	 2.963651817152860e-001	 1.775434626186778e+000	-3.520978207199001e+001
1	 2.785951288624198e-001	 1.778309646314946e+000	-3.583677314772396e+001
1	 2.608550450026426e-001	 1.780998338017287e+000	-3.640352768906393e+001
1	 2.431475478824362e-001	 1.783502081636492e+000	-3.690627895413949e+001
1	 2.254752103404711e-001	 1.785822300004091e+000	-3.734134871285793e+001
1	 2.078405596465077e-001	 1.787960456968690e+000	-3.770515097185282e+001
1	 1.902460768904307e-001	 1.789918055920011e+000	-3.799419546896989e+001
1	 1.726941964209537e-001	 1.791696638310540e+000	-3.820509093706500e+001
1	 3.511240436734558e-001	 1.772218336704760e+000	-3.268886258607375e+001
1	 3.332141369090890e-001	 1.775672925535893e+000	-3.347183545563171e+001
1	 3.153261647661564e-001	 1.778936609983506e+000	-3.420615699672892e+001
1	 2.974628854192032e-001	 1.782010638770450e+000	-3.488788677522941e+001
1	 2.796270142649395e-001	 1.784896307653890e+000	-3.551315983376504e+001
1	 2.618212231055554e-001	 1.787594957971737e+000	-3.607819102879316e+001
1	 2.440481393833732e-001	 1.790107975179323e+000	-3.657927914371173e+001
1	 2.263103454665696e-001	 1.792436787378191e+000	-3.701281077619458e+001
1	 2.086103779856294e-001	 1.794582863838879e+000	-3.737526399846621e+001
1	 1.909507272201167e-001	 1.796547713519502e+000	-3.766321178979572e+001
1	 1.733338365353001e-001	 1.798332883581914e+000	-3.787332524101308e+001
1	 3.524197688954444e-001	 1.778758213532161e+000	-3.236319028528816e+001
1	 3.344437706219684e-001	 1.782225550558773e+000	-3.314430474439114e+001
1	 3.164897879134932e-001	 1.785501278722566e+000	-3.387657748824025e+001
1	 2.985605891228380e-001	 1.788586651354454e+000	-3.455614076315207e+001
1	 2.806588996671267e-001	 1.791482968993232e+000	-3.517920170125462e+001
1	 2.627874012080904e-001	 1.794191577926644e+000	-3.574204657828044e+001
1	 2.449487308838938e-001	 1.796713868722657e+000	-3.624104485029841e+001
1	 2.271454805922235e-001	 1.799051274752824e+000	-3.667265296760069e+001
1	 2.093801963242912e-001	 1.801205270709615e+000	-3.703341796452471e+001
1	 1.916553775493431e-001	 1.803177371119533e+000	-3.731998082452549e+001
1	 1.739734766492058e-001	 1.804969128853802e+000	-3.752907962034198e+001
1	 3.537154941173296e-001	 1.785298090359737e+000	-3.202925869321899e+001
1	 3.356734043347111e-001	 1.788778175581896e+000	-3.280796171579228e+001
1	 3.176534110606567e-001	 1.792065947461933e+000	-3.353764743667033e+001
1	 2.996582928262621e-001	 1.795162663938824e+000	-3.421452620086733e+001
1	 2.816907850690670e-001	 1.798069630332990e+000	-3.483488254600037e+001
1	 2.637535793103460e-001	 1.800788197882008e+000	-3.539507937401175e+001
1	 2.458493223841093e-001	 1.803319762266476e+000	-3.589156190505537e+001
1	 2.279806157175549e-001	 1.805665762127958e+000	-3.632086141183384e+001
1	 2.101500146626243e-001	 1.807827677580852e+000	-3.667959873321135e+001
1	 1.923600278782481e-001	 1.809807028720049e+000	-3.696448756647172e+001
1	 1.746131167628130e-001	 1.811605374126138e+000	-3.717233753809242e+001
1	 3.550112193391459e-001	 1.791837967187569e+000	-3.168704367334151e+001
1	 3.369030380473631e-001	 1.795330800605328e+000	-3.246278465357933e+001
1	 3.188170342077054e-001	 1.798630616201657e+000	-3.318934733233058e+001
1	 3.007559965295466e-001	 1.801738676523592e+000	-3.386302551386020e+001
1	 2.827226704708454e-001	 1.804656291673181e+000	-3.448018640037974e+001
1	 2.647197574124207e-001	 1.807384817837827e+000	-3.503727467092880e+001
1	 2.467499138841306e-001	 1.809925655810766e+000	-3.553081634599396e+001
1	 2.288157508426862e-001	 1.812280249503562e+000	-3.595742243621984e+001
1	 2.109198330007605e-001	 1.814450084452546e+000	-3.631379237409654e+001
1	 1.930646782069701e-001	 1.816436686320991e+000	-3.659671722803356e+001
1	 1.752527568762639e-001	 1.818241619398853e+000	-3.680308269873208e+001
1	 3.563069445609279e-001	 1.798377844015737e+000	-3.133652144022490e+001
1	 3.381326717599695e-001	 1.801883425629134e+000	-3.210875215738538e+001
1	 3.199806573546968e-001	 1.805195284941788e+000	-3.283165794932509e+001
1	 3.018537002327632e-001	 1.808314689108793e+000	-3.350162138325852e+001
1	 2.837545558725469e-001	 1.811242953013821e+000	-3.411509752903877e+001
1	 2.656859355144134e-001	 1.813981437794106e+000	-3.466861793845907e+001
1	 2.476505053840688e-001	 1.816531549355510e+000	-3.515879441421878e+001
1	 2.296508859677397e-001	 1.818894736879607e+000	-3.558232256696890e+001
1	 2.116896513388311e-001	 1.821072491324651e+000	-3.593598515938356e+001
1	 1.937693285356475e-001	 1.823066343922303e+000	-3.621665523671224e+001
1	 1.758923969897006e-001	 1.824877864671881e+000	-3.642129904376488e+001
1	 3.576026697827099e-001	 1.804917720844325e+000	-3.097766855317296e+001
1	 3.393623054725760e-001	 1.808436050653380e+000	-3.174584313700991e+001
1	 3.211442805016893e-001	 1.811759953682375e+000	-3.246456034040831e+001
1	 3.029514039359832e-001	 1.814890701694459e+000	-3.313029674120211e+001
1	 2.847864412742568e-001	 1.817829614354928e+000	-3.373960042468315e+001
1	 2.666521136164224e-001	 1.820578057750842e+000	-3.428909485662710e+001
1	 2.485510968840352e-001	 1.823137442900694e+000	-3.477548255024814e+001
1	 2.304860210928375e-001	 1.825509224256060e+000	-3.519554852557351e+001
1	 2.124594696769679e-001	 1.827694898197124e+000	-3.554616356023951e+001
1	 1.944739788644185e-001	 1.829696001523927e+000	-3.582428723121508e+001
1	 1.765320371032655e-001	 1.831514109945151e+000	-3.602697074743806e+001
1	 3.588983950045264e-001	 1.811457597673414e+000	-3.061046191000053e+001
1	 3.405919391852283e-001	 1.814988675678134e+000	-3.137403680681936e+001
1	 3.223079036487410e-001	 1.818324622423470e+000	-3.208803583195432e+001
1	 3.040491076392786e-001	 1.821466714280624e+000	-3.274903476630885e+001
1	 2.858183266760603e-001	 1.824416275696517e+000	-3.335367980396193e+001
1	 2.676182917185462e-001	 1.827174677708035e+000	-3.389869131225438e+001
1	 2.494516883841406e-001	 1.829743336446300e+000	-3.438086739041448e+001
1	 2.313211562181019e-001	 1.832123711632891e+000	-3.479708722528191e+001
1	 2.132292880153021e-001	 1.834317305069920e+000	-3.514431424320275e+001
1	 1.951786291934216e-001	 1.836325659125807e+000	-3.541959905764139e+001
1	 1.771716772171005e-001	 1.838150355218598e+000	-3.562008221253881e+001
1	 3.601941202264115e-001	 1.817997474503085e+000	-3.023487874094518e+001
1	 3.418215728979718e-001	 1.821541300703462e+000	-3.099331268026988e+001
1	 3.234715267959101e-001	 1.824889291165121e+000	-3.170206601903701e+001
1	 3.051468113427203e-001	 1.828042726867322e+000	-3.235781887924461e+001
1	 2.868502120780425e-001	 1.831002937038606e+000	-3.295732060343955e+001
1	 2.685844698208832e-001	 1.833771297665686e+000	-3.349739339524123e+001
1	 2.503522798844964e-001	 1.836349229992314e+000	-3.397493576334314e+001
1	 2.321562913436554e-001	 1.838738199010071e+000	-3.438692576765038e+001
1	 2.139991063539654e-001	 1.840939711942993e+000	-3.473042406666819e+001
1	 1.958832795227951e-001	 1.842955316727885e+000	-3.500257676575318e+001
1	 1.778113173313480e-001	 1.844786600492154e+000	-3.520061806628581e+001
1	 3.614898454484001e-001	 1.824537351333421e+000	-2.985089660270879e+001
1	 3.430512066108521e-001	 1.828093925729429e+000	-3.060365056454591e+001
1	 3.246351499432543e-001	 1.831453959907378e+000	-3.130663276061338e+001
1	 3.062445150463800e-001	 1.834618739454583e+000	-3.195663273838233e+001
1	 2.878820974802883e-001	 1.837589598381210e+000	-3.255050797565475e+001
1	 2.695506479235322e-001	 1.840367917623796e+000	-3.308518739492355e+001
1	 2.512528713852136e-001	 1.842955123538720e+000	-3.355767468650491e+001
1	 2.329914264696200e-001	 1.845352686387568e+000	-3.396505143916750e+001
1	 2.147689246930894e-001	 1.847562118816300e+000	-3.430448007745036e+001
1	 1.965879298526772e-001	 1.849584974330105e+000	-3.457320660532493e+001
1	 1.784509574461501e-001	 1.851422845765750e+000	-3.476856315630517e+001
1	 3.627855706705263e-001	 1.831077228164503e+000	-2.945849337262858e+001
1	 3.442808403239148e-001	 1.834646550756103e+000	-3.020503055531508e+001
1	 3.257987730908322e-001	 1.838018628650293e+000	-3.090171817481071e+001
1	 3.073422187503291e-001	 1.841194752042445e+000	-3.154546023555957e+001
1	 2.889139828828835e-001	 1.844176259724348e+000	-3.213322728526229e+001
1	 2.705168260265918e-001	 1.846964537582363e+000	-3.266205979651454e+001
1	 2.521534628864030e-001	 1.849561017085502e+000	-3.312907136284417e+001
1	 2.338265615961181e-001	 1.851967173765351e+000	-3.353145170795200e+001
1	 2.155387430328055e-001	 1.854184525689797e+000	-3.386646950741655e+001
1	 1.972925801832064e-001	 1.856214631932410e+000	-3.413147502257190e+001
1	 1.790905975616490e-001	 1.858059091039320e+000	-3.432390254669540e+001
1	 1.726941964209537e-001	 1.791696638310540e+000	-3.820509093706500e+001
1	 1.551846886213330e-001	 1.793298009200866e+000	-3.833557179463105e+001
1	 1.377225603141458e-001	 1.794723502569441e+000	-3.838348223419670e+001
1	 1.203101389499272e-001	 1.795974766340585e+000	-3.834582571129386e+001
1	 1.029497023619784e-001	 1.797053480637194e+000	-3.821970992976584e+001
1	 8.564347844994923e-002	 1.797961356299908e+000	-3.800234842126679e+001
1	 6.839364491017026e-002	 1.798700133414114e+000	-3.769106193516372e+001
1	 5.120232901183534e-002	 1.799271579846228e+000	-3.728327964199261e+001
1	 3.407160741809868e-002	 1.799677489790610e+000	-3.677654015390151e+001
1	 1.700350605111390e-002	 1.799919682328466e+000	-3.616849236578456e+001
1	 0.000000000000000e+000	 1.800000000000000e+000	-3.545689612106253e+001
1	 1.733338365353001e-001	 1.798332883581914e+000	-3.787332524101308e+001
1	 1.557594754639657e-001	 1.799940185772448e+000	-3.800338303193083e+001
1	 1.382326693734365e-001	 1.801370959010450e+000	-3.805120718673996e+001
1	 1.207557543349032e-001	 1.802626857323959e+000	-3.801376346882227e+001
1	 1.033310166185455e-001	 1.803709567058843e+000	-3.788812268535425e+001
1	 8.596069237594199e-002	 1.804620805392491e+000	-3.767146232018708e+001
1	 6.864696736940455e-002	 1.805362318855363e+000	-3.736106797402480e+001
1	 5.139197674733079e-002	 1.805935881861839e+000	-3.695433461505003e+001
1	 3.419780486463918e-002	 1.806343295251763e+000	-3.644876764345058e+001
1	 1.706648514730789e-002	 1.806586384844004e+000	-3.584198377356670e+001
1	 0.000000000000000e+000	 1.806667000003317e+000	-3.513171173763963e+001
1	 1.739734766492058e-001	 1.804969128853802e+000	-3.752907962034198e+001
1	 1.563342623061966e-001	 1.806582362344496e+000	-3.765854236348942e+001
1	 1.387427784323800e-001	 1.808018415451863e+000	-3.770616997051075e+001
1	 1.212013697195968e-001	 1.809278948307660e+000	-3.766888895279577e+001
1	 1.037123308748993e-001	 1.810365653480736e+000	-3.754373170100590e+001
1	 8.627790630179005e-002	 1.811280254485235e+000	-3.732783817248378e+001
1	 6.890028982855632e-002	 1.812024504296691e+000	-3.701845738273650e+001
1	 5.158162448279448e-002	 1.812600183877458e+000	-3.661294870416457e+001
1	 3.432400231118199e-002	 1.813009100712867e+000	-3.610878297549407e+001
1	 1.712946424351644e-002	 1.813253087359456e+000	-3.550354342565698e+001
1	 0.000000000000000e+000	 1.813334000006534e+000	-3.479492641613044e+001
1	 1.746131167628130e-001	 1.811605374126138e+000	-3.717233753809242e+001
1	 1.569090491481685e-001	 1.813224538916936e+000	-3.730103148434638e+001
1	 1.392528874911161e-001	 1.814665871893596e+000	-3.734835074025626e+001
1	 1.216469851041413e-001	 1.815931039291598e+000	-3.731118101705304e+001
1	 1.040936451311638e-001	 1.817021739902778e+000	-3.718651478031543e+001
1	 8.659512022760428e-002	 1.817939703578042e+000	-3.697145299304764e+001
1	 6.915361228772043e-002	 1.818686689738000e+000	-3.666320665950762e+001
1	 5.177127221830204e-002	 1.819264485892985e+000	-3.625909817296338e+001
1	 3.445019975778045e-002	 1.819674906173823e+000	-3.575656247085479e+001
1	 1.719244333976770e-002	 1.819919789874721e+000	-3.515314800113070e+001
1	 0.000000000000000e+000	 1.820001000009551e+000	-3.444651750379856e+001
1	 1.752527568762639e-001	 1.818241619398853e+000	-3.680308269873208e+001
1	 1.574838359900237e-001	 1.819866715489690e+000	-3.693083235677924e+001
1	 1.397629965497844e-001	 1.821313328335564e+000	-3.697772994044840e+001
1	 1.220926004886701e-001	 1.822583130275685e+000	-3.694061882415046e+001
1	 1.044749593874626e-001	 1.823677826324880e+000	-3.681645005092625e+001
1	 8.691233415349546e-002	 1.824599152670816e+000	-3.660228413233375e+001
1	 6.940693474699164e-002	 1.825348875179193e+000	-3.629529264565456e+001
1	 5.196091995392911e-002	 1.825928787908323e+000	-3.589275963160493e+001
1	 3.457639720448801e-002	 1.826340711634531e+000	-3.539208279605252e+001
1	 1.725542243608985e-002	 1.826586492389699e+000	-3.479077451953012e+001
1	 0.000000000000000e+000	 1.826668000012267e+000	-3.408646267861907e+001
1	 1.758923969897006e-001	 1.824877864671881e+000	-3.642129904376488e+001
1	 1.580586228319054e-001	 1.826508892062683e+000	-3.654792720544372e+001
1	 1.402731056085246e-001	 1.827960784777684e+000	-3.659428830001571e+001
1	 1.225382158733166e-001	 1.829235221259832e+000	-3.655718183974815e+001
1	 1.048562736439193e-001	 1.830333912746944e+000	-3.643351595864018e+001
1	 8.722954807957452e-002	 1.831258601763462e+000	-3.622030927026016e+001
1	 6.966025720646474e-002	 1.832011060620171e+000	-3.591469251936230e+001
1	 5.215056768975129e-002	 1.832593089923371e+000	-3.551391003047941e+001
1	 3.470259465135805e-002	 1.833006517094890e+000	-3.501532095701855e+001
1	 1.731840153251105e-002	 1.833253194904292e+000	-3.441640033467383e+001
1	 0.000000000000000e+000	 1.833335000014584e+000	-3.371473994326547e+001
1	 1.765320371032655e-001	 1.831514109945151e+000	-3.602697074743806e+001
1	 1.586334096739557e-001	 1.833151068635837e+000	-3.615229851262193e+001
1	 1.407832146674764e-001	 1.834608241219873e+000	-3.619800682719107e+001
1	 1.229838312582139e-001	 1.835887312243949e+000	-3.616084982711861e+001
1	 1.052375879006579e-001	 1.836989999168881e+000	-3.603769126165238e+001
1	 8.754676200595221e-002	 1.837918050855882e+000	-3.582550641023874e+001
1	 6.991357966623453e-002	 1.838673246060836e+000	-3.552138378958144e+001
1	 5.234021542584418e-002	 1.839257391938031e+000	-3.512252665404453e+001
1	 3.482879209844394e-002	 1.839672322554802e+000	-3.462625429294692e+001
1	 1.738138062905946e-002	 1.839919897418398e+000	-3.403000312860041e+001
1	 0.000000000000000e+000	 1.840002000016400e+000	-3.333132761922771e+001
1	 1.771716772171005e-001	 1.838150355218598e+000	-3.562008221253881e+001
1	 1.592081965163175e-001	 1.839793245209076e+000	-3.574392901357022e+001
1	 1.412933237267795e-001	 1.841255697662048e+000	-3.578886680446830e+001
1	 1.234294466434957e-001	 1.842539403227947e+000	-3.575160284177472e+001
1	 1.056189021578019e-001	 1.843646085590595e+000	-3.562895502491269e+001
1	 8.786397593273948e-002	 1.844577499947983e+000	-3.541785387333538e+001
1	 7.016690212639581e-002	 1.845335431501090e+000	-3.511534429005781e+001
1	 5.252986316228345e-002	 1.845921693952204e+000	-3.471858711479376e+001
1	 3.495498954579909e-002	 1.846338128014166e+000	-3.422486047027698e+001
1	 1.744435972576324e-002	 1.846586599931918e+000	-3.363156090564335e+001
1	 0.000000000000000e+000	 1.846669000017617e+000	-3.293620434105599e+001
1	 1.778113173313480e-001	 1.844786600492154e+000	-3.520061806628581e+001
1	 1.597829833591335e-001	 1.846435421782323e+000	-3.532280169196977e+001
1	 1.418034327865735e-001	 1.847903154104124e+000	-3.536684978367038e+001
1	 1.238750620292950e-001	 1.849191494211738e+000	-3.532942122621332e+001
1	 1.060002164154750e-001	 1.850302172011993e+000	-3.520728661460785e+001
1	 8.818118986004712e-002	 1.851236949039666e+000	-3.499733029255768e+001
1	 7.042022458704338e-002	 1.851997616940835e+000	-3.469655217348993e+001
1	 5.271951089914469e-002	 1.852585995965789e+000	-3.430206934735821e+001
1	 3.508118699347691e-002	 1.853003933472884e+000	-3.381111747680892e+001
1	 1.750733882265058e-002	 1.853253302444752e+000	-3.322105198663492e+001
1	 0.000000000000000e+000	 1.853336000018133e+000	-3.252934905073072e+001
1	 1.784509574461501e-001	 1.851422845765750e+000	-3.476856315630517e+001
1	 1.603577702025461e-001	 1.853077598355501e+000	-3.488889977547439e+001
1	 1.423135418469980e-001	 1.854550610546017e+000	-3.493193758112179e+001
1	 1.243206774157454e-001	 1.855843585195231e+000	-3.489428560477130e+001
1	 1.063815306738011e-001	 1.856958258432983e+000	-3.477266569276420e+001
1	 8.849840378798599e-002	 1.857896398130836e+000	-3.456391460726317e+001
1	 7.067354704827203e-002	 1.858659802379975e+000	-3.426498590581359e+001
1	 5.290915863650356e-002	 1.859250297978689e+000	-3.387295160273187e+001
1	 3.520738444153076e-002	 1.859669738930854e+000	-3.338500361594411e+001
1	 1.757031791974962e-002	 1.859920004956799e+000	-3.279845500323339e+001
1	 0.000000000000000e+000	 1.860003000017850e+000	-3.211074099215252e+001
1	 1.790905975616490e-001	 1.858059091039320e+000	-3.432390254669540e+001
1	 1.609325570466982e-001	 1.859719774928535e+000	-3.444220673135349e+001
1	 1.428236509081929e-001	 1.861198066987645e+000	-3.448411227292556e+001
1	 1.247662928029802e-001	 1.862495676178339e+000	-3.444617687859310e+001
1	 1.067628449329038e-001	 1.863614344853473e+000	-3.432507221196128e+001
1	 8.881561771666691e-002	 1.864555847221398e+000	-3.411758605768845e+001
1	 7.092686951017656e-002	 1.865321987818410e+000	-3.382062426060685e+001
1	 5.309880637443565e-002	 1.865914599990803e+000	-3.343121244262226e+001
1	 3.533358189001407e-002	 1.866335544387978e+000	-3.294649750104851e+001
1	 1.763329701708853e-002	 1.866586707467961e+000	-3.236374889237189e+001
1	 0.000000000000000e+000	 1.866670000016666e+000	-3.168035970575050e+001
1	 1.866670000016666e+000	 0.000000000000000e+000	 9.536175112494369e+000
1	 1.866586707467961e+000	 1.763329701708859e-002	 9.255010635343915e+000
1	 1.866335544387978e+000	 3.533358189001417e-002	 8.965656564246970e+000
1	 1.865914599990803e+000	 5.309880637443554e-002	 8.669871815280450e+000
1	 1.865321987818409e+000	 7.092686951017646e-002	 8.369411284499520e+000
1	 1.864555847221398e+000	 8.881561771666689e-002	 8.066023465295233e+000
1	 1.863614344853473e+000	 1.067628449329038e-001	 7.761448009325304e+000
1	 1.862495676178339e+000	 1.247662928029803e-001	 7.457413233575607e+000
1	 1.861198066987645e+000	 1.428236509081927e-001	 7.155633576317888e+000
1	 1.859719774928535e+000	 1.609325570466981e-001	 6.857807004938567e+000
1	 1.858059091039319e+000	 1.790905975616489e-001	 6.565612378823559e+000
1	 1.873336000292277e+000	 0.000000000000000e+000	 9.254604507268512e+000
1	 1.873252410300538e+000	 1.769626667091117e-002	 8.987633201911839e+000
1	 1.873000350301068e+000	 3.545976041553836e-002	 8.712171364810306e+000
1	 1.872577902684386e+000	 5.328842567514051e-002	 8.429997697270364e+000
1	 1.871983174255770e+000	 7.118015398689008e-002	 8.142885728547597e+000
1	 1.871214297721295e+000	 8.913278407965511e-002	 7.852601367088647e+000
1	 1.870269433187636e+000	 1.071441020144599e-001	 7.560900395287141e+000
1	 1.869146769674352e+000	 1.252118413706765e-001	 7.269525910433760e+000
1	 1.867844526637251e+000	 1.433336834789610e-001	 6.980205714753487e+000
1	 1.866360955501386e+000	 1.615072577019092e-001	 6.694649657636486e+000
1	 1.864694341202229e+000	 1.797301417633638e-001	 6.414546933383257e+000
1	 1.880002002233555e+000	 0.000000000000000e+000	 8.973095220384929e+000
1	 1.879918114798716e+000	 1.775923634067771e-002	 8.720260704481202e+000
1	 1.879665157879561e+000	 3.558593897297273e-002	 8.458649409432303e+000
1	 1.879241207043032e+000	 5.347804502374515e-002	 8.190059647401398e+000
1	 1.878644362357717e+000	 7.143343852751721e-002	 7.916282814304553e+000
1	 1.877872749885155e+000	 8.944995052259598e-002	 7.639100859948225e+000
1	 1.876924523184993e+000	 1.075253591920342e-001	 7.360283702129003e+000
1	 1.875797864832641e+000	 1.256573900504839e-001	 7.081586587541970e+000
1	 1.874490987948056e+000	 1.438437161779620e-001	 6.804747402562347e+000
1	 1.873002137734208e+000	 1.620819585015041e-001	 6.531483937184215e+000
1	 1.871329593023718e+000	 1.803696861256440e-001	 6.263491105615342e+000
1	 1.886668007507166e+000	 0.000000000000000e+000	 8.691563349302660e+000
1	 1.886583822629083e+000	 1.782220604206420e-002	 8.452843583103968e+000
1	 1.886329968789800e+000	 3.571211759374478e-002	 8.205069811653345e+000
1	 1.885904514732690e+000	 5.366766446750050e-002	 7.950059777999619e+000
1	 1.885305553789637e+000	 7.168672319520088e-002	 7.689621976610453e+000
1	 1.884531205377647e+000	 8.976711712458953e-002	 7.425553027508811e+000
1	 1.883579616509333e+000	 1.079066165607449e-001	 7.159634995324116e+000
1	 1.882448963315952e+000	 1.261029389535964e-001	 6.893632656315148e+000
1	 1.881137452581612e+000	 1.443537491325187e-001	 6.629290716645881e+000
1	 1.879643323287192e+000	 1.626566595889847e-001	 6.368330985416440e+000
1	 1.877964848162459e+000	 1.810092308082161e-001	 6.112449506176107e+000
1	 1.893334017779778e+000	 0.000000000000000e+000	 8.409926176526039e+000
1	 1.893249535458222e+000	 1.788517579074664e-002	 8.185332979482904e+000
1	 1.892994784698134e+000	 3.583829630928196e-002	 7.951411983060785e+000
1	 1.892567827419305e+000	 5.385728405365761e-002	 7.710000175703104e+000
1	 1.891966750216917e+000	 7.194000805308420e-002	 7.462922380774009e+000
1	 1.891189665863440e+000	 9.008428396473578e-002	 7.211988519887375e+000
1	 1.890234714824445e+000	 1.082878742157101e-001	 6.958990822605525e+000
1	 1.889100066787036e+000	 1.265484881912075e-001	 6.705700985818361e+000
1	 1.887783922199470e+000	 1.448637824699540e-001	 6.453867286344410e+000
1	 1.886284513820528e+000	 1.632313611078529e-001	 6.205211650520221e+000
1	 1.884600108277127e+000	 1.816487759708070e-001	 5.961426684774735e+000
1	 1.900000034718056e+000	 0.000000000000000e+000	 8.128102148842114e+000
1	 1.899915254952724e+000	 1.794814560240101e-002	 7.917680724691555e+000
1	 1.899659607270910e+000	 3.596447515101178e-002	 7.697655628091416e+000
1	 1.899231146768825e+000	 5.404690382946741e-002	 7.469882901945087e+000
1	 1.898627953304946e+000	 7.219329316431017e-002	 7.236202927334168e+000
1	 1.897848133007199e+000	 9.040145112213464e-002	 6.998437561322286e+000
1	 1.896889819794116e+000	 1.086691322520480e-001	 6.758387223083651e+000
1	 1.895751176908643e+000	 1.269940378745112e-001	 6.517827931964869e+000
1	 1.894430398463179e+000	 1.453738163175911e-001	 6.278508301323643e+000
1	 1.892925710994409e+000	 1.638060632016107e-001	 6.042146492221127e+000
1	 1.891235375026396e+000	 1.822883217731431e-001	 5.810427131276435e+000
1	 1.906666059988667e+000	 0.000000000000000e+000	 7.846010856995282e+000
1	 1.906580982779173e+000	 1.801111549270333e-002	 7.649839327153236e+000
1	 1.906324438174477e+000	 3.609065415036176e-002	 7.443780738943062e+000
1	 1.905894474447200e+000	 5.423652384218103e-002	 7.229709993426720e+000
1	 1.905289164719112e+000	 7.244657859202193e-002	 7.009482256722023e+000
1	 1.904506608473595e+000	 9.071861867588625e-002	 6.784929957652039e+000
1	 1.903544933082137e+000	 1.090503907648768e-001	 6.557859736171659e+000
1	 1.902402295343521e+000	 1.274395881147012e-001	 6.330049346520650e+000
1	 1.901076883034290e+000	 1.458838508027529e-001	 6.103244519294431e+000
1	 1.899566916469028e+000	 1.643807660137600e-001	 5.879155786859671e+000
1	 1.897870650068940e+000	 1.829278683749511e-001	 5.659455276782840e+000
1	 1.913332095258278e+000	 0.000000000000000e+000	 7.563573015787726e+000
1	 1.913246720604157e+000	 1.807408547732959e-002	 7.381761960870902e+000
1	 1.912989279075178e+000	 3.621683333875934e-002	 7.189767590593063e+000
1	 1.912557812120374e+000	 5.442614413904941e-002	 6.989483462580163e+000
1	 1.911950386124803e+000	 7.269986439936249e-002	 6.782778753824666e+000
1	 1.911165093927295e+000	 9.103578670509054e-002	 6.571495103637091e+000
1	 1.910200056352294e+000	 1.094316498493146e-001	 6.357443410323254e+000
1	 1.909053423754420e+000	 1.278851390229714e-001	 6.142400585920428e+000
1	 1.907723377574352e+000	 1.463938860527626e-001	 5.928106273571176e+000
1	 1.906208131904575e+000	 1.649554696878029e-001	 5.716259532361389e+000
1	 1.904505935063431e+000	 1.835674159359577e-001	 5.508515494689187e+000
1	 1.919998142193556e+000	 0.000000000000000e+000	 7.280710444596076e+000
1	 1.919912470094263e+000	 1.813705557195578e-002	 7.113402453904059e+000
1	 1.919654131639363e+000	 3.634301274763202e-002	 6.935596735920725e+000
1	 1.919221161454297e+000	 5.461576476732363e-002	 6.749205298021945e+000
1	 1.918611619187405e+000	 7.295315064947493e-002	 6.556110552453624e+000
1	 1.917823591032968e+000	 9.135295528884752e-002	 6.358161990128212e+000
1	 1.916855191268378e+000	 1.098129096004796e-001	 6.157172811588775e+000
1	 1.915704563804088e+000	 1.283306907105153e-001	 5.954916519898914e+000
1	 1.914369883744916e+000	 1.469039221949428e-001	 5.753123480471831e+000
1	 1.912849358961241e+000	 1.655301743672412e-001	 5.553477453103423e+000
1	 1.911141231668546e+000	 1.842069646158895e-001	 5.357612101719963e+000
1	 1.926664202461167e+000	 0.000000000000000e+000	 6.997346048293442e+000
1	 1.926578232916076e+000	 1.820002579225790e-002	 6.844715277084895e+000
1	 1.926318997533378e+000	 3.646919240840733e-002	 6.681249000931378e+000
1	 1.925884524114915e+000	 5.480538577425467e-002	 6.508877464996606e+000
1	 1.925272865572307e+000	 7.320643740550233e-002	 6.329495539720327e+000
1	 1.924482101455281e+000	 9.167012450625717e-002	 6.144959211086561e+000
1	 1.923510339494176e+000	 1.101941701134900e-001	 5.957082031992150e+000
1	 1.922355717155276e+000	 1.287762432885269e-001	 5.767631539942718e+000
1	 1.921016403207533e+000	 1.474139593566169e-001	 5.578325646564355e+000
1	 1.919490599299220e+000	 1.661048801955769e-001	 5.390829004678998e+000
1	 1.917776541542956e+000	 1.848465145744731e-001	 5.206749358942390e+000
1	 1.933330277727777e+000	 0.000000000000000e+000	 6.713403798567687e+000
1	 1.933244010736185e+000	 1.826299615391194e-002	 6.575655532968972e+000
1	 1.932983878423570e+000	 3.659537235251269e-002	 6.426705480079503e+000
1	 1.932547901768176e+000	 5.499500720709358e-002	 6.268501905811501e+000
1	 1.931934126944898e+000	 7.345972473058775e-002	 6.102951360320841e+000
1	 1.931140626858904e+000	 9.198729443641959e-002	 5.931914970456838e+000
1	 1.930165502693479e+000	 1.105754314834639e-001	 5.757204697734577e+000
1	 1.929006885470733e+000	 1.292217968681999e-001	 5.580579567566646e+000
1	 1.927662937623752e+000	 1.479239976651078e-001	 5.403741875761916e+000
1	 1.926131854578702e+000	 1.666795873163121e-001	 5.228333378563880e+000
1	 1.924411866345337e+000	 1.854860659714353e-001	 5.055931472759360e+000
1	 1.858059091039319e+000	 1.790905975616489e-001	 6.565612378823558e+000
1	 1.856214631932410e+000	 1.972925801832065e-001	 6.273253316739009e+000
1	 1.854184525689797e+000	 2.155387430328054e-001	 5.974471560631902e+000
1	 1.851967173765350e+000	 2.338265615961181e-001	 5.670339540163996e+000
1	 1.849561017085502e+000	 2.521534628864028e-001	 5.361890976960569e+000
1	 1.846964537582364e+000	 2.705168260265918e-001	 5.050118580010712e+000
1	 1.844176259724348e+000	 2.889139828828836e-001	 4.735971752272693e+000
1	 1.841194752042445e+000	 3.073422187503292e-001	 4.420354313231090e+000
1	 1.838018628650292e+000	 3.257987730908322e-001	 4.104122242262511e+000
1	 1.834646550756102e+000	 3.442808403239147e-001	 3.788081447769855e+000
1	 1.831077228164503e+000	 3.627855706705264e-001	 3.472985567135198e+000
1	 1.864694341202229e+000	 1.797301417633638e-001	 6.414546933383257e+000
1	 1.862843295411997e+000	 1.979971248515647e-001	 6.134069136126551e+000
1	 1.860805939527940e+000	 2.163084459382945e-001	 5.846908756849690e+000
1	 1.858580669295420e+000	 2.346615714940180e-001	 5.554116164503793e+000
1	 1.856165920073323e+000	 2.530539193436879e-001	 5.256703107724928e+000
1	 1.853560168372646e+000	 2.714828592509105e-001	 4.955640445192880e+000
1	 1.850761933392588e+000	 2.899457135538024e-001	 4.651855888029575e+000
1	 1.847769778552278e+000	 3.084397578530240e-001	 4.346231758940979e+000
1	 1.844582313016268e+000	 3.269622217524142e-001	 4.039602772915402e+000
1	 1.841198193211864e+000	 3.455102896525821e-001	 3.732753844389222e+000
1	 1.837616124336330e+000	 3.640811015977279e-001	 3.426417925878378e+000
1	 1.871329593023718e+000	 1.803696861256440e-001	 6.263491105615342e+000
1	 1.869471960548609e+000	 1.987016696966989e-001	 5.994915633223737e+000
1	 1.867427355021387e+000	 2.170781490368015e-001	 5.719410010464213e+000
1	 1.865194166478905e+000	 2.354965816012088e-001	 5.438000715727571e+000
1	 1.862770824712498e+000	 2.539543760265665e-001	 5.151675917056844e+000
1	 1.860155800812049e+000	 2.724488927171559e-001	 4.861383245534816e+000
1	 1.857347608707542e+000	 2.909774444830102e-001	 4.568027581376133e+000
1	 1.854344806706239e+000	 3.095372972303986e-001	 4.272468857366265e+000
1	 1.851145999023604e+000	 3.281256707050956e-001	 3.975519884393199e+000
1	 1.847749837306038e+000	 3.467397392887961e-001	 3.677944203914407e+000
1	 1.844155022143435e+000	 3.653766328489503e-001	 3.380453972285243e+000
1	 1.877964848162459e+000	 1.810092308082161e-001	 6.112449506176108e+000
1	 1.876100628999242e+000	 1.994062148945999e-001	 5.855779215214202e+000
1	 1.874048773825298e+000	 2.178478525206209e-001	 5.591945766754930e+000
1	 1.871807666968964e+000	 2.363315921263249e-001	 5.321949939296932e+000
1	 1.869375732654024e+000	 2.548548331600489e-001	 5.046754731649346e+000
1	 1.866751436549240e+000	 2.734149266667451e-001	 4.767283187370133e+000
1	 1.863933287315374e+000	 2.920091759283613e-001	 4.484416232406220e+000
1	 1.860919838147821e+000	 3.106348371567720e-001	 4.198990530493719e+000
1	 1.857709688312956e+000	 3.292891202396840e-001	 3.911796360978752e+000
1	 1.854301484676263e+000	 3.479691895398752e-001	 3.623575523811477e+000
1	 1.850693923220269e+000	 3.666721647480424e-001	 3.335019276546188e+000
1	 1.884600108277127e+000	 1.816487759708070e-001	 5.961426684774736e+000
1	 1.882729302420894e+000	 2.001107606212587e-001	 5.716646484568521e+000
1	 1.880670197594831e+000	 2.186175565820469e-001	 5.464486890941800e+000
1	 1.878421172418757e+000	 2.371666032780017e-001	 5.205921193400683e+000
1	 1.875980645548895e+000	 2.557552909691455e-001	 4.941885651578367e+000
1	 1.873347077232879e+000	 2.743809613410961e-001	 4.673277378699103e+000
1	 1.870518970862248e+000	 2.930409081477106e-001	 4.400952238572534e+000
1	 1.867494874520521e+000	 3.117323779064631e-001	 4.125722760574082e+000
1	 1.864273382524977e+000	 3.304525706469872e-001	 3.848356077166078e+000
1	 1.860853136960182e+000	 3.491986407131379e-001	 3.569571888600378e+000
1	 1.857232829201285e+000	 3.679676976188531e-001	 3.290040459521957e+000
1	 1.891235375026396e+000	 1.822883217731431e-001	 5.810427131276434e+000
1	 1.889357982470562e+000	 2.008153070526660e-001	 5.577504235652390e+000
1	 1.887291627985147e+000	 2.193872614133742e-001	 5.337004660851394e+000
1	 1.885034684481444e+000	 2.380016152648743e-001	 5.089872438237761e+000
1	 1.882585565048103e+000	 2.566557496788663e-001	 4.837015536766699e+000
1	 1.879942724511631e+000	 2.753469969816266e-001	 4.579303813400573e+000
1	 1.877104660994329e+000	 2.940726413989127e-001	 4.317566977217956e+000
1	 1.874069917467834e+000	 3.128299197537908e-001	 4.052592571548404e+000
1	 1.870837083300321e+000	 3.316160222178131e-001	 3.785123978559538e+000
1	 1.867404795795433e+000	 3.504280931159031e-001	 3.515858450807071e+000
1	 1.863771741720931e+000	 3.692632317852310e-001	 3.245445174332287e+000
1	 1.897870650068940e+000	 1.829278683749511e-001	 5.659455276782840e+000
1	 1.895986670805243e+000	 2.015198543648128e-001	 5.438339451405918e+000
1	 1.893913066651407e+000	 2.201569672068973e-001	 5.209470759737330e+000
1	 1.891648204810182e+000	 2.388366282955775e-001	 4.973762225526292e+000
1	 1.889190492802647e+000	 2.575562095142218e-001	 4.732091993732444e+000
1	 1.886538380034160e+000	 2.763130338297541e-001	 4.485301355775648e+000
1	 1.883690359357781e+000	 2.951043759398224e-001	 4.234192788474729e+000
1	 1.880644968633256e+000	 3.139274629730742e-001	 3.979528010865081e+000
1	 1.877400792279645e+000	 3.327794752429694e-001	 3.722026063174575e+000
1	 1.873956462819656e+000	 3.516575470554891e-001	 3.462361412316886e+000
1	 1.870310662413659e+000	 3.705587675710250e-001	 3.201162088332039e+000
1	 1.904505935063431e+000	 1.835674159359577e-001	 5.508515494689187e+000
1	 1.902615369081935e+000	 2.022244027336899e-001	 5.299139300092437e+000
1	 1.900534515248767e+000	 2.209266741549104e-001	 5.081857269251588e+000
1	 1.898261735058134e+000	 2.396716425787466e-001	 4.857549688232110e+000
1	 1.895795430463519e+000	 2.584566707002221e-001	 4.627063362615219e+000
1	 1.893134045449130e+000	 2.772790721268962e-001	 4.391209725416132e+000
1	 1.890276067598770e+000	 2.961361120282944e-001	 4.150762958522199e+000
1	 1.887220029660281e+000	 3.150250078386322e-001	 3.906458131678189e+000
1	 1.883964511103600e+000	 3.339429300132639e-001	 3.658989363130653e+000
1	 1.880508139670492e+000	 3.528870028392147e-001	 3.409008006118681e+000
1	 1.876849592913921e+000	 3.718543053000839e-001	 3.157120865464719e+000
1	 1.911141231668546e+000	 1.842069646158895e-001	 5.357612101719963e+000
1	 1.909244078957633e+000	 2.029289523352882e-001	 5.159891132115559e+000
1	 1.907155975432390e+000	 2.216963824497081e-001	 4.954136662562283e+000
1	 1.904875276878457e+000	 2.405066583230165e-001	 4.741194530512209e+000
1	 1.902400379681716e+000	 2.593571334618774e-001	 4.521878704473847e+000
1	 1.899729722405203e+000	 2.782451121144706e-001	 4.296969482388698e+000
1	 1.896861787363458e+000	 2.971678499221833e-001	 4.067211703194036e+000
1	 1.893795102192404e+000	 3.161225546247839e-001	 3.833312975417661e+000
1	 1.890528241412844e+000	 3.351063868195044e-001	 3.595941926727046e+000
1	 1.887059827985581e+000	 3.541164607743985e-001	 3.355726478430401e+000
1	 1.883388534856166e+000	 3.731498452962564e-001	 3.113252148985722e+000
1	 1.917776541542956e+000	 1.848465145744731e-001	 5.206749358942390e+000
1	 1.915872802089337e+000	 2.036335033455986e-001	 5.020582476902169e+000
1	 1.913777448857434e+000	 2.224660922835847e-001	 4.826281797615047e+000
1	 1.911488831924310e+000	 2.413416757370221e-001	 4.624657017867555e+000
1	 1.909005342108230e+000	 2.602575980241982e-001	 4.416487788848265e+000
1	 1.906325412551045e+000	 2.792111540338950e-001	 4.202522012727623e+000
1	 1.903447520298011e+000	 2.981995898793440e-001	 3.983474151927487e+000
1	 1.900370187873122e+000	 3.172201036058480e-001	 3.760023554722724e+000
1	 1.897091984848029e+000	 3.362698459524989e-001	 3.532812800891533e+000
1	 1.893611529402563e+000	 3.553459211683593e-001	 3.302446071197237e+000
1	 1.889927489874846e+000	 3.744453878833915e-001	 3.069487544544201e+000
1	 1.924411866345337e+000	 1.854860659714353e-001	 5.055931472759360e+000
1	 1.922501540134042e+000	 2.043380559406118e-001	 4.881201039850422e+000
1	 1.920398937179060e+000	 2.232358038488349e-001	 4.698265910534011e+000
1	 1.918102401848856e+000	 2.421766950293987e-001	 4.507897967500074e+000
1	 1.915610319394058e+000	 2.611580646121946e-001	 4.310841081579521e+000
1	 1.912921117535318e+000	 2.801771981265868e-001	 4.107809514228968e+000
1	 1.910033268048593e+000	 2.992313321576312e-001	 3.899486332044997e+000
1	 1.906945288345930e+000	 3.183176550561437e-001	 3.686521836729479e+000
1	 1.903655743049810e+000	 3.374333077030550e-001	 3.469532013993527e+000
1	 1.900163245559078e+000	 3.565753843284157e-001	 3.249097004952623e+000
1	 1.896466459604412e+000	 3.757409333853379e-001	 3.025759603617148e+000
1	 1.831077228164503e+000	 3.627855706705264e-001	 3.472985567135198e+000
1	 1.827308840852505e+000	 3.813128506229466e-001	 3.161723752399824e+000
1	 1.823340721694443e+000	 3.998569654505436e-001	 2.857419054659072e+000
1	 1.819171736284712e+000	 4.184149326073986e-001	 2.560959833475615e+000
1	 1.814800804742252e+000	 4.369837291416522e-001	 2.273187238321683e+000
1	 1.810226903133151e+000	 4.555602928079645e-001	 1.994893110439682e+000
1	 1.805449064870776e+000	 4.741415232331826e-001	 1.726817920251762e+000
1	 1.800466382091268e+000	 4.927242831349174e-001	 1.469648745218509e+000
1	 1.795278007002279e+000	 5.113053995926306e-001	 1.224017293082993e+000
1	 1.789883153202777e+000	 5.298816653707489e-001	 9.904979754609120e-001
1	 1.784281096971782e+000	 5.484498402932200e-001	 7.696060367478673e-001
1	 1.837616124336330e+000	 3.640811015977279e-001	 3.426417925878378e+000
1	 1.833834279867261e+000	 3.826745436747856e-001	 3.123520125936627e+000
1	 1.829851990296648e+000	 4.012848807454483e-001	 2.827235489524670e+000
1	 1.825668117167858e+000	 4.199091196129332e-001	 2.538459288834446e+000
1	 1.821281576743510e+000	 4.385442265302251e-001	 2.258038818801657e+000
1	 1.816691341433165e+000	 4.571871283165070e-001	 1.986771267190972e+000
1	 1.811896441198450e+000	 4.758347135269936e-001	 1.725401620935885e+000
1	 1.806895964933474e+000	 4.944838336758576e-001	 1.474620613717294e+000
1	 1.801689061818373e+000	 5.131313045118566e-001	 1.235062719800534e+000
1	 1.796274942643831e+000	 5.317739073461716e-001	 1.007304199175607e+000
1	 1.790652881104421e+000	 5.504083904318716e-001	 7.918611990557782e-001
1	 1.844155022143435e+000	 3.653766328489503e-001	 3.380453972285243e+000
1	 1.840359720513974e+000	 3.840362370671486e-001	 3.086003450396313e+000
1	 1.836363260527303e+000	 4.027127963974043e-001	 2.797812742509378e+000
1	 1.832164499675755e+000	 4.214033069920676e-001	 2.516783953230580e+000
1	 1.827762350365629e+000	 4.401047243089640e-001	 2.243770418753395e+000
1	 1.823155781349956e+000	 4.588139642317981e-001	 1.979574544831407e+000
1	 1.818343819138624e+000	 4.775279042441487e-001	 1.724945681749725e+000
1	 1.813325549383706e+000	 4.962433846567469e-001	 1.480578041362755e+000
1	 1.808100118237819e+000	 5.149572098876430e-001	 1.247108661304204e+000
1	 1.802666733683369e+000	 5.336661497947700e-001	 1.025115421499641e+000
1	 1.797024666830474e+000	 5.523669410603160e-001	 8.151151181216232e-001
1	 1.850693923220269e+000	 3.666721647480424e-001	 3.335019276546188e+000
1	 1.846885164423731e+000	 3.853979311404336e-001	 3.049102960000079e+000
1	 1.842874534013948e+000	 4.041407127633728e-001	 2.769083529863290e+000
1	 1.838660885432222e+000	 4.228974951183376e-001	 2.495869844399145e+000
1	 1.834243127228527e+000	 4.416652228679883e-001	 2.230321178477723e+000
1	 1.829620224499362e+000	 4.604408009605448e-001	 1.973245029101142e+000
1	 1.824791200302876e+000	 4.792210958079453e-001	 1.725394958708035e+000
1	 1.819755137049102e+000	 4.980029365174732e-001	 1.487468481411194e+000
1	 1.814511177863141e+000	 5.167831161764661e-001	 1.260104997361642e+000
1	 1.809058527919111e+000	 5.355583931896024e-001	 1.043883780455756e+000
1	 1.803396455742680e+000	 5.543254926681835e-001	 8.393220246130552e-001
1	 1.857232829201285e+000	 3.679676976188531e-001	 3.290040459521957e+000
1	 1.853410613227614e+000	 3.867596262350392e-001	 3.012748887891402e+000
1	 1.849385812384124e+000	 4.055686302003154e-001	 2.740981517577384e+000
1	 1.845157276061076e+000	 4.243916843652784e-001	 2.475653883181100e+000
1	 1.840723908952120e+000	 4.432257225974156e-001	 2.217631097269865e+000
1	 1.836084672497222e+000	 4.620676389094542e-001	 1.967725623121186e+000
1	 1.831238586302786e+000	 4.809142886416813e-001	 1.726695086063187e+000
1	 1.826184729536804e+000	 4.997624896979254e-001	 1.495240128653951e+000
1	 1.820922242296858e+000	 5.186090238348022e-001	 1.274002314980935e+000
1	 1.815450326948778e+000	 5.374506380037266e-001	 1.063562089386259e+000
1	 1.809768249433779e+000	 5.562840457451034e-001	 8.644367949328536e-001
1	 1.863771741720931e+000	 3.692632317852310e-001	 3.245445174332287e+000
1	 1.859936068556710e+000	 3.881213226913631e-001	 2.976872448630148e+000
1	 1.855897097265371e+000	 4.069965490651931e-001	 2.713441304738653e+000
1	 1.851653673186138e+000	 4.258858751064262e-001	 2.456073877694798e+000
1	 1.847204697156331e+000	 4.447862238873650e-001	 2.205641018362933e+000
1	 1.842549126959376e+000	 4.636944784852327e-001	 1.962960033065266e+000
1	 1.837685978749934e+000	 4.826074831686547e-001	 1.728792462662467e+000
1	 1.832614328453952e+000	 5.015220446379923e-001	 1.503841906417150e+000
1	 1.827333313141492e+000	 5.204349333191274e-001	 1.288751896011145e+000
1	 1.821842132370091e+000	 5.393428847102000e-001	 1.084103825112416e+000
1	 1.816140049496512e+000	 5.582426007807066e-001	 8.904149398964993e-001
1	 1.870310662413659e+000	 3.705587675710250e-001	 3.201162088332039e+000
1	 1.866461532042101e+000	 3.894830208498033e-001	 2.941405821055289e+000
1	 1.862408390285230e+000	 4.084244697149676e-001	 2.686398407235562e+000
1	 1.858150078431226e+000	 4.273800677153165e-001	 2.437068507840490e+000
1	 1.853685493461075e+000	 4.463467271279551e-001	 2.194292614188369e+000
1	 1.849013589501663e+000	 4.653213200945875e-001	 1.958892754133515e+000
1	 1.844133379255898e+000	 4.843006798121632e-001	 1.731634238592543e+000
1	 1.839043935407688e+000	 5.032816017775624e-001	 1.513223453835324e+000
1	 1.833744391999562e+000	 5.222608450859181e-001	 1.304305705003449e+000
1	 1.828233945780770e+000	 5.412351337820803e-001	 1.105463116342953e+000
1	 1.822511857523616e+000	 5.602011582646226e-001	 9.172125936479024e-001
1	 1.876849592913921e+000	 3.718543053000839e-001	 3.157120865464719e+000
1	 1.872987005314874e+000	 3.908447210507583e-001	 2.906282131506886e+000
1	 1.868919693071243e+000	 4.098523925065999e-001	 2.659789241804877e+000
1	 1.864646493420159e+000	 4.288742625654853e-001	 2.418577310129633e+000
1	 1.860166299486271e+000	 4.479072327093041e-001	 2.183528371945334e+000
1	 1.855478061739920e+000	 4.669481641442252e-001	 1.955469056819994e+000
1	 1.850580789432260e+000	 4.859938789955048e-001	 1.735168302103707e+000
1	 1.845473552005150e+000	 5.050411615565242e-001	 1.523335113391569e+000
1	 1.840155480473591e+000	 5.240867595916503e-001	 1.320616377327051e+000
1	 1.834625768778536e+000	 5.431273856924254e-001	 1.127594732325666e+000
1	 1.828883675107834e+000	 5.621597186864816e-001	 9.447865028076581e-001
1	 1.883388534856166e+000	 3.731498452962564e-001	 3.113252148985722e+000
1	 1.879512490006111e+000	 3.922064236346262e-001	 2.871435437398837e+000
1	 1.875431007250949e+000	 4.112803177970515e-001	 2.633551110412434e+000
1	 1.871142919776756e+000	 4.303684600304681e-001	 2.400540662831449e+000
1	 1.866647116851838e+000	 4.494677410215305e-001	 2.173291579471844e+000
1	 1.861942545289986e+000	 4.685750110408526e-001	 1.952634973467476e+000
1	 1.857028210890599e+000	 4.876870811419775e-001	 1.739343266807791e+000
1	 1.851903179853479e+000	 5.068007244147664e-001	 1.534127918718311e+000
1	 1.846566580166098e+000	 5.259126772928005e-001	 1.337637207533382e+000
1	 1.841017602961110e+000	 5.450196409142923e-001	 1.150454071736106e+000
1	 1.835255503841901e+000	 5.641182825359137e-001	 9.730940158480201e-001
1	 1.889927489874846e+000	 3.744453878833915e-001	 3.069487544544201e+000
1	 1.886037987746898e+000	 3.935681289418047e-001	 2.836800711133448e+000
1	 1.881942334451890e+000	 4.127082459432837e-001	 2.607622184958444e+000
1	 1.877639359124836e+000	 4.318626604838007e-001	 2.382899771428531e+000
1	 1.873127947177695e+000	 4.510282524547534e-001	 2.163526311409967e+000
1	 1.868407041767702e+000	 4.702018611911770e-001	 1.950337285101884e+000
1	 1.863475645242494e+000	 4.893802866748787e-001	 1.744108459142302e+000
1	 1.858332820559816e+000	 5.085602907921776e-001	 1.545553582652038e+000
1	 1.852977692679604e+000	 5.277385986458443e-001	 1.355322137962495e+000
1	 1.847409449926213e+000	 5.469118999207399e-001	 1.173997151797817e+000
1	 1.841627345318559e+000	 5.660768503025488e-001	 1.002093072689136e+000
1	 1.896466459604412e+000	 3.757409333853379e-001	 3.025759603617148e+000
1	 1.892563500168320e+000	 3.949298373126922e-001	 2.802313824350017e+000
1	 1.888453676301606e+000	 4.141361773022581e-001	 2.581941492300953e+000
1	 1.884135813088218e+000	 4.333568642990193e-001	 2.365596654374648e+000
1	 1.879608792083759e+000	 4.525887673990907e-001	 2.154177415658211e+000
1	 1.874871552788905e+000	 4.718287150019048e-001	 1.948523508540269e+000
1	 1.869923094099525e+000	 4.910734960175069e-001	 1.749413906094813e+000
1	 1.864762475731302e+000	 5.103198611286467e-001	 1.557564485535854e+000
1	 1.859388819616633e+000	 5.295645241072586e-001	 1.373625747586166e+000
1	 1.853801311271564e+000	 5.488041631848249e-001	 1.198180597628124e+000
1	 1.847999201130549e+000	 5.680354224760175e-001	 1.031742194511170e+000
1	 1.784281096971782e+000	 5.484498402932200e-001	 7.696060367478673e-001
1	 1.778471178077622e+000	 5.670066523970694e-001	 5.628494517230043e-001
1	 1.772452799657343e+000	 5.855487985655503e-001	 3.718479837486192e-001
1	 1.766225430735958e+000	 6.040729468208824e-001	 1.971812246567930e-001
1	 1.759788607818298e+000	 6.225757381620464e-001	 3.934981611492010e-002
1	 1.753141935993637e+000	 6.410537881847428e-001	-1.012267183594342e-001
1	 1.746285089996563e+000	 6.595036887474010e-001	-2.242120467007399e-001
1	 1.739217815222061e+000	 6.779220096819685e-001	-3.293550007717430e-001
1	 1.731939928692788e+000	 6.963053005481263e-001	-4.164914419749524e-001
1	 1.724451319976577e+000	 7.146500924294711e-001	-4.855460140843495e-001
1	 1.716751952052255e+000	 7.329528997701102e-001	-5.365337775267971e-001
1	 1.790652881104421e+000	 5.504083904318716e-001	 7.918611990557782e-001
1	 1.784822214610746e+000	 5.690314701215915e-001	 5.901828071104277e-001
1	 1.778782344168420e+000	 5.876398315029393e-001	 4.038165857838663e-001
1	 1.772532736906307e+000	 6.062301306994240e-001	 2.333214208043920e-001
1	 1.766072927674071e+000	 6.247989967148147e-001	 7.917603339006661e-002
1	 1.759402520150737e+000	 6.433430330588842e-001	-5.822318182128655e-002
1	 1.752521187909348e+000	 6.618588194193653e-001	-1.785642218113643e-001
1	 1.745428675435680e+000	 6.803429133788516e-001	-2.816214370083273e-001
1	 1.738124799098968e+000	 6.987918521752770e-001	-3.672573838288241e-001
1	 1.730609448072687e+000	 7.172021545045108e-001	-4.354245619916576e-001
1	 1.722882585203459e+000	 7.355703223635137e-001	-4.861670308095460e-001
1	 1.797024666830474e+000	 5.523669410603160e-001	 8.151151181216232e-001
1	 1.791173252732014e+000	 5.710562883525208e-001	 6.184976190348157e-001
1	 1.785111890262170e+000	 5.897308649633422e-001	 4.367382573371026e-001
1	 1.778840044653666e+000	 6.083873151175759e-001	 2.703753891739787e-001
1	 1.772357249100997e+000	 6.270222558237740e-001	 1.198659823394709e-001
1	 1.765663105872937e+000	 6.456322785057757e-001	-1.441654024075481e-002
1	 1.758757287380994e+000	 6.642139506806133e-001	-1.321843576328190e-001
1	 1.751639537201736e+000	 6.827638176815222e-001	-2.332372024034299e-001
1	 1.744309671050979e+000	 7.012784044246840e-001	-3.174642004065263e-001
1	 1.736767577707839e+000	 7.197542172182364e-001	-3.848455928750560e-001
1	 1.729013219886742e+000	 7.381877456119868e-001	-4.354543350001602e-001
1	 1.803396455742680e+000	 5.543254926681835e-001	 8.393220246130552e-001
1	 1.797524294029003e+000	 5.730811075960470e-001	 6.477500972294620e-001
1	 1.791441439520828e+000	 5.918218994694956e-001	 4.705711225337552e-001
1	 1.785147355554737e+000	 6.105445006146021e-001	 3.083031017307144e-001
1	 1.778641573670060e+000	 6.292455160446953e-001	 1.613814143844284e-001
1	 1.771923694725325e+000	 6.479215250976735e-001	 3.015666709490131e-002
1	 1.764993389970501e+000	 6.665690831198611e-001	-8.510735605417182e-002
1	 1.757850402072950e+000	 6.851847231951276e-001	-1.842356350147971e-001
1	 1.750494546095071e+000	 7.037649579178936e-001	-2.671437411177446e-001
1	 1.742925710421627e+000	 7.223062812085587e-001	-3.338395442361186e-001
1	 1.735143857634843e+000	 7.408051701697699e-001	-3.844247939268605e-001
1	 1.809768249433779e+000	 5.562840457451034e-001	 8.644367949328536e-001
1	 1.803875340089290e+000	 5.751059283583608e-001	 6.778970691826426e-001
1	 1.797770993526625e+000	 5.939129355441349e-001	 5.052738961898582e-001
1	 1.791454671186225e+000	 6.127016877297664e-001	 3.470650950084079e-001
1	 1.784925902952252e+000	 6.314687779333502e-001	 2.036846203612826e-001
1	 1.778184288272990e+000	 6.502107734068342e-001	 7.546041615355000e-002
1	 1.771229497236867e+000	 6.689242173258243e-001	-3.736762685107969e-002
1	 1.764061271602043e+000	 6.876056305248131e-001	-1.346496028864254e-001
1	 1.756679425777497e+000	 7.062515132764518e-001	-2.163274063928276e-001
1	 1.749083847753641e+000	 7.248583471133897e-001	-2.824364245439958e-001
1	 1.741274499980501e+000	 7.434225966911037e-001	-3.331071012233719e-001
1	 1.816140049496512e+000	 5.582426007807066e-001	 8.904149398964993e-001
1	 1.810226392500453e+000	 5.771307511456527e-001	 7.088959693053027e-001
1	 1.804100553861794e+000	 5.960039737099959e-001	 5.408058734540062e-001
1	 1.797761993124833e+000	 6.148588770023328e-001	 3.866224602093693e-001
1	 1.791210238518562e+000	 6.336920420455107e-001	 2.467384210623176e-001
1	 1.784444888081018e+000	 6.525000240055143e-001	 1.214591891227444e-001
1	 1.777465610739092e+000	 6.712793538872184e-001	 1.100090368481791e-002
1	 1.770272147341734e+000	 6.900265402757259e-001	-8.451151229000338e-002
1	 1.762864311644508e+000	 7.087380711219047e-001	-1.650461555548869e-001
1	 1.755241991243472e+000	 7.274104155706407e-001	-2.306658207570962e-001
1	 1.747405148456453e+000	 7.460400258302280e-001	-2.815295475194728e-001
1	 1.822511857523616e+000	 5.602011582646226e-001	 9.172125936479024e-001
1	 1.816577452850068e+000	 5.791555764641130e-001	 7.407048283266899e-001
1	 1.810430122108566e+000	 5.980950144898148e-001	 5.771269196673107e-001
1	 1.804069322947262e+000	 6.170160689715646e-001	 4.269368335125187e-001
1	 1.797494581939978e+000	 6.359153089369478e-001	 2.905061579756495e-001
1	 1.790705495714499e+000	 6.547892774659703e-001	 1.681179655645158e-001
1	 1.783701732036173e+000	 6.736344933927593e-001	 5.996478429813439e-002
1	 1.776483030844745e+000	 6.924474530530120e-001	-3.385331579292494e-002
1	 1.769049205242356e+000	 7.112246320757975e-001	-1.133305145262329e-001
1	 1.761400142430712e+000	 7.299624872182238e-001	-1.785569056864479e-001
1	 1.753535804595439e+000	 7.486574582413831e-001	-2.297200274802198e-001
1	 1.828883675107834e+000	 5.621597186864816e-001	 9.447865028076581e-001
1	 1.822928522725712e+000	 5.811804048199316e-001	 7.732822629123473e-001
1	 1.816759699849174e+000	 6.001860584063269e-001	 6.141974604358513e-001
1	 1.810376662230218e+000	 6.191732641767258e-001	 4.679703865848202e-001
1	 1.803778934787489e+000	 6.381385791634338e-001	 3.349516842193049e-001
1	 1.796966112738519e+000	 6.570785343604584e-001	 2.154022137555924e-001
1	 1.789937862687110e+000	 6.759896364311618e-001	 1.094910304991523e-001
1	 1.782693923663795e+000	 6.948683694618180e-001	 1.729347984283451e-002
1	 1.775234108117294e+000	 7.137111967596770e-001	-6.121058337319933e-002
1	 1.767558302854952e+000	 7.325145626940495e-001	-1.261384452046846e-001
1	 1.759666469930197e+000	 7.512748945788091e-001	-1.777060466975728e-001
1	 1.835255503841901e+000	 5.641182825359137e-001	 9.730940158480201e-001
1	 1.829279603714964e+000	 5.832052367192995e-001	 8.065874654990720e-001
1	 1.823089288665850e+000	 6.022771059822683e-001	 6.519784719107592e-001
1	 1.816684012550403e+000	 6.213304631570801e-001	 5.096858172909672e-001
1	 1.810063298632084e+000	 6.403618532807395e-001	 3.800393556647740e-001
1	 1.803226740718167e+000	 6.593677952612349e-001	 2.632778822085805e-001
1	 1.796174004250901e+000	 6.783447835911425e-001	 1.595471164660171e-001
1	 1.788904827351605e+000	 6.972892901072900e-001	 6.889780592698765e-002
1	 1.781419021815571e+000	 7.161977657950887e-001	-8.716043693301517e-003
1	 1.773716474055784e+000	 7.350666426360299e-001	-7.343880530435014e-002
1	 1.765797145993466e+000	 7.538923354967473e-001	-1.255147284379750e-001
1	 1.841627345318559e+000	 5.660768503025488e-001	 1.002093072689136e+000
1	 1.835630697405398e+000	 5.852300726684062e-001	 8.405801943416174e-001
1	 1.829418890140827e+000	 6.043681577403747e-001	 6.904314712706107e-001
1	 1.822991375484519e+000	 6.234876664518915e-001	 5.520463405964422e-001
1	 1.816347675044753e+000	 6.425851318446370e-001	 4.257340222454229e-001
1	 1.809487381218530e+000	 6.616570607405571e-001	 3.117113913697154e-001
1	 1.802410158286545e+000	 6.806999354614165e-001	 2.101009671156124e-001
1	 1.795115743460896e+000	 6.997102155945745e-001	 1.209290242681796e-001
1	 1.787603947883441e+000	 7.186843398035789e-001	 4.412383415140284e-002
1	 1.779874657572799e+000	 7.376187276820769e-001	-2.048595900926391e-002
1	 1.771927834317984e+000	 7.565097816494371e-001	-7.317282024946133e-002
1	 1.847999201130549e+000	 5.680354224760175e-001	 1.031742194511170e+000
1	 1.841981805384595e+000	 5.872549131734429e-001	 8.752207637657736e-001
1	 1.835748505856336e+000	 6.064592142033818e-001	 7.295185074013716e-001
1	 1.829298752609273e+000	 6.256448746004242e-001	 5.950156796595505e-001
1	 1.822632065596483e+000	 6.448084154108978e-001	 4.720010194452118e-001
1	 1.815748035804696e+000	 6.639463313706805e-001	 3.606696254889576e-001
1	 1.808646326353042e+000	 6.830550926306998e-001	 2.611209503389151e-001
1	 1.801326673544389e+000	 7.021311465288183e-001	 1.733569197584422e-001
1	 1.793788887867155e+000	 7.211709194066933e-001	 9.728018395110989e-002
1	 1.786032854945589e+000	 7.401708184701011e-001	 3.269250685759240e-002
1	 1.778058536436490e+000	 7.591272336911190e-001	-2.070670043162575e-002
1	 1.716751952052255e+000	 7.329528997701102e-001	-5.365337775267971e-001
1	 1.708843064595402e+000	 7.512074875272331e-001	-5.797014463522214e-001
1	 1.700723631802261e+000	 7.694130934055929e-001	-6.254268120773757e-001
1	 1.692393842765832e+000	 7.875661958811594e-001	-6.739530465246731e-001
1	 1.683853962847609e+000	 8.056632645502203e-001	-7.254984042544682e-001
1	 1.675104334255827e+000	 8.237007621394886e-001	-7.802556810219049e-001
1	 1.666145376561775e+000	 8.416751465452835e-001	-8.383917094999858e-001
1	 1.656977587152687e+000	 8.595828728996267e-001	-9.000468938514962e-001
1	 1.647601541619870e+000	 8.774203956610007e-001	-9.653347846623104e-001
1	 1.638017894080758e+000	 8.951841707274575e-001	-1.034341695672567e+000
1	 1.628227377433699e+000	 9.128706575696799e-001	-1.107126363660592e+000
1	 1.722882585203459e+000	 7.355703223635137e-001	-4.861670308095460e-001
1	 1.714945454593828e+000	 7.538900984437293e-001	-5.293260728634874e-001
1	 1.706797026776825e+000	 7.721607177277033e-001	-5.748623714866656e-001
1	 1.698437491520715e+000	 7.903786461158098e-001	-6.230304079913869e-001
1	 1.689867115134611e+000	 8.085403405970330e-001	-6.740584132211103e-001
1	 1.681086241048800e+000	 8.266422512662486e-001	-7.281477960644398e-001
1	 1.672095290332883e+000	 8.446808233706905e-001	-7.854726113388866e-001
1	 1.662894762150299e+000	 8.626524993834223e-001	-8.461790687182189e-001
1	 1.653485234147826e+000	 8.805537211015636e-001	-9.103850843029655e-001
1	 1.643867362778795e+000	 8.983809317669451e-001	-9.781798763533295e-001
1	 1.634041883558781e+000	 9.161305782067851e-001	-1.049623606617532e+000
1	 1.729013219886742e+000	 7.381877456119868e-001	-4.354543350001600e-001
1	 1.721047846117197e+000	 7.565727100316283e-001	-4.787175797073978e-001
1	 1.712870423269022e+000	 7.749083427374959e-001	-5.241706023682702e-001
1	 1.704481141785743e+000	 7.931910970543670e-001	-5.720796894910623e-001
1	 1.695880268924100e+000	 8.114174173639178e-001	-6.226836036243755e-001
1	 1.687068149336424e+000	 8.295837411291850e-001	-6.761929818082617e-001
1	 1.678045205590631e+000	 8.476865009483131e-001	-7.327897753935735e-001
1	 1.668811938626363e+000	 8.657221266354052e-001	-7.926267329929907e-001
1	 1.659368928145872e+000	 8.836870473262150e-001	-8.558269282495554e-001
1	 1.649716832938384e+000	 9.015776936063482e-001	-9.224833340238526e-001
1	 1.639856391136701e+000	 9.193904996595568e-001	-9.926584445105353e-001
1	 1.735143857634843e+000	 7.408051701697699e-001	-3.844247939268602e-001
1	 1.727150240691201e+000	 7.592553229614557e-001	-4.279040171674650e-001
1	 1.718943822797304e+000	 7.776559691217415e-001	-4.733789796630811e-001
1	 1.710524795071942e+000	 7.960035493998001e-001	-5.211282647733383e-001
1	 1.701893425719475e+000	 8.142944955699942e-001	-5.714017176562630e-001
1	 1.693050060614283e+000	 8.325252324635154e-001	-6.244198135359337e-001
1	 1.683995123822598e+000	 8.506921800294127e-001	-6.803730692319813e-001
1	 1.674729118060264e+000	 8.687917554228226e-001	-7.394214998031043e-001
1	 1.665252625085009e+000	 8.868203751181280e-001	-8.016941220754799e-001
1	 1.655566306021953e+000	 9.047744570447024e-001	-8.672885067385218e-001
1	 1.645670901621129e+000	 9.226504227428251e-001	-9.362703805957103e-001
1	 1.741274499980501e+000	 7.434225966911037e-001	-3.331071012233722e-001
1	 1.733252639841535e+000	 7.619379379037399e-001	-3.769130402194736e-001
1	 1.725017226880129e+000	 7.804035975672117e-001	-4.225145911512355e-001
1	 1.716568452890335e+000	 7.988160038550789e-001	-4.702031218902902e-001
1	 1.707906587024137e+000	 8.171715759343821e-001	-5.202401066532668e-001
1	 1.699031976377965e+000	 8.354667260044575e-001	-5.728564639644741e-001
1	 1.689945046516368e+000	 8.536978613652514e-001	-6.282519396700245e-001
1	 1.680646301931392e+000	 8.718613865129233e-001	-6.865945369430662e-001
1	 1.671136326436242e+000	 8.899537052604761e-001	-7.480199951350045e-001
1	 1.661415783491934e+000	 9.079712228810429e-001	-8.126313192358042e-001
1	 1.651485416465734e+000	 9.259103482714212e-001	-8.804983616075803e-001
1	 1.747405148456453e+000	 7.460400258302280e-001	-2.815295475194728e-001
1	 1.739355045093891e+000	 7.646205555290072e-001	-3.257719154601411e-001
1	 1.731090637035950e+000	 7.831512287606772e-001	-3.716041442370762e-001
1	 1.722612116751946e+000	 8.016284611231731e-001	-4.193308699549400e-001
1	 1.713919754341489e+000	 8.200486591762006e-001	-4.692257379444783e-001
1	 1.705013898123057e+000	 8.384082224872302e-001	-5.215307102979512e-001
1	 1.695894975159521e+000	 8.567035457070906e-001	-5.764554201422283e-001
1	 1.686563491719131e+000	 8.749310206729553e-001	-6.341765746753358e-001
1	 1.677020033670570e+000	 8.930870385364330e-001	-6.948374089045515e-001
1	 1.667265266810758e+000	 9.111679919144055e-001	-7.585471919288506e-001
1	 1.657299937124190e+000	 9.291702770601759e-001	-8.253807875060879e-001
1	 1.753535804595439e+000	 7.486574582413831e-001	-2.297200274802197e-001
1	 1.745457457973962e+000	 7.673031765077846e-001	-2.745075278899706e-001
1	 1.737164054783222e+000	 7.858988633889095e-001	-3.206739725913457e-001
1	 1.728655788167798e+000	 8.044409219070525e-001	-3.685377457575373e-001
1	 1.719932929174930e+000	 8.229257460145701e-001	-4.183852015556143e-001
1	 1.710995827345145e+000	 8.413497226470509e-001	-4.704699411317205e-001
1	 1.701844911239638e+000	 8.597092338061929e-001	-5.250121379172656e-001
1	 1.692480688902867e+000	 8.780006586701662e-001	-5.821979133668911e-001
1	 1.682903748258998e+000	 8.962203757291724e-001	-6.421787651484725e-001
1	 1.673114757440853e+000	 9.143647649438252e-001	-7.050710497069933e-001
1	 1.663114465050167e+000	 9.324302099239195e-001	-7.709555210184674e-001
1	 1.759666469930197e+000	 7.512748945788091e-001	-1.777060466975727e-001
1	 1.751559880007443e+000	 7.699858015105993e-001	-2.231463875538676e-001
1	 1.743237481640399e+000	 7.886465021386789e-001	-2.697500426541010e-001
1	 1.734699468648917e+000	 8.072533869096865e-001	-3.178496202430878e-001
1	 1.725946113027860e+000	 8.258028371686097e-001	-3.677447167724519e-001
1	 1.716977765539816e+000	 8.442912272191379e-001	-4.197011632118325e-001
1	 1.707794856244301e+000	 8.627149264138195e-001	-4.739503211621766e-001
1	 1.698397894961988e+000	 8.810703012718046e-001	-5.306884309656204e-001
1	 1.688787471672527e+000	 8.993537176218677e-001	-5.900760139135051e-001
1	 1.678964256844652e+000	 9.175615427683384e-001	-6.522373305525897e-001
1	 1.668929001697338e+000	 9.356901476774830e-001	-7.172598969809901e-001
1	 1.765797145993466e+000	 7.538923354967473e-001	-1.255147284379750e-001
1	 1.757662312720026e+000	 7.726684312079784e-001	-1.717146360429692e-001
1	 1.749310919125939e+000	 7.913941456967579e-001	-2.188579600017132e-001
1	 1.740743159706326e+000	 8.100658568340448e-001	-2.672920048535305e-001
1	 1.731959307403683e+000	 8.286799333574388e-001	-3.173301385670992e-001
1	 1.722959714202657e+000	 8.472327369387087e-001	-3.692510080532100e-001
1	 1.713744811661092e+000	 8.657206242812326e-001	-4.232978058589575e-001
1	 1.704315111375880e+000	 8.841399492451175e-001	-4.796775903205332e-001
1	 1.694671205382161e+000	 9.024870649976924e-001	-5.385606613562515e-001
1	 1.684813766484584e+000	 9.207583261869791e-001	-6.000799939777894e-001
1	 1.674743548519371e+000	 9.389500911356974e-001	-6.643307314855338e-001
1	 1.771927834317984e+000	 7.565097816494371e-001	-7.317282024946133e-002
1	 1.763764757637406e+000	 7.753510662704486e-001	-1.202380528611170e-001
1	 1.755384368758295e+000	 7.941417947499168e-001	-1.680229755813078e-001
1	 1.746786862851048e+000	 8.128783323830974e-001	-2.168900577378304e-001
1	 1.737972513805797e+000	 8.315570353001780e-001	-2.671669638904488e-001
1	 1.728941674829252e+000	 8.501742525409822e-001	-3.191457384199868e-001
1	 1.719694778977591e+000	 8.687263281596939e-001	-3.730820425771352e-001
1	 1.710232339623929e+000	 8.872096033573542e-001	-4.291944463494558e-001
1	 1.700554950858902e+000	 9.056204186398202e-001	-4.876637774076246e-001
1	 1.690663287823079e+000	 9.239551159987846e-001	-5.486325292856821e-001
1	 1.680558106969941e+000	 9.422100411133936e-001	-6.122043308356603e-001
1	 1.778058536436490e+000	 7.591272336911190e-001	-2.070670043162575e-002
1	 1.769867216285273e+000	 7.780337073685373e-001	-6.874206165914971e-002
1	 1.761457832055922e+000	 7.968894499849266e-001	-1.172699918157789e-001
1	 1.752830579594108e+000	 8.156908142598141e-001	-1.666685898332002e-001
1	 1.743985733737606e+000	 8.344341437159465e-001	-2.172803378340343e-001
1	 1.734923648915190e+000	 8.531157747611763e-001	-2.694112546713825e-001
1	 1.725644759681382e+000	 8.717320388004651e-001	-3.233301031057449e-001
1	 1.716149581185522e+000	 8.902792643757621e-001	-3.792676530580563e-001
1	 1.706438709573752e+000	 9.087537793314253e-001	-4.374160032781730e-001
1	 1.696512822322570e+000	 9.271519130027890e-001	-4.979279636599326e-001
1	 1.686372678502719e+000	 9.454699984254018e-001	-5.609165003168063e-001
1	 1.628227377433699e+000	 9.128706575696799e-001	-1.107126363660592e+000
1	 1.618229288713946e+000	 9.304789564240998e-001	-1.183098791061321e+000
1	 1.608025973600485e+000	 9.480028805172917e-001	-1.261671160503531e+000
1	 1.597618403935810e+000	 9.654389124762559e-001	-1.342896691450742e+000
1	 1.587007630703517e+000	 9.827835472266669e-001	-1.426799649571733e+000
1	 1.576194783930540e+000	 1.000033294188532e+000	-1.513375086568585e+000
1	 1.565181072517051e+000	 1.017184679476191e+000	-1.602588629252841e+000
1	 1.553967783993609e+000	 1.034234248099903e+000	-1.694376318840972e+000
1	 1.542556284205236e+000	 1.051178566166237e+000	-1.788644501325513e+000
1	 1.530948016922200e+000	 1.068014223074453e+000	-1.885269769658597e+000
1	 1.519144503377449e+000	 1.084737833706065e+000	-1.984098958362041e+000
1	 1.634041883558781e+000	 9.161305782067851e-001	-1.049623606617532e+000
1	 1.624008091012704e+000	 9.338017574444000e-001	-1.124124986747791e+000
1	 1.613768339196110e+000	 9.513882606129945e-001	-1.201095663528398e+000
1	 1.603323603421993e+000	 9.688865577788064e-001	-1.280589864091359e+000
1	 1.592674938427071e+000	 9.862931313506641e-001	-1.362633134551323e+000
1	 1.581823478273663e+000	 1.003604478283490e+000	-1.447222083399780e+000
1	 1.570770436178989e+000	 1.020817112286156e+000	-1.534324173765640e+000
1	 1.559517104271456e+000	 1.037927566030934e+000	-1.623877565501428e+000
1	 1.548064853273591e+000	 1.054932393361736e+000	-1.715791007940494e+000
1	 1.536415132111450e+000	 1.071828171498351e+000	-1.809943784051507e+000
1	 1.524569467450388e+000	 1.088611503233817e+000	-1.906185706594899e+000
1	 1.639856391136701e+000	 9.193904996595568e-001	-9.926584445105351e-001
1	 1.629786894755408e+000	 9.371245592960400e-001	-1.065766711114112e+000
1	 1.619510706226610e+000	 9.547736415556311e-001	-1.141224747964482e+000
1	 1.609028804333805e+000	 9.723342039438019e-001	-1.219086415719558e+000
1	 1.598342247566829e+000	 9.898027163525364e-001	-1.299377080799044e+000
1	 1.587452174023388e+000	 1.007175663271671e+000	-1.382093364276146e+000
1	 1.576359801237752e+000	 1.024449546004611e+000	-1.467202939424433e+000
1	 1.565066425936167e+000	 1.041620884885633e+000	-1.554644378864869e+000
1	 1.553573423718674e+000	 1.058686221496000e+000	-1.644327052144022e+000
1	 1.541882248667110e+000	 1.075642120876025e+000	-1.736131074456043e+000
1	 1.529994432879242e+000	 1.092485173730273e+000	-1.829907307099540e+000
1	 1.645670901621129e+000	 9.226504227428251e-001	-9.362703805957103e-001
1	 1.635565701386777e+000	 9.404473628095780e-001	-1.008066443967692e+000
1	 1.625253076127579e+000	 9.581590241914136e-001	-1.082103274143028e+000
1	 1.614734008097527e+000	 9.757818518330338e-001	-1.158433006435469e+000
1	 1.604009559539578e+000	 9.933123031095723e-001	-1.237079383313144e+000
1	 1.593080872586826e+000	 1.010746850045776e+000	-1.318037510707887e+000
1	 1.581949169090591e+000	 1.028081981539577e+000	-1.401273662938352e+000
1	 1.570615750374966e+000	 1.045314205587259e+000	-1.486725137174950e+000
1	 1.559081996917497e+000	 1.062440051507424e+000	-1.574300158260139e+000
1	 1.547349367955814e+000	 1.079456072160909e+000	-1.663877834579653e+000
1	 1.535419401020091e+000	 1.096358846163799e+000	-1.755308165558640e+000
1	 1.651485416465734e+000	 9.259103482714212e-001	-8.804983616075803e-001
1	 1.641344512351543e+000	 9.437701688155739e-001	-9.510660666214597e-001
1	 1.630995450334611e+000	 9.615444093665555e-001	-1.023775470307352e+000
1	 1.620439216139437e+000	 9.792295023082919e-001	-1.098675638824397e+000
1	 1.609676875762099e+000	 9.968218924990583e-001	-1.175787262095203e+000
1	 1.598709575371082e+000	 1.014318039498504e+000	-1.255102419442033e+000
1	 1.587538541134759e+000	 1.031714419799078e+000	-1.336584393964270e+000
1	 1.576165078975069e+000	 1.049007529059066e+000	-1.420167536565377e+000
1	 1.564590574247075e+000	 1.066193884334401e+000	-1.505757180422940e+000
1	 1.552816491344194e+000	 1.083270026306436e+000	-1.593229606576468e+000
1	 1.540844373229018e+000	 1.100232521502765e+000	-1.682432061185619e+000
1	 1.657299937124190e+000	 9.291702770601759e-001	-8.253807875060878e-001
1	 1.647123329094427e+000	 9.470929781445850e-001	-8.948068723752957e-001
1	 1.636737830283300e+000	 9.649297979272700e-001	-9.662849436815154e-001
1	 1.626144429885816e+000	 9.826771562313674e-001	-1.039859669469282e+000
1	 1.615344197651177e+000	 1.000331485398282e+000	-1.115547273966913e+000
1	 1.604338283783265e+000	 1.017889232522554e+000	-1.193335314448078e+000
1	 1.593127918767508e+000	 1.035346861691141e+000	-1.273182507129918e+000
1	 1.581714413123700e+000	 1.052700856224312e+000	-1.355018602993705e+000
1	 1.570099157084421e+000	 1.069947720915326e+000	-1.438744314298732e+000
1	 1.558283620198885e+000	 1.087083984266036e+000	-1.524231292439561e+000
1	 1.546269350862104e+000	 1.104106200715540e+000	-1.611322157674515e+000
1	 1.663114465050167e+000	 9.324302099239195e-001	-7.709555210184674e-001
1	 1.652902153060155e+000	 9.504157916271708e-001	-8.393295767769398e-001
1	 1.642480217409241e+000	 9.683151907197707e-001	-9.096746913062181e-001
1	 1.631849650762943e+000	 9.861248144640504e-001	-9.820298202210297e-001
1	 1.621011526623595e+000	 1.003841082684531e+000	-1.056405324138187e+000
1	 1.609966999230480e+000	 1.021460430010627e+000	-1.132782758651234e+000
1	 1.598717303386091e+000	 1.038979308123788e+000	-1.211114713803868e+000
1	 1.587263754208078e+000	 1.056394188006254e+000	-1.291324703923841e+000
1	 1.575607746806549e+000	 1.073701562188593e+000	-1.373307108561132e+000
1	 1.563750755886520e+000	 1.090897946993144e+000	-1.456927165153765e+000
1	 1.551694335275432e+000	 1.107979884770492e+000	-1.542021013919509e+000
1	 1.668929001697338e+000	 9.356901476774830e-001	-7.172598969809901e-001
1	 1.658680985693452e+000	 9.537386100938892e-001	-7.846743276677453e-001
1	 1.648222613148027e+000	 9.717005885902698e-001	-8.539871106472619e-001
1	 1.637554880197098e+000	 9.895724778681321e-001	-9.252301892323516e-001
1	 1.626678864096137e+000	 1.007350685235092e+000	-9.984066775326858e-001
1	 1.615595723119837e+000	 1.025031632855421e+000	-1.073490665419718e+000
1	 1.604306696387759e+000	 1.042611760005043e+000	-1.150427073618924e+000
1	 1.592813103615424e+000	 1.060087525328149e+000	-1.229131559763682e+000
1	 1.581116344790473e+000	 1.077455409092595e+000	-1.309490476125774e+000
1	 1.569217899773733e+000	 1.094711915441191e+000	-1.391360879614380e+000
1	 1.557119327825082e+000	 1.111853574635990e+000	-1.474570594509579e+000
1	 1.674743548519371e+000	 9.389500911356974e-001	-6.643307314855338e-001
1	 1.664459828439043e+000	 9.570614343752996e-001	-7.308807150184588e-001
1	 1.653965018935251e+000	 9.750859923849811e-001	-7.992640099825081e-001
1	 1.643260119614560e+000	 9.930201473054020e-001	-8.695042617611573e-001
1	 1.632346211485587e+000	 1.010860293927253e+000	-9.415959698766350e-001
1	 1.621224456858440e+000	 1.028602841949637e+000	-1.015504309812029e+000
1	 1.609896099169767e+000	 1.046244218242930e+000	-1.091165005754415e+000
1	 1.598362462732960e+000	 1.063780869113253e+000	-1.168484255063727e+000
1	 1.586624952413206e+000	 1.081209262565728e+000	-1.247338705150177e+000
1	 1.574685053227157e+000	 1.098525890563611e+000	-1.327575483317915e+000
1	 1.562544329867139e+000	 1.115727271280403e+000	-1.409012280003873e+000
1	 1.680558106969941e+000	 9.422100411133936e-001	-6.122043308356603e-001
1	 1.670238682741653e+000	 9.603842653019601e-001	-6.779877805601867e-001
1	 1.659707436206509e+000	 9.784714029501168e-001	-7.455466185724289e-001
1	 1.648965370441609e+000	 9.964678236376521e-001	-8.148949207488733e-001
1	 1.638013570208727e+000	 1.014369909638300e+000	-8.860172185567810e-001
1	 1.626853201853401e+000	 1.032174058185975e+000	-9.588683395899399e-001
1	 1.615485513129365e+000	 1.049876683745474e+000	-1.033373299983817e+000
1	 1.603911832947905e+000	 1.067474220284823e+000	-1.109427249482389e+000
1	 1.592133571051763e+000	 1.084963123546384e+000	-1.186895469804582e+000
1	 1.580152217613425e+000	 1.102339873313836e+000	-1.265613426830064e+000
1	 1.567969342757683e+000	 1.119600975672099e+000	-1.345386876993166e+000
1	 1.686372678502719e+000	 9.454699984254018e-001	-5.609165003168063e-001
1	 1.676017550046008e+000	 9.637071037044297e-001	-6.260340272155024e-001
1	 1.665449866397395e+000	 9.818568211318917e-001	-6.928755966195874e-001
1	 1.654670634104525e+000	 9.999155077266720e-001	-7.614444571792849e-001
1	 1.643680941682342e+000	 1.017879533245523e+000	-8.317138332529385e-001
1	 1.632481959511823e+000	 1.035745282457134e+000	-9.036267860029217e-001
1	 1.621074939663807e+000	 1.053509157420699e+000	-9.770961274928999e-001
1	 1.609461215647480e+000	 1.071167579766116e+000	-1.052004388523895e+000
1	 1.597642202083156e+000	 1.088716992972960e+000	-1.128203840819144e+000
1	 1.585619394299172e+000	 1.106153864645299e+000	-1.205516574036448e+000
1	 1.573394367852796e+000	 1.123474688779447e+000	-1.283734627952349e+000
1	 1.519144503377449e+000	 1.084737833706065e+000	-1.984098958362041e+000
1	 1.507147341302099e+000	 1.101346040237664e+000	-2.088026403892312e+000
1	 1.494958203042528e+000	 1.117835513184680e+000	-2.199471541720730e+000
1	 1.482578836186885e+000	 1.134202954616346e+000	-2.317496352853302e+000
1	 1.470011063245638e+000	 1.150445100653127e+000	-2.441096830569680e+000
1	 1.457256780828759e+000	 1.166558723581895e+000	-2.569204276419144e+000
1	 1.444317958751618e+000	 1.182540633947380e+000	-2.700686718536558e+000
1	 1.431196639070430e+000	 1.198387682617118e+000	-2.834350450077600e+000
1	 1.417894935048125e+000	 1.214096762817131e+000	-2.968941685253608e+000
1	 1.404415030051720e+000	 1.229664812135602e+000	-3.103148330133653e+000
1	 1.390759176382327e+000	 1.245088814491888e+000	-3.235601865074632e+000
1	 1.524569467450388e+000	 1.088611503233817e+000	-1.906185706594899e+000
1	 1.512529462727118e+000	 1.105279018753723e+000	-2.007284719845638e+000
1	 1.500296796260080e+000	 1.121827376683695e+000	-2.115525679842073e+000
1	 1.487873221878177e+000	 1.138253267315839e+000	-2.229959922928803e+000
1	 1.475260568600199e+000	 1.154553415115096e+000	-2.349570731586743e+000
1	 1.462460739809040e+000	 1.170724580841963e+000	-2.473274649315126e+000
1	 1.449475712354419e+000	 1.186763563651418e+000	-2.599922921885496e+000
1	 1.436307535584875e+000	 1.202667203165244e+000	-2.728303062740817e+000
1	 1.422958330309948e+000	 1.218432381514966e+000	-2.857140539983333e+000
1	 1.409430287693609e+000	 1.234056025352699e+000	-2.985100582071618e+000
1	 1.395725668080095e+000	 1.249535107827180e+000	-3.110790099029364e+000
1	 1.529994432879242e+000	 1.092485173730273e+000	-1.829907307099540e+000
1	 1.517911585497376e+000	 1.109211998253325e+000	-1.928288307724975e+000
1	 1.505635390812015e+000	 1.125819241180998e+000	-2.033420306181715e+000
1	 1.493167608892833e+000	 1.142303581028267e+000	-2.144349565446605e+000
1	 1.480510075266928e+000	 1.158661730604541e+000	-2.260052396793373e+000
1	 1.467664700090127e+000	 1.174890439143936e+000	-2.379436484191754e+000
1	 1.454633467246502e+000	 1.190986494411673e+000	-2.501342338788609e+000
1	 1.441418433376919e+000	 1.206946724783770e+000	-2.624544881236344e+000
1	 1.428021726837531e+000	 1.222768001297256e+000	-2.747755149295309e+000
1	 1.414445546589267e+000	 1.238447239668167e+000	-2.869622127803431e+000
1	 1.400692161019491e+000	 1.253981402274614e+000	-2.988734697778701e+000
1	 1.535419401020091e+000	 1.096358846163799e+000	-1.755308165558640e+000
1	 1.523293710958232e+000	 1.113144979719667e+000	-1.851080190739961e+000
1	 1.510973988032811e+000	 1.129811107674509e+000	-1.953198278657825e+000
1	 1.498461998554266e+000	 1.146353896766162e+000	-2.060709131906223e+000
1	 1.485759584558018e+000	 1.162770048148489e+000	-2.172587770556101e+000
1	 1.472868662972828e+000	 1.179056299529222e+000	-2.287738856757318e+000
1	 1.459791224717125e+000	 1.195209427283813e+000	-2.404998152792677e+000
1	 1.446529333724109e+000	 1.211226248542506e+000	-2.523134110359684e+000
1	 1.433085125896549e+000	 1.227103623247825e+000	-2.640849588509235e+000
1	 1.419460807992339e+000	 1.242838456179720e+000	-2.756783697327214e+000
1	 1.405658656441975e+000	 1.258427698945665e+000	-2.869513764109680e+000
1	 1.540844373229018e+000	 1.100232521502765e+000	-1.682432061185619e+000
1	 1.528675840455049e+000	 1.117077964135948e+000	-1.775702785011458e+000
1	 1.516312589256935e+000	 1.133802977162149e+000	-1.874901850340746e+000
1	 1.503756392185890e+000	 1.150404215542052e+000	-1.979081854873841e+000
1	 1.491009097785662e+000	 1.166878368773969e+000	-2.087222148726817e+000
1	 1.478072629757950e+000	 1.183222163039228e+000	-2.198230149976387e+000
1	 1.464948986055546e+000	 1.199432363323505e+000	-2.310942796687988e+000
1	 1.451640237903991e+000	 1.215505775511260e+000	-2.424128133232957e+000
1	 1.438148528752678e+000	 1.231439248450499e+000	-2.536487028344364e+000
1	 1.424476073156471e+000	 1.247229675985073e+000	-2.646655022011587e+000
1	 1.410625155589007e+000	 1.262873998951811e+000	-2.753204297969313e+000
1	 1.546269350862104e+000	 1.104106200715540e+000	-1.611322157674515e+000
1	 1.534057975333185e+000	 1.121010952485367e+000	-1.702197910179162e+000
1	 1.521651195818862e+000	 1.137794850641838e+000	-1.798572680019078e+000
1	 1.509050791111123e+000	 1.154454538368468e+000	-1.899510358793109e+000
1	 1.496258616262053e+000	 1.170986693508005e+000	-2.004000189970293e+000
1	 1.483276601746298e+000	 1.187388030715361e+000	-2.110958066170432e+000
1	 1.470106752551023e+000	 1.203655303586418e+000	-2.219227965623369e+000
1	 1.456751147194114e+000	 1.219785306759841e+000	-2.327583525659824e+000
1	 1.443211936671595e+000	 1.235774877989101e+000	-2.434729750724496e+000
1	 1.429491343335313e+000	 1.251620900181940e+000	-2.539304852044367e+000
1	 1.415591659702049e+000	 1.267320303404528e+000	-2.639882215734548e+000
1	 1.551694335275432e+000	 1.107979884770492e+000	-1.542021013919509e+000
1	 1.539440116938005e+000	 1.124943945751123e+000	-1.630606799785909e+000
1	 1.526989809053061e+000	 1.141786729111496e+000	-1.724251842543341e+000
1	 1.514345196653381e+000	 1.158504866257943e+000	-1.822036670568684e+000
1	 1.501508141299385e+000	 1.175095023377626e+000	-1.922965926853021e+000
1	 1.488480580238682e+000	 1.191553903599028e+000	-2.025969638863596e+000
1	 1.475264525492813e+000	 1.207878249128222e+000	-2.129904629944899e+000
1	 1.461862062872021e+000	 1.224064843358056e+000	-2.233556070178479e+000
1	 1.448275350918976e+000	 1.240110512947457e+000	-2.335639164250427e+000
1	 1.434506619782508e+000	 1.256012129868037e+000	-2.434800973514124e+000
1	 1.420558170022561e+000	 1.271766613415290e+000	-2.529622369076788e+000
1	 1.557119327825082e+000	 1.111853574635990e+000	-1.474570594509579e+000
1	 1.544822266614867e+000	 1.128876944916414e+000	-1.560970111444340e+000
1	 1.532328430294005e+000	 1.145778613569043e+000	-1.651979838952853e+000
1	 1.519639610136075e+000	 1.162555200223005e+000	-1.746702229927546e+000
1	 1.506757674209851e+000	 1.179203359409859e+000	-1.844162776699786e+000
1	 1.493684566535907e+000	 1.195719782731637e+000	-1.943311244379955e+000
1	 1.480422306170173e+000	 1.212101201004582e+000	-2.043023047765620e+000
1	 1.466972986215262e+000	 1.228344386375714e+000	-2.142100769819691e+000
1	 1.453338772760495e+000	 1.244446154409389e+000	-2.239275819347696e+000
1	 1.439521903751706e+000	 1.260403366141076e+000	-2.333210225133429e+000
1	 1.425524687792004e+000	 1.276212930095576e+000	-2.422498563430644e+000
1	 1.562544329867139e+000	 1.115727271280403e+000	-1.409012280003873e+000
1	 1.550204425709133e+000	 1.132809950964440e+000	-1.493327936791074e+000
1	 1.537667060876166e+000	 1.149770505012400e+000	-1.581796606390806e+000
1	 1.524934032882624e+000	 1.166605541276186e+000	-1.673547899564032e+000
1	 1.512007216305645e+000	 1.183311702631730e+000	-1.767633552223147e+000
1	 1.498888561938780e+000	 1.199885669154594e+000	-1.863028613198851e+000
1	 1.485580095872362e+000	 1.216324160271170e+000	-1.958632777272461e+000
1	 1.472083918501383e+000	 1.232623936882623e+000	-2.053271861577673e+000
1	 1.458402203461830e+000	 1.248781803458724e+000	-2.145699423098074e+000
1	 1.444537196496551e+000	 1.264794610098774e+000	-2.234598514612944e+000
1	 1.430491214251839e+000	 1.280659254556861e+000	-2.318583576077044e+000
1	 1.567969342757683e+000	 1.119600975672099e+000	-1.345386876993166e+000
1	 1.555586595566164e+000	 1.136742964878400e+000	-1.427719811233580e+000
1	 1.543005702134014e+000	 1.153762404439487e+000	-1.513741527813155e+000
1	 1.530228466216443e+000	 1.170655890430016e+000	-1.602613975073478e+000
1	 1.517256768898960e+000	 1.187420054070268e+000	-1.693420471931838e+000
1	 1.504092567748108e+000	 1.204051563909306e+000	-1.785166841073278e+000
1	 1.490737895888636e+000	 1.220547127983652e+000	-1.876782688776985e+000
1	 1.477194861007929e+000	 1.236903495948591e+000	-1.967122829600137e+000
1	 1.463465644288655e+000	 1.253117461179285e+000	-2.054968853762088e+000
1	 1.449552499270689e+000	 1.269185862838843e+000	-2.139030834694175e+000
1	 1.435457750643527e+000	 1.285105587910620e+000	-2.217949173849513e+000
1	 1.573394367852796e+000	 1.123474688779447e+000	-1.283734627952349e+000
1	 1.560968777531320e+000	 1.140675987641491e+000	-1.364184723494752e+000
1	 1.548344355402024e+000	 1.157754312848225e+000	-1.447853441495663e+000
1	 1.535522911460947e+000	 1.174706248697026e+000	-1.533940194679728e+000
1	 1.522506333301989e+000	 1.191528414752497e+000	-1.621565170322818e+000
1	 1.509296585264699e+000	 1.208217468037181e+000	-1.709770399917816e+000
1	 1.495895707508254e+000	 1.224770105197696e+000	-1.797520976515959e+000
1	 1.482305815012449e+000	 1.241183064643427e+000	-1.883706418104783e+000
1	 1.468529096506648e+000	 1.257453128654897e+000	-1.967142175000059e+000
1	 1.454567813327771e+000	 1.273577125459001e+000	-2.046571278849716e+000
1	 1.440424298208528e+000	 1.289551931268331e+000	-2.120666130473089e+000
1	 1.390759176382327e+000	 1.245088814491888e+000	-3.235601865074632e+000
1	 1.376931781464302e+000	 1.260363522001592e+000	-3.357384374605669e+000
1	 1.362933196495552e+000	 1.275488343663569e+000	-3.461876553492976e+000
1	 1.348765872990182e+000	 1.290460416310646e+000	-3.551117168981461e+000
1	 1.334432326005897e+000	 1.305276930578148e+000	-3.627221478419529e+000
1	 1.319935132658436e+000	 1.319935132658435e+000	-3.692377556191511e+000
1	 1.305276930578149e+000	 1.334432326005897e+000	-3.748842488867616e+000
1	 1.290460416310646e+000	 1.348765872990182e+000	-3.798938446526749e+000
1	 1.275488343663570e+000	 1.362933196495552e+000	-3.845048638523322e+000
1	 1.260363522001592e+000	 1.376931781464302e+000	-3.889613162265175e+000
1	 1.245088814491889e+000	 1.390759176382327e+000	-3.935124753833703e+000
1	 1.395725668080095e+000	 1.249535107827180e+000	-3.110790099029364e+000
1	 1.381848894632969e+000	 1.264864362313474e+000	-3.225725342124716e+000
1	 1.367800319804291e+000	 1.280043195699931e+000	-3.323726221585844e+000
1	 1.353582403862687e+000	 1.295068734594818e+000	-3.406816195579342e+000
1	 1.339197670847297e+000	 1.309938159601035e+000	-3.477095106911793e+000
1	 1.324648707076913e+000	 1.324648707076912e+000	-3.536735513866421e+000
1	 1.309938159601035e+000	 1.339197670847297e+000	-3.587978889278239e+000
1	 1.295068734594818e+000	 1.353582403862687e+000	-3.633131695803712e+000
1	 1.280043195699931e+000	 1.367800319804292e+000	-3.674561345659911e+000
1	 1.264864362313473e+000	 1.381848894632969e+000	-3.714692053400899e+000
1	 1.249535107827180e+000	 1.395725668080095e+000	-3.756000590565232e+000
1	 1.400692161019491e+000	 1.253981402274614e+000	-2.988734697778701e+000
1	 1.386766009030979e+000	 1.269365203751116e+000	-3.097052012114446e+000
1	 1.372667444329943e+000	 1.284598048875522e+000	-3.188829966317997e+000
1	 1.358398935939528e+000	 1.299677054031539e+000	-3.266064949090525e+000
1	 1.343963016880310e+000	 1.314599389789641e+000	-3.330829198167859e+000
1	 1.329362282674131e+000	 1.329362282674130e+000	-3.385267156799535e+000
1	 1.314599389789641e+000	 1.343963016880310e+000	-3.431591699251054e+000
1	 1.299677054031539e+000	 1.358398935939528e+000	-3.472080233239078e+000
1	 1.284598048875522e+000	 1.372667444329943e+000	-3.509070687528322e+000
1	 1.269365203751116e+000	 1.386766009030979e+000	-3.544957393208447e+000
1	 1.253981402274614e+000	 1.400692161019491e+000	-3.582186867435074e+000
1	 1.405658656441975e+000	 1.258427698945665e+000	-2.869513764109680e+000
1	 1.391683125887454e+000	 1.273866047439626e+000	-2.971448585301022e+000
1	 1.377534571289138e+000	 1.289152904328944e+000	-3.057274946754586e+000
1	 1.363215470424692e+000	 1.304285375772770e+000	-3.128950531767784e+000
1	 1.348728365296131e+000	 1.319260622309147e+000	-3.188507909894210e+000
1	 1.334075860628347e+000	 1.334075860628347e+000	-3.238050940676977e+000
1	 1.319260622309147e+000	 1.348728365296131e+000	-3.279751047948393e+000
1	 1.304285375772770e+000	 1.363215470424692e+000	-3.315843372514905e+000
1	 1.289152904328944e+000	 1.377534571289138e+000	-3.348622811359020e+000
1	 1.273866047439626e+000	 1.391683125887454e+000	-3.380439951777309e+000
1	 1.258427698945666e+000	 1.405658656441974e+000	-3.413696909136388e+000
1	 1.410625155589007e+000	 1.262873998951811e+000	-2.753204297969313e+000
1	 1.396600246431514e+000	 1.278366894504106e+000	-2.848998073239283e+000
1	 1.382401701898505e+000	 1.293707763198798e+000	-2.929147090610075e+000
1	 1.368032008522168e+000	 1.308893700970471e+000	-2.995558814751114e+000
1	 1.353493717285959e+000	 1.323921858324734e+000	-3.050214209564563e+000
1	 1.338789442117826e+000	 1.338789442117826e+000	-3.095164210658477e+000
1	 1.323921858324734e+000	 1.353493717285959e+000	-3.132526070686476e+000
1	 1.308893700970470e+000	 1.368032008522168e+000	-3.164479585233055e+000
1	 1.293707763198798e+000	 1.382401701898506e+000	-3.193263207231628e+000
1	 1.278366894504106e+000	 1.396600246431514e+000	-3.221170058184794e+000
1	 1.262873998951811e+000	 1.410625155589007e+000	-3.250543844714146e+000
1	 1.415591659702049e+000	 1.267320303404528e+000	-2.639882215734548e+000
1	 1.401517371892282e+000	 1.282867746069662e+000	-2.729782319089154e+000
1	 1.387268837374675e+000	 1.298262626623684e+000	-2.804531115755440e+000
1	 1.372848551435941e+000	 1.313502030776599e+000	-2.865974459561327e+000
1	 1.358259074040989e+000	 1.328583099001582e+000	-2.916029895185854e+000
1	 1.343503028320826e+000	 1.343503028320826e+000	-2.956683220735258e+000
1	 1.328583099001582e+000	 1.358259074040988e+000	-2.989984926237017e+000
1	 1.313502030776599e+000	 1.372848551435941e+000	-3.018046515545620e+000
1	 1.298262626623683e+000	 1.387268837374675e+000	-3.043036719453299e+000
1	 1.282867746069663e+000	 1.401517371892282e+000	-3.067177608076224e+000
1	 1.267320303404527e+000	 1.415591659702049e+000	-3.092740610836303e+000
1	 1.420558170022561e+000	 1.271766613415290e+000	-2.529622369076788e+000
1	 1.406434503498881e+000	 1.287368603261401e+000	-2.613882017954643e+000
1	 1.392135978934277e+000	 1.302817495742201e+000	-2.683510551272924e+000
1	 1.377665100370002e+000	 1.318110366343118e+000	-2.740280939141136e+000
1	 1.363024436752418e+000	 1.333244345504872e+000	-2.786035615627907e+000
1	 1.348216620415608e+000	 1.348216620415608e+000	-2.822683152680968e+000
1	 1.333244345504872e+000	 1.363024436752418e+000	-2.852194813764793e+000
1	 1.318110366343118e+000	 1.377665100370002e+000	-2.876600994477221e+000
1	 1.302817495742201e+000	 1.392135978934277e+000	-2.897987557697600e+000
1	 1.287368603261400e+000	 1.406434503498881e+000	-2.918492071085765e+000
1	 1.271766613415290e+000	 1.420558170022561e+000	-2.940299954996284e+000
1	 1.425524687792004e+000	 1.276212930095576e+000	-2.422498563430643e+000
1	 1.411351642480431e+000	 1.291869467204425e+000	-2.501376736796663e+000
1	 1.397003127793942e+000	 1.307372371692950e+000	-2.566167758069267e+000
1	 1.382481656528336e+000	 1.322718708821985e+000	-2.618560558455131e+000
1	 1.367789806611446e+000	 1.337905598999786e+000	-2.660310890526331e+000
1	 1.352930219580434e+000	 1.352930219580434e+000	-2.693238134605045e+000
1	 1.337905598999786e+000	 1.367789806611446e+000	-2.719221989409971e+000
1	 1.322718708821984e+000	 1.382481656528336e+000	-2.740199053947467e+000
1	 1.307372371692951e+000	 1.397003127793941e+000	-2.758159307909790e+000
1	 1.291869467204424e+000	 1.411351642480431e+000	-2.775142498101405e+000
1	 1.276212930095576e+000	 1.425524687792005e+000	-2.793234438648171e+000
1	 1.430491214251839e+000	 1.280659254556861e+000	-2.318583576077044e+000
1	 1.416268790066055e+000	 1.296370339023840e+000	-2.392344933929527e+000
1	 1.401870285170298e+000	 1.311927255614532e+000	-2.452583949058066e+000
1	 1.387298221114932e+000	 1.327327059365160e+000	-2.500894474659263e+000
1	 1.372555184809268e+000	 1.342566860651502e+000	-2.538934129769745e+000
1	 1.357643826993563e+000	 1.357643826993563e+000	-2.568421259118293e+000
1	 1.342566860651503e+000	 1.372555184809268e+000	-2.591131782524141e+000
1	 1.327327059365160e+000	 1.387298221114932e+000	-2.608895940499775e+000
1	 1.311927255614533e+000	 1.401870285170298e+000	-2.623594942984352e+000
1	 1.296370339023840e+000	 1.416268790066055e+000	-2.637157528378476e+000
1	 1.280659254556861e+000	 1.430491214251839e+000	-2.651556440276593e+000
1	 1.435457750643527e+000	 1.285105587910620e+000	-2.217949173849513e+000
1	 1.421185947484873e+000	 1.300871219844750e+000	-2.286863978111514e+000
1	 1.406737452279978e+000	 1.316482148645548e+000	-2.342839208922025e+000
1	 1.392114795333778e+000	 1.331935419124604e+000	-2.387362716850268e+000
1	 1.377320572537081e+000	 1.347228131625204e+000	-2.421982652581137e+000
1	 1.362357443833257e+000	 1.362357443833257e+000	-2.448304601120525e+000
1	 1.347228131625204e+000	 1.377320572537081e+000	-2.467988611567934e+000
1	 1.331935419124604e+000	 1.392114795333778e+000	-2.482746128744905e+000
1	 1.316482148645548e+000	 1.406737452279977e+000	-2.494336833220123e+000
1	 1.300871219844750e+000	 1.421185947484873e+000	-2.504565396504699e+000
1	 1.285105587910620e+000	 1.435457750643527e+000	-2.515278158402513e+000
1	 1.440424298208528e+000	 1.289551931268331e+000	-2.120666130473089e+000
1	 1.426103115966008e+000	 1.305372110792263e+000	-2.185010167239192e+000
1	 1.411604630339610e+000	 1.321037051924598e+000	-2.237012513464982e+000
1	 1.396931380388861e+000	 1.336543789252277e+000	-2.278044205405358e+000
1	 1.382085970986084e+000	 1.351889413086072e+000	-2.309532706203255e+000
1	 1.367071071277777e+000	 1.367071071277777e+000	-2.332959235218641e+000
1	 1.351889413086072e+000	 1.382085970986084e+000	-2.349855999679113e+000
1	 1.336543789252277e+000	 1.396931380388861e+000	-2.361803334525100e+000
1	 1.321037051924597e+000	 1.411604630339610e+000	-2.370426756558503e+000
1	 1.305372110792263e+000	 1.426103115966009e+000	-2.377393939221111e+000
1	 1.289551931268331e+000	 1.440424298208528e+000	-2.384411614526820e+000
1	 1.245088814491889e+000	 1.390759176382327e+000	-3.935124753833703e+000
1	 1.229664812135602e+000	 1.404415030051719e+000	-3.980337586128292e+000
1	 1.214096762817131e+000	 1.417894935048125e+000	-4.023203882571776e+000
1	 1.198387682617119e+000	 1.431196639070430e+000	-4.065100724983155e+000
1	 1.182540633947380e+000	 1.444317958751618e+000	-4.107442447395695e+000
1	 1.166558723581895e+000	 1.457256780828759e+000	-4.151678301162094e+000
1	 1.150445100653127e+000	 1.470011063245638e+000	-4.199290066042038e+000
1	 1.134202954616346e+000	 1.482578836186884e+000	-4.251789612427840e+000
1	 1.117835513184680e+000	 1.494958203042528e+000	-4.310716419962569e+000
1	 1.101346040237664e+000	 1.507147341302099e+000	-4.377635057886073e+000
1	 1.084737833706065e+000	 1.519144503377448e+000	-4.454132632509871e+000
1	 1.249535107827180e+000	 1.395725668080095e+000	-3.756000590565232e+000
1	 1.234056025352699e+000	 1.409430287693609e+000	-3.797201001403943e+000
1	 1.218432381514966e+000	 1.422958330309948e+000	-3.836206048961815e+000
1	 1.202667203165244e+000	 1.436307535584875e+000	-3.874377258887658e+000
1	 1.186763563651419e+000	 1.449475712354419e+000	-3.913115158834382e+000
1	 1.170724580841963e+000	 1.462460739809040e+000	-3.953856949989864e+000
1	 1.154553415115096e+000	 1.475260568600200e+000	-3.998074121306796e+000
1	 1.138253267315839e+000	 1.487873221878177e+000	-4.047270011601474e+000
1	 1.121827376683695e+000	 1.500296796260079e+000	-4.102977324797164e+000
1	 1.105279018753723e+000	 1.512529462727118e+000	-4.166755603677668e+000
1	 1.088611503233817e+000	 1.524569467450388e+000	-4.240188667590049e+000
1	 1.253981402274614e+000	 1.400692161019491e+000	-3.582186867435074e+000
1	 1.238447239668167e+000	 1.414445546589267e+000	-3.619430098440683e+000
1	 1.222768001297256e+000	 1.428021726837530e+000	-3.654572678442889e+000
1	 1.206946724783770e+000	 1.441418433376919e+000	-3.688969249281064e+000
1	 1.190986494411673e+000	 1.454633467246502e+000	-3.724015589675982e+000
1	 1.174890439143936e+000	 1.467664700090127e+000	-3.761146274651989e+000
1	 1.158661730604541e+000	 1.480510075266929e+000	-3.801832273792354e+000
1	 1.142303581028268e+000	 1.493167608892833e+000	-3.847578493554464e+000
1	 1.125819241180998e+000	 1.505635390812016e+000	-3.899921268987417e+000
1	 1.109211998253325e+000	 1.517911585497376e+000	-3.960425810292680e+000
1	 1.092485173730272e+000	 1.529994432879242e+000	-4.030683609751252e+000
1	 1.258427698945666e+000	 1.405658656441974e+000	-3.413696909136388e+000
1	 1.242838456179720e+000	 1.419460807992339e+000	-3.447021247817114e+000
1	 1.227103623247825e+000	 1.433085125896548e+000	-3.478286081706903e+000
1	 1.211226248542506e+000	 1.446529333724109e+000	-3.508847740050407e+000
1	 1.195209427283812e+000	 1.459791224717125e+000	-3.540106206459507e+000
1	 1.179056299529222e+000	 1.472868662972828e+000	-3.573502747804232e+000
1	 1.162770048148490e+000	 1.485759584558018e+000	-3.610517477491092e+000
1	 1.146353896766162e+000	 1.498461998554265e+000	-3.652666858455632e+000
1	 1.129811107674509e+000	 1.510973988032811e+000	-3.701501151322265e+000
1	 1.113144979719667e+000	 1.523293710958232e+000	-3.758601813293526e+000
1	 1.096358846163799e+000	 1.535419401020091e+000	-3.825578853422296e+000
1	 1.262873998951811e+000	 1.410625155589007e+000	-3.250543844714146e+000
1	 1.247229675985073e+000	 1.424476073156471e+000	-3.279970863023159e+000
1	 1.231439248450499e+000	 1.438148528752678e+000	-3.307328810264622e+000
1	 1.215505775511260e+000	 1.451640237903991e+000	-3.333984174568315e+000
1	 1.199432363323505e+000	 1.464948986055546e+000	-3.361349996081153e+000
1	 1.183222163039228e+000	 1.478072629757949e+000	-3.390883447014397e+000
1	 1.166878368773969e+000	 1.491009097785662e+000	-3.424083341055261e+000
1	 1.150404215542052e+000	 1.503756392185891e+000	-3.462487577613179e+000
1	 1.133802977162149e+000	 1.516312589256935e+000	-3.507670526508242e+000
1	 1.117077964135948e+000	 1.528675840455049e+000	-3.561240358830470e+000
1	 1.100232521502765e+000	 1.540844373229018e+000	-3.624836329799549e+000
1	 1.267320303404527e+000	 1.415591659702049e+000	-3.092740610836303e+000
1	 1.251620900181940e+000	 1.429491343335313e+000	-3.118275399543569e+000
1	 1.235774877989102e+000	 1.443211936671596e+000	-3.141683652056066e+000
1	 1.219785306759841e+000	 1.456751147194113e+000	-3.164350388520195e+000
1	 1.203655303586418e+000	 1.470106752551023e+000	-3.187710456502614e+000
1	 1.187388030715362e+000	 1.483276601746298e+000	-3.213246043989627e+000
1	 1.170986693508005e+000	 1.496258616262053e+000	-3.242484116154308e+000
1	 1.154454538368468e+000	 1.509050791111123e+000	-3.276993781546262e+000
1	 1.137794850641837e+000	 1.521651195818862e+000	-3.318383593511731e+000
1	 1.121010952485367e+000	 1.534057975333186e+000	-3.368298792782319e+000
1	 1.104106200715540e+000	 1.546269350862104e+000	-3.428418497285770e+000
1	 1.271766613415290e+000	 1.420558170022561e+000	-2.940299954996284e+000
1	 1.256012129868037e+000	 1.434506619782509e+000	-2.961931353960821e+000
1	 1.240110512947457e+000	 1.448275350918975e+000	-2.981333627153507e+000
1	 1.224064843358056e+000	 1.461862062872021e+000	-2.999918602882653e+000
1	 1.207878249128222e+000	 1.475264525492813e+000	-3.019151587654783e+000
1	 1.191553903599029e+000	 1.488480580238682e+000	-3.040548794030344e+000
1	 1.175095023377626e+000	 1.501508141299385e+000	-3.065674686077332e+000
1	 1.158504866257943e+000	 1.514345196653381e+000	-3.096139248307793e+000
1	 1.141786729111495e+000	 1.526989809053061e+000	-3.133595184146333e+000
1	 1.124943945751123e+000	 1.539440116938005e+000	-3.179735050125671e+000
1	 1.107979884770492e+000	 1.551694335275432e+000	-3.236288332129386e+000
1	 1.276212930095576e+000	 1.425524687792005e+000	-2.793234438648171e+000
1	 1.260403366141076e+000	 1.439521903751706e+000	-2.810935263076521e+000
1	 1.244446154409390e+000	 1.453338772760495e+000	-2.826261983554513e+000
1	 1.228344386375714e+000	 1.466972986215262e+000	-2.840661417048771e+000
1	 1.212101201004582e+000	 1.480422306170173e+000	-2.855637882532370e+000
1	 1.195719782731637e+000	 1.493684566535906e+000	-2.872750525705199e+000
1	 1.179203359409859e+000	 1.506757674209851e+000	-2.893610554574672e+000
1	 1.162555200223005e+000	 1.519639610136075e+000	-2.919878392051927e+000
1	 1.145778613569043e+000	 1.532328430294006e+000	-2.953260751899859e+000
1	 1.128876944916414e+000	 1.544822266614867e+000	-2.995507644526874e+000
1	 1.111853574635990e+000	 1.557119327825082e+000	-3.048409319260995e+000
1	 1.280659254556861e+000	 1.430491214251839e+000	-2.651556440276593e+000
1	 1.264794610098774e+000	 1.444537196496550e+000	-2.665283703051655e+000
1	 1.248781803458724e+000	 1.458402203461829e+000	-2.676452193062760e+000
1	 1.232623936882623e+000	 1.472083918501383e+000	-2.686551802097531e+000
1	 1.216324160271170e+000	 1.485580095872362e+000	-2.697134318474591e+000
1	 1.199885669154594e+000	 1.498888561938780e+000	-2.709810630742183e+000
1	 1.183311702631730e+000	 1.512007216305645e+000	-2.726247834932443e+000
1	 1.166605541276186e+000	 1.524934032882625e+000	-2.748166251840707e+000
1	 1.149770505012400e+000	 1.537667060876166e+000	-2.777336360994613e+000
1	 1.132809950964440e+000	 1.550204425709133e+000	-2.815575658152050e+000
1	 1.115727271280403e+000	 1.562544329867139e+000	-2.864745443320718e+000
1	 1.285105587910620e+000	 1.435457750643527e+000	-2.515278158402513e+000
1	 1.269185862838843e+000	 1.449552499270689e+000	-2.524973288564416e+000
1	 1.253117461179285e+000	 1.463465644288655e+000	-2.531887947255020e+000
1	 1.236903495948591e+000	 1.477194861007929e+000	-2.537563094203108e+000
1	 1.220547127983651e+000	 1.490737895888636e+000	-2.543606348627565e+000
1	 1.204051563909306e+000	 1.504092567748108e+000	-2.551689054129927e+000
1	 1.187420054070267e+000	 1.517256768898960e+000	-2.563543239275024e+000
1	 1.170655890430016e+000	 1.530228466216443e+000	-2.580958480683735e+000
1	 1.153762404439487e+000	 1.543005702134015e+000	-2.605778675675544e+000
1	 1.136742964878399e+000	 1.555586595566163e+000	-2.639898731688643e+000
1	 1.119600975672099e+000	 1.567969342757683e+000	-2.685261179872770e+000
1	 1.289551931268331e+000	 1.440424298208528e+000	-2.384411614526820e+000
1	 1.273577125459001e+000	 1.454567813327771e+000	-2.390000671985726e+000
1	 1.257453128654896e+000	 1.468529096506647e+000	-2.392553153531598e+000
1	 1.241183064643427e+000	 1.482305815012449e+000	-2.393668988181218e+000
1	 1.224770105197696e+000	 1.495895707508254e+000	-2.395019893583758e+000
1	 1.208217468037181e+000	 1.509296585264699e+000	-2.398346284424737e+000
1	 1.191528414752497e+000	 1.522506333301989e+000	-2.405454068089194e+000
1	 1.174706248697026e+000	 1.535522911460947e+000	-2.418211334805283e+000
1	 1.157754312848225e+000	 1.548344355402024e+000	-2.438544949720988e+000
1	 1.140675987641491e+000	 1.560968777531320e+000	-2.468437054574729e+000
1	 1.123474688779447e+000	 1.573394367852797e+000	-2.509921486802308e+000
1	 1.084737833706065e+000	 1.519144503377448e+000	-4.454132632509871e+000
1	 1.068014223074453e+000	 1.530948016922200e+000	-4.545016366085953e+000
1	 1.051178566166237e+000	 1.542556284205236e+000	-4.654898571673112e+000
1	 1.034234248099904e+000	 1.553967783993609e+000	-4.785099934695915e+000
1	 1.017184679476191e+000	 1.565181072517051e+000	-4.936953445507400e+000
1	 1.000033294188532e+000	 1.576194783930540e+000	-5.111802129193745e+000
1	 9.827835472266669e-001	 1.587007630703517e+000	-5.310996769314156e+000
1	 9.654389124762561e-001	 1.597618403935809e+000	-5.535893630368661e+000
1	 9.480028805172913e-001	 1.608025973600485e+000	-5.787852183743284e+000
1	 9.304789564241000e-001	 1.618229288713945e+000	-6.068232841826781e+000
1	 9.128706575696799e-001	 1.628227377433698e+000	-6.378394704924935e+000
1	 1.088611503233817e+000	 1.524569467450388e+000	-4.240188667590049e+000
1	 1.071828171498351e+000	 1.536415132111450e+000	-4.328079531963744e+000
1	 1.054932393361736e+000	 1.548064853273591e+000	-4.435021179406420e+000
1	 1.037927566030934e+000	 1.559517104271456e+000	-4.562309153670489e+000
1	 1.020817112286157e+000	 1.570770436178989e+000	-4.711250716830433e+000
1	 1.003604478283490e+000	 1.581823478273663e+000	-4.883162623797470e+000
1	 9.862931313506642e-001	 1.592674938427072e+000	-5.079368891350232e+000
1	 9.688865577788065e-001	 1.603323603421993e+000	-5.301198566374739e+000
1	 9.513882606129946e-001	 1.613768339196110e+000	-5.549983497966035e+000
1	 9.338017574444000e-001	 1.624008091012704e+000	-5.827056117987224e+000
1	 9.161305782067855e-001	 1.634041883558782e+000	-6.133747234613858e+000
1	 1.092485173730272e+000	 1.529994432879242e+000	-4.030683609751252e+000
1	 1.075642120876025e+000	 1.541882248667110e+000	-4.115492519299805e+000
1	 1.058686221496000e+000	 1.553573423718674e+000	-4.219416156413002e+000
1	 1.041620884885633e+000	 1.565066425936168e+000	-4.343722366964324e+000
1	 1.024449546004611e+000	 1.576359801237752e+000	-4.489690018929044e+000
1	 1.007175663271671e+000	 1.587452174023388e+000	-4.658606827750455e+000
1	 9.898027163525365e-001	 1.598342247566829e+000	-4.851767176932329e+000
1	 9.723342039438022e-001	 1.609028804333806e+000	-5.070469938439042e+000
1	 9.547736415556308e-001	 1.619510706226610e+000	-5.316016297442225e+000
1	 9.371245592960398e-001	 1.629786894755407e+000	-5.589707585897238e+000
1	 9.193904996595567e-001	 1.639856391136701e+000	-5.892843129364247e+000
1	 1.096358846163799e+000	 1.535419401020091e+000	-3.825578853422296e+000
1	 1.079456072160909e+000	 1.547349367955814e+000	-3.907222497434666e+000
1	 1.062440051507424e+000	 1.559081996917497e+000	-4.008055555225120e+000
1	 1.045314205587258e+000	 1.570615750374966e+000	-4.129315649230658e+000
1	 1.028081981539576e+000	 1.581949169090591e+000	-4.272250618847085e+000
1	 1.010746850045776e+000	 1.593080872586826e+000	-4.438116402751907e+000
1	 9.933123031095723e-001	 1.604009559539578e+000	-4.628174917294126e+000
1	 9.757818518330342e-001	 1.614734008097527e+000	-4.843691935405025e+000
1	 9.581590241914133e-001	 1.625253076127579e+000	-5.085934970440986e+000
1	 9.404473628095779e-001	 1.635565701386777e+000	-5.356171169315088e+000
1	 9.226504227428253e-001	 1.645670901621128e+000	-5.655665219203484e+000
1	 1.100232521502765e+000	 1.540844373229018e+000	-3.624836329799549e+000
1	 1.083270026306435e+000	 1.552816491344194e+000	-3.703237091362134e+000
1	 1.066193884334401e+000	 1.564590574247075e+000	-3.800911815446422e+000
1	 1.049007529059066e+000	 1.576165078975069e+000	-3.919065405717664e+000
1	 1.031714419799079e+000	 1.587538541134760e+000	-4.058912069415350e+000
1	 1.014318039498504e+000	 1.598709575371082e+000	-4.221673262703104e+000
1	 9.968218924990582e-001	 1.609676875762099e+000	-4.408575633055102e+000
1	 9.792295023082922e-001	 1.620439216139437e+000	-4.620848962991611e+000
1	 9.615444093665553e-001	 1.630995450334611e+000	-4.859724119433213e+000
1	 9.437701688155737e-001	 1.641344512351542e+000	-5.126431012886685e+000
1	 9.259103482714212e-001	 1.651485416465734e+000	-5.422196570608450e+000
1	 1.104106200715540e+000	 1.546269350862104e+000	-3.428418497285770e+000
1	 1.087083984266036e+000	 1.558283620198885e+000	-3.503504373593223e+000
1	 1.069947720915326e+000	 1.570099157084421e+000	-3.597957756820932e+000
1	 1.052700856224312e+000	 1.581714413123700e+000	-3.712948366329634e+000
1	 1.035346861691141e+000	 1.593127918767508e+000	-3.849654204100427e+000
1	 1.017889232522554e+000	 1.604338283783265e+000	-4.009259569146618e+000
1	 1.000331485398282e+000	 1.615344197651177e+000	-4.192953070061052e+000
1	 9.826771562313678e-001	 1.626144429885816e+000	-4.401925639854952e+000
1	 9.649297979272699e-001	 1.636737830283300e+000	-4.637368557201484e+000
1	 9.470929781445853e-001	 1.647123329094427e+000	-4.900471478139697e+000
1	 9.291702770601759e-001	 1.657299937124190e+000	-5.192420482228516e+000
1	 1.107979884770492e+000	 1.551694335275432e+000	-3.236288332129386e+000
1	 1.090897946993144e+000	 1.563750755886520e+000	-3.307992856191075e+000
1	 1.073701562188594e+000	 1.575607746806549e+000	-3.399166572447701e+000
1	 1.056394188006254e+000	 1.587263754208078e+000	-3.510941579813534e+000
1	 1.038979308123788e+000	 1.598717303386091e+000	-3.644457131962125e+000
1	 1.021460430010627e+000	 1.609966999230480e+000	-3.800857726801723e+000
1	 1.003841082684530e+000	 1.621011526623595e+000	-3.981291195312697e+000
1	 9.861248144640508e-001	 1.631849650762943e+000	-4.186906793732689e+000
1	 9.683151907197705e-001	 1.642480217409241e+000	-4.418853303031765e+000
1	 9.504157916271706e-001	 1.652902153060155e+000	-4.678277139561800e+000
1	 9.324302099239196e-001	 1.663114465050168e+000	-4.966320480698378e+000
1	 1.111853574635990e+000	 1.557119327825082e+000	-3.048409319260995e+000
1	 1.094711915441191e+000	 1.569217899773733e+000	-3.116671482973132e+000
1	 1.077455409092595e+000	 1.581116344790473e+000	-3.204511822138123e+000
1	 1.060087525328149e+000	 1.592813103615424e+000	-3.313022408067061e+000
1	 1.042611760005043e+000	 1.604306696387760e+000	-3.443301232716244e+000
1	 1.025031632855421e+000	 1.615595723119837e+000	-3.596450379193304e+000
1	 1.007350685235092e+000	 1.626678864096137e+000	-3.773574192979386e+000
1	 9.895724778681322e-001	 1.637554880197098e+000	-3.975777457669306e+000
1	 9.717005885902695e-001	 1.648222613148027e+000	-4.204163578984900e+000
1	 9.537386100938896e-001	 1.658680985693452e+000	-4.459832780761520e+000
1	 9.356901476774832e-001	 1.668929001697338e+000	-4.743880316538828e+000
1	 1.115727271280403e+000	 1.562544329867139e+000	-2.864745443320718e+000
1	 1.098525890563611e+000	 1.574685053227156e+000	-2.929509621876279e+000
1	 1.081209262565728e+000	 1.586624952413206e+000	-3.013967425911684e+000
1	 1.063780869113253e+000	 1.598362462732960e+000	-3.119168520566024e+000
1	 1.046244218242930e+000	 1.609896099169767e+000	-3.246167151901119e+000
1	 1.028602841949637e+000	 1.621224456858440e+000	-3.396020404372209e+000
1	 1.010860293927253e+000	 1.632346211485587e+000	-3.569786460496282e+000
1	 9.930201473054026e-001	 1.643260119614560e+000	-3.768522866320465e+000
1	 9.750859923849807e-001	 1.653965018935252e+000	-3.993284806246283e+000
1	 9.570614343752997e-001	 1.664459828439043e+000	-4.245123390708923e+000
1	 9.389500911356973e-001	 1.674743548519371e+000	-4.525083960143232e+000
1	 1.119600975672099e+000	 1.567969342757683e+000	-2.685261179872770e+000
1	 1.102339873313836e+000	 1.580152217613425e+000	-2.746477057480949e+000
1	 1.084963123546385e+000	 1.592133571051762e+000	-2.827507657627506e+000
1	 1.067474220284823e+000	 1.603911832947904e+000	-2.929357888907657e+000
1	 1.049876683745474e+000	 1.615485513129365e+000	-3.053035796144309e+000
1	 1.032174058185975e+000	 1.626853201853401e+000	-3.199550910724827e+000
1	 1.014369909638300e+000	 1.638013570208727e+000	-3.369912604742710e+000
1	 9.964678236376523e-001	 1.648965370441609e+000	-3.565128452334214e+000
1	 9.784714029501171e-001	 1.659707436206510e+000	-3.786202601551263e+000
1	 9.603842653019601e-001	 1.670238682741653e+000	-4.034134160054979e+000
1	 9.422100411133937e-001	 1.680558106969942e+000	-4.309915597847390e+000
1	 1.123474688779447e+000	 1.573394367852797e+000	-2.509921486802308e+000
1	 1.106153864645299e+000	 1.585619394299173e+000	-2.567543983690430e+000
1	 1.088716992972960e+000	 1.597642202083156e+000	-2.645107138747967e+000
1	 1.071167579766116e+000	 1.609461215647480e+000	-2.743568781467154e+000
1	 1.053509157420699e+000	 1.621074939663807e+000	-2.863888328527973e+000
1	 1.035745282457134e+000	 1.632481959511823e+000	-3.007025232869476e+000
1	 1.017879533245523e+000	 1.643680941682343e+000	-3.173937438299849e+000
1	 9.999155077266725e-001	 1.654670634104525e+000	-3.365579842807181e+000
1	 9.818568211318918e-001	 1.665449866397395e+000	-3.582902773684991e+000
1	 9.637071037044300e-001	 1.676017550046008e+000	-3.826850477527188e+000
1	 9.454699984254019e-001	 1.686372678502719e+000	-4.098359628081416e+000
1	 9.128706575696799e-001	 1.628227377433698e+000	-6.378394704924934e+000
1	 8.951841707274577e-001	 1.638017894080757e+000	-6.718458358548019e+000
1	 8.774203956610007e-001	 1.647601541619870e+000	-7.088804593699786e+000
1	 8.595828728996265e-001	 1.656977587152687e+000	-7.491018502772304e+000
1	 8.416751465452838e-001	 1.666145376561775e+000	-7.926662652512906e+000
1	 8.237007621394887e-001	 1.675104334255827e+000	-8.397274840880129e+000
1	 8.056632645502202e-001	 1.683853962847609e+000	-8.904365916252482e+000
1	 7.875661958811588e-001	 1.692393842765832e+000	-9.449417662585306e+000
1	 7.694130934055927e-001	 1.700723631802261e+000	-1.003388075389618e+001
1	 7.512074875272330e-001	 1.708843064595402e+000	-1.065917278124143e+001
1	 7.329528997701102e-001	 1.716751952052255e+000	-1.132667635512163e+001
1	 9.161305782067855e-001	 1.634041883558782e+000	-6.133747234613858e+000
1	 8.983809317669452e-001	 1.643867362778795e+000	-6.470122107734894e+000
1	 8.805537211015639e-001	 1.653485234147827e+000	-6.836557448578324e+000
1	 8.626524993834223e-001	 1.662894762150299e+000	-7.234689632508291e+000
1	 8.446808233706907e-001	 1.672095290332883e+000	-7.666134159381403e+000
1	 8.266422512662489e-001	 1.681086241048800e+000	-8.132483289713065e+000
1	 8.085403405970330e-001	 1.689867115134612e+000	-8.635303742128942e+000
1	 7.903786461158097e-001	 1.698437491520715e+000	-9.176134455965759e+000
1	 7.721607177277033e-001	 1.706797026776825e+000	-9.756484422669530e+000
1	 7.538900984437295e-001	 1.714945454593828e+000	-1.037783058941674e+001
1	 7.355703223635138e-001	 1.722882585203459e+000	-1.104161583815716e+001
1	 9.193904996595567e-001	 1.639856391136701e+000	-5.892843129364248e+000
1	 9.015776936063481e-001	 1.649716832938383e+000	-6.225439526127243e+000
1	 8.836870473262152e-001	 1.659368928145872e+000	-6.587876075273489e+000
1	 8.657221266354049e-001	 1.668811938626362e+000	-6.981837264666537e+000
1	 8.476865009483131e-001	 1.678045205590631e+000	-7.408988390833111e+000
1	 8.295837411291853e-001	 1.687068149336423e+000	-7.870973079140455e+000
1	 8.114174173639180e-001	 1.695880268924100e+000	-8.369410864063314e+000
1	 7.931910970543666e-001	 1.704481141785743e+000	-8.905894833665377e+000
1	 7.749083427374958e-001	 1.712870423269022e+000	-9.481989342203418e+000
1	 7.565727100316281e-001	 1.721047846117197e+000	-1.009922779453906e+001
1	 7.381877456119866e-001	 1.729013219886742e+000	-1.075911050580653e+001
1	 9.226504227428253e-001	 1.645670901621128e+000	-5.655665219203484e+000
1	 9.047744570447027e-001	 1.655566306021953e+000	-5.984392034005354e+000
1	 8.868203751181282e-001	 1.665252625085010e+000	-6.342740479905475e+000
1	 8.687917554228225e-001	 1.674729118060264e+000	-6.732440019944614e+000
1	 8.506921800294128e-001	 1.683995123822599e+000	-7.155202643841927e+000
1	 8.325252324635154e-001	 1.693050060614283e+000	-7.612720276854877e+000
1	 8.142944955699941e-001	 1.701893425719475e+000	-8.106662247403268e+000
1	 7.960035493997998e-001	 1.710524795071942e+000	-8.638672817838613e+000
1	 7.776559691217416e-001	 1.718943822797304e+000	-9.210368782520504e+000
1	 7.592553229614560e-001	 1.727150240691201e+000	-9.823337137133885e+000
1	 7.408051701697700e-001	 1.735143857634843e+000	-1.047913282294584e+001
1	 9.259103482714212e-001	 1.651485416465734e+000	-5.422196570608450e+000
1	 9.079712228810430e-001	 1.661415783491934e+000	-5.746961308131335e+000
1	 8.899537052604762e-001	 1.671136326436241e+000	-6.101130945194893e+000
1	 8.718613865129231e-001	 1.680646301931392e+000	-6.486476815380777e+000
1	 8.536978613652514e-001	 1.689945046516368e+000	-6.904754530624737e+000
1	 8.354667260044577e-001	 1.699031976377965e+000	-7.357701283397263e+000
1	 8.171715759343823e-001	 1.707906587024138e+000	-7.847033206198769e+000
1	 7.988160038550786e-001	 1.716568452890335e+000	-8.374442792995199e+000
1	 7.804035975672117e-001	 1.725017226880129e+000	-8.941596387002718e+000
1	 7.619379379037400e-001	 1.733252639841535e+000	-9.550131739000486e+000
1	 7.434225966911037e-001	 1.741274499980501e+000	-1.020165564011062e+001
1	 9.291702770601759e-001	 1.657299937124190e+000	-5.192420482228516e+000
1	 9.111679919144056e-001	 1.667265266810758e+000	-5.513129277122849e+000
1	 8.930870385364329e-001	 1.677020033670570e+000	-5.863028025485211e+000
1	 8.749310206729554e-001	 1.686563491719130e+000	-6.243926859033575e+000
1	 8.567035457070905e-001	 1.695894975159520e+000	-6.657621972991713e+000
1	 8.384082224872305e-001	 1.705013898123057e+000	-7.105892826201917e+000
1	 8.200486591762006e-001	 1.713919754341490e+000	-7.590499396973782e+000
1	 8.016284611231731e-001	 1.722612116751946e+000	-8.113179499536233e+000
1	 7.831512287606770e-001	 1.731090637035950e+000	-8.675646165739707e+000
1	 7.646205555290072e-001	 1.739355045093891e+000	-9.279585096426057e+000
1	 7.460400258302277e-001	 1.747405148456453e+000	-9.926652186641743e+000
1	 9.324302099239196e-001	 1.663114465050168e+000	-4.966320480698378e+000
1	 9.143647649438255e-001	 1.673114757440853e+000	-5.282878116923949e+000
1	 8.962203757291724e-001	 1.682903748258998e+000	-5.628412541870825e+000
1	 8.780006586701662e-001	 1.692480688902867e+000	-6.004769644772624e+000
1	 8.597092338061930e-001	 1.701844911239638e+000	-6.413783196816251e+000
1	 8.413497226470509e-001	 1.710995827345145e+000	-6.857271953767489e+000
1	 8.229257460145700e-001	 1.719932929174930e+000	-7.337036812628258e+000
1	 8.044409219070522e-001	 1.728655788167799e+000	-7.854858027426300e+000
1	 7.858988633889094e-001	 1.737164054783222e+000	-8.412492489016973e+000
1	 7.673031765077846e-001	 1.745457457973962e+000	-9.011671073544868e+000
1	 7.486574582413830e-001	 1.753535804595439e+000	-9.654096063973986e+000
1	 9.356901476774832e-001	 1.668929001697338e+000	-4.743880316538827e+000
1	 9.175615427683381e-001	 1.678964256844651e+000	-5.056190246370861e+000
1	 8.993537176218678e-001	 1.688787471672527e+000	-5.397265577426728e+000
1	 8.810703012718043e-001	 1.698397894961988e+000	-5.768984947179350e+000
1	 8.627149264138193e-001	 1.707794856244301e+000	-6.173216726620300e+000
1	 8.442912272191381e-001	 1.716977765539817e+000	-6.611816029949573e+000
1	 8.258028371686094e-001	 1.725946113027861e+000	-7.086621776467978e+000
1	 8.072533869096863e-001	 1.734699468648917e+000	-7.599453809998312e+000
1	 7.886465021386790e-001	 1.743237481640400e+000	-8.152110080940553e+000
1	 7.699858015105995e-001	 1.751559880007444e+000	-8.746363895835279e+000
1	 7.512748945788093e-001	 1.759666469930197e+000	-9.383961239066984e+000
1	 9.389500911356973e-001	 1.674743548519371e+000	-4.525083960143232e+000
1	 9.207583261869795e-001	 1.684813766484584e+000	-4.833048322850934e+000
1	 9.024870649976925e-001	 1.694671205382161e+000	-5.169568472538326e+000
1	 8.841399492451179e-001	 1.704315111375880e+000	-5.536552816554129e+000
1	 8.657206242812326e-001	 1.713744811661092e+000	-5.935901380273029e+000
1	 8.472327369387090e-001	 1.722959714202656e+000	-6.369502728372749e+000
1	 8.286799333574388e-001	 1.731959307403683e+000	-6.839230936359743e+000
1	 8.100658568340449e-001	 1.740743159706326e+000	-7.346942617887851e+000
1	 7.913941456967576e-001	 1.749310919125939e+000	-7.894474013195549e+000
1	 7.726684312079784e-001	 1.757662312720026e+000	-8.483638143753163e+000
1	 7.538923354967474e-001	 1.765797145993466e+000	-9.116222037971987e+000
1	 9.422100411133937e-001	 1.680558106969942e+000	-4.309915597847390e+000
1	 9.239551159987848e-001	 1.690663287823079e+000	-4.613435238051220e+000
1	 9.056204186398202e-001	 1.700554950858902e+000	-4.945302820327904e+000
1	 8.872096033573542e-001	 1.710232339623929e+000	-5.307453574027014e+000
1	 8.687263281596938e-001	 1.719694778977591e+000	-5.701816263800050e+000
1	 8.501742525409826e-001	 1.728941674829252e+000	-6.130310026959320e+000
1	 8.315570353001780e-001	 1.737972513805797e+000	-6.594841259007565e+000
1	 8.128783323830974e-001	 1.746786862851048e+000	-7.097300553094023e+000
1	 7.941417947499166e-001	 1.755384368758295e+000	-7.639559698933907e+000
1	 7.753510662704489e-001	 1.763764757637405e+000	-8.223468746498057e+000
1	 7.565097816494371e-001	 1.771927834317984e+000	-8.850853139533665e+000
1	 9.454699984254019e-001	 1.686372678502719e+000	-4.098359628081416e+000
1	 9.271519130027892e-001	 1.696512822322570e+000	-4.397334113796095e+000
1	 9.087537793314252e-001	 1.706438709573753e+000	-4.724450462176718e+000
1	 8.902792643757620e-001	 1.716149581185522e+000	-5.081667806770660e+000
1	 8.717320388004656e-001	 1.725644759681382e+000	-5.470940766300276e+000
1	 8.531157747611764e-001	 1.734923648915190e+000	-5.894216202571132e+000
1	 8.344341437159466e-001	 1.743985733737606e+000	-6.353430024348599e+000
1	 8.156908142598138e-001	 1.752830579594108e+000	-6.850504043163308e+000
1	 7.968894499849265e-001	 1.761457832055922e+000	-7.387342886789744e+000
1	 7.780337073685373e-001	 1.769867216285273e+000	-7.965830975908093e+000
1	 7.591272336911190e-001	 1.778058536436490e+000	-8.587829569222269e+000
1	 7.329528997701102e-001	 1.716751952052255e+000	-1.132667635512163e+001
1	 7.146500924294713e-001	 1.724451319976578e+000	-1.204592860291946e+001
1	 6.963053005481267e-001	 1.731939928692788e+000	-1.282126366228625e+001
1	 6.779220096819681e-001	 1.739217815222061e+000	-1.364648366558419e+001
1	 6.595036887474008e-001	 1.746285089996563e+000	-1.451532115110328e+001
1	 6.410537881847429e-001	 1.753141935993637e+000	-1.542144995023709e+001
1	 6.225757381620465e-001	 1.759788607818298e+000	-1.635849597929725e+001
1	 6.040729468208826e-001	 1.766225430735958e+000	-1.732004791652873e+001
1	 5.855487985655503e-001	 1.772452799657344e+000	-1.829966774558107e+001
1	 5.670066523970694e-001	 1.778471178077622e+000	-1.929090114742073e+001
1	 5.484498402932199e-001	 1.784281096971782e+000	-2.028728772343455e+001
1	 7.355703223635138e-001	 1.722882585203459e+000	-1.104161583815716e+001
1	 7.172021545045106e-001	 1.730609448072686e+000	-1.175702674434749e+001
1	 6.987918521752771e-001	 1.738124799098968e+000	-1.252804513570724e+001
1	 6.803429133788512e-001	 1.745428675435680e+000	-1.334852912688584e+001
1	 6.618588194193650e-001	 1.752521187909347e+000	-1.421226634395663e+001
1	 6.433430330588841e-001	 1.759402520150736e+000	-1.511298478117063e+001
1	 6.247989967148149e-001	 1.766072927674072e+000	-1.604436356428347e+001
1	 6.062301306994241e-001	 1.772532736906307e+000	-1.700004360102016e+001
1	 5.876398315029389e-001	 1.778782344168420e+000	-1.797363809993125e+001
1	 5.690314701215915e-001	 1.784822214610746e+000	-1.895874293961848e+001
1	 5.504083904318715e-001	 1.790652881104421e+000	-1.994894687107033e+001
1	 7.381877456119866e-001	 1.729013219886742e+000	-1.075911050580653e+001
1	 7.197542172182362e-001	 1.736767577707839e+000	-1.147046491794367e+001
1	 7.012784044246840e-001	 1.744309671050978e+000	-1.223691486208610e+001
1	 6.827638176815221e-001	 1.751639537201736e+000	-1.305237589784629e+001
1	 6.642139506806132e-001	 1.758757287380995e+000	-1.391069219904415e+001
1	 6.456322785057757e-001	 1.765663105872937e+000	-1.480564737762599e+001
1	 6.270222558237740e-001	 1.772357249100997e+000	-1.573097521615316e+001
1	 6.083873151175759e-001	 1.778840044653666e+000	-1.668037028942988e+001
1	 5.897308649633422e-001	 1.785111890262170e+000	-1.764749845652432e+001
1	 5.710562883525207e-001	 1.791173252732014e+000	-1.862600720515922e+001
1	 5.523669410603161e-001	 1.797024666830474e+000	-1.960953583120122e+001
1	 7.408051701697700e-001	 1.735143857634843e+000	-1.047913282294584e+001
1	 7.223062812085586e-001	 1.742925710421628e+000	-1.118621549103117e+001
1	 7.037649579178940e-001	 1.750494546095071e+000	-1.194784518421838e+001
1	 6.851847231951275e-001	 1.757850402072951e+000	-1.275799635670212e+001
1	 6.665690831198611e-001	 1.764993389970501e+000	-1.361057117704823e+001
1	 6.479215250976732e-001	 1.771923694725325e+000	-1.449941031687732e+001
1	 6.292455160446951e-001	 1.778641573670060e+000	-1.541830365017507e+001
1	 6.105445006146022e-001	 1.785147355554737e+000	-1.636100084380696e+001
1	 5.918218994694955e-001	 1.791441439520828e+000	-1.732122182049534e+001
1	 5.730811075960469e-001	 1.797524294029003e+000	-1.829266707623453e+001
1	 5.543254926681834e-001	 1.803396455742680e+000	-1.926902783487045e+001
1	 7.434225966911037e-001	 1.741274499980501e+000	-1.020165564011062e+001
1	 7.248583471133896e-001	 1.749083847753640e+000	-1.090425121852234e+001
1	 7.062515132764518e-001	 1.756679425777496e+000	-1.166080883344022e+001
1	 6.876056305248127e-001	 1.764061271602043e+000	-1.246536327038516e+001
1	 6.689242173258243e-001	 1.771229497236867e+000	-1.331187612688426e+001
1	 6.502107734068341e-001	 1.778184288272990e+000	-1.419424656353060e+001
1	 6.314687779333503e-001	 1.784925902952253e+000	-1.510632196778616e+001
1	 6.127016877297666e-001	 1.791454671186225e+000	-1.604190851111725e+001
1	 5.939129355441347e-001	 1.797770993526625e+000	-1.699478158072931e+001
1	 5.751059283583608e-001	 1.803875340089290e+000	-1.795869606787781e+001
1	 5.562840457451034e-001	 1.809768249433779e+000	-1.892739649547833e+001
1	 7.460400258302277e-001	 1.747405148456453e+000	-9.926652186641743e+000
1	 7.274104155706407e-001	 1.755241991243472e+000	-1.062454523603770e+001
1	 7.087380711219047e-001	 1.762864311644508e+000	-1.137577892273979e+001
1	 6.900265402757256e-001	 1.770272147341734e+000	-1.217444978764039e+001
1	 6.712793538872184e-001	 1.777465610739092e+000	-1.301458027883623e+001
1	 6.525000240055142e-001	 1.784444888081018e+000	-1.389012946268553e+001
1	 6.336920420455108e-001	 1.791210238518562e+000	-1.479500364978481e+001
1	 6.148588770023327e-001	 1.797761993124833e+000	-1.572306691647105e+001
1	 5.960039737099959e-001	 1.804100553861794e+000	-1.666815150312439e+001
1	 5.771307511456527e-001	 1.810226392500453e+000	-1.762406807125477e+001
1	 5.582426007807066e-001	 1.816140049496512e+000	-1.858461580209722e+001
1	 7.486574582413830e-001	 1.753535804595439e+000	-9.654096063973986e+000
1	 7.299624872182234e-001	 1.761400142430711e+000	-1.034707105316985e+001
1	 7.112246320757975e-001	 1.769049205242356e+000	-1.109272894001230e+001
1	 6.924474530530118e-001	 1.776483030844745e+000	-1.188522943228809e+001
1	 6.736344933927588e-001	 1.783701732036173e+000	-1.271865723783735e+001
1	 6.547892774659702e-001	 1.790705495714499e+000	-1.358703273324215e+001
1	 6.359153089369479e-001	 1.797494581939978e+000	-1.448432254966998e+001
1	 6.170160689715646e-001	 1.804069322947262e+000	-1.540445005649588e+001
1	 5.980950144898145e-001	 1.810430122108566e+000	-1.634130572399568e+001
1	 5.791555764641129e-001	 1.816577452850068e+000	-1.728875734709848e+001
1	 5.602011582646226e-001	 1.822511857523617e+000	-1.824066011292703e+001
1	 7.512748945788093e-001	 1.759666469930197e+000	-9.383961239066984e+000
1	 7.325145626940491e-001	 1.767558302854952e+000	-1.007180254688766e+001
1	 7.137111967596772e-001	 1.775234108117293e+000	-1.081163274145750e+001
1	 6.948683694618177e-001	 1.782693923663795e+000	-1.159767609662693e+001
1	 6.759896364311617e-001	 1.789937862687110e+000	-1.242408097689029e+001
1	 6.570785343604583e-001	 1.796966112738519e+000	-1.328493046134780e+001
1	 6.381385791634338e-001	 1.803778934787489e+000	-1.417425288711787e+001
1	 6.191732641767257e-001	 1.810376662230218e+000	-1.508603229284606e+001
1	 6.001860584063267e-001	 1.816759699849174e+000	-1.601421874361830e+001
1	 5.811804048199316e-001	 1.822928522725712e+000	-1.695273851927874e+001
1	 5.621597186864817e-001	 1.828883675107834e+000	-1.789550414888846e+001
1	 7.538923354967474e-001	 1.765797145993466e+000	-9.116222037971987e+000
1	 7.350666426360297e-001	 1.773716474055784e+000	-9.798713955080405e+000
1	 7.161977657950889e-001	 1.781419021815571e+000	-1.053246454511439e+001
1	 6.972892901072898e-001	 1.788904827351606e+000	-1.131176403497567e+001
1	 6.783447835911426e-001	 1.796174004250901e+000	-1.213082583062630e+001
1	 6.593677952612350e-001	 1.803226740718167e+000	-1.298379709398013e+001
1	 6.403618532807395e-001	 1.810063298632084e+000	-1.386476924159598e+001
1	 6.213304631570803e-001	 1.816684012550403e+000	-1.476778834584903e+001
1	 6.022771059822680e-001	 1.823089288665851e+000	-1.568686541990409e+001
1	 5.832052367192991e-001	 1.829279603714964e+000	-1.661598656850908e+001
1	 5.641182825359137e-001	 1.835255503841901e+000	-1.754912298734871e+001
1	 7.565097816494371e-001	 1.771927834317984e+000	-8.850853139533665e+000
1	 7.376187276820767e-001	 1.779874657572799e+000	-9.527779870233685e+000
1	 7.186843398035792e-001	 1.787603947883441e+000	-1.025519892453156e+001
1	 6.997102155945745e-001	 1.795115743460896e+000	-1.102746785734878e+001
1	 6.806999354614164e-001	 1.802410158286546e+000	-1.183886648899763e+001
1	 6.616570607405570e-001	 1.809487381218530e+000	-1.268360743266482e+001
1	 6.425851318446371e-001	 1.816347675044753e+000	-1.355584654611033e+001
1	 6.234876664518918e-001	 1.822991375484520e+000	-1.444969328828396e+001
1	 6.043681577403745e-001	 1.829418890140827e+000	-1.535922096221209e+001
1	 5.852300726684062e-001	 1.835630697405398e+000	-1.627847682618148e+001
1	 5.660768503025488e-001	 1.841627345318559e+000	-1.720149205598010e+001
1	 7.591272336911190e-001	 1.778058536436490e+000	-8.587829569222269e+000
1	 7.401708184701011e-001	 1.786032854945589e+000	-9.258975233238665e+000
1	 7.211709194066933e-001	 1.793788887867156e+000	-9.979810802567469e+000
1	 7.021311465288181e-001	 1.801326673544389e+000	-1.074476252326351e+001
1	 6.830550926306996e-001	 1.808646326353043e+000	-1.154817799110085e+001
1	 6.639463313706804e-001	 1.815748035804697e+000	-1.238433662732317e+001
1	 6.448084154108978e-001	 1.822632065596484e+000	-1.324746008108059e+001
1	 6.256448746004242e-001	 1.829298752609273e+000	-1.413172253928861e+001
1	 6.064592142033819e-001	 1.835748505856337e+000	-1.503126092528433e+001
1	 5.872549131734427e-001	 1.841981805384595e+000	-1.594018496833178e+001
1	 5.680354224760176e-001	 1.847999201130549e+000	-1.685258712674358e+001
1	 5.484498402932199e-001	 1.784281096971782e+000	-2.028728772343455e+001
1	 5.298816653707491e-001	 1.789883153202778e+000	-2.128225117959519e+001
1	 5.113053995926307e-001	 1.795278007002279e+000	-2.227077206096236e+001
1	 4.927242831349172e-001	 1.800466382091268e+000	-2.324873650927912e+001
1	 4.741415232331826e-001	 1.805449064870776e+000	-2.421204843636054e+001
1	 4.555602928079645e-001	 1.810226903133151e+000	-2.515663528288803e+001
1	 4.369837291416522e-001	 1.814800804742252e+000	-2.607845362413693e+001
1	 4.184149326073985e-001	 1.819171736284711e+000	-2.697349461540261e+001
1	 3.998569654505434e-001	 1.823340721694442e+000	-2.783778927044497e+001
1	 3.813128506229466e-001	 1.827308840852505e+000	-2.866741356683330e+001
1	 3.627855706705263e-001	 1.831077228164503e+000	-2.945849337262858e+001
1	 5.504083904318715e-001	 1.790652881104421e+000	-1.994894687107033e+001
1	 5.317739073461716e-001	 1.796274942643831e+000	-2.093776956068889e+001
1	 5.131313045118567e-001	 1.801689061818372e+000	-2.192023326681099e+001
1	 4.944838336758576e-001	 1.806895964933475e+000	-2.289219061667152e+001
1	 4.758347135269936e-001	 1.811896441198451e+000	-2.384951142405118e+001
1	 4.571871283165069e-001	 1.816691341433165e+000	-2.478808854397785e+001
1	 4.385442265302251e-001	 1.821281576743510e+000	-2.570384357290008e+001
1	 4.199091196129334e-001	 1.825668117167858e+000	-2.659273238694124e+001
1	 4.012848807454481e-001	 1.829851990296648e+000	-2.745075051140140e+001
1	 3.826745436747854e-001	 1.833834279867260e+000	-2.827393831525147e+001
1	 3.640811015977278e-001	 1.837616124336330e+000	-2.905838602491917e+001
1	 5.523669410603161e-001	 1.797024666830474e+000	-1.960953583120122e+001
1	 5.336661497947700e-001	 1.802666733683369e+000	-2.059169956846925e+001
1	 5.149572098876430e-001	 1.808100118237819e+000	-2.156756266577161e+001
1	 4.962433846567466e-001	 1.813325549383705e+000	-2.253294661292287e+001
1	 4.775279042441486e-001	 1.818343819138624e+000	-2.348368948674141e+001
1	 4.588139642317982e-001	 1.823155781349956e+000	-2.441565189861443e+001
1	 4.401047243089640e-001	 1.827762350365629e+000	-2.532472278617176e+001
1	 4.214033069920677e-001	 1.832164499675755e+000	-2.620682504152153e+001
1	 4.027127963974042e-001	 1.836363260527303e+000	-2.705792096907351e+001
1	 3.840362370671483e-001	 1.840359720513975e+000	-2.787401756654586e+001
1	 3.653766328489503e-001	 1.844155022143435e+000	-2.865117162333251e+001
1	 5.543254926681834e-001	 1.803396455742680e+000	-1.926902783487045e+001
1	 5.355583931896026e-001	 1.809058527919111e+000	-2.024401457815132e+001
1	 5.167831161764662e-001	 1.814511177863141e+000	-2.121273388875651e+001
1	 4.980029365174731e-001	 1.819755137049102e+000	-2.217097847323704e+001
1	 4.792210958079450e-001	 1.824791200302876e+000	-2.311455700974957e+001
1	 4.604408009605449e-001	 1.829620224499363e+000	-2.403930018545745e+001
1	 4.416652228679882e-001	 1.834243127228526e+000	-2.494106657677818e+001
1	 4.228974951183376e-001	 1.838660885432222e+000	-2.581574836477538e+001
1	 4.041407127633725e-001	 1.842874534013948e+000	-2.665927687857821e+001
1	 3.853979311404335e-001	 1.846885164423731e+000	-2.746762796028500e+001
1	 3.666721647480425e-001	 1.850693923220270e+000	-2.823682714540706e+001
1	 5.562840457451034e-001	 1.809768249433779e+000	-1.892739649547833e+001
1	 5.374506380037267e-001	 1.815450326948778e+000	-1.989468834621042e+001
1	 5.186090238348023e-001	 1.820922242296858e+000	-2.085572094529303e+001
1	 4.997624896979254e-001	 1.826184729536804e+000	-2.180626054756196e+001
1	 4.809142886416810e-001	 1.831238586302786e+000	-2.274208874835747e+001
1	 4.620676389094542e-001	 1.836084672497223e+000	-2.365900860775732e+001
1	 4.432257225974157e-001	 1.840723908952121e+000	-2.455285061648547e+001
1	 4.243916843652784e-001	 1.845157276061076e+000	-2.541947849565324e+001
1	 4.055686302003150e-001	 1.849385812384124e+000	-2.625479482306733e+001
1	 3.867596262350390e-001	 1.853410613227614e+000	-2.705474647943328e+001
1	 3.679676976188531e-001	 1.857232829201285e+000	-2.781532990837874e+001
1	 5.582426007807066e-001	 1.816140049496512e+000	-1.858461580209722e+001
1	 5.393428847102001e-001	 1.821842132370091e+000	-1.954369500373114e+001
1	 5.204349333191276e-001	 1.827333313141492e+000	-2.049649821693549e+001
1	 5.015220446379921e-001	 1.832614328453952e+000	-2.143876755408408e+001
1	 4.826074831686546e-001	 1.837685978749934e+000	-2.236625982140603e+001
1	 4.636944784852327e-001	 1.842549126959377e+000	-2.327475272706095e+001
1	 4.447862238873651e-001	 1.847204697156331e+000	-2.416005092981950e+001
1	 4.258858751064263e-001	 1.851653673186138e+000	-2.501799192035994e+001
1	 4.069965490651929e-001	 1.855897097265371e+000	-2.584445172777593e+001
1	 3.881213226913629e-001	 1.859936068556710e+000	-2.663535044449544e+001
1	 3.692632317852309e-001	 1.863771741720931e+000	-2.738665756340789e+001
1	 5.602011582646226e-001	 1.822511857523617e+000	-1.824066011292703e+001
1	 5.412351337820803e-001	 1.828233945780770e+000	-1.919100904989627e+001
1	 5.222608450859182e-001	 1.833744391999562e+000	-2.013504045081380e+001
1	 5.032816017775622e-001	 1.839043935407688e+000	-2.106847457285933e+001
1	 4.843006798121632e-001	 1.844133379255899e+000	-2.198704570502278e+001
1	 4.653213200945875e-001	 1.849013589501663e+000	-2.288650845704919e+001
1	 4.463467271279553e-001	 1.853685493461075e+000	-2.376264388801809e+001
1	 4.273800677153167e-001	 1.858150078431226e+000	-2.461126546642052e+001
1	 4.084244697149673e-001	 1.862408390285230e+000	-2.542822485419356e+001
1	 3.894830208498031e-001	 1.866461532042101e+000	-2.620941750778619e+001
1	 3.705587675710249e-001	 1.870310662413659e+000	-2.695078808992980e+001
1	 5.621597186864817e-001	 1.828883675107834e+000	-1.789550414888846e+001
1	 5.431273856924253e-001	 1.834625768778536e+000	-1.883660534561231e+001
1	 5.240867595916505e-001	 1.840155480473590e+000	-1.977132275331829e+001
1	 5.050411615565240e-001	 1.845473552005149e+000	-2.069535703957926e+001
1	 4.859938789955047e-001	 1.850580789432260e+000	-2.160442222648456e+001
1	 4.669481641442250e-001	 1.855478061739920e+000	-2.249425205750418e+001
1	 4.479072327093042e-001	 1.860166299486271e+000	-2.336060620310904e+001
1	 4.288742625654854e-001	 1.864646493420159e+000	-2.419927629686842e+001
1	 4.098523925065996e-001	 1.868919693071243e+000	-2.500609179435858e+001
1	 3.908447210507582e-001	 1.872987005314873e+000	-2.577692564781981e+001
1	 3.718543053000838e-001	 1.876849592913921e+000	-2.650769979012272e+001
1	 5.641182825359137e-001	 1.835255503841901e+000	-1.754912298734871e+001
1	 5.450196409142923e-001	 1.841017602961110e+000	-1.848045910726835e+001
1	 5.259126772928003e-001	 1.846566580166098e+000	-1.940532058391651e+001
1	 5.068007244147662e-001	 1.851903179853479e+000	-2.031939073946427e+001
1	 4.876870811419773e-001	 1.857028210890599e+000	-2.121836555820476e+001
1	 4.685750110408526e-001	 1.861942545289987e+000	-2.209796012840175e+001
1	 4.494677410215306e-001	 1.866647116851838e+000	-2.295391492211044e+001
1	 4.303684600304682e-001	 1.871142919776756e+000	-2.378200190455621e+001
1	 4.112803177970513e-001	 1.875431007250949e+000	-2.457803046527238e+001
1	 3.922064236346260e-001	 1.879512490006111e+000	-2.533785316381485e+001
1	 3.731498452962563e-001	 1.883388534856166e+000	-2.605737128349112e+001
1	 5.660768503025488e-001	 1.841627345318559e+000	-1.720149205598010e+001
1	 5.469118999207399e-001	 1.847409449926213e+000	-1.812254590062417e+001
1	 5.277385986458446e-001	 1.852977692679605e+000	-1.903700974909814e+001
1	 5.085602907921774e-001	 1.858332820559816e+000	-1.994055180128741e+001
1	 4.893802866748787e-001	 1.863475645242494e+000	-2.082885221184892e+001
1	 4.702018611911770e-001	 1.868407041767702e+000	-2.169760960412780e+001
1	 4.510282524547534e-001	 1.873127947177695e+000	-2.254254742135568e+001
1	 4.318626604838010e-001	 1.877639359124836e+000	-2.335942010658431e+001
1	 4.127082459432835e-001	 1.881942334451890e+000	-2.414401910342900e+001
1	 3.935681289418045e-001	 1.886037987746897e+000	-2.489217867031672e+001
1	 3.744453878833915e-001	 1.889927489874846e+000	-2.559978150156234e+001
1	 5.680354224760176e-001	 1.847999201130549e+000	-1.685258712674358e+001
1	 5.488041631848251e-001	 1.853801311271564e+000	-1.776284163482578e+001
1	 5.295645241072590e-001	 1.859388819616633e+000	-1.866636639644605e+001
1	 5.103198611286465e-001	 1.864762475731302e+000	-1.955881669151928e+001
1	 4.910734960175067e-001	 1.869923094099526e+000	-2.043585903256987e+001
1	 4.718287150019048e-001	 1.874871552788906e+000	-2.129317774781416e+001
1	 4.525887673990908e-001	 1.879608792083759e+000	-2.212648140093199e+001
1	 4.333568642990193e-001	 1.884135813088218e+000	-2.293150903884584e+001
1	 4.141361773022579e-001	 1.888453676301606e+000	-2.370403625945820e+001
1	 3.949298373126922e-001	 1.892563500168320e+000	-2.443988109192872e+001
1	 3.757409333853378e-001	 1.896466459604412e+000	-2.513490968269349e+001
1	 3.627855706705263e-001	 1.831077228164503e+000	-2.945849337262858e+001
1	 3.442808403239148e-001	 1.834646550756103e+000	-3.020503055531508e+001
1	 3.257987730908322e-001	 1.838018628650293e+000	-3.090171817481071e+001
1	 3.073422187503291e-001	 1.841194752042445e+000	-3.154546023555957e+001
1	 2.889139828828835e-001	 1.844176259724348e+000	-3.213322728526230e+001
1	 2.705168260265918e-001	 1.846964537582363e+000	-3.266205979651454e+001
1	 2.521534628864030e-001	 1.849561017085502e+000	-3.312907136284417e+001
1	 2.338265615961181e-001	 1.851967173765351e+000	-3.353145170795200e+001
1	 2.155387430328055e-001	 1.854184525689797e+000	-3.386646950741655e+001
1	 1.972925801832064e-001	 1.856214631932410e+000	-3.413147502257191e+001
1	 1.790905975616490e-001	 1.858059091039320e+000	-3.432390254669540e+001
1	 3.640811015977278e-001	 1.837616124336330e+000	-2.905838602491917e+001
1	 3.455102896525823e-001	 1.841198193211864e+000	-2.979810856568152e+001
1	 3.269622217524142e-001	 1.844582313016268e+000	-3.048791544687368e+001
1	 3.084397578530240e-001	 1.847769778552278e+000	-3.112483216129875e+001
1	 2.899457135538023e-001	 1.850761933392588e+000	-3.170594927010684e+001
1	 2.714828592509105e-001	 1.853560168372646e+000	-3.222842564159063e+001
1	 2.530539193436880e-001	 1.856165920073323e+000	-3.268949151042344e+001
1	 2.346615714940181e-001	 1.858580669295420e+000	-3.308645135623164e+001
1	 2.163084459382946e-001	 1.860805939527940e+000	-3.341668660084235e+001
1	 1.979971248515646e-001	 1.862843295411997e+000	-3.367765812396427e+001
1	 1.797301417633639e-001	 1.864694341202229e+000	-3.386690859748244e+001
1	 3.653766328489503e-001	 1.844155022143435e+000	-2.865117162333251e+001
1	 3.467397392887963e-001	 1.847749837306038e+000	-2.938341756480879e+001
1	 3.281256707050955e-001	 1.851145999023604e+000	-3.006569219856019e+001
1	 3.095372972303986e-001	 1.854344806706239e+000	-3.069515154203775e+001
1	 2.909774444830101e-001	 1.857347608707543e+000	-3.126901512686817e+001
1	 2.724488927171557e-001	 1.860155800812049e+000	-3.178456908110955e+001
1	 2.539543760265666e-001	 1.862770824712498e+000	-3.223916903849224e+001
1	 2.354965816012087e-001	 1.865194166478905e+000	-3.263024287364235e+001
1	 2.170781490368016e-001	 1.867427355021387e+000	-3.295529326270370e+001
1	 1.987016696966988e-001	 1.869471960548609e+000	-3.321190006919253e+001
1	 1.803696861256440e-001	 1.871329593023718e+000	-3.339772255530802e+001
1	 3.666721647480425e-001	 1.850693923220270e+000	-2.823682714540706e+001
1	 3.479691895398753e-001	 1.854301484676264e+000	-2.896093508726666e+001
1	 3.292891202396838e-001	 1.857709688312956e+000	-2.963502697574837e+001
1	 3.106348371567720e-001	 1.860919838147821e+000	-3.025639829284548e+001
1	 2.920091759283612e-001	 1.863933287315374e+000	-3.082240640199136e+001
1	 2.734149266667451e-001	 1.866751436549240e+000	-3.133047346015087e+001
1	 2.548548331600491e-001	 1.869375732654024e+000	-3.177808916394106e+001
1	 2.363315921263248e-001	 1.871807666968964e+000	-3.216281332888789e+001
1	 2.178478525206209e-001	 1.874048773825298e+000	-3.248227830132899e+001
1	 1.994062148945998e-001	 1.876100628999242e+000	-3.273419120287279e+001
1	 1.810092308082162e-001	 1.877964848162459e+000	-3.291633600768950e+001
1	 3.679676976188531e-001	 1.857232829201285e+000	-2.781532990837874e+001
1	 3.491986407131379e-001	 1.860853136960182e+000	-2.853063900054029e+001
1	 3.304525706469872e-001	 1.864273382524976e+000	-2.919589864403866e+001
1	 3.117323779064631e-001	 1.867494874520521e+000	-2.980855263025069e+001
1	 2.930409081477106e-001	 1.870518970862248e+000	-3.036610492137898e+001
1	 2.743809613410961e-001	 1.873347077232878e+000	-3.086612237883168e+001
1	 2.557552909691456e-001	 1.875980645548894e+000	-3.130623733316737e+001
1	 2.371666032780017e-001	 1.878421172418758e+000	-3.168414999483678e+001
1	 2.186175565820471e-001	 1.880670197594831e+000	-3.199763070533843e+001
1	 2.001107606212586e-001	 1.882729302420894e+000	-3.224452202877488e+001
1	 1.816487759708071e-001	 1.884600108277128e+000	-3.242274068415262e+001
1	 3.692632317852309e-001	 1.863771741720931e+000	-2.738665756340790e+001
1	 3.504280931159031e-001	 1.867404795795433e+000	-2.809250749939364e+001
1	 3.316160222178131e-001	 1.870837083300321e+000	-2.874828638336590e+001
1	 3.128299197537909e-001	 1.874069917467834e+000	-2.935159506719020e+001
1	 2.940726413989126e-001	 1.877104660994329e+000	-2.990009278574269e+001
1	 2.753469969816266e-001	 1.879942724511631e+000	-3.039149968810194e+001
1	 2.566557496788665e-001	 1.882585565048103e+000	-3.082359921833278e+001
1	 2.380016152648743e-001	 1.885034684481444e+000	-3.119424034523581e+001
1	 2.193872614133744e-001	 1.887291627985147e+000	-3.150133964078626e+001
1	 2.008153070526659e-001	 1.889357982470562e+000	-3.174288320734584e+001
1	 1.822883217731432e-001	 1.891235375026396e+000	-3.191692845405967e+001
1	 3.705587675710249e-001	 1.870310662413659e+000	-2.695078808992980e+001
1	 3.516575470554892e-001	 1.873956462819656e+000	-2.764651910035336e+001
1	 3.327794752429693e-001	 1.877400792279644e+000	-2.829216968272743e+001
1	 3.139274629730742e-001	 1.880644968633256e+000	-2.888550640806774e+001
1	 2.951043759398223e-001	 1.883690359357782e+000	-2.942435236605433e+001
1	 2.763130338297540e-001	 1.886538380034160e+000	-2.990658948562801e+001
1	 2.575562095142220e-001	 1.889190492802647e+000	-3.033016071370017e+001
1	 2.388366282955775e-001	 1.891648204810183e+000	-3.069307205149292e+001
1	 2.201569672068974e-001	 1.893913066651406e+000	-3.099339444836214e+001
1	 2.015198543648128e-001	 1.895986670805244e+000	-3.122926555328276e+001
1	 1.829278683749512e-001	 1.897870650068939e+000	-3.139889132448548e+001
1	 3.718543053000838e-001	 1.876849592913921e+000	-2.650769979012272e+001
1	 3.528870028392147e-001	 1.880508139670492e+000	-2.719265263630763e+001
1	 3.339429300132638e-001	 1.883964511103601e+000	-2.782752833501929e+001
1	 3.150250078386324e-001	 1.887220029660280e+000	-2.841026774391314e+001
1	 2.961361120282943e-001	 1.890276067598770e+000	-2.893886629909050e+001
1	 2.772790721268962e-001	 1.893134045449129e+000	-2.941137611176421e+001
1	 2.584566707002223e-001	 1.895795430463520e+000	-2.982590793204532e+001
1	 2.396716425787466e-001	 1.898261735058134e+000	-3.018063297952776e+001
1	 2.209266741549105e-001	 1.900534515248767e+000	-3.047378464065513e+001
1	 2.022244027336898e-001	 1.902615369081935e+000	-3.070366003315869e+001
1	 1.835674159359578e-001	 1.904505935063431e+000	-3.086862143813553e+001
1	 3.731498452962563e-001	 1.883388534856166e+000	-2.605737128349112e+001
1	 3.541164607743986e-001	 1.887059827985581e+000	-2.673088725121857e+001
1	 3.351063868195043e-001	 1.890528241412844e+000	-2.735434243198180e+001
1	 3.161225546247840e-001	 1.893795102192404e+000	-2.792586044764442e+001
1	 2.971678499221832e-001	 1.896861787363458e+000	-2.844361748307246e+001
1	 2.782451121144706e-001	 1.899729722405203e+000	-2.890584414560665e+001
1	 2.593571334618776e-001	 1.902400379681715e+000	-2.931082720114508e+001
1	 2.405066583230164e-001	 1.904875276878457e+000	-2.965691118668755e+001
1	 2.216963824497082e-001	 1.907155975432390e+000	-2.994249989947156e+001
1	 2.029289523352882e-001	 1.909244078957634e+000	-3.016605776309597e+001
1	 1.842069646158896e-001	 1.911141231668545e+000	-3.032611107130825e+001
1	 3.744453878833915e-001	 1.889927489874846e+000	-2.559978150156234e+001
1	 3.553459211683593e-001	 1.893611529402563e+000	-2.626120239494282e+001
1	 3.362698459524988e-001	 1.897091984848029e+000	-2.687259235925074e+001
1	 3.172201036058481e-001	 1.900370187873122e+000	-2.743226616942704e+001
1	 2.981995898793438e-001	 1.903447520298011e+000	-2.793858907339403e+001
1	 2.792111540338949e-001	 1.906325412551045e+000	-2.838997840112986e+001
1	 2.602575980241983e-001	 1.909005342108230e+000	-2.878490506033758e+001
1	 2.413416757370221e-001	 1.911488831924311e+000	-2.912189491872835e+001
1	 2.224660922835849e-001	 1.913777448857435e+000	-2.939953007320807e+001
1	 2.036335033455984e-001	 1.915872802089337e+000	-2.961645000649038e+001
1	 1.848465145744732e-001	 1.917776541542956e+000	-2.977135263190015e+001
1	 3.757409333853378e-001	 1.896466459604412e+000	-2.513490968269349e+001
1	 3.565753843284157e-001	 1.900163245559079e+000	-2.578357781816186e+001
1	 3.374333077030549e-001	 1.903655743049810e+000	-2.638225879150835e+001
1	 3.183176550561437e-001	 1.906945288345930e+000	-2.692946683213219e+001
1	 2.992313321576309e-001	 1.910033268048593e+000	-2.742376447844048e+001
1	 2.801771981265868e-001	 1.912921117535318e+000	-2.786376392340384e+001
1	 2.611580646121947e-001	 1.915610319394058e+000	-2.824812825715457e+001
1	 2.421766950293987e-001	 1.918102401848856e+000	-2.857557260685591e+001
1	 2.232358038488350e-001	 1.920398937179060e+000	-2.884486517428333e+001
1	 2.043380559406117e-001	 1.922501540134042e+000	-2.905482817178055e+001
1	 1.854860659714354e-001	 1.924411866345337e+000	-2.920433865745212e+001
1	 1.790905975616490e-001	 1.858059091039320e+000	-3.432390254669540e+001
1	 1.609325570466982e-001	 1.859719774928535e+000	-3.444220673135349e+001
1	 1.428236509081929e-001	 1.861198066987645e+000	-3.448411227292556e+001
1	 1.247662928029802e-001	 1.862495676178339e+000	-3.444617687859311e+001
1	 1.067628449329038e-001	 1.863614344853473e+000	-3.432507221196128e+001
1	 8.881561771666691e-002	 1.864555847221398e+000	-3.411758605768846e+001
1	 7.092686951017656e-002	 1.865321987818410e+000	-3.382062426060686e+001
1	 5.309880637443565e-002	 1.865914599990803e+000	-3.343121244262226e+001
1	 3.533358189001407e-002	 1.866335544387978e+000	-3.294649750104851e+001
1	 1.763329701708853e-002	 1.866586707467961e+000	-3.236374889237190e+001
1	 0.000000000000000e+000	 1.866670000016666e+000	-3.168035970575050e+001
1	 1.797301417633639e-001	 1.864694341202229e+000	-3.386690859748244e+001
1	 1.615072577019093e-001	 1.866360955501386e+000	-3.398300606350649e+001
1	 1.433336834789612e-001	 1.867844526637250e+000	-3.402367714441219e+001
1	 1.252118413706765e-001	 1.869146769674353e+000	-3.398541861427022e+001
1	 1.071441020144599e-001	 1.870269433187636e+000	-3.386484240150241e+001
1	 8.913278407965512e-002	 1.871214297721295e+000	-3.365867783063338e+001
1	 7.118015398689018e-002	 1.871983174255770e+000	-3.336377363394704e+001
1	 5.328842567514063e-002	 1.872577902684386e+000	-3.297709973635892e+001
1	 3.545976041553825e-002	 1.873000350301069e+000	-3.249574881718420e+001
1	 1.769626667091111e-002	 1.873252410300538e+000	-3.191693765282713e+001
1	 0.000000000000000e+000	 1.873336000292277e+000	-3.123800824474429e+001
1	 1.803696861256440e-001	 1.871329593023718e+000	-3.339772255530802e+001
1	 1.620819585015042e-001	 1.873002137734208e+000	-3.351145065181388e+001
1	 1.438437161779622e-001	 1.874490987948056e+000	-3.355080428554134e+001
1	 1.256573900504839e-001	 1.875797864832641e+000	-3.351220165495458e+001
1	 1.075253591920342e-001	 1.876924523184994e+000	-3.339217738632139e+001
1	 8.944995052259598e-002	 1.877872749885155e+000	-3.318738487835681e+001
1	 7.143343852751727e-002	 1.878644362357717e+000	-3.289459841127871e+001
1	 5.347804502374528e-002	 1.879241207043033e+000	-3.251071502358042e+001
1	 3.558593897297262e-002	 1.879665157879560e+000	-3.203275616021335e+001
1	 1.775923634067765e-002	 1.879918114798716e+000	-3.145786909623054e+001
1	 0.000000000000000e+000	 1.880002002233555e+000	-3.078332814027588e+001
1	 1.810092308082162e-001	 1.877964848162459e+000	-3.291633600768950e+001
1	 1.626566595889848e-001	 1.879643323287192e+000	-3.302753219360432e+001
1	 1.443537491325189e-001	 1.881137452581612e+000	-3.306548371553257e+001
1	 1.261029389535963e-001	 1.882448963315952e+000	-3.302651274170985e+001
1	 1.079066165607448e-001	 1.883579616509333e+000	-3.290705921605063e+001
1	 8.976711712458955e-002	 1.884531205377647e+000	-3.270368333132320e+001
1	 7.168672319520096e-002	 1.885305553789637e+000	-3.241306776033041e+001
1	 5.366766446750064e-002	 1.885904514732689e+000	-3.203201964837979e+001
1	 3.571211759374466e-002	 1.886329968789800e+000	-3.155747237074341e+001
1	 1.782220604206414e-002	 1.886583822629083e+000	-3.098648705916045e+001
1	 0.000000000000000e+000	 1.886668007507166e+000	-3.031625390180307e+001
1	 1.816487759708071e-001	 1.884600108277128e+000	-3.242274068415262e+001
1	 1.632313611078530e-001	 1.886284513820528e+000	-3.253124252687647e+001
1	 1.448637824699542e-001	 1.887783922199470e+000	-3.256770561799038e+001
1	 1.265484881912075e-001	 1.889100066787036e+000	-3.252833882613301e+001
1	 1.082878742157101e-001	 1.890234714824445e+000	-3.240947021683830e+001
1	 9.008428396473579e-002	 1.891189665863439e+000	-3.220754967974456e+001
1	 7.194000805308426e-002	 1.891966750216917e+000	-3.191915130649209e+001
1	 5.385728405365773e-002	 1.892567827419305e+000	-3.154097552256721e+001
1	 3.583829630928184e-002	 1.892994784698134e+000	-3.106985097677061e+001
1	 1.788517579074657e-002	 1.893249535458222e+000	-3.050273619237560e+001
1	 0.000000000000000e+000	 1.893334017779778e+000	-2.983672098440469e+001
1	 1.822883217731432e-001	 1.891235375026396e+000	-3.191692845405967e+001
1	 1.638060632016108e-001	 1.892925710994410e+000	-3.202257362815584e+001
1	 1.453738163175913e-001	 1.894430398463179e+000	-3.205746033834645e+001
1	 1.269940378745112e-001	 1.895751176908643e+000	-3.201766706698729e+001
1	 1.086691322520480e-001	 1.896889819794116e+000	-3.189939298682243e+001
1	 9.040145112213467e-002	 1.897848133007199e+000	-3.169896076759209e+001
1	 7.219329316431025e-002	 1.898627953304946e+000	-3.141281912511036e+001
1	 5.404690382946755e-002	 1.899231146768825e+000	-3.103754511603062e+001
1	 3.596447515101166e-002	 1.899659607270911e+000	-3.056984618194166e+001
1	 1.794814560240096e-002	 1.899915254952724e+000	-3.000656194685308e+001
1	 0.000000000000000e+000	 1.900000034718056e+000	-2.934466577251363e+001
1	 1.829278683749512e-001	 1.897870650068939e+000	-3.139889132448548e+001
1	 1.643807660137601e-001	 1.899566916469028e+000	-3.150151761039628e+001
1	 1.458838508027531e-001	 1.901076883034290e+000	-3.153473838135317e+001
1	 1.274395881147012e-001	 1.902402295343521e+000	-3.149448482690393e+001
1	 1.090503907648768e-001	 1.903544933082137e+000	-3.137681039169992e+001
1	 9.071861867588626e-002	 1.904506608473594e+000	-3.117789378673402e+001
1	 7.244657859202201e-002	 1.905289164719112e+000	-3.089404173394059e+001
1	 5.423652384218115e-002	 1.905894474447200e+000	-3.052169144729944e+001
1	 3.609065415036164e-002	 1.906324438174477e+000	-3.005741285406051e+001
1	 1.801111549270328e-002	 1.906580982779173e+000	-2.949791056011954e+001
1	 0.000000000000000e+000	 1.906666059988667e+000	-2.884002556399385e+001
1	 1.835674159359578e-001	 1.904505935063431e+000	-3.086862143813553e+001
1	 1.649554696878030e-001	 1.906208131904575e+000	-3.096806672092378e+001
1	 1.463938860527627e-001	 1.907723377574352e+000	-3.099953040863371e+001
1	 1.278851390229712e-001	 1.909053423754419e+000	-3.095877966915671e+001
1	 1.094316498493146e-001	 1.910200056352295e+000	-3.084170556038765e+001
1	 9.103578670509055e-002	 1.911165093927295e+000	-3.064432627119852e+001
1	 7.269986439936259e-002	 1.911950386124803e+000	-3.036279008576255e+001
1	 5.442614413904955e-002	 1.912557812120374e+000	-2.999337807430608e+001
1	 3.621683333875921e-002	 1.912989279075178e+000	-2.953250651383790e+001
1	 1.807408547732953e-002	 1.913246720604157e+000	-2.897672904286780e+001
1	 0.000000000000000e+000	 1.913332095258278e+000	-2.832273855454866e+001
1	 1.842069646158896e-001	 1.911141231668545e+000	-3.032611107130825e+001
1	 1.655301743672413e-001	 1.912849358961241e+000	-3.042221333942576e+001
1	 1.469039221949430e-001	 1.914369883744917e+000	-3.045182723627971e+001
1	 1.283306907105152e-001	 1.915704563804088e+000	-3.041053935449846e+001
1	 1.098129096004796e-001	 1.916855191268378e+000	-3.029406188077615e+001
1	 9.135295528884754e-002	 1.917823591032968e+000	-3.009823609155191e+001
1	 7.295315064947502e-002	 1.918611619187405e+000	-2.981903556114615e+001
1	 5.461576476732376e-002	 1.919221161454297e+000	-2.945256908533968e+001
1	 3.634301274763190e-002	 1.919654131639363e+000	-2.899508332387514e+001
1	 1.813705557195572e-002	 1.919912470094263e+000	-2.844296516585528e+001
1	 0.000000000000000e+000	 1.919998142193556e+000	-2.779274382245723e+001
1	 1.848465145744732e-001	 1.917776541542956e+000	-2.977135263190015e+001
1	 1.661048801955770e-001	 1.919490599299220e+000	-2.986394997597955e+001
1	 1.474139593566171e-001	 1.921016403207533e+000	-2.989161983250089e+001
1	 1.287762432885268e-001	 1.922355717155276e+000	-2.984975183806918e+001
1	 1.101941701134899e-001	 1.923510339494176e+000	-2.973386299557037e+001
1	 9.167012450625718e-002	 1.924482101455281e+000	-2.953960144939873e+001
1	 7.320643740550242e-002	 1.925272865572307e+000	-2.926274996137027e+001
1	 5.480538577425480e-002	 1.925884524114915e+000	-2.889922909018921e+001
1	 3.646919240840720e-002	 1.926318997533377e+000	-2.844510007787570e+001
1	 1.820002579225783e-002	 1.926578232916076e+000	-2.789656744707142e+001
1	 0.000000000000000e+000	 1.926664202461167e+000	-2.724998131362663e+001
1	 1.854860659714354e-001	 1.924411866345337e+000	-2.920433865745212e+001
1	 1.666795873163122e-001	 1.926131854578701e+000	-2.929326926912341e+001
1	 1.479239976651079e-001	 1.927662937623752e+000	-2.931889931532200e+001
1	 1.292217968681999e-001	 1.929006885470733e+000	-2.927640526636348e+001
1	 1.105754314834638e-001	 1.930165502693479e+000	-2.916109279821480e+001
1	 9.198729443641961e-002	 1.931140626858904e+000	-2.896840087199161e+001
1	 7.345972473058783e-002	 1.931934126944898e+000	-2.869390550148641e+001
1	 5.499500720709370e-002	 1.932547901768176e+000	-2.833332321147048e+001
1	 3.659537235251258e-002	 1.932983878423570e+000	-2.788251419008412e+001
1	 1.826299615391188e-002	 1.933244010736185e+000	-2.733748513917581e+001
1	 0.000000000000000e+000	 1.933330277727777e+000	-2.669439182695611e+001
1	 1.933330277727777e+000	 0.000000000000000e+000	 6.713403798567687e+000
1	 1.933244010736185e+000	 1.826299615391194e-002	 6.575655532968974e+000
1	 1.932983878423570e+000	 3.659537235251269e-002	 6.426705480079503e+000
1	 1.932547901768176e+000	 5.499500720709358e-002	 6.268501905811502e+000
1	 1.931934126944898e+000	 7.345972473058775e-002	 6.102951360320841e+000
1	 1.931140626858904e+000	 9.198729443641959e-002	 5.931914970456838e+000
1	 1.930165502693479e+000	 1.105754314834639e-001	 5.757204697734576e+000
1	 1.929006885470733e+000	 1.292217968681999e-001	 5.580579567566647e+000
1	 1.927662937623752e+000	 1.479239976651078e-001	 5.403741875761916e+000
1	 1.926131854578702e+000	 1.666795873163121e-001	 5.228333378563880e+000
1	 1.924411866345337e+000	 1.854860659714353e-001	 5.055931472759359e+000
1	 1.939997367452674e+000	 0.000000000000000e+000	 6.429521988579706e+000
1	 1.939910802969274e+000	 1.832597609816482e-002	 6.306597312082888e+000
1	 1.939649773590140e+000	 3.672157149831520e-002	 6.172136261605788e+000
1	 1.939212293468885e+000	 5.518465749610362e-002	 6.028100356134186e+000
1	 1.938596402042668e+000	 7.371305060054145e-002	 5.876401558547447e+000
1	 1.937800165571101e+000	 9.230451263318919e-002	 5.718898339622340e+000
1	 1.936821678689428e+000	 1.109567508736156e-001	 5.557391713491113e+000
1	 1.935659065974620e+000	 1.296674182522145e-001	 5.393621250907106e+000
1	 1.934310483522944e+000	 1.484341135914297e-001	 5.229261076948431e+000
1	 1.932774120537524e+000	 1.672543818963984e-001	 5.065915860064105e+000
1	 1.931048200924337e+000	 1.861257146959755e-001	 4.905116799627858e+000
1	 1.946664462180621e+000	 0.000000000000000e+000	 6.146192164560808e+000
1	 1.946577600205163e+000	 1.838895608939119e-002	 6.037839670192085e+000
1	 1.946315673758754e+000	 3.684777073830725e-002	 5.917697320231197e+000
1	 1.945876690170387e+000	 5.537430792675014e-002	 5.787730617262319e+000
1	 1.945258682139485e+000	 7.396637665979743e-002	 5.649845240657970e+000
1	 1.944459709280108e+000	 9.262173106713360e-002	 5.505882835366758e+000
1	 1.943477859679464e+000	 1.113380705490088e-001	 5.357616780611203e+000
1	 1.942311251469391e+000	 1.301130399697187e-001	 5.206747945632771e+000
1	 1.940958034409342e+000	 1.489442298996580e-001	 5.054900439904692e+000
1	 1.939416391479402e+000	 1.678291769069628e-001	 4.903617365513916e+000
1	 1.937684540481774e+000	 1.867653638997075e-001	 4.754356579681417e+000
1	 1.953331550244001e+000	 0.000000000000000e+000	 5.862995367651437e+000
1	 1.953244390776765e+000	 1.845193601748950e-002	 5.769107281958842e+000
1	 1.952981567263933e+000	 3.697396985182642e-002	 5.663235740790838e+000
1	 1.952541080209884e+000	 5.556395816736879e-002	 5.547341036293212e+000
1	 1.951920955576322e+000	 7.421970246526730e-002	 5.423310959656562e+000
1	 1.951119246331762e+000	 9.293894918333730e-002	 5.292956268198868e+000
1	 1.950134034015393e+000	 1.117193898425177e-001	 5.158006143327523e+000
1	 1.948963430313926e+000	 1.305586612410130e-001	 5.020103647465859e+000
1	 1.947605578650012e+000	 1.494543456971768e-001	 4.880801188322466e+000
1	 1.946058655780713e+000	 1.684039713421516e-001	 4.741555999168850e+000
1	 1.944320873404466e+000	 1.874050124632389e-001	 4.603725644060186e+000
1	 1.959998619975199e+000	 0.000000000000000e+000	 5.579518332302006e+000
1	 1.959911163016998e+000	 1.851491577235820e-002	 5.500128552487100e+000
1	 1.959647442440198e+000	 3.710016861821019e-002	 5.408600666252855e+000
1	 1.959205451924581e+000	 5.575360788629519e-002	 5.306880635587553e+000
1	 1.958583210694151e+000	 7.447302757386257e-002	 5.196826849013242e+000
1	 1.957778765071903e+000	 9.325616642688481e-002	 5.080205220751158e+000
1	 1.956790190049017e+000	 1.121007080870163e-001	 4.958684294237327e+000
1	 1.955615590867101e+000	 1.310042812863982e-001	 4.833830359185918e+000
1	 1.954253104612022e+000	 1.499644600913703e-001	 4.707102591703734e+000
1	 1.952700901817834e+000	 1.689787641961107e-001	 4.579848227247346e+000
1	 1.950957188079231e+000	 1.880446592671768e-001	 4.453297776492267e+000
1	 1.966665659706596e+000	 0.000000000000000e+000	 5.295353389767596e+000
1	 1.966577905258778e+000	 1.857789524389573e-002	 5.230635553995794e+000
1	 1.966313287622068e+000	 3.722636681679614e-002	 5.153643262666822e+000
1	 1.965869793651682e+000	 5.594325675186496e-002	 5.066299101107291e+000
1	 1.965245435833949e+000	 7.472635154249477e-002	 4.970420629526718e+000
1	 1.964438253846368e+000	 9.357338224286060e-002	 4.867715068327297e+000
1	 1.963446316132142e+000	 1.124820246153790e-001	 4.759774003723114e+000
1	 1.962267721487796e+000	 1.314498993261747e-001	 4.648068124146276e+000
1	 1.960900600662440e+000	 1.504745721896228e-001	 4.533941998229594e+000
1	 1.959343117967145e+000	 1.695535544629860e-001	 4.418608905451993e+000
1	 1.957593472892883e+000	 1.886843031921286e-001	 4.303145730810371e+000
1	 1.973332657770577e+000	 0.000000000000000e+000	 5.010098373511207e+000
1	 1.973244605835021e+000	 1.864087432200055e-002	 4.960363963744401e+000
1	 1.972979091144063e+000	 3.735256422692177e-002	 4.898216684805671e+000
1	 1.972534093728390e+000	 5.613290443241377e-002	 4.825546770984146e+000
1	 1.971907619336688e+000	 7.497967392807546e-002	 4.744119616050752e+000
1	 1.971097701000996e+000	 9.389059607634927e-002	 4.655569999041974e+000
1	 1.970102400616569e+000	 1.128633387604796e-001	 4.561396348790755e+000
1	 1.968919810534888e+000	 1.318955145806430e-001	 4.462955059125623e+000
1	 1.967548055168334e+000	 1.509846810993184e-001	 4.361454866978474e+000
1	 1.965985292605024e+000	 1.701283411369238e-001	 4.257951305945379e+000
1	 1.964229716232241e+000	 1.893239431187017e-001	 4.153341248121945e+000
1	 1.979999602499524e+000	 0.000000000000000e+000	 4.723356526471911e+000
1	 1.979911253078643e+000	 1.870385289657111e-002	 4.689053003181627e+000
1	 1.979644841340705e+000	 3.747876062792465e-002	 4.642176042483549e+000
1	 1.979198340491908e+000	 5.632255059627724e-002	 4.584574624312115e+000
1	 1.978569749543343e+000	 7.523299428751624e-002	 4.517950724086817e+000
1	 1.977757094881625e+000	 9.420780737243521e-002	 4.443853033563472e+000
1	 1.976758431854105e+000	 1.132446498551925e-001	 4.363670741338258e+000
1	 1.975571846367256e+000	 1.323411262701039e-001	 4.278627386531781e+000
1	 1.974195456496769e+000	 1.514947859278415e-001	 4.189774799508090e+000
1	 1.972627414107849e+000	 1.707031232120700e-001	 4.097987143793778e+000
1	 1.970865906484120e+000	 1.899635779275032e-001	 4.003955073639540e+000
1	 1.986666482225822e+000	 0.000000000000000e+000	 4.434736410154631e+000
1	 1.986577835322561e+000	 1.876683085750586e-002	 4.416445378289903e+000
1	 1.986310526546514e+000	 3.760495579914228e-002	 4.385378367535448e+000
1	 1.985862522279442e+000	 5.651219491179096e-002	 4.343334270159938e+000
1	 1.985231814794886e+000	 7.548631217772855e-002	 4.291940476246646e+000
1	 1.984416423834092e+000	 9.452501557620295e-002	 4.232646044466930e+000
1	 1.983414398196552e+000	 1.136259572323918e-001	 4.166714955868014e+000
1	 1.982223817343778e+000	 1.327867336148577e-001	 4.095219465971551e+000
1	 1.980842793014816e+000	 1.520048857825762e-001	 4.019033570816160e+000
1	 1.979269470851998e+000	 1.712778996825705e-001	 3.938826602889950e+000
1	 1.977502032035339e+000	 1.906032064991406e-001	 3.855056973179888e+000
1	 1.993333285281853e+000	 0.000000000000000e+000	 4.143851815500780e+000
1	 1.993244340899691e+000	 1.882980809470324e-002	 4.142287221097233e+000
1	 1.992976135096009e+000	 3.773114951991224e-002	 4.127682581442772e+000
1	 1.992526627428193e+000	 5.670183704729064e-002	 4.101777936797637e+000
1	 1.991893803432292e+000	 7.573962715562399e-002	 4.066115008587259e+000
1	 1.991075676204236e+000	 9.484222013273701e-002	 4.022029775208015e+000
1	 1.990070287995715e+000	 1.140072602249516e-001	 3.970645156655521e+000
1	 1.988875711823331e+000	 1.332323358352051e-001	 3.912863825201664e+000
1	 1.987490053089539e+000	 1.525149797709067e-001	 3.849361159694015e+000
1	 1.985911451213851e+000	 1.718526695425716e-001	 3.780578361367603e+000
1	 1.984138081272714e+000	 1.912428277142212e-001	 3.706715749338762e+000
1	 2.000000000000000e+000	 0.000000000000000e+000	 3.850321675498595e+000
1	 1.999910758142949e+000	 1.889278449806171e-002	 3.866328032330885e+000
1	 1.999641655323712e+000	 3.785734156957202e-002	 3.868949463590386e+000
1	 1.999190644275366e+000	 5.689147667111187e-002	 3.859858461133074e+000
1	 1.998555703796535e+000	 7.599293877811417e-002	 3.840500076821352e+000
1	 1.997734840337895e+000	 9.515942048712189e-002	 3.812083858724670e+000
1	 1.996726089603397e+000	 1.143885581657462e-001	 3.775575924386361e+000
1	 1.995527518164795e+000	 1.336779321514466e-001	 3.731691190473441e+000
1	 1.994137225088007e+000	 1.530250670002173e-001	 3.680885778486005e+000
1	 1.992553343569784e+000	 1.724274317862191e-001	 3.623349616518651e+000
1	 1.990774042583062e+000	 1.918824404533523e-001	 3.558999257349575e+000
1	 1.924411866345337e+000	 1.854860659714353e-001	 5.055931472759359e+000
1	 1.922501540134042e+000	 2.043380559406118e-001	 4.881201039850422e+000
1	 1.920398937179060e+000	 2.232358038488349e-001	 4.698265910534009e+000
1	 1.918102401848856e+000	 2.421766950293987e-001	 4.507897967500074e+000
1	 1.915610319394058e+000	 2.611580646121946e-001	 4.310841081579521e+000
1	 1.912921117535318e+000	 2.801771981265868e-001	 4.107809514228968e+000
1	 1.910033268048593e+000	 2.992313321576312e-001	 3.899486332044997e+000
1	 1.906945288345930e+000	 3.183176550561437e-001	 3.686521836729479e+000
1	 1.903655743049810e+000	 3.374333077030550e-001	 3.469532013993526e+000
1	 1.900163245559078e+000	 3.565753843284157e-001	 3.249097004952624e+000
1	 1.896466459604412e+000	 3.757409333853379e-001	 3.025759603617148e+000
1	 1.931048200924337e+000	 1.861257146959755e-001	 4.905116799627858e+000
1	 1.929131286952813e+000	 2.050427157553048e-001	 4.741729826613146e+000
1	 1.927021433171348e+000	 2.240056325498700e-001	 4.570090961421788e+000
1	 1.924716978238935e+000	 2.430118413962970e-001	 4.390932370823272e+000
1	 1.922216301837717e+000	 2.620586682346834e-001	 4.204960738390239e+000
1	 1.919517826266314e+000	 2.811433892335523e-001	 4.012855787303526e+000
1	 1.916620018030578e+000	 3.002632314483342e-001	 3.815268814058943e+000
1	 1.913521389429823e+000	 3.194153735338842e-001	 3.612821236233266e+000
1	 1.910220500136607e+000	 3.385969465114715e-001	 3.406103157529100e+000
1	 1.906715958768053e+000	 3.578050345906109e-001	 3.195671953377079e+000
1	 1.903006424446688e+000	 3.770366760460168e-001	 2.982050880422827e+000
1	 1.937684540481774e+000	 1.867653638997075e-001	 4.754356579681417e+000
1	 1.935761038744943e+000	 2.057473760980256e-001	 4.602218660253904e+000
1	 1.933643934131447e+000	 2.247754618278888e-001	 4.441803036063146e+000
1	 1.931331559590807e+000	 2.438469883892481e-001	 4.273800044647258e+000
1	 1.928822289236666e+000	 2.629592725323993e-001	 4.098877845249850e+000
1	 1.926114539945610e+000	 2.821095810650167e-001	 3.917681082988326e+000
1	 1.923206772953378e+000	 3.012951315128971e-001	 3.730829562024689e+000
1	 1.920097495446545e+000	 3.205130928349259e-001	 3.538916930569291e+000
1	 1.916785262147738e+000	 3.397605861927041e-001	 3.342509380606885e+000
1	 1.913268676892355e+000	 3.590346857752013e-001	 3.142144365286658e+000
1	 1.909546394194761e+000	 3.783324196787251e-001	 2.938329336964905e+000
1	 1.944320873404466e+000	 1.874050124632389e-001	 4.603725644060186e+000
1	 1.942390783908820e+000	 2.064520357355793e-001	 4.462692576640157e+000
1	 1.940266428470466e+000	 2.255452903356298e-001	 4.313384350344675e+000
1	 1.937946134329452e+000	 2.446821345466726e-001	 4.156447386275505e+000
1	 1.935428270030934e+000	 2.638598759292083e-001	 3.992510003187929e+000
1	 1.932711247029466e+000	 2.830757719300687e-001	 3.822181243943193e+000
1	 1.929793521290675e+000	 3.023270305454238e-001	 3.646049708295460e+000
1	 1.926673594888409e+000	 3.216108110381967e-001	 3.464682394455576e+000
1	 1.923350017595366e+000	 3.409242247103263e-001	 3.278623551927162e+000
1	 1.919821388465220e+000	 3.602643357302445e-001	 3.088393548159575e+000
1	 1.916086357404184e+000	 3.796281620158600e-001	 2.894487751604357e+000
1	 1.950957188079231e+000	 1.880446592671768e-001	 4.453297776492267e+000
1	 1.949020510842833e+000	 2.071566934347714e-001	 4.323176243587231e+000
1	 1.946888904599510e+000	 2.263151167258317e-001	 4.184817336470462e+000
1	 1.944560690879855e+000	 2.455172784069913e-001	 4.038821498322720e+000
1	 1.942034232660551e+000	 2.647604768489764e-001	 3.885775911857694e+000
1	 1.939307935974137e+000	 2.840419601377974e-001	 3.726253508858118e+000
1	 1.936380251516154e+000	 3.033589267400191e-001	 3.560811982613837e+000
1	 1.933249676247729e+000	 3.227085262226244e-001	 3.389992805254106e+000
1	 1.929914754991652e+000	 3.420878600279121e-001	 3.214320252014550e+000
1	 1.926374082019887e+000	 3.614939823037993e-001	 3.034300434522693e+000
1	 1.922626302630512e+000	 3.809239007898189e-001	 2.850420345226245e+000
1	 1.957593472892883e+000	 1.886843031921286e-001	 4.303145730810371e+000
1	 1.955650207945371e+000	 2.078613479624075e-001	 4.183693966864576e+000
1	 1.953511350929684e+000	 2.270849396512331e-001	 4.056084639068335e+000
1	 1.951175217666995e+000	 2.463524185086249e-001	 3.920870176538894e+000
1	 1.948640165565545e+000	 2.656610737155694e-001	 3.778595350700130e+000
1	 1.945904595235886e+000	 2.850081439972916e-001	 3.629796488583263e+000
1	 1.942966952103496e+000	 3.043908182907876e-001	 3.475000684835758e+000
1	 1.939825728016818e+000	 3.238062364671364e-001	 3.314725013919315e+000
1	 1.936479462848755e+000	 3.432514901090352e-001	 3.149475744020141e+000
1	 1.932926746089595e+000	 3.627236233439242e-001	 2.979747554234294e+000
1	 1.929166218429299e+000	 3.822196337329991e-001	 2.806022756628492e+000
1	 1.964229716232241e+000	 1.893239431187017e-001	 4.153341248121945e+000
1	 1.962279863614822e+000	 2.085659980852931e-001	 4.044269696081829e+000
1	 1.960133755872096e+000	 2.278547577645727e-001	 3.927169111372272e+000
1	 1.957789703115855e+000	 2.471875533899939e-001	 3.802541897873223e+000
1	 1.955246057185943e+000	 2.665616649528533e-001	 3.670889160479594e+000
1	 1.952501213270967e+000	 2.859743218176405e-001	 3.532710142730409e+000
1	 1.949553611526384e+000	 3.054227033918336e-001	 3.388501658194295e+000
1	 1.946401738687989e+000	 3.249039398506607e-001	 3.238757516520502e+000
1	 1.943044129678839e+000	 3.444151129172695e-001	 3.083967945099603e+000
1	 1.939479369207581e+000	 3.639532566986775e-001	 2.924619007314642e+000
1	 1.935706093356100e+000	 3.835153585777981e-001	 2.761192018397080e+000
1	 1.970865906484120e+000	 1.899635779275032e-001	 4.003955073639540e+000
1	 1.968909466249573e+000	 2.092706425702335e-001	 3.904927030458531e+000
1	 1.966756107837849e+000	 2.286245697185889e-001	 3.798053811479362e+000
1	 1.964404135651418e+000	 2.480226815895192e-001	 3.683785808772580e+000
1	 1.961851895961775e+000	 2.674622489846945e-001	 3.562579225183059e+000
1	 1.959097778535640e+000	 2.869404919079331e-001	 3.434895756735029e+000
1	 1.956140218258501e+000	 3.064545802372620e-001	 3.301202263089157e+000
1	 1.952977696753554e+000	 3.260016344521250e-001	 3.161970426325098e+000
1	 1.949608743994064e+000	 3.455787264161886e-001	 3.017676398356129e+000
1	 1.946031939907083e+000	 3.651828802161176e-001	 2.868800437311493e+000
1	 1.942245915966470e+000	 3.848110730566133e-001	 2.715826533256123e+000
1	 1.977502032035339e+000	 1.906032064991406e-001	 3.855056973179888e+000
1	 1.975539004248015e+000	 2.099752801840344e-001	 3.765689224479560e+000
1	 1.973378395238052e+000	 2.293943741660205e-001	 3.668721998679680e+000
1	 1.971018503698665e+000	 2.488578016456213e-001	 3.564551713709726e+000
1	 1.968457670333070e+000	 2.683628242349581e-001	 3.453588454274188e+000
1	 1.965694279486164e+000	 2.879066525772582e-001	 3.336255919368581e+000
1	 1.962726760773528e+000	 3.074864470211772e-001	 3.212991351390975e+000
1	 1.959553590705827e+000	 3.270993183504568e-001	 3.084245446430043e+000
1	 1.956173294306592e+000	 3.467423285693666e-001	 2.950482245333215e+000
1	 1.952584446721340e+000	 3.664124917443030e-001	 2.812179005188623e+000
1	 1.948785674815963e+000	 3.861067749018420e-001	 2.669826050882372e+000
1	 1.984138081272714e+000	 1.912428277142212e-001	 3.706715749338762e+000
1	 1.982168466008534e+000	 2.106799096935011e-001	 3.626579193439105e+000
1	 1.980000606483809e+000	 2.301641697596058e-001	 3.539157129857195e+000
1	 1.977632795682577e+000	 2.496929120967210e-001	 3.444790063934811e+000
1	 1.975063368739857e+000	 2.692633891275107e-001	 3.343840765294900e+000
1	 1.972290704578797e+000	 2.888728021347050e-001	 3.236694500690500e+000
1	 1.969313227545150e+000	 3.085183019376837e-001	 3.123759241248345e+000
1	 1.966129409037122e+000	 3.281969896245840e-001	 3.005465842928389e+000
1	 1.962737769128583e+000	 3.479059173403772e-001	 2.882268199046214e+000
1	 1.959136878183591e+000	 3.676420891312922e-001	 2.754643363724985e+000
1	 1.955325358460134e+000	 3.874024618458816e-001	 2.623091645173176e+000
1	 1.990774042583062e+000	 1.918824404533523e-001	 3.558999257349575e+000
1	 1.988797839929520e+000	 2.113845298654391e-001	 3.487619518875279e+000
1	 1.986622729986227e+000	 2.309339551520839e-001	 3.409342855960229e+000
1	 1.984247000028138e+000	 2.505280114812390e-001	 3.324451946446394e+000
1	 1.981668979622164e+000	 2.701639420862183e-001	 3.233261066804558e+000
1	 1.978887042269796e+000	 2.898389388893622e-001	 3.136116630430195e+000
1	 1.975899607047047e+000	 3.095501431808861e-001	 3.033397692385925e+000
1	 1.972705140239751e+000	 3.292946463534344e-001	 2.925516418599409e+000
1	 1.969302156972200e+000	 3.490694906927942e-001	 2.812918517539472e+000
1	 1.965689222827072e+000	 3.688716702251433e-001	 2.696083632413668e+000
1	 1.961864955454538e+000	 3.886981316211295e-001	 2.575525691957656e+000
1	 1.896466459604412e+000	 3.757409333853379e-001	 3.025759603617148e+000
1	 1.892563500168320e+000	 3.949298373126922e-001	 2.802313824350017e+000
1	 1.888453676301606e+000	 4.141361773022581e-001	 2.581941492300953e+000
1	 1.884135813088218e+000	 4.333568642990193e-001	 2.365596654374648e+000
1	 1.879608792083759e+000	 4.525887673990907e-001	 2.154177415658212e+000
1	 1.874871552788905e+000	 4.718287150019048e-001	 1.948523508540270e+000
1	 1.869923094099525e+000	 4.910734960175069e-001	 1.749413906094813e+000
1	 1.864762475731302e+000	 5.103198611286467e-001	 1.557564485535854e+000
1	 1.859388819616633e+000	 5.295645241072586e-001	 1.373625747586166e+000
1	 1.853801311271564e+000	 5.488041631848249e-001	 1.198180597628124e+000
1	 1.847999201130549e+000	 5.680354224760175e-001	 1.031742194511170e+000
1	 1.903006424446688e+000	 3.770366760460168e-001	 2.982050880422827e+000
1	 1.899090005654519e+000	 3.962917529111596e-001	 2.767948224521796e+000
1	 1.894966009059619e+000	 4.155643259668070e-001	 2.556473513977744e+000
1	 1.890633255694253e+000	 4.348512955053325e-001	 2.348587416352453e+000
1	 1.886090623257090e+000	 4.541495198259258e-001	 2.145193584038047e+000
1	 1.881337047591688e+000	 4.734558163907507e-001	 1.947136186272830e+000
1	 1.876371524141627e+000	 4.927669630364044e-001	 1.755197486577240e+000
1	 1.871193109380035e+000	 5.120796992403628e-001	 1.570095471519928e+000
1	 1.865800922211312e+000	 5.313907274419983e-001	 1.392481536763188e+000
1	 1.860194145342777e+000	 5.506967144176710e-001	 1.222938236359931e+000
1	 1.854372026624021e+000	 5.699942927092772e-001	 1.061977101280371e+000
1	 1.909546394194761e+000	 3.783324196787251e-001	 2.938329336964905e+000
1	 1.905616516036455e+000	 3.976536695313453e-001	 2.733668741206059e+000
1	 1.901478346702779e+000	 4.169924757028027e-001	 2.531179355971833e+000
1	 1.897130703174315e+000	 4.363457278328529e-001	 2.331829290174597e+000
1	 1.892572459292788e+000	 4.557102734237521e-001	 2.136528395733061e+000
1	 1.887802547244642e+000	 4.750829190003875e-001	 1.946125758145628e+000
1	 1.882819959021162e+000	 4.944604313259012e-001	 1.761407233841364e+000
1	 1.877623747852923e+000	 5.138395386724858e-001	 1.583093040336536e+000
1	 1.872213029616325e+000	 5.332169321469448e-001	 1.411835405264623e+000
1	 1.866586984209952e+000	 5.525892670705059e-001	 1.248216280369879e+000
1	 1.860744856898537e+000	 5.719531644122836e-001	 1.092745126558731e+000
1	 1.916086357404184e+000	 3.796281620158600e-001	 2.894487751604357e+000
1	 1.912143019893252e+000	 3.990155847898394e-001	 2.699384416604496e+000
1	 1.907990677835036e+000	 4.184206240109177e-001	 2.505982879958051e+000
1	 1.903628144158436e+000	 4.378401586662455e-001	 2.315259506682312e+000
1	 1.899054288848237e+000	 4.572710254611572e-001	 2.128130995642251e+000
1	 1.894268040433766e+000	 4.767100199832762e-001	 1.945451824366460e+000
1	 1.889268387454018e+000	 4.961538979223016e-001	 1.768011742198856e+000
1	 1.884054379897014e+000	 5.155993763451566e-001	 1.596533317947021e+000
1	 1.878625130611152e+000	 5.350431350260875e-001	 1.431669548225910e+000
1	 1.872979816686288e+000	 5.544818178312048e-001	 1.274001532717955e+000
1	 1.867117680802294e+000	 5.739120341568522e-001	 1.124036222573370e+000
1	 1.922626302630512e+000	 3.809239007898189e-001	 2.850420345226245e+000
1	 1.918669505804034e+000	 4.003774963032317e-001	 2.665005514884155e+000
1	 1.914502991060339e+000	 4.198487683918247e-001	 2.480808968653232e+000
1	 1.910125567276648e+000	 4.393345853901751e-001	 2.298816136561890e+000
1	 1.905536100580816e+000	 4.588317732067282e-001	 2.119951207113164e+000
1	 1.900733515845056e+000	 4.783371164918771e-001	 1.945074522051394e+000
1	 1.895716798156077e+000	 4.978473598619106e-001	 1.774980021223767e+000
1	 1.890484994259351e+000	 5.173592091785162e-001	 1.610392743843128e+000
1	 1.885037213975278e+000	 5.368693328834175e-001	 1.451966392495186e+000
1	 1.879372631584984e+000	 5.563743633876412e-001	 1.300280966254801e+000
1	 1.873490487183485e+000	 5.758708985147968e-001	 1.155840469277742e+000
1	 1.929166218429299e+000	 3.822196337329991e-001	 2.806022756628492e+000
1	 1.925195962347924e+000	 4.017394016881122e-001	 2.630443501317928e+000
1	 1.921015274982634e+000	 4.212769063461962e-001	 2.455583508373894e+000
1	 1.916622961158985e+000	 4.408290053893066e-001	 2.282438075984624e+000
1	 1.912017883147906e+000	 4.603925139290530e-001	 2.111939520327685e+000
1	 1.907198962164510e+000	 4.799642056786505e-001	 1.944954516019511e+000
1	 1.902165179843225e+000	 4.995408141810327e-001	 1.782281488618403e+000
1	 1.896915579686980e+000	 5.191190340927052e-001	 1.624648065645743e+000
1	 1.891449268488183e+000	 5.386955225229246e-001	 1.472708592626881e+000
1	 1.885765417719239e+000	 5.582669004276901e-001	 1.327041720672508e+000
1	 1.879863264890306e+000	 5.778297540579320e-001	 1.188148072122174e+000
1	 1.935706093356100e+000	 3.835153585777981e-001	 2.761192018397080e+000
1	 1.931722378104047e+000	 4.031012985610708e-001	 2.595611021836471e+000
1	 1.927527518205872e+000	 4.227050353747045e-001	 2.430233371938697e+000
1	 1.923120314435480e+000	 4.423234160483052e-001	 2.266065032530628e+000
1	 1.918499625206888e+000	 4.619532448967189e-001	 2.104047080917424e+000
1	 1.913664368078124e+000	 4.815912846960572e-001	 1.945052989769432e+000
1	 1.908613521231345e+000	 5.012342579159725e-001	 1.789885963219920e+000
1	 1.903346124926945e+000	 5.208788480078646e-001	 1.639276333810225e+000
1	 1.897861282929353e+000	 5.405217007485994e-001	 1.493879026954346e+000
1	 1.892158163902252e+000	 5.601594256392254e-001	 1.354271099613311e+000
1	 1.886236002770952e+000	 5.797885973580729e-001	 1.220949359868278e+000
1	 1.942245915966470e+000	 3.848110730566133e-001	 2.715826533256123e+000
1	 1.938248741651528e+000	 4.044631845386976e-001	 2.560421882983440e+000
1	 1.934039709333999e+000	 4.241331529780222e-001	 2.404686401906985e+000
1	 1.929617615736164e+000	 4.438178147518357e-001	 2.249637511389290e+000
1	 1.924981315415146e+000	 4.635139633783134e-001	 2.096225678803112e+000
1	 1.920129722271896e+000	 4.832183506965573e-001	 1.945331636633216e+000
1	 1.915061811036321e+000	 5.029276881030343e-001	 1.797763658144281e+000
1	 1.909776618726292e+000	 5.226386478441352e-001	 1.654254896435607e+000
1	 1.904273246078267e+000	 5.423478643644319e-001	 1.515460793739482e+000
1	 1.898550858947221e+000	 5.620519357101217e-001	 1.381956567834934e+000
1	 1.892608689673620e+000	 5.817474249870338e-001	 1.254234782445963e+000
1	 1.948785674815963e+000	 3.861067749018420e-001	 2.669826050882372e+000
1	 1.944775041569488e+000	 4.058250572375823e-001	 2.524791032263576e+000
1	 1.940551836970966e+000	 4.255612566568219e-001	 2.378871394146627e+000
1	 1.936114853691072e+000	 4.453121988845630e-001	 2.233096801830643e+000
1	 1.931462942430058e+000	 4.650746666424240e-001	 2.088427737252573e+000
1	 1.926595013431823e+000	 4.848454008326115e-001	 1.945752651103800e+000
1	 1.921510037974037e+000	 5.046211017785234e-001	 1.805885174064618e+000
1	 1.916207049832067e+000	 5.243984305216578e-001	 1.669561394175440e+000
1	 1.910685146714410e+000	 5.441740101744127e-001	 1.537437207397670e+000
1	 1.904943491667344e+000	 5.639444273282532e-001	 1.410085748431491e+000
1	 1.898981314446504e+000	 5.837062335166293e-001	 1.287994908852472e+000
1	 1.955325358460134e+000	 3.874024618458816e-001	 2.623091645173176e+000
1	 1.951301266437051e+000	 4.071869142743148e-001	 2.488634538875419e+000
1	 1.947063889720720e+000	 4.269893439117760e-001	 2.352718081723054e+000
1	 1.942612016930235e+000	 4.468065658311523e-001	 2.216384963941369e+000
1	 1.937944494909006e+000	 4.666353519576381e-001	 2.080606302152975e+000
1	 1.933060230243902e+000	 4.864724322566804e-001	 1.946278720331697e+000
1	 1.927958190760378e+000	 5.063144959787437e-001	 1.814221492620950e+000
1	 1.922637406991314e+000	 5.261581929605732e-001	 1.685173755248139e+000
1	 1.917096973617263e+000	 5.460001349825318e-001	 1.559791794796124e+000
1	 1.911336050875822e+000	 5.658368971814942e-001	 1.438646420108199e+000
1	 1.905353865937798e+000	 5.856650195186739e-001	 1.322220425092063e+000
1	 1.961864955454538e+000	 3.886981316211295e-001	 2.575525691957656e+000
1	 1.957827404833344e+000	 4.085487532654855e-001	 2.451869574819342e+000
1	 1.953575856187211e+000	 4.284174122435571e-001	 2.326157119102473e+000
1	 1.949109094083688e+000	 4.483009129762684e-001	 2.199444815619009e+000
1	 1.944425961509372e+000	 4.681960165925432e-001	 2.072715031491640e+000
1	 1.939525361394130e+000	 4.880994421212243e-001	 1.946873015787271e+000
1	 1.934406258111227e+000	 5.080078677400004e-001	 1.822743969957843e+000
1	 1.929067678951077e+000	 5.279179320810223e-001	 1.701070190543955e+000
1	 1.923508715566310e+000	 5.478262355927795e-001	 1.582508291624592e+000
1	 1.917728525385851e+000	 5.677293419577193e-001	 1.467626514509169e+000
1	 1.911726332995700e+000	 5.876237795649825e-001	 1.356902132155633e+000
1	 1.847999201130549e+000	 5.680354224760175e-001	 1.031742194511170e+000
1	 1.841981805384595e+000	 5.872549131734429e-001	 8.752207637657731e-001
1	 1.835748505856336e+000	 6.064592142033818e-001	 7.295185074013714e-001
1	 1.829298752609273e+000	 6.256448746004242e-001	 5.950156796595505e-001
1	 1.822632065596483e+000	 6.448084154108978e-001	 4.720010194452121e-001
1	 1.815748035804696e+000	 6.639463313706805e-001	 3.606696254889577e-001
1	 1.808646326353042e+000	 6.830550926306998e-001	 2.611209503389153e-001
1	 1.801326673544389e+000	 7.021311465288183e-001	 1.733569197584421e-001
1	 1.793788887867155e+000	 7.211709194066933e-001	 9.728018395110989e-002
1	 1.786032854945589e+000	 7.401708184701011e-001	 3.269250685759240e-002
1	 1.778058536436490e+000	 7.591272336911190e-001	-2.070670043162575e-002
1	 1.854372026624021e+000	 5.699942927092772e-001	 1.061977101280371e+000
1	 1.848333879887951e+000	 5.892800618231178e-001	 9.104482980439869e-001
1	 1.842079084825410e+000	 6.085505888878965e-001	 7.691835751720586e-001
1	 1.835607089603429e+000	 6.278024110375446e-001	 6.385439925519816e-001
1	 1.828917412519633e+000	 6.470320373212148e-001	 5.187977615400198e-001
1	 1.822009643150254e+000	 6.662359503868776e-001	 4.101181223897177e-001
1	 1.814883443452677e+000	 6.854106082127709e-001	 3.125813430486131e-001
1	 1.807538548820397e+000	 7.045524458853990e-001	 2.261648459495295e-001
1	 1.799974769088290e+000	 7.236578774226530e-001	 1.507454692627880e-001
1	 1.792191989486165e+000	 7.427232976405553e-001	 8.609786889301710e-002
1	 1.784190171538583e+000	 7.617450840619972e-001	 3.189306729815278e-002
1	 1.860744856898537e+000	 5.719531644122836e-001	 1.092745126558731e+000
1	 1.854685959156884e+000	 5.913052119922639e-001	 9.462123422889824e-001
1	 1.848409668544039e+000	 6.106419651415646e-001	 8.093798166133487e-001
1	 1.841915431330562e+000	 6.299599490934507e-001	 6.825892374427037e-001
1	 1.835202764158619e+000	 6.492556608998898e-001	 5.660880506038190e-001
1	 1.828271255193945e+000	 6.685255711209363e-001	 4.600273389250728e-001
1	 1.821120565232174e+000	 6.877661255621314e-001	 3.644598253283616e-001
1	 1.813750428757426e+000	 7.069737470586097e-001	 2.793380066065960e-001
1	 1.806160654951032e+000	 7.261448373044901e-001	 2.045124244010823e-001
1	 1.798351128648357e+000	 7.452757787260291e-001	 1.397300797044171e-001
1	 1.790321811241721e+000	 7.643629363969243e-001	 8.463299700241010e-002
1	 1.867117680802294e+000	 5.739120341568522e-001	 1.124036222573370e+000
1	 1.861038032075868e+000	 5.933303601367139e-001	 9.825050579888819e-001
1	 1.854740245934266e+000	 6.127333393043351e-001	 8.501011796071806e-001
1	 1.848223766751578e+000	 6.321174849923246e-001	 7.271467267509755e-001
1	 1.841488109514515e+000	 6.514792822554775e-001	 6.138681431204025e-001
1	 1.834532860978315e+000	 6.708151895659438e-001	 5.103940569313170e-001
1	 1.827357680776868e+000	 6.901216405565783e-001	 4.167532877962085e-001
1	 1.819962302484917e+000	 7.093950458111605e-001	 3.328729870838853e-001
1	 1.812346534630249e+000	 7.286317947000452e-001	 2.585769183226681e-001
1	 1.804510261653793e+000	 7.478282572597389e-001	 1.935838840176725e-001
1	 1.796453444815625e+000	 7.669807861147554e-001	 1.375063050344328e-001
1	 1.873490487183485e+000	 5.758708985147968e-001	 1.155840469277742e+000
1	 1.867390087529377e+000	 5.953555027123006e-001	 1.019318705084892e+000
1	 1.861070805918133e+000	 6.148247077161561e-001	 8.913416869659228e-001
1	 1.854532084827383e+000	 6.342750149583490e-001	 7.722118300364167e-001
1	 1.847773437588392e+000	 6.537028974965337e-001	 6.621343406324800e-001
1	 1.840794449545912e+000	 6.731048017149862e-001	 5.612150969006580e-001
1	 1.833594779172092e+000	 6.924771490739101e-001	 4.694586589656279e-001
1	 1.826174159132310e+000	 7.118163379057594e-001	 3.867664154708837e-001
1	 1.818532397300815e+000	 7.311187452571608e-001	 3.129348731112343e-001
1	 1.810669377724103e+000	 7.503807287749005e-001	 2.476540955751328e-001
1	 1.802585061530014e+000	 7.695986286343437e-001	 1.905062980902592e-001
1	 1.879863264890306e+000	 5.778297540579320e-001	 1.188148072122174e+000
1	 1.873742114401887e+000	 5.973806361748562e-001	 1.056645640244282e+000
1	 1.867401337417683e+000	 6.169160667169766e-001	 9.330954351098075e-001
1	 1.860840374518883e+000	 6.364325352157069e-001	 8.177799729831680e-001
1	 1.854058737381323e+000	 6.559265027316127e-001	 7.108829889349740e-001
1	 1.847056009939280e+000	 6.753944035611510e-001	 6.124873172868910e-001
1	 1.839831849503180e+000	 6.948326469919245e-001	 5.225729045670354e-001
1	 1.832385987829046e+000	 7.142376191051162e-001	 4.410149618338788e-001
1	 1.824718232137600e+000	 7.336056846236778e-001	 3.675822630441020e-001
1	 1.816828466080916e+000	 7.529331888047299e-001	 3.019355959327952e-001
1	 1.808716650654608e+000	 7.722164593745430e-001	 2.436263716431814e-001
1	 1.886236002770952e+000	 5.797885973580729e-001	 1.220949359868278e+000
1	 1.880094101577871e+000	 5.994057569802134e-001	 1.094478315167213e+000
1	 1.873731829354958e+000	 6.190074126467445e-001	 9.753565927702144e-001
1	 1.867148624786985e+000	 6.385900419885805e-001	 8.638466364037321e-001
1	 1.860343997894379e+000	 6.581500940692703e-001	 7.601104772841151e-001
1	 1.853317531200968e+000	 6.776839910975244e-001	 6.642076138245081e-001
1	 1.846068880855466e+000	 6.971881301884189e-001	 5.760930268825172e-001
1	 1.838597777704565e+000	 7.166588851719399e-001	 4.956153374723935e-001
1	 1.830904028315475e+000	 7.360926084474380e-001	 4.225151136770791e-001
1	 1.822987515945862e+000	 7.554856328824438e-001	 3.564233332812342e-001
1	 1.814848201459126e+000	 7.748342737542070e-001	 2.968600084090825e-001
1	 1.892608689673620e+000	 5.817474249870338e-001	 1.254234782445963e+000
1	 1.886446037941803e+000	 6.014308615842047e-001	 1.132809274926617e+000
1	 1.880062270652001e+000	 6.210987418454090e-001	 1.018119399718203e+000
1	 1.873456824592595e+000	 6.407475315011525e-001	 9.104073552622687e-001
1	 1.866629208128634e+000	 6.603736676180615e-001	 8.098132376218723e-001
1	 1.859579002373519e+000	 6.799735603171935e-001	 7.163729188612056e-001
1	 1.852305862314284e+000	 6.995435945411912e-001	 6.300160640935917e-001
1	 1.844809517888308e+000	 7.190801318689394e-001	 5.505642941901656e-001
1	 1.837089775009311e+000	 7.385795123762833e-001	 4.777295009472569e-001
1	 1.829146516540569e+000	 7.580380565412579e-001	 4.111123212896211e-001
1	 1.820979703213291e+000	 7.774520671921900e-001	 3.502007768419638e-001
1	 1.898981314446504e+000	 5.837062335166293e-001	 1.287994908852472e+000
1	 1.892797912378158e+000	 6.034559464426624e-001	 1.171631156340642e+000
1	 1.886392650230855e+000	 6.231900506529178e-001	 1.061378165517871e+000
1	 1.879764962896621e+000	 6.429049999776058e-001	 9.574577177168874e-001
1	 1.872914357085160e+000	 6.625972194865417e-001	 8.599877438153173e-001
1	 1.865840412499481e+000	 6.822631072132447e-001	 7.689802007030715e-001
1	 1.858542782964969e+000	 7.018990359280392e-001	 6.843390896415406e-001
1	 1.851021197509714e+000	 7.215013549588242e-001	 6.058586235802225e-001
1	 1.843275461393978e+000	 7.410663920580548e-001	 5.332215502933099e-001
1	 1.835305457086669e+000	 7.605904553143885e-001	 4.659976379724027e-001
1	 1.827111145186820e+000	 7.800698351073454e-001	 4.036423296589184e-001
1	 1.905353865937798e+000	 5.856650195186739e-001	 1.322220425092063e+000
1	 1.899149713771413e+000	 6.054810080114197e-001	 1.210936686376269e+000
1	 1.892722957013562e+000	 6.252813354092200e-001	 1.105127268303718e+000
1	 1.886073028659967e+000	 6.450624436421223e-001	 1.004993364180276e+000
1	 1.879199433765028e+000	 6.648207457832659e-001	 9.106305109109292e-001
1	 1.872101750621401e+000	 6.845526277787645e-001	 8.220264629725956e-001
1	 1.864779631892853e+000	 7.042544502267606e-001	 7.390592116000552e-001
1	 1.857232805698227e+000	 7.239225502043032e-001	 6.614951563238586e-001
1	 1.849461076644348e+000	 7.435532431405942e-001	 5.889874357929307e-001
1	 1.841464326805790e+000	 7.631428247350516e-001	 5.210744245779465e-001
1	 1.833242516649435e+000	 7.826875729185272e-001	 4.571784023939786e-001
1	 1.911726332995700e+000	 5.876237795649825e-001	 1.356902132155633e+000
1	 1.905501431006039e+000	 6.075060427463086e-001	 1.250718680584205e+000
1	 1.899053179922165e+000	 6.273725924542639e-001	 1.149361153581757e+000
1	 1.892381010843542e+000	 6.472198587188855e-001	 1.053009986398780e+000
1	 1.885484427169312e+000	 6.670442426167896e-001	 9.617380944028089e-001
1	 1.878363005781824e+000	 6.868421180068403e-001	 8.755087439789965e-001
1	 1.871016398183272e+000	 7.066098333151537e-001	 7.941735720600536e-001
1	 1.863444331583285e+000	 7.263437133680856e-001	 7.174707615031528e-001
1	 1.855646609935292e+000	 7.460400612717433e-001	 6.450233793168220e-001
1	 1.847623114919561e+000	 7.656951603364637e-001	 5.763378844989604e-001
1	 1.839373806870855e+000	 7.853052760445893e-001	 5.108028119799797e-001
1	 1.778058536436490e+000	 7.591272336911190e-001	-2.070670043162575e-002
1	 1.769867216285273e+000	 7.780337073685373e-001	-6.874206165914958e-002
1	 1.761457832055922e+000	 7.968894499849266e-001	-1.172699918157789e-001
1	 1.752830579594108e+000	 8.156908142598141e-001	-1.666685898332002e-001
1	 1.743985733737606e+000	 8.344341437159465e-001	-2.172803378340344e-001
1	 1.734923648915190e+000	 8.531157747611763e-001	-2.694112546713826e-001
1	 1.725644759681382e+000	 8.717320388004651e-001	-3.233301031057447e-001
1	 1.716149581185522e+000	 8.902792643757621e-001	-3.792676530580562e-001
1	 1.706438709573752e+000	 9.087537793314253e-001	-4.374160032781731e-001
1	 1.696512822322570e+000	 9.271519130027890e-001	-4.979279636599325e-001
1	 1.686372678502719e+000	 9.454699984254018e-001	-5.609165003168064e-001
1	 1.784190171538583e+000	 7.617450840619972e-001	 3.189306729815278e-002
1	 1.775970603618635e+000	 7.807167567163823e-001	-1.721007864021349e-002
1	 1.767532219626498e+000	 7.996375233636357e-001	-6.657633966067665e-002
1	 1.758875216083226e+000	 8.185037241456411e-001	-1.165998129700249e-001
1	 1.749999868774379e+000	 8.373116899757885e-001	-1.676382065776122e-001
1	 1.740906533350988e+000	 8.560577446280370e-001	-2.200119616919468e-001
1	 1.731595645866143e+000	 8.747382068562040e-001	-2.740034298619016e-001
1	 1.722067723245688e+000	 8.933493925412196e-001	-3.298561073806739e-001
1	 1.712323363691582e+000	 9.118876168640174e-001	-3.877739293695295e-001
1	 1.702363247016608e+000	 9.303491965016510e-001	-4.479206258481345e-001
1	 1.692188134909175e+000	 9.487304518441456e-001	-5.104191419791000e-001
1	 1.790321811241721e+000	 7.643629363969243e-001	 8.463299700241025e-002
1	 1.782073995531895e+000	 7.833998080771781e-001	 3.437000673309136e-002
1	 1.773606611755243e+000	 8.023855988040650e-001	-1.592528315353494e-002
1	 1.764919857108205e+000	 8.213166361418183e-001	-6.666323795150289e-002
1	 1.756014008324126e+000	 8.401892383944618e-001	-1.182170849047206e-001
1	 1.746889422276294e+000	 8.589997167020528e-001	-1.709220044085978e-001
1	 1.737546536516372e+000	 8.777443771672542e-001	-2.250742770226308e-001
1	 1.727985869746704e+000	 8.964195230099687e-001	-2.809304888910479e-001
1	 1.718208022225071e+000	 9.150214567476976e-001	-3.387067980657956e-001
1	 1.708213676100544e+000	 9.335464823992025e-001	-3.985782641140494e-001
1	 1.698003595679197e+000	 9.519909077089775e-001	-4.606782432711459e-001
1	 1.796453444815625e+000	 7.669807861147554e-001	 1.375063050344328e-001
1	 1.788177381344190e+000	 7.860828567557169e-001	 8.598958816882124e-002
1	 1.779680997812046e+000	 8.051336714972515e-001	 3.467256147235130e-002
1	 1.770964492091011e+000	 8.241295453259533e-001	-1.687167768257424e-002
1	 1.762028141862216e+000	 8.430667839364915e-001	-6.903216836643077e-002
1	 1.752872305221204e+000	 8.619416858350344e-001	-1.221591460456571e-001
1	 1.743497421218200e+000	 8.807505444731013e-001	-1.765631593725919e-001
1	 1.733904010332051e+000	 8.994896504095807e-001	-2.325142464875959e-001
1	 1.724092674876353e+000	 9.181552934985529e-001	-2.902411734045667e-001
1	 1.714064099336459e+000	 9.367437651004994e-001	-3.499307369370844e-001
1	 1.703819050636108e+000	 9.552513603143963e-001	-4.117271344990879e-001
1	 1.802585061530014e+000	 7.695986286343437e-001	 1.905062980902592e-001
1	 1.794280750374658e+000	 7.887658980567923e-001	 1.376401749885383e-001
1	 1.785755367166793e+000	 8.078817366342320e-001	 8.520672136345163e-002
1	 1.777009110453612e+000	 8.269424467756533e-001	 3.276222856042298e-002
1	 1.768042258864021e+000	 8.459443215664022e-001	-2.009844616929465e-002
1	 1.758855171715808e+000	 8.648836468787908e-001	-7.374090831827740e-002
1	 1.749448289557761e+000	 8.837567035132303e-001	-1.284903125949188e-001
1	 1.739822134645212e+000	 9.025597693676257e-001	-1.846305099709271e-001
1	 1.729977311347563e+000	 9.212891216326701e-001	-2.424032579519684e-001
1	 1.719914506486442e+000	 9.399410390105988e-001	-3.020074966034229e-001
1	 1.709634489603235e+000	 9.585118039549020e-001	-3.635986927380149e-001
1	 1.808716650654608e+000	 7.722164593745430e-001	 2.436263716431814e-001
1	 1.800384091942436e+000	 7.914489272851957e-001	 1.893133901312645e-001
1	 1.791829709189373e+000	 8.106297894060444e-001	 1.356668645765010e-001
1	 1.783053701617973e+000	 8.297553355685250e-001	 8.222601214412309e-002
1	 1.774056348804909e+000	 8.488218462487185e-001	 2.856929528031784e-002
1	 1.764838011290203e+000	 8.678255946851337e-001	-2.568457557774781e-002
1	 1.755399131121186e+000	 8.867628490271263e-001	-8.087569805949657e-002
1	 1.745740232329667e+000	 9.056298745116745e-001	-1.373020955167781e-001
1	 1.735861921340835e+000	 9.244229356661369e-001	-1.952188990015360e-001
1	 1.725764887312575e+000	 9.431382985345573e-001	-2.548375961717471e-001
1	 1.715449902403902e+000	 9.617722329249945e-001	-3.163253496049927e-001
1	 1.814848201459126e+000	 7.748342737542070e-001	 2.968600084090825e-001
1	 1.806487395366662e+000	 7.941319397457214e-001	 2.410009681968170e-001
1	 1.797904013249672e+000	 8.133778250037248e-001	 1.860427976577740e-001
1	 1.789098255006059e+000	 8.325682067821764e-001	 1.315073721514854e-001
1	 1.780070401160249e+000	 8.516993529479654e-001	 7.695646890195730e-002
1	 1.770820813474479e+000	 8.707675241058726e-001	 2.199280112516967e-002
1	 1.761349935494609e+000	 8.897689757542748e-001	-3.373900751655644e-002
1	 1.751658293028898e+000	 9.086999604692971e-001	-9.055151104071095e-002
1	 1.741746494558303e+000	 9.275567301150403e-001	-1.487135946505312e-001
1	 1.731615231576942e+000	 9.463355380774317e-001	-2.084496963012475e-001
1	 1.721265278861435e+000	 9.650326415191733e-001	-2.699390988783798e-001
1	 1.820979703213291e+000	 7.774520671921900e-001	 3.502007768419638e-001
1	 1.812590649966475e+000	 7.968149307431615e-001	 2.926947535276644e-001
1	 1.803978268717579e+000	 8.161258386183107e-001	 2.363244632700959e-001
1	 1.795142760039838e+000	 8.353810554942145e-001	 1.805941725128111e-001
1	 1.786084405405412e+000	 8.545768366286670e-001	 1.250486835353050e-001
1	 1.776803567798732e+000	 8.737094299928179e-001	 6.927440005698314e-002
1	 1.767300692264160e+000	 8.927750784341609e-001	 1.290033230225367e-002
1	 1.757576306386385e+000	 9.117700218680643e-001	-4.440096145705560e-002
1	 1.747631020702102e+000	 9.306904994954678e-001	-1.029124997564438e-001
1	 1.737465529041629e+000	 9.495327520442786e-001	-1.628720719449792e-001
1	 1.727080608799158e+000	 9.682930240319374e-001	-2.244715039669248e-001
1	 1.827111145186820e+000	 7.800698351073454e-001	 4.036423296589184e-001
1	 1.818693845061012e+000	 7.994978955823091e-001	 3.443866983283754e-001
1	 1.810052464962980e+000	 8.188738254408386e-001	 2.865019378663171e-001
1	 1.801187206141276e+000	 8.381938767822470e-001	 2.294744391931003e-001
1	 1.792098351015767e+000	 8.574542922553488e-001	 1.728317406012652e-001
1	 1.782786263793054e+000	 8.766513071977802e-001	 1.161436248964695e-001
1	 1.773251391015974e+000	 8.957811518062694e-001	 5.902315517318958e-002
1	 1.763494262045610e+000	 9.148400533355463e-001	 1.127646165470570e-003
1	 1.753515489474366e+000	 9.338242383235065e-001	-5.784043177647257e-002
1	 1.743315769468720e+000	 9.527299348401539e-001	-1.181326189117371e-001
1	 1.732895882040398e+000	 9.715533747577873e-001	-1.799537052321137e-001
1	 1.833242516649435e+000	 7.826875729185272e-001	 4.571784023939786e-001
1	 1.824796969969410e+000	 8.021808295679572e-001	 3.960688608218683e-001
1	 1.816126591355764e+000	 8.216217806623462e-001	 3.365654294084332e-001
1	 1.807231582732339e+000	 8.410066657238807e-001	 2.781363574344472e-001
1	 1.798112227466683e+000	 8.603317147925348e-001	 2.202916308284186e-001
1	 1.788768890987538e+000	 8.795931505725696e-001	 1.625841009061413e-001
1	 1.779202021336181e+000	 8.987871906100857e-001	 1.046105509580673e-001
1	 1.769412149650055e+000	 9.179100494993141e-001	 4.601269754910522e-002
1	 1.759399890577228e+000	 9.369579411152434e-001	-1.352187649264461e-002
1	 1.749165942620299e+000	 9.559270808701148e-001	-7.425886029941776e-002
1	 1.738711088408478e+000	 9.748136879912216e-001	-1.364164271671171e-001
1	 1.839373806870855e+000	 7.853052760445893e-001	 5.108028119799797e-001
1	 1.830900014010807e+000	 8.048637280048985e-001	 4.477334034415424e-001
1	 1.822200637265818e+000	 8.243696994738701e-001	 3.865052751310192e-001
1	 1.813275879234993e+000	 8.438194173967231e-001	 3.265682690522264e-001
1	 1.804126024233530e+000	 8.632090992047500e-001	 2.674145310433534e-001
1	 1.794751438912278e+000	 8.825349549689966e-001	 2.085796711784093e-001
1	 1.785152572810915e+000	 9.017931895850956e-001	 1.496438612682276e-001
1	 1.775329958843201e+000	 9.209800049869374e-001	 9.023286625106136e-002
1	 1.765284213712824e+000	 9.400916023867665e-001	 3.001900637482863e-002
1	 1.755016038258451e+000	 9.591241845392181e-001	-3.127795280278644e-002
1	 1.744526217726725e+000	 9.780739580267407e-001	-9.388998543563086e-002
1	 1.686372678502719e+000	 9.454699984254018e-001	-5.609165003168063e-001
1	 1.676017550046008e+000	 9.637071037044297e-001	-6.260340272155024e-001
1	 1.665449866397395e+000	 9.818568211318917e-001	-6.928755966195874e-001
1	 1.654670634104525e+000	 9.999155077266720e-001	-7.614444571792849e-001
1	 1.643680941682342e+000	 1.017879533245523e+000	-8.317138332529385e-001
1	 1.632481959511823e+000	 1.035745282457134e+000	-9.036267860029216e-001
1	 1.621074939663807e+000	 1.053509157420699e+000	-9.770961274928999e-001
1	 1.609461215647480e+000	 1.071167579766116e+000	-1.052004388523895e+000
1	 1.597642202083156e+000	 1.088716992972960e+000	-1.128203840819144e+000
1	 1.585619394299172e+000	 1.106153864645299e+000	-1.205516574036448e+000
1	 1.573394367852796e+000	 1.123474688779447e+000	-1.283734627952348e+000
1	 1.692188134909175e+000	 9.487304518441456e-001	-5.104191419790999e-001
1	 1.681797296790355e+000	 9.670304477830335e-001	-5.749681950248562e-001
1	 1.671193170483049e+000	 9.852427545133563e-001	-6.411956291317432e-001
1	 1.660376766005977e+000	 1.003363716491180e+000	-7.090929993144480e-001
1	 1.649349175627830e+000	 1.021389690954367e+000	-7.786212682407874e-001
1	 1.638111573765636e+000	 1.039317050204487e+000	-8.497106889936219e-001
1	 1.626665216808004e+000	 1.057142183893234e+000	-9.222607421254772e-001
1	 1.615011442862724e+000	 1.074861501310506e+000	-9.961401277081160e-001
1	 1.603151671428428e+000	 1.092471433671216e+000	-1.071186812947517e+000
1	 1.591087402990088e+000	 1.109968436397971e+000	-1.147208135800349e+000
1	 1.578820218538282e+000	 1.127348991396634e+000	-1.223980964889520e+000
1	 1.698003595679197e+000	 9.519909077089775e-001	-4.606782432711459e-001
1	 1.687577047871365e+000	 9.703537943549184e-001	-5.247536939939707e-001
1	 1.676936478877901e+000	 9.886286904350722e-001	-5.904665927773092e-001
1	 1.666082902188611e+000	 1.006811927842678e+000	-6.577963239804102e-001
1	 1.655017413825931e+000	 1.024899851296698e+000	-7.266910167582983e-001
1	 1.643741192242959e+000	 1.042888820631569e+000	-7.970674498537633e-001
1	 1.632255498146073e+000	 1.060775213091481e+000	-8.688110121490702e-001
1	 1.620561674241674e+000	 1.078555425626313e+000	-9.417757196447295e-001
1	 1.608661144906720e+000	 1.096225877186315e+000	-1.015784289396958e+000
1	 1.596555415782833e+000	 1.113783011012618e+000	-1.090628270806633e+000
1	 1.584246073293903e+000	 1.131223296920624e+000	-1.166068234510523e+000
1	 1.703819050636108e+000	 9.552513603143963e-001	-4.117271344990879e-001
1	 1.693356793174896e+000	 9.736771376045056e-001	-4.754270910479005e-001
1	 1.682679781531623e+000	 9.920146229719017e-001	-5.407276470432145e-001
1	 1.671789032667180e+000	 1.010260135747011e+000	-6.075955447873151e-001
1	 1.660685646357755e+000	 1.028410008129908e+000	-6.759655143378215e-001
1	 1.649370805092509e+000	 1.046460587487910e+000	-7.457402006926779e-001
1	 1.637845773895593e+000	 1.064408238657718e+000	-8.167901483763610e-001
1	 1.626111900072022e+000	 1.082249346249206e+000	-8.889538440606799e-001
1	 1.614170612877078e+000	 1.099980316947971e+000	-9.620378177130260e-001
1	 1.602023423109025e+000	 1.117597581813683e+000	-1.035816802621695e+000
1	 1.589671922625073e+000	 1.135097598571297e+000	-1.110033954501528e+000
1	 1.709634489603235e+000	 9.585118039549020e-001	-3.635986927380150e-001
1	 1.699136522586807e+000	 9.770004717162161e-001	-4.270244561457542e-001
1	 1.688423068393885e+000	 9.954005461987061e-001	-4.920174195779356e-001
1	 1.677495147456441e+000	 1.013708334170022e+000	-5.585312174126230e-001
1	 1.666353863304406e+000	 1.031920155311388e+000	-6.264866211694963e-001
1	 1.655000402463004e+000	 1.050032344523041e+000	-6.957714894494604e-001
1	 1.643436034274148e+000	 1.068041254234226e+000	-7.662407770907583e-001
1	 1.631662110641460e+000	 1.085943256714852e+000	-8.377166041415559e-001
1	 1.619680065698537e+000	 1.103734746385898e+000	-9.099883851035888e-001
1	 1.607491415400281e+000	 1.121412142125609e+000	-9.828130187530271e-001
1	 1.595097757037207e+000	 1.138971889568530e+000	-1.055915138693783e+000
1	 1.715449902403902e+000	 9.617722329249945e-001	-3.163253496049927e-001
1	 1.704916225992957e+000	 9.803237908744716e-001	-3.795813708063251e-001
1	 1.694166329414357e+000	 9.987864541903470e-001	-4.443740153207142e-001
1	 1.683201236571147e+000	 1.017156517077555e+000	-5.106433491862495e-001
1	 1.672022054746992e+000	 1.035430286698532e+000	-5.782956319960724e-001
1	 1.660629974503159e+000	 1.053604085486492e+000	-6.472032899529759e-001
1	 1.649026269499319e+000	 1.071674253463287e+000	-7.172049501287262e-001
1	 1.637212296237679e+000	 1.089637150558919e+000	-7.881055364953385e-001
1	 1.625189493730138e+000	 1.107489158929809e+000	-8.596764281449653e-001
1	 1.612959383088218e+000	 1.125226685272839e+000	-9.316556799610005e-001
1	 1.600523567035720e+000	 1.142846163132202e+000	-1.003748305846753e+000
1	 1.721265278861435e+000	 9.650326415191733e-001	-2.699390988783798e-001
1	 1.710695893279204e+000	 9.836470892636930e-001	-3.331329364650537e-001
1	 1.699909554542710e+000	 1.002172341021685e+000	-3.978350254501815e-001
1	 1.688907290026054e+000	 1.020604678435454e+000	-4.639714084861319e-001
1	 1.677690210766617e+000	 1.038940396148730e+000	-5.314332858121101e-001
1	 1.666259511361695e+000	 1.057175804127793e+000	-6.000770117829053e-001
1	 1.654616469788687e+000	 1.075307229987180e+000	-6.697241547626752e-001
1	 1.642762447148372e+000	 1.093331021317075e+000	-7.401616209190256e-001
1	 1.630698887330922e+000	 1.111243548009421e+000	-8.111418422961938e-001
1	 1.618427316604453e+000	 1.129041204579818e+000	-8.823830293866095e-001
1	 1.605949343126026e+000	 1.146720412482190e+000	-9.535694882575792e-001
1	 1.727080608799158e+000	 9.682930240319374e-001	-2.244715039669248e-001
1	 1.716475514331406e+000	 9.869703610683014e-001	-2.877137826663148e-001
1	 1.705652733728614e+000	 1.005558200767583e+000	-3.524375361566376e-001
1	 1.694613297835917e+000	 1.024052812209563e+000	-4.185543339486026e-001
1	 1.683358321444389e+000	 1.042450477519377e+000	-4.859397753719814e-001
1	 1.671889003187328e+000	 1.060747494196473e+000	-5.544335099364972e-001
1	 1.660206625359837e+000	 1.078940177448188e+000	-6.238393233892567e-001
1	 1.648312553661232e+000	 1.097024862524986e+000	-6.939252899728847e-001
1	 1.636208236859930e+000	 1.114997907054446e+000	-7.644239912257306e-001
1	 1.623895206380604e+000	 1.132855693370989e+000	-8.350328014994711e-001
1	 1.611375075813539e+000	 1.150594630838373e+000	-9.054142402011542e-001
1	 1.732895882040398e+000	 9.715533747577873e-001	-1.799537052321137e-001
1	 1.722255079035424e+000	 9.902936004727183e-001	-2.433580750947037e-001
1	 1.711395856921740e+000	 1.008944027502901e+000	-3.082181372419560e-001
1	 1.700319250015491e+000	 1.027500912365726e+000	-3.744305434978316e-001
1	 1.689026376861413e+000	 1.045960524667863e+000	-4.418547565111660e-001
1	 1.677518440128775e+000	 1.064319149442063e+000	-5.103130943054446e-001
1	 1.665796726430350e+000	 1.082573089488590e+000	-5.795908430271807e-001
1	 1.653862606063951e+000	 1.100718667718323e+000	-6.494364383666847e-001
1	 1.641717532676200e+000	 1.118752229494599e+000	-7.195617159552022e-001
1	 1.629363042848288e+000	 1.136670144970794e+000	-7.896422308701038e-001
1	 1.616800755603675e+000	 1.154468811420628e+000	-8.593176462044092e-001
1	 1.738711088408478e+000	 9.748136879912216e-001	-1.364164271671171e-001
1	 1.728034577277114e+000	 9.936168016613646e-001	-2.000995234490617e-001
1	 1.717138914071758e+000	 1.012329815302501e+000	-2.652129305511020e-001
1	 1.706025136579531e+000	 1.030948972869786e+000	-3.316379431984701e-001
1	 1.694694367098797e+000	 1.049470531451580e+000	-3.992173572849498e-001
1	 1.683147812334755e+000	 1.067890763614093e+000	-4.677555389671828e-001
1	 1.671386763217806e+000	 1.086205959750667e+000	-5.370185646293285e-001
1	 1.659412594644220e+000	 1.104412430432750e+000	-6.067344321622143e-001
1	 1.647226765138773e+000	 1.122506508759595e+000	-6.765933438241254e-001
1	 1.634830816439122e+000	 1.140484552703678e+000	-7.462480607706342e-001
1	 1.622226373001848e+000	 1.158342947448835e+000	-8.153143291587133e-001
1	 1.744526217726725e+000	 9.780739580267407e-001	-9.388998543563086e-002
1	 1.733813998942337e+000	 9.969399588186622e-001	-1.579713891628222e-001
1	 1.722881895128340e+000	 1.015715558241244e+000	-2.234575382391046e-001
1	 1.711730947542792e+000	 1.034396987687588e+000	-2.902139359355331e-001
1	 1.700362282237645e+000	 1.052980491727922e+000	-3.580661869289109e-001
1	 1.688777109953985e+000	 1.071462330462093e+000	-4.268000912949971e-001
1	 1.676976725939789e+000	 1.089838781876700e+000	-4.961618122129697e-001
1	 1.664962509689733e+000	 1.108106144203938e+000	-5.658581177962212e-001
1	 1.652735924606690e+000	 1.126260738279147e+000	-6.355566972797279e-001
1	 1.640298517584723e+000	 1.144298909894085e+000	-7.048865516076380e-001
1	 1.627651918513473e+000	 1.162217032142869e+000	-7.734384582742006e-001
1	 1.573394367852796e+000	 1.123474688779447e+000	-1.283734627952349e+000
1	 1.560968777531320e+000	 1.140675987641491e+000	-1.364184723494752e+000
1	 1.548344355402024e+000	 1.157754312848225e+000	-1.447853441495663e+000
1	 1.535522911460947e+000	 1.174706248697026e+000	-1.533940194679728e+000
1	 1.522506333301989e+000	 1.191528414752497e+000	-1.621565170322817e+000
1	 1.509296585264699e+000	 1.208217468037181e+000	-1.709770399917817e+000
1	 1.495895707508254e+000	 1.224770105197696e+000	-1.797520976515959e+000
1	 1.482305815012449e+000	 1.241183064643427e+000	-1.883706418104782e+000
1	 1.468529096506648e+000	 1.257453128654897e+000	-1.967142175000058e+000
1	 1.454567813327771e+000	 1.273577125459001e+000	-2.046571278849716e+000
1	 1.440424298208528e+000	 1.289551931268331e+000	-2.120666130473089e+000
1	 1.578820218538282e+000	 1.127348991396634e+000	-1.223980964889520e+000
1	 1.566351778566836e+000	 1.144609608940324e+000	-1.302653163166276e+000
1	 1.553683821116071e+000	 1.161746828754073e+000	-1.384070603213772e+000
1	 1.540818162423808e+000	 1.178757223356185e+000	-1.467474165003622e+000
1	 1.527756696593324e+000	 1.195637400653814e+000	-1.552025061207037e+000
1	 1.514501394738202e+000	 1.212384006141222e+000	-1.636805836350583e+000
1	 1.501054304053116e+000	 1.228993725073395e+000	-1.720821514377358e+000
1	 1.487417546811380e+000	 1.245463284612102e+000	-1.803000893125777e+000
1	 1.473593319290200e+000	 1.261789455941541e+000	-1.882197983852785e+000
1	 1.459583890624727e+000	 1.277969056350728e+000	-1.957193593547442e+000
1	 1.445391601592109e+000	 1.293998951279851e+000	-2.026697047403250e+000
1	 1.584246073293903e+000	 1.131223296920624e+000	-1.166068234510523e+000
1	 1.571734783640297e+000	 1.148543233190479e+000	-1.243072522417788e+000
1	 1.559023290835383e+000	 1.165739347655439e+000	-1.322348276033313e+000
1	 1.546113417358764e+000	 1.182808201054727e+000	-1.403180724798024e+000
1	 1.533007063823095e+000	 1.199746389638040e+000	-1.484775138995004e+000
1	 1.519706208115996e+000	 1.216550547371352e+000	-1.566257753384811e+000
1	 1.506212904467642e+000	 1.233217348118006e+000	-1.646676839679405e+000
1	 1.492529282444869e+000	 1.249743507792146e+000	-1.725003926527693e+000
1	 1.478657545872725e+000	 1.266125786481637e+000	-1.800135165299712e+000
1	 1.464599971684596e+000	 1.282360990537607e+000	-1.870892839573877e+000
1	 1.450358908702072e+000	 1.298445974627835e+000	-1.936027015853254e+000
1	 1.589671922625073e+000	 1.135097598571297e+000	-1.110033954501528e+000
1	 1.577117783332126e+000	 1.152476853507997e+000	-1.185478256774767e+000
1	 1.564362755216589e+000	 1.169731862565275e+000	-1.262720896916465e+000
1	 1.551408666999837e+000	 1.186859174703291e+000	-1.341094306970591e+000
1	 1.538257425803892e+000	 1.203855374514287e+000	-1.419850816891430e+000
1	 1.524911016290401e+000	 1.220717084435966e+000	-1.498163497673338e+000
1	 1.511371499725030e+000	 1.237440966940041e+000	-1.575127153457811e+000
1	 1.497641012968119e+000	 1.254023726693041e+000	-1.649759461460529e+000
1	 1.483721767392554e+000	 1.270462112686509e+000	-1.721002258176121e+000
1	 1.469616047729940e+000	 1.286752920333694e+000	-1.787722969934943e+000
1	 1.455326210846296e+000	 1.302892993529981e+000	-1.848716185506901e+000
1	 1.595097757037207e+000	 1.138971889568530e+000	-1.055915138693783e+000
1	 1.582500768222747e+000	 1.156410463008918e+000	-1.129905346791926e+000
1	 1.569702204916320e+000	 1.173724366496536e+000	-1.205222442558808e+000
1	 1.556703902081051e+000	 1.190910137212508e+000	-1.281248885119808e+000
1	 1.543507773348307e+000	 1.207964348091664e+000	-1.357287036451576e+000
1	 1.530115810153738e+000	 1.224883610043461e+000	-1.432559919046669e+000
1	 1.516530080798473e+000	 1.241664574148013e+000	-1.506212122400568e+000
1	 1.502752729436335e+000	 1.258303933824269e+000	-1.577310857343352e+000
1	 1.488785974988019e+000	 1.274798426967479e+000	-1.644847156854459e+000
1	 1.474632109983321e+000	 1.291144838053048e+000	-1.707737221615973e+000
1	 1.460293499332663e+000	 1.307340000203990e+000	-1.764823908180309e+000
1	 1.600523567035720e+000	 1.142846163132202e+000	-1.003748305846753e+000
1	 1.587883728892580e+000	 1.160344054809284e+000	-1.076388306363856e+000
1	 1.575041630591203e+000	 1.177716852462174e+000	-1.149886437468199e+000
1	 1.561999113336428e+000	 1.194961081493018e+000	-1.223677981616063e+000
1	 1.548758097268932e+000	 1.212073303179280e+000	-1.297118275891770e+000
1	 1.535320580598326e+000	 1.229050116902231e+000	-1.369483379272547e+000
1	 1.521688638661166e+000	 1.245888162350435e+000	-1.439970888268754e+000
1	 1.507864422904721e+000	 1.262584121695313e+000	-1.507700900150938e+000
1	 1.493850159797450e+000	 1.279134721735873e+000	-1.571717122593483e+000
1	 1.479648149667302e+000	 1.295536736009724e+000	-1.630988128181859e+000
1	 1.465260765469056e+000	 1.311786986867562e+000	-1.684408751852380e+000
1	 1.605949343126026e+000	 1.146720412482190e+000	-9.535694882575792e-001
1	 1.593266655922049e+000	 1.164277622025134e+000	-1.024961190871326e+000
1	 1.580381022897869e+000	 1.181709313475142e+000	-1.096745961884120e+000
1	 1.567294291499992e+000	 1.199012000455454e+000	-1.168414675523339e+000
1	 1.554008388378355e+000	 1.216182232586246e+000	-1.239378558235846e+000
1	 1.540525318516483e+000	 1.233216597720671e+000	-1.308969760642676e+000
1	 1.526847164286307e+000	 1.250111724155819e+000	-1.376442077131415e+000
1	 1.512976084428482e+000	 1.266864282815654e+000	-1.440971812497359e+000
1	 1.498914312959179e+000	 1.283470989403013e+000	-1.501658794663147e+000
1	 1.484664158004444e+000	 1.299928606517779e+000	-1.557527532127894e+000
1	 1.470228000563354e+000	 1.316233945738397e+000	-1.607528514418617e+000
1	 1.611375075813539e+000	 1.150594630838373e+000	-9.054142402011542e-001
1	 1.598649539891577e+000	 1.168211157772510e+000	-9.756576051674126e-001
1	 1.585720372492949e+000	 1.185701742548394e+000	-1.045833659541024e+000
1	 1.572589427305767e+000	 1.203062887010452e+000	-1.115491610364870e+000
1	 1.559258637489170e+000	 1.220291129121669e+000	-1.184101459301290e+000
1	 1.545730014800531e+000	 1.237383045207176e+000	-1.251054474390269e+000
1	 1.532005648647089e+000	 1.254335252172679e+000	-1.315663808418831e+000
1	 1.518087705062822e+000	 1.271144409694776e+000	-1.377165263521286e+000
1	 1.503978425611540e+000	 1.287807222380225e+000	-1.434718201250854e+000
1	 1.489680126217312e+000	 1.304320441891270e+000	-1.487406596987955e+000
1	 1.475195195923441e+000	 1.320680869034195e+000	-1.534240237174057e+000
1	 1.616800755603675e+000	 1.154468811420628e+000	-8.593176462044093e-001
1	 1.604032371381585e+000	 1.172144655167453e+000	-9.285107114066524e-001
1	 1.591059670033068e+000	 1.189694132694881e+000	-9.971817452794545e-001
1	 1.577884511487775e+000	 1.207113734068648e+000	-1.064941001736482e+000
1	 1.564508835413967e+000	 1.224399985594661e+000	-1.131320115528633e+000
1	 1.550934660342789e+000	 1.241549452070141e+000	-1.195772468942682e+000
1	 1.537164082716710e+000	 1.258558739009527e+000	-1.257673703798052e+000
1	 1.523199275862945e+000	 1.275424494842162e+000	-1.316322378577265e+000
1	 1.509042488892863e+000	 1.292143413078832e+000	-1.370940770153618e+000
1	 1.494696045528467e+000	 1.308712234444254e+000	-1.420675819205204e+000
1	 1.480162342857196e+000	 1.325127748972656e+000	-1.464600218032123e+000
1	 1.622226373001848e+000	 1.158342947448835e+000	-8.153143291587134e-001
1	 1.609415140972496e+000	 1.176078107326003e+000	-8.835532367212508e-001
1	 1.596398906174859e+000	 1.193686476927557e+000	-9.508220125082570e-001
1	 1.583179534780040e+000	 1.211164534540678e+000	-1.016794644771125e+000
1	 1.569758972965336e+000	 1.228508794814330e+000	-1.081067231657809e+000
1	 1.556139246035576e+000	 1.245715811017961e+000	-1.143158238012712e+000
1	 1.542322457468363e+000	 1.262782177274876e+000	-1.202508895875048e+000
1	 1.528310787884055e+000	 1.279704530767292e+000	-1.258483748737662e+000
1	 1.514106493941479e+000	 1.296479553910158e+000	-1.310371339261470e+000
1	 1.499711907160471e+000	 1.313103976490788e+000	-1.357385039770791e+000
1	 1.485129432672502e+000	 1.329574577771481e+000	-1.398664024484950e+000
1	 1.627651918513473e+000	 1.162217032142869e+000	-7.734384582742006e-001
1	 1.614797839244732e+000	 1.180011507364201e+000	-8.408174807475390e-001
1	 1.601738071574950e+000	 1.197678768259376e+000	-9.067858405213431e-001
1	 1.588474487916584e+000	 1.215215281337177e+000	-9.710839214578002e-001
1	 1.575009040955869e+000	 1.232617549589786e+000	-1.033375088255034e+000
1	 1.561343762771212e+000	 1.249882114759033e+000	-1.093245828532132e+000
1	 1.547480763875244e+000	 1.267005559577238e+000	-1.150206036727436e+000
1	 1.533422232181358e+000	 1.283984509979651e+000	-1.203689440109543e+000
1	 1.519170431895721e+000	 1.300815637285527e+000	-1.253054166836473e+000
1	 1.504727702335888e+000	 1.317495660344928e+000	-1.297583455635778e+000
1	 1.490096456677240e+000	 1.334021347648369e+000	-1.336486506311419e+000
1	 1.440424298208528e+000	 1.289551931268331e+000	-2.120666130473089e+000
1	 1.426103115966008e+000	 1.305372110792263e+000	-2.185010167239192e+000
1	 1.411604630339610e+000	 1.321037051924598e+000	-2.237012513464982e+000
1	 1.396931380388861e+000	 1.336543789252277e+000	-2.278044205405358e+000
1	 1.382085970986084e+000	 1.351889413086072e+000	-2.309532706203255e+000
1	 1.367071071277777e+000	 1.367071071277777e+000	-2.332959235218641e+000
1	 1.351889413086072e+000	 1.382085970986084e+000	-2.349855999679113e+000
1	 1.336543789252277e+000	 1.396931380388861e+000	-2.361803334525100e+000
1	 1.321037051924597e+000	 1.411604630339610e+000	-2.370426756558503e+000
1	 1.305372110792263e+000	 1.426103115966009e+000	-2.377393939221111e+000
1	 1.289551931268331e+000	 1.440424298208528e+000	-2.384411614526820e+000
1	 1.445391601592109e+000	 1.293998951279851e+000	-2.026697047403250e+000
1	 1.431021032751211e+000	 1.309873686694677e+000	-2.086726456872135e+000
1	 1.416472549095766e+000	 1.325592648378173e+000	-2.135018690092784e+000
1	 1.401748698441228e+000	 1.341152860691077e+000	-2.172819423358547e+000
1	 1.386852094642795e+000	 1.356551403910124e+000	-2.201426513008520e+000
1	 1.371785416051495e+000	 1.371785416051494e+000	-2.222187536601910e+000
1	 1.356551403910124e+000	 1.386852094642795e+000	-2.236497243844883e+000
1	 1.341152860691077e+000	 1.401748698441228e+000	-2.245794922690222e+000
1	 1.325592648378172e+000	 1.416472549095766e+000	-2.251561686247784e+000
1	 1.309873686694677e+000	 1.431021032751211e+000	-2.255317686345240e+000
1	 1.293998951279852e+000	 1.445391601592110e+000	-2.258619259760643e+000
1	 1.450358908702072e+000	 1.298445974627835e+000	-1.936027015853254e+000
1	 1.435938953225800e+000	 1.314375265974459e+000	-1.991979624852942e+000
1	 1.421340471503854e+000	 1.330148248249615e+000	-2.036797886240633e+000
1	 1.406566020107614e+000	 1.345761935587832e+000	-2.071595841979534e+000
1	 1.391618221875167e+000	 1.361213398231795e+000	-2.097535128398810e+000
1	 1.376499764362070e+000	 1.376499764362070e+000	-2.115822741857395e+000
1	 1.361213398231795e+000	 1.391618221875167e+000	-2.127708722208887e+000
1	 1.345761935587833e+000	 1.406566020107614e+000	-2.134483759006784e+000
1	 1.330148248249616e+000	 1.421340471503854e+000	-2.137476725588051e+000
1	 1.314375265974459e+000	 1.435938953225800e+000	-2.138052146355894e+000
1	 1.298445974627835e+000	 1.450358908702072e+000	-2.137607602748679e+000
1	 1.455326210846296e+000	 1.302892993529981e+000	-1.848716185506901e+000
1	 1.440856868784037e+000	 1.318876840753897e+000	-1.900835238235199e+000
1	 1.426208389045570e+000	 1.334703843566746e+000	-1.942418813116104e+000
1	 1.411383336958204e+000	 1.350371005876853e+000	-1.974443107334915e+000
1	 1.396384344342898e+000	 1.365875387892865e+000	-1.997926990066962e+000
1	 1.381214107959740e+000	 1.381214107959740e+000	-2.013930005210664e+000
1	 1.365875387892865e+000	 1.396384344342898e+000	-2.023550300584436e+000
1	 1.350371005876853e+000	 1.411383336958204e+000	-2.027922488018394e+000
1	 1.334703843566746e+000	 1.426208389045570e+000	-2.028215438948922e+000
1	 1.318876840753896e+000	 1.440856868784036e+000	-2.025630020287727e+000
1	 1.302892993529981e+000	 1.455326210846295e+000	-2.021396775485141e+000
1	 1.460293499332663e+000	 1.307340000203990e+000	-1.764823908180308e+000
1	 1.445774770820179e+000	 1.323378403155276e+000	-1.813357995352860e+000
1	 1.431076293202615e+000	 1.339259426357381e+000	-1.851949273625426e+000
1	 1.416200640563178e+000	 1.354980063492449e+000	-1.881429947920754e+000
1	 1.401150453705688e+000	 1.370537364735112e+000	-1.902669638188508e+000
1	 1.385928438594741e+000	 1.385928438594741e+000	-1.916573631722796e+000
1	 1.370537364735112e+000	 1.401150453705688e+000	-1.924081071218879e+000
1	 1.354980063492449e+000	 1.416200640563178e+000	-1.926163082462738e+000
1	 1.339259426357381e+000	 1.431076293202615e+000	-1.923820845702853e+000
1	 1.323378403155276e+000	 1.445774770820179e+000	-1.918083614895268e+000
1	 1.307340000203990e+000	 1.460293499332663e+000	-1.910006689142503e+000
1	 1.465260765469056e+000	 1.311786986867562e+000	-1.684408751852380e+000
1	 1.450692650728490e+000	 1.327879945300884e+000	-1.729611741100425e+000
1	 1.435944175456685e+000	 1.343814988649339e+000	-1.765456178375977e+000
1	 1.421017922492720e+000	 1.359589100368930e+000	-1.792624190875923e+000
1	 1.405916541623238e+000	 1.375199320600313e+000	-1.811829731349085e+000
1	 1.390642748017308e+000	 1.390642748017308e+000	-1.823817092451379e+000
1	 1.375199320600312e+000	 1.405916541623238e+000	-1.829359366723959e+000
1	 1.359589100368930e+000	 1.421017922492720e+000	-1.829256855524281e+000
1	 1.343814988649339e+000	 1.435944175456685e+000	-1.824335430370299e+000
1	 1.327879945300884e+000	 1.450692650728490e+000	-1.815444850278164e+000
1	 1.311786986867562e+000	 1.465260765469056e+000	-1.803457038782602e+000
1	 1.470228000563354e+000	 1.316233945738397e+000	-1.607528514418616e+000
1	 1.455610499903227e+000	 1.332381459313008e+000	-1.649659481911394e+000
1	 1.440812027289479e+000	 1.348370522470437e+000	-1.683005561363077e+000
1	 1.425835174317011e+000	 1.364198108440607e+000	-1.708092777875229e+000
1	 1.410682599755248e+000	 1.379861247330245e+000	-1.725473062157689e+000
1	 1.395357027977678e+000	 1.395357027977678e+000	-1.735723039312624e+000
1	 1.379861247330246e+000	 1.410682599755248e+000	-1.739442773731968e+000
1	 1.364198108440607e+000	 1.425835174317012e+000	-1.737254472845930e+000
1	 1.348370522470437e+000	 1.440812027289478e+000	-1.729801152565463e+000
1	 1.332381459313007e+000	 1.455610499903227e+000	-1.717745267357090e+000
1	 1.316233945738397e+000	 1.470228000563354e+000	-1.701767307976293e+000
1	 1.475195195923441e+000	 1.320680869034195e+000	-1.534240237174057e+000
1	 1.460528309738652e+000	 1.336882937313932e+000	-1.573563400442048e+000
1	 1.445679840182694e+000	 1.352926019848496e+000	-1.604662595348454e+000
1	 1.430652387606235e+000	 1.368807079641790e+000	-1.627901780710491e+000
1	 1.415448619761416e+000	 1.384523136766689e+000	-1.643664572552944e+000
1	 1.400071270226088e+000	 1.400071270226088e+000	-1.652353319651567e+000
1	 1.384523136766689e+000	 1.415448619761416e+000	-1.654388146283763e+000
1	 1.368807079641790e+000	 1.430652387606236e+000	-1.650205964305147e+000
1	 1.352926019848495e+000	 1.445679840182694e+000	-1.640259456747266e+000
1	 1.336882937313932e+000	 1.460528309738653e+000	-1.625016035203412e+000
1	 1.320680869034195e+000	 1.475195195923441e+000	-1.604956773333328e+000
1	 1.480162342857196e+000	 1.325127748972656e+000	-1.464600218032123e+000
1	 1.465446071629025e+000	 1.341384371425945e+000	-1.501384869967477e+000
1	 1.450547605618029e+000	 1.357481472811331e+000	-1.530491606936965e+000
1	 1.435469553930574e+000	 1.373416005906789e+000	-1.552116416566031e+000
1	 1.420214593301443e+000	 1.389184980751421e+000	-1.566468368809934e+000
1	 1.404785466512774e+000	 1.404785466512774e+000	-1.573768990527000e+000
1	 1.389184980751421e+000	 1.420214593301443e+000	-1.574251618954893e+000
1	 1.373416005906789e+000	 1.435469553930574e+000	-1.568160735559907e+000
1	 1.357481472811331e+000	 1.450547605618029e+000	-1.555751281780227e+000
1	 1.341384371425946e+000	 1.465446071629025e+000	-1.537287958226569e+000
1	 1.325127748972656e+000	 1.480162342857196e+000	-1.513044508944841e+000
1	 1.485129432672502e+000	 1.329574577771481e+000	-1.398664024484950e+000
1	 1.470363776968606e+000	 1.345885753771334e+000	-1.433184468496159e+000
1	 1.455415315077183e+000	 1.362036873386762e+000	-1.460556091358988e+000
1	 1.440286664860211e+000	 1.378024879169914e+000	-1.480801062995961e+000
1	 1.424980512035029e+000	 1.393846771126218e+000	-1.493947736253616e+000
1	 1.409499608587972e+000	 1.409499608587972e+000	-1.500030332717833e+000
1	 1.393846771126218e+000	 1.424980512035029e+000	-1.499088619725783e+000
1	 1.378024879169914e+000	 1.440286664860211e+000	-1.491167579369781e+000
1	 1.362036873386762e+000	 1.455415315077183e+000	-1.476317070309321e+000
1	 1.345885753771334e+000	 1.470363776968606e+000	-1.454591483222109e+000
1	 1.329574577771481e+000	 1.485129432672502e+000	-1.426049390740511e+000
1	 1.490096456677240e+000	 1.334021347648369e+000	-1.336486506311419e+000
1	 1.475281417151654e+000	 1.350387076472384e+000	-1.369021992609889e+000
1	 1.460282960041853e+000	 1.366592213602607e+000	-1.394918726964959e+000
1	 1.445103711965328e+000	 1.382633691365476e+000	-1.414019272609864e+000
1	 1.429746367621873e+000	 1.398508499732860e+000	-1.426165153686347e+000
1	 1.414213688201919e+000	 1.414213688201919e+000	-1.431196864456849e+000
1	 1.398508499732861e+000	 1.429746367621873e+000	-1.428953882601965e+000
1	 1.382633691365476e+000	 1.445103711965328e+000	-1.419274686697454e+000
1	 1.366592213602607e+000	 1.460282960041853e+000	-1.401996777953332e+000
1	 1.350387076472384e+000	 1.475281417151654e+000	-1.376956706283521e+000
1	 1.334021347648369e+000	 1.490096456677241e+000	-1.343990100761914e+000
1	 1.289551931268331e+000	 1.440424298208528e+000	-2.384411614526820e+000
1	 1.273577125459001e+000	 1.454567813327771e+000	-2.390000671985726e+000
1	 1.257453128654896e+000	 1.468529096506647e+000	-2.392553153531598e+000
1	 1.241183064643427e+000	 1.482305815012449e+000	-2.393668988181218e+000
1	 1.224770105197696e+000	 1.495895707508254e+000	-2.395019893583758e+000
1	 1.208217468037181e+000	 1.509296585264699e+000	-2.398346284424737e+000
1	 1.191528414752497e+000	 1.522506333301989e+000	-2.405454068089194e+000
1	 1.174706248697026e+000	 1.535522911460947e+000	-2.418211334805283e+000
1	 1.157754312848225e+000	 1.548344355402024e+000	-2.438544949720988e+000
1	 1.140675987641491e+000	 1.560968777531320e+000	-2.468437054574729e+000
1	 1.123474688779447e+000	 1.573394367852797e+000	-2.509921486802308e+000
1	 1.293998951279852e+000	 1.445391601592110e+000	-2.258619259760643e+000
1	 1.277969056350728e+000	 1.459583890624728e+000	-2.260030330323920e+000
1	 1.261789455941542e+000	 1.473593319290200e+000	-2.258128833115225e+000
1	 1.245463284612102e+000	 1.487417546811380e+000	-2.254578952661653e+000
1	 1.228993725073395e+000	 1.501054304053116e+000	-2.251122102951501e+000
1	 1.212384006141222e+000	 1.514501394738202e+000	-2.249573666650785e+000
1	 1.195637400653813e+000	 1.527756696593324e+000	-2.251819612656266e+000
1	 1.178757223356185e+000	 1.540818162423809e+000	-2.259812999634506e+000
1	 1.161746828754073e+000	 1.553683821116071e+000	-2.275570373446898e+000
1	 1.144609608940324e+000	 1.566351778566835e+000	-2.301168066586235e+000
1	 1.127348991396634e+000	 1.578820218538282e+000	-2.338738407949483e+000
1	 1.298445974627835e+000	 1.450358908702072e+000	-2.137607602748679e+000
1	 1.282360990537607e+000	 1.464599971684597e+000	-2.134773730202539e+000
1	 1.266125786481637e+000	 1.478657545872725e+000	-2.128345409155132e+000
1	 1.249743507792146e+000	 1.492529282444869e+000	-2.120053768746039e+000
1	 1.233217348118006e+000	 1.506212904467643e+000	-2.111712864499312e+000
1	 1.216550547371352e+000	 1.519706208115996e+000	-2.105216240646768e+000
1	 1.199746389638040e+000	 1.533007063823095e+000	-2.102533361441358e+000
1	 1.182808201054727e+000	 1.546113417358764e+000	-2.105705919558037e+000
1	 1.165739347655438e+000	 1.559023290835383e+000	-2.116844029950435e+000
1	 1.148543233190479e+000	 1.571734783640297e+000	-2.138122317774959e+000
1	 1.131223296920624e+000	 1.584246073293903e+000	-2.171775909211041e+000
1	 1.302892993529981e+000	 1.455326210846295e+000	-2.021396775485141e+000
1	 1.286752920333694e+000	 1.469616047729940e+000	-2.014238455821328e+000
1	 1.270462112686508e+000	 1.483721767392554e+000	-2.003199595140083e+000
1	 1.254023726693041e+000	 1.497641012968118e+000	-1.990080921167240e+000
1	 1.237440966940040e+000	 1.511371499725030e+000	-1.976772039566344e+000
1	 1.220717084435967e+000	 1.524911016290401e+000	-1.965247811703532e+000
1	 1.203855374514287e+000	 1.538257425803892e+000	-1.957564591634135e+000
1	 1.186859174703290e+000	 1.551408666999836e+000	-1.955856330876056e+000
1	 1.169731862565275e+000	 1.564362755216590e+000	-1.962330559826693e+000
1	 1.152476853507997e+000	 1.577117783332126e+000	-1.979264254943357e+000
1	 1.135097598571297e+000	 1.589671922625073e+000	-2.008999601041832e+000
1	 1.307340000203990e+000	 1.460293499332663e+000	-1.910006689142503e+000
1	 1.291144838053048e+000	 1.474632109983321e+000	-1.898432043176095e+000
1	 1.274798426967479e+000	 1.488785974988019e+000	-1.882688205621783e+000
1	 1.258303933824268e+000	 1.502752729436335e+000	-1.864648122157404e+000
1	 1.241664574148013e+000	 1.516530080798473e+000	-1.846279821141179e+000
1	 1.224883610043462e+000	 1.530115810153738e+000	-1.829642599192372e+000
1	 1.207964348091664e+000	 1.543507773348307e+000	-1.816883055805853e+000
1	 1.190910137212508e+000	 1.556703902081050e+000	-1.810230986051873e+000
1	 1.173724366496536e+000	 1.569702204916320e+000	-1.811995140726910e+000
1	 1.156410463008918e+000	 1.582500768222747e+000	-1.824558863605690e+000
1	 1.138971889568530e+000	 1.595097757037207e+000	-1.850375615696539e+000
1	 1.311786986867562e+000	 1.465260765469056e+000	-1.803457038782602e+000
1	 1.295536736009724e+000	 1.479648149667302e+000	-1.787361981862451e+000
1	 1.279134721735873e+000	 1.493850159797450e+000	-1.766808155500828e+000
1	 1.262584121695312e+000	 1.507864422904721e+000	-1.743743308598429e+000
1	 1.245888162350435e+000	 1.521688638661166e+000	-1.720216729250028e+000
1	 1.229050116902231e+000	 1.535320580598325e+000	-1.698375230555314e+000
1	 1.212073303179280e+000	 1.548758097268932e+000	-1.680458974856714e+000
1	 1.194961081493018e+000	 1.561999113336428e+000	-1.668797145961921e+000
1	 1.177716852462174e+000	 1.575041630591203e+000	-1.665803479246997e+000
1	 1.160344054809283e+000	 1.587883728892580e+000	-1.673971659840427e+000
1	 1.142846163132202e+000	 1.600523567035720e+000	-1.695870599361202e+000
1	 1.316233945738397e+000	 1.470228000563354e+000	-1.701767307976293e+000
1	 1.299928606517779e+000	 1.484664158004445e+000	-1.681035716845291e+000
1	 1.283470989403013e+000	 1.498914312959180e+000	-1.655556459328796e+000
1	 1.266864282815654e+000	 1.512976084428482e+000	-1.627354639230374e+000
1	 1.250111724155819e+000	 1.526847164286307e+000	-1.598563606437679e+000
1	 1.233216597720671e+000	 1.540525318516483e+000	-1.571420735415889e+000
1	 1.216182232586246e+000	 1.554008388378355e+000	-1.548263031104405e+000
1	 1.199012000455454e+000	 1.567294291499993e+000	-1.531522572300930e+000
1	 1.181709313475142e+000	 1.580381022897870e+000	-1.523721802978011e+000
1	 1.164277622025134e+000	 1.593266655922050e+000	-1.527468682305175e+000
1	 1.146720412482190e+000	 1.605949343126026e+000	-1.545451704441404e+000
1	 1.320680869034195e+000	 1.475195195923441e+000	-1.604956773333328e+000
1	 1.304320441891271e+000	 1.489680126217312e+000	-1.579460650194819e+000
1	 1.287807222380225e+000	 1.503978425611540e+000	-1.548930230625135e+000
1	 1.271144409694777e+000	 1.518087705062822e+000	-1.515470491916648e+000
1	 1.254335252172679e+000	 1.532005648647089e+000	-1.481301613339383e+000
1	 1.237383045207176e+000	 1.545730014800532e+000	-1.448754539807513e+000
1	 1.220291129121670e+000	 1.559258637489170e+000	-1.420266361510482e+000
1	 1.203062887010452e+000	 1.572589427305767e+000	-1.398375520138136e+000
1	 1.185701742548394e+000	 1.585720372492949e+000	-1.385716852715088e+000
1	 1.168211157772510e+000	 1.598649539891577e+000	-1.385016484410833e+000
1	 1.150594630838373e+000	 1.611375075813539e+000	-1.399086582004360e+000
1	 1.325127748972656e+000	 1.480162342857196e+000	-1.513044508944841e+000
1	 1.308712234444254e+000	 1.494696045528466e+000	-1.482644142790343e+000
1	 1.292143413078832e+000	 1.509042488892863e+000	-1.446926681209586e+000
1	 1.275424494842161e+000	 1.523199275862945e+000	-1.408079460964534e+000
1	 1.258558739009527e+000	 1.537164082716710e+000	-1.368412224341163e+000
1	 1.241549452070141e+000	 1.550934660342789e+000	-1.330352460517143e+000
1	 1.224399985594661e+000	 1.564508835413966e+000	-1.296440551041573e+000
1	 1.207113734068648e+000	 1.577884511487775e+000	-1.269324730621555e+000
1	 1.189694132694881e+000	 1.591059670033068e+000	-1.251755874820777e+000
1	 1.172144655167453e+000	 1.604032371381585e+000	-1.246582126650983e+000
1	 1.154468811420629e+000	 1.616800755603675e+000	-1.256743374370974e+000
1	 1.329574577771481e+000	 1.485129432672502e+000	-1.426049390740511e+000
1	 1.313103976490788e+000	 1.499711907160471e+000	-1.390593515992026e+000
1	 1.296479553910158e+000	 1.514106493941479e+000	-1.349543120549077e+000
1	 1.279704530767292e+000	 1.528310787884055e+000	-1.305170354499884e+000
1	 1.262782177274876e+000	 1.542322457468363e+000	-1.259877223327147e+000
1	 1.245715811017962e+000	 1.556139246035576e+000	-1.216190699541354e+000
1	 1.228508794814330e+000	 1.569758972965335e+000	-1.176757626162294e+000
1	 1.211164534540678e+000	 1.583179534780040e+000	-1.144339423826928e+000
1	 1.193686476927557e+000	 1.596398906174859e+000	-1.121806613740027e+000
1	 1.176078107326003e+000	 1.609415140972496e+000	-1.112133169083186e+000
1	 1.158342947448835e+000	 1.622226373001849e+000	-1.118390707854641e+000
1	 1.334021347648369e+000	 1.490096456677241e+000	-1.343990100761914e+000
1	 1.317495660344928e+000	 1.504727702335888e+000	-1.303316053281882e+000
1	 1.300815637285527e+000	 1.519170431895721e+000	-1.256776955119270e+000
1	 1.283984509979651e+000	 1.533422232181358e+000	-1.206732191894885e+000
1	 1.267005559577238e+000	 1.547480763875244e+000	-1.155678699511235e+000
1	 1.249882114759033e+000	 1.561343762771212e+000	-1.106245838652284e+000
1	 1.232617549589786e+000	 1.575009040955869e+000	-1.061190048456958e+000
1	 1.215215281337177e+000	 1.588474487916584e+000	-1.023389291747901e+000
1	 1.197678768259375e+000	 1.601738071574951e+000	-9.958373046627549e-001
1	 1.180011507364201e+000	 1.614797839244733e+000	-9.816376639587298e-001
1	 1.162217032142869e+000	 1.627651918513473e+000	-9.839976856433208e-001
1	 1.123474688779447e+000	 1.573394367852797e+000	-2.509921486802308e+000
1	 1.106153864645299e+000	 1.585619394299173e+000	-2.567543983690430e+000
1	 1.088716992972960e+000	 1.597642202083156e+000	-2.645107138747967e+000
1	 1.071167579766116e+000	 1.609461215647480e+000	-2.743568781467154e+000
1	 1.053509157420699e+000	 1.621074939663807e+000	-2.863888328527973e+000
1	 1.035745282457134e+000	 1.632481959511823e+000	-3.007025232869475e+000
1	 1.017879533245523e+000	 1.643680941682343e+000	-3.173937438299849e+000
1	 9.999155077266725e-001	 1.654670634104525e+000	-3.365579842807181e+000
1	 9.818568211318918e-001	 1.665449866397395e+000	-3.582902773684990e+000
1	 9.637071037044300e-001	 1.676017550046008e+000	-3.826850477527188e+000
1	 9.454699984254019e-001	 1.686372678502719e+000	-4.098359628081416e+000
1	 1.127348991396634e+000	 1.578820218538282e+000	-2.338738407949483e+000
1	 1.109968436397971e+000	 1.591087402990088e+000	-2.392746159015566e+000
1	 1.092471433671216e+000	 1.603151671428428e+000	-2.466814564908151e+000
1	 1.074861501310506e+000	 1.615011442862725e+000	-2.561854229881151e+000
1	 1.057142183893234e+000	 1.626665216808005e+000	-2.678775751557662e+000
1	 1.039317050204486e+000	 1.638111573765636e+000	-2.818488270100036e+000
1	 1.021389690954367e+000	 1.649349175627829e+000	-2.981898024719262e+000
1	 1.003363716491180e+000	 1.660376766005978e+000	-3.169906920455236e+000
1	 9.852427545133561e-001	 1.671193170483048e+000	-3.383411108109013e+000
1	 9.670304477830336e-001	 1.681797296790355e+000	-3.623299580149191e+000
1	 9.487304518441457e-001	 1.692188134909175e+000	-3.890452785347214e+000
1	 1.131223296920624e+000	 1.584246073293903e+000	-2.171775909211041e+000
1	 1.113783011012618e+000	 1.596555415782833e+000	-2.222170202763663e+000
1	 1.096225877186315e+000	 1.608661144906721e+000	-2.292729073131075e+000
1	 1.078555425626313e+000	 1.620561674241674e+000	-2.384317912798838e+000
1	 1.060775213091481e+000	 1.632255498146073e+000	-2.497800528566125e+000
1	 1.042888820631569e+000	 1.643741192242959e+000	-2.634037787678447e+000
1	 1.024899851296698e+000	 1.655017413825931e+000	-2.793886273108907e+000
1	 1.006811927842678e+000	 1.666082902188611e+000	-2.978196950695892e+000
1	 9.886286904350721e-001	 1.676936478877901e+000	-3.187813850791373e+000
1	 9.703537943549183e-001	 1.687577047871365e+000	-3.423572767014606e+000
1	 9.519909077089775e-001	 1.698003595679197e+000	-3.686299974639468e+000
1	 1.135097598571297e+000	 1.589671922625073e+000	-2.008999601041832e+000
1	 1.117597581813682e+000	 1.602023423109025e+000	-2.055783668028806e+000
1	 1.099980316947971e+000	 1.614170612877078e+000	-2.122820377180121e+000
1	 1.082249346249206e+000	 1.626111900072022e+000	-2.210931903485986e+000
1	 1.064408238657718e+000	 1.637845773895593e+000	-2.320937271822596e+000
1	 1.046460587487910e+000	 1.649370805092509e+000	-2.453651096931141e+000
1	 1.028410008129908e+000	 1.660685646357755e+000	-2.609882334364676e+000
1	 1.010260135747011e+000	 1.671789032667180e+000	-2.790433044891155e+000
1	 9.920146229719017e-001	 1.682679781531623e+000	-2.996097174787315e+000
1	 9.736771376045057e-001	 1.693356793174897e+000	-3.227659354396426e+000
1	 9.552513603143963e-001	 1.703819050636108e+000	-3.485893717257115e+000
1	 1.138971889568530e+000	 1.595097757037207e+000	-1.850375615696539e+000
1	 1.121412142125609e+000	 1.607491415400281e+000	-1.893554602149534e+000
1	 1.103734746385898e+000	 1.619680065698536e+000	-1.957058654513578e+000
1	 1.085943256714852e+000	 1.631662110641459e+000	-2.041668705633731e+000
1	 1.068041254234226e+000	 1.643436034274148e+000	-2.148160988307627e+000
1	 1.050032344523041e+000	 1.655000402463004e+000	-2.277305866015022e+000
1	 1.031920155311388e+000	 1.666353863304406e+000	-2.429866676443488e+000
1	 1.013708334170022e+000	 1.677495147456441e+000	-2.606598590085436e+000
1	 9.954005461987061e-001	 1.688423068393885e+000	-2.808247486126715e+000
1	 9.770004717162162e-001	 1.699136522586807e+000	-3.035548847785446e+000
1	 9.585118039549021e-001	 1.709634489603235e+000	-3.289226679191284e+000
1	 1.142846163132202e+000	 1.600523567035720e+000	-1.695870599361202e+000
1	 1.125226685272839e+000	 1.612959383088218e+000	-1.735451539299165e+000
1	 1.107489158929809e+000	 1.625189493730138e+000	-1.795414539383332e+000
1	 1.089637150558919e+000	 1.637212296237679e+000	-1.876501247010833e+000
1	 1.071674253463287e+000	 1.649026269499319e+000	-1.979447073960002e+000
1	 1.053604085486492e+000	 1.660629974503159e+000	-2.104980114795072e+000
1	 1.035430286698531e+000	 1.672022054746992e+000	-2.253820079903673e+000
1	 1.017156517077555e+000	 1.683201236571147e+000	-2.426677245235929e+000
1	 9.987864541903467e-001	 1.694166329414357e+000	-2.624251420757463e+000
1	 9.803237908744715e-001	 1.704916225992957e+000	-2.847230939565154e+000
1	 9.617722329249945e-001	 1.715449902403902e+000	-3.096291669545844e+000
1	 1.146720412482190e+000	 1.605949343126026e+000	-1.545451704441404e+000
1	 1.129041204579818e+000	 1.618427316604453e+000	-1.581443493224105e+000
1	 1.111243548009421e+000	 1.630698887330922e+000	-1.637859116071909e+000
1	 1.093331021317074e+000	 1.642762447148372e+000	-1.715402873243263e+000
1	 1.075307229987180e+000	 1.654616469788688e+000	-1.814771308038744e+000
1	 1.057175804127793e+000	 1.666259511361695e+000	-1.936652209824533e+000
1	 1.038940396148730e+000	 1.677690210766617e+000	-2.081723633534362e+000
1	 1.020604678435454e+000	 1.688907290026054e+000	-2.250652937518651e+000
1	 1.002172341021685e+000	 1.699909554542709e+000	-2.444095841550513e+000
1	 9.836470892636930e-001	 1.710695893279204e+000	-2.662695506733957e+000
1	 9.650326415191733e-001	 1.721265278861435e+000	-2.907081638990424e+000
1	 1.150594630838373e+000	 1.611375075813539e+000	-1.399086582004360e+000
1	 1.132855693370989e+000	 1.623895206380605e+000	-1.431499950126919e+000
1	 1.114997907054446e+000	 1.636208236859930e+000	-1.484363912263886e+000
1	 1.097024862524986e+000	 1.648312553661232e+000	-1.558347341717752e+000
1	 1.078940177448188e+000	 1.660206625359837e+000	-1.654109847597800e+000
1	 1.060747494196473e+000	 1.671889003187328e+000	-1.772300859425585e+000
1	 1.042450477519376e+000	 1.683358321444389e+000	-1.913558730073036e+000
1	 1.024052812209563e+000	 1.694613297835917e+000	-2.078509858708767e+000
1	 1.005558200767583e+000	 1.705652733728614e+000	-2.267767835365156e+000
1	 9.869703610683014e-001	 1.716475514331406e+000	-2.481932608673429e+000
1	 9.682930240319377e-001	 1.727080608799159e+000	-2.721589678245413e+000
1	 1.154468811420629e+000	 1.616800755603675e+000	-1.256743374370974e+000
1	 1.136670144970795e+000	 1.629363042848288e+000	-1.285590861690763e+000
1	 1.118752229494600e+000	 1.641717532676200e+000	-1.334900892549301e+000
1	 1.100718667718322e+000	 1.653862606063951e+000	-1.405308815606429e+000
1	 1.082573089488589e+000	 1.665796726430349e+000	-1.497439222070577e+000
1	 1.064319149442063e+000	 1.677518440128775e+000	-1.611905108867888e+000
1	 1.045960524667862e+000	 1.689026376861413e+000	-1.749307062008063e+000
1	 1.027500912365726e+000	 1.700319250015491e+000	-1.910232461633332e+000
1	 1.008944027502901e+000	 1.711395856921740e+000	-2.095254710173579e+000
1	 9.902936004727182e-001	 1.722255079035423e+000	-2.304932484962098e+000
1	 9.715533747577871e-001	 1.732895882040398e+000	-2.539809016597878e+000
1	 1.158342947448835e+000	 1.622226373001849e+000	-1.118390707854641e+000
1	 1.140484552703679e+000	 1.634830816439122e+000	-1.143686638241908e+000
1	 1.122506508759595e+000	 1.647226765138774e+000	-1.189442452055806e+000
1	 1.104412430432750e+000	 1.659412594644220e+000	-1.256261858010373e+000
1	 1.086205959750667e+000	 1.671386763217806e+000	-1.344736327962088e+000
1	 1.067890763614093e+000	 1.683147812334755e+000	-1.455444335643255e+000
1	 1.049470531451580e+000	 1.694694367098797e+000	-1.588950617465160e+000
1	 1.030948972869787e+000	 1.706025136579531e+000	-1.745805456694705e+000
1	 1.012329815302501e+000	 1.717138914071758e+000	-1.926543992242694e+000
1	 9.936168016613649e-001	 1.728034577277114e+000	-2.131685553232703e+000
1	 9.748136879912218e-001	 1.738711088408478e+000	-2.361733020447629e+000
1	 1.162217032142869e+000	 1.627651918513473e+000	-9.839976856433208e-001
1	 1.144298909894084e+000	 1.640298517584723e+000	-1.005758142047502e+000
1	 1.126260738279148e+000	 1.652735924606690e+000	-1.047961410206581e+000
1	 1.108106144203938e+000	 1.664962509689734e+000	-1.111181426218649e+000
1	 1.089838781876700e+000	 1.676976725939790e+000	-1.195978423646276e+000
1	 1.071462330462093e+000	 1.688777109953985e+000	-1.302898244833811e+000
1	 1.052980491727922e+000	 1.700362282237645e+000	-1.432471676175591e+000
1	 1.034396987687588e+000	 1.711730947542792e+000	-1.585213808463629e+000
1	 1.015715558241244e+000	 1.722881895128340e+000	-1.761623423372893e+000
1	 9.969399588186622e-001	 1.733813998942337e+000	-1.962182407073242e+000
1	 9.780739580267407e-001	 1.744526217726725e+000	-2.187355191883474e+000
1	 9.454699984254019e-001	 1.686372678502719e+000	-4.098359628081416e+000
1	 9.271519130027892e-001	 1.696512822322570e+000	-4.397334113796095e+000
1	 9.087537793314252e-001	 1.706438709573753e+000	-4.724450462176718e+000
1	 8.902792643757620e-001	 1.716149581185522e+000	-5.081667806770660e+000
1	 8.717320388004656e-001	 1.725644759681382e+000	-5.470940766300277e+000
1	 8.531157747611764e-001	 1.734923648915190e+000	-5.894216202571132e+000
1	 8.344341437159466e-001	 1.743985733737606e+000	-6.353430024348599e+000
1	 8.156908142598138e-001	 1.752830579594108e+000	-6.850504043163308e+000
1	 7.968894499849265e-001	 1.761457832055922e+000	-7.387342886789744e+000
1	 7.780337073685373e-001	 1.769867216285273e+000	-7.965830975908092e+000
1	 7.591272336911190e-001	 1.778058536436490e+000	-8.587829569222270e+000
1	 9.487304518441457e-001	 1.692188134909175e+000	-3.890452785347214e+000
1	 9.303491965016513e-001	 1.702363247016608e+000	-4.184801164541941e+000
1	 9.118876168640173e-001	 1.712323363691582e+000	-4.507096238538175e+000
1	 8.933493925412196e-001	 1.722067723245688e+000	-4.859316425092334e+000
1	 8.747382068562042e-001	 1.731595645866144e+000	-5.243437540238370e+000
1	 8.560577446280374e-001	 1.740906533350988e+000	-5.661429485243584e+000
1	 8.373116899757883e-001	 1.749999868774379e+000	-6.115252977267602e+000
1	 8.185037241456409e-001	 1.758875216083226e+000	-6.606856329874250e+000
1	 7.996375233636354e-001	 1.767532219626498e+000	-7.138172289328877e+000
1	 7.807167567163826e-001	 1.775970603618635e+000	-7.711114932384140e+000
1	 7.617450840619970e-001	 1.784190171538584e+000	-8.327576631017703e+000
1	 9.519909077089775e-001	 1.698003595679197e+000	-3.686299974639469e+000
1	 9.335464823992025e-001	 1.708213676100543e+000	-3.975964752108570e+000
1	 9.150214567476976e-001	 1.718208022225071e+000	-4.293400369133969e+000
1	 8.964195230099689e-001	 1.727985869746704e+000	-4.640598224148120e+000
1	 8.777443771672541e-001	 1.737546536516372e+000	-5.019548920822510e+000
1	 8.589997167020532e-001	 1.746889422276294e+000	-5.432238896592296e+000
1	 8.401892383944617e-001	 1.756014008324126e+000	-5.880647092618401e+000
1	 8.213166361418183e-001	 1.764919857108205e+000	-6.366741671497397e+000
1	 8.023855988040649e-001	 1.773606611755243e+000	-6.892476788816702e+000
1	 7.833998080771785e-001	 1.782073995531895e+000	-7.459789424425924e+000
1	 7.643629363969243e-001	 1.790321811241722e+000	-8.070596279053511e+000
1	 9.552513603143963e-001	 1.703819050636108e+000	-3.485893717257115e+000
1	 9.367437651004996e-001	 1.714064099336459e+000	-3.770820003931321e+000
1	 9.181552934985530e-001	 1.724092674876353e+000	-4.083359386405861e+000
1	 8.994896504095808e-001	 1.733904010332052e+000	-4.425510007347333e+000
1	 8.807505444731012e-001	 1.743497421218201e+000	-4.799270916184671e+000
1	 8.619416858350344e-001	 1.752872305221203e+000	-5.206638651651590e+000
1	 8.430667839364915e-001	 1.762028141862217e+000	-5.649603863497521e+000
1	 8.241295453259528e-001	 1.770964492091011e+000	-6.130147979813789e+000
1	 8.051336714972514e-001	 1.779680997812046e+000	-6.650239926213055e+000
1	 7.860828567557172e-001	 1.788177381344190e+000	-7.211832902873894e+000
1	 7.669807861147552e-001	 1.796453444815625e+000	-7.816861225223728e+000
1	 9.585118039549021e-001	 1.709634489603235e+000	-3.289226679191284e+000
1	 9.399410390105990e-001	 1.719914506486441e+000	-3.569362155835003e+000
1	 9.212891216326701e-001	 1.729977311347563e+000	-3.876969911252842e+000
1	 9.025597693676256e-001	 1.739822134645212e+000	-4.214048662019488e+000
1	 8.837567035132306e-001	 1.749448289557761e+000	-4.582599628250629e+000
1	 8.648836468787912e-001	 1.758855171715808e+000	-4.984623082538653e+000
1	 8.459443215664021e-001	 1.768042258864021e+000	-5.422114935785784e+000
1	 8.269424467756527e-001	 1.777009110453612e+000	-5.897063366493126e+000
1	 8.078817366342320e-001	 1.785755367166793e+000	-6.411445499857456e+000
1	 7.887658980567921e-001	 1.794280750374657e+000	-6.967224142805493e+000
1	 7.695986286343436e-001	 1.802585061530013e+000	-7.566344580858794e+000
1	 9.617722329249945e-001	 1.715449902403902e+000	-3.096291669545844e+000
1	 9.431382985345579e-001	 1.725764887312575e+000	-3.371586551062540e+000
1	 9.244229356661369e-001	 1.735861921340835e+000	-3.674228652391802e+000
1	 9.056298745116742e-001	 1.745740232329667e+000	-4.006211158846874e+000
1	 8.867628490271267e-001	 1.755399131121187e+000	-4.369531251998802e+000
1	 8.678255946851337e-001	 1.764838011290203e+000	-4.766186637309167e+000
1	 8.488218462487185e-001	 1.774056348804909e+000	-5.198172106387849e+000
1	 8.297553355685249e-001	 1.783053701617973e+000	-5.667476140519613e+000
1	 8.106297894060444e-001	 1.791829709189373e+000	-6.176077561900175e+000
1	 7.914489272851957e-001	 1.800384091942436e+000	-6.725942238806089e+000
1	 7.722164593745428e-001	 1.808716650654608e+000	-7.319019850687135e+000
1	 9.650326415191733e-001	 1.721265278861435e+000	-2.907081638990424e+000
1	 9.463355380774321e-001	 1.731615231576942e+000	-3.177488639324078e+000
1	 9.275567301150404e-001	 1.741746494558303e+000	-3.475132405732012e+000
1	 9.086999604692969e-001	 1.751658293028898e+000	-3.801994551308823e+000
1	 8.897689757542746e-001	 1.761349935494609e+000	-4.160062074734133e+000
1	 8.707675241058728e-001	 1.770820813474479e+000	-4.551323878836537e+000
1	 8.516993529479655e-001	 1.780070401160249e+000	-4.977767321507595e+000
1	 8.325682067821763e-001	 1.789098255006060e+000	-5.441374805669661e+000
1	 8.133778250037246e-001	 1.797904013249672e+000	-5.944120414804486e+000
1	 7.941319397457213e-001	 1.806487395366663e+000	-6.487966600334137e+000
1	 7.748342737542070e-001	 1.814848201459126e+000	-7.074860926916992e+000
1	 9.682930240319377e-001	 1.727080608799159e+000	-2.721589678245413e+000
1	 9.495327520442785e-001	 1.737465529041629e+000	-2.987063975865947e+000
1	 9.306904994954675e-001	 1.747631020702102e+000	-3.279678053763279e+000
1	 9.117700218680644e-001	 1.757576306386385e+000	-3.601395975138337e+000
1	 8.927750784341609e-001	 1.767300692264160e+000	-3.954188475378262e+000
1	 8.737094299928181e-001	 1.776803567798732e+000	-4.340029483715102e+000
1	 8.545768366286672e-001	 1.786084405405412e+000	-4.760892674958544e+000
1	 8.353810554942143e-001	 1.795142760039838e+000	-5.218748058040585e+000
1	 8.161258386183103e-001	 1.803978268717579e+000	-5.715558607919371e+000
1	 7.968149307431616e-001	 1.812590649966475e+000	-6.253276947178882e+000
1	 7.774520671921896e-001	 1.820979703213290e+000	-6.833842083436033e+000
1	 9.715533747577871e-001	 1.732895882040398e+000	-2.539809016597878e+000
1	 9.527299348401541e-001	 1.743315769468720e+000	-2.800308220559460e+000
1	 9.338242383235065e-001	 1.753515489474366e+000	-3.087862564956973e+000
1	 9.148400533355462e-001	 1.763494262045610e+000	-3.404412647790678e+000
1	 8.957811518062693e-001	 1.773251391015973e+000	-3.751906923774110e+000
1	 8.766513071977804e-001	 1.782786263793054e+000	-4.132298241184700e+000
1	 8.574542922553489e-001	 1.792098351015767e+000	-4.547540406508475e+000
1	 8.381938767822468e-001	 1.801187206141276e+000	-4.999584783628685e+000
1	 8.188738254408385e-001	 1.810052464962980e+000	-5.490376934120008e+000
1	 7.994978955823092e-001	 1.818693845061012e+000	-6.021853305007396e+000
1	 7.800698351073454e-001	 1.827111145186820e+000	-6.595937970125170e+000
1	 9.748136879912218e-001	 1.738711088408478e+000	-2.361733020447629e+000
1	 9.559270808701150e-001	 1.749165942620299e+000	-2.617217137008644e+000
1	 9.369579411152436e-001	 1.759399890577228e+000	-2.899682993180687e+000
1	 9.179100494993139e-001	 1.769412149650055e+000	-3.211041867923315e+000
1	 8.987871906100859e-001	 1.779202021336181e+000	-3.553213980005768e+000
1	 8.795931505725697e-001	 1.788768890987538e+000	-3.928125052078911e+000
1	 8.603317147925348e-001	 1.798112227466683e+000	-4.337702900257900e+000
1	 8.410066657238805e-001	 1.807231582732339e+000	-4.783874055955502e+000
1	 8.216217806623460e-001	 1.816126591355764e+000	-5.268560426515242e+000
1	 8.021808295679572e-001	 1.824796969969410e+000	-5.793676001001151e+000
1	 7.826875729185272e-001	 1.833242516649435e+000	-6.361123607285575e+000
1	 9.780739580267407e-001	 1.744526217726725e+000	-2.187355191883474e+000
1	 9.591241845392182e-001	 1.755016038258451e+000	-2.437786591676421e+000
1	 9.400916023867665e-001	 1.765284213712824e+000	-2.715136477124988e+000
1	 9.209800049869374e-001	 1.775329958843201e+000	-3.021281014887585e+000
1	 9.017931895850956e-001	 1.785152572810915e+000	-3.358106293732752e+000
1	 8.825349549689967e-001	 1.794751438912278e+000	-3.727504927793659e+000
1	 8.632090992047501e-001	 1.804126024233531e+000	-4.131372683051066e+000
1	 8.438194173967226e-001	 1.813275879234992e+000	-4.571605133742947e+000
1	 8.243696994738701e-001	 1.822200637265818e+000	-5.050094355220607e+000
1	 8.048637280048987e-001	 1.830900014010807e+000	-5.568725659577787e+000
1	 7.853052760445892e-001	 1.839373806870855e+000	-6.129374380174051e+000
1	 7.591272336911190e-001	 1.778058536436490e+000	-8.587829569222270e+000
1	 7.401708184701011e-001	 1.786032854945589e+000	-9.258975233238665e+000
1	 7.211709194066933e-001	 1.793788887867156e+000	-9.979810802567469e+000
1	 7.021311465288181e-001	 1.801326673544389e+000	-1.074476252326351e+001
1	 6.830550926306996e-001	 1.808646326353043e+000	-1.154817799110085e+001
1	 6.639463313706804e-001	 1.815748035804697e+000	-1.238433662732317e+001
1	 6.448084154108978e-001	 1.822632065596484e+000	-1.324746008108059e+001
1	 6.256448746004242e-001	 1.829298752609273e+000	-1.413172253928861e+001
1	 6.064592142033819e-001	 1.835748505856337e+000	-1.503126092528433e+001
1	 5.872549131734427e-001	 1.841981805384595e+000	-1.594018496833178e+001
1	 5.680354224760176e-001	 1.847999201130549e+000	-1.685258712674358e+001
1	 7.617450840619970e-001	 1.784190171538584e+000	-8.327576631017703e+000
1	 7.427232976405556e-001	 1.792191989486165e+000	-8.992752869334417e+000
1	 7.236578774226532e-001	 1.799974769088290e+000	-9.706773617403576e+000
1	 7.045524458853989e-001	 1.807538548820397e+000	-1.046413655289007e+001
1	 6.854106082127708e-001	 1.814883443452677e+000	-1.125925989831593e+001
1	 6.662359503868772e-001	 1.822009643150254e+000	-1.208649283830553e+001
1	 6.470320373212150e-001	 1.828917412519633e+000	-1.294012586593836e+001
1	 6.278024110375445e-001	 1.835607089603428e+000	-1.381440103898998e+001
1	 6.085505888878960e-001	 1.842079084825410e+000	-1.470352212747880e+001
1	 5.892800618231178e-001	 1.848333879887951e+000	-1.560166463460469e+001
1	 5.699942927092772e-001	 1.854372026624021e+000	-1.650298567387217e+001
1	 7.643629363969243e-001	 1.790321811241722e+000	-8.070596279053511e+000
1	 7.452757787260289e-001	 1.798351128648356e+000	-8.729640683204254e+000
1	 7.261448373044902e-001	 1.806160654951032e+000	-9.436635846879490e+000
1	 7.069737470586095e-001	 1.813750428757426e+000	-1.018615495415882e+001
1	 6.877661255621314e-001	 1.821120565232174e+000	-1.097269115204071e+001
1	 6.685255711209364e-001	 1.828271255193945e+000	-1.179066789801349e+001
1	 6.492556608998900e-001	 1.835202764158619e+000	-1.263444923899414e+001
1	 6.299599490934508e-001	 1.841915431330562e+000	-1.349835000249110e+001
1	 6.106419651415644e-001	 1.848409668544040e+000	-1.437664588147193e+001
1	 5.913052119922638e-001	 1.854685959156884e+000	-1.526358339508209e+001
1	 5.719531644122837e-001	 1.860744856898537e+000	-1.615338970806087e+001
1	 7.669807861147552e-001	 1.796453444815625e+000	-7.816861225223727e+000
1	 7.478282572597390e-001	 1.804510261653793e+000	-8.469606346648551e+000
1	 7.286317947000455e-001	 1.812346534630249e+000	-9.169362094955327e+000
1	 7.093950458111602e-001	 1.819962302484917e+000	-9.910781190875690e+000
1	 6.901216405565783e-001	 1.827357680776867e+000	-1.068843595768401e+001
1	 6.708151895659436e-001	 1.834532860978315e+000	-1.149682858798608e+001
1	 6.514792822554776e-001	 1.841488109514515e+000	-1.233040134397908e+001
1	 6.321174849923246e-001	 1.848223766751578e+000	-1.318354667213630e+001
1	 6.127333393043349e-001	 1.854740245934267e+000	-1.405061721388953e+001
1	 5.933303601367137e-001	 1.861038032075868e+000	-1.492593569454149e+001
1	 5.739120341568522e-001	 1.867117680802294e+000	-1.580380467332792e+001
1	 7.695986286343436e-001	 1.802585061530013e+000	-7.566344580858794e+000
1	 7.503807287749006e-001	 1.810669377724103e+000	-8.212617996049234e+000
1	 7.311187452571608e-001	 1.818532397300815e+000	-8.904917467955720e+000
1	 7.118163379057592e-001	 1.826174159132310e+000	-9.637979240289019e+000
1	 6.924771490739102e-001	 1.833594779172092e+000	-1.040645901914724e+001
1	 6.731048017149861e-001	 1.840794449545912e+000	-1.120494214797630e+001
1	 6.537028974965337e-001	 1.847773437588392e+000	-1.202795371794576e+001
1	 6.342750149583490e-001	 1.854532084827382e+000	-1.286996859481921e+001
1	 6.148247077161557e-001	 1.861070805918133e+000	-1.372542134400820e+001
1	 5.953555027123004e-001	 1.867390087529377e+000	-1.458871603615182e+001
1	 5.758708985147967e-001	 1.873490487183485e+000	-1.545423591624481e+001
1	 7.722164593745428e-001	 1.808716650654608e+000	-7.319019850687135e+000
1	 7.529331888047300e-001	 1.816828466080916e+000	-7.958644225183857e+000
1	 7.336056846236779e-001	 1.824718232137600e+000	-8.643267566692403e+000
1	 7.142376191051160e-001	 1.832385987829046e+000	-9.367713584965015e+000
1	 6.948326469919245e-001	 1.839831849503180e+000	-1.012672553088794e+001
1	 6.753944035611510e-001	 1.847056009939280e+000	-1.091497626862514e+001
1	 6.559265027316127e-001	 1.854058737381323e+000	-1.172707828496622e+001
1	 6.364325352157069e-001	 1.860840374518883e+000	-1.255759361710633e+001
1	 6.169160667169764e-001	 1.867401337417683e+000	-1.340104368069105e+001
1	 5.973806361748560e-001	 1.873742114401887e+000	-1.425191898059831e+001
1	 5.778297540579321e-001	 1.879863264890306e+000	-1.510468868761447e+001
1	 7.748342737542070e-001	 1.814848201459126e+000	-7.074860926916993e+000
1	 7.554856328824438e-001	 1.822987515945862e+000	-7.707654078182927e+000
1	 7.360926084474382e-001	 1.830904028315475e+000	-8.384378478742246e+000
1	 7.166588851719398e-001	 1.838597777704565e+000	-9.099949204824712e+000
1	 6.971881301884186e-001	 1.846068880855466e+000	-9.849201170140816e+000
1	 6.776839910975245e-001	 1.853317531200967e+000	-1.062689908428186e+001
1	 6.581500940692702e-001	 1.860343997894379e+000	-1.142774734995453e+001
1	 6.385900419885806e-001	 1.867148624786985e+000	-1.224639988045512e+001
1	 6.190074126467443e-001	 1.873731829354958e+000	-1.307746981938279e+001
1	 5.994057569802131e-001	 1.880094101577871e+000	-1.391553914522485e+001
1	 5.797885973580729e-001	 1.886236002770953e+000	-1.475516814411830e+001
1	 7.774520671921896e-001	 1.820979703213290e+000	-6.833842083436033e+000
1	 7.580380565412580e-001	 1.829146516540570e+000	-7.459617042626845e+000
1	 7.385795123762832e-001	 1.837089775009310e+000	-8.128216770880316e+000
1	 7.190801318689393e-001	 1.844809517888308e+000	-8.834651569338725e+000
1	 6.995435945411911e-001	 1.852305862314285e+000	-9.573852089292435e+000
1	 6.799735603171933e-001	 1.859579002373519e+000	-1.034067916596575e+001
1	 6.603736676180615e-001	 1.866629208128634e+000	-1.112993359261200e+001
1	 6.407475315011527e-001	 1.873456824592596e+000	-1.193636581652629e+001
1	 6.210987418454086e-001	 1.880062270652001e+000	-1.275468553916519e+001
1	 6.014308615842045e-001	 1.886446037941803e+000	-1.357957120319219e+001
1	 5.817474249870337e-001	 1.892608689673620e+000	-1.440567934992869e+001
1	 7.800698351073454e-001	 1.827111145186820e+000	-6.595937970125170e+000
1	 7.605904553143884e-001	 1.835305457086669e+000	-7.214503042778721e+000
1	 7.410663920580549e-001	 1.843275461393978e+000	-7.874749481660404e+000
1	 7.215013549588241e-001	 1.851021197509715e+000	-8.571786629875557e+000
1	 7.018990359280389e-001	 1.858542782964969e+000	-9.300644908405976e+000
1	 6.822631072132447e-001	 1.865840412499482e+000	-1.005628551446576e+001
1	 6.625972194865419e-001	 1.872914357085160e+000	-1.083361006149096e+001
1	 6.429049999776058e-001	 1.879764962896621e+000	-1.162747014259002e+001
1	 6.231900506529177e-001	 1.886392650230855e+000	-1.243267679986870e+001
1	 6.034559464426624e-001	 1.892797912378159e+000	-1.324400988265320e+001
1	 5.837062335166292e-001	 1.898981314446504e+000	-1.405622727828995e+001
1	 7.826875729185272e-001	 1.833242516649435e+000	-6.361123607285575e+000
1	 7.631428247350517e-001	 1.841464326805790e+000	-6.972282432951306e+000
1	 7.435532431405945e-001	 1.849461076644348e+000	-7.623944114141711e+000
1	 7.239225502043030e-001	 1.857232805698227e+000	-8.311320812200302e+000
1	 7.042544502267606e-001	 1.864779631892853e+000	-9.029546707892262e+000
1	 6.845526277787646e-001	 1.872101750621401e+000	-9.773687553576480e+000
1	 6.648207457832661e-001	 1.879199433765029e+000	-1.053875016817428e+001
1	 6.450624436421225e-001	 1.886073028659967e+000	-1.131969185701933e+001
1	 6.252813354092197e-001	 1.892722957013562e+000	-1.211142973924148e+001
1	 6.054810080114195e-001	 1.899149713771413e+000	-1.290884996594233e+001
1	 5.856650195186739e-001	 1.905353865937798e+000	-1.370681681306619e+001
1	 7.853052760445892e-001	 1.839373806870855e+000	-6.129374380174051e+000
1	 7.656951603364636e-001	 1.847623114919561e+000	-6.732925991003065e+000
1	 7.460400612717434e-001	 1.855646609935292e+000	-7.375768628759423e+000
1	 7.263437133680853e-001	 1.863444331583285e+000	-8.053221009119840e+000
1	 7.066098333151536e-001	 1.871016398183272e+000	-8.760525021325988e+000
1	 6.868421180068403e-001	 1.878363005781824e+000	-9.492855123466532e+000
1	 6.670442426167896e-001	 1.885484427169312e+000	-1.024532768157045e+001
1	 6.472198587188857e-001	 1.892381010843541e+000	-1.101301023487376e+001
1	 6.273725924542637e-001	 1.899053179922165e+000	-1.179093067017215e+001
1	 6.075060427463085e-001	 1.905501431006039e+000	-1.257408628878333e+001
1	 5.876237795649825e-001	 1.911726332995700e+000	-1.335745275026150e+001
1	 5.680354224760176e-001	 1.847999201130549e+000	-1.685258712674358e+001
1	 5.488041631848251e-001	 1.853801311271564e+000	-1.776284163482578e+001
1	 5.295645241072590e-001	 1.859388819616633e+000	-1.866636639644605e+001
1	 5.103198611286465e-001	 1.864762475731302e+000	-1.955881669151928e+001
1	 4.910734960175067e-001	 1.869923094099526e+000	-2.043585903256987e+001
1	 4.718287150019048e-001	 1.874871552788906e+000	-2.129317774781416e+001
1	 4.525887673990908e-001	 1.879608792083759e+000	-2.212648140093199e+001
1	 4.333568642990193e-001	 1.884135813088218e+000	-2.293150903884584e+001
1	 4.141361773022579e-001	 1.888453676301606e+000	-2.370403625945820e+001
1	 3.949298373126922e-001	 1.892563500168320e+000	-2.443988109192873e+001
1	 3.757409333853378e-001	 1.896466459604412e+000	-2.513490968269349e+001
1	 5.699942927092772e-001	 1.854372026624021e+000	-1.650298567387217e+001
1	 5.506967144176710e-001	 1.860194145342777e+000	-1.740195558317087e+001
1	 5.313907274419987e-001	 1.865800922211313e+000	-1.829403718314512e+001
1	 5.120796992403625e-001	 1.871193109380035e+000	-1.917487201499822e+001
1	 4.927669630364041e-001	 1.876371524141626e+000	-2.004011191556947e+001
1	 4.734558163907506e-001	 1.881337047591688e+000	-2.088542567620548e+001
1	 4.541495198259259e-001	 1.886090623257090e+000	-2.170650553793381e+001
1	 4.348512955053326e-001	 1.890633255694253e+000	-2.249907351411212e+001
1	 4.155643259668068e-001	 1.894966009059619e+000	-2.325888753235889e+001
1	 3.962917529111595e-001	 1.899090005654519e+000	-2.398174738820729e+001
1	 3.770366760460168e-001	 1.903006424446688e+000	-2.466350050355536e+001
1	 5.719531644122837e-001	 1.860744856898537e+000	-1.615338970806087e+001
1	 5.525892670705060e-001	 1.866586984209952e+000	-1.704063147369637e+001
1	 5.332169321469450e-001	 1.872213029616325e+000	-1.792081065972375e+001
1	 5.138395386724857e-001	 1.877623747852923e+000	-1.878955128178180e+001
1	 4.944604313259011e-001	 1.882819959021162e+000	-1.964248630126896e+001
1	 4.750829190003874e-001	 1.887802547244642e+000	-2.047526437605122e+001
1	 4.557102734237521e-001	 1.892572459292788e+000	-2.128355644741517e+001
1	 4.363457278328530e-001	 1.897130703174315e+000	-2.206306215424694e+001
1	 4.169924757028024e-001	 1.901478346702779e+000	-2.280951606606449e+001
1	 3.976536695313452e-001	 1.905616516036455e+000	-2.351869372715993e+001
1	 3.783324196787251e-001	 1.909546394194761e+000	-2.418641750476639e+001
1	 5.739120341568522e-001	 1.867117680802294e+000	-1.580380467332792e+001
1	 5.544818178312048e-001	 1.872979816686288e+000	-1.667888468045592e+001
1	 5.350431350260877e-001	 1.878625130611152e+000	-1.754670848034641e+001
1	 5.155993763451565e-001	 1.884054379897014e+000	-1.840287882914416e+001
1	 4.961538979223014e-001	 1.889268387454018e+000	-1.924300566861730e+001
1	 4.767100199832761e-001	 1.894268040433766e+000	-2.006271298466120e+001
1	 4.572710254611572e-001	 1.899054288848237e+000	-2.085764550230752e+001
1	 4.378401586662455e-001	 1.903628144158436e+000	-2.162347520800124e+001
1	 4.184206240109175e-001	 1.907990677835037e+000	-2.235590769054040e+001
1	 3.990155847898393e-001	 1.912143019893252e+000	-2.305068829272897e+001
1	 3.796281620158599e-001	 1.916086357404184e+000	-2.370360806643808e+001
1	 5.758708985147967e-001	 1.873490487183485e+000	-1.545423591624481e+001
1	 5.563743633876412e-001	 1.879372631584984e+000	-1.631673033874669e+001
1	 5.368693328834177e-001	 1.885037213975278e+000	-1.717175196873199e+001
1	 5.173592091785159e-001	 1.890484994259351e+000	-1.801487862107663e+001
1	 4.978473598619105e-001	 1.895716798156078e+000	-1.884169312849119e+001
1	 4.783371164918770e-001	 1.900733515845056e+000	-1.964779032368099e+001
1	 4.588317732067284e-001	 1.905536100580816e+000	-2.042878385860189e+001
1	 4.393345853901752e-001	 1.910125567276648e+000	-2.118031285130292e+001
1	 4.198487683918245e-001	 1.914502991060339e+000	-2.189804835149066e+001
1	 4.003774963032317e-001	 1.918669505804034e+000	-2.257769961660890e+001
1	 3.809239007898188e-001	 1.922626302630512e+000	-2.321502019088128e+001
1	 5.778297540579321e-001	 1.879863264890306e+000	-1.510468868761447e+001
1	 5.582669004276902e-001	 1.885765417719239e+000	-1.595418334909648e+001
1	 5.386955225229247e-001	 1.891449268488184e+000	-1.679596212360445e+001
1	 5.191190340927049e-001	 1.896915579686979e+000	-1.762557425437349e+001
1	 4.995408141810325e-001	 1.902165179843225e+000	-1.843857142959422e+001
1	 4.799642056786503e-001	 1.907198962164509e+000	-1.923051490400339e+001
1	 4.603925139290531e-001	 1.912017883147906e+000	-1.999698245848168e+001
1	 4.408290053893068e-001	 1.916622961158985e+000	-2.073357518783780e+001
1	 4.212769063461959e-001	 1.921015274982634e+000	-2.143592410762060e+001
1	 4.017394016881121e-001	 1.925195962347924e+000	-2.209969657144683e+001
1	 3.822196337329991e-001	 1.929166218429299e+000	-2.272060249101777e+001
1	 5.797885973580729e-001	 1.886236002770953e+000	-1.475516814411830e+001
1	 5.601594256392255e-001	 1.892158163902251e+000	-1.559125838117034e+001
1	 5.405217007485995e-001	 1.897861282929353e+000	-1.641935962403593e+001
1	 5.208788480078644e-001	 1.903346124926945e+000	-1.723498896459505e+001
1	 5.012342579159722e-001	 1.908613521231345e+000	-1.803366296424049e+001
1	 4.815912846960570e-001	 1.913664368078124e+000	-1.881090493058215e+001
1	 4.619532448967190e-001	 1.918499625206889e+000	-1.956225203339013e+001
1	 4.423234160483053e-001	 1.923120314435479e+000	-2.028326224961145e+001
1	 4.227050353747044e-001	 1.927527518205872e+000	-2.096952112794978e+001
1	 4.031012985610707e-001	 1.931722378104048e+000	-2.161664836417716e+001
1	 3.835153585777980e-001	 1.935706093356100e+000	-2.222030417902002e+001
1	 5.817474249870337e-001	 1.892608689673620e+000	-1.440567934992869e+001
1	 5.620519357101217e-001	 1.898550858947220e+000	-1.522796987760183e+001
1	 5.423478643644321e-001	 1.904273246078267e+000	-1.604196483468276e+001
1	 5.226386478441351e-001	 1.909776618726293e+000	-1.684314563191194e+001
1	 5.029276881030343e-001	 1.915061811036321e+000	-1.762698977402063e+001
1	 4.832183506965573e-001	 1.920129722271896e+000	-1.838897830714629e+001
1	 4.635139633783135e-001	 1.924981315415146e+000	-1.912460310703877e+001
1	 4.438178147518359e-001	 1.929617615736164e+000	-1.982937399750065e+001
1	 4.241331529780221e-001	 1.934039709333999e+000	-2.049882568917632e+001
1	 4.044631845386975e-001	 1.938248741651527e+000	-2.112852452948357e+001
1	 3.848110730566132e-001	 1.942245915966469e+000	-2.171407505516932e+001
1	 5.837062335166292e-001	 1.898981314446504e+000	-1.405622727828995e+001
1	 5.639444273282532e-001	 1.904943491667344e+000	-1.486433205774437e+001
1	 5.441740101744128e-001	 1.910685146714410e+000	-1.566379781091749e+001
1	 5.243984305216576e-001	 1.916207049832067e+000	-1.645006678683376e+001
1	 5.046211017785232e-001	 1.921510037974037e+000	-1.721857355535615e+001
1	 4.848454008326115e-001	 1.926595013431823e+000	-1.796475264082452e+001
1	 4.650746666424240e-001	 1.931462942430058e+000	-1.868404599835071e+001
1	 4.453121988845631e-001	 1.936114853691072e+000	-1.937191032179236e+001
1	 4.255612566568218e-001	 1.940551836970967e+000	-2.002382417309362e+001
1	 4.058250572375821e-001	 1.944775041569487e+000	-2.063529492338819e+001
1	 3.861067749018419e-001	 1.948785674815963e+000	-2.120186549693432e+001
1	 5.856650195186739e-001	 1.905353865937798e+000	-1.370681681306619e+001
1	 5.658368971814944e-001	 1.911336050875822e+000	-1.450035892135276e+001
1	 5.460001349825319e-001	 1.917096973617263e+000	-1.528487830386097e+001
1	 5.261581929605731e-001	 1.922637406991314e+000	-1.605577461582488e+001
1	 5.063144959787436e-001	 1.927958190760378e+000	-1.680843566494433e+001
1	 4.864724322566803e-001	 1.933060230243902e+000	-1.753824524667457e+001
1	 4.666353519576381e-001	 1.937944494909006e+000	-1.824059082434981e+001
1	 4.468065658311524e-001	 1.942612016930235e+000	-1.891087104270923e+001
1	 4.269893439117758e-001	 1.947063889720721e+000	-1.954450306405185e+001
1	 4.071869142743147e-001	 1.951301266437051e+000	-2.013692971696359e+001
1	 3.874024618458815e-001	 1.955325358460134e+000	-2.068362644825920e+001
1	 5.876237795649825e-001	 1.911726332995700e+000	-1.335745275026150e+001
1	 5.677293419577194e-001	 1.917728525385851e+000	-1.413606425218756e+001
1	 5.478262355927797e-001	 1.923508715566310e+000	-1.490522576531196e+001
1	 5.279179320810222e-001	 1.929067678951077e+000	-1.566029096680731e+001
1	 5.080078677400003e-001	 1.934406258111227e+000	-1.639659712509552e+001
1	 4.880994421212242e-001	 1.939525361394130e+000	-1.710947315212473e+001
1	 4.681960165925433e-001	 1.944425961509372e+000	-1.779424750298680e+001
1	 4.483009129762685e-001	 1.949109094083688e+000	-1.844625591092399e+001
1	 4.284174122435568e-001	 1.953575856187211e+000	-1.906084894646834e+001
1	 4.085487532654853e-001	 1.957827404833344e+000	-1.963339939016669e+001
1	 3.886981316211295e-001	 1.961864955454538e+000	-2.015930940905552e+001
1	 3.757409333853378e-001	 1.896466459604412e+000	-2.513490968269349e+001
1	 3.565753843284157e-001	 1.900163245559079e+000	-2.578357781816187e+001
1	 3.374333077030549e-001	 1.903655743049810e+000	-2.638225879150836e+001
1	 3.183176550561437e-001	 1.906945288345930e+000	-2.692946683213219e+001
1	 2.992313321576309e-001	 1.910033268048593e+000	-2.742376447844048e+001
1	 2.801771981265868e-001	 1.912921117535318e+000	-2.786376392340384e+001
1	 2.611580646121947e-001	 1.915610319394058e+000	-2.824812825715456e+001
1	 2.421766950293987e-001	 1.918102401848856e+000	-2.857557260685591e+001
1	 2.232358038488350e-001	 1.920398937179060e+000	-2.884486517428333e+001
1	 2.043380559406117e-001	 1.922501540134042e+000	-2.905482817178055e+001
1	 1.854860659714354e-001	 1.924411866345337e+000	-2.920433865745212e+001
1	 3.770366760460168e-001	 1.903006424446688e+000	-2.466350050355536e+001
1	 3.578050345906110e-001	 1.906715958768053e+000	-2.529869067481384e+001
1	 3.385969465114715e-001	 1.910220500136607e+000	-2.588393089766633e+001
1	 3.194153735338842e-001	 1.913521389429823e+000	-2.641794868889001e+001
1	 3.002632314483341e-001	 1.916620018030578e+000	-2.689951797374764e+001
1	 2.811433892335524e-001	 1.919517826266315e+000	-2.732746013720808e+001
1	 2.620586682346835e-001	 1.922216301837717e+000	-2.770064498307973e+001
1	 2.430118413962970e-001	 1.924716978238935e+000	-2.801799160151099e+001
1	 2.240056325498701e-001	 1.927021433171347e+000	-2.827846914551881e+001
1	 2.050427157553048e-001	 1.929131286952813e+000	-2.848109751737212e+001
1	 1.861257146959756e-001	 1.931048200924337e+000	-2.862494796584413e+001
1	 3.783324196787251e-001	 1.909546394194761e+000	-2.418641750476639e+001
1	 3.590346857752014e-001	 1.913268676892355e+000	-2.480732804156081e+001
1	 3.397605861927039e-001	 1.916785262147738e+000	-2.537830349533792e+001
1	 3.205130928349259e-001	 1.920097495446545e+000	-2.589830388226267e+001
1	 3.012951315128967e-001	 1.923206772953377e+000	-2.636633432519077e+001
1	 2.821095810650167e-001	 1.926114539945610e+000	-2.678144576228767e+001
1	 2.629592725323994e-001	 1.928822289236666e+000	-2.714273557475158e+001
1	 2.438469883892480e-001	 1.931331559590807e+000	-2.744934813442072e+001
1	 2.247754618278889e-001	 1.933643934131447e+000	-2.770047527220403e+001
1	 2.057473760980255e-001	 1.935761038744943e+000	-2.789535666841986e+001
1	 1.867653638997075e-001	 1.937684540481774e+000	-2.803328016627279e+001
1	 3.796281620158599e-001	 1.916086357404184e+000	-2.370360806643808e+001
1	 3.602643357302445e-001	 1.919821388465220e+000	-2.430941869294174e+001
1	 3.409242247103262e-001	 1.923350017595366e+000	-2.486529410822130e+001
1	 3.216108110381968e-001	 1.926673594888409e+000	-2.537044581865077e+001
1	 3.023270305454236e-001	 1.929793521290676e+000	-2.582412973072943e+001
1	 2.830757719300686e-001	 1.932711247029466e+000	-2.622564646910154e+001
1	 2.638598759292085e-001	 1.935428270030935e+000	-2.657434162519322e+001
1	 2.446821345466725e-001	 1.937946134329452e+000	-2.686960593765746e+001
1	 2.255452903356299e-001	 1.940266428470466e+000	-2.711087540593054e+001
1	 2.064520357355792e-001	 1.942390783908820e+000	-2.729763133830949e+001
1	 1.874050124632389e-001	 1.944320873404466e+000	-2.742940033607136e+001
1	 3.809239007898188e-001	 1.922626302630512e+000	-2.321502019088128e+001
1	 3.614939823037994e-001	 1.926374082019887e+000	-2.380489226967847e+001
1	 3.420878600279120e-001	 1.929914754991651e+000	-2.434482126974224e+001
1	 3.227085262226244e-001	 1.933249676247730e+000	-2.483428896053816e+001
1	 3.033589267400189e-001	 1.936380251516154e+000	-2.527282139688110e+001
1	 2.840419601377973e-001	 1.939307935974137e+000	-2.565998879861445e+001
1	 2.647604768489766e-001	 1.942034232660551e+000	-2.599540537275070e+001
1	 2.455172784069913e-001	 1.944560690879855e+000	-2.627872907974686e+001
1	 2.263151167258319e-001	 1.946888904599510e+000	-2.650966134566400e+001
1	 2.071566934347713e-001	 1.949020510842834e+000	-2.668794672202247e+001
1	 1.880446592671768e-001	 1.950957188079231e+000	-2.681337249523166e+001
1	 3.822196337329991e-001	 1.929166218429299e+000	-2.272060249101777e+001
1	 3.627236233439242e-001	 1.932926746089595e+000	-2.329367926280629e+001
1	 3.432514901090351e-001	 1.936479462848755e+000	-2.381680450460089e+001
1	 3.238062364671366e-001	 1.939825728016818e+000	-2.428974880710489e+001
1	 3.043908182907874e-001	 1.942966952103496e+000	-2.471232751999091e+001
1	 2.850081439972916e-001	 1.945904595235886e+000	-2.508440014576344e+001
1	 2.656610737155696e-001	 1.948640165565544e+000	-2.540586968824764e+001
1	 2.463524185086248e-001	 1.951175217666995e+000	-2.567668195794308e+001
1	 2.270849396512333e-001	 1.953511350929684e+000	-2.589682483651793e+001
1	 2.078613479624075e-001	 1.955650207945372e+000	-2.606632750273218e+001
1	 1.886843031921287e-001	 1.957593472892883e+000	-2.618525962209068e+001
1	 3.835153585777980e-001	 1.935706093356100e+000	-2.222030417902002e+001
1	 3.639532566986776e-001	 1.939479369207581e+000	-2.277571099811545e+001
1	 3.444151129172693e-001	 1.943044129678839e+000	-2.328116431068154e+001
1	 3.249039398506607e-001	 1.946401738687988e+000	-2.373674187521640e+001
1	 3.054227033918336e-001	 1.949553611526385e+000	-2.414256726786594e+001
1	 2.859743218176406e-001	 1.952501213270967e+000	-2.449880874324917e+001
1	 2.665616649528536e-001	 1.955246057185943e+000	-2.480567806239006e+001
1	 2.471875533899939e-001	 1.957789703115855e+000	-2.506342929065231e+001
1	 2.278547577645728e-001	 1.960133755872095e+000	-2.527235756854928e+001
1	 2.085659980852930e-001	 1.962279863614822e+000	-2.543279785826733e+001
1	 1.893239431187017e-001	 1.964229716232240e+000	-2.554512366870578e+001
1	 3.848110730566132e-001	 1.942245915966469e+000	-2.171407505516932e+001
1	 3.651828802161178e-001	 1.946031939907083e+000	-2.225091962089682e+001
1	 3.455787264161885e-001	 1.949608743994064e+000	-2.273782214131439e+001
1	 3.260016344521249e-001	 1.952977696753554e+000	-2.317518568078522e+001
1	 3.064545802372619e-001	 1.956140218258500e+000	-2.356346076177031e+001
1	 2.869404919079331e-001	 1.959097778535641e+000	-2.390314364564262e+001
1	 2.674622489846945e-001	 1.961851895961775e+000	-2.419477459341474e+001
1	 2.480226815895191e-001	 1.964404135651418e+000	-2.443893611000226e+001
1	 2.286245697185891e-001	 1.966756107837849e+000	-2.463625117557199e+001
1	 2.092706425702335e-001	 1.968909466249573e+000	-2.478738146744394e+001
1	 1.899635779275033e-001	 1.970865906484120e+000	-2.489302557591797e+001
1	 3.861067749018419e-001	 1.948785674815963e+000	-2.120186549693432e+001
1	 3.664124917443031e-001	 1.952584446721340e+000	-2.171923808098417e+001
1	 3.467423285693665e-001	 1.956173294306592e+000	-2.218670038788507e+001
1	 3.270993183504568e-001	 1.959553590705827e+000	-2.260499872049843e+001
1	 3.074864470211771e-001	 1.962726760773528e+000	-2.297492905876728e+001
1	 2.879066525772582e-001	 1.965694279486164e+000	-2.329733471379886e+001
1	 2.683628242349583e-001	 1.968457670333070e+000	-2.357310397497821e+001
1	 2.488578016456213e-001	 1.971018503698664e+000	-2.380316775455321e+001
1	 2.293943741660206e-001	 1.973378395238052e+000	-2.398849723398879e+001
1	 2.099752801840343e-001	 1.975539004248015e+000	-2.413010151626432e+001
1	 1.906032064991407e-001	 1.977502032035339e+000	-2.422902528811981e+001
1	 3.874024618458815e-001	 1.955325358460134e+000	-2.068362644825920e+001
1	 3.676420891312922e-001	 1.959136878183590e+000	-2.118060011808784e+001
1	 3.479059173403771e-001	 1.962737769128583e+000	-2.162772236277866e+001
1	 3.281969896245841e-001	 1.966129409037122e+000	-2.202610045389365e+001
1	 3.085183019376836e-001	 1.969313227545150e+000	-2.237689413440610e+001
1	 2.888728021347050e-001	 1.972290704578797e+000	-2.268131259957399e+001
1	 2.692633891275109e-001	 1.975063368739857e+000	-2.294061148427615e+001
1	 2.496929120967210e-001	 1.977632795682577e+000	-2.315608986214669e+001
1	 2.301641697596060e-001	 1.980000606483809e+000	-2.332908726164513e+001
1	 2.106799096935010e-001	 1.982168466008534e+000	-2.346098070399526e+001
1	 1.912428277142213e-001	 1.984138081272714e+000	-2.355318176772350e+001
1	 3.886981316211295e-001	 1.961864955454538e+000	-2.015930940905552e+001
1	 3.688716702251434e-001	 1.965689222827072e+000	-2.063494024740978e+001
1	 3.490694906927941e-001	 1.969302156972200e+000	-2.106081228265639e+001
1	 3.292946463534344e-001	 1.972705140239751e+000	-2.143841128578755e+001
1	 3.095501431808860e-001	 1.975899607047047e+000	-2.176927886574299e+001
1	 2.898389388893622e-001	 1.978887042269796e+000	-2.205500873083725e+001
1	 2.701639420862184e-001	 1.981668979622164e+000	-2.229724297039153e+001
1	 2.505280114812389e-001	 1.984247000028137e+000	-2.249766836288927e+001
1	 2.309339551520840e-001	 1.986622729986227e+000	-2.265801271669399e+001
1	 2.113845298654391e-001	 1.988797839929521e+000	-2.278004124912016e+001
1	 1.918824404533524e-001	 1.990774042583062e+000	-2.286555300934524e+001
1	 1.854860659714354e-001	 1.924411866345337e+000	-2.920433865745212e+001
1	 1.666795873163122e-001	 1.926131854578701e+000	-2.929326926912341e+001
1	 1.479239976651079e-001	 1.927662937623752e+000	-2.931889931532200e+001
1	 1.292217968681999e-001	 1.929006885470733e+000	-2.927640526636348e+001
1	 1.105754314834638e-001	 1.930165502693479e+000	-2.916109279821479e+001
1	 9.198729443641961e-002	 1.931140626858904e+000	-2.896840087199162e+001
1	 7.345972473058783e-002	 1.931934126944898e+000	-2.869390550148641e+001
1	 5.499500720709370e-002	 1.932547901768176e+000	-2.833332321147049e+001
1	 3.659537235251258e-002	 1.932983878423570e+000	-2.788251419008412e+001
1	 1.826299615391188e-002	 1.933244010736185e+000	-2.733748513917580e+001
1	 0.000000000000000e+000	 1.933330277727777e+000	-2.669439182695611e+001
1	 1.861257146959756e-001	 1.931048200924337e+000	-2.862494796584413e+001
1	 1.672543818963985e-001	 1.932774120537524e+000	-2.871005885485215e+001
1	 1.484341135914299e-001	 1.934310483522944e+000	-2.873359187783267e+001
1	 1.296674182522143e-001	 1.935659065974620e+000	-2.869048835016637e+001
1	 1.109567508736156e-001	 1.936821678689428e+000	-2.857581985027692e+001
1	 9.230451263318920e-002	 1.937800165571101e+000	-2.838479266128604e+001
1	 7.371305060054152e-002	 1.938596402042668e+000	-2.811275188747464e+001
1	 5.518465749610375e-002	 1.939212293468885e+000	-2.775518524808567e+001
1	 3.672157149831509e-002	 1.939649773590140e+000	-2.730772655161494e+001
1	 1.832597609816476e-002	 1.939910802969275e+000	-2.676615885430415e+001
1	 0.000000000000000e+000	 1.939997367452674e+000	-2.612641730710723e+001
1	 1.867653638997075e-001	 1.937684540481774e+000	-2.803328016627279e+001
1	 1.678291769069630e-001	 1.939416391479403e+000	-2.811445022948609e+001
1	 1.489442298996582e-001	 1.940958034409341e+000	-2.813587875219231e+001
1	 1.301130399697185e-001	 1.942311251469391e+000	-2.809224431434464e+001
1	 1.113380705490088e-001	 1.943477859679464e+000	-2.797835519172552e+001
1	 9.262173106713363e-002	 1.944459709280108e+000	-2.778915425045352e+001
1	 7.396637665979752e-002	 1.945258682139485e+000	-2.751972350282838e+001
1	 5.537430792675029e-002	 1.945876690170387e+000	-2.716528832667894e+001
1	 3.684777073830714e-002	 1.946315673758754e+000	-2.672122135103838e+001
1	 1.838895608939113e-002	 1.946577600205162e+000	-2.618304601158134e+001
1	 0.000000000000000e+000	 1.946664462180621e+000	-2.554643977985305e+001
1	 1.874050124632389e-001	 1.944320873404466e+000	-2.742940033607136e+001
1	 1.684039713421517e-001	 1.946058655780712e+000	-2.750654114824223e+001
1	 1.494543456971769e-001	 1.947605578650012e+000	-2.752587187071338e+001
1	 1.305586612410129e-001	 1.948963430313925e+000	-2.748178111269374e+001
1	 1.117193898425177e-001	 1.950134034015393e+000	-2.736878499689770e+001
1	 9.293894918333731e-002	 1.951119246331762e+000	-2.718153259710196e+001
1	 7.421970246526738e-002	 1.951920955576322e+000	-2.691481102332018e+001
1	 5.556395816736891e-002	 1.952541080209884e+000	-2.656355015624080e+001
1	 3.697396985182630e-002	 1.952981567263934e+000	-2.612282703327880e+001
1	 1.845193601748944e-002	 1.953244390776765e+000	-2.558786988925326e+001
1	 0.000000000000000e+000	 1.953331550244001e+000	-2.495406185534657e+001
1	 1.880446592671768e-001	 1.950957188079231e+000	-2.681337249523166e+001
1	 1.689787641961108e-001	 1.952700901817834e+000	-2.688642786291210e+001
1	 1.499644600913704e-001	 1.954253104612022e+000	-2.690368146958566e+001
1	 1.310042812863981e-001	 1.955615590867102e+000	-2.685920505853627e+001
1	 1.121007080870163e-001	 1.956790190049017e+000	-2.674719409847462e+001
1	 9.325616642688482e-002	 1.957778765071903e+000	-2.656197385384504e+001
1	 7.447302757386264e-002	 1.958583210694152e+000	-2.629800508878367e+001
1	 5.575360788629531e-002	 1.959205451924581e+000	-2.594988940569884e+001
1	 3.710016861821008e-002	 1.959647442440198e+000	-2.551237422020462e+001
1	 1.851491577235813e-002	 1.959911163016998e+000	-2.498035737485251e+001
1	 0.000000000000000e+000	 1.959998619975199e+000	-2.434889139480842e+001
1	 1.886843031921287e-001	 1.957593472892883e+000	-2.618525962209068e+001
1	 1.695535544629862e-001	 1.959343117967145e+000	-2.625420514509470e+001
1	 1.504745721896229e-001	 1.960900600662440e+000	-2.626941611537770e+001
1	 1.314498993261746e-001	 1.962267721487796e+000	-2.622462085030098e+001
1	 1.124820246153789e-001	 1.963446316132141e+000	-2.611366600802733e+001
1	 9.357338224286063e-002	 1.964438253846369e+000	-2.593052337978926e+001
1	 7.472635154249487e-002	 1.965245435833950e+000	-2.566929630160174e+001
1	 5.594325675186510e-002	 1.965869793651682e+000	-2.532422568555506e+001
1	 3.722636681679602e-002	 1.966313287622068e+000	-2.488969567165283e+001
1	 1.857789524389567e-002	 1.966577905258778e+000	-2.436023890193896e+001
1	 0.000000000000000e+000	 1.966665659706596e+000	-2.373054141940606e+001
1	 1.893239431187017e-001	 1.964229716232240e+000	-2.554512366870578e+001
1	 1.701283411369239e-001	 1.965985292605024e+000	-2.560996630896383e+001
1	 1.509846810993186e-001	 1.967548055168333e+000	-2.562318273101277e+001
1	 1.318955145806430e-001	 1.968919810534888e+000	-2.557813159659590e+001
1	 1.128633387604796e-001	 1.970102400616570e+000	-2.546828293615440e+001
1	 9.389059607634927e-002	 1.971097701000996e+000	-2.528722575179037e+001
1	 7.497967392807554e-002	 1.971907619336689e+000	-2.502867522522150e+001
1	 5.613290443241391e-002	 1.972534093728390e+000	-2.468647952988176e+001
1	 3.735256422692166e-002	 1.972979091144063e+000	-2.425462624721968e+001
1	 1.864087432200049e-002	 1.973244605835021e+000	-2.372724838808605e+001
1	 0.000000000000000e+000	 1.973332657770577e+000	-2.309863002093080e+001
1	 1.899635779275033e-001	 1.970865906484120e+000	-2.489302557591797e+001
1	 1.707031232120701e-001	 1.972627414107849e+000	-2.495380323358374e+001
1	 1.514947859278417e-001	 1.974195456496769e+000	-2.496508662122620e+001
1	 1.323411262701038e-001	 1.975571846367256e+000	-2.491983884077797e+001
1	 1.132446498551925e-001	 1.976758431854105e+000	-2.481112581221862e+001
1	 9.420780737243523e-002	 1.977757094881625e+000	-2.463212477548537e+001
1	 7.523299428751630e-002	 1.978569749543343e+000	-2.437613238269316e+001
1	 5.632255059627736e-002	 1.979198340491909e+000	-2.403657237866975e+001
1	 3.747876062792453e-002	 1.979644841340705e+000	-2.360700286879997e+001
1	 1.870385289657105e-002	 1.979911253078644e+000	-2.308112317408689e+001
1	 0.000000000000000e+000	 1.979999602499524e+000	-2.245278027423242e+001
1	 1.906032064991407e-001	 1.977502032035339e+000	-2.422902528811981e+001
1	 1.712778996825707e-001	 1.979269470851999e+000	-2.428580638478163e+001
1	 1.520048857825763e-001	 1.980842793014815e+000	-2.429523149751681e+001
1	 1.327867336148576e-001	 1.982223817343778e+000	-2.424984258503922e+001
1	 1.136259572323918e-001	 1.983414398196552e+000	-2.414227430368949e+001
1	 9.452501557620298e-002	 1.984416423834092e+000	-2.396526349610059e+001
1	 7.548631217772864e-002	 1.985231814794886e+000	-2.371165825523394e+001
1	 5.651219491179111e-002	 1.985862522279442e+000	-2.337442656051567e+001
1	 3.760495579914217e-002	 1.986310526546513e+000	-2.294666448385871e+001
1	 1.876683085750579e-002	 1.986577835322561e+000	-2.242160396435086e+001
1	 0.000000000000000e+000	 1.986666482225822e+000	-2.179262015136813e+001
1	 1.912428277142213e-001	 1.984138081272714e+000	-2.355318176772350e+001
1	 1.718526695425717e-001	 1.985911451213851e+000	-2.360606483658292e+001
1	 1.525149797709069e-001	 1.987490053089539e+000	-2.361371950261026e+001
1	 1.332323358352050e-001	 1.988875711823331e+000	-2.356824131401328e+001
1	 1.140072602249516e-001	 1.990070287995715e+000	-2.346180683510293e+001
1	 9.484222013273704e-002	 1.991075676204236e+000	-2.328668420904569e+001
1	 7.573962715562410e-002	 1.991893803432292e+000	-2.303524328081604e+001
1	 5.670183704729077e-002	 1.992526627428193e+000	-2.269996527564865e+001
1	 3.773114951991211e-002	 1.992976135096009e+000	-2.227345202941760e+001
1	 1.882980809470318e-002	 1.993244340899691e+000	-2.174843476846094e+001
1	 0.000000000000000e+000	 1.993333285281853e+000	-2.111778243743111e+001
1	 1.918824404533524e-001	 1.990774042583062e+000	-2.286555300934524e+001
1	 1.724274317862193e-001	 1.992553343569785e+000	-2.291466629223021e+001
1	 1.530250670002175e-001	 1.994137225088007e+000	-2.292065123443303e+001
1	 1.336779321514465e-001	 1.995527518164795e+000	-2.287513201791841e+001
1	 1.143885581657461e-001	 1.996726089603397e+000	-2.276980060664711e+001
1	 9.515942048712194e-002	 1.997734840337895e+000	-2.259642847029523e+001
1	 7.599293877811425e-002	 1.998555703796535e+000	-2.234687785277586e+001
1	 5.689147667111200e-002	 1.999190644275366e+000	-2.201311257927917e+001
1	 3.785734156957191e-002	 1.999641655323712e+000	-2.158720839673978e+001
1	 1.889278449806165e-002	 1.999910758142949e+000	-2.106136284387064e+001
1	 0.000000000000000e+000	 2.000000000000000e+000	-2.042790464801695e+001
