patch_n	x	y	stress_yy
0	 0.000000000000000e+00	 0.000000000000000e+00	 9.999998884415385e+00
0	 0.000000000000000e+00	 1.428576234225853e-01	 9.999999150629018e+00
0	 0.000000000000000e+00	 2.857161301906819e-01	 9.999999383866362e+00
0	 0.000000000000000e+00	 4.285754036348007e-01	 9.999999584128563e+00
0	 0.000000000000000e+00	 5.714353270854531e-01	 9.999999751416597e+00
0	 0.000000000000000e+00	 7.142957838731496e-01	 9.999999885731281e+00
0	 0.000000000000000e+00	 8.571566573284017e-01	 9.999999987073281e+00
0	 0.000000000000000e+00	 1.000017830781720e+00	 1.000000005544308e+01
0	 0.000000000000000e+00	 1.142879187563616e+00	 1.000000009084103e+01
0	 0.000000000000000e+00	 1.285740611004601e+00	 1.000000009326730e+01
0	 0.000000000000000e+00	 1.428601984435185e+00	 1.000000006272189e+01
0	 1.428576234225853e-01	 0.000000000000000e+00	 9.999998880375927e+00
0	 1.428576234225853e-01	 1.428576234225853e-01	 9.999999146589563e+00
0	 1.428576234225853e-01	 2.857161301906819e-01	 9.999999379826907e+00
0	 1.428576234225853e-01	 4.285754036348008e-01	 9.999999580089103e+00
0	 1.428576234225852e-01	 5.714353270854531e-01	 9.999999747377139e+00
0	 1.428576234225853e-01	 7.142957838731498e-01	 9.999999881691824e+00
0	 1.428576234225853e-01	 8.571566573284018e-01	 9.999999983033820e+00
0	 1.428576234225852e-01	 1.000017830781720e+00	 1.000000005140362e+01
0	 1.428576234225852e-01	 1.142879187563616e+00	 1.000000008680157e+01
0	 1.428576234225852e-01	 1.285740611004601e+00	 1.000000008922784e+01
0	 1.428576234225853e-01	 1.428601984435185e+00	 1.000000005868243e+01
0	 2.857161301906819e-01	 0.000000000000000e+00	 9.999998868257642e+00
0	 2.857161301906819e-01	 1.428576234225853e-01	 9.999999134471281e+00
0	 2.857161301906819e-01	 2.857161301906819e-01	 9.999999367708623e+00
0	 2.857161301906818e-01	 4.285754036348007e-01	 9.999999567970825e+00
0	 2.857161301906819e-01	 5.714353270854529e-01	 9.999999735258863e+00
0	 2.857161301906819e-01	 7.142957838731496e-01	 9.999999869573541e+00
0	 2.857161301906818e-01	 8.571566573284015e-01	 9.999999970915539e+00
0	 2.857161301906820e-01	 1.000017830781720e+00	 1.000000003928535e+01
0	 2.857161301906820e-01	 1.142879187563616e+00	 1.000000007468330e+01
0	 2.857161301906819e-01	 1.285740611004601e+00	 1.000000007710956e+01
0	 2.857161301906818e-01	 1.428601984435185e+00	 1.000000004656415e+01
0	 4.285754036348007e-01	 0.000000000000000e+00	 9.999998848060653e+00
0	 4.285754036348006e-01	 1.428576234225853e-01	 9.999999114274285e+00
0	 4.285754036348008e-01	 2.857161301906818e-01	 9.999999347511633e+00
0	 4.285754036348008e-01	 4.285754036348008e-01	 9.999999547773827e+00
0	 4.285754036348007e-01	 5.714353270854531e-01	 9.999999715061865e+00
0	 4.285754036348008e-01	 7.142957838731498e-01	 9.999999849376550e+00
0	 4.285754036348007e-01	 8.571566573284016e-01	 9.999999950718548e+00
0	 4.285754036348007e-01	 1.000017830781720e+00	 1.000000001908835e+01
0	 4.285754036348008e-01	 1.142879187563616e+00	 1.000000005448630e+01
0	 4.285754036348006e-01	 1.285740611004600e+00	 1.000000005691257e+01
0	 4.285754036348007e-01	 1.428601984435185e+00	 1.000000002636716e+01
0	 5.714353270854531e-01	 0.000000000000000e+00	 9.999998819785015e+00
0	 5.714353270854530e-01	 1.428576234225852e-01	 9.999999085998653e+00
0	 5.714353270854530e-01	 2.857161301906819e-01	 9.999999319236004e+00
0	 5.714353270854532e-01	 4.285754036348007e-01	 9.999999519498193e+00
0	 5.714353270854529e-01	 5.714353270854530e-01	 9.999999686786232e+00
0	 5.714353270854530e-01	 7.142957838731496e-01	 9.999999821100912e+00
0	 5.714353270854532e-01	 8.571566573284020e-01	 9.999999922442910e+00
0	 5.714353270854530e-01	 1.000017830781720e+00	 9.999999990812718e+00
0	 5.714353270854532e-01	 1.142879187563616e+00	 1.000000002621067e+01
0	 5.714353270854529e-01	 1.285740611004601e+00	 1.000000002863693e+01
0	 5.714353270854529e-01	 1.428601984435185e+00	 9.999999998091521e+00
0	 7.142957838731496e-01	 0.000000000000000e+00	 9.999998783430772e+00
0	 7.142957838731498e-01	 1.428576234225853e-01	 9.999999049644405e+00
0	 7.142957838731496e-01	 2.857161301906819e-01	 9.999999282881754e+00
0	 7.142957838731497e-01	 4.285754036348007e-01	 9.999999483143947e+00
0	 7.142957838731496e-01	 5.714353270854529e-01	 9.999999650431985e+00
0	 7.142957838731497e-01	 7.142957838731497e-01	 9.999999784746667e+00
0	 7.142957838731497e-01	 8.571566573284020e-01	 9.999999886088666e+00
0	 7.142957838731496e-01	 1.000017830781720e+00	 9.999999954458472e+00
0	 7.142957838731496e-01	 1.142879187563616e+00	 9.999999989856420e+00
0	 7.142957838731497e-01	 1.285740611004601e+00	 9.999999992282685e+00
0	 7.142957838731497e-01	 1.428601984435185e+00	 9.999999961737277e+00
0	 8.571566573284017e-01	 0.000000000000000e+00	 9.999998738997906e+00
0	 8.571566573284018e-01	 1.428576234225853e-01	 9.999999005211544e+00
0	 8.571566573284014e-01	 2.857161301906818e-01	 9.999999238448883e+00
0	 8.571566573284018e-01	 4.285754036348008e-01	 9.999999438711086e+00
0	 8.571566573284018e-01	 5.714353270854531e-01	 9.999999605999115e+00
0	 8.571566573284018e-01	 7.142957838731497e-01	 9.999999740313800e+00
0	 8.571566573284016e-01	 8.571566573284015e-01	 9.999999841655798e+00
0	 8.571566573284016e-01	 1.000017830781720e+00	 9.999999910025606e+00
0	 8.571566573284016e-01	 1.142879187563616e+00	 9.999999945423557e+00
0	 8.571566573284015e-01	 1.285740611004601e+00	 9.999999947849819e+00
0	 8.571566573284016e-01	 1.428601984435186e+00	 9.999999917304411e+00
0	 1.000017830781720e+00	 0.000000000000000e+00	 9.999998686486375e+00
0	 1.000017830781720e+00	 1.428576234225853e-01	 9.999998952700015e+00
0	 1.000017830781720e+00	 2.857161301906819e-01	 9.999999185937359e+00
0	 1.000017830781720e+00	 4.285754036348007e-01	 9.999999386199550e+00
0	 1.000017830781720e+00	 5.714353270854530e-01	 9.999999553487584e+00
0	 1.000017830781720e+00	 7.142957838731496e-01	 9.999999687802271e+00
0	 1.000017830781720e+00	 8.571566573284017e-01	 9.999999789144269e+00
0	 1.000017830781720e+00	 1.000017830781720e+00	 9.999999857514075e+00
0	 1.000017830781720e+00	 1.142879187563616e+00	 9.999999892912024e+00
0	 1.000017830781720e+00	 1.285740611004601e+00	 9.999999895338282e+00
0	 1.000017830781720e+00	 1.428601984435185e+00	 9.999999864792880e+00
0	 1.142879187563616e+00	 0.000000000000000e+00	 9.999998625896083e+00
0	 1.142879187563616e+00	 1.428576234225853e-01	 9.999998892109716e+00
0	 1.142879187563616e+00	 2.857161301906820e-01	 9.999999125347067e+00
0	 1.142879187563616e+00	 4.285754036348008e-01	 9.999999325609263e+00
0	 1.142879187563616e+00	 5.714353270854530e-01	 9.999999492897299e+00
0	 1.142879187563616e+00	 7.142957838731495e-01	 9.999999627211986e+00
0	 1.142879187563616e+00	 8.571566573284016e-01	 9.999999728553981e+00
0	 1.142879187563616e+00	 1.000017830781720e+00	 9.999999796923788e+00
0	 1.142879187563616e+00	 1.142879187563616e+00	 9.999999832321738e+00
0	 1.142879187563616e+00	 1.285740611004601e+00	 9.999999834747998e+00
0	 1.142879187563616e+00	 1.428601984435185e+00	 9.999999804202591e+00
0	 1.285740611004601e+00	 0.000000000000000e+00	 9.999998557226915e+00
0	 1.285740611004601e+00	 1.428576234225853e-01	 9.999998823440549e+00
0	 1.285740611004601e+00	 2.857161301906819e-01	 9.999999056677899e+00
0	 1.285740611004601e+00	 4.285754036348007e-01	 9.999999256940097e+00
0	 1.285740611004601e+00	 5.714353270854530e-01	 9.999999424228127e+00
0	 1.285740611004601e+00	 7.142957838731497e-01	 9.999999558542816e+00
0	 1.285740611004601e+00	 8.571566573284016e-01	 9.999999659884811e+00
0	 1.285740611004601e+00	 1.000017830781720e+00	 9.999999728254615e+00
0	 1.285740611004601e+00	 1.142879187563616e+00	 9.999999763652568e+00
0	 1.285740611004601e+00	 1.285740611004601e+00	 9.999999766078830e+00
0	 1.285740611004601e+00	 1.428601984435186e+00	 9.999999735533422e+00
0	 1.428601984435185e+00	 0.000000000000000e+00	 9.999998480478697e+00
0	 1.428601984435185e+00	 1.428576234225853e-01	 9.999998746692333e+00
0	 1.428601984435185e+00	 2.857161301906819e-01	 9.999998979929680e+00
0	 1.428601984435185e+00	 4.285754036348007e-01	 9.999999180191875e+00
0	 1.428601984435185e+00	 5.714353270854530e-01	 9.999999347479907e+00
0	 1.428601984435185e+00	 7.142957838731498e-01	 9.999999481794598e+00
0	 1.428601984435185e+00	 8.571566573284015e-01	 9.999999583136594e+00
0	 1.428601984435185e+00	 1.000017830781720e+00	 9.999999651506403e+00
0	 1.428601984435185e+00	 1.142879187563616e+00	 9.999999686904351e+00
0	 1.428601984435185e+00	 1.285740611004601e+00	 9.999999689330613e+00
0	 1.428601984435185e+00	 1.428601984435185e+00	 9.999999658785203e+00
0	 0.000000000000000e+00	 1.428601984435185e+00	 1.000000006272189e+01
0	 0.000000000000000e+00	 1.571453213328422e+00	 1.000000001804096e+01
0	 0.000000000000000e+00	 1.714304292230859e+00	 9.999999978054184e+00
0	 0.000000000000000e+00	 1.857155237808251e+00	 9.999999942761576e+00
0	 0.000000000000000e+00	 2.000006066726355e+00	 9.999999912163165e+00
0	 0.000000000000000e+00	 2.142856795650925e+00	 9.999999886258976e+00
0	 0.000000000000000e+00	 2.285707441247718e+00	 9.999999865049027e+00
0	 0.000000000000000e+00	 2.428558020182488e+00	 9.999999848533326e+00
0	 0.000000000000000e+00	 2.571408549120992e+00	 9.999999836711890e+00
0	 0.000000000000000e+00	 2.714259044728984e+00	 9.999999829584727e+00
0	 0.000000000000000e+00	 2.857109523672222e+00	 9.999999827151839e+00
0	 1.428576234225853e-01	 1.428601984435185e+00	 1.000000005868243e+01
0	 1.428576234225853e-01	 1.571453213328422e+00	 1.000000001400151e+01
0	 1.428576234225853e-01	 1.714304292230859e+00	 9.999999974014727e+00
0	 1.428576234225853e-01	 1.857155237808252e+00	 9.999999938722121e+00
0	 1.428576234225853e-01	 2.000006066726355e+00	 9.999999908123707e+00
0	 1.428576234225852e-01	 2.142856795650925e+00	 9.999999882219518e+00
0	 1.428576234225852e-01	 2.285707441247718e+00	 9.999999861009570e+00
0	 1.428576234225853e-01	 2.428558020182487e+00	 9.999999844493866e+00
0	 1.428576234225853e-01	 2.571408549120992e+00	 9.999999832672430e+00
0	 1.428576234225852e-01	 2.714259044728985e+00	 9.999999825545270e+00
0	 1.428576234225852e-01	 2.857109523672222e+00	 9.999999823112381e+00
0	 2.857161301906818e-01	 1.428601984435185e+00	 1.000000004656415e+01
0	 2.857161301906819e-01	 1.571453213328422e+00	 1.000000000188322e+01
0	 2.857161301906819e-01	 1.714304292230859e+00	 9.999999961896439e+00
0	 2.857161301906819e-01	 1.857155237808251e+00	 9.999999926603836e+00
0	 2.857161301906818e-01	 2.000006066726355e+00	 9.999999896005427e+00
0	 2.857161301906819e-01	 2.142856795650925e+00	 9.999999870101238e+00
0	 2.857161301906819e-01	 2.285707441247718e+00	 9.999999848891282e+00
0	 2.857161301906818e-01	 2.428558020182487e+00	 9.999999832375591e+00
0	 2.857161301906819e-01	 2.571408549120991e+00	 9.999999820554157e+00
0	 2.857161301906819e-01	 2.714259044728984e+00	 9.999999813426989e+00
0	 2.857161301906819e-01	 2.857109523672222e+00	 9.999999810994105e+00
0	 4.285754036348007e-01	 1.428601984435185e+00	 1.000000002636716e+01
0	 4.285754036348008e-01	 1.571453213328422e+00	 9.999999981686228e+00
0	 4.285754036348006e-01	 1.714304292230859e+00	 9.999999941699452e+00
0	 4.285754036348008e-01	 1.857155237808252e+00	 9.999999906406844e+00
0	 4.285754036348006e-01	 2.000006066726355e+00	 9.999999875808433e+00
0	 4.285754036348006e-01	 2.142856795650925e+00	 9.999999849904244e+00
0	 4.285754036348008e-01	 2.285707441247718e+00	 9.999999828694294e+00
0	 4.285754036348007e-01	 2.428558020182488e+00	 9.999999812178597e+00
0	 4.285754036348007e-01	 2.571408549120991e+00	 9.999999800357159e+00
0	 4.285754036348007e-01	 2.714259044728984e+00	 9.999999793229989e+00
0	 4.285754036348007e-01	 2.857109523672222e+00	 9.999999790797103e+00
0	 5.714353270854529e-01	 1.428601984435185e+00	 9.999999998091523e+00
0	 5.714353270854529e-01	 1.571453213328422e+00	 9.999999953410601e+00
0	 5.714353270854529e-01	 1.714304292230859e+00	 9.999999913423817e+00
0	 5.714353270854529e-01	 1.857155237808251e+00	 9.999999878131213e+00
0	 5.714353270854530e-01	 2.000006066726355e+00	 9.999999847532806e+00
0	 5.714353270854530e-01	 2.142856795650926e+00	 9.999999821628609e+00
0	 5.714353270854529e-01	 2.285707441247718e+00	 9.999999800418660e+00
0	 5.714353270854531e-01	 2.428558020182488e+00	 9.999999783902958e+00
0	 5.714353270854529e-01	 2.571408549120991e+00	 9.999999772081523e+00
0	 5.714353270854530e-01	 2.714259044728984e+00	 9.999999764954358e+00
0	 5.714353270854531e-01	 2.857109523672222e+00	 9.999999762521472e+00
0	 7.142957838731497e-01	 1.428601984435185e+00	 9.999999961737277e+00
0	 7.142957838731496e-01	 1.571453213328422e+00	 9.999999917056350e+00
0	 7.142957838731497e-01	 1.714304292230859e+00	 9.999999877069570e+00
0	 7.142957838731497e-01	 1.857155237808251e+00	 9.999999841776967e+00
0	 7.142957838731495e-01	 2.000006066726355e+00	 9.999999811178558e+00
0	 7.142957838731497e-01	 2.142856795650925e+00	 9.999999785274369e+00
0	 7.142957838731496e-01	 2.285707441247718e+00	 9.999999764064409e+00
0	 7.142957838731498e-01	 2.428558020182488e+00	 9.999999747548710e+00
0	 7.142957838731497e-01	 2.571408549120993e+00	 9.999999735727277e+00
0	 7.142957838731496e-01	 2.714259044728984e+00	 9.999999728600113e+00
0	 7.142957838731497e-01	 2.857109523672223e+00	 9.999999726167225e+00
0	 8.571566573284016e-01	 1.428601984435186e+00	 9.999999917304411e+00
0	 8.571566573284018e-01	 1.571453213328422e+00	 9.999999872623491e+00
0	 8.571566573284013e-01	 1.714304292230859e+00	 9.999999832636707e+00
0	 8.571566573284015e-01	 1.857155237808251e+00	 9.999999797344099e+00
0	 8.571566573284017e-01	 2.000006066726355e+00	 9.999999766745692e+00
0	 8.571566573284016e-01	 2.142856795650925e+00	 9.999999740841503e+00
0	 8.571566573284014e-01	 2.285707441247718e+00	 9.999999719631541e+00
0	 8.571566573284016e-01	 2.428558020182488e+00	 9.999999703115847e+00
0	 8.571566573284018e-01	 2.571408549120991e+00	 9.999999691294413e+00
0	 8.571566573284018e-01	 2.714259044728983e+00	 9.999999684167250e+00
0	 8.571566573284016e-01	 2.857109523672222e+00	 9.999999681734366e+00
0	 1.000017830781720e+00	 1.428601984435185e+00	 9.999999864792880e+00
0	 1.000017830781720e+00	 1.571453213328422e+00	 9.999999820111954e+00
0	 1.000017830781720e+00	 1.714304292230858e+00	 9.999999780125179e+00
0	 1.000017830781720e+00	 1.857155237808251e+00	 9.999999744832566e+00
0	 1.000017830781720e+00	 2.000006066726355e+00	 9.999999714234161e+00
0	 1.000017830781720e+00	 2.142856795650925e+00	 9.999999688329968e+00
0	 1.000017830781720e+00	 2.285707441247718e+00	 9.999999667120010e+00
0	 1.000017830781720e+00	 2.428558020182488e+00	 9.999999650604316e+00
0	 1.000017830781720e+00	 2.571408549120993e+00	 9.999999638782878e+00
0	 1.000017830781720e+00	 2.714259044728984e+00	 9.999999631655717e+00
0	 1.000017830781720e+00	 2.857109523672222e+00	 9.999999629222827e+00
0	 1.142879187563616e+00	 1.428601984435185e+00	 9.999999804202588e+00
0	 1.142879187563616e+00	 1.571453213328422e+00	 9.999999759521668e+00
0	 1.142879187563616e+00	 1.714304292230859e+00	 9.999999719534880e+00
0	 1.142879187563616e+00	 1.857155237808251e+00	 9.999999684242278e+00
0	 1.142879187563616e+00	 2.000006066726355e+00	 9.999999653643869e+00
0	 1.142879187563616e+00	 2.142856795650926e+00	 9.999999627739680e+00
0	 1.142879187563617e+00	 2.285707441247718e+00	 9.999999606529730e+00
0	 1.142879187563616e+00	 2.428558020182489e+00	 9.999999590014031e+00
0	 1.142879187563616e+00	 2.571408549120992e+00	 9.999999578192597e+00
0	 1.142879187563616e+00	 2.714259044728984e+00	 9.999999571065429e+00
0	 1.142879187563616e+00	 2.857109523672222e+00	 9.999999568632541e+00
0	 1.285740611004601e+00	 1.428601984435186e+00	 9.999999735533418e+00
0	 1.285740611004601e+00	 1.571453213328422e+00	 9.999999690852500e+00
0	 1.285740611004601e+00	 1.714304292230859e+00	 9.999999650865711e+00
0	 1.285740611004601e+00	 1.857155237808252e+00	 9.999999615573110e+00
0	 1.285740611004601e+00	 2.000006066726355e+00	 9.999999584974697e+00
0	 1.285740611004601e+00	 2.142856795650926e+00	 9.999999559070510e+00
0	 1.285740611004601e+00	 2.285707441247718e+00	 9.999999537860559e+00
0	 1.285740611004601e+00	 2.428558020182488e+00	 9.999999521344852e+00
0	 1.285740611004601e+00	 2.571408549120992e+00	 9.999999509523422e+00
0	 1.285740611004601e+00	 2.714259044728984e+00	 9.999999502396262e+00
0	 1.285740611004601e+00	 2.857109523672222e+00	 9.999999499963371e+00
0	 1.428601984435185e+00	 1.428601984435185e+00	 9.999999658785205e+00
0	 1.428601984435185e+00	 1.571453213328422e+00	 9.999999614104278e+00
0	 1.428601984435185e+00	 1.714304292230859e+00	 9.999999574117501e+00
0	 1.428601984435185e+00	 1.857155237808251e+00	 9.999999538824891e+00
0	 1.428601984435185e+00	 2.000006066726356e+00	 9.999999508226479e+00
0	 1.428601984435185e+00	 2.142856795650925e+00	 9.999999482322291e+00
0	 1.428601984435185e+00	 2.285707441247717e+00	 9.999999461112340e+00
0	 1.428601984435185e+00	 2.428558020182488e+00	 9.999999444596639e+00
0	 1.428601984435185e+00	 2.571408549120992e+00	 9.999999432775203e+00
0	 1.428601984435185e+00	 2.714259044728984e+00	 9.999999425648042e+00
0	 1.428601984435186e+00	 2.857109523672222e+00	 9.999999423215153e+00
0	 0.000000000000000e+00	 2.857109523672222e+00	 9.999999827151839e+00
0	 0.000000000000000e+00	 2.999969994316576e+00	 9.999999827070374e+00
0	 0.000000000000000e+00	 3.142830431628385e+00	 9.999999826997485e+00
0	 0.000000000000000e+00	 3.285690802274106e+00	 9.999999826933172e+00
0	 0.000000000000000e+00	 3.428551072920193e+00	 9.999999826877429e+00
0	 0.000000000000000e+00	 3.571411210233102e+00	 9.999999826830269e+00
0	 0.000000000000000e+00	 3.714271180879290e+00	 9.999999826791674e+00
0	 0.000000000000000e+00	 3.857130951525210e+00	 9.999999826761661e+00
0	 0.000000000000000e+00	 3.999990488837320e+00	 9.999999826740225e+00
0	 0.000000000000000e+00	 4.142849759482075e+00	 9.999999826727370e+00
0	 0.000000000000000e+00	 4.285708730125926e+00	 9.999999826723073e+00
0	 1.428576234225852e-01	 2.857109523672222e+00	 9.999999823112379e+00
0	 1.428576234225853e-01	 2.999969994316577e+00	 9.999999823030915e+00
0	 1.428576234225853e-01	 3.142830431628385e+00	 9.999999822958024e+00
0	 1.428576234225852e-01	 3.285690802274106e+00	 9.999999822893706e+00
0	 1.428576234225853e-01	 3.428551072920194e+00	 9.999999822837971e+00
0	 1.428576234225853e-01	 3.571411210233103e+00	 9.999999822790812e+00
0	 1.428576234225853e-01	 3.714271180879289e+00	 9.999999822752221e+00
0	 1.428576234225853e-01	 3.857130951525211e+00	 9.999999822722213e+00
0	 1.428576234225852e-01	 3.999990488837319e+00	 9.999999822700767e+00
0	 1.428576234225853e-01	 4.142849759482075e+00	 9.999999822687911e+00
0	 1.428576234225852e-01	 4.285708730125926e+00	 9.999999822683614e+00
0	 2.857161301906819e-01	 2.857109523672222e+00	 9.999999810994105e+00
0	 2.857161301906819e-01	 2.999969994316575e+00	 9.999999810912636e+00
0	 2.857161301906819e-01	 3.142830431628385e+00	 9.999999810839746e+00
0	 2.857161301906819e-01	 3.285690802274106e+00	 9.999999810775432e+00
0	 2.857161301906819e-01	 3.428551072920194e+00	 9.999999810719691e+00
0	 2.857161301906819e-01	 3.571411210233102e+00	 9.999999810672533e+00
0	 2.857161301906818e-01	 3.714271180879289e+00	 9.999999810633939e+00
0	 2.857161301906819e-01	 3.857130951525211e+00	 9.999999810603924e+00
0	 2.857161301906819e-01	 3.999990488837321e+00	 9.999999810582487e+00
0	 2.857161301906818e-01	 4.142849759482075e+00	 9.999999810569623e+00
0	 2.857161301906819e-01	 4.285708730125925e+00	 9.999999810565335e+00
0	 4.285754036348007e-01	 2.857109523672222e+00	 9.999999790797103e+00
0	 4.285754036348007e-01	 2.999969994316576e+00	 9.999999790715643e+00
0	 4.285754036348007e-01	 3.142830431628386e+00	 9.999999790642752e+00
0	 4.285754036348006e-01	 3.285690802274104e+00	 9.999999790578446e+00
0	 4.285754036348007e-01	 3.428551072920193e+00	 9.999999790522697e+00
0	 4.285754036348008e-01	 3.571411210233103e+00	 9.999999790475540e+00
0	 4.285754036348006e-01	 3.714271180879290e+00	 9.999999790436949e+00
0	 4.285754036348008e-01	 3.857130951525211e+00	 9.999999790406932e+00
0	 4.285754036348007e-01	 3.999990488837320e+00	 9.999999790385493e+00
0	 4.285754036348008e-01	 4.142849759482075e+00	 9.999999790372632e+00
0	 4.285754036348006e-01	 4.285708730125925e+00	 9.999999790368339e+00
0	 5.714353270854531e-01	 2.857109523672222e+00	 9.999999762521472e+00
0	 5.714353270854530e-01	 2.999969994316577e+00	 9.999999762440012e+00
0	 5.714353270854531e-01	 3.142830431628385e+00	 9.999999762367118e+00
0	 5.714353270854531e-01	 3.285690802274106e+00	 9.999999762302799e+00
0	 5.714353270854531e-01	 3.428551072920194e+00	 9.999999762247066e+00
0	 5.714353270854531e-01	 3.571411210233104e+00	 9.999999762199899e+00
0	 5.714353270854531e-01	 3.714271180879290e+00	 9.999999762161313e+00
0	 5.714353270854530e-01	 3.857130951525211e+00	 9.999999762131303e+00
0	 5.714353270854531e-01	 3.999990488837321e+00	 9.999999762109857e+00
0	 5.714353270854530e-01	 4.142849759482074e+00	 9.999999762096994e+00
0	 5.714353270854529e-01	 4.285708730125925e+00	 9.999999762092706e+00
0	 7.142957838731497e-01	 2.857109523672223e+00	 9.999999726167225e+00
0	 7.142957838731497e-01	 2.999969994316576e+00	 9.999999726085758e+00
0	 7.142957838731496e-01	 3.142830431628385e+00	 9.999999726012870e+00
0	 7.142957838731498e-01	 3.285690802274106e+00	 9.999999725948554e+00
0	 7.142957838731496e-01	 3.428551072920193e+00	 9.999999725892817e+00
0	 7.142957838731497e-01	 3.571411210233103e+00	 9.999999725845651e+00
0	 7.142957838731496e-01	 3.714271180879291e+00	 9.999999725807067e+00
0	 7.142957838731497e-01	 3.857130951525210e+00	 9.999999725777048e+00
0	 7.142957838731495e-01	 3.999990488837320e+00	 9.999999725755613e+00
0	 7.142957838731495e-01	 4.142849759482074e+00	 9.999999725742750e+00
0	 7.142957838731496e-01	 4.285708730125926e+00	 9.999999725738459e+00
0	 8.571566573284016e-01	 2.857109523672222e+00	 9.999999681734362e+00
0	 8.571566573284016e-01	 2.999969994316577e+00	 9.999999681652898e+00
0	 8.571566573284016e-01	 3.142830431628385e+00	 9.999999681580000e+00
0	 8.571566573284013e-01	 3.285690802274105e+00	 9.999999681515693e+00
0	 8.571566573284015e-01	 3.428551072920193e+00	 9.999999681459958e+00
0	 8.571566573284016e-01	 3.571411210233102e+00	 9.999999681412788e+00
0	 8.571566573284016e-01	 3.714271180879289e+00	 9.999999681374199e+00
0	 8.571566573284016e-01	 3.857130951525210e+00	 9.999999681344192e+00
0	 8.571566573284018e-01	 3.999990488837320e+00	 9.999999681322748e+00
0	 8.571566573284016e-01	 4.142849759482073e+00	 9.999999681309880e+00
0	 8.571566573284017e-01	 4.285708730125926e+00	 9.999999681305596e+00
0	 1.000017830781720e+00	 2.857109523672222e+00	 9.999999629222827e+00
0	 1.000017830781720e+00	 2.999969994316575e+00	 9.999999629141366e+00
0	 1.000017830781720e+00	 3.142830431628385e+00	 9.999999629068475e+00
0	 1.000017830781720e+00	 3.285690802274106e+00	 9.999999629004156e+00
0	 1.000017830781720e+00	 3.428551072920193e+00	 9.999999628948423e+00
0	 1.000017830781720e+00	 3.571411210233104e+00	 9.999999628901252e+00
0	 1.000017830781720e+00	 3.714271180879289e+00	 9.999999628862662e+00
0	 1.000017830781720e+00	 3.857130951525210e+00	 9.999999628832651e+00
0	 1.000017830781720e+00	 3.999990488837319e+00	 9.999999628811214e+00
0	 1.000017830781720e+00	 4.142849759482075e+00	 9.999999628798353e+00
0	 1.000017830781720e+00	 4.285708730125927e+00	 9.999999628794068e+00
0	 1.142879187563616e+00	 2.857109523672222e+00	 9.999999568632541e+00
0	 1.142879187563616e+00	 2.999969994316576e+00	 9.999999568551075e+00
0	 1.142879187563616e+00	 3.142830431628385e+00	 9.999999568478184e+00
0	 1.142879187563617e+00	 3.285690802274106e+00	 9.999999568413870e+00
0	 1.142879187563616e+00	 3.428551072920193e+00	 9.999999568358135e+00
0	 1.142879187563616e+00	 3.571411210233102e+00	 9.999999568310971e+00
0	 1.142879187563616e+00	 3.714271180879289e+00	 9.999999568272383e+00
0	 1.142879187563616e+00	 3.857130951525209e+00	 9.999999568242362e+00
0	 1.142879187563616e+00	 3.999990488837320e+00	 9.999999568220929e+00
0	 1.142879187563616e+00	 4.142849759482074e+00	 9.999999568208068e+00
0	 1.142879187563616e+00	 4.285708730125926e+00	 9.999999568203776e+00
0	 1.285740611004601e+00	 2.857109523672222e+00	 9.999999499963369e+00
0	 1.285740611004601e+00	 2.999969994316575e+00	 9.999999499881906e+00
0	 1.285740611004601e+00	 3.142830431628385e+00	 9.999999499809018e+00
0	 1.285740611004601e+00	 3.285690802274106e+00	 9.999999499744707e+00
0	 1.285740611004601e+00	 3.428551072920193e+00	 9.999999499688968e+00
0	 1.285740611004601e+00	 3.571411210233102e+00	 9.999999499641799e+00
0	 1.285740611004601e+00	 3.714271180879289e+00	 9.999999499603206e+00
0	 1.285740611004601e+00	 3.857130951525210e+00	 9.999999499573196e+00
0	 1.285740611004601e+00	 3.999990488837320e+00	 9.999999499551754e+00
0	 1.285740611004601e+00	 4.142849759482074e+00	 9.999999499538898e+00
0	 1.285740611004601e+00	 4.285708730125926e+00	 9.999999499534610e+00
0	 1.428601984435186e+00	 2.857109523672222e+00	 9.999999423215153e+00
0	 1.428601984435185e+00	 2.999969994316576e+00	 9.999999423133694e+00
0	 1.428601984435185e+00	 3.142830431628385e+00	 9.999999423060800e+00
0	 1.428601984435185e+00	 3.285690802274106e+00	 9.999999422996485e+00
0	 1.428601984435185e+00	 3.428551072920192e+00	 9.999999422940745e+00
0	 1.428601984435185e+00	 3.571411210233103e+00	 9.999999422893579e+00
0	 1.428601984435185e+00	 3.714271180879290e+00	 9.999999422854994e+00
0	 1.428601984435185e+00	 3.857130951525209e+00	 9.999999422824976e+00
0	 1.428601984435185e+00	 3.999990488837321e+00	 9.999999422803539e+00
0	 1.428601984435185e+00	 4.142849759482075e+00	 9.999999422790676e+00
0	 1.428601984435185e+00	 4.285708730125926e+00	 9.999999422786390e+00
0	 0.000000000000000e+00	 4.285708730125926e+00	 9.999999826723073e+00
0	 0.000000000000000e+00	 4.428567384102075e+00	 9.999999826723075e+00
0	 0.000000000000000e+00	 4.571425771410668e+00	 9.999999826723080e+00
0	 0.000000000000000e+00	 4.714283958718593e+00	 9.999999826723073e+00
0	 0.000000000000000e+00	 4.857142012692742e+00	 9.999999826723073e+00
0	 0.000000000000000e+00	 5.000000000000002e+00	 9.999999826723071e+00
0	 0.000000000000000e+00	 5.142857987307262e+00	 9.999999826723080e+00
0	 0.000000000000000e+00	 5.285716041281409e+00	 9.999999826723073e+00
0	 0.000000000000000e+00	 5.428574228589335e+00	 9.999999826723080e+00
0	 0.000000000000000e+00	 5.571432615897928e+00	 9.999999826723080e+00
0	 0.000000000000000e+00	 5.714291269874075e+00	 9.999999826723085e+00
0	 1.428576234225852e-01	 4.285708730125926e+00	 9.999999822683614e+00
0	 1.428576234225853e-01	 4.428567384102072e+00	 9.999999822683623e+00
0	 1.428576234225853e-01	 4.571425771410667e+00	 9.999999822683616e+00
0	 1.428576234225853e-01	 4.714283958718593e+00	 9.999999822683622e+00
0	 1.428576234225852e-01	 4.857142012692741e+00	 9.999999822683627e+00
0	 1.428576234225853e-01	 5.000000000000004e+00	 9.999999822683613e+00
0	 1.428576234225852e-01	 5.142857987307259e+00	 9.999999822683616e+00
0	 1.428576234225853e-01	 5.285716041281411e+00	 9.999999822683620e+00
0	 1.428576234225853e-01	 5.428574228589334e+00	 9.999999822683622e+00
0	 1.428576234225853e-01	 5.571432615897930e+00	 9.999999822683623e+00
0	 1.428576234225852e-01	 5.714291269874074e+00	 9.999999822683620e+00
0	 2.857161301906819e-01	 4.285708730125925e+00	 9.999999810565335e+00
0	 2.857161301906819e-01	 4.428567384102075e+00	 9.999999810565335e+00
0	 2.857161301906820e-01	 4.571425771410668e+00	 9.999999810565335e+00
0	 2.857161301906819e-01	 4.714283958718593e+00	 9.999999810565329e+00
0	 2.857161301906819e-01	 4.857142012692741e+00	 9.999999810565335e+00
0	 2.857161301906819e-01	 5.000000000000000e+00	 9.999999810565335e+00
0	 2.857161301906819e-01	 5.142857987307260e+00	 9.999999810565340e+00
0	 2.857161301906818e-01	 5.285716041281408e+00	 9.999999810565342e+00
0	 2.857161301906819e-01	 5.428574228589334e+00	 9.999999810565331e+00
0	 2.857161301906819e-01	 5.571432615897928e+00	 9.999999810565347e+00
0	 2.857161301906818e-01	 5.714291269874074e+00	 9.999999810565342e+00
0	 4.285754036348006e-01	 4.285708730125925e+00	 9.999999790368339e+00
0	 4.285754036348007e-01	 4.428567384102075e+00	 9.999999790368346e+00
0	 4.285754036348007e-01	 4.571425771410666e+00	 9.999999790368342e+00
0	 4.285754036348006e-01	 4.714283958718593e+00	 9.999999790368335e+00
0	 4.285754036348006e-01	 4.857142012692742e+00	 9.999999790368342e+00
0	 4.285754036348006e-01	 5.000000000000003e+00	 9.999999790368346e+00
0	 4.285754036348006e-01	 5.142857987307258e+00	 9.999999790368348e+00
0	 4.285754036348007e-01	 5.285716041281407e+00	 9.999999790368346e+00
0	 4.285754036348008e-01	 5.428574228589334e+00	 9.999999790368342e+00
0	 4.285754036348008e-01	 5.571432615897929e+00	 9.999999790368349e+00
0	 4.285754036348007e-01	 5.714291269874075e+00	 9.999999790368348e+00
0	 5.714353270854529e-01	 4.285708730125925e+00	 9.999999762092706e+00
0	 5.714353270854529e-01	 4.428567384102074e+00	 9.999999762092710e+00
0	 5.714353270854532e-01	 4.571425771410667e+00	 9.999999762092706e+00
0	 5.714353270854532e-01	 4.714283958718593e+00	 9.999999762092719e+00
0	 5.714353270854529e-01	 4.857142012692742e+00	 9.999999762092713e+00
0	 5.714353270854531e-01	 5.000000000000000e+00	 9.999999762092713e+00
0	 5.714353270854531e-01	 5.142857987307261e+00	 9.999999762092715e+00
0	 5.714353270854530e-01	 5.285716041281410e+00	 9.999999762092713e+00
0	 5.714353270854530e-01	 5.428574228589335e+00	 9.999999762092711e+00
0	 5.714353270854530e-01	 5.571432615897927e+00	 9.999999762092708e+00
0	 5.714353270854530e-01	 5.714291269874074e+00	 9.999999762092711e+00
0	 7.142957838731496e-01	 4.285708730125926e+00	 9.999999725738459e+00
0	 7.142957838731495e-01	 4.428567384102072e+00	 9.999999725738460e+00
0	 7.142957838731498e-01	 4.571425771410668e+00	 9.999999725738466e+00
0	 7.142957838731498e-01	 4.714283958718593e+00	 9.999999725738466e+00
0	 7.142957838731498e-01	 4.857142012692742e+00	 9.999999725738462e+00
0	 7.142957838731498e-01	 5.000000000000001e+00	 9.999999725738462e+00
0	 7.142957838731497e-01	 5.142857987307260e+00	 9.999999725738462e+00
0	 7.142957838731496e-01	 5.285716041281409e+00	 9.999999725738466e+00
0	 7.142957838731495e-01	 5.428574228589335e+00	 9.999999725738467e+00
0	 7.142957838731496e-01	 5.571432615897927e+00	 9.999999725738466e+00
0	 7.142957838731495e-01	 5.714291269874074e+00	 9.999999725738466e+00
0	 8.571566573284017e-01	 4.285708730125926e+00	 9.999999681305596e+00
0	 8.571566573284016e-01	 4.428567384102075e+00	 9.999999681305598e+00
0	 8.571566573284014e-01	 4.571425771410667e+00	 9.999999681305594e+00
0	 8.571566573284017e-01	 4.714283958718594e+00	 9.999999681305596e+00
0	 8.571566573284016e-01	 4.857142012692740e+00	 9.999999681305589e+00
0	 8.571566573284018e-01	 5.000000000000003e+00	 9.999999681305596e+00
0	 8.571566573284016e-01	 5.142857987307260e+00	 9.999999681305596e+00
0	 8.571566573284016e-01	 5.285716041281410e+00	 9.999999681305601e+00
0	 8.571566573284017e-01	 5.428574228589333e+00	 9.999999681305596e+00
0	 8.571566573284017e-01	 5.571432615897929e+00	 9.999999681305598e+00
0	 8.571566573284017e-01	 5.714291269874074e+00	 9.999999681305605e+00
0	 1.000017830781720e+00	 4.285708730125927e+00	 9.999999628794068e+00
0	 1.000017830781720e+00	 4.428567384102074e+00	 9.999999628794065e+00
0	 1.000017830781720e+00	 4.571425771410668e+00	 9.999999628794061e+00
0	 1.000017830781720e+00	 4.714283958718593e+00	 9.999999628794068e+00
0	 1.000017830781720e+00	 4.857142012692742e+00	 9.999999628794063e+00
0	 1.000017830781720e+00	 5.000000000000001e+00	 9.999999628794068e+00
0	 1.000017830781720e+00	 5.142857987307261e+00	 9.999999628794070e+00
0	 1.000017830781720e+00	 5.285716041281408e+00	 9.999999628794065e+00
0	 1.000017830781720e+00	 5.428574228589335e+00	 9.999999628794070e+00
0	 1.000017830781720e+00	 5.571432615897927e+00	 9.999999628794070e+00
0	 1.000017830781720e+00	 5.714291269874074e+00	 9.999999628794070e+00
0	 1.142879187563616e+00	 4.285708730125926e+00	 9.999999568203776e+00
0	 1.142879187563616e+00	 4.428567384102075e+00	 9.999999568203775e+00
0	 1.142879187563616e+00	 4.571425771410667e+00	 9.999999568203783e+00
0	 1.142879187563616e+00	 4.714283958718593e+00	 9.999999568203773e+00
0	 1.142879187563616e+00	 4.857142012692742e+00	 9.999999568203783e+00
0	 1.142879187563616e+00	 5.000000000000002e+00	 9.999999568203775e+00
0	 1.142879187563616e+00	 5.142857987307260e+00	 9.999999568203780e+00
0	 1.142879187563616e+00	 5.285716041281408e+00	 9.999999568203783e+00
0	 1.142879187563616e+00	 5.428574228589337e+00	 9.999999568203776e+00
0	 1.142879187563616e+00	 5.571432615897928e+00	 9.999999568203782e+00
0	 1.142879187563616e+00	 5.714291269874075e+00	 9.999999568203780e+00
0	 1.285740611004601e+00	 4.285708730125926e+00	 9.999999499534610e+00
0	 1.285740611004600e+00	 4.428567384102075e+00	 9.999999499534606e+00
0	 1.285740611004601e+00	 4.571425771410668e+00	 9.999999499534606e+00
0	 1.285740611004601e+00	 4.714283958718593e+00	 9.999999499534605e+00
0	 1.285740611004601e+00	 4.857142012692742e+00	 9.999999499534608e+00
0	 1.285740611004601e+00	 5.000000000000001e+00	 9.999999499534606e+00
0	 1.285740611004601e+00	 5.142857987307260e+00	 9.999999499534606e+00
0	 1.285740611004601e+00	 5.285716041281409e+00	 9.999999499534608e+00
0	 1.285740611004601e+00	 5.428574228589335e+00	 9.999999499534601e+00
0	 1.285740611004601e+00	 5.571432615897926e+00	 9.999999499534615e+00
0	 1.285740611004601e+00	 5.714291269874075e+00	 9.999999499534614e+00
0	 1.428601984435185e+00	 4.285708730125926e+00	 9.999999422786390e+00
0	 1.428601984435185e+00	 4.428567384102075e+00	 9.999999422786390e+00
0	 1.428601984435185e+00	 4.571425771410667e+00	 9.999999422786395e+00
0	 1.428601984435185e+00	 4.714283958718593e+00	 9.999999422786388e+00
0	 1.428601984435186e+00	 4.857142012692743e+00	 9.999999422786390e+00
0	 1.428601984435185e+00	 5.000000000000001e+00	 9.999999422786393e+00
0	 1.428601984435185e+00	 5.142857987307260e+00	 9.999999422786388e+00
0	 1.428601984435185e+00	 5.285716041281408e+00	 9.999999422786393e+00
0	 1.428601984435185e+00	 5.428574228589335e+00	 9.999999422786388e+00
0	 1.428601984435185e+00	 5.571432615897926e+00	 9.999999422786395e+00
0	 1.428601984435185e+00	 5.714291269874074e+00	 9.999999422786390e+00
0	 0.000000000000000e+00	 5.714291269874075e+00	 9.999999826723085e+00
0	 0.000000000000000e+00	 5.857150240517928e+00	 9.999999826727365e+00
0	 0.000000000000000e+00	 6.000009511162681e+00	 9.999999826740233e+00
0	 0.000000000000000e+00	 6.142869048474791e+00	 9.999999826761664e+00
0	 0.000000000000000e+00	 6.285728819120711e+00	 9.999999826791679e+00
0	 0.000000000000000e+00	 6.428588789766900e+00	 9.999999826830273e+00
0	 0.000000000000000e+00	 6.571448927079809e+00	 9.999999826877442e+00
0	 0.000000000000000e+00	 6.714309197725897e+00	 9.999999826933177e+00
0	 0.000000000000000e+00	 6.857169568371615e+00	 9.999999826997488e+00
0	 0.000000000000000e+00	 7.000030005683427e+00	 9.999999827070383e+00
0	 0.000000000000000e+00	 7.142890476327777e+00	 9.999999827151838e+00
0	 1.428576234225852e-01	 5.714291269874074e+00	 9.999999822683620e+00
0	 1.428576234225853e-01	 5.857150240517929e+00	 9.999999822687901e+00
0	 1.428576234225853e-01	 6.000009511162682e+00	 9.999999822700767e+00
0	 1.428576234225853e-01	 6.142869048474793e+00	 9.999999822722213e+00
0	 1.428576234225853e-01	 6.285728819120714e+00	 9.999999822752224e+00
0	 1.428576234225853e-01	 6.428588789766901e+00	 9.999999822790812e+00
0	 1.428576234225853e-01	 6.571448927079808e+00	 9.999999822837971e+00
0	 1.428576234225852e-01	 6.714309197725895e+00	 9.999999822893715e+00
0	 1.428576234225853e-01	 6.857169568371615e+00	 9.999999822958038e+00
0	 1.428576234225853e-01	 7.000030005683427e+00	 9.999999823030906e+00
0	 1.428576234225852e-01	 7.142890476327777e+00	 9.999999823112377e+00
0	 2.857161301906818e-01	 5.714291269874074e+00	 9.999999810565342e+00
0	 2.857161301906818e-01	 5.857150240517930e+00	 9.999999810569633e+00
0	 2.857161301906818e-01	 6.000009511162683e+00	 9.999999810582491e+00
0	 2.857161301906819e-01	 6.142869048474791e+00	 9.999999810603930e+00
0	 2.857161301906819e-01	 6.285728819120713e+00	 9.999999810633941e+00
0	 2.857161301906818e-01	 6.428588789766899e+00	 9.999999810672534e+00
0	 2.857161301906818e-01	 6.571448927079807e+00	 9.999999810719698e+00
0	 2.857161301906819e-01	 6.714309197725895e+00	 9.999999810775435e+00
0	 2.857161301906820e-01	 6.857169568371617e+00	 9.999999810839752e+00
0	 2.857161301906819e-01	 7.000030005683426e+00	 9.999999810912634e+00
0	 2.857161301906819e-01	 7.142890476327779e+00	 9.999999810994098e+00
0	 4.285754036348007e-01	 5.714291269874075e+00	 9.999999790368348e+00
0	 4.285754036348007e-01	 5.857150240517929e+00	 9.999999790372636e+00
0	 4.285754036348008e-01	 6.000009511162681e+00	 9.999999790385495e+00
0	 4.285754036348006e-01	 6.142869048474791e+00	 9.999999790406935e+00
0	 4.285754036348007e-01	 6.285728819120711e+00	 9.999999790436954e+00
0	 4.285754036348007e-01	 6.428588789766899e+00	 9.999999790475542e+00
0	 4.285754036348006e-01	 6.571448927079808e+00	 9.999999790522699e+00
0	 4.285754036348007e-01	 6.714309197725895e+00	 9.999999790578443e+00
0	 4.285754036348007e-01	 6.857169568371616e+00	 9.999999790642754e+00
0	 4.285754036348006e-01	 7.000030005683423e+00	 9.999999790715643e+00
0	 4.285754036348008e-01	 7.142890476327779e+00	 9.999999790797112e+00
0	 5.714353270854530e-01	 5.714291269874074e+00	 9.999999762092711e+00
0	 5.714353270854529e-01	 5.857150240517927e+00	 9.999999762097005e+00
0	 5.714353270854531e-01	 6.000009511162681e+00	 9.999999762109857e+00
0	 5.714353270854531e-01	 6.142869048474793e+00	 9.999999762131303e+00
0	 5.714353270854531e-01	 6.285728819120712e+00	 9.999999762161313e+00
0	 5.714353270854532e-01	 6.428588789766903e+00	 9.999999762199902e+00
0	 5.714353270854532e-01	 6.571448927079811e+00	 9.999999762247068e+00
0	 5.714353270854529e-01	 6.714309197725896e+00	 9.999999762302807e+00
0	 5.714353270854531e-01	 6.857169568371616e+00	 9.999999762367114e+00
0	 5.714353270854532e-01	 7.000030005683427e+00	 9.999999762440003e+00
0	 5.714353270854531e-01	 7.142890476327779e+00	 9.999999762521471e+00
0	 7.142957838731495e-01	 5.714291269874074e+00	 9.999999725738466e+00
0	 7.142957838731497e-01	 5.857150240517927e+00	 9.999999725742757e+00
0	 7.142957838731496e-01	 6.000009511162681e+00	 9.999999725755615e+00
0	 7.142957838731495e-01	 6.142869048474790e+00	 9.999999725777061e+00
0	 7.142957838731497e-01	 6.285728819120714e+00	 9.999999725807067e+00
0	 7.142957838731496e-01	 6.428588789766899e+00	 9.999999725845651e+00
0	 7.142957838731497e-01	 6.571448927079811e+00	 9.999999725892822e+00
0	 7.142957838731497e-01	 6.714309197725897e+00	 9.999999725948568e+00
0	 7.142957838731497e-01	 6.857169568371618e+00	 9.999999726012875e+00
0	 7.142957838731496e-01	 7.000030005683424e+00	 9.999999726085763e+00
0	 7.142957838731497e-01	 7.142890476327777e+00	 9.999999726167225e+00
0	 8.571566573284017e-01	 5.714291269874074e+00	 9.999999681305605e+00
0	 8.571566573284016e-01	 5.857150240517929e+00	 9.999999681309891e+00
0	 8.571566573284014e-01	 6.000009511162680e+00	 9.999999681322747e+00
0	 8.571566573284015e-01	 6.142869048474793e+00	 9.999999681344192e+00
0	 8.571566573284015e-01	 6.285728819120711e+00	 9.999999681374199e+00
0	 8.571566573284017e-01	 6.428588789766899e+00	 9.999999681412788e+00
0	 8.571566573284016e-01	 6.571448927079809e+00	 9.999999681459954e+00
0	 8.571566573284018e-01	 6.714309197725896e+00	 9.999999681515693e+00
0	 8.571566573284020e-01	 6.857169568371617e+00	 9.999999681580013e+00
0	 8.571566573284017e-01	 7.000030005683426e+00	 9.999999681652897e+00
0	 8.571566573284018e-01	 7.142890476327779e+00	 9.999999681734359e+00
0	 1.000017830781720e+00	 5.714291269874074e+00	 9.999999628794070e+00
0	 1.000017830781720e+00	 5.857150240517928e+00	 9.999999628798353e+00
0	 1.000017830781720e+00	 6.000009511162681e+00	 9.999999628811221e+00
0	 1.000017830781720e+00	 6.142869048474791e+00	 9.999999628832658e+00
0	 1.000017830781720e+00	 6.285728819120713e+00	 9.999999628862668e+00
0	 1.000017830781720e+00	 6.428588789766899e+00	 9.999999628901259e+00
0	 1.000017830781720e+00	 6.571448927079808e+00	 9.999999628948425e+00
0	 1.000017830781720e+00	 6.714309197725897e+00	 9.999999629004163e+00
0	 1.000017830781720e+00	 6.857169568371615e+00	 9.999999629068471e+00
0	 1.000017830781720e+00	 7.000030005683426e+00	 9.999999629141364e+00
0	 1.000017830781720e+00	 7.142890476327778e+00	 9.999999629222829e+00
0	 1.142879187563616e+00	 5.714291269874075e+00	 9.999999568203780e+00
0	 1.142879187563616e+00	 5.857150240517926e+00	 9.999999568208064e+00
0	 1.142879187563616e+00	 6.000009511162683e+00	 9.999999568220929e+00
0	 1.142879187563616e+00	 6.142869048474791e+00	 9.999999568242369e+00
0	 1.142879187563616e+00	 6.285728819120711e+00	 9.999999568272383e+00
0	 1.142879187563616e+00	 6.428588789766899e+00	 9.999999568310971e+00
0	 1.142879187563616e+00	 6.571448927079809e+00	 9.999999568358136e+00
0	 1.142879187563616e+00	 6.714309197725895e+00	 9.999999568413873e+00
0	 1.142879187563616e+00	 6.857169568371615e+00	 9.999999568478191e+00
0	 1.142879187563617e+00	 7.000030005683427e+00	 9.999999568551077e+00
0	 1.142879187563616e+00	 7.142890476327779e+00	 9.999999568632539e+00
0	 1.285740611004601e+00	 5.714291269874075e+00	 9.999999499534614e+00
0	 1.285740611004601e+00	 5.857150240517927e+00	 9.999999499538902e+00
0	 1.285740611004601e+00	 6.000009511162682e+00	 9.999999499551761e+00
0	 1.285740611004601e+00	 6.142869048474791e+00	 9.999999499573196e+00
0	 1.285740611004601e+00	 6.285728819120712e+00	 9.999999499603216e+00
0	 1.285740611004601e+00	 6.428588789766900e+00	 9.999999499641802e+00
0	 1.285740611004601e+00	 6.571448927079807e+00	 9.999999499688967e+00
0	 1.285740611004601e+00	 6.714309197725897e+00	 9.999999499744707e+00
0	 1.285740611004600e+00	 6.857169568371615e+00	 9.999999499809016e+00
0	 1.285740611004601e+00	 7.000030005683425e+00	 9.999999499881916e+00
0	 1.285740611004601e+00	 7.142890476327778e+00	 9.999999499963369e+00
0	 1.428601984435185e+00	 5.714291269874074e+00	 9.999999422786390e+00
0	 1.428601984435185e+00	 5.857150240517928e+00	 9.999999422790683e+00
0	 1.428601984435185e+00	 6.000009511162683e+00	 9.999999422803546e+00
0	 1.428601984435185e+00	 6.142869048474793e+00	 9.999999422824985e+00
0	 1.428601984435185e+00	 6.285728819120713e+00	 9.999999422854994e+00
0	 1.428601984435185e+00	 6.428588789766897e+00	 9.999999422893584e+00
0	 1.428601984435185e+00	 6.571448927079810e+00	 9.999999422940750e+00
0	 1.428601984435185e+00	 6.714309197725895e+00	 9.999999422996488e+00
0	 1.428601984435185e+00	 6.857169568371617e+00	 9.999999423060803e+00
0	 1.428601984435185e+00	 7.000030005683426e+00	 9.999999423133689e+00
0	 1.428601984435185e+00	 7.142890476327780e+00	 9.999999423215151e+00
0	 0.000000000000000e+00	 7.142890476327777e+00	 9.999999827151838e+00
0	 0.000000000000000e+00	 7.285740955271013e+00	 9.999999850786155e+00
0	 0.000000000000000e+00	 7.428591450879007e+00	 9.999999921517585e+00
0	 0.000000000000000e+00	 7.571441979817512e+00	 1.000000003934608e+01
0	 0.000000000000000e+00	 7.714292558752281e+00	 1.000000020427155e+01
0	 0.000000000000000e+00	 7.857143204349074e+00	 1.000000041629391e+01
0	 0.000000000000000e+00	 7.999993933273645e+00	 1.000000067541298e+01
0	 0.000000000000000e+00	 8.142844762191748e+00	 1.000000098162860e+01
0	 0.000000000000000e+00	 8.285695707769140e+00	 1.000000133494052e+01
0	 0.000000000000000e+00	 8.428546786671577e+00	 1.000000173534854e+01
0	 0.000000000000000e+00	 8.571398015564816e+00	 1.000000218285235e+01
0	 1.428576234225852e-01	 7.142890476327777e+00	 9.999999823112377e+00
0	 1.428576234225852e-01	 7.285740955271014e+00	 9.999999846746697e+00
0	 1.428576234225853e-01	 7.428591450879004e+00	 9.999999917478132e+00
0	 1.428576234225853e-01	 7.571441979817511e+00	 1.000000003530662e+01
0	 1.428576234225852e-01	 7.714292558752281e+00	 1.000000020023210e+01
0	 1.428576234225852e-01	 7.857143204349070e+00	 1.000000041225445e+01
0	 1.428576234225853e-01	 7.999993933273643e+00	 1.000000067137352e+01
0	 1.428576234225853e-01	 8.142844762191746e+00	 1.000000097758913e+01
0	 1.428576234225852e-01	 8.285695707769138e+00	 1.000000133090107e+01
0	 1.428576234225853e-01	 8.428546786671577e+00	 1.000000173130909e+01
0	 1.428576234225853e-01	 8.571398015564812e+00	 1.000000217881290e+01
0	 2.857161301906819e-01	 7.142890476327779e+00	 9.999999810994098e+00
0	 2.857161301906819e-01	 7.285740955271013e+00	 9.999999834628415e+00
0	 2.857161301906819e-01	 7.428591450879009e+00	 9.999999905359845e+00
0	 2.857161301906818e-01	 7.571441979817513e+00	 1.000000002318833e+01
0	 2.857161301906819e-01	 7.714292558752285e+00	 1.000000018811381e+01
0	 2.857161301906819e-01	 7.857143204349073e+00	 1.000000040013616e+01
0	 2.857161301906819e-01	 7.999993933273643e+00	 1.000000065925524e+01
0	 2.857161301906818e-01	 8.142844762191745e+00	 1.000000096547085e+01
0	 2.857161301906820e-01	 8.285695707769142e+00	 1.000000131878278e+01
0	 2.857161301906819e-01	 8.428546786671575e+00	 1.000000171919080e+01
0	 2.857161301906819e-01	 8.571398015564814e+00	 1.000000216669462e+01
0	 4.285754036348008e-01	 7.142890476327779e+00	 9.999999790797112e+00
0	 4.285754036348007e-01	 7.285740955271015e+00	 9.999999814431414e+00
0	 4.285754036348007e-01	 7.428591450879010e+00	 9.999999885162847e+00
0	 4.285754036348007e-01	 7.571441979817510e+00	 1.000000000299134e+01
0	 4.285754036348007e-01	 7.714292558752281e+00	 1.000000016791683e+01
0	 4.285754036348006e-01	 7.857143204349070e+00	 1.000000037993918e+01
0	 4.285754036348007e-01	 7.999993933273643e+00	 1.000000063905824e+01
0	 4.285754036348007e-01	 8.142844762191748e+00	 1.000000094527386e+01
0	 4.285754036348008e-01	 8.285695707769142e+00	 1.000000129858579e+01
0	 4.285754036348006e-01	 8.428546786671575e+00	 1.000000169899381e+01
0	 4.285754036348007e-01	 8.571398015564812e+00	 1.000000214649761e+01
0	 5.714353270854531e-01	 7.142890476327779e+00	 9.999999762521471e+00
0	 5.714353270854529e-01	 7.285740955271015e+00	 9.999999786155772e+00
0	 5.714353270854529e-01	 7.428591450879008e+00	 9.999999856887216e+00
0	 5.714353270854532e-01	 7.571441979817512e+00	 9.999999974715713e+00
0	 5.714353270854529e-01	 7.714292558752281e+00	 1.000000013964119e+01
0	 5.714353270854530e-01	 7.857143204349073e+00	 1.000000035166354e+01
0	 5.714353270854530e-01	 7.999993933273642e+00	 1.000000061078261e+01
0	 5.714353270854531e-01	 8.142844762191752e+00	 1.000000091699822e+01
0	 5.714353270854530e-01	 8.285695707769142e+00	 1.000000127031016e+01
0	 5.714353270854530e-01	 8.428546786671575e+00	 1.000000167071817e+01
0	 5.714353270854530e-01	 8.571398015564814e+00	 1.000000211822199e+01
0	 7.142957838731497e-01	 7.142890476327777e+00	 9.999999726167225e+00
0	 7.142957838731496e-01	 7.285740955271013e+00	 9.999999749801542e+00
0	 7.142957838731495e-01	 7.428591450879007e+00	 9.999999820532965e+00
0	 7.142957838731496e-01	 7.571441979817509e+00	 9.999999938361460e+00
0	 7.142957838731496e-01	 7.714292558752281e+00	 1.000000010328694e+01
0	 7.142957838731494e-01	 7.857143204349072e+00	 1.000000031530929e+01
0	 7.142957838731497e-01	 7.999993933273645e+00	 1.000000057442837e+01
0	 7.142957838731496e-01	 8.142844762191745e+00	 1.000000088064398e+01
0	 7.142957838731497e-01	 8.285695707769143e+00	 1.000000123395591e+01
0	 7.142957838731496e-01	 8.428546786671578e+00	 1.000000163436392e+01
0	 7.142957838731497e-01	 8.571398015564816e+00	 1.000000208186773e+01
0	 8.571566573284018e-01	 7.142890476327779e+00	 9.999999681734359e+00
0	 8.571566573284016e-01	 7.285740955271014e+00	 9.999999705368680e+00
0	 8.571566573284017e-01	 7.428591450879007e+00	 9.999999776100106e+00
0	 8.571566573284017e-01	 7.571441979817513e+00	 9.999999893928599e+00
0	 8.571566573284017e-01	 7.714292558752281e+00	 1.000000005885408e+01
0	 8.571566573284017e-01	 7.857143204349077e+00	 1.000000027087643e+01
0	 8.571566573284018e-01	 7.999993933273645e+00	 1.000000052999550e+01
0	 8.571566573284017e-01	 8.142844762191748e+00	 1.000000083621111e+01
0	 8.571566573284018e-01	 8.285695707769142e+00	 1.000000118952305e+01
0	 8.571566573284018e-01	 8.428546786671578e+00	 1.000000158993106e+01
0	 8.571566573284014e-01	 8.571398015564812e+00	 1.000000203743487e+01
0	 1.000017830781720e+00	 7.142890476327778e+00	 9.999999629222827e+00
0	 1.000017830781720e+00	 7.285740955271012e+00	 9.999999652857145e+00
0	 1.000017830781720e+00	 7.428591450879007e+00	 9.999999723588573e+00
0	 1.000017830781720e+00	 7.571441979817512e+00	 9.999999841417067e+00
0	 1.000017830781720e+00	 7.714292558752281e+00	 1.000000000634255e+01
0	 1.000017830781720e+00	 7.857143204349074e+00	 1.000000021836490e+01
0	 1.000017830781720e+00	 7.999993933273646e+00	 1.000000047748397e+01
0	 1.000017830781720e+00	 8.142844762191748e+00	 1.000000078369958e+01
0	 1.000017830781720e+00	 8.285695707769140e+00	 1.000000113701151e+01
0	 1.000017830781720e+00	 8.428546786671575e+00	 1.000000153741953e+01
0	 1.000017830781720e+00	 8.571398015564817e+00	 1.000000198492335e+01
0	 1.142879187563616e+00	 7.142890476327779e+00	 9.999999568632539e+00
0	 1.142879187563616e+00	 7.285740955271014e+00	 9.999999592266851e+00
0	 1.142879187563616e+00	 7.428591450879006e+00	 9.999999662998285e+00
0	 1.142879187563616e+00	 7.571441979817512e+00	 9.999999780826776e+00
0	 1.142879187563616e+00	 7.714292558752280e+00	 9.999999945752265e+00
0	 1.142879187563616e+00	 7.857143204349073e+00	 1.000000015777461e+01
0	 1.142879187563616e+00	 7.999993933273644e+00	 1.000000041689367e+01
0	 1.142879187563616e+00	 8.142844762191750e+00	 1.000000072310929e+01
0	 1.142879187563616e+00	 8.285695707769142e+00	 1.000000107642123e+01
0	 1.142879187563616e+00	 8.428546786671575e+00	 1.000000147682924e+01
0	 1.142879187563617e+00	 8.571398015564817e+00	 1.000000192433305e+01
0	 1.285740611004601e+00	 7.142890476327778e+00	 9.999999499963369e+00
0	 1.285740611004601e+00	 7.285740955271014e+00	 9.999999523597689e+00
0	 1.285740611004601e+00	 7.428591450879005e+00	 9.999999594329118e+00
0	 1.285740611004601e+00	 7.571441979817512e+00	 9.999999712157617e+00
0	 1.285740611004601e+00	 7.714292558752281e+00	 9.999999877083091e+00
0	 1.285740611004601e+00	 7.857143204349072e+00	 1.000000008910544e+01
0	 1.285740611004601e+00	 7.999993933273642e+00	 1.000000034822451e+01
0	 1.285740611004601e+00	 8.142844762191746e+00	 1.000000065444013e+01
0	 1.285740611004601e+00	 8.285695707769138e+00	 1.000000100775206e+01
0	 1.285740611004601e+00	 8.428546786671578e+00	 1.000000140816007e+01
0	 1.285740611004601e+00	 8.571398015564816e+00	 1.000000185566388e+01
0	 1.428601984435185e+00	 7.142890476327780e+00	 9.999999423215151e+00
0	 1.428601984435185e+00	 7.285740955271015e+00	 9.999999446849472e+00
0	 1.428601984435185e+00	 7.428591450879006e+00	 9.999999517580900e+00
0	 1.428601984435185e+00	 7.571441979817510e+00	 9.999999635409395e+00
0	 1.428601984435185e+00	 7.714292558752281e+00	 9.999999800334866e+00
0	 1.428601984435185e+00	 7.857143204349073e+00	 1.000000001235723e+01
0	 1.428601984435185e+00	 7.999993933273643e+00	 1.000000027147630e+01
0	 1.428601984435185e+00	 8.142844762191748e+00	 1.000000057769190e+01
0	 1.428601984435185e+00	 8.285695707769142e+00	 1.000000093100384e+01
0	 1.428601984435185e+00	 8.428546786671578e+00	 1.000000133141186e+01
0	 1.428601984435185e+00	 8.571398015564816e+00	 1.000000177891567e+01
0	 0.000000000000000e+00	 8.571398015564816e+00	 1.000000218285235e+01
0	 0.000000000000000e+00	 8.714259388995400e+00	 1.000000248903963e+01
0	 0.000000000000000e+00	 8.857120812436385e+00	 1.000000246543298e+01
0	 0.000000000000000e+00	 8.999982169218280e+00	 1.000000211203232e+01
0	 0.000000000000000e+00	 9.142843342671599e+00	 1.000000142883593e+01
0	 0.000000000000000e+00	 9.285704216126852e+00	 1.000000041584043e+01
0	 0.000000000000000e+00	 9.428564672914549e+00	 9.999999073040856e+00
0	 0.000000000000000e+00	 9.571424596365201e+00	 9.999997400430662e+00
0	 0.000000000000000e+00	 9.714283869809320e+00	 9.999995398001607e+00
0	 0.000000000000000e+00	 9.857142376577416e+00	 9.999993065743910e+00
0	 0.000000000000000e+00	 1.000000000000000e+01	 9.999990403646171e+00
0	 1.428576234225853e-01	 8.571398015564812e+00	 1.000000217881290e+01
0	 1.428576234225852e-01	 8.714259388995403e+00	 1.000000248500016e+01
0	 1.428576234225852e-01	 8.857120812436385e+00	 1.000000246139352e+01
0	 1.428576234225852e-01	 8.999982169218283e+00	 1.000000210799287e+01
0	 1.428576234225852e-01	 9.142843342671597e+00	 1.000000142479647e+01
0	 1.428576234225853e-01	 9.285704216126856e+00	 1.000000041180097e+01
0	 1.428576234225852e-01	 9.428564672914549e+00	 9.999999069001401e+00
0	 1.428576234225853e-01	 9.571424596365203e+00	 9.999997396391191e+00
0	 1.428576234225853e-01	 9.714283869809318e+00	 9.999995393962156e+00
0	 1.428576234225853e-01	 9.857142376577418e+00	 9.999993061704433e+00
0	 1.428576234225853e-01	 1.000000000000000e+01	 9.999990399606682e+00
0	 2.857161301906819e-01	 8.571398015564814e+00	 1.000000216669462e+01
0	 2.857161301906819e-01	 8.714259388995401e+00	 1.000000247288189e+01
0	 2.857161301906819e-01	 8.857120812436387e+00	 1.000000244927524e+01
0	 2.857161301906819e-01	 8.999982169218281e+00	 1.000000209587459e+01
0	 2.857161301906819e-01	 9.142843342671597e+00	 1.000000141267818e+01
0	 2.857161301906818e-01	 9.285704216126851e+00	 1.000000039968269e+01
0	 2.857161301906819e-01	 9.428564672914549e+00	 9.999999056883118e+00
0	 2.857161301906818e-01	 9.571424596365203e+00	 9.999997384272907e+00
0	 2.857161301906819e-01	 9.714283869809321e+00	 9.999995381843870e+00
0	 2.857161301906818e-01	 9.857142376577416e+00	 9.999993049586191e+00
0	 2.857161301906819e-01	 1.000000000000000e+01	 9.999990387488410e+00
0	 4.285754036348007e-01	 8.571398015564812e+00	 1.000000214649761e+01
0	 4.285754036348007e-01	 8.714259388995398e+00	 1.000000245268489e+01
0	 4.285754036348008e-01	 8.857120812436383e+00	 1.000000242907824e+01
0	 4.285754036348007e-01	 8.999982169218280e+00	 1.000000207567760e+01
0	 4.285754036348008e-01	 9.142843342671599e+00	 1.000000139248119e+01
0	 4.285754036348007e-01	 9.285704216126847e+00	 1.000000037948569e+01
0	 4.285754036348006e-01	 9.428564672914554e+00	 9.999999036686125e+00
0	 4.285754036348007e-01	 9.571424596365203e+00	 9.999997364075927e+00
0	 4.285754036348007e-01	 9.714283869809323e+00	 9.999995361646882e+00
0	 4.285754036348008e-01	 9.857142376577420e+00	 9.999993029389199e+00
0	 4.285754036348007e-01	 9.999999999999998e+00	 9.999990367291437e+00
0	 5.714353270854530e-01	 8.571398015564814e+00	 1.000000211822199e+01
0	 5.714353270854530e-01	 8.714259388995398e+00	 1.000000242440926e+01
0	 5.714353270854531e-01	 8.857120812436383e+00	 1.000000240080261e+01
0	 5.714353270854531e-01	 8.999982169218283e+00	 1.000000204740196e+01
0	 5.714353270854532e-01	 9.142843342671600e+00	 1.000000136420556e+01
0	 5.714353270854529e-01	 9.285704216126854e+00	 1.000000035121006e+01
0	 5.714353270854531e-01	 9.428564672914549e+00	 9.999999008410503e+00
0	 5.714353270854530e-01	 9.571424596365203e+00	 9.999997335800270e+00
0	 5.714353270854531e-01	 9.714283869809321e+00	 9.999995333371253e+00
0	 5.714353270854531e-01	 9.857142376577418e+00	 9.999993001113529e+00
0	 5.714353270854531e-01	 1.000000000000000e+01	 9.999990339015802e+00
0	 7.142957838731497e-01	 8.571398015564816e+00	 1.000000208186773e+01
0	 7.142957838731496e-01	 8.714259388995398e+00	 1.000000238805501e+01
0	 7.142957838731495e-01	 8.857120812436383e+00	 1.000000236444837e+01
0	 7.142957838731496e-01	 8.999982169218281e+00	 1.000000201104772e+01
0	 7.142957838731497e-01	 9.142843342671599e+00	 1.000000132785132e+01
0	 7.142957838731496e-01	 9.285704216126852e+00	 1.000000031485581e+01
0	 7.142957838731498e-01	 9.428564672914550e+00	 9.999998972056243e+00
0	 7.142957838731495e-01	 9.571424596365199e+00	 9.999997299446033e+00
0	 7.142957838731497e-01	 9.714283869809321e+00	 9.999995297017005e+00
0	 7.142957838731498e-01	 9.857142376577418e+00	 9.999992964759304e+00
0	 7.142957838731496e-01	 1.000000000000000e+01	 9.999990302661519e+00
0	 8.571566573284014e-01	 8.571398015564812e+00	 1.000000203743488e+01
0	 8.571566573284017e-01	 8.714259388995398e+00	 1.000000234362214e+01
0	 8.571566573284015e-01	 8.857120812436383e+00	 1.000000232001551e+01
0	 8.571566573284015e-01	 8.999982169218280e+00	 1.000000196661485e+01
0	 8.571566573284016e-01	 9.142843342671599e+00	 1.000000128341845e+01
0	 8.571566573284016e-01	 9.285704216126854e+00	 1.000000027042294e+01
0	 8.571566573284015e-01	 9.428564672914550e+00	 9.999998927623377e+00
0	 8.571566573284016e-01	 9.571424596365201e+00	 9.999997255013183e+00
0	 8.571566573284015e-01	 9.714283869809321e+00	 9.999995252584153e+00
0	 8.571566573284017e-01	 9.857142376577416e+00	 9.999992920326431e+00
0	 8.571566573284017e-01	 1.000000000000000e+01	 9.999990258228692e+00
0	 1.000017830781720e+00	 8.571398015564817e+00	 1.000000198492335e+01
0	 1.000017830781720e+00	 8.714259388995403e+00	 1.000000229111061e+01
0	 1.000017830781720e+00	 8.857120812436385e+00	 1.000000226750398e+01
0	 1.000017830781720e+00	 8.999982169218280e+00	 1.000000191410332e+01
0	 1.000017830781720e+00	 9.142843342671599e+00	 1.000000123090691e+01
0	 1.000017830781720e+00	 9.285704216126852e+00	 1.000000021791141e+01
0	 1.000017830781720e+00	 9.428564672914550e+00	 9.999998875111853e+00
0	 1.000017830781720e+00	 9.571424596365203e+00	 9.999997202501646e+00
0	 1.000017830781720e+00	 9.714283869809321e+00	 9.999995200072608e+00
0	 1.000017830781720e+00	 9.857142376577416e+00	 9.999992867814921e+00
0	 1.000017830781720e+00	 1.000000000000000e+01	 9.999990205717157e+00
0	 1.142879187563617e+00	 8.571398015564817e+00	 1.000000192433305e+01
0	 1.142879187563616e+00	 8.714259388995400e+00	 1.000000223052032e+01
0	 1.142879187563616e+00	 8.857120812436383e+00	 1.000000220691368e+01
0	 1.142879187563616e+00	 8.999982169218283e+00	 1.000000185351303e+01
0	 1.142879187563616e+00	 9.142843342671597e+00	 1.000000117031663e+01
0	 1.142879187563616e+00	 9.285704216126851e+00	 1.000000015732112e+01
0	 1.142879187563616e+00	 9.428564672914549e+00	 9.999998814521554e+00
0	 1.142879187563616e+00	 9.571424596365199e+00	 9.999997141911368e+00
0	 1.142879187563616e+00	 9.714283869809321e+00	 9.999995139482314e+00
0	 1.142879187563616e+00	 9.857142376577420e+00	 9.999992807224650e+00
0	 1.142879187563616e+00	 1.000000000000000e+01	 9.999990145126864e+00
0	 1.285740611004601e+00	 8.571398015564816e+00	 1.000000185566388e+01
0	 1.285740611004601e+00	 8.714259388995401e+00	 1.000000216185115e+01
0	 1.285740611004601e+00	 8.857120812436383e+00	 1.000000213824453e+01
0	 1.285740611004601e+00	 8.999982169218281e+00	 1.000000178484386e+01
0	 1.285740611004601e+00	 9.142843342671600e+00	 1.000000110164747e+01
0	 1.285740611004601e+00	 9.285704216126851e+00	 1.000000008865195e+01
0	 1.285740611004601e+00	 9.428564672914547e+00	 9.999998745852405e+00
0	 1.285740611004601e+00	 9.571424596365203e+00	 9.999997073242170e+00
0	 1.285740611004601e+00	 9.714283869809321e+00	 9.999995070813160e+00
0	 1.285740611004601e+00	 9.857142376577418e+00	 9.999992738555443e+00
0	 1.285740611004601e+00	 1.000000000000000e+01	 9.999990076457710e+00
0	 1.428601984435185e+00	 8.571398015564816e+00	 1.000000177891567e+01
0	 1.428601984435185e+00	 8.714259388995398e+00	 1.000000208510293e+01
0	 1.428601984435185e+00	 8.857120812436385e+00	 1.000000206149630e+01
0	 1.428601984435185e+00	 8.999982169218278e+00	 1.000000170809564e+01
0	 1.428601984435185e+00	 9.142843342671600e+00	 1.000000102489924e+01
0	 1.428601984435185e+00	 9.285704216126854e+00	 1.000000001190373e+01
0	 1.428601984435185e+00	 9.428564672914549e+00	 9.999998669104169e+00
0	 1.428601984435185e+00	 9.571424596365199e+00	 9.999996996493984e+00
0	 1.428601984435185e+00	 9.714283869809321e+00	 9.999994994064918e+00
0	 1.428601984435185e+00	 9.857142376577416e+00	 9.999992661807223e+00
0	 1.428601984435185e+00	 1.000000000000000e+01	 9.999989999709438e+00
0	 1.428601984435185e+00	 0.000000000000000e+00	 9.999998480478697e+00
0	 1.428601984435185e+00	 1.428576234225853e-01	 9.999998746692334e+00
0	 1.428601984435185e+00	 2.857161301906819e-01	 9.999998979929680e+00
0	 1.428601984435185e+00	 4.285754036348007e-01	 9.999999180191875e+00
0	 1.428601984435185e+00	 5.714353270854530e-01	 9.999999347479907e+00
0	 1.428601984435185e+00	 7.142957838731498e-01	 9.999999481794600e+00
0	 1.428601984435185e+00	 8.571566573284015e-01	 9.999999583136592e+00
0	 1.428601984435185e+00	 1.000017830781720e+00	 9.999999651506402e+00
0	 1.428601984435185e+00	 1.142879187563616e+00	 9.999999686904349e+00
0	 1.428601984435185e+00	 1.285740611004601e+00	 9.999999689330611e+00
0	 1.428601984435185e+00	 1.428601984435185e+00	 9.999999658785203e+00
0	 1.571453213328422e+00	 0.000000000000000e+00	 9.999998405755507e+00
0	 1.571453213328422e+00	 1.428576234225853e-01	 9.999998671969140e+00
0	 1.571453213328422e+00	 2.857161301906819e-01	 9.999998905206489e+00
0	 1.571453213328422e+00	 4.285754036348008e-01	 9.999999105468691e+00
0	 1.571453213328422e+00	 5.714353270854531e-01	 9.999999272756718e+00
0	 1.571453213328422e+00	 7.142957838731496e-01	 9.999999407071405e+00
0	 1.571453213328422e+00	 8.571566573284016e-01	 9.999999508413401e+00
0	 1.571453213328422e+00	 1.000017830781720e+00	 9.999999576783207e+00
0	 1.571453213328422e+00	 1.142879187563616e+00	 9.999999612181151e+00
0	 1.571453213328422e+00	 1.285740611004601e+00	 9.999999614607422e+00
0	 1.571453213328422e+00	 1.428601984435185e+00	 9.999999584062012e+00
0	 1.714304292230859e+00	 0.000000000000000e+00	 9.999998343150274e+00
0	 1.714304292230859e+00	 1.428576234225852e-01	 9.999998609363914e+00
0	 1.714304292230859e+00	 2.857161301906819e-01	 9.999998842601260e+00
0	 1.714304292230859e+00	 4.285754036348007e-01	 9.999999042863452e+00
0	 1.714304292230859e+00	 5.714353270854531e-01	 9.999999210151490e+00
0	 1.714304292230859e+00	 7.142957838731497e-01	 9.999999344466174e+00
0	 1.714304292230859e+00	 8.571566573284017e-01	 9.999999445808172e+00
0	 1.714304292230858e+00	 1.000017830781720e+00	 9.999999514177977e+00
0	 1.714304292230859e+00	 1.142879187563616e+00	 9.999999549575923e+00
0	 1.714304292230859e+00	 1.285740611004601e+00	 9.999999552002187e+00
0	 1.714304292230859e+00	 1.428601984435186e+00	 9.999999521456783e+00
0	 1.857155237808251e+00	 0.000000000000000e+00	 9.999998292663067e+00
0	 1.857155237808251e+00	 1.428576234225853e-01	 9.999998558876705e+00
0	 1.857155237808251e+00	 2.857161301906819e-01	 9.999998792114059e+00
0	 1.857155237808251e+00	 4.285754036348007e-01	 9.999998992376247e+00
0	 1.857155237808251e+00	 5.714353270854530e-01	 9.999999159664284e+00
0	 1.857155237808251e+00	 7.142957838731497e-01	 9.999999293978970e+00
0	 1.857155237808252e+00	 8.571566573284018e-01	 9.999999395320968e+00
0	 1.857155237808252e+00	 1.000017830781720e+00	 9.999999463690772e+00
0	 1.857155237808251e+00	 1.142879187563616e+00	 9.999999499088723e+00
0	 1.857155237808252e+00	 1.285740611004601e+00	 9.999999501514985e+00
0	 1.857155237808251e+00	 1.428601984435185e+00	 9.999999470969572e+00
0	 2.000006066726355e+00	 0.000000000000000e+00	 9.999998254293939e+00
0	 2.000006066726355e+00	 1.428576234225853e-01	 9.999998520507569e+00
0	 2.000006066726355e+00	 2.857161301906818e-01	 9.999998753744919e+00
0	 2.000006066726355e+00	 4.285754036348007e-01	 9.999998954007115e+00
0	 2.000006066726355e+00	 5.714353270854530e-01	 9.999999121295145e+00
0	 2.000006066726355e+00	 7.142957838731495e-01	 9.999999255609834e+00
0	 2.000006066726355e+00	 8.571566573284018e-01	 9.999999356951832e+00
0	 2.000006066726355e+00	 1.000017830781720e+00	 9.999999425321636e+00
0	 2.000006066726355e+00	 1.142879187563616e+00	 9.999999460719586e+00
0	 2.000006066726356e+00	 1.285740611004601e+00	 9.999999463145850e+00
0	 2.000006066726355e+00	 1.428601984435186e+00	 9.999999432600443e+00
0	 2.142856795650925e+00	 0.000000000000000e+00	 9.999998228042910e+00
0	 2.142856795650926e+00	 1.428576234225853e-01	 9.999998494256547e+00
0	 2.142856795650925e+00	 2.857161301906819e-01	 9.999998727493896e+00
0	 2.142856795650925e+00	 4.285754036348007e-01	 9.999998927756092e+00
0	 2.142856795650925e+00	 5.714353270854529e-01	 9.999999095044130e+00
0	 2.142856795650925e+00	 7.142957838731496e-01	 9.999999229358810e+00
0	 2.142856795650925e+00	 8.571566573284015e-01	 9.999999330700810e+00
0	 2.142856795650925e+00	 1.000017830781720e+00	 9.999999399070616e+00
0	 2.142856795650926e+00	 1.142879187563616e+00	 9.999999434468560e+00
0	 2.142856795650927e+00	 1.285740611004601e+00	 9.999999436894825e+00
0	 2.142856795650926e+00	 1.428601984435185e+00	 9.999999406349421e+00
0	 2.285707441247718e+00	 0.000000000000000e+00	 9.999998213910038e+00
0	 2.285707441247718e+00	 1.428576234225853e-01	 9.999998480123674e+00
0	 2.285707441247719e+00	 2.857161301906819e-01	 9.999998713361022e+00
0	 2.285707441247718e+00	 4.285754036348008e-01	 9.999998913623216e+00
0	 2.285707441247718e+00	 5.714353270854529e-01	 9.999999080911250e+00
0	 2.285707441247717e+00	 7.142957838731495e-01	 9.999999215225934e+00
0	 2.285707441247718e+00	 8.571566573284017e-01	 9.999999316567934e+00
0	 2.285707441247718e+00	 1.000017830781720e+00	 9.999999384937739e+00
0	 2.285707441247718e+00	 1.142879187563616e+00	 9.999999420335689e+00
0	 2.285707441247717e+00	 1.285740611004601e+00	 9.999999422761951e+00
0	 2.285707441247718e+00	 1.428601984435185e+00	 9.999999392216543e+00
0	 2.428558020182488e+00	 0.000000000000000e+00	 9.999998211895329e+00
0	 2.428558020182488e+00	 1.428576234225853e-01	 9.999998478108965e+00
0	 2.428558020182488e+00	 2.857161301906818e-01	 9.999998711346311e+00
0	 2.428558020182488e+00	 4.285754036348008e-01	 9.999998911608502e+00
0	 2.428558020182489e+00	 5.714353270854529e-01	 9.999999078896545e+00
0	 2.428558020182488e+00	 7.142957838731497e-01	 9.999999213211227e+00
0	 2.428558020182489e+00	 8.571566573284017e-01	 9.999999314553225e+00
0	 2.428558020182489e+00	 1.000017830781720e+00	 9.999999382923034e+00
0	 2.428558020182488e+00	 1.142879187563616e+00	 9.999999418320980e+00
0	 2.428558020182488e+00	 1.285740611004601e+00	 9.999999420747237e+00
0	 2.428558020182489e+00	 1.428601984435185e+00	 9.999999390201838e+00
0	 2.571408549120992e+00	 0.000000000000000e+00	 9.999998221998803e+00
0	 2.571408549120992e+00	 1.428576234225853e-01	 9.999998488212439e+00
0	 2.571408549120992e+00	 2.857161301906819e-01	 9.999998721449787e+00
0	 2.571408549120991e+00	 4.285754036348006e-01	 9.999998921711985e+00
0	 2.571408549120992e+00	 5.714353270854530e-01	 9.999999089000021e+00
0	 2.571408549120993e+00	 7.142957838731497e-01	 9.999999223314704e+00
0	 2.571408549120992e+00	 8.571566573284017e-01	 9.999999324656700e+00
0	 2.571408549120992e+00	 1.000017830781720e+00	 9.999999393026508e+00
0	 2.571408549120992e+00	 1.142879187563616e+00	 9.999999428424456e+00
0	 2.571408549120992e+00	 1.285740611004601e+00	 9.999999430850718e+00
0	 2.571408549120992e+00	 1.428601984435185e+00	 9.999999400305313e+00
0	 2.714259044728984e+00	 0.000000000000000e+00	 9.999998244220475e+00
0	 2.714259044728984e+00	 1.428576234225853e-01	 9.999998510434111e+00
0	 2.714259044728984e+00	 2.857161301906819e-01	 9.999998743671449e+00
0	 2.714259044728985e+00	 4.285754036348008e-01	 9.999998943933655e+00
0	 2.714259044728984e+00	 5.714353270854529e-01	 9.999999111221689e+00
0	 2.714259044728984e+00	 7.142957838731496e-01	 9.999999245536372e+00
0	 2.714259044728984e+00	 8.571566573284018e-01	 9.999999346878369e+00
0	 2.714259044728985e+00	 1.000017830781720e+00	 9.999999415248176e+00
0	 2.714259044728984e+00	 1.142879187563616e+00	 9.999999450646124e+00
0	 2.714259044728985e+00	 1.285740611004601e+00	 9.999999453072387e+00
0	 2.714259044728984e+00	 1.428601984435185e+00	 9.999999422526976e+00
0	 2.857109523672222e+00	 0.000000000000000e+00	 9.999998278560334e+00
0	 2.857109523672222e+00	 1.428576234225852e-01	 9.999998544773966e+00
0	 2.857109523672222e+00	 2.857161301906819e-01	 9.999998778011314e+00
0	 2.857109523672222e+00	 4.285754036348007e-01	 9.999998978273508e+00
0	 2.857109523672222e+00	 5.714353270854530e-01	 9.999999145561544e+00
0	 2.857109523672223e+00	 7.142957838731496e-01	 9.999999279876230e+00
0	 2.857109523672222e+00	 8.571566573284017e-01	 9.999999381218226e+00
0	 2.857109523672222e+00	 1.000017830781720e+00	 9.999999449588037e+00
0	 2.857109523672222e+00	 1.142879187563616e+00	 9.999999484985981e+00
0	 2.857109523672222e+00	 1.285740611004601e+00	 9.999999487412245e+00
0	 2.857109523672221e+00	 1.428601984435185e+00	 9.999999456866835e+00
0	 1.428601984435185e+00	 1.428601984435185e+00	 9.999999658785201e+00
0	 1.428601984435185e+00	 1.571453213328422e+00	 9.999999614104278e+00
0	 1.428601984435185e+00	 1.714304292230859e+00	 9.999999574117499e+00
0	 1.428601984435185e+00	 1.857155237808251e+00	 9.999999538824895e+00
0	 1.428601984435185e+00	 2.000006066726356e+00	 9.999999508226479e+00
0	 1.428601984435185e+00	 2.142856795650925e+00	 9.999999482322291e+00
0	 1.428601984435185e+00	 2.285707441247717e+00	 9.999999461112340e+00
0	 1.428601984435185e+00	 2.428558020182488e+00	 9.999999444596639e+00
0	 1.428601984435185e+00	 2.571408549120992e+00	 9.999999432775201e+00
0	 1.428601984435185e+00	 2.714259044728984e+00	 9.999999425648042e+00
0	 1.428601984435186e+00	 2.857109523672222e+00	 9.999999423215153e+00
0	 1.571453213328422e+00	 1.428601984435185e+00	 9.999999584062016e+00
0	 1.571453213328422e+00	 1.571453213328422e+00	 9.999999539381085e+00
0	 1.571453213328422e+00	 1.714304292230858e+00	 9.999999499394304e+00
0	 1.571453213328422e+00	 1.857155237808251e+00	 9.999999464101698e+00
0	 1.571453213328422e+00	 2.000006066726356e+00	 9.999999433503287e+00
0	 1.571453213328421e+00	 2.142856795650926e+00	 9.999999407599104e+00
0	 1.571453213328422e+00	 2.285707441247719e+00	 9.999999386389144e+00
0	 1.571453213328422e+00	 2.428558020182489e+00	 9.999999369873448e+00
0	 1.571453213328422e+00	 2.571408549120992e+00	 9.999999358052012e+00
0	 1.571453213328422e+00	 2.714259044728984e+00	 9.999999350924849e+00
0	 1.571453213328422e+00	 2.857109523672223e+00	 9.999999348491965e+00
0	 1.714304292230859e+00	 1.428601984435186e+00	 9.999999521456781e+00
0	 1.714304292230859e+00	 1.571453213328422e+00	 9.999999476775859e+00
0	 1.714304292230858e+00	 1.714304292230858e+00	 9.999999436789079e+00
0	 1.714304292230859e+00	 1.857155237808251e+00	 9.999999401496465e+00
0	 1.714304292230859e+00	 2.000006066726355e+00	 9.999999370898060e+00
0	 1.714304292230859e+00	 2.142856795650926e+00	 9.999999344993872e+00
0	 1.714304292230859e+00	 2.285707441247718e+00	 9.999999323783923e+00
0	 1.714304292230858e+00	 2.428558020182488e+00	 9.999999307268222e+00
0	 1.714304292230859e+00	 2.571408549120993e+00	 9.999999295446781e+00
0	 1.714304292230858e+00	 2.714259044728984e+00	 9.999999288319618e+00
0	 1.714304292230859e+00	 2.857109523672222e+00	 9.999999285886737e+00
0	 1.857155237808251e+00	 1.428601984435185e+00	 9.999999470969570e+00
0	 1.857155237808251e+00	 1.571453213328422e+00	 9.999999426288646e+00
0	 1.857155237808251e+00	 1.714304292230859e+00	 9.999999386301866e+00
0	 1.857155237808251e+00	 1.857155237808251e+00	 9.999999351009258e+00
0	 1.857155237808251e+00	 2.000006066726356e+00	 9.999999320410856e+00
0	 1.857155237808251e+00	 2.142856795650925e+00	 9.999999294506663e+00
0	 1.857155237808251e+00	 2.285707441247719e+00	 9.999999273296714e+00
0	 1.857155237808252e+00	 2.428558020182488e+00	 9.999999256781013e+00
0	 1.857155237808251e+00	 2.571408549120991e+00	 9.999999244959579e+00
0	 1.857155237808251e+00	 2.714259044728984e+00	 9.999999237832412e+00
0	 1.857155237808251e+00	 2.857109523672222e+00	 9.999999235399526e+00
0	 2.000006066726355e+00	 1.428601984435186e+00	 9.999999432600442e+00
0	 2.000006066726356e+00	 1.571453213328422e+00	 9.999999387919516e+00
0	 2.000006066726355e+00	 1.714304292230859e+00	 9.999999347932738e+00
0	 2.000006066726355e+00	 1.857155237808252e+00	 9.999999312640135e+00
0	 2.000006066726356e+00	 2.000006066726356e+00	 9.999999282041717e+00
0	 2.000006066726355e+00	 2.142856795650925e+00	 9.999999256137533e+00
0	 2.000006066726356e+00	 2.285707441247718e+00	 9.999999234927580e+00
0	 2.000006066726355e+00	 2.428558020182488e+00	 9.999999218411876e+00
0	 2.000006066726355e+00	 2.571408549120992e+00	 9.999999206590442e+00
0	 2.000006066726355e+00	 2.714259044728985e+00	 9.999999199463280e+00
0	 2.000006066726355e+00	 2.857109523672223e+00	 9.999999197030389e+00
0	 2.142856795650926e+00	 1.428601984435185e+00	 9.999999406349421e+00
0	 2.142856795650925e+00	 1.571453213328422e+00	 9.999999361668497e+00
0	 2.142856795650927e+00	 1.714304292230859e+00	 9.999999321681710e+00
0	 2.142856795650926e+00	 1.857155237808252e+00	 9.999999286389105e+00
0	 2.142856795650926e+00	 2.000006066726356e+00	 9.999999255790694e+00
0	 2.142856795650925e+00	 2.142856795650925e+00	 9.999999229886507e+00
0	 2.142856795650925e+00	 2.285707441247718e+00	 9.999999208676556e+00
0	 2.142856795650925e+00	 2.428558020182488e+00	 9.999999192160855e+00
0	 2.142856795650926e+00	 2.571408549120991e+00	 9.999999180339419e+00
0	 2.142856795650926e+00	 2.714259044728985e+00	 9.999999173212256e+00
0	 2.142856795650926e+00	 2.857109523672222e+00	 9.999999170779370e+00
0	 2.285707441247718e+00	 1.428601984435185e+00	 9.999999392216544e+00
0	 2.285707441247718e+00	 1.571453213328422e+00	 9.999999347535613e+00
0	 2.285707441247718e+00	 1.714304292230859e+00	 9.999999307548832e+00
0	 2.285707441247718e+00	 1.857155237808251e+00	 9.999999272256233e+00
0	 2.285707441247718e+00	 2.000006066726355e+00	 9.999999241657825e+00
0	 2.285707441247718e+00	 2.142856795650926e+00	 9.999999215753634e+00
0	 2.285707441247717e+00	 2.285707441247718e+00	 9.999999194543678e+00
0	 2.285707441247718e+00	 2.428558020182488e+00	 9.999999178027972e+00
0	 2.285707441247718e+00	 2.571408549120993e+00	 9.999999166206541e+00
0	 2.285707441247718e+00	 2.714259044728984e+00	 9.999999159079380e+00
0	 2.285707441247718e+00	 2.857109523672222e+00	 9.999999156646496e+00
0	 2.428558020182489e+00	 1.428601984435185e+00	 9.999999390201836e+00
0	 2.428558020182489e+00	 1.571453213328422e+00	 9.999999345520909e+00
0	 2.428558020182489e+00	 1.714304292230859e+00	 9.999999305534130e+00
0	 2.428558020182488e+00	 1.857155237808252e+00	 9.999999270241519e+00
0	 2.428558020182488e+00	 2.000006066726355e+00	 9.999999239643110e+00
0	 2.428558020182488e+00	 2.142856795650925e+00	 9.999999213738919e+00
0	 2.428558020182488e+00	 2.285707441247718e+00	 9.999999192528971e+00
0	 2.428558020182488e+00	 2.428558020182488e+00	 9.999999176013272e+00
0	 2.428558020182488e+00	 2.571408549120991e+00	 9.999999164191841e+00
0	 2.428558020182488e+00	 2.714259044728984e+00	 9.999999157064671e+00
0	 2.428558020182489e+00	 2.857109523672223e+00	 9.999999154631784e+00
0	 2.571408549120992e+00	 1.428601984435185e+00	 9.999999400305311e+00
0	 2.571408549120992e+00	 1.571453213328422e+00	 9.999999355624388e+00
0	 2.571408549120992e+00	 1.714304292230859e+00	 9.999999315637604e+00
0	 2.571408549120992e+00	 1.857155237808251e+00	 9.999999280344998e+00
0	 2.571408549120992e+00	 2.000006066726356e+00	 9.999999249746587e+00
0	 2.571408549120993e+00	 2.142856795650926e+00	 9.999999223842398e+00
0	 2.571408549120992e+00	 2.285707441247718e+00	 9.999999202632441e+00
0	 2.571408549120991e+00	 2.428558020182488e+00	 9.999999186116746e+00
0	 2.571408549120993e+00	 2.571408549120992e+00	 9.999999174295311e+00
0	 2.571408549120991e+00	 2.714259044728984e+00	 9.999999167168149e+00
0	 2.571408549120992e+00	 2.857109523672221e+00	 9.999999164735266e+00
0	 2.714259044728984e+00	 1.428601984435185e+00	 9.999999422526983e+00
0	 2.714259044728984e+00	 1.571453213328422e+00	 9.999999377846050e+00
0	 2.714259044728985e+00	 1.714304292230859e+00	 9.999999337859268e+00
0	 2.714259044728985e+00	 1.857155237808251e+00	 9.999999302566660e+00
0	 2.714259044728984e+00	 2.000006066726354e+00	 9.999999271968255e+00
0	 2.714259044728984e+00	 2.142856795650925e+00	 9.999999246064068e+00
0	 2.714259044728985e+00	 2.285707441247718e+00	 9.999999224854118e+00
0	 2.714259044728984e+00	 2.428558020182488e+00	 9.999999208338414e+00
0	 2.714259044728985e+00	 2.571408549120992e+00	 9.999999196516983e+00
0	 2.714259044728984e+00	 2.714259044728984e+00	 9.999999189389817e+00
0	 2.714259044728984e+00	 2.857109523672222e+00	 9.999999186956931e+00
0	 2.857109523672221e+00	 1.428601984435185e+00	 9.999999456866840e+00
0	 2.857109523672222e+00	 1.571453213328422e+00	 9.999999412185915e+00
0	 2.857109523672222e+00	 1.714304292230858e+00	 9.999999372199129e+00
0	 2.857109523672222e+00	 1.857155237808251e+00	 9.999999336906527e+00
0	 2.857109523672223e+00	 2.000006066726356e+00	 9.999999306308116e+00
0	 2.857109523672222e+00	 2.142856795650926e+00	 9.999999280403927e+00
0	 2.857109523672222e+00	 2.285707441247718e+00	 9.999999259193974e+00
0	 2.857109523672223e+00	 2.428558020182489e+00	 9.999999242678275e+00
0	 2.857109523672222e+00	 2.571408549120993e+00	 9.999999230856837e+00
0	 2.857109523672222e+00	 2.714259044728984e+00	 9.999999223729677e+00
0	 2.857109523672222e+00	 2.857109523672222e+00	 9.999999221296786e+00
0	 1.428601984435186e+00	 2.857109523672222e+00	 9.999999423215153e+00
0	 1.428601984435185e+00	 2.999969994316576e+00	 9.999999423133691e+00
0	 1.428601984435185e+00	 3.142830431628385e+00	 9.999999423060800e+00
0	 1.428601984435185e+00	 3.285690802274106e+00	 9.999999422996487e+00
0	 1.428601984435185e+00	 3.428551072920192e+00	 9.999999422940743e+00
0	 1.428601984435185e+00	 3.571411210233103e+00	 9.999999422893580e+00
0	 1.428601984435185e+00	 3.714271180879290e+00	 9.999999422854994e+00
0	 1.428601984435185e+00	 3.857130951525209e+00	 9.999999422824976e+00
0	 1.428601984435185e+00	 3.999990488837321e+00	 9.999999422803539e+00
0	 1.428601984435185e+00	 4.142849759482075e+00	 9.999999422790678e+00
0	 1.428601984435185e+00	 4.285708730125926e+00	 9.999999422786388e+00
0	 1.571453213328422e+00	 2.857109523672223e+00	 9.999999348491965e+00
0	 1.571453213328422e+00	 2.999969994316576e+00	 9.999999348410496e+00
0	 1.571453213328422e+00	 3.142830431628386e+00	 9.999999348337612e+00
0	 1.571453213328422e+00	 3.285690802274106e+00	 9.999999348273292e+00
0	 1.571453213328422e+00	 3.428551072920193e+00	 9.999999348217552e+00
0	 1.571453213328422e+00	 3.571411210233101e+00	 9.999999348170391e+00
0	 1.571453213328422e+00	 3.714271180879290e+00	 9.999999348131801e+00
0	 1.571453213328422e+00	 3.857130951525211e+00	 9.999999348101785e+00
0	 1.571453213328422e+00	 3.999990488837320e+00	 9.999999348080344e+00
0	 1.571453213328422e+00	 4.142849759482073e+00	 9.999999348067485e+00
0	 1.571453213328422e+00	 4.285708730125926e+00	 9.999999348063202e+00
0	 1.714304292230859e+00	 2.857109523672222e+00	 9.999999285886737e+00
0	 1.714304292230859e+00	 2.999969994316576e+00	 9.999999285805270e+00
0	 1.714304292230859e+00	 3.142830431628386e+00	 9.999999285732372e+00
0	 1.714304292230859e+00	 3.285690802274106e+00	 9.999999285668064e+00
0	 1.714304292230859e+00	 3.428551072920194e+00	 9.999999285612324e+00
0	 1.714304292230860e+00	 3.571411210233104e+00	 9.999999285565153e+00
0	 1.714304292230858e+00	 3.714271180879289e+00	 9.999999285526570e+00
0	 1.714304292230859e+00	 3.857130951525210e+00	 9.999999285496564e+00
0	 1.714304292230859e+00	 3.999990488837320e+00	 9.999999285475120e+00
0	 1.714304292230859e+00	 4.142849759482074e+00	 9.999999285462263e+00
0	 1.714304292230859e+00	 4.285708730125926e+00	 9.999999285457967e+00
0	 1.857155237808251e+00	 2.857109523672222e+00	 9.999999235399526e+00
0	 1.857155237808251e+00	 2.999969994316575e+00	 9.999999235318061e+00
0	 1.857155237808251e+00	 3.142830431628385e+00	 9.999999235245172e+00
0	 1.857155237808251e+00	 3.285690802274106e+00	 9.999999235180859e+00
0	 1.857155237808252e+00	 3.428551072920193e+00	 9.999999235125117e+00
0	 1.857155237808251e+00	 3.571411210233102e+00	 9.999999235077953e+00
0	 1.857155237808252e+00	 3.714271180879290e+00	 9.999999235039365e+00
0	 1.857155237808252e+00	 3.857130951525211e+00	 9.999999235009348e+00
0	 1.857155237808251e+00	 3.999990488837319e+00	 9.999999234987905e+00
0	 1.857155237808251e+00	 4.142849759482074e+00	 9.999999234975050e+00
0	 1.857155237808252e+00	 4.285708730125926e+00	 9.999999234970762e+00
0	 2.000006066726355e+00	 2.857109523672223e+00	 9.999999197030389e+00
0	 2.000006066726356e+00	 2.999969994316577e+00	 9.999999196948927e+00
0	 2.000006066726355e+00	 3.142830431628385e+00	 9.999999196876040e+00
0	 2.000006066726356e+00	 3.285690802274107e+00	 9.999999196811723e+00
0	 2.000006066726356e+00	 3.428551072920194e+00	 9.999999196755986e+00
0	 2.000006066726355e+00	 3.571411210233103e+00	 9.999999196708817e+00
0	 2.000006066726355e+00	 3.714271180879289e+00	 9.999999196670231e+00
0	 2.000006066726355e+00	 3.857130951525210e+00	 9.999999196640214e+00
0	 2.000006066726355e+00	 3.999990488837319e+00	 9.999999196618774e+00
0	 2.000006066726355e+00	 4.142849759482075e+00	 9.999999196605913e+00
0	 2.000006066726355e+00	 4.285708730125926e+00	 9.999999196601626e+00
0	 2.142856795650926e+00	 2.857109523672222e+00	 9.999999170779370e+00
0	 2.142856795650925e+00	 2.999969994316576e+00	 9.999999170697910e+00
0	 2.142856795650925e+00	 3.142830431628386e+00	 9.999999170625012e+00
0	 2.142856795650925e+00	 3.285690802274106e+00	 9.999999170560697e+00
0	 2.142856795650926e+00	 3.428551072920193e+00	 9.999999170504960e+00
0	 2.142856795650925e+00	 3.571411210233102e+00	 9.999999170457794e+00
0	 2.142856795650925e+00	 3.714271180879290e+00	 9.999999170419208e+00
0	 2.142856795650925e+00	 3.857130951525211e+00	 9.999999170389193e+00
0	 2.142856795650926e+00	 3.999990488837319e+00	 9.999999170367754e+00
0	 2.142856795650925e+00	 4.142849759482074e+00	 9.999999170354894e+00
0	 2.142856795650926e+00	 4.285708730125926e+00	 9.999999170350605e+00
0	 2.285707441247718e+00	 2.857109523672222e+00	 9.999999156646496e+00
0	 2.285707441247718e+00	 2.999969994316576e+00	 9.999999156565028e+00
0	 2.285707441247718e+00	 3.142830431628385e+00	 9.999999156492134e+00
0	 2.285707441247718e+00	 3.285690802274106e+00	 9.999999156427821e+00
0	 2.285707441247718e+00	 3.428551072920193e+00	 9.999999156372086e+00
0	 2.285707441247719e+00	 3.571411210233103e+00	 9.999999156324916e+00
0	 2.285707441247718e+00	 3.714271180879290e+00	 9.999999156286332e+00
0	 2.285707441247718e+00	 3.857130951525210e+00	 9.999999156256317e+00
0	 2.285707441247717e+00	 3.999990488837320e+00	 9.999999156234878e+00
0	 2.285707441247718e+00	 4.142849759482075e+00	 9.999999156222017e+00
0	 2.285707441247718e+00	 4.285708730125926e+00	 9.999999156217726e+00
0	 2.428558020182489e+00	 2.857109523672223e+00	 9.999999154631784e+00
0	 2.428558020182488e+00	 2.999969994316576e+00	 9.999999154550320e+00
0	 2.428558020182489e+00	 3.142830431628386e+00	 9.999999154477432e+00
0	 2.428558020182488e+00	 3.285690802274105e+00	 9.999999154413112e+00
0	 2.428558020182489e+00	 3.428551072920194e+00	 9.999999154357376e+00
0	 2.428558020182488e+00	 3.571411210233103e+00	 9.999999154310217e+00
0	 2.428558020182488e+00	 3.714271180879290e+00	 9.999999154271620e+00
0	 2.428558020182489e+00	 3.857130951525211e+00	 9.999999154241603e+00
0	 2.428558020182488e+00	 3.999990488837320e+00	 9.999999154220170e+00
0	 2.428558020182488e+00	 4.142849759482074e+00	 9.999999154207307e+00
0	 2.428558020182488e+00	 4.285708730125926e+00	 9.999999154203021e+00
0	 2.571408549120992e+00	 2.857109523672221e+00	 9.999999164735266e+00
0	 2.571408549120992e+00	 2.999969994316576e+00	 9.999999164653797e+00
0	 2.571408549120993e+00	 3.142830431628386e+00	 9.999999164580904e+00
0	 2.571408549120993e+00	 3.285690802274106e+00	 9.999999164516593e+00
0	 2.571408549120992e+00	 3.428551072920193e+00	 9.999999164460849e+00
0	 2.571408549120992e+00	 3.571411210233103e+00	 9.999999164413692e+00
0	 2.571408549120992e+00	 3.714271180879290e+00	 9.999999164375094e+00
0	 2.571408549120992e+00	 3.857130951525210e+00	 9.999999164345091e+00
0	 2.571408549120992e+00	 3.999990488837320e+00	 9.999999164323642e+00
0	 2.571408549120992e+00	 4.142849759482074e+00	 9.999999164310790e+00
0	 2.571408549120992e+00	 4.285708730125926e+00	 9.999999164306494e+00
0	 2.714259044728984e+00	 2.857109523672222e+00	 9.999999186956927e+00
0	 2.714259044728984e+00	 2.999969994316575e+00	 9.999999186875465e+00
0	 2.714259044728984e+00	 3.142830431628386e+00	 9.999999186802576e+00
0	 2.714259044728984e+00	 3.285690802274106e+00	 9.999999186738263e+00
0	 2.714259044728985e+00	 3.428551072920193e+00	 9.999999186682519e+00
0	 2.714259044728985e+00	 3.571411210233103e+00	 9.999999186635353e+00
0	 2.714259044728984e+00	 3.714271180879289e+00	 9.999999186596764e+00
0	 2.714259044728984e+00	 3.857130951525210e+00	 9.999999186566752e+00
0	 2.714259044728984e+00	 3.999990488837320e+00	 9.999999186545317e+00
0	 2.714259044728985e+00	 4.142849759482074e+00	 9.999999186532452e+00
0	 2.714259044728984e+00	 4.285708730125926e+00	 9.999999186528164e+00
0	 2.857109523672222e+00	 2.857109523672222e+00	 9.999999221296788e+00
0	 2.857109523672222e+00	 2.999969994316576e+00	 9.999999221215324e+00
0	 2.857109523672223e+00	 3.142830431628385e+00	 9.999999221142435e+00
0	 2.857109523672222e+00	 3.285690802274106e+00	 9.999999221078120e+00
0	 2.857109523672222e+00	 3.428551072920193e+00	 9.999999221022376e+00
0	 2.857109523672223e+00	 3.571411210233103e+00	 9.999999220975218e+00
0	 2.857109523672222e+00	 3.714271180879290e+00	 9.999999220936630e+00
0	 2.857109523672222e+00	 3.857130951525211e+00	 9.999999220906611e+00
0	 2.857109523672222e+00	 3.999990488837320e+00	 9.999999220885176e+00
0	 2.857109523672223e+00	 4.142849759482074e+00	 9.999999220872313e+00
0	 2.857109523672222e+00	 4.285708730125926e+00	 9.999999220868027e+00
0	 1.428601984435185e+00	 4.285708730125926e+00	 9.999999422786388e+00
0	 1.428601984435185e+00	 4.428567384102075e+00	 9.999999422786390e+00
0	 1.428601984435185e+00	 4.571425771410667e+00	 9.999999422786395e+00
0	 1.428601984435185e+00	 4.714283958718593e+00	 9.999999422786386e+00
0	 1.428601984435186e+00	 4.857142012692743e+00	 9.999999422786392e+00
0	 1.428601984435185e+00	 5.000000000000001e+00	 9.999999422786390e+00
0	 1.428601984435185e+00	 5.142857987307260e+00	 9.999999422786386e+00
0	 1.428601984435185e+00	 5.285716041281408e+00	 9.999999422786397e+00
0	 1.428601984435185e+00	 5.428574228589335e+00	 9.999999422786388e+00
0	 1.428601984435185e+00	 5.571432615897926e+00	 9.999999422786395e+00
0	 1.428601984435185e+00	 5.714291269874074e+00	 9.999999422786390e+00
0	 1.571453213328422e+00	 4.285708730125926e+00	 9.999999348063202e+00
0	 1.571453213328422e+00	 4.428567384102075e+00	 9.999999348063202e+00
0	 1.571453213328422e+00	 4.571425771410668e+00	 9.999999348063195e+00
0	 1.571453213328422e+00	 4.714283958718593e+00	 9.999999348063193e+00
0	 1.571453213328422e+00	 4.857142012692742e+00	 9.999999348063200e+00
0	 1.571453213328422e+00	 5.000000000000001e+00	 9.999999348063195e+00
0	 1.571453213328422e+00	 5.142857987307262e+00	 9.999999348063202e+00
0	 1.571453213328422e+00	 5.285716041281408e+00	 9.999999348063195e+00
0	 1.571453213328422e+00	 5.428574228589334e+00	 9.999999348063195e+00
0	 1.571453213328422e+00	 5.571432615897931e+00	 9.999999348063202e+00
0	 1.571453213328422e+00	 5.714291269874074e+00	 9.999999348063200e+00
0	 1.714304292230859e+00	 4.285708730125926e+00	 9.999999285457967e+00
0	 1.714304292230860e+00	 4.428567384102076e+00	 9.999999285457974e+00
0	 1.714304292230859e+00	 4.571425771410667e+00	 9.999999285457966e+00
0	 1.714304292230859e+00	 4.714283958718593e+00	 9.999999285457969e+00
0	 1.714304292230858e+00	 4.857142012692743e+00	 9.999999285457967e+00
0	 1.714304292230859e+00	 5.000000000000002e+00	 9.999999285457973e+00
0	 1.714304292230859e+00	 5.142857987307260e+00	 9.999999285457976e+00
0	 1.714304292230859e+00	 5.285716041281409e+00	 9.999999285457967e+00
0	 1.714304292230859e+00	 5.428574228589334e+00	 9.999999285457974e+00
0	 1.714304292230859e+00	 5.571432615897928e+00	 9.999999285457973e+00
0	 1.714304292230859e+00	 5.714291269874075e+00	 9.999999285457976e+00
0	 1.857155237808252e+00	 4.285708730125926e+00	 9.999999234970762e+00
0	 1.857155237808251e+00	 4.428567384102076e+00	 9.999999234970764e+00
0	 1.857155237808251e+00	 4.571425771410667e+00	 9.999999234970760e+00
0	 1.857155237808252e+00	 4.714283958718594e+00	 9.999999234970758e+00
0	 1.857155237808251e+00	 4.857142012692741e+00	 9.999999234970767e+00
0	 1.857155237808251e+00	 5.000000000000002e+00	 9.999999234970762e+00
0	 1.857155237808252e+00	 5.142857987307262e+00	 9.999999234970760e+00
0	 1.857155237808251e+00	 5.285716041281407e+00	 9.999999234970762e+00
0	 1.857155237808252e+00	 5.428574228589336e+00	 9.999999234970758e+00
0	 1.857155237808251e+00	 5.571432615897928e+00	 9.999999234970765e+00
0	 1.857155237808252e+00	 5.714291269874074e+00	 9.999999234970767e+00
0	 2.000006066726355e+00	 4.285708730125926e+00	 9.999999196601626e+00
0	 2.000006066726355e+00	 4.428567384102075e+00	 9.999999196601630e+00
0	 2.000006066726355e+00	 4.571425771410667e+00	 9.999999196601626e+00
0	 2.000006066726355e+00	 4.714283958718594e+00	 9.999999196601625e+00
0	 2.000006066726355e+00	 4.857142012692742e+00	 9.999999196601630e+00
0	 2.000006066726355e+00	 5.000000000000000e+00	 9.999999196601623e+00
0	 2.000006066726355e+00	 5.142857987307261e+00	 9.999999196601625e+00
0	 2.000006066726355e+00	 5.285716041281410e+00	 9.999999196601626e+00
0	 2.000006066726356e+00	 5.428574228589337e+00	 9.999999196601632e+00
0	 2.000006066726356e+00	 5.571432615897928e+00	 9.999999196601633e+00
0	 2.000006066726356e+00	 5.714291269874075e+00	 9.999999196601633e+00
0	 2.142856795650926e+00	 4.285708730125926e+00	 9.999999170350605e+00
0	 2.142856795650926e+00	 4.428567384102076e+00	 9.999999170350611e+00
0	 2.142856795650925e+00	 4.571425771410667e+00	 9.999999170350604e+00
0	 2.142856795650925e+00	 4.714283958718593e+00	 9.999999170350605e+00
0	 2.142856795650926e+00	 4.857142012692742e+00	 9.999999170350611e+00
0	 2.142856795650925e+00	 5.000000000000001e+00	 9.999999170350604e+00
0	 2.142856795650926e+00	 5.142857987307262e+00	 9.999999170350605e+00
0	 2.142856795650926e+00	 5.285716041281409e+00	 9.999999170350611e+00
0	 2.142856795650926e+00	 5.428574228589335e+00	 9.999999170350604e+00
0	 2.142856795650926e+00	 5.571432615897929e+00	 9.999999170350605e+00
0	 2.142856795650925e+00	 5.714291269874074e+00	 9.999999170350611e+00
0	 2.285707441247718e+00	 4.285708730125926e+00	 9.999999156217726e+00
0	 2.285707441247718e+00	 4.428567384102075e+00	 9.999999156217728e+00
0	 2.285707441247718e+00	 4.571425771410667e+00	 9.999999156217728e+00
0	 2.285707441247718e+00	 4.714283958718593e+00	 9.999999156217719e+00
0	 2.285707441247718e+00	 4.857142012692743e+00	 9.999999156217726e+00
0	 2.285707441247717e+00	 5.000000000000001e+00	 9.999999156217724e+00
0	 2.285707441247719e+00	 5.142857987307262e+00	 9.999999156217728e+00
0	 2.285707441247718e+00	 5.285716041281411e+00	 9.999999156217726e+00
0	 2.285707441247718e+00	 5.428574228589335e+00	 9.999999156217733e+00
0	 2.285707441247718e+00	 5.571432615897928e+00	 9.999999156217735e+00
0	 2.285707441247718e+00	 5.714291269874074e+00	 9.999999156217728e+00
0	 2.428558020182488e+00	 4.285708730125926e+00	 9.999999154203021e+00
0	 2.428558020182488e+00	 4.428567384102074e+00	 9.999999154203019e+00
0	 2.428558020182488e+00	 4.571425771410667e+00	 9.999999154203023e+00
0	 2.428558020182488e+00	 4.714283958718593e+00	 9.999999154203017e+00
0	 2.428558020182488e+00	 4.857142012692741e+00	 9.999999154203017e+00
0	 2.428558020182489e+00	 5.000000000000002e+00	 9.999999154203017e+00
0	 2.428558020182488e+00	 5.142857987307261e+00	 9.999999154203019e+00
0	 2.428558020182487e+00	 5.285716041281407e+00	 9.999999154203028e+00
0	 2.428558020182488e+00	 5.428574228589335e+00	 9.999999154203024e+00
0	 2.428558020182488e+00	 5.571432615897928e+00	 9.999999154203024e+00
0	 2.428558020182488e+00	 5.714291269874074e+00	 9.999999154203030e+00
0	 2.571408549120992e+00	 4.285708730125926e+00	 9.999999164306494e+00
0	 2.571408549120992e+00	 4.428567384102076e+00	 9.999999164306498e+00
0	 2.571408549120992e+00	 4.571425771410667e+00	 9.999999164306500e+00
0	 2.571408549120992e+00	 4.714283958718593e+00	 9.999999164306496e+00
0	 2.571408549120993e+00	 4.857142012692743e+00	 9.999999164306498e+00
0	 2.571408549120992e+00	 5.000000000000002e+00	 9.999999164306502e+00
0	 2.571408549120992e+00	 5.142857987307260e+00	 9.999999164306502e+00
0	 2.571408549120992e+00	 5.285716041281410e+00	 9.999999164306500e+00
0	 2.571408549120992e+00	 5.428574228589335e+00	 9.999999164306496e+00
0	 2.571408549120991e+00	 5.571432615897927e+00	 9.999999164306500e+00
0	 2.571408549120992e+00	 5.714291269874074e+00	 9.999999164306496e+00
0	 2.714259044728984e+00	 4.285708730125926e+00	 9.999999186528164e+00
0	 2.714259044728984e+00	 4.428567384102075e+00	 9.999999186528173e+00
0	 2.714259044728985e+00	 4.571425771410668e+00	 9.999999186528171e+00
0	 2.714259044728985e+00	 4.714283958718593e+00	 9.999999186528164e+00
0	 2.714259044728984e+00	 4.857142012692742e+00	 9.999999186528164e+00
0	 2.714259044728985e+00	 5.000000000000001e+00	 9.999999186528166e+00
0	 2.714259044728984e+00	 5.142857987307259e+00	 9.999999186528164e+00
0	 2.714259044728984e+00	 5.285716041281410e+00	 9.999999186528170e+00
0	 2.714259044728984e+00	 5.428574228589335e+00	 9.999999186528173e+00
0	 2.714259044728985e+00	 5.571432615897929e+00	 9.999999186528171e+00
0	 2.714259044728984e+00	 5.714291269874074e+00	 9.999999186528164e+00
0	 2.857109523672222e+00	 4.285708730125926e+00	 9.999999220868027e+00
0	 2.857109523672222e+00	 4.428567384102073e+00	 9.999999220868023e+00
0	 2.857109523672223e+00	 4.571425771410668e+00	 9.999999220868023e+00
0	 2.857109523672222e+00	 4.714283958718593e+00	 9.999999220868020e+00
0	 2.857109523672223e+00	 4.857142012692742e+00	 9.999999220868025e+00
0	 2.857109523672222e+00	 5.000000000000001e+00	 9.999999220868023e+00
0	 2.857109523672222e+00	 5.142857987307261e+00	 9.999999220868027e+00
0	 2.857109523672222e+00	 5.285716041281408e+00	 9.999999220868029e+00
0	 2.857109523672222e+00	 5.428574228589336e+00	 9.999999220868027e+00
0	 2.857109523672222e+00	 5.571432615897928e+00	 9.999999220868023e+00
0	 2.857109523672222e+00	 5.714291269874074e+00	 9.999999220868030e+00
0	 1.428601984435185e+00	 5.714291269874074e+00	 9.999999422786390e+00
0	 1.428601984435185e+00	 5.857150240517928e+00	 9.999999422790680e+00
0	 1.428601984435185e+00	 6.000009511162683e+00	 9.999999422803546e+00
0	 1.428601984435185e+00	 6.142869048474793e+00	 9.999999422824985e+00
0	 1.428601984435185e+00	 6.285728819120713e+00	 9.999999422854996e+00
0	 1.428601984435185e+00	 6.428588789766897e+00	 9.999999422893582e+00
0	 1.428601984435185e+00	 6.571448927079810e+00	 9.999999422940750e+00
0	 1.428601984435185e+00	 6.714309197725895e+00	 9.999999422996488e+00
0	 1.428601984435185e+00	 6.857169568371617e+00	 9.999999423060800e+00
0	 1.428601984435185e+00	 7.000030005683426e+00	 9.999999423133691e+00
0	 1.428601984435185e+00	 7.142890476327780e+00	 9.999999423215151e+00
0	 1.571453213328422e+00	 5.714291269874074e+00	 9.999999348063200e+00
0	 1.571453213328422e+00	 5.857150240517929e+00	 9.999999348067492e+00
0	 1.571453213328422e+00	 6.000009511162682e+00	 9.999999348080356e+00
0	 1.571453213328421e+00	 6.142869048474790e+00	 9.999999348101788e+00
0	 1.571453213328422e+00	 6.285728819120711e+00	 9.999999348131800e+00
0	 1.571453213328422e+00	 6.428588789766901e+00	 9.999999348170387e+00
0	 1.571453213328422e+00	 6.571448927079809e+00	 9.999999348217562e+00
0	 1.571453213328422e+00	 6.714309197725895e+00	 9.999999348273294e+00
0	 1.571453213328422e+00	 6.857169568371619e+00	 9.999999348337612e+00
0	 1.571453213328422e+00	 7.000030005683425e+00	 9.999999348410501e+00
0	 1.571453213328422e+00	 7.142890476327778e+00	 9.999999348491960e+00
0	 1.714304292230859e+00	 5.714291269874075e+00	 9.999999285457976e+00
0	 1.714304292230859e+00	 5.857150240517928e+00	 9.999999285462261e+00
0	 1.714304292230859e+00	 6.000009511162682e+00	 9.999999285475120e+00
0	 1.714304292230859e+00	 6.142869048474791e+00	 9.999999285496557e+00
0	 1.714304292230859e+00	 6.285728819120713e+00	 9.999999285526576e+00
0	 1.714304292230859e+00	 6.428588789766902e+00	 9.999999285565163e+00
0	 1.714304292230859e+00	 6.571448927079810e+00	 9.999999285612331e+00
0	 1.714304292230859e+00	 6.714309197725897e+00	 9.999999285668066e+00
0	 1.714304292230859e+00	 6.857169568371616e+00	 9.999999285732383e+00
0	 1.714304292230859e+00	 7.000030005683427e+00	 9.999999285805270e+00
0	 1.714304292230858e+00	 7.142890476327779e+00	 9.999999285886732e+00
0	 1.857155237808252e+00	 5.714291269874074e+00	 9.999999234970767e+00
0	 1.857155237808251e+00	 5.857150240517927e+00	 9.999999234975048e+00
0	 1.857155237808251e+00	 6.000009511162682e+00	 9.999999234987920e+00
0	 1.857155237808251e+00	 6.142869048474791e+00	 9.999999235009355e+00
0	 1.857155237808251e+00	 6.285728819120710e+00	 9.999999235039368e+00
0	 1.857155237808252e+00	 6.428588789766900e+00	 9.999999235077963e+00
0	 1.857155237808251e+00	 6.571448927079809e+00	 9.999999235125122e+00
0	 1.857155237808251e+00	 6.714309197725896e+00	 9.999999235180859e+00
0	 1.857155237808252e+00	 6.857169568371618e+00	 9.999999235245172e+00
0	 1.857155237808251e+00	 7.000030005683427e+00	 9.999999235318061e+00
0	 1.857155237808251e+00	 7.142890476327776e+00	 9.999999235399525e+00
0	 2.000006066726356e+00	 5.714291269874075e+00	 9.999999196601633e+00
0	 2.000006066726355e+00	 5.857150240517928e+00	 9.999999196605920e+00
0	 2.000006066726354e+00	 6.000009511162681e+00	 9.999999196618777e+00
0	 2.000006066726356e+00	 6.142869048474791e+00	 9.999999196640228e+00
0	 2.000006066726355e+00	 6.285728819120711e+00	 9.999999196670233e+00
0	 2.000006066726355e+00	 6.428588789766899e+00	 9.999999196708822e+00
0	 2.000006066726355e+00	 6.571448927079810e+00	 9.999999196755986e+00
0	 2.000006066726356e+00	 6.714309197725895e+00	 9.999999196811732e+00
0	 2.000006066726355e+00	 6.857169568371618e+00	 9.999999196876036e+00
0	 2.000006066726356e+00	 7.000030005683427e+00	 9.999999196948924e+00
0	 2.000006066726356e+00	 7.142890476327779e+00	 9.999999197030389e+00
0	 2.142856795650925e+00	 5.714291269874074e+00	 9.999999170350611e+00
0	 2.142856795650925e+00	 5.857150240517930e+00	 9.999999170354892e+00
0	 2.142856795650925e+00	 6.000009511162682e+00	 9.999999170367763e+00
0	 2.142856795650924e+00	 6.142869048474789e+00	 9.999999170389195e+00
0	 2.142856795650926e+00	 6.285728819120711e+00	 9.999999170419214e+00
0	 2.142856795650925e+00	 6.428588789766899e+00	 9.999999170457802e+00
0	 2.142856795650925e+00	 6.571448927079810e+00	 9.999999170504966e+00
0	 2.142856795650925e+00	 6.714309197725895e+00	 9.999999170560708e+00
0	 2.142856795650924e+00	 6.857169568371615e+00	 9.999999170625021e+00
0	 2.142856795650925e+00	 7.000030005683426e+00	 9.999999170697901e+00
0	 2.142856795650926e+00	 7.142890476327779e+00	 9.999999170779368e+00
0	 2.285707441247718e+00	 5.714291269874074e+00	 9.999999156217728e+00
0	 2.285707441247718e+00	 5.857150240517929e+00	 9.999999156222023e+00
0	 2.285707441247718e+00	 6.000009511162681e+00	 9.999999156234884e+00
0	 2.285707441247718e+00	 6.142869048474792e+00	 9.999999156256322e+00
0	 2.285707441247718e+00	 6.285728819120712e+00	 9.999999156286341e+00
0	 2.285707441247717e+00	 6.428588789766896e+00	 9.999999156324918e+00
0	 2.285707441247718e+00	 6.571448927079809e+00	 9.999999156372086e+00
0	 2.285707441247718e+00	 6.714309197725896e+00	 9.999999156427831e+00
0	 2.285707441247718e+00	 6.857169568371615e+00	 9.999999156492137e+00
0	 2.285707441247718e+00	 7.000030005683426e+00	 9.999999156565028e+00
0	 2.285707441247717e+00	 7.142890476327776e+00	 9.999999156646485e+00
0	 2.428558020182488e+00	 5.714291269874074e+00	 9.999999154203030e+00
0	 2.428558020182488e+00	 5.857150240517927e+00	 9.999999154207314e+00
0	 2.428558020182488e+00	 6.000009511162683e+00	 9.999999154220177e+00
0	 2.428558020182489e+00	 6.142869048474793e+00	 9.999999154241621e+00
0	 2.428558020182488e+00	 6.285728819120712e+00	 9.999999154271631e+00
0	 2.428558020182488e+00	 6.428588789766899e+00	 9.999999154310222e+00
0	 2.428558020182488e+00	 6.571448927079808e+00	 9.999999154357374e+00
0	 2.428558020182488e+00	 6.714309197725898e+00	 9.999999154413114e+00
0	 2.428558020182489e+00	 6.857169568371618e+00	 9.999999154477429e+00
0	 2.428558020182488e+00	 7.000030005683427e+00	 9.999999154550316e+00
0	 2.428558020182488e+00	 7.142890476327778e+00	 9.999999154631784e+00
0	 2.571408549120992e+00	 5.714291269874074e+00	 9.999999164306496e+00
0	 2.571408549120992e+00	 5.857150240517928e+00	 9.999999164310786e+00
0	 2.571408549120993e+00	 6.000009511162682e+00	 9.999999164323656e+00
0	 2.571408549120992e+00	 6.142869048474792e+00	 9.999999164345084e+00
0	 2.571408549120992e+00	 6.285728819120712e+00	 9.999999164375099e+00
0	 2.571408549120992e+00	 6.428588789766901e+00	 9.999999164413696e+00
0	 2.571408549120992e+00	 6.571448927079809e+00	 9.999999164460858e+00
0	 2.571408549120992e+00	 6.714309197725898e+00	 9.999999164516591e+00
0	 2.571408549120992e+00	 6.857169568371617e+00	 9.999999164580906e+00
0	 2.571408549120992e+00	 7.000030005683427e+00	 9.999999164653797e+00
0	 2.571408549120992e+00	 7.142890476327778e+00	 9.999999164735266e+00
0	 2.714259044728984e+00	 5.714291269874074e+00	 9.999999186528164e+00
0	 2.714259044728985e+00	 5.857150240517928e+00	 9.999999186532460e+00
0	 2.714259044728985e+00	 6.000009511162683e+00	 9.999999186545324e+00
0	 2.714259044728985e+00	 6.142869048474791e+00	 9.999999186566765e+00
0	 2.714259044728985e+00	 6.285728819120712e+00	 9.999999186596778e+00
0	 2.714259044728985e+00	 6.428588789766901e+00	 9.999999186635364e+00
0	 2.714259044728985e+00	 6.571448927079810e+00	 9.999999186682528e+00
0	 2.714259044728984e+00	 6.714309197725896e+00	 9.999999186738261e+00
0	 2.714259044728985e+00	 6.857169568371617e+00	 9.999999186802579e+00
0	 2.714259044728984e+00	 7.000030005683426e+00	 9.999999186875471e+00
0	 2.714259044728984e+00	 7.142890476327777e+00	 9.999999186956927e+00
0	 2.857109523672222e+00	 5.714291269874074e+00	 9.999999220868030e+00
0	 2.857109523672222e+00	 5.857150240517928e+00	 9.999999220872311e+00
0	 2.857109523672222e+00	 6.000009511162682e+00	 9.999999220885179e+00
0	 2.857109523672222e+00	 6.142869048474791e+00	 9.999999220906615e+00
0	 2.857109523672222e+00	 6.285728819120712e+00	 9.999999220936633e+00
0	 2.857109523672222e+00	 6.428588789766900e+00	 9.999999220975214e+00
0	 2.857109523672222e+00	 6.571448927079808e+00	 9.999999221022376e+00
0	 2.857109523672222e+00	 6.714309197725895e+00	 9.999999221078122e+00
0	 2.857109523672222e+00	 6.857169568371616e+00	 9.999999221142431e+00
0	 2.857109523672222e+00	 7.000030005683426e+00	 9.999999221215324e+00
0	 2.857109523672222e+00	 7.142890476327777e+00	 9.999999221296788e+00
0	 1.428601984435185e+00	 7.142890476327780e+00	 9.999999423215151e+00
0	 1.428601984435185e+00	 7.285740955271015e+00	 9.999999446849472e+00
0	 1.428601984435185e+00	 7.428591450879006e+00	 9.999999517580900e+00
0	 1.428601984435185e+00	 7.571441979817510e+00	 9.999999635409395e+00
0	 1.428601984435185e+00	 7.714292558752281e+00	 9.999999800334866e+00
0	 1.428601984435185e+00	 7.857143204349073e+00	 1.000000001235723e+01
0	 1.428601984435185e+00	 7.999993933273643e+00	 1.000000027147630e+01
0	 1.428601984435185e+00	 8.142844762191748e+00	 1.000000057769190e+01
0	 1.428601984435185e+00	 8.285695707769142e+00	 1.000000093100384e+01
0	 1.428601984435185e+00	 8.428546786671578e+00	 1.000000133141186e+01
0	 1.428601984435185e+00	 8.571398015564816e+00	 1.000000177891567e+01
0	 1.571453213328422e+00	 7.142890476327778e+00	 9.999999348491960e+00
0	 1.571453213328422e+00	 7.285740955271012e+00	 9.999999372126277e+00
0	 1.571453213328422e+00	 7.428591450879007e+00	 9.999999442857700e+00
0	 1.571453213328422e+00	 7.571441979817513e+00	 9.999999560686195e+00
0	 1.571453213328422e+00	 7.714292558752281e+00	 9.999999725611680e+00
0	 1.571453213328422e+00	 7.857143204349074e+00	 9.999999937634030e+00
0	 1.571453213328422e+00	 7.999993933273642e+00	 1.000000019675311e+01
0	 1.571453213328422e+00	 8.142844762191748e+00	 1.000000050296871e+01
0	 1.571453213328422e+00	 8.285695707769140e+00	 1.000000085628065e+01
0	 1.571453213328422e+00	 8.428546786671575e+00	 1.000000125668866e+01
0	 1.571453213328422e+00	 8.571398015564816e+00	 1.000000170419247e+01
0	 1.714304292230858e+00	 7.142890476327779e+00	 9.999999285886732e+00
0	 1.714304292230858e+00	 7.285740955271012e+00	 9.999999309521051e+00
0	 1.714304292230859e+00	 7.428591450879006e+00	 9.999999380252472e+00
0	 1.714304292230859e+00	 7.571441979817509e+00	 9.999999498080975e+00
0	 1.714304292230859e+00	 7.714292558752282e+00	 9.999999663006450e+00
0	 1.714304292230859e+00	 7.857143204349075e+00	 9.999999875028795e+00
0	 1.714304292230859e+00	 7.999993933273643e+00	 1.000000013414787e+01
0	 1.714304292230859e+00	 8.142844762191748e+00	 1.000000044036349e+01
0	 1.714304292230859e+00	 8.285695707769138e+00	 1.000000079367542e+01
0	 1.714304292230859e+00	 8.428546786671577e+00	 1.000000119408344e+01
0	 1.714304292230859e+00	 8.571398015564817e+00	 1.000000164158723e+01
0	 1.857155237808251e+00	 7.142890476327776e+00	 9.999999235399526e+00
0	 1.857155237808251e+00	 7.285740955271015e+00	 9.999999259033830e+00
0	 1.857155237808252e+00	 7.428591450879008e+00	 9.999999329765272e+00
0	 1.857155237808251e+00	 7.571441979817511e+00	 9.999999447593762e+00
0	 1.857155237808251e+00	 7.714292558752279e+00	 9.999999612519243e+00
0	 1.857155237808251e+00	 7.857143204349076e+00	 9.999999824541597e+00
0	 1.857155237808251e+00	 7.999993933273644e+00	 1.000000008366067e+01
0	 1.857155237808251e+00	 8.142844762191746e+00	 1.000000038987629e+01
0	 1.857155237808251e+00	 8.285695707769142e+00	 1.000000074318821e+01
0	 1.857155237808251e+00	 8.428546786671578e+00	 1.000000114359623e+01
0	 1.857155237808251e+00	 8.571398015564816e+00	 1.000000159110004e+01
0	 2.000006066726356e+00	 7.142890476327779e+00	 9.999999197030391e+00
0	 2.000006066726354e+00	 7.285740955271012e+00	 9.999999220664696e+00
0	 2.000006066726355e+00	 7.428591450879006e+00	 9.999999291396129e+00
0	 2.000006066726355e+00	 7.571441979817512e+00	 9.999999409224625e+00
0	 2.000006066726355e+00	 7.714292558752281e+00	 9.999999574150101e+00
0	 2.000006066726355e+00	 7.857143204349074e+00	 9.999999786172456e+00
0	 2.000006066726355e+00	 7.999993933273642e+00	 1.000000004529154e+01
0	 2.000006066726355e+00	 8.142844762191750e+00	 1.000000035150715e+01
0	 2.000006066726355e+00	 8.285695707769138e+00	 1.000000070481908e+01
0	 2.000006066726355e+00	 8.428546786671578e+00	 1.000000110522709e+01
0	 2.000006066726356e+00	 8.571398015564817e+00	 1.000000155273090e+01
0	 2.142856795650926e+00	 7.142890476327779e+00	 9.999999170779368e+00
0	 2.142856795650925e+00	 7.285740955271012e+00	 9.999999194413679e+00
0	 2.142856795650926e+00	 7.428591450879009e+00	 9.999999265145110e+00
0	 2.142856795650925e+00	 7.571441979817511e+00	 9.999999382973598e+00
0	 2.142856795650925e+00	 7.714292558752279e+00	 9.999999547899087e+00
0	 2.142856795650926e+00	 7.857143204349076e+00	 9.999999759921444e+00
0	 2.142856795650925e+00	 7.999993933273642e+00	 1.000000001904052e+01
0	 2.142856795650926e+00	 8.142844762191746e+00	 1.000000032525612e+01
0	 2.142856795650927e+00	 8.285695707769140e+00	 1.000000067856806e+01
0	 2.142856795650926e+00	 8.428546786671577e+00	 1.000000107897607e+01
0	 2.142856795650926e+00	 8.571398015564816e+00	 1.000000152647988e+01
0	 2.285707441247717e+00	 7.142890476327776e+00	 9.999999156646485e+00
0	 2.285707441247718e+00	 7.285740955271015e+00	 9.999999180280801e+00
0	 2.285707441247718e+00	 7.428591450879007e+00	 9.999999251012232e+00
0	 2.285707441247718e+00	 7.571441979817510e+00	 9.999999368840733e+00
0	 2.285707441247717e+00	 7.714292558752281e+00	 9.999999533766209e+00
0	 2.285707441247718e+00	 7.857143204349073e+00	 9.999999745788555e+00
0	 2.285707441247718e+00	 7.999993933273644e+00	 1.000000000490764e+01
0	 2.285707441247717e+00	 8.142844762191748e+00	 1.000000031112325e+01
0	 2.285707441247718e+00	 8.285695707769140e+00	 1.000000066443518e+01
0	 2.285707441247718e+00	 8.428546786671577e+00	 1.000000106484320e+01
0	 2.285707441247718e+00	 8.571398015564814e+00	 1.000000151234701e+01
0	 2.428558020182488e+00	 7.142890476327778e+00	 9.999999154631784e+00
0	 2.428558020182489e+00	 7.285740955271015e+00	 9.999999178266087e+00
0	 2.428558020182488e+00	 7.428591450879007e+00	 9.999999248997526e+00
0	 2.428558020182488e+00	 7.571441979817509e+00	 9.999999366826021e+00
0	 2.428558020182488e+00	 7.714292558752281e+00	 9.999999531751500e+00
0	 2.428558020182487e+00	 7.857143204349071e+00	 9.999999743773854e+00
0	 2.428558020182489e+00	 7.999993933273646e+00	 1.000000000289293e+01
0	 2.428558020182488e+00	 8.142844762191750e+00	 1.000000030910854e+01
0	 2.428558020182489e+00	 8.285695707769140e+00	 1.000000066242047e+01
0	 2.428558020182488e+00	 8.428546786671580e+00	 1.000000106282848e+01
0	 2.428558020182489e+00	 8.571398015564816e+00	 1.000000151033229e+01
0	 2.571408549120992e+00	 7.142890476327778e+00	 9.999999164735266e+00
0	 2.571408549120992e+00	 7.285740955271014e+00	 9.999999188369573e+00
0	 2.571408549120992e+00	 7.428591450879006e+00	 9.999999259101006e+00
0	 2.571408549120991e+00	 7.571441979817509e+00	 9.999999376929498e+00
0	 2.571408549120992e+00	 7.714292558752282e+00	 9.999999541854978e+00
0	 2.571408549120993e+00	 7.857143204349073e+00	 9.999999753877336e+00
0	 2.571408549120992e+00	 7.999993933273645e+00	 1.000000001299641e+01
0	 2.571408549120992e+00	 8.142844762191748e+00	 1.000000031921201e+01
0	 2.571408549120993e+00	 8.285695707769142e+00	 1.000000067252395e+01
0	 2.571408549120992e+00	 8.428546786671578e+00	 1.000000107293196e+01
0	 2.571408549120992e+00	 8.571398015564814e+00	 1.000000152043577e+01
0	 2.714259044728984e+00	 7.142890476327777e+00	 9.999999186956927e+00
0	 2.714259044728984e+00	 7.285740955271013e+00	 9.999999210591236e+00
0	 2.714259044728984e+00	 7.428591450879007e+00	 9.999999281322664e+00
0	 2.714259044728985e+00	 7.571441979817512e+00	 9.999999399151168e+00
0	 2.714259044728984e+00	 7.714292558752279e+00	 9.999999564076642e+00
0	 2.714259044728984e+00	 7.857143204349073e+00	 9.999999776098999e+00
0	 2.714259044728984e+00	 7.999993933273641e+00	 1.000000003521807e+01
0	 2.714259044728985e+00	 8.142844762191748e+00	 1.000000034143367e+01
0	 2.714259044728985e+00	 8.285695707769142e+00	 1.000000069474562e+01
0	 2.714259044728985e+00	 8.428546786671577e+00	 1.000000109515363e+01
0	 2.714259044728985e+00	 8.571398015564816e+00	 1.000000154265744e+01
0	 2.857109523672222e+00	 7.142890476327777e+00	 9.999999221296788e+00
0	 2.857109523672222e+00	 7.285740955271015e+00	 9.999999244931104e+00
0	 2.857109523672222e+00	 7.428591450879006e+00	 9.999999315662532e+00
0	 2.857109523672222e+00	 7.571441979817511e+00	 9.999999433491025e+00
0	 2.857109523672222e+00	 7.714292558752279e+00	 9.999999598416510e+00
0	 2.857109523672223e+00	 7.857143204349073e+00	 9.999999810438855e+00
0	 2.857109523672223e+00	 7.999993933273644e+00	 1.000000006955792e+01
0	 2.857109523672222e+00	 8.142844762191746e+00	 1.000000037577354e+01
0	 2.857109523672222e+00	 8.285695707769142e+00	 1.000000072908548e+01
0	 2.857109523672222e+00	 8.428546786671577e+00	 1.000000112949348e+01
0	 2.857109523672222e+00	 8.571398015564816e+00	 1.000000157699730e+01
0	 1.428601984435185e+00	 8.571398015564816e+00	 1.000000177891567e+01
0	 1.428601984435185e+00	 8.714259388995398e+00	 1.000000208510293e+01
0	 1.428601984435185e+00	 8.857120812436385e+00	 1.000000206149630e+01
0	 1.428601984435185e+00	 8.999982169218278e+00	 1.000000170809564e+01
0	 1.428601984435185e+00	 9.142843342671600e+00	 1.000000102489924e+01
0	 1.428601984435185e+00	 9.285704216126854e+00	 1.000000001190373e+01
0	 1.428601984435185e+00	 9.428564672914549e+00	 9.999998669104169e+00
0	 1.428601984435185e+00	 9.571424596365199e+00	 9.999996996493984e+00
0	 1.428601984435185e+00	 9.714283869809321e+00	 9.999994994064918e+00
0	 1.428601984435185e+00	 9.857142376577416e+00	 9.999992661807223e+00
0	 1.428601984435185e+00	 1.000000000000000e+01	 9.999989999709438e+00
0	 1.571453213328422e+00	 8.571398015564816e+00	 1.000000170419248e+01
0	 1.571453213328423e+00	 8.714259388995400e+00	 1.000000201037974e+01
0	 1.571453213328422e+00	 8.857120812436383e+00	 1.000000198677311e+01
0	 1.571453213328422e+00	 8.999982169218281e+00	 1.000000163337246e+01
0	 1.571453213328422e+00	 9.142843342671600e+00	 1.000000095017604e+01
0	 1.571453213328422e+00	 9.285704216126851e+00	 9.999999937180545e+00
0	 1.571453213328422e+00	 9.428564672914550e+00	 9.999998594380997e+00
0	 1.571453213328422e+00	 9.571424596365205e+00	 9.999996921770784e+00
0	 1.571453213328422e+00	 9.714283869809321e+00	 9.999994919341731e+00
0	 1.571453213328422e+00	 9.857142376577416e+00	 9.999992587084032e+00
0	 1.571453213328422e+00	 1.000000000000000e+01	 9.999989924986282e+00
0	 1.714304292230859e+00	 8.571398015564817e+00	 1.000000164158723e+01
0	 1.714304292230859e+00	 8.714259388995401e+00	 1.000000194777451e+01
0	 1.714304292230859e+00	 8.857120812436387e+00	 1.000000192416787e+01
0	 1.714304292230859e+00	 8.999982169218281e+00	 1.000000157076722e+01
0	 1.714304292230859e+00	 9.142843342671600e+00	 1.000000088757082e+01
0	 1.714304292230859e+00	 9.285704216126851e+00	 9.999999874575314e+00
0	 1.714304292230858e+00	 9.428564672914549e+00	 9.999998531775756e+00
0	 1.714304292230859e+00	 9.571424596365203e+00	 9.999996859165547e+00
0	 1.714304292230859e+00	 9.714283869809323e+00	 9.999994856736516e+00
0	 1.714304292230859e+00	 9.857142376577420e+00	 9.999992524478795e+00
0	 1.714304292230859e+00	 1.000000000000000e+01	 9.999989862381033e+00
0	 1.857155237808251e+00	 8.571398015564816e+00	 1.000000159110004e+01
0	 1.857155237808252e+00	 8.714259388995401e+00	 1.000000189728731e+01
0	 1.857155237808251e+00	 8.857120812436383e+00	 1.000000187368067e+01
0	 1.857155237808251e+00	 8.999982169218280e+00	 1.000000152028002e+01
0	 1.857155237808251e+00	 9.142843342671602e+00	 1.000000083708362e+01
0	 1.857155237808252e+00	 9.285704216126852e+00	 9.999999824088112e+00
0	 1.857155237808251e+00	 9.428564672914549e+00	 9.999998481288543e+00
0	 1.857155237808251e+00	 9.571424596365201e+00	 9.999996808678347e+00
0	 1.857155237808251e+00	 9.714283869809321e+00	 9.999994806249276e+00
0	 1.857155237808251e+00	 9.857142376577416e+00	 9.999992473991611e+00
0	 1.857155237808251e+00	 1.000000000000000e+01	 9.999989811893856e+00
0	 2.000006066726356e+00	 8.571398015564817e+00	 1.000000155273091e+01
0	 2.000006066726355e+00	 8.714259388995401e+00	 1.000000185891817e+01
0	 2.000006066726355e+00	 8.857120812436383e+00	 1.000000183531153e+01
0	 2.000006066726355e+00	 8.999982169218280e+00	 1.000000148191089e+01
0	 2.000006066726355e+00	 9.142843342671599e+00	 1.000000079871447e+01
0	 2.000006066726355e+00	 9.285704216126852e+00	 9.999999785718984e+00
0	 2.000006066726355e+00	 9.428564672914552e+00	 9.999998442919422e+00
0	 2.000006066726356e+00	 9.571424596365203e+00	 9.999996770309199e+00
0	 2.000006066726355e+00	 9.714283869809320e+00	 9.999994767880169e+00
0	 2.000006066726355e+00	 9.857142376577414e+00	 9.999992435622476e+00
0	 2.000006066726355e+00	 1.000000000000000e+01	 9.999989773524684e+00
0	 2.142856795650926e+00	 8.571398015564816e+00	 1.000000152647989e+01
0	 2.142856795650926e+00	 8.714259388995398e+00	 1.000000183266715e+01
0	 2.142856795650926e+00	 8.857120812436383e+00	 1.000000180906050e+01
0	 2.142856795650925e+00	 8.999982169218281e+00	 1.000000145565985e+01
0	 2.142856795650925e+00	 9.142843342671597e+00	 1.000000077246345e+01
0	 2.142856795650925e+00	 9.285704216126858e+00	 9.999999759467954e+00
0	 2.142856795650925e+00	 9.428564672914547e+00	 9.999998416668388e+00
0	 2.142856795650926e+00	 9.571424596365203e+00	 9.999996744058183e+00
0	 2.142856795650926e+00	 9.714283869809318e+00	 9.999994741629141e+00
0	 2.142856795650926e+00	 9.857142376577418e+00	 9.999992409371485e+00
0	 2.142856795650925e+00	 9.999999999999998e+00	 9.999989747273673e+00
0	 2.285707441247718e+00	 8.571398015564814e+00	 1.000000151234701e+01
0	 2.285707441247717e+00	 8.714259388995398e+00	 1.000000181853427e+01
0	 2.285707441247719e+00	 8.857120812436385e+00	 1.000000179492763e+01
0	 2.285707441247719e+00	 8.999982169218285e+00	 1.000000144152698e+01
0	 2.285707441247717e+00	 9.142843342671600e+00	 1.000000075833057e+01
0	 2.285707441247718e+00	 9.285704216126852e+00	 9.999999745335071e+00
0	 2.285707441247717e+00	 9.428564672914549e+00	 9.999998402535510e+00
0	 2.285707441247718e+00	 9.571424596365201e+00	 9.999996729925305e+00
0	 2.285707441247718e+00	 9.714283869809321e+00	 9.999994727496242e+00
0	 2.285707441247718e+00	 9.857142376577418e+00	 9.999992395238568e+00
0	 2.285707441247718e+00	 1.000000000000000e+01	 9.999989733140787e+00
0	 2.428558020182489e+00	 8.571398015564816e+00	 1.000000151033229e+01
0	 2.428558020182489e+00	 8.714259388995400e+00	 1.000000181651955e+01
0	 2.428558020182488e+00	 8.857120812436387e+00	 1.000000179291293e+01
0	 2.428558020182488e+00	 8.999982169218281e+00	 1.000000143951227e+01
0	 2.428558020182487e+00	 9.142843342671599e+00	 1.000000075631587e+01
0	 2.428558020182488e+00	 9.285704216126851e+00	 9.999999743320362e+00
0	 2.428558020182488e+00	 9.428564672914550e+00	 9.999998400520813e+00
0	 2.428558020182488e+00	 9.571424596365203e+00	 9.999996727910595e+00
0	 2.428558020182489e+00	 9.714283869809321e+00	 9.999994725481558e+00
0	 2.428558020182488e+00	 9.857142376577418e+00	 9.999992393223909e+00
0	 2.428558020182488e+00	 1.000000000000000e+01	 9.999989731126101e+00
0	 2.571408549120992e+00	 8.571398015564814e+00	 1.000000152043577e+01
0	 2.571408549120992e+00	 8.714259388995401e+00	 1.000000182662305e+01
0	 2.571408549120992e+00	 8.857120812436385e+00	 1.000000180301642e+01
0	 2.571408549120992e+00	 8.999982169218280e+00	 1.000000144961574e+01
0	 2.571408549120991e+00	 9.142843342671599e+00	 1.000000076641934e+01
0	 2.571408549120992e+00	 9.285704216126854e+00	 9.999999753423850e+00
0	 2.571408549120992e+00	 9.428564672914547e+00	 9.999998410624283e+00
0	 2.571408549120992e+00	 9.571424596365201e+00	 9.999996738014058e+00
0	 2.571408549120992e+00	 9.714283869809323e+00	 9.999994735585023e+00
0	 2.571408549120991e+00	 9.857142376577414e+00	 9.999992403327360e+00
0	 2.571408549120992e+00	 1.000000000000000e+01	 9.999989741229584e+00
0	 2.714259044728985e+00	 8.571398015564816e+00	 1.000000154265744e+01
0	 2.714259044728985e+00	 8.714259388995400e+00	 1.000000184884470e+01
0	 2.714259044728984e+00	 8.857120812436385e+00	 1.000000182523807e+01
0	 2.714259044728984e+00	 8.999982169218283e+00	 1.000000147183743e+01
0	 2.714259044728985e+00	 9.142843342671599e+00	 1.000000078864101e+01
0	 2.714259044728985e+00	 9.285704216126852e+00	 9.999999775645502e+00
0	 2.714259044728984e+00	 9.428564672914550e+00	 9.999998432845945e+00
0	 2.714259044728984e+00	 9.571424596365201e+00	 9.999996760235739e+00
0	 2.714259044728984e+00	 9.714283869809320e+00	 9.999994757806707e+00
0	 2.714259044728984e+00	 9.857142376577416e+00	 9.999992425549042e+00
0	 2.714259044728984e+00	 1.000000000000000e+01	 9.999989763451275e+00
0	 2.857109523672222e+00	 8.571398015564816e+00	 1.000000157699730e+01
0	 2.857109523672221e+00	 8.714259388995400e+00	 1.000000188318456e+01
0	 2.857109523672223e+00	 8.857120812436383e+00	 1.000000185957794e+01
0	 2.857109523672222e+00	 8.999982169218281e+00	 1.000000150617728e+01
0	 2.857109523672222e+00	 9.142843342671597e+00	 1.000000082298087e+01
0	 2.857109523672223e+00	 9.285704216126852e+00	 9.999999809985376e+00
0	 2.857109523672222e+00	 9.428564672914550e+00	 9.999998467185815e+00
0	 2.857109523672222e+00	 9.571424596365199e+00	 9.999996794575615e+00
0	 2.857109523672222e+00	 9.714283869809323e+00	 9.999994792146577e+00
0	 2.857109523672223e+00	 9.857142376577418e+00	 9.999992459888858e+00
0	 2.857109523672222e+00	 9.999999999999998e+00	 9.999989797791120e+00
0	 2.857109523672222e+00	 0.000000000000000e+00	 9.999998278560334e+00
0	 2.857109523672222e+00	 1.428576234225852e-01	 9.999998544773966e+00
0	 2.857109523672222e+00	 2.857161301906819e-01	 9.999998778011314e+00
0	 2.857109523672222e+00	 4.285754036348007e-01	 9.999998978273512e+00
0	 2.857109523672222e+00	 5.714353270854530e-01	 9.999999145561544e+00
0	 2.857109523672223e+00	 7.142957838731496e-01	 9.999999279876230e+00
0	 2.857109523672222e+00	 8.571566573284017e-01	 9.999999381218226e+00
0	 2.857109523672222e+00	 1.000017830781720e+00	 9.999999449588033e+00
0	 2.857109523672222e+00	 1.142879187563616e+00	 9.999999484985981e+00
0	 2.857109523672222e+00	 1.285740611004601e+00	 9.999999487412245e+00
0	 2.857109523672221e+00	 1.428601984435185e+00	 9.999999456866835e+00
0	 2.999969994316576e+00	 0.000000000000000e+00	 9.999998337133846e+00
0	 2.999969994316577e+00	 1.428576234225853e-01	 9.999998603347484e+00
0	 2.999969994316576e+00	 2.857161301906819e-01	 9.999998836584821e+00
0	 2.999969994316576e+00	 4.285754036348007e-01	 9.999999036847022e+00
0	 2.999969994316576e+00	 5.714353270854530e-01	 9.999999204135058e+00
0	 2.999969994316576e+00	 7.142957838731496e-01	 9.999999338449740e+00
0	 2.999969994316577e+00	 8.571566573284015e-01	 9.999999439791738e+00
0	 2.999969994316576e+00	 1.000017830781720e+00	 9.999999508161547e+00
0	 2.999969994316576e+00	 1.142879187563616e+00	 9.999999543559493e+00
0	 2.999969994316575e+00	 1.285740611004601e+00	 9.999999545985755e+00
0	 2.999969994316576e+00	 1.428601984435186e+00	 9.999999515440351e+00
0	 3.142830431628385e+00	 0.000000000000000e+00	 9.999998432050859e+00
0	 3.142830431628385e+00	 1.428576234225852e-01	 9.999998698264495e+00
0	 3.142830431628386e+00	 2.857161301906819e-01	 9.999998931501837e+00
0	 3.142830431628386e+00	 4.285754036348007e-01	 9.999999131764039e+00
0	 3.142830431628385e+00	 5.714353270854531e-01	 9.999999299052078e+00
0	 3.142830431628386e+00	 7.142957838731496e-01	 9.999999433366760e+00
0	 3.142830431628385e+00	 8.571566573284017e-01	 9.999999534708756e+00
0	 3.142830431628385e+00	 1.000017830781720e+00	 9.999999603078557e+00
0	 3.142830431628385e+00	 1.142879187563616e+00	 9.999999638476513e+00
0	 3.142830431628385e+00	 1.285740611004601e+00	 9.999999640902772e+00
0	 3.142830431628386e+00	 1.428601984435185e+00	 9.999999610357365e+00
0	 3.285690802274106e+00	 0.000000000000000e+00	 9.999998563311484e+00
0	 3.285690802274106e+00	 1.428576234225852e-01	 9.999998829525122e+00
0	 3.285690802274106e+00	 2.857161301906819e-01	 9.999999062762468e+00
0	 3.285690802274105e+00	 4.285754036348007e-01	 9.999999263024661e+00
0	 3.285690802274106e+00	 5.714353270854532e-01	 9.999999430312696e+00
0	 3.285690802274106e+00	 7.142957838731496e-01	 9.999999564627386e+00
0	 3.285690802274106e+00	 8.571566573284016e-01	 9.999999665969380e+00
0	 3.285690802274107e+00	 1.000017830781720e+00	 9.999999734339189e+00
0	 3.285690802274105e+00	 1.142879187563616e+00	 9.999999769737139e+00
0	 3.285690802274106e+00	 1.285740611004601e+00	 9.999999772163401e+00
0	 3.285690802274106e+00	 1.428601984435185e+00	 9.999999741617991e+00
0	 3.428551072920193e+00	 0.000000000000000e+00	 9.999998730915877e+00
0	 3.428551072920194e+00	 1.428576234225853e-01	 9.999998997129513e+00
0	 3.428551072920194e+00	 2.857161301906819e-01	 9.999999230366857e+00
0	 3.428551072920193e+00	 4.285754036348008e-01	 9.999999430629055e+00
0	 3.428551072920193e+00	 5.714353270854530e-01	 9.999999597917089e+00
0	 3.428551072920193e+00	 7.142957838731495e-01	 9.999999732231775e+00
0	 3.428551072920193e+00	 8.571566573284016e-01	 9.999999833573771e+00
0	 3.428551072920194e+00	 1.000017830781720e+00	 9.999999901943580e+00
0	 3.428551072920193e+00	 1.142879187563616e+00	 9.999999937341531e+00
0	 3.428551072920193e+00	 1.285740611004601e+00	 9.999999939767788e+00
0	 3.428551072920193e+00	 1.428601984435185e+00	 9.999999909222385e+00
0	 3.571411210233102e+00	 0.000000000000000e+00	 9.999998934864244e+00
0	 3.571411210233103e+00	 1.428576234225853e-01	 9.999999201077879e+00
0	 3.571411210233102e+00	 2.857161301906819e-01	 9.999999434315226e+00
0	 3.571411210233102e+00	 4.285754036348007e-01	 9.999999634577417e+00
0	 3.571411210233104e+00	 5.714353270854531e-01	 9.999999801865458e+00
0	 3.571411210233103e+00	 7.142957838731496e-01	 9.999999936180135e+00
0	 3.571411210233102e+00	 8.571566573284015e-01	 1.000000003752214e+01
0	 3.571411210233103e+00	 1.000017830781720e+00	 1.000000010589194e+01
0	 3.571411210233103e+00	 1.142879187563616e+00	 1.000000014128989e+01
0	 3.571411210233103e+00	 1.285740611004601e+00	 1.000000014371616e+01
0	 3.571411210233102e+00	 1.428601984435185e+00	 1.000000011317075e+01
0	 3.714271180879290e+00	 0.000000000000000e+00	 9.999999175156841e+00
0	 3.714271180879289e+00	 1.428576234225853e-01	 9.999999441370473e+00
0	 3.714271180879289e+00	 2.857161301906817e-01	 9.999999674607817e+00
0	 3.714271180879289e+00	 4.285754036348006e-01	 9.999999874870014e+00
0	 3.714271180879290e+00	 5.714353270854531e-01	 1.000000004215805e+01
0	 3.714271180879290e+00	 7.142957838731496e-01	 1.000000017647274e+01
0	 3.714271180879290e+00	 8.571566573284020e-01	 1.000000027781473e+01
0	 3.714271180879290e+00	 1.000017830781720e+00	 1.000000034618454e+01
0	 3.714271180879290e+00	 1.142879187563616e+00	 1.000000038158249e+01
0	 3.714271180879289e+00	 1.285740611004600e+00	 1.000000038400875e+01
0	 3.714271180879290e+00	 1.428601984435185e+00	 1.000000035346334e+01
0	 3.857130951525210e+00	 0.000000000000000e+00	 9.999999451793970e+00
0	 3.857130951525211e+00	 1.428576234225853e-01	 9.999999718007606e+00
0	 3.857130951525210e+00	 2.857161301906819e-01	 9.999999951244948e+00
0	 3.857130951525211e+00	 4.285754036348007e-01	 1.000000015150715e+01
0	 3.857130951525211e+00	 5.714353270854530e-01	 1.000000031879518e+01
0	 3.857130951525211e+00	 7.142957838731497e-01	 1.000000045310987e+01
0	 3.857130951525210e+00	 8.571566573284017e-01	 1.000000055445187e+01
0	 3.857130951525211e+00	 1.000017830781720e+00	 1.000000062282167e+01
0	 3.857130951525210e+00	 1.142879187563616e+00	 1.000000065821962e+01
0	 3.857130951525210e+00	 1.285740611004601e+00	 1.000000066064588e+01
0	 3.857130951525211e+00	 1.428601984435185e+00	 1.000000063010048e+01
0	 3.999990488837320e+00	 0.000000000000000e+00	 9.999999764775998e+00
0	 3.999990488837321e+00	 1.428576234225852e-01	 1.000000003098963e+01
0	 3.999990488837321e+00	 2.857161301906820e-01	 1.000000026422698e+01
0	 3.999990488837319e+00	 4.285754036348006e-01	 1.000000046448918e+01
0	 3.999990488837320e+00	 5.714353270854531e-01	 1.000000063177721e+01
0	 3.999990488837319e+00	 7.142957838731496e-01	 1.000000076609189e+01
0	 3.999990488837319e+00	 8.571566573284016e-01	 1.000000086743389e+01
0	 3.999990488837321e+00	 1.000017830781720e+00	 1.000000093580370e+01
0	 3.999990488837320e+00	 1.142879187563616e+00	 1.000000097120165e+01
0	 3.999990488837320e+00	 1.285740611004601e+00	 1.000000097362791e+01
0	 3.999990488837321e+00	 1.428601984435185e+00	 1.000000094308251e+01
0	 4.142849759482075e+00	 0.000000000000000e+00	 1.000000011410333e+01
0	 4.142849759482075e+00	 1.428576234225853e-01	 1.000000038031697e+01
0	 4.142849759482075e+00	 2.857161301906819e-01	 1.000000061355432e+01
0	 4.142849759482075e+00	 4.285754036348008e-01	 1.000000081381651e+01
0	 4.142849759482075e+00	 5.714353270854531e-01	 1.000000098110455e+01
0	 4.142849759482074e+00	 7.142957838731497e-01	 1.000000111541923e+01
0	 4.142849759482073e+00	 8.571566573284016e-01	 1.000000121676123e+01
0	 4.142849759482074e+00	 1.000017830781720e+00	 1.000000128513103e+01
0	 4.142849759482075e+00	 1.142879187563616e+00	 1.000000132052899e+01
0	 4.142849759482075e+00	 1.285740611004601e+00	 1.000000132295525e+01
0	 4.142849759482075e+00	 1.428601984435185e+00	 1.000000129240984e+01
0	 4.285708730125926e+00	 0.000000000000000e+00	 1.000000049977644e+01
0	 4.285708730125926e+00	 1.428576234225852e-01	 1.000000076599008e+01
0	 4.285708730125926e+00	 2.857161301906819e-01	 1.000000099922743e+01
0	 4.285708730125925e+00	 4.285754036348007e-01	 1.000000119948962e+01
0	 4.285708730125926e+00	 5.714353270854531e-01	 1.000000136677765e+01
0	 4.285708730125926e+00	 7.142957838731496e-01	 1.000000150109234e+01
0	 4.285708730125925e+00	 8.571566573284017e-01	 1.000000160243434e+01
0	 4.285708730125926e+00	 1.000017830781720e+00	 1.000000167080414e+01
0	 4.285708730125926e+00	 1.142879187563616e+00	 1.000000170620209e+01
0	 4.285708730125926e+00	 1.285740611004601e+00	 1.000000170862836e+01
0	 4.285708730125926e+00	 1.428601984435185e+00	 1.000000167808294e+01
0	 2.857109523672221e+00	 1.428601984435185e+00	 9.999999456866838e+00
0	 2.857109523672222e+00	 1.571453213328422e+00	 9.999999412185915e+00
0	 2.857109523672222e+00	 1.714304292230858e+00	 9.999999372199131e+00
0	 2.857109523672222e+00	 1.857155237808251e+00	 9.999999336906523e+00
0	 2.857109523672223e+00	 2.000006066726356e+00	 9.999999306308114e+00
0	 2.857109523672222e+00	 2.142856795650926e+00	 9.999999280403927e+00
0	 2.857109523672222e+00	 2.285707441247718e+00	 9.999999259193974e+00
0	 2.857109523672223e+00	 2.428558020182489e+00	 9.999999242678275e+00
0	 2.857109523672222e+00	 2.571408549120993e+00	 9.999999230856837e+00
0	 2.857109523672222e+00	 2.714259044728984e+00	 9.999999223729677e+00
0	 2.857109523672222e+00	 2.857109523672222e+00	 9.999999221296788e+00
0	 2.999969994316576e+00	 1.428601984435186e+00	 9.999999515440349e+00
0	 2.999969994316576e+00	 1.571453213328422e+00	 9.999999470759420e+00
0	 2.999969994316577e+00	 1.714304292230859e+00	 9.999999430772636e+00
0	 2.999969994316576e+00	 1.857155237808251e+00	 9.999999395480035e+00
0	 2.999969994316577e+00	 2.000006066726356e+00	 9.999999364881628e+00
0	 2.999969994316576e+00	 2.142856795650925e+00	 9.999999338977435e+00
0	 2.999969994316576e+00	 2.285707441247718e+00	 9.999999317767488e+00
0	 2.999969994316576e+00	 2.428558020182489e+00	 9.999999301251783e+00
0	 2.999969994316576e+00	 2.571408549120992e+00	 9.999999289430356e+00
0	 2.999969994316576e+00	 2.714259044728983e+00	 9.999999282303188e+00
0	 2.999969994316576e+00	 2.857109523672223e+00	 9.999999279870297e+00
0	 3.142830431628386e+00	 1.428601984435185e+00	 9.999999610357365e+00
0	 3.142830431628386e+00	 1.571453213328422e+00	 9.999999565676438e+00
0	 3.142830431628386e+00	 1.714304292230860e+00	 9.999999525689660e+00
0	 3.142830431628386e+00	 1.857155237808252e+00	 9.999999490397052e+00
0	 3.142830431628386e+00	 2.000006066726355e+00	 9.999999459798651e+00
0	 3.142830431628386e+00	 2.142856795650926e+00	 9.999999433894452e+00
0	 3.142830431628385e+00	 2.285707441247718e+00	 9.999999412684502e+00
0	 3.142830431628386e+00	 2.428558020182489e+00	 9.999999396168807e+00
0	 3.142830431628385e+00	 2.571408549120992e+00	 9.999999384347367e+00
0	 3.142830431628386e+00	 2.714259044728985e+00	 9.999999377220197e+00
0	 3.142830431628385e+00	 2.857109523672222e+00	 9.999999374787318e+00
0	 3.285690802274106e+00	 1.428601984435185e+00	 9.999999741617989e+00
0	 3.285690802274105e+00	 1.571453213328422e+00	 9.999999696937067e+00
0	 3.285690802274106e+00	 1.714304292230859e+00	 9.999999656950282e+00
0	 3.285690802274106e+00	 1.857155237808252e+00	 9.999999621657679e+00
0	 3.285690802274106e+00	 2.000006066726355e+00	 9.999999591059272e+00
0	 3.285690802274107e+00	 2.142856795650926e+00	 9.999999565155084e+00
0	 3.285690802274105e+00	 2.285707441247717e+00	 9.999999543945124e+00
0	 3.285690802274106e+00	 2.428558020182488e+00	 9.999999527429432e+00
0	 3.285690802274106e+00	 2.571408549120993e+00	 9.999999515607989e+00
0	 3.285690802274106e+00	 2.714259044728985e+00	 9.999999508480830e+00
0	 3.285690802274106e+00	 2.857109523672222e+00	 9.999999506047940e+00
0	 3.428551072920193e+00	 1.428601984435185e+00	 9.999999909222392e+00
0	 3.428551072920193e+00	 1.571453213328422e+00	 9.999999864541458e+00
0	 3.428551072920193e+00	 1.714304292230859e+00	 9.999999824554685e+00
0	 3.428551072920193e+00	 1.857155237808252e+00	 9.999999789262072e+00
0	 3.428551072920194e+00	 2.000006066726356e+00	 9.999999758663659e+00
0	 3.428551072920193e+00	 2.142856795650926e+00	 9.999999732759473e+00
0	 3.428551072920194e+00	 2.285707441247719e+00	 9.999999711549517e+00
0	 3.428551072920194e+00	 2.428558020182488e+00	 9.999999695033821e+00
0	 3.428551072920194e+00	 2.571408549120992e+00	 9.999999683212385e+00
0	 3.428551072920194e+00	 2.714259044728985e+00	 9.999999676085219e+00
0	 3.428551072920193e+00	 2.857109523672222e+00	 9.999999673652338e+00
0	 3.571411210233102e+00	 1.428601984435185e+00	 1.000000011317075e+01
0	 3.571411210233102e+00	 1.571453213328422e+00	 1.000000006848982e+01
0	 3.571411210233102e+00	 1.714304292230859e+00	 1.000000002850304e+01
0	 3.571411210233103e+00	 1.857155237808252e+00	 9.999999993210437e+00
0	 3.571411210233102e+00	 2.000006066726355e+00	 9.999999962612026e+00
0	 3.571411210233103e+00	 2.142856795650926e+00	 9.999999936707837e+00
0	 3.571411210233104e+00	 2.285707441247719e+00	 9.999999915497886e+00
0	 3.571411210233103e+00	 2.428558020182488e+00	 9.999999898982180e+00
0	 3.571411210233103e+00	 2.571408549120992e+00	 9.999999887160756e+00
0	 3.571411210233102e+00	 2.714259044728984e+00	 9.999999880033592e+00
0	 3.571411210233103e+00	 2.857109523672223e+00	 9.999999877600699e+00
0	 3.714271180879290e+00	 1.428601984435185e+00	 1.000000035346334e+01
0	 3.714271180879289e+00	 1.571453213328422e+00	 1.000000030878242e+01
0	 3.714271180879289e+00	 1.714304292230859e+00	 1.000000026879565e+01
0	 3.714271180879290e+00	 1.857155237808251e+00	 1.000000023350304e+01
0	 3.714271180879290e+00	 2.000006066726356e+00	 1.000000020290462e+01
0	 3.714271180879290e+00	 2.142856795650925e+00	 1.000000017700043e+01
0	 3.714271180879290e+00	 2.285707441247718e+00	 1.000000015579048e+01
0	 3.714271180879290e+00	 2.428558020182488e+00	 1.000000013927478e+01
0	 3.714271180879289e+00	 2.571408549120992e+00	 1.000000012745335e+01
0	 3.714271180879289e+00	 2.714259044728984e+00	 1.000000012032618e+01
0	 3.714271180879290e+00	 2.857109523672222e+00	 1.000000011789330e+01
0	 3.857130951525211e+00	 1.428601984435185e+00	 1.000000063010048e+01
0	 3.857130951525211e+00	 1.571453213328422e+00	 1.000000058541955e+01
0	 3.857130951525211e+00	 1.714304292230859e+00	 1.000000054543277e+01
0	 3.857130951525210e+00	 1.857155237808251e+00	 1.000000051014016e+01
0	 3.857130951525211e+00	 2.000006066726355e+00	 1.000000047954175e+01
0	 3.857130951525211e+00	 2.142856795650925e+00	 1.000000045363756e+01
0	 3.857130951525210e+00	 2.285707441247718e+00	 1.000000043242762e+01
0	 3.857130951525210e+00	 2.428558020182488e+00	 1.000000041591191e+01
0	 3.857130951525211e+00	 2.571408549120992e+00	 1.000000040409048e+01
0	 3.857130951525210e+00	 2.714259044728984e+00	 1.000000039696332e+01
0	 3.857130951525211e+00	 2.857109523672221e+00	 1.000000039453043e+01
0	 3.999990488837321e+00	 1.428601984435185e+00	 1.000000094308251e+01
0	 3.999990488837320e+00	 1.571453213328422e+00	 1.000000089840158e+01
0	 3.999990488837320e+00	 1.714304292230859e+00	 1.000000085841480e+01
0	 3.999990488837320e+00	 1.857155237808251e+00	 1.000000082312219e+01
0	 3.999990488837320e+00	 2.000006066726355e+00	 1.000000079252379e+01
0	 3.999990488837319e+00	 2.142856795650925e+00	 1.000000076661960e+01
0	 3.999990488837319e+00	 2.285707441247717e+00	 1.000000074540964e+01
0	 3.999990488837319e+00	 2.428558020182487e+00	 1.000000072889395e+01
0	 3.999990488837320e+00	 2.571408549120991e+00	 1.000000071707251e+01
0	 3.999990488837320e+00	 2.714259044728984e+00	 1.000000070994534e+01
0	 3.999990488837320e+00	 2.857109523672222e+00	 1.000000070751246e+01
0	 4.142849759482075e+00	 1.428601984435185e+00	 1.000000129240984e+01
0	 4.142849759482074e+00	 1.571453213328422e+00	 1.000000124772892e+01
0	 4.142849759482074e+00	 1.714304292230859e+00	 1.000000120774214e+01
0	 4.142849759482075e+00	 1.857155237808251e+00	 1.000000117244953e+01
0	 4.142849759482075e+00	 2.000006066726355e+00	 1.000000114185111e+01
0	 4.142849759482074e+00	 2.142856795650925e+00	 1.000000111594693e+01
0	 4.142849759482075e+00	 2.285707441247718e+00	 1.000000109473698e+01
0	 4.142849759482075e+00	 2.428558020182488e+00	 1.000000107822128e+01
0	 4.142849759482074e+00	 2.571408549120992e+00	 1.000000106639984e+01
0	 4.142849759482075e+00	 2.714259044728986e+00	 1.000000105927268e+01
0	 4.142849759482075e+00	 2.857109523672223e+00	 1.000000105683979e+01
0	 4.285708730125926e+00	 1.428601984435185e+00	 1.000000167808294e+01
0	 4.285708730125925e+00	 1.571453213328422e+00	 1.000000163340203e+01
0	 4.285708730125926e+00	 1.714304292230859e+00	 1.000000159341523e+01
0	 4.285708730125926e+00	 1.857155237808252e+00	 1.000000155812263e+01
0	 4.285708730125926e+00	 2.000006066726355e+00	 1.000000152752422e+01
0	 4.285708730125927e+00	 2.142856795650926e+00	 1.000000150162004e+01
0	 4.285708730125925e+00	 2.285707441247717e+00	 1.000000148041008e+01
0	 4.285708730125926e+00	 2.428558020182488e+00	 1.000000146389438e+01
0	 4.285708730125926e+00	 2.571408549120993e+00	 1.000000145207295e+01
0	 4.285708730125926e+00	 2.714259044728984e+00	 1.000000144494579e+01
0	 4.285708730125926e+00	 2.857109523672222e+00	 1.000000144251289e+01
0	 2.857109523672222e+00	 2.857109523672222e+00	 9.999999221296786e+00
0	 2.857109523672222e+00	 2.999969994316576e+00	 9.999999221215326e+00
0	 2.857109523672223e+00	 3.142830431628385e+00	 9.999999221142433e+00
0	 2.857109523672222e+00	 3.285690802274106e+00	 9.999999221078120e+00
0	 2.857109523672222e+00	 3.428551072920193e+00	 9.999999221022376e+00
0	 2.857109523672223e+00	 3.571411210233103e+00	 9.999999220975218e+00
0	 2.857109523672222e+00	 3.714271180879290e+00	 9.999999220936630e+00
0	 2.857109523672222e+00	 3.857130951525211e+00	 9.999999220906613e+00
0	 2.857109523672222e+00	 3.999990488837320e+00	 9.999999220885176e+00
0	 2.857109523672223e+00	 4.142849759482074e+00	 9.999999220872315e+00
0	 2.857109523672222e+00	 4.285708730125926e+00	 9.999999220868027e+00
0	 2.999969994316576e+00	 2.857109523672223e+00	 9.999999279870297e+00
0	 2.999969994316576e+00	 2.999969994316576e+00	 9.999999279788835e+00
0	 2.999969994316576e+00	 3.142830431628386e+00	 9.999999279715944e+00
0	 2.999969994316577e+00	 3.285690802274106e+00	 9.999999279651625e+00
0	 2.999969994316577e+00	 3.428551072920193e+00	 9.999999279595887e+00
0	 2.999969994316576e+00	 3.571411210233103e+00	 9.999999279548724e+00
0	 2.999969994316576e+00	 3.714271180879289e+00	 9.999999279510131e+00
0	 2.999969994316577e+00	 3.857130951525210e+00	 9.999999279480129e+00
0	 2.999969994316577e+00	 3.999990488837320e+00	 9.999999279458684e+00
0	 2.999969994316575e+00	 4.142849759482073e+00	 9.999999279445822e+00
0	 2.999969994316576e+00	 4.285708730125926e+00	 9.999999279441539e+00
0	 3.142830431628385e+00	 2.857109523672222e+00	 9.999999374787318e+00
0	 3.142830431628385e+00	 2.999969994316576e+00	 9.999999374705851e+00
0	 3.142830431628386e+00	 3.142830431628385e+00	 9.999999374632955e+00
0	 3.142830431628385e+00	 3.285690802274106e+00	 9.999999374568647e+00
0	 3.142830431628385e+00	 3.428551072920193e+00	 9.999999374512910e+00
0	 3.142830431628385e+00	 3.571411210233102e+00	 9.999999374465748e+00
0	 3.142830431628385e+00	 3.714271180879290e+00	 9.999999374427150e+00
0	 3.142830431628385e+00	 3.857130951525210e+00	 9.999999374397142e+00
0	 3.142830431628386e+00	 3.999990488837320e+00	 9.999999374375699e+00
0	 3.142830431628385e+00	 4.142849759482072e+00	 9.999999374362833e+00
0	 3.142830431628385e+00	 4.285708730125926e+00	 9.999999374358550e+00
0	 3.285690802274106e+00	 2.857109523672222e+00	 9.999999506047940e+00
0	 3.285690802274106e+00	 2.999969994316576e+00	 9.999999505966478e+00
0	 3.285690802274106e+00	 3.142830431628386e+00	 9.999999505893584e+00
0	 3.285690802274105e+00	 3.285690802274105e+00	 9.999999505829273e+00
0	 3.285690802274106e+00	 3.428551072920194e+00	 9.999999505773532e+00
0	 3.285690802274106e+00	 3.571411210233103e+00	 9.999999505726372e+00
0	 3.285690802274104e+00	 3.714271180879289e+00	 9.999999505687772e+00
0	 3.285690802274106e+00	 3.857130951525210e+00	 9.999999505657771e+00
0	 3.285690802274106e+00	 3.999990488837320e+00	 9.999999505636321e+00
0	 3.285690802274106e+00	 4.142849759482074e+00	 9.999999505623467e+00
0	 3.285690802274106e+00	 4.285708730125926e+00	 9.999999505619177e+00
0	 3.428551072920193e+00	 2.857109523672222e+00	 9.999999673652338e+00
0	 3.428551072920192e+00	 2.999969994316576e+00	 9.999999673570869e+00
0	 3.428551072920193e+00	 3.142830431628385e+00	 9.999999673497980e+00
0	 3.428551072920194e+00	 3.285690802274106e+00	 9.999999673433667e+00
0	 3.428551072920193e+00	 3.428551072920192e+00	 9.999999673377928e+00
0	 3.428551072920194e+00	 3.571411210233104e+00	 9.999999673330761e+00
0	 3.428551072920192e+00	 3.714271180879289e+00	 9.999999673292173e+00
0	 3.428551072920194e+00	 3.857130951525211e+00	 9.999999673262156e+00
0	 3.428551072920193e+00	 3.999990488837320e+00	 9.999999673240719e+00
0	 3.428551072920193e+00	 4.142849759482074e+00	 9.999999673227856e+00
0	 3.428551072920193e+00	 4.285708730125926e+00	 9.999999673223568e+00
0	 3.571411210233103e+00	 2.857109523672223e+00	 9.999999877600699e+00
0	 3.571411210233102e+00	 2.999969994316576e+00	 9.999999877519238e+00
0	 3.571411210233103e+00	 3.142830431628385e+00	 9.999999877446342e+00
0	 3.571411210233103e+00	 3.285690802274106e+00	 9.999999877382027e+00
0	 3.571411210233103e+00	 3.428551072920193e+00	 9.999999877326292e+00
0	 3.571411210233104e+00	 3.571411210233103e+00	 9.999999877279125e+00
0	 3.571411210233103e+00	 3.714271180879290e+00	 9.999999877240539e+00
0	 3.571411210233101e+00	 3.857130951525210e+00	 9.999999877210524e+00
0	 3.571411210233103e+00	 3.999990488837321e+00	 9.999999877189085e+00
0	 3.571411210233102e+00	 4.142849759482074e+00	 9.999999877176222e+00
0	 3.571411210233103e+00	 4.285708730125926e+00	 9.999999877171936e+00
0	 3.714271180879290e+00	 2.857109523672222e+00	 1.000000011789330e+01
0	 3.714271180879289e+00	 2.999969994316576e+00	 1.000000011781183e+01
0	 3.714271180879290e+00	 3.142830431628385e+00	 1.000000011773894e+01
0	 3.714271180879288e+00	 3.285690802274104e+00	 1.000000011767463e+01
0	 3.714271180879289e+00	 3.428551072920193e+00	 1.000000011761889e+01
0	 3.714271180879290e+00	 3.571411210233103e+00	 1.000000011757172e+01
0	 3.714271180879290e+00	 3.714271180879290e+00	 1.000000011753314e+01
0	 3.714271180879290e+00	 3.857130951525211e+00	 1.000000011750313e+01
0	 3.714271180879289e+00	 3.999990488837319e+00	 1.000000011748168e+01
0	 3.714271180879289e+00	 4.142849759482075e+00	 1.000000011746882e+01
0	 3.714271180879289e+00	 4.285708730125926e+00	 1.000000011746453e+01
0	 3.857130951525211e+00	 2.857109523672221e+00	 1.000000039453042e+01
0	 3.857130951525211e+00	 2.999969994316577e+00	 1.000000039444896e+01
0	 3.857130951525210e+00	 3.142830431628385e+00	 1.000000039437607e+01
0	 3.857130951525210e+00	 3.285690802274106e+00	 1.000000039431175e+01
0	 3.857130951525210e+00	 3.428551072920193e+00	 1.000000039425602e+01
0	 3.857130951525210e+00	 3.571411210233102e+00	 1.000000039420885e+01
0	 3.857130951525211e+00	 3.714271180879290e+00	 1.000000039417026e+01
0	 3.857130951525210e+00	 3.857130951525210e+00	 1.000000039414025e+01
0	 3.857130951525209e+00	 3.999990488837319e+00	 1.000000039411881e+01
0	 3.857130951525210e+00	 4.142849759482075e+00	 1.000000039410596e+01
0	 3.857130951525211e+00	 4.285708730125926e+00	 1.000000039410166e+01
0	 3.999990488837320e+00	 2.857109523672222e+00	 1.000000070751245e+01
0	 3.999990488837319e+00	 2.999969994316575e+00	 1.000000070743099e+01
0	 3.999990488837319e+00	 3.142830431628385e+00	 1.000000070735810e+01
0	 3.999990488837320e+00	 3.285690802274106e+00	 1.000000070729379e+01
0	 3.999990488837320e+00	 3.428551072920193e+00	 1.000000070723805e+01
0	 3.999990488837320e+00	 3.571411210233103e+00	 1.000000070719088e+01
0	 3.999990488837319e+00	 3.714271180879289e+00	 1.000000070715229e+01
0	 3.999990488837321e+00	 3.857130951525211e+00	 1.000000070712229e+01
0	 3.999990488837320e+00	 3.999990488837320e+00	 1.000000070710084e+01
0	 3.999990488837320e+00	 4.142849759482075e+00	 1.000000070708798e+01
0	 3.999990488837320e+00	 4.285708730125926e+00	 1.000000070708369e+01
0	 4.142849759482075e+00	 2.857109523672223e+00	 1.000000105683979e+01
0	 4.142849759482072e+00	 2.999969994316575e+00	 1.000000105675833e+01
0	 4.142849759482074e+00	 3.142830431628385e+00	 1.000000105668544e+01
0	 4.142849759482075e+00	 3.285690802274106e+00	 1.000000105662113e+01
0	 4.142849759482075e+00	 3.428551072920193e+00	 1.000000105656539e+01
0	 4.142849759482074e+00	 3.571411210233103e+00	 1.000000105651822e+01
0	 4.142849759482075e+00	 3.714271180879290e+00	 1.000000105647963e+01
0	 4.142849759482075e+00	 3.857130951525210e+00	 1.000000105644962e+01
0	 4.142849759482075e+00	 3.999990488837320e+00	 1.000000105642818e+01
0	 4.142849759482075e+00	 4.142849759482075e+00	 1.000000105641532e+01
0	 4.142849759482073e+00	 4.285708730125925e+00	 1.000000105641103e+01
0	 4.285708730125926e+00	 2.857109523672222e+00	 1.000000144251289e+01
0	 4.285708730125926e+00	 2.999969994316576e+00	 1.000000144243143e+01
0	 4.285708730125926e+00	 3.142830431628385e+00	 1.000000144235854e+01
0	 4.285708730125926e+00	 3.285690802274106e+00	 1.000000144229423e+01
0	 4.285708730125926e+00	 3.428551072920192e+00	 1.000000144223849e+01
0	 4.285708730125926e+00	 3.571411210233102e+00	 1.000000144219132e+01
0	 4.285708730125926e+00	 3.714271180879290e+00	 1.000000144215274e+01
0	 4.285708730125926e+00	 3.857130951525210e+00	 1.000000144212273e+01
0	 4.285708730125926e+00	 3.999990488837321e+00	 1.000000144210129e+01
0	 4.285708730125926e+00	 4.142849759482074e+00	 1.000000144208842e+01
0	 4.285708730125926e+00	 4.285708730125926e+00	 1.000000144208413e+01
0	 2.857109523672222e+00	 4.285708730125926e+00	 9.999999220868027e+00
0	 2.857109523672222e+00	 4.428567384102073e+00	 9.999999220868027e+00
0	 2.857109523672223e+00	 4.571425771410668e+00	 9.999999220868023e+00
0	 2.857109523672222e+00	 4.714283958718593e+00	 9.999999220868020e+00
0	 2.857109523672223e+00	 4.857142012692742e+00	 9.999999220868023e+00
0	 2.857109523672222e+00	 5.000000000000001e+00	 9.999999220868023e+00
0	 2.857109523672222e+00	 5.142857987307261e+00	 9.999999220868023e+00
0	 2.857109523672222e+00	 5.285716041281408e+00	 9.999999220868030e+00
0	 2.857109523672222e+00	 5.428574228589336e+00	 9.999999220868029e+00
0	 2.857109523672222e+00	 5.571432615897928e+00	 9.999999220868023e+00
0	 2.857109523672222e+00	 5.714291269874074e+00	 9.999999220868030e+00
0	 2.999969994316576e+00	 4.285708730125926e+00	 9.999999279441539e+00
0	 2.999969994316576e+00	 4.428567384102075e+00	 9.999999279441534e+00
0	 2.999969994316576e+00	 4.571425771410667e+00	 9.999999279441534e+00
0	 2.999969994316576e+00	 4.714283958718593e+00	 9.999999279441532e+00
0	 2.999969994316576e+00	 4.857142012692742e+00	 9.999999279441532e+00
0	 2.999969994316576e+00	 5.000000000000002e+00	 9.999999279441532e+00
0	 2.999969994316576e+00	 5.142857987307261e+00	 9.999999279441536e+00
0	 2.999969994316576e+00	 5.285716041281409e+00	 9.999999279441534e+00
0	 2.999969994316576e+00	 5.428574228589337e+00	 9.999999279441537e+00
0	 2.999969994316576e+00	 5.571432615897927e+00	 9.999999279441539e+00
0	 2.999969994316576e+00	 5.714291269874074e+00	 9.999999279441544e+00
0	 3.142830431628385e+00	 4.285708730125926e+00	 9.999999374358550e+00
0	 3.142830431628385e+00	 4.428567384102073e+00	 9.999999374358554e+00
0	 3.142830431628384e+00	 4.571425771410667e+00	 9.999999374358548e+00
0	 3.142830431628386e+00	 4.714283958718592e+00	 9.999999374358556e+00
0	 3.142830431628385e+00	 4.857142012692742e+00	 9.999999374358556e+00
0	 3.142830431628386e+00	 5.000000000000002e+00	 9.999999374358554e+00
0	 3.142830431628385e+00	 5.142857987307261e+00	 9.999999374358548e+00
0	 3.142830431628386e+00	 5.285716041281408e+00	 9.999999374358556e+00
0	 3.142830431628385e+00	 5.428574228589335e+00	 9.999999374358548e+00
0	 3.142830431628386e+00	 5.571432615897928e+00	 9.999999374358550e+00
0	 3.142830431628385e+00	 5.714291269874074e+00	 9.999999374358550e+00
0	 3.285690802274106e+00	 4.285708730125926e+00	 9.999999505619177e+00
0	 3.285690802274106e+00	 4.428567384102074e+00	 9.999999505619176e+00
0	 3.285690802274105e+00	 4.571425771410666e+00	 9.999999505619174e+00
0	 3.285690802274106e+00	 4.714283958718593e+00	 9.999999505619177e+00
0	 3.285690802274105e+00	 4.857142012692742e+00	 9.999999505619169e+00
0	 3.285690802274106e+00	 5.000000000000000e+00	 9.999999505619179e+00
0	 3.285690802274106e+00	 5.142857987307260e+00	 9.999999505619177e+00
0	 3.285690802274107e+00	 5.285716041281410e+00	 9.999999505619181e+00
0	 3.285690802274106e+00	 5.428574228589335e+00	 9.999999505619176e+00
0	 3.285690802274106e+00	 5.571432615897930e+00	 9.999999505619177e+00
0	 3.285690802274106e+00	 5.714291269874074e+00	 9.999999505619183e+00
0	 3.428551072920193e+00	 4.285708730125926e+00	 9.999999673223568e+00
0	 3.428551072920194e+00	 4.428567384102075e+00	 9.999999673223575e+00
0	 3.428551072920194e+00	 4.571425771410667e+00	 9.999999673223567e+00
0	 3.428551072920191e+00	 4.714283958718593e+00	 9.999999673223563e+00
0	 3.428551072920193e+00	 4.857142012692742e+00	 9.999999673223567e+00
0	 3.428551072920193e+00	 5.000000000000001e+00	 9.999999673223574e+00
0	 3.428551072920192e+00	 5.142857987307259e+00	 9.999999673223574e+00
0	 3.428551072920193e+00	 5.285716041281409e+00	 9.999999673223570e+00
0	 3.428551072920194e+00	 5.428574228589336e+00	 9.999999673223575e+00
0	 3.428551072920193e+00	 5.571432615897928e+00	 9.999999673223577e+00
0	 3.428551072920193e+00	 5.714291269874074e+00	 9.999999673223570e+00
0	 3.571411210233103e+00	 4.285708730125926e+00	 9.999999877171936e+00
0	 3.571411210233102e+00	 4.428567384102075e+00	 9.999999877171939e+00
0	 3.571411210233102e+00	 4.571425771410667e+00	 9.999999877171934e+00
0	 3.571411210233101e+00	 4.714283958718593e+00	 9.999999877171934e+00
0	 3.571411210233102e+00	 4.857142012692742e+00	 9.999999877171932e+00
0	 3.571411210233104e+00	 5.000000000000002e+00	 9.999999877171934e+00
0	 3.571411210233102e+00	 5.142857987307260e+00	 9.999999877171941e+00
0	 3.571411210233101e+00	 5.285716041281408e+00	 9.999999877171941e+00
0	 3.571411210233103e+00	 5.428574228589335e+00	 9.999999877171941e+00
0	 3.571411210233102e+00	 5.571432615897927e+00	 9.999999877171934e+00
0	 3.571411210233102e+00	 5.714291269874074e+00	 9.999999877171943e+00
0	 3.714271180879289e+00	 4.285708730125926e+00	 1.000000011746453e+01
0	 3.714271180879290e+00	 4.428567384102074e+00	 1.000000011746453e+01
0	 3.714271180879290e+00	 4.571425771410668e+00	 1.000000011746453e+01
0	 3.714271180879290e+00	 4.714283958718593e+00	 1.000000011746453e+01
0	 3.714271180879290e+00	 4.857142012692742e+00	 1.000000011746453e+01
0	 3.714271180879290e+00	 5.000000000000003e+00	 1.000000011746453e+01
0	 3.714271180879289e+00	 5.142857987307260e+00	 1.000000011746453e+01
0	 3.714271180879290e+00	 5.285716041281409e+00	 1.000000011746453e+01
0	 3.714271180879289e+00	 5.428574228589335e+00	 1.000000011746454e+01
0	 3.714271180879290e+00	 5.571432615897928e+00	 1.000000011746453e+01
0	 3.714271180879289e+00	 5.714291269874075e+00	 1.000000011746453e+01
0	 3.857130951525211e+00	 4.285708730125926e+00	 1.000000039410166e+01
0	 3.857130951525210e+00	 4.428567384102076e+00	 1.000000039410167e+01
0	 3.857130951525209e+00	 4.571425771410667e+00	 1.000000039410167e+01
0	 3.857130951525211e+00	 4.714283958718594e+00	 1.000000039410167e+01
0	 3.857130951525210e+00	 4.857142012692740e+00	 1.000000039410166e+01
0	 3.857130951525210e+00	 5.000000000000001e+00	 1.000000039410167e+01
0	 3.857130951525210e+00	 5.142857987307262e+00	 1.000000039410167e+01
0	 3.857130951525211e+00	 5.285716041281410e+00	 1.000000039410167e+01
0	 3.857130951525210e+00	 5.428574228589335e+00	 1.000000039410166e+01
0	 3.857130951525211e+00	 5.571432615897929e+00	 1.000000039410167e+01
0	 3.857130951525210e+00	 5.714291269874074e+00	 1.000000039410167e+01
0	 3.999990488837320e+00	 4.285708730125926e+00	 1.000000070708369e+01
0	 3.999990488837320e+00	 4.428567384102074e+00	 1.000000070708369e+01
0	 3.999990488837321e+00	 4.571425771410668e+00	 1.000000070708370e+01
0	 3.999990488837320e+00	 4.714283958718593e+00	 1.000000070708369e+01
0	 3.999990488837320e+00	 4.857142012692742e+00	 1.000000070708369e+01
0	 3.999990488837321e+00	 5.000000000000001e+00	 1.000000070708369e+01
0	 3.999990488837319e+00	 5.142857987307260e+00	 1.000000070708369e+01
0	 3.999990488837319e+00	 5.285716041281409e+00	 1.000000070708370e+01
0	 3.999990488837320e+00	 5.428574228589336e+00	 1.000000070708369e+01
0	 3.999990488837319e+00	 5.571432615897927e+00	 1.000000070708370e+01
0	 3.999990488837321e+00	 5.714291269874074e+00	 1.000000070708370e+01
0	 4.142849759482073e+00	 4.285708730125925e+00	 1.000000105641103e+01
0	 4.142849759482074e+00	 4.428567384102074e+00	 1.000000105641103e+01
0	 4.142849759482074e+00	 4.571425771410667e+00	 1.000000105641103e+01
0	 4.142849759482075e+00	 4.714283958718593e+00	 1.000000105641103e+01
0	 4.142849759482075e+00	 4.857142012692742e+00	 1.000000105641103e+01
0	 4.142849759482074e+00	 5.000000000000000e+00	 1.000000105641104e+01
0	 4.142849759482075e+00	 5.142857987307260e+00	 1.000000105641103e+01
0	 4.142849759482074e+00	 5.285716041281408e+00	 1.000000105641103e+01
0	 4.142849759482074e+00	 5.428574228589335e+00	 1.000000105641103e+01
0	 4.142849759482074e+00	 5.571432615897927e+00	 1.000000105641103e+01
0	 4.142849759482075e+00	 5.714291269874074e+00	 1.000000105641103e+01
0	 4.285708730125926e+00	 4.285708730125926e+00	 1.000000144208413e+01
0	 4.285708730125926e+00	 4.428567384102075e+00	 1.000000144208413e+01
0	 4.285708730125926e+00	 4.571425771410667e+00	 1.000000144208413e+01
0	 4.285708730125926e+00	 4.714283958718593e+00	 1.000000144208413e+01
0	 4.285708730125926e+00	 4.857142012692742e+00	 1.000000144208413e+01
0	 4.285708730125926e+00	 5.000000000000001e+00	 1.000000144208413e+01
0	 4.285708730125926e+00	 5.142857987307262e+00	 1.000000144208414e+01
0	 4.285708730125926e+00	 5.285716041281411e+00	 1.000000144208413e+01
0	 4.285708730125925e+00	 5.428574228589334e+00	 1.000000144208413e+01
0	 4.285708730125926e+00	 5.571432615897929e+00	 1.000000144208414e+01
0	 4.285708730125925e+00	 5.714291269874074e+00	 1.000000144208414e+01
0	 2.857109523672222e+00	 5.714291269874074e+00	 9.999999220868030e+00
0	 2.857109523672222e+00	 5.857150240517928e+00	 9.999999220872311e+00
0	 2.857109523672222e+00	 6.000009511162682e+00	 9.999999220885183e+00
0	 2.857109523672222e+00	 6.142869048474791e+00	 9.999999220906620e+00
0	 2.857109523672222e+00	 6.285728819120712e+00	 9.999999220936633e+00
0	 2.857109523672222e+00	 6.428588789766900e+00	 9.999999220975216e+00
0	 2.857109523672222e+00	 6.571448927079808e+00	 9.999999221022376e+00
0	 2.857109523672222e+00	 6.714309197725895e+00	 9.999999221078120e+00
0	 2.857109523672222e+00	 6.857169568371616e+00	 9.999999221142430e+00
0	 2.857109523672222e+00	 7.000030005683426e+00	 9.999999221215326e+00
0	 2.857109523672222e+00	 7.142890476327777e+00	 9.999999221296788e+00
0	 2.999969994316576e+00	 5.714291269874074e+00	 9.999999279441544e+00
0	 2.999969994316576e+00	 5.857150240517929e+00	 9.999999279445827e+00
0	 2.999969994316576e+00	 6.000009511162682e+00	 9.999999279458683e+00
0	 2.999969994316577e+00	 6.142869048474792e+00	 9.999999279480130e+00
0	 2.999969994316576e+00	 6.285728819120711e+00	 9.999999279510138e+00
0	 2.999969994316576e+00	 6.428588789766899e+00	 9.999999279548732e+00
0	 2.999969994316577e+00	 6.571448927079809e+00	 9.999999279595896e+00
0	 2.999969994316576e+00	 6.714309197725897e+00	 9.999999279651638e+00
0	 2.999969994316576e+00	 6.857169568371617e+00	 9.999999279715949e+00
0	 2.999969994316576e+00	 7.000030005683427e+00	 9.999999279788835e+00
0	 2.999969994316576e+00	 7.142890476327779e+00	 9.999999279870291e+00
0	 3.142830431628385e+00	 5.714291269874074e+00	 9.999999374358550e+00
0	 3.142830431628385e+00	 5.857150240517927e+00	 9.999999374362844e+00
0	 3.142830431628385e+00	 6.000009511162681e+00	 9.999999374375708e+00
0	 3.142830431628385e+00	 6.142869048474791e+00	 9.999999374397147e+00
0	 3.142830431628385e+00	 6.285728819120711e+00	 9.999999374427151e+00
0	 3.142830431628386e+00	 6.428588789766899e+00	 9.999999374465744e+00
0	 3.142830431628385e+00	 6.571448927079808e+00	 9.999999374512903e+00
0	 3.142830431628385e+00	 6.714309197725898e+00	 9.999999374568642e+00
0	 3.142830431628385e+00	 6.857169568371616e+00	 9.999999374632960e+00
0	 3.142830431628385e+00	 7.000030005683426e+00	 9.999999374705840e+00
0	 3.142830431628385e+00	 7.142890476327778e+00	 9.999999374787311e+00
0	 3.285690802274106e+00	 5.714291269874074e+00	 9.999999505619183e+00
0	 3.285690802274106e+00	 5.857150240517927e+00	 9.999999505623467e+00
0	 3.285690802274105e+00	 6.000009511162682e+00	 9.999999505636328e+00
0	 3.285690802274106e+00	 6.142869048474791e+00	 9.999999505657772e+00
0	 3.285690802274105e+00	 6.285728819120711e+00	 9.999999505687791e+00
0	 3.285690802274106e+00	 6.428588789766898e+00	 9.999999505726366e+00
0	 3.285690802274105e+00	 6.571448927079808e+00	 9.999999505773538e+00
0	 3.285690802274106e+00	 6.714309197725895e+00	 9.999999505829273e+00
0	 3.285690802274106e+00	 6.857169568371618e+00	 9.999999505893593e+00
0	 3.285690802274106e+00	 7.000030005683427e+00	 9.999999505966473e+00
0	 3.285690802274106e+00	 7.142890476327779e+00	 9.999999506047935e+00
0	 3.428551072920193e+00	 5.714291269874074e+00	 9.999999673223570e+00
0	 3.428551072920193e+00	 5.857150240517929e+00	 9.999999673227860e+00
0	 3.428551072920193e+00	 6.000009511162683e+00	 9.999999673240728e+00
0	 3.428551072920192e+00	 6.142869048474789e+00	 9.999999673262163e+00
0	 3.428551072920193e+00	 6.285728819120712e+00	 9.999999673292177e+00
0	 3.428551072920193e+00	 6.428588789766898e+00	 9.999999673330766e+00
0	 3.428551072920193e+00	 6.571448927079810e+00	 9.999999673377923e+00
0	 3.428551072920193e+00	 6.714309197725896e+00	 9.999999673433670e+00
0	 3.428551072920193e+00	 6.857169568371617e+00	 9.999999673497978e+00
0	 3.428551072920193e+00	 7.000030005683425e+00	 9.999999673570869e+00
0	 3.428551072920194e+00	 7.142890476327778e+00	 9.999999673652326e+00
0	 3.571411210233102e+00	 5.714291269874074e+00	 9.999999877171943e+00
0	 3.571411210233102e+00	 5.857150240517928e+00	 9.999999877176224e+00
0	 3.571411210233104e+00	 6.000009511162683e+00	 9.999999877189085e+00
0	 3.571411210233102e+00	 6.142869048474791e+00	 9.999999877210524e+00
0	 3.571411210233103e+00	 6.285728819120713e+00	 9.999999877240542e+00
0	 3.571411210233103e+00	 6.428588789766900e+00	 9.999999877279130e+00
0	 3.571411210233103e+00	 6.571448927079809e+00	 9.999999877326303e+00
0	 3.571411210233102e+00	 6.714309197725896e+00	 9.999999877382033e+00
0	 3.571411210233102e+00	 6.857169568371615e+00	 9.999999877446349e+00
0	 3.571411210233103e+00	 7.000030005683426e+00	 9.999999877519237e+00
0	 3.571411210233103e+00	 7.142890476327778e+00	 9.999999877600699e+00
0	 3.714271180879289e+00	 5.714291269874075e+00	 1.000000011746453e+01
0	 3.714271180879290e+00	 5.857150240517928e+00	 1.000000011746882e+01
0	 3.714271180879290e+00	 6.000009511162684e+00	 1.000000011748169e+01
0	 3.714271180879289e+00	 6.142869048474791e+00	 1.000000011750312e+01
0	 3.714271180879289e+00	 6.285728819120712e+00	 1.000000011753314e+01
0	 3.714271180879290e+00	 6.428588789766899e+00	 1.000000011757173e+01
0	 3.714271180879289e+00	 6.571448927079808e+00	 1.000000011761889e+01
0	 3.714271180879290e+00	 6.714309197725897e+00	 1.000000011767463e+01
0	 3.714271180879290e+00	 6.857169568371616e+00	 1.000000011773894e+01
0	 3.714271180879291e+00	 7.000030005683426e+00	 1.000000011781183e+01
0	 3.714271180879291e+00	 7.142890476327779e+00	 1.000000011789329e+01
0	 3.857130951525210e+00	 5.714291269874074e+00	 1.000000039410167e+01
0	 3.857130951525211e+00	 5.857150240517927e+00	 1.000000039410595e+01
0	 3.857130951525210e+00	 6.000009511162681e+00	 1.000000039411882e+01
0	 3.857130951525210e+00	 6.142869048474790e+00	 1.000000039414026e+01
0	 3.857130951525210e+00	 6.285728819120711e+00	 1.000000039417026e+01
0	 3.857130951525210e+00	 6.428588789766899e+00	 1.000000039420886e+01
0	 3.857130951525210e+00	 6.571448927079809e+00	 1.000000039425602e+01
0	 3.857130951525211e+00	 6.714309197725898e+00	 1.000000039431175e+01
0	 3.857130951525210e+00	 6.857169568371615e+00	 1.000000039437607e+01
0	 3.857130951525210e+00	 7.000030005683426e+00	 1.000000039444896e+01
0	 3.857130951525211e+00	 7.142890476327778e+00	 1.000000039453042e+01
0	 3.999990488837321e+00	 5.714291269874074e+00	 1.000000070708370e+01
0	 3.999990488837320e+00	 5.857150240517927e+00	 1.000000070708798e+01
0	 3.999990488837320e+00	 6.000009511162682e+00	 1.000000070710085e+01
0	 3.999990488837320e+00	 6.142869048474791e+00	 1.000000070712229e+01
0	 3.999990488837320e+00	 6.285728819120711e+00	 1.000000070715231e+01
0	 3.999990488837319e+00	 6.428588789766900e+00	 1.000000070719089e+01
0	 3.999990488837319e+00	 6.571448927079809e+00	 1.000000070723805e+01
0	 3.999990488837320e+00	 6.714309197725894e+00	 1.000000070729379e+01
0	 3.999990488837320e+00	 6.857169568371616e+00	 1.000000070735811e+01
0	 3.999990488837320e+00	 7.000030005683426e+00	 1.000000070743099e+01
0	 3.999990488837320e+00	 7.142890476327778e+00	 1.000000070751246e+01
0	 4.142849759482075e+00	 5.714291269874074e+00	 1.000000105641103e+01
0	 4.142849759482075e+00	 5.857150240517927e+00	 1.000000105641532e+01
0	 4.142849759482075e+00	 6.000009511162682e+00	 1.000000105642818e+01
0	 4.142849759482075e+00	 6.142869048474791e+00	 1.000000105644963e+01
0	 4.142849759482075e+00	 6.285728819120713e+00	 1.000000105647964e+01
0	 4.142849759482075e+00	 6.428588789766899e+00	 1.000000105651822e+01
0	 4.142849759482074e+00	 6.571448927079809e+00	 1.000000105656539e+01
0	 4.142849759482075e+00	 6.714309197725896e+00	 1.000000105662113e+01
0	 4.142849759482073e+00	 6.857169568371615e+00	 1.000000105668544e+01
0	 4.142849759482074e+00	 7.000030005683427e+00	 1.000000105675833e+01
0	 4.142849759482075e+00	 7.142890476327779e+00	 1.000000105683979e+01
0	 4.285708730125925e+00	 5.714291269874074e+00	 1.000000144208414e+01
0	 4.285708730125926e+00	 5.857150240517928e+00	 1.000000144208843e+01
0	 4.285708730125926e+00	 6.000009511162682e+00	 1.000000144210129e+01
0	 4.285708730125926e+00	 6.142869048474793e+00	 1.000000144212273e+01
0	 4.285708730125926e+00	 6.285728819120710e+00	 1.000000144215274e+01
0	 4.285708730125925e+00	 6.428588789766899e+00	 1.000000144219133e+01
0	 4.285708730125926e+00	 6.571448927079809e+00	 1.000000144223849e+01
0	 4.285708730125926e+00	 6.714309197725895e+00	 1.000000144229423e+01
0	 4.285708730125926e+00	 6.857169568371619e+00	 1.000000144235855e+01
0	 4.285708730125926e+00	 7.000030005683427e+00	 1.000000144243144e+01
0	 4.285708730125926e+00	 7.142890476327779e+00	 1.000000144251290e+01
0	 2.857109523672222e+00	 7.142890476327777e+00	 9.999999221296788e+00
0	 2.857109523672222e+00	 7.285740955271015e+00	 9.999999244931104e+00
0	 2.857109523672222e+00	 7.428591450879006e+00	 9.999999315662532e+00
0	 2.857109523672222e+00	 7.571441979817511e+00	 9.999999433491025e+00
0	 2.857109523672222e+00	 7.714292558752279e+00	 9.999999598416510e+00
0	 2.857109523672223e+00	 7.857143204349073e+00	 9.999999810438855e+00
0	 2.857109523672223e+00	 7.999993933273644e+00	 1.000000006955792e+01
0	 2.857109523672222e+00	 8.142844762191746e+00	 1.000000037577354e+01
0	 2.857109523672222e+00	 8.285695707769142e+00	 1.000000072908548e+01
0	 2.857109523672222e+00	 8.428546786671577e+00	 1.000000112949348e+01
0	 2.857109523672222e+00	 8.571398015564816e+00	 1.000000157699730e+01
0	 2.999969994316576e+00	 7.142890476327779e+00	 9.999999279870295e+00
0	 2.999969994316575e+00	 7.285740955271011e+00	 9.999999303504604e+00
0	 2.999969994316576e+00	 7.428591450879006e+00	 9.999999374236040e+00
0	 2.999969994316575e+00	 7.571441979817511e+00	 9.999999492064529e+00
0	 2.999969994316576e+00	 7.714292558752281e+00	 9.999999656990024e+00
0	 2.999969994316576e+00	 7.857143204349073e+00	 9.999999869012360e+00
0	 2.999969994316577e+00	 7.999993933273647e+00	 1.000000012813144e+01
0	 2.999969994316576e+00	 8.142844762191746e+00	 1.000000043434705e+01
0	 2.999969994316576e+00	 8.285695707769140e+00	 1.000000078765899e+01
0	 2.999969994316576e+00	 8.428546786671577e+00	 1.000000118806699e+01
0	 2.999969994316576e+00	 8.571398015564817e+00	 1.000000163557081e+01
0	 3.142830431628385e+00	 7.142890476327778e+00	 9.999999374787308e+00
0	 3.142830431628385e+00	 7.285740955271012e+00	 9.999999398421624e+00
0	 3.142830431628385e+00	 7.428591450879007e+00	 9.999999469153060e+00
0	 3.142830431628386e+00	 7.571441979817511e+00	 9.999999586981552e+00
0	 3.142830431628386e+00	 7.714292558752282e+00	 9.999999751907030e+00
0	 3.142830431628386e+00	 7.857143204349076e+00	 9.999999963929376e+00
0	 3.142830431628385e+00	 7.999993933273643e+00	 1.000000022304845e+01
0	 3.142830431628385e+00	 8.142844762191746e+00	 1.000000052926407e+01
0	 3.142830431628385e+00	 8.285695707769140e+00	 1.000000088257601e+01
0	 3.142830431628386e+00	 8.428546786671578e+00	 1.000000128298401e+01
0	 3.142830431628386e+00	 8.571398015564814e+00	 1.000000173048782e+01
0	 3.285690802274106e+00	 7.142890476327779e+00	 9.999999506047940e+00
0	 3.285690802274106e+00	 7.285740955271013e+00	 9.999999529682253e+00
0	 3.285690802274105e+00	 7.428591450879005e+00	 9.999999600413680e+00
0	 3.285690802274105e+00	 7.571441979817509e+00	 9.999999718242176e+00
0	 3.285690802274106e+00	 7.714292558752280e+00	 9.999999883167650e+00
0	 3.285690802274107e+00	 7.857143204349074e+00	 1.000000009519001e+01
0	 3.285690802274106e+00	 7.999993933273643e+00	 1.000000035430908e+01
0	 3.285690802274106e+00	 8.142844762191746e+00	 1.000000066052470e+01
0	 3.285690802274106e+00	 8.285695707769142e+00	 1.000000101383663e+01
0	 3.285690802274106e+00	 8.428546786671577e+00	 1.000000141424464e+01
0	 3.285690802274106e+00	 8.571398015564814e+00	 1.000000186174845e+01
0	 3.428551072920194e+00	 7.142890476327778e+00	 9.999999673652326e+00
0	 3.428551072920193e+00	 7.285740955271015e+00	 9.999999697286645e+00
0	 3.428551072920192e+00	 7.428591450879003e+00	 9.999999768018075e+00
0	 3.428551072920193e+00	 7.571441979817511e+00	 9.999999885846572e+00
0	 3.428551072920192e+00	 7.714292558752280e+00	 1.000000005077206e+01
0	 3.428551072920192e+00	 7.857143204349075e+00	 1.000000026279440e+01
0	 3.428551072920194e+00	 7.999993933273646e+00	 1.000000052191348e+01
0	 3.428551072920194e+00	 8.142844762191752e+00	 1.000000082812909e+01
0	 3.428551072920193e+00	 8.285695707769140e+00	 1.000000118144102e+01
0	 3.428551072920194e+00	 8.428546786671578e+00	 1.000000158184903e+01
0	 3.428551072920193e+00	 8.571398015564817e+00	 1.000000202935284e+01
0	 3.571411210233103e+00	 7.142890476327778e+00	 9.999999877600699e+00
0	 3.571411210233103e+00	 7.285740955271015e+00	 9.999999901235011e+00
0	 3.571411210233103e+00	 7.428591450879006e+00	 9.999999971966435e+00
0	 3.571411210233103e+00	 7.571441979817511e+00	 1.000000008979494e+01
0	 3.571411210233102e+00	 7.714292558752281e+00	 1.000000025472042e+01
0	 3.571411210233103e+00	 7.857143204349074e+00	 1.000000046674277e+01
0	 3.571411210233102e+00	 7.999993933273643e+00	 1.000000072586184e+01
0	 3.571411210233103e+00	 8.142844762191748e+00	 1.000000103207745e+01
0	 3.571411210233103e+00	 8.285695707769140e+00	 1.000000138538938e+01
0	 3.571411210233103e+00	 8.428546786671577e+00	 1.000000178579740e+01
0	 3.571411210233103e+00	 8.571398015564816e+00	 1.000000223330122e+01
0	 3.714271180879291e+00	 7.142890476327779e+00	 1.000000011789329e+01
0	 3.714271180879289e+00	 7.285740955271014e+00	 1.000000014152761e+01
0	 3.714271180879290e+00	 7.428591450879007e+00	 1.000000021225903e+01
0	 3.714271180879291e+00	 7.571441979817512e+00	 1.000000033008754e+01
0	 3.714271180879290e+00	 7.714292558752281e+00	 1.000000049501302e+01
0	 3.714271180879289e+00	 7.857143204349073e+00	 1.000000070703537e+01
0	 3.714271180879289e+00	 7.999993933273643e+00	 1.000000096615442e+01
0	 3.714271180879291e+00	 8.142844762191750e+00	 1.000000127237005e+01
0	 3.714271180879291e+00	 8.285695707769142e+00	 1.000000162568198e+01
0	 3.714271180879290e+00	 8.428546786671582e+00	 1.000000202608999e+01
0	 3.714271180879290e+00	 8.571398015564814e+00	 1.000000247359381e+01
0	 3.857130951525211e+00	 7.142890476327778e+00	 1.000000039453043e+01
0	 3.857130951525211e+00	 7.285740955271013e+00	 1.000000041816475e+01
0	 3.857130951525210e+00	 7.428591450879006e+00	 1.000000048889617e+01
0	 3.857130951525211e+00	 7.571441979817513e+00	 1.000000060672467e+01
0	 3.857130951525211e+00	 7.714292558752282e+00	 1.000000077165014e+01
0	 3.857130951525212e+00	 7.857143204349074e+00	 1.000000098367249e+01
0	 3.857130951525211e+00	 7.999993933273644e+00	 1.000000124279157e+01
0	 3.857130951525211e+00	 8.142844762191748e+00	 1.000000154900718e+01
0	 3.857130951525210e+00	 8.285695707769142e+00	 1.000000190231912e+01
0	 3.857130951525210e+00	 8.428546786671575e+00	 1.000000230272713e+01
0	 3.857130951525211e+00	 8.571398015564816e+00	 1.000000275023094e+01
0	 3.999990488837320e+00	 7.142890476327778e+00	 1.000000070751246e+01
0	 3.999990488837320e+00	 7.285740955271015e+00	 1.000000073114678e+01
0	 3.999990488837320e+00	 7.428591450879008e+00	 1.000000080187820e+01
0	 3.999990488837320e+00	 7.571441979817513e+00	 1.000000091970670e+01
0	 3.999990488837320e+00	 7.714292558752280e+00	 1.000000108463218e+01
0	 3.999990488837320e+00	 7.857143204349073e+00	 1.000000129665452e+01
0	 3.999990488837320e+00	 7.999993933273644e+00	 1.000000155577359e+01
0	 3.999990488837320e+00	 8.142844762191746e+00	 1.000000186198921e+01
0	 3.999990488837320e+00	 8.285695707769142e+00	 1.000000221530114e+01
0	 3.999990488837320e+00	 8.428546786671577e+00	 1.000000261570915e+01
0	 3.999990488837320e+00	 8.571398015564817e+00	 1.000000306321297e+01
0	 4.142849759482075e+00	 7.142890476327779e+00	 1.000000105683979e+01
0	 4.142849759482075e+00	 7.285740955271015e+00	 1.000000108047410e+01
0	 4.142849759482073e+00	 7.428591450879008e+00	 1.000000115120553e+01
0	 4.142849759482075e+00	 7.571441979817511e+00	 1.000000126903404e+01
0	 4.142849759482074e+00	 7.714292558752280e+00	 1.000000143395951e+01
0	 4.142849759482075e+00	 7.857143204349073e+00	 1.000000164598187e+01
0	 4.142849759482074e+00	 7.999993933273645e+00	 1.000000190510093e+01
0	 4.142849759482075e+00	 8.142844762191748e+00	 1.000000221131654e+01
0	 4.142849759482075e+00	 8.285695707769140e+00	 1.000000256462848e+01
0	 4.142849759482074e+00	 8.428546786671577e+00	 1.000000296503649e+01
0	 4.142849759482075e+00	 8.571398015564816e+00	 1.000000341254031e+01
0	 4.285708730125926e+00	 7.142890476327779e+00	 1.000000144251290e+01
0	 4.285708730125926e+00	 7.285740955271015e+00	 1.000000146614721e+01
0	 4.285708730125926e+00	 7.428591450879009e+00	 1.000000153687864e+01
0	 4.285708730125926e+00	 7.571441979817511e+00	 1.000000165470714e+01
0	 4.285708730125925e+00	 7.714292558752280e+00	 1.000000181963262e+01
0	 4.285708730125926e+00	 7.857143204349074e+00	 1.000000203165496e+01
0	 4.285708730125926e+00	 7.999993933273643e+00	 1.000000229077403e+01
0	 4.285708730125926e+00	 8.142844762191748e+00	 1.000000259698965e+01
0	 4.285708730125926e+00	 8.285695707769140e+00	 1.000000295030157e+01
0	 4.285708730125926e+00	 8.428546786671578e+00	 1.000000335070960e+01
0	 4.285708730125926e+00	 8.571398015564817e+00	 1.000000379821341e+01
0	 2.857109523672222e+00	 8.571398015564816e+00	 1.000000157699730e+01
0	 2.857109523672221e+00	 8.714259388995400e+00	 1.000000188318456e+01
0	 2.857109523672223e+00	 8.857120812436383e+00	 1.000000185957794e+01
0	 2.857109523672222e+00	 8.999982169218281e+00	 1.000000150617728e+01
0	 2.857109523672222e+00	 9.142843342671597e+00	 1.000000082298087e+01
0	 2.857109523672223e+00	 9.285704216126852e+00	 9.999999809985376e+00
0	 2.857109523672222e+00	 9.428564672914550e+00	 9.999998467185813e+00
0	 2.857109523672222e+00	 9.571424596365199e+00	 9.999996794575615e+00
0	 2.857109523672222e+00	 9.714283869809323e+00	 9.999994792146577e+00
0	 2.857109523672223e+00	 9.857142376577418e+00	 9.999992459888858e+00
0	 2.857109523672222e+00	 9.999999999999998e+00	 9.999989797791120e+00
0	 2.999969994316576e+00	 8.571398015564817e+00	 1.000000163557081e+01
0	 2.999969994316575e+00	 8.714259388995396e+00	 1.000000194175808e+01
0	 2.999969994316575e+00	 8.857120812436383e+00	 1.000000191815144e+01
0	 2.999969994316575e+00	 8.999982169218280e+00	 1.000000156475078e+01
0	 2.999969994316577e+00	 9.142843342671600e+00	 1.000000088155439e+01
0	 2.999969994316576e+00	 9.285704216126854e+00	 9.999999868558884e+00
0	 2.999969994316576e+00	 9.428564672914550e+00	 9.999998525759327e+00
0	 2.999969994316575e+00	 9.571424596365199e+00	 9.999996853149119e+00
0	 2.999969994316576e+00	 9.714283869809320e+00	 9.999994850720078e+00
0	 2.999969994316576e+00	 9.857142376577418e+00	 9.999992518462378e+00
0	 2.999969994316576e+00	 1.000000000000000e+01	 9.999989856364600e+00
0	 3.142830431628386e+00	 8.571398015564814e+00	 1.000000173048782e+01
0	 3.142830431628386e+00	 8.714259388995401e+00	 1.000000203667509e+01
0	 3.142830431628385e+00	 8.857120812436383e+00	 1.000000201306845e+01
0	 3.142830431628385e+00	 8.999982169218281e+00	 1.000000165966781e+01
0	 3.142830431628385e+00	 9.142843342671600e+00	 1.000000097647140e+01
0	 3.142830431628386e+00	 9.285704216126852e+00	 9.999999963475908e+00
0	 3.142830431628385e+00	 9.428564672914550e+00	 9.999998620676346e+00
0	 3.142830431628385e+00	 9.571424596365199e+00	 9.999996948066133e+00
0	 3.142830431628385e+00	 9.714283869809320e+00	 9.999994945637091e+00
0	 3.142830431628385e+00	 9.857142376577414e+00	 9.999992613379414e+00
0	 3.142830431628385e+00	 1.000000000000000e+01	 9.999989951281673e+00
0	 3.285690802274106e+00	 8.571398015564814e+00	 1.000000186174845e+01
0	 3.285690802274106e+00	 8.714259388995401e+00	 1.000000216793571e+01
0	 3.285690802274106e+00	 8.857120812436385e+00	 1.000000214432908e+01
0	 3.285690802274106e+00	 8.999982169218281e+00	 1.000000179092843e+01
0	 3.285690802274106e+00	 9.142843342671599e+00	 1.000000110773202e+01
0	 3.285690802274105e+00	 9.285704216126852e+00	 1.000000009473653e+01
0	 3.285690802274106e+00	 9.428564672914550e+00	 9.999998751936960e+00
0	 3.285690802274105e+00	 9.571424596365201e+00	 9.999997079326763e+00
0	 3.285690802274106e+00	 9.714283869809321e+00	 9.999995076897722e+00
0	 3.285690802274106e+00	 9.857142376577416e+00	 9.999992744640036e+00
0	 3.285690802274106e+00	 1.000000000000000e+01	 9.999990082542260e+00
0	 3.428551072920193e+00	 8.571398015564817e+00	 1.000000202935285e+01
0	 3.428551072920193e+00	 8.714259388995401e+00	 1.000000233554012e+01
0	 3.428551072920193e+00	 8.857120812436383e+00	 1.000000231193348e+01
0	 3.428551072920193e+00	 8.999982169218280e+00	 1.000000195853282e+01
0	 3.428551072920194e+00	 9.142843342671600e+00	 1.000000127533643e+01
0	 3.428551072920195e+00	 9.285704216126854e+00	 1.000000026234092e+01
0	 3.428551072920193e+00	 9.428564672914550e+00	 9.999998919541346e+00
0	 3.428551072920193e+00	 9.571424596365203e+00	 9.999997246931146e+00
0	 3.428551072920193e+00	 9.714283869809320e+00	 9.999995244502092e+00
0	 3.428551072920193e+00	 9.857142376577414e+00	 9.999992912244428e+00
0	 3.428551072920193e+00	 1.000000000000000e+01	 9.999990250146663e+00
0	 3.571411210233103e+00	 8.571398015564816e+00	 1.000000223330122e+01
0	 3.571411210233103e+00	 8.714259388995401e+00	 1.000000253948848e+01
0	 3.571411210233103e+00	 8.857120812436387e+00	 1.000000251588185e+01
0	 3.571411210233103e+00	 8.999982169218281e+00	 1.000000216248118e+01
0	 3.571411210233103e+00	 9.142843342671602e+00	 1.000000147928478e+01
0	 3.571411210233102e+00	 9.285704216126851e+00	 1.000000046628927e+01
0	 3.571411210233104e+00	 9.428564672914549e+00	 9.999999123489724e+00
0	 3.571411210233102e+00	 9.571424596365199e+00	 9.999997450879523e+00
0	 3.571411210233103e+00	 9.714283869809320e+00	 9.999995448450457e+00
0	 3.571411210233102e+00	 9.857142376577418e+00	 9.999993116192767e+00
0	 3.571411210233102e+00	 1.000000000000000e+01	 9.999990454094995e+00
0	 3.714271180879290e+00	 8.571398015564814e+00	 1.000000247359381e+01
0	 3.714271180879289e+00	 8.714259388995401e+00	 1.000000277978108e+01
0	 3.714271180879289e+00	 8.857120812436383e+00	 1.000000275617445e+01
0	 3.714271180879290e+00	 8.999982169218281e+00	 1.000000240277378e+01
0	 3.714271180879289e+00	 9.142843342671599e+00	 1.000000171957738e+01
0	 3.714271180879290e+00	 9.285704216126851e+00	 1.000000070658187e+01
0	 3.714271180879290e+00	 9.428564672914549e+00	 9.999999363782321e+00
0	 3.714271180879289e+00	 9.571424596365201e+00	 9.999997691172107e+00
0	 3.714271180879289e+00	 9.714283869809320e+00	 9.999995688743089e+00
0	 3.714271180879290e+00	 9.857142376577416e+00	 9.999993356485382e+00
0	 3.714271180879290e+00	 1.000000000000000e+01	 9.999990694387623e+00
0	 3.857130951525211e+00	 8.571398015564816e+00	 1.000000275023094e+01
0	 3.857130951525210e+00	 8.714259388995401e+00	 1.000000305641822e+01
0	 3.857130951525210e+00	 8.857120812436385e+00	 1.000000303281156e+01
0	 3.857130951525210e+00	 8.999982169218280e+00	 1.000000267941092e+01
0	 3.857130951525209e+00	 9.142843342671599e+00	 1.000000199621451e+01
0	 3.857130951525210e+00	 9.285704216126852e+00	 1.000000098321902e+01
0	 3.857130951525211e+00	 9.428564672914550e+00	 9.999999640419437e+00
0	 3.857130951525210e+00	 9.571424596365201e+00	 9.999997967809223e+00
0	 3.857130951525211e+00	 9.714283869809320e+00	 9.999995965380201e+00
0	 3.857130951525209e+00	 9.857142376577420e+00	 9.999993633122525e+00
0	 3.857130951525210e+00	 1.000000000000000e+01	 9.999990971024710e+00
0	 3.999990488837320e+00	 8.571398015564817e+00	 1.000000306321297e+01
0	 3.999990488837320e+00	 8.714259388995400e+00	 1.000000336940023e+01
0	 3.999990488837319e+00	 8.857120812436383e+00	 1.000000334579361e+01
0	 3.999990488837321e+00	 8.999982169218281e+00	 1.000000299239295e+01
0	 3.999990488837320e+00	 9.142843342671600e+00	 1.000000230919655e+01
0	 3.999990488837321e+00	 9.285704216126854e+00	 1.000000129620104e+01
0	 3.999990488837319e+00	 9.428564672914549e+00	 9.999999953401469e+00
0	 3.999990488837321e+00	 9.571424596365201e+00	 9.999998280791278e+00
0	 3.999990488837320e+00	 9.714283869809320e+00	 9.999996278362252e+00
0	 3.999990488837320e+00	 9.857142376577416e+00	 9.999993946104521e+00
0	 3.999990488837320e+00	 1.000000000000000e+01	 9.999991284006757e+00
0	 4.142849759482075e+00	 8.571398015564816e+00	 1.000000341254031e+01
0	 4.142849759482074e+00	 8.714259388995400e+00	 1.000000371872757e+01
0	 4.142849759482075e+00	 8.857120812436387e+00	 1.000000369512094e+01
0	 4.142849759482075e+00	 8.999982169218281e+00	 1.000000334172028e+01
0	 4.142849759482074e+00	 9.142843342671602e+00	 1.000000265852387e+01
0	 4.142849759482075e+00	 9.285704216126852e+00	 1.000000164552837e+01
0	 4.142849759482074e+00	 9.428564672914547e+00	 1.000000030272882e+01
0	 4.142849759482073e+00	 9.571424596365198e+00	 9.999998630118608e+00
0	 4.142849759482074e+00	 9.714283869809320e+00	 9.999996627689548e+00
0	 4.142849759482074e+00	 9.857142376577416e+00	 9.999994295431849e+00
0	 4.142849759482075e+00	 1.000000000000000e+01	 9.999991633334110e+00
0	 4.285708730125926e+00	 8.571398015564817e+00	 1.000000379821340e+01
0	 4.285708730125926e+00	 8.714259388995401e+00	 1.000000410440068e+01
0	 4.285708730125926e+00	 8.857120812436385e+00	 1.000000408079405e+01
0	 4.285708730125925e+00	 8.999982169218280e+00	 1.000000372739339e+01
0	 4.285708730125926e+00	 9.142843342671600e+00	 1.000000304419698e+01
0	 4.285708730125925e+00	 9.285704216126851e+00	 1.000000203120147e+01
0	 4.285708730125926e+00	 9.428564672914549e+00	 1.000000068840191e+01
0	 4.285708730125926e+00	 9.571424596365203e+00	 9.999999015791717e+00
0	 4.285708730125926e+00	 9.714283869809318e+00	 9.999997013362682e+00
0	 4.285708730125926e+00	 9.857142376577416e+00	 9.999994681104987e+00
0	 4.285708730125926e+00	 1.000000000000000e+01	 9.999992019007198e+00
0	 4.285708730125926e+00	 0.000000000000000e+00	 1.000000049977644e+01
0	 4.285708730125926e+00	 1.428576234225852e-01	 1.000000076599008e+01
0	 4.285708730125926e+00	 2.857161301906819e-01	 1.000000099922743e+01
0	 4.285708730125925e+00	 4.285754036348007e-01	 1.000000119948962e+01
0	 4.285708730125926e+00	 5.714353270854531e-01	 1.000000136677765e+01
0	 4.285708730125926e+00	 7.142957838731496e-01	 1.000000150109234e+01
0	 4.285708730125925e+00	 8.571566573284017e-01	 1.000000160243434e+01
0	 4.285708730125926e+00	 1.000017830781720e+00	 1.000000167080414e+01
0	 4.285708730125926e+00	 1.142879187563616e+00	 1.000000170620209e+01
0	 4.285708730125926e+00	 1.285740611004601e+00	 1.000000170862836e+01
0	 4.285708730125926e+00	 1.428601984435185e+00	 1.000000167808294e+01
0	 4.428567384102075e+00	 0.000000000000000e+00	 1.000000086323874e+01
0	 4.428567384102074e+00	 1.428576234225852e-01	 1.000000112945238e+01
0	 4.428567384102073e+00	 2.857161301906819e-01	 1.000000136268972e+01
0	 4.428567384102075e+00	 4.285754036348007e-01	 1.000000156295192e+01
0	 4.428567384102074e+00	 5.714353270854529e-01	 1.000000173023995e+01
0	 4.428567384102073e+00	 7.142957838731495e-01	 1.000000186455464e+01
0	 4.428567384102075e+00	 8.571566573284016e-01	 1.000000196589664e+01
0	 4.428567384102075e+00	 1.000017830781720e+00	 1.000000203426644e+01
0	 4.428567384102074e+00	 1.142879187563616e+00	 1.000000206966439e+01
0	 4.428567384102074e+00	 1.285740611004601e+00	 1.000000207209065e+01
0	 4.428567384102075e+00	 1.428601984435185e+00	 1.000000204154525e+01
0	 4.571425771410668e+00	 0.000000000000000e+00	 1.000000114593270e+01
0	 4.571425771410667e+00	 1.428576234225853e-01	 1.000000141214634e+01
0	 4.571425771410667e+00	 2.857161301906819e-01	 1.000000164538369e+01
0	 4.571425771410665e+00	 4.285754036348007e-01	 1.000000184564589e+01
0	 4.571425771410667e+00	 5.714353270854531e-01	 1.000000201293392e+01
0	 4.571425771410668e+00	 7.142957838731497e-01	 1.000000214724860e+01
0	 4.571425771410667e+00	 8.571566573284016e-01	 1.000000224859059e+01
0	 4.571425771410667e+00	 1.000017830781720e+00	 1.000000231696040e+01
0	 4.571425771410666e+00	 1.142879187563616e+00	 1.000000235235835e+01
0	 4.571425771410668e+00	 1.285740611004601e+00	 1.000000235478461e+01
0	 4.571425771410668e+00	 1.428601984435185e+00	 1.000000232423920e+01
0	 4.714283958718593e+00	 0.000000000000000e+00	 1.000000134785752e+01
0	 4.714283958718593e+00	 1.428576234225853e-01	 1.000000161407116e+01
0	 4.714283958718593e+00	 2.857161301906819e-01	 1.000000184730850e+01
0	 4.714283958718594e+00	 4.285754036348007e-01	 1.000000204757070e+01
0	 4.714283958718592e+00	 5.714353270854531e-01	 1.000000221485873e+01
0	 4.714283958718593e+00	 7.142957838731497e-01	 1.000000234917342e+01
0	 4.714283958718595e+00	 8.571566573284018e-01	 1.000000245051541e+01
0	 4.714283958718593e+00	 1.000017830781720e+00	 1.000000251888522e+01
0	 4.714283958718593e+00	 1.142879187563616e+00	 1.000000255428317e+01
0	 4.714283958718593e+00	 1.285740611004601e+00	 1.000000255670943e+01
0	 4.714283958718593e+00	 1.428601984435185e+00	 1.000000252616403e+01
0	 4.857142012692742e+00	 0.000000000000000e+00	 1.000000146901263e+01
0	 4.857142012692741e+00	 1.428576234225852e-01	 1.000000173522627e+01
0	 4.857142012692741e+00	 2.857161301906819e-01	 1.000000196846362e+01
0	 4.857142012692742e+00	 4.285754036348007e-01	 1.000000216872581e+01
0	 4.857142012692742e+00	 5.714353270854530e-01	 1.000000233601385e+01
0	 4.857142012692742e+00	 7.142957838731497e-01	 1.000000247032854e+01
0	 4.857142012692740e+00	 8.571566573284016e-01	 1.000000257167053e+01
0	 4.857142012692743e+00	 1.000017830781720e+00	 1.000000264004034e+01
0	 4.857142012692742e+00	 1.142879187563616e+00	 1.000000267543829e+01
0	 4.857142012692741e+00	 1.285740611004601e+00	 1.000000267786455e+01
0	 4.857142012692742e+00	 1.428601984435186e+00	 1.000000264731914e+01
0	 5.000000000000002e+00	 0.000000000000000e+00	 1.000000150939772e+01
0	 5.000000000000002e+00	 1.428576234225853e-01	 1.000000177561135e+01
0	 5.000000000000001e+00	 2.857161301906819e-01	 1.000000200884871e+01
0	 5.000000000000002e+00	 4.285754036348007e-01	 1.000000220911090e+01
0	 5.000000000000001e+00	 5.714353270854530e-01	 1.000000237639892e+01
0	 5.000000000000000e+00	 7.142957838731497e-01	 1.000000251071361e+01
0	 5.000000000000002e+00	 8.571566573284017e-01	 1.000000261205561e+01
0	 5.000000000000002e+00	 1.000017830781720e+00	 1.000000268042541e+01
0	 5.000000000000003e+00	 1.142879187563616e+00	 1.000000271582337e+01
0	 4.999999999999998e+00	 1.285740611004601e+00	 1.000000271824963e+01
0	 5.000000000000000e+00	 1.428601984435185e+00	 1.000000268770422e+01
0	 5.142857987307262e+00	 0.000000000000000e+00	 1.000000146901264e+01
0	 5.142857987307259e+00	 1.428576234225852e-01	 1.000000173522627e+01
0	 5.142857987307259e+00	 2.857161301906819e-01	 1.000000196846362e+01
0	 5.142857987307262e+00	 4.285754036348008e-01	 1.000000216872582e+01
0	 5.142857987307260e+00	 5.714353270854531e-01	 1.000000233601385e+01
0	 5.142857987307262e+00	 7.142957838731497e-01	 1.000000247032853e+01
0	 5.142857987307260e+00	 8.571566573284015e-01	 1.000000257167054e+01
0	 5.142857987307261e+00	 1.000017830781720e+00	 1.000000264004034e+01
0	 5.142857987307260e+00	 1.142879187563616e+00	 1.000000267543829e+01
0	 5.142857987307261e+00	 1.285740611004601e+00	 1.000000267786455e+01
0	 5.142857987307260e+00	 1.428601984435185e+00	 1.000000264731914e+01
0	 5.285716041281409e+00	 0.000000000000000e+00	 1.000000134785752e+01
0	 5.285716041281410e+00	 1.428576234225853e-01	 1.000000161407115e+01
0	 5.285716041281411e+00	 2.857161301906819e-01	 1.000000184730850e+01
0	 5.285716041281408e+00	 4.285754036348006e-01	 1.000000204757070e+01
0	 5.285716041281410e+00	 5.714353270854531e-01	 1.000000221485873e+01
0	 5.285716041281409e+00	 7.142957838731496e-01	 1.000000234917342e+01
0	 5.285716041281409e+00	 8.571566573284018e-01	 1.000000245051542e+01
0	 5.285716041281410e+00	 1.000017830781720e+00	 1.000000251888522e+01
0	 5.285716041281408e+00	 1.142879187563616e+00	 1.000000255428317e+01
0	 5.285716041281409e+00	 1.285740611004601e+00	 1.000000255670943e+01
0	 5.285716041281408e+00	 1.428601984435185e+00	 1.000000252616402e+01
0	 5.428574228589335e+00	 0.000000000000000e+00	 1.000000114593270e+01
0	 5.428574228589335e+00	 1.428576234225853e-01	 1.000000141214634e+01
0	 5.428574228589333e+00	 2.857161301906818e-01	 1.000000164538368e+01
0	 5.428574228589334e+00	 4.285754036348007e-01	 1.000000184564588e+01
0	 5.428574228589335e+00	 5.714353270854531e-01	 1.000000201293391e+01
0	 5.428574228589335e+00	 7.142957838731496e-01	 1.000000214724859e+01
0	 5.428574228589334e+00	 8.571566573284018e-01	 1.000000224859059e+01
0	 5.428574228589335e+00	 1.000017830781720e+00	 1.000000231696040e+01
0	 5.428574228589335e+00	 1.142879187563616e+00	 1.000000235235835e+01
0	 5.428574228589333e+00	 1.285740611004601e+00	 1.000000235478461e+01
0	 5.428574228589335e+00	 1.428601984435185e+00	 1.000000232423921e+01
0	 5.571432615897928e+00	 0.000000000000000e+00	 1.000000086323874e+01
0	 5.571432615897929e+00	 1.428576234225852e-01	 1.000000112945238e+01
0	 5.571432615897928e+00	 2.857161301906818e-01	 1.000000136268972e+01
0	 5.571432615897927e+00	 4.285754036348007e-01	 1.000000156295192e+01
0	 5.571432615897928e+00	 5.714353270854531e-01	 1.000000173023996e+01
0	 5.571432615897928e+00	 7.142957838731496e-01	 1.000000186455464e+01
0	 5.571432615897929e+00	 8.571566573284016e-01	 1.000000196589664e+01
0	 5.571432615897928e+00	 1.000017830781720e+00	 1.000000203426645e+01
0	 5.571432615897929e+00	 1.142879187563616e+00	 1.000000206966439e+01
0	 5.571432615897929e+00	 1.285740611004601e+00	 1.000000207209066e+01
0	 5.571432615897927e+00	 1.428601984435185e+00	 1.000000204154525e+01
0	 5.714291269874075e+00	 0.000000000000000e+00	 1.000000049977644e+01
0	 5.714291269874074e+00	 1.428576234225853e-01	 1.000000076599007e+01
0	 5.714291269874074e+00	 2.857161301906819e-01	 1.000000099922742e+01
0	 5.714291269874074e+00	 4.285754036348008e-01	 1.000000119948962e+01
0	 5.714291269874074e+00	 5.714353270854531e-01	 1.000000136677765e+01
0	 5.714291269874074e+00	 7.142957838731496e-01	 1.000000150109233e+01
0	 5.714291269874074e+00	 8.571566573284018e-01	 1.000000160243434e+01
0	 5.714291269874075e+00	 1.000017830781720e+00	 1.000000167080414e+01
0	 5.714291269874074e+00	 1.142879187563616e+00	 1.000000170620209e+01
0	 5.714291269874074e+00	 1.285740611004601e+00	 1.000000170862836e+01
0	 5.714291269874074e+00	 1.428601984435185e+00	 1.000000167808294e+01
0	 4.285708730125926e+00	 1.428601984435185e+00	 1.000000167808294e+01
0	 4.285708730125925e+00	 1.571453213328422e+00	 1.000000163340203e+01
0	 4.285708730125926e+00	 1.714304292230859e+00	 1.000000159341523e+01
0	 4.285708730125926e+00	 1.857155237808252e+00	 1.000000155812263e+01
0	 4.285708730125926e+00	 2.000006066726355e+00	 1.000000152752422e+01
0	 4.285708730125927e+00	 2.142856795650926e+00	 1.000000150162004e+01
0	 4.285708730125925e+00	 2.285707441247717e+00	 1.000000148041008e+01
0	 4.285708730125926e+00	 2.428558020182488e+00	 1.000000146389438e+01
0	 4.285708730125926e+00	 2.571408549120993e+00	 1.000000145207295e+01
0	 4.285708730125926e+00	 2.714259044728984e+00	 1.000000144494579e+01
0	 4.285708730125926e+00	 2.857109523672222e+00	 1.000000144251289e+01
0	 4.428567384102075e+00	 1.428601984435185e+00	 1.000000204154525e+01
0	 4.428567384102075e+00	 1.571453213328422e+00	 1.000000199686432e+01
0	 4.428567384102074e+00	 1.714304292230859e+00	 1.000000195687754e+01
0	 4.428567384102076e+00	 1.857155237808252e+00	 1.000000192158493e+01
0	 4.428567384102075e+00	 2.000006066726356e+00	 1.000000189098652e+01
0	 4.428567384102076e+00	 2.142856795650926e+00	 1.000000186508234e+01
0	 4.428567384102074e+00	 2.285707441247718e+00	 1.000000184387239e+01
0	 4.428567384102075e+00	 2.428558020182488e+00	 1.000000182735669e+01
0	 4.428567384102076e+00	 2.571408549120992e+00	 1.000000181553525e+01
0	 4.428567384102075e+00	 2.714259044728984e+00	 1.000000180840808e+01
0	 4.428567384102074e+00	 2.857109523672222e+00	 1.000000180597520e+01
0	 4.571425771410668e+00	 1.428601984435185e+00	 1.000000232423921e+01
0	 4.571425771410668e+00	 1.571453213328422e+00	 1.000000227955828e+01
0	 4.571425771410667e+00	 1.714304292230858e+00	 1.000000223957150e+01
0	 4.571425771410667e+00	 1.857155237808251e+00	 1.000000220427889e+01
0	 4.571425771410667e+00	 2.000006066726355e+00	 1.000000217368048e+01
0	 4.571425771410668e+00	 2.142856795650926e+00	 1.000000214777629e+01
0	 4.571425771410667e+00	 2.285707441247718e+00	 1.000000212656634e+01
0	 4.571425771410666e+00	 2.428558020182488e+00	 1.000000211005064e+01
0	 4.571425771410667e+00	 2.571408549120992e+00	 1.000000209822921e+01
0	 4.571425771410668e+00	 2.714259044728985e+00	 1.000000209110204e+01
0	 4.571425771410667e+00	 2.857109523672223e+00	 1.000000208866916e+01
0	 4.714283958718593e+00	 1.428601984435185e+00	 1.000000252616403e+01
0	 4.714283958718593e+00	 1.571453213328421e+00	 1.000000248148311e+01
0	 4.714283958718595e+00	 1.714304292230859e+00	 1.000000244149632e+01
0	 4.714283958718594e+00	 1.857155237808252e+00	 1.000000240620372e+01
0	 4.714283958718594e+00	 2.000006066726355e+00	 1.000000237560530e+01
0	 4.714283958718594e+00	 2.142856795650925e+00	 1.000000234970112e+01
0	 4.714283958718594e+00	 2.285707441247718e+00	 1.000000232849116e+01
0	 4.714283958718593e+00	 2.428558020182488e+00	 1.000000231197546e+01
0	 4.714283958718593e+00	 2.571408549120991e+00	 1.000000230015402e+01
0	 4.714283958718594e+00	 2.714259044728985e+00	 1.000000229302686e+01
0	 4.714283958718593e+00	 2.857109523672222e+00	 1.000000229059398e+01
0	 4.857142012692742e+00	 1.428601984435186e+00	 1.000000264731914e+01
0	 4.857142012692742e+00	 1.571453213328422e+00	 1.000000260263822e+01
0	 4.857142012692741e+00	 1.714304292230858e+00	 1.000000256265144e+01
0	 4.857142012692741e+00	 1.857155237808251e+00	 1.000000252735883e+01
0	 4.857142012692741e+00	 2.000006066726355e+00	 1.000000249676042e+01
0	 4.857142012692742e+00	 2.142856795650926e+00	 1.000000247085623e+01
0	 4.857142012692742e+00	 2.285707441247718e+00	 1.000000244964628e+01
0	 4.857142012692741e+00	 2.428558020182488e+00	 1.000000243313058e+01
0	 4.857142012692742e+00	 2.571408549120992e+00	 1.000000242130914e+01
0	 4.857142012692742e+00	 2.714259044728984e+00	 1.000000241418198e+01
0	 4.857142012692742e+00	 2.857109523672222e+00	 1.000000241174909e+01
0	 5.000000000000000e+00	 1.428601984435185e+00	 1.000000268770422e+01
0	 4.999999999999999e+00	 1.571453213328422e+00	 1.000000264302329e+01
0	 5.000000000000002e+00	 1.714304292230859e+00	 1.000000260303652e+01
0	 5.000000000000000e+00	 1.857155237808251e+00	 1.000000256774391e+01
0	 5.000000000000001e+00	 2.000006066726355e+00	 1.000000253714550e+01
0	 5.000000000000002e+00	 2.142856795650926e+00	 1.000000251124130e+01
0	 5.000000000000002e+00	 2.285707441247718e+00	 1.000000249003136e+01
0	 5.000000000000001e+00	 2.428558020182488e+00	 1.000000247351566e+01
0	 5.000000000000001e+00	 2.571408549120992e+00	 1.000000246169422e+01
0	 5.000000000000001e+00	 2.714259044728985e+00	 1.000000245456706e+01
0	 5.000000000000000e+00	 2.857109523672223e+00	 1.000000245213417e+01
0	 5.142857987307260e+00	 1.428601984435185e+00	 1.000000264731914e+01
0	 5.142857987307262e+00	 1.571453213328422e+00	 1.000000260263822e+01
0	 5.142857987307260e+00	 1.714304292230859e+00	 1.000000256265144e+01
0	 5.142857987307261e+00	 1.857155237808252e+00	 1.000000252735883e+01
0	 5.142857987307260e+00	 2.000006066726355e+00	 1.000000249676043e+01
0	 5.142857987307262e+00	 2.142856795650926e+00	 1.000000247085623e+01
0	 5.142857987307261e+00	 2.285707441247718e+00	 1.000000244964628e+01
0	 5.142857987307263e+00	 2.428558020182489e+00	 1.000000243313058e+01
0	 5.142857987307261e+00	 2.571408549120992e+00	 1.000000242130914e+01
0	 5.142857987307259e+00	 2.714259044728984e+00	 1.000000241418198e+01
0	 5.142857987307262e+00	 2.857109523672222e+00	 1.000000241174909e+01
0	 5.285716041281408e+00	 1.428601984435185e+00	 1.000000252616402e+01
0	 5.285716041281407e+00	 1.571453213328422e+00	 1.000000248148310e+01
0	 5.285716041281409e+00	 1.714304292230859e+00	 1.000000244149632e+01
0	 5.285716041281407e+00	 1.857155237808252e+00	 1.000000240620372e+01
0	 5.285716041281409e+00	 2.000006066726355e+00	 1.000000237560531e+01
0	 5.285716041281407e+00	 2.142856795650926e+00	 1.000000234970111e+01
0	 5.285716041281408e+00	 2.285707441247718e+00	 1.000000232849116e+01
0	 5.285716041281408e+00	 2.428558020182487e+00	 1.000000231197546e+01
0	 5.285716041281409e+00	 2.571408549120992e+00	 1.000000230015402e+01
0	 5.285716041281410e+00	 2.714259044728984e+00	 1.000000229302686e+01
0	 5.285716041281409e+00	 2.857109523672222e+00	 1.000000229059397e+01
0	 5.428574228589335e+00	 1.428601984435185e+00	 1.000000232423921e+01
0	 5.428574228589335e+00	 1.571453213328422e+00	 1.000000227955828e+01
0	 5.428574228589335e+00	 1.714304292230859e+00	 1.000000223957150e+01
0	 5.428574228589335e+00	 1.857155237808251e+00	 1.000000220427889e+01
0	 5.428574228589335e+00	 2.000006066726355e+00	 1.000000217368048e+01
0	 5.428574228589334e+00	 2.142856795650926e+00	 1.000000214777629e+01
0	 5.428574228589335e+00	 2.285707441247718e+00	 1.000000212656634e+01
0	 5.428574228589336e+00	 2.428558020182489e+00	 1.000000211005064e+01
0	 5.428574228589334e+00	 2.571408549120992e+00	 1.000000209822921e+01
0	 5.428574228589336e+00	 2.714259044728985e+00	 1.000000209110204e+01
0	 5.428574228589336e+00	 2.857109523672222e+00	 1.000000208866915e+01
0	 5.571432615897927e+00	 1.428601984435185e+00	 1.000000204154525e+01
0	 5.571432615897930e+00	 1.571453213328422e+00	 1.000000199686432e+01
0	 5.571432615897928e+00	 1.714304292230859e+00	 1.000000195687754e+01
0	 5.571432615897928e+00	 1.857155237808251e+00	 1.000000192158494e+01
0	 5.571432615897928e+00	 2.000006066726355e+00	 1.000000189098653e+01
0	 5.571432615897928e+00	 2.142856795650925e+00	 1.000000186508233e+01
0	 5.571432615897927e+00	 2.285707441247717e+00	 1.000000184387238e+01
0	 5.571432615897928e+00	 2.428558020182489e+00	 1.000000182735668e+01
0	 5.571432615897929e+00	 2.571408549120992e+00	 1.000000181553525e+01
0	 5.571432615897929e+00	 2.714259044728985e+00	 1.000000180840809e+01
0	 5.571432615897929e+00	 2.857109523672223e+00	 1.000000180597520e+01
0	 5.714291269874074e+00	 1.428601984435185e+00	 1.000000167808295e+01
0	 5.714291269874074e+00	 1.571453213328422e+00	 1.000000163340202e+01
0	 5.714291269874076e+00	 1.714304292230859e+00	 1.000000159341524e+01
0	 5.714291269874074e+00	 1.857155237808252e+00	 1.000000155812264e+01
0	 5.714291269874074e+00	 2.000006066726355e+00	 1.000000152752422e+01
0	 5.714291269874074e+00	 2.142856795650926e+00	 1.000000150162003e+01
0	 5.714291269874074e+00	 2.285707441247718e+00	 1.000000148041009e+01
0	 5.714291269874074e+00	 2.428558020182487e+00	 1.000000146389439e+01
0	 5.714291269874074e+00	 2.571408549120992e+00	 1.000000145207295e+01
0	 5.714291269874075e+00	 2.714259044728984e+00	 1.000000144494578e+01
0	 5.714291269874074e+00	 2.857109523672222e+00	 1.000000144251289e+01
0	 4.285708730125926e+00	 2.857109523672222e+00	 1.000000144251289e+01
0	 4.285708730125926e+00	 2.999969994316576e+00	 1.000000144243143e+01
0	 4.285708730125926e+00	 3.142830431628385e+00	 1.000000144235854e+01
0	 4.285708730125926e+00	 3.285690802274106e+00	 1.000000144229423e+01
0	 4.285708730125926e+00	 3.428551072920192e+00	 1.000000144223849e+01
0	 4.285708730125926e+00	 3.571411210233102e+00	 1.000000144219132e+01
0	 4.285708730125926e+00	 3.714271180879290e+00	 1.000000144215274e+01
0	 4.285708730125926e+00	 3.857130951525210e+00	 1.000000144212273e+01
0	 4.285708730125926e+00	 3.999990488837321e+00	 1.000000144210129e+01
0	 4.285708730125926e+00	 4.142849759482074e+00	 1.000000144208842e+01
0	 4.285708730125926e+00	 4.285708730125926e+00	 1.000000144208413e+01
0	 4.428567384102074e+00	 2.857109523672222e+00	 1.000000180597520e+01
0	 4.428567384102074e+00	 2.999969994316576e+00	 1.000000180589373e+01
0	 4.428567384102072e+00	 3.142830431628384e+00	 1.000000180582084e+01
0	 4.428567384102076e+00	 3.285690802274106e+00	 1.000000180575653e+01
0	 4.428567384102074e+00	 3.428551072920194e+00	 1.000000180570079e+01
0	 4.428567384102075e+00	 3.571411210233103e+00	 1.000000180565363e+01
0	 4.428567384102073e+00	 3.714271180879290e+00	 1.000000180561504e+01
0	 4.428567384102075e+00	 3.857130951525210e+00	 1.000000180558503e+01
0	 4.428567384102073e+00	 3.999990488837320e+00	 1.000000180556358e+01
0	 4.428567384102074e+00	 4.142849759482075e+00	 1.000000180555072e+01
0	 4.428567384102075e+00	 4.285708730125926e+00	 1.000000180554644e+01
0	 4.571425771410667e+00	 2.857109523672223e+00	 1.000000208866916e+01
0	 4.571425771410667e+00	 2.999969994316576e+00	 1.000000208858769e+01
0	 4.571425771410667e+00	 3.142830431628384e+00	 1.000000208851480e+01
0	 4.571425771410667e+00	 3.285690802274106e+00	 1.000000208845048e+01
0	 4.571425771410667e+00	 3.428551072920193e+00	 1.000000208839475e+01
0	 4.571425771410667e+00	 3.571411210233102e+00	 1.000000208834759e+01
0	 4.571425771410667e+00	 3.714271180879289e+00	 1.000000208830899e+01
0	 4.571425771410667e+00	 3.857130951525209e+00	 1.000000208827898e+01
0	 4.571425771410667e+00	 3.999990488837321e+00	 1.000000208825754e+01
0	 4.571425771410666e+00	 4.142849759482074e+00	 1.000000208824468e+01
0	 4.571425771410667e+00	 4.285708730125927e+00	 1.000000208824039e+01
0	 4.714283958718593e+00	 2.857109523672222e+00	 1.000000229059398e+01
0	 4.714283958718593e+00	 2.999969994316575e+00	 1.000000229051251e+01
0	 4.714283958718593e+00	 3.142830431628386e+00	 1.000000229043962e+01
0	 4.714283958718592e+00	 3.285690802274106e+00	 1.000000229037531e+01
0	 4.714283958718593e+00	 3.428551072920193e+00	 1.000000229031957e+01
0	 4.714283958718593e+00	 3.571411210233102e+00	 1.000000229027241e+01
0	 4.714283958718593e+00	 3.714271180879290e+00	 1.000000229023382e+01
0	 4.714283958718593e+00	 3.857130951525210e+00	 1.000000229020380e+01
0	 4.714283958718593e+00	 3.999990488837320e+00	 1.000000229018236e+01
0	 4.714283958718593e+00	 4.142849759482074e+00	 1.000000229016950e+01
0	 4.714283958718594e+00	 4.285708730125926e+00	 1.000000229016521e+01
0	 4.857142012692742e+00	 2.857109523672222e+00	 1.000000241174909e+01
0	 4.857142012692742e+00	 2.999969994316576e+00	 1.000000241166763e+01
0	 4.857142012692742e+00	 3.142830431628386e+00	 1.000000241159474e+01
0	 4.857142012692742e+00	 3.285690802274105e+00	 1.000000241153043e+01
0	 4.857142012692743e+00	 3.428551072920193e+00	 1.000000241147468e+01
0	 4.857142012692740e+00	 3.571411210233101e+00	 1.000000241142752e+01
0	 4.857142012692742e+00	 3.714271180879290e+00	 1.000000241138893e+01
0	 4.857142012692740e+00	 3.857130951525209e+00	 1.000000241135892e+01
0	 4.857142012692742e+00	 3.999990488837320e+00	 1.000000241133748e+01
0	 4.857142012692741e+00	 4.142849759482074e+00	 1.000000241132461e+01
0	 4.857142012692742e+00	 4.285708730125926e+00	 1.000000241132033e+01
0	 5.000000000000000e+00	 2.857109523672223e+00	 1.000000245213417e+01
0	 5.000000000000003e+00	 2.999969994316577e+00	 1.000000245205270e+01
0	 5.000000000000002e+00	 3.142830431628385e+00	 1.000000245197981e+01
0	 5.000000000000000e+00	 3.285690802274106e+00	 1.000000245191550e+01
0	 5.000000000000001e+00	 3.428551072920193e+00	 1.000000245185976e+01
0	 5.000000000000002e+00	 3.571411210233103e+00	 1.000000245181260e+01
0	 5.000000000000001e+00	 3.714271180879289e+00	 1.000000245177401e+01
0	 5.000000000000001e+00	 3.857130951525210e+00	 1.000000245174400e+01
0	 5.000000000000000e+00	 3.999990488837320e+00	 1.000000245172256e+01
0	 5.000000000000000e+00	 4.142849759482074e+00	 1.000000245170969e+01
0	 5.000000000000001e+00	 4.285708730125926e+00	 1.000000245170540e+01
0	 5.142857987307262e+00	 2.857109523672222e+00	 1.000000241174909e+01
0	 5.142857987307260e+00	 2.999969994316576e+00	 1.000000241166763e+01
0	 5.142857987307260e+00	 3.142830431628385e+00	 1.000000241159474e+01
0	 5.142857987307260e+00	 3.285690802274106e+00	 1.000000241153042e+01
0	 5.142857987307260e+00	 3.428551072920194e+00	 1.000000241147468e+01
0	 5.142857987307260e+00	 3.571411210233103e+00	 1.000000241142752e+01
0	 5.142857987307260e+00	 3.714271180879289e+00	 1.000000241138893e+01
0	 5.142857987307261e+00	 3.857130951525211e+00	 1.000000241135892e+01
0	 5.142857987307261e+00	 3.999990488837321e+00	 1.000000241133748e+01
0	 5.142857987307260e+00	 4.142849759482073e+00	 1.000000241132462e+01
0	 5.142857987307261e+00	 4.285708730125926e+00	 1.000000241132033e+01
0	 5.285716041281409e+00	 2.857109523672222e+00	 1.000000229059398e+01
0	 5.285716041281408e+00	 2.999969994316576e+00	 1.000000229051251e+01
0	 5.285716041281408e+00	 3.142830431628385e+00	 1.000000229043961e+01
0	 5.285716041281409e+00	 3.285690802274106e+00	 1.000000229037531e+01
0	 5.285716041281409e+00	 3.428551072920194e+00	 1.000000229031956e+01
0	 5.285716041281409e+00	 3.571411210233102e+00	 1.000000229027241e+01
0	 5.285716041281407e+00	 3.714271180879289e+00	 1.000000229023381e+01
0	 5.285716041281409e+00	 3.857130951525211e+00	 1.000000229020380e+01
0	 5.285716041281408e+00	 3.999990488837321e+00	 1.000000229018236e+01
0	 5.285716041281407e+00	 4.142849759482074e+00	 1.000000229016950e+01
0	 5.285716041281409e+00	 4.285708730125927e+00	 1.000000229016521e+01
0	 5.428574228589336e+00	 2.857109523672222e+00	 1.000000208866915e+01
0	 5.428574228589336e+00	 2.999969994316576e+00	 1.000000208858769e+01
0	 5.428574228589334e+00	 3.142830431628385e+00	 1.000000208851480e+01
0	 5.428574228589334e+00	 3.285690802274106e+00	 1.000000208845049e+01
0	 5.428574228589336e+00	 3.428551072920194e+00	 1.000000208839474e+01
0	 5.428574228589334e+00	 3.571411210233102e+00	 1.000000208834759e+01
0	 5.428574228589335e+00	 3.714271180879290e+00	 1.000000208830900e+01
0	 5.428574228589334e+00	 3.857130951525209e+00	 1.000000208827898e+01
0	 5.428574228589335e+00	 3.999990488837320e+00	 1.000000208825755e+01
0	 5.428574228589334e+00	 4.142849759482074e+00	 1.000000208824468e+01
0	 5.428574228589334e+00	 4.285708730125926e+00	 1.000000208824039e+01
0	 5.571432615897929e+00	 2.857109523672223e+00	 1.000000180597520e+01
0	 5.571432615897927e+00	 2.999969994316576e+00	 1.000000180589373e+01
0	 5.571432615897928e+00	 3.142830431628385e+00	 1.000000180582084e+01
0	 5.571432615897929e+00	 3.285690802274106e+00	 1.000000180575653e+01
0	 5.571432615897929e+00	 3.428551072920193e+00	 1.000000180570079e+01
0	 5.571432615897928e+00	 3.571411210233103e+00	 1.000000180565363e+01
0	 5.571432615897928e+00	 3.714271180879289e+00	 1.000000180561504e+01
0	 5.571432615897928e+00	 3.857130951525211e+00	 1.000000180558503e+01
0	 5.571432615897930e+00	 3.999990488837320e+00	 1.000000180556358e+01
0	 5.571432615897927e+00	 4.142849759482075e+00	 1.000000180555073e+01
0	 5.571432615897930e+00	 4.285708730125927e+00	 1.000000180554644e+01
0	 5.714291269874074e+00	 2.857109523672222e+00	 1.000000144251289e+01
0	 5.714291269874075e+00	 2.999969994316577e+00	 1.000000144243143e+01
0	 5.714291269874075e+00	 3.142830431628385e+00	 1.000000144235854e+01
0	 5.714291269874075e+00	 3.285690802274106e+00	 1.000000144229423e+01
0	 5.714291269874073e+00	 3.428551072920192e+00	 1.000000144223848e+01
0	 5.714291269874074e+00	 3.571411210233103e+00	 1.000000144219133e+01
0	 5.714291269874074e+00	 3.714271180879289e+00	 1.000000144215274e+01
0	 5.714291269874074e+00	 3.857130951525209e+00	 1.000000144212272e+01
0	 5.714291269874074e+00	 3.999990488837320e+00	 1.000000144210128e+01
0	 5.714291269874074e+00	 4.142849759482075e+00	 1.000000144208842e+01
0	 5.714291269874074e+00	 4.285708730125924e+00	 1.000000144208413e+01
0	 4.285708730125926e+00	 4.285708730125926e+00	 1.000000144208413e+01
0	 4.285708730125926e+00	 4.428567384102075e+00	 1.000000144208413e+01
0	 4.285708730125926e+00	 4.571425771410667e+00	 1.000000144208413e+01
0	 4.285708730125926e+00	 4.714283958718593e+00	 1.000000144208413e+01
0	 4.285708730125926e+00	 4.857142012692742e+00	 1.000000144208413e+01
0	 4.285708730125926e+00	 5.000000000000001e+00	 1.000000144208413e+01
0	 4.285708730125926e+00	 5.142857987307262e+00	 1.000000144208414e+01
0	 4.285708730125926e+00	 5.285716041281411e+00	 1.000000144208413e+01
0	 4.285708730125925e+00	 5.428574228589334e+00	 1.000000144208413e+01
0	 4.285708730125926e+00	 5.571432615897929e+00	 1.000000144208414e+01
0	 4.285708730125925e+00	 5.714291269874074e+00	 1.000000144208414e+01
0	 4.428567384102075e+00	 4.285708730125926e+00	 1.000000180554644e+01
0	 4.428567384102076e+00	 4.428567384102075e+00	 1.000000180554643e+01
0	 4.428567384102074e+00	 4.571425771410668e+00	 1.000000180554643e+01
0	 4.428567384102077e+00	 4.714283958718594e+00	 1.000000180554643e+01
0	 4.428567384102074e+00	 4.857142012692742e+00	 1.000000180554643e+01
0	 4.428567384102075e+00	 5.000000000000002e+00	 1.000000180554644e+01
0	 4.428567384102073e+00	 5.142857987307260e+00	 1.000000180554644e+01
0	 4.428567384102075e+00	 5.285716041281407e+00	 1.000000180554644e+01
0	 4.428567384102074e+00	 5.428574228589333e+00	 1.000000180554644e+01
0	 4.428567384102076e+00	 5.571432615897928e+00	 1.000000180554643e+01
0	 4.428567384102075e+00	 5.714291269874074e+00	 1.000000180554644e+01
0	 4.571425771410667e+00	 4.285708730125927e+00	 1.000000208824039e+01
0	 4.571425771410668e+00	 4.428567384102075e+00	 1.000000208824039e+01
0	 4.571425771410667e+00	 4.571425771410667e+00	 1.000000208824039e+01
0	 4.571425771410666e+00	 4.714283958718593e+00	 1.000000208824039e+01
0	 4.571425771410668e+00	 4.857142012692742e+00	 1.000000208824039e+01
0	 4.571425771410667e+00	 5.000000000000000e+00	 1.000000208824039e+01
0	 4.571425771410667e+00	 5.142857987307259e+00	 1.000000208824039e+01
0	 4.571425771410667e+00	 5.285716041281408e+00	 1.000000208824039e+01
0	 4.571425771410667e+00	 5.428574228589335e+00	 1.000000208824040e+01
0	 4.571425771410667e+00	 5.571432615897928e+00	 1.000000208824039e+01
0	 4.571425771410667e+00	 5.714291269874074e+00	 1.000000208824039e+01
0	 4.714283958718594e+00	 4.285708730125926e+00	 1.000000229016521e+01
0	 4.714283958718594e+00	 4.428567384102076e+00	 1.000000229016521e+01
0	 4.714283958718593e+00	 4.571425771410667e+00	 1.000000229016521e+01
0	 4.714283958718593e+00	 4.714283958718592e+00	 1.000000229016522e+01
0	 4.714283958718593e+00	 4.857142012692741e+00	 1.000000229016521e+01
0	 4.714283958718593e+00	 5.000000000000000e+00	 1.000000229016521e+01
0	 4.714283958718594e+00	 5.142857987307262e+00	 1.000000229016521e+01
0	 4.714283958718593e+00	 5.285716041281408e+00	 1.000000229016521e+01
0	 4.714283958718595e+00	 5.428574228589335e+00	 1.000000229016521e+01
0	 4.714283958718593e+00	 5.571432615897927e+00	 1.000000229016522e+01
0	 4.714283958718594e+00	 5.714291269874074e+00	 1.000000229016522e+01
0	 4.857142012692742e+00	 4.285708730125926e+00	 1.000000241132033e+01
0	 4.857142012692741e+00	 4.428567384102073e+00	 1.000000241132033e+01
0	 4.857142012692743e+00	 4.571425771410669e+00	 1.000000241132033e+01
0	 4.857142012692741e+00	 4.714283958718593e+00	 1.000000241132033e+01
0	 4.857142012692742e+00	 4.857142012692743e+00	 1.000000241132033e+01
0	 4.857142012692742e+00	 5.000000000000001e+00	 1.000000241132032e+01
0	 4.857142012692742e+00	 5.142857987307261e+00	 1.000000241132033e+01
0	 4.857142012692740e+00	 5.285716041281407e+00	 1.000000241132033e+01
0	 4.857142012692741e+00	 5.428574228589335e+00	 1.000000241132033e+01
0	 4.857142012692740e+00	 5.571432615897928e+00	 1.000000241132033e+01
0	 4.857142012692742e+00	 5.714291269874074e+00	 1.000000241132033e+01
0	 5.000000000000001e+00	 4.285708730125926e+00	 1.000000245170540e+01
0	 5.000000000000001e+00	 4.428567384102074e+00	 1.000000245170541e+01
0	 5.000000000000000e+00	 4.571425771410667e+00	 1.000000245170541e+01
0	 5.000000000000001e+00	 4.714283958718593e+00	 1.000000245170541e+01
0	 5.000000000000001e+00	 4.857142012692741e+00	 1.000000245170540e+01
0	 5.000000000000001e+00	 5.000000000000001e+00	 1.000000245170540e+01
0	 5.000000000000001e+00	 5.142857987307262e+00	 1.000000245170540e+01
0	 5.000000000000002e+00	 5.285716041281410e+00	 1.000000245170541e+01
0	 5.000000000000001e+00	 5.428574228589334e+00	 1.000000245170541e+01
0	 5.000000000000001e+00	 5.571432615897929e+00	 1.000000245170541e+01
0	 5.000000000000001e+00	 5.714291269874074e+00	 1.000000245170541e+01
0	 5.142857987307261e+00	 4.285708730125926e+00	 1.000000241132033e+01
0	 5.142857987307262e+00	 4.428567384102074e+00	 1.000000241132033e+01
0	 5.142857987307259e+00	 4.571425771410667e+00	 1.000000241132033e+01
0	 5.142857987307261e+00	 4.714283958718593e+00	 1.000000241132033e+01
0	 5.142857987307261e+00	 4.857142012692742e+00	 1.000000241132033e+01
0	 5.142857987307261e+00	 5.000000000000000e+00	 1.000000241132033e+01
0	 5.142857987307260e+00	 5.142857987307262e+00	 1.000000241132033e+01
0	 5.142857987307261e+00	 5.285716041281408e+00	 1.000000241132033e+01
0	 5.142857987307260e+00	 5.428574228589334e+00	 1.000000241132033e+01
0	 5.142857987307259e+00	 5.571432615897927e+00	 1.000000241132033e+01
0	 5.142857987307261e+00	 5.714291269874074e+00	 1.000000241132033e+01
0	 5.285716041281409e+00	 4.285708730125927e+00	 1.000000229016521e+01
0	 5.285716041281409e+00	 4.428567384102076e+00	 1.000000229016521e+01
0	 5.285716041281408e+00	 4.571425771410667e+00	 1.000000229016521e+01
0	 5.285716041281408e+00	 4.714283958718593e+00	 1.000000229016521e+01
0	 5.285716041281410e+00	 4.857142012692742e+00	 1.000000229016521e+01
0	 5.285716041281409e+00	 5.000000000000002e+00	 1.000000229016521e+01
0	 5.285716041281409e+00	 5.142857987307262e+00	 1.000000229016521e+01
0	 5.285716041281409e+00	 5.285716041281410e+00	 1.000000229016521e+01
0	 5.285716041281407e+00	 5.428574228589334e+00	 1.000000229016521e+01
0	 5.285716041281408e+00	 5.571432615897927e+00	 1.000000229016522e+01
0	 5.285716041281408e+00	 5.714291269874074e+00	 1.000000229016522e+01
0	 5.428574228589334e+00	 4.285708730125926e+00	 1.000000208824039e+01
0	 5.428574228589336e+00	 4.428567384102075e+00	 1.000000208824040e+01
0	 5.428574228589333e+00	 4.571425771410667e+00	 1.000000208824039e+01
0	 5.428574228589334e+00	 4.714283958718593e+00	 1.000000208824039e+01
0	 5.428574228589336e+00	 4.857142012692742e+00	 1.000000208824039e+01
0	 5.428574228589336e+00	 5.000000000000002e+00	 1.000000208824039e+01
0	 5.428574228589335e+00	 5.142857987307261e+00	 1.000000208824039e+01
0	 5.428574228589335e+00	 5.285716041281408e+00	 1.000000208824039e+01
0	 5.428574228589336e+00	 5.428574228589335e+00	 1.000000208824040e+01
0	 5.428574228589335e+00	 5.571432615897928e+00	 1.000000208824039e+01
0	 5.428574228589334e+00	 5.714291269874074e+00	 1.000000208824039e+01
0	 5.571432615897930e+00	 4.285708730125927e+00	 1.000000180554644e+01
0	 5.571432615897929e+00	 4.428567384102076e+00	 1.000000180554644e+01
0	 5.571432615897928e+00	 4.571425771410667e+00	 1.000000180554644e+01
0	 5.571432615897928e+00	 4.714283958718594e+00	 1.000000180554644e+01
0	 5.571432615897928e+00	 4.857142012692741e+00	 1.000000180554643e+01
0	 5.571432615897928e+00	 5.000000000000001e+00	 1.000000180554643e+01
0	 5.571432615897926e+00	 5.142857987307259e+00	 1.000000180554644e+01
0	 5.571432615897927e+00	 5.285716041281408e+00	 1.000000180554644e+01
0	 5.571432615897929e+00	 5.428574228589335e+00	 1.000000180554644e+01
0	 5.571432615897929e+00	 5.571432615897928e+00	 1.000000180554644e+01
0	 5.571432615897928e+00	 5.714291269874074e+00	 1.000000180554643e+01
0	 5.714291269874074e+00	 4.285708730125924e+00	 1.000000144208413e+01
0	 5.714291269874074e+00	 4.428567384102074e+00	 1.000000144208413e+01
0	 5.714291269874074e+00	 4.571425771410667e+00	 1.000000144208413e+01
0	 5.714291269874073e+00	 4.714283958718594e+00	 1.000000144208413e+01
0	 5.714291269874074e+00	 4.857142012692742e+00	 1.000000144208413e+01
0	 5.714291269874074e+00	 5.000000000000001e+00	 1.000000144208413e+01
0	 5.714291269874076e+00	 5.142857987307261e+00	 1.000000144208414e+01
0	 5.714291269874075e+00	 5.285716041281409e+00	 1.000000144208413e+01
0	 5.714291269874074e+00	 5.428574228589336e+00	 1.000000144208414e+01
0	 5.714291269874074e+00	 5.571432615897928e+00	 1.000000144208414e+01
0	 5.714291269874074e+00	 5.714291269874073e+00	 1.000000144208414e+01
0	 4.285708730125925e+00	 5.714291269874074e+00	 1.000000144208414e+01
0	 4.285708730125926e+00	 5.857150240517928e+00	 1.000000144208843e+01
0	 4.285708730125926e+00	 6.000009511162682e+00	 1.000000144210129e+01
0	 4.285708730125926e+00	 6.142869048474793e+00	 1.000000144212273e+01
0	 4.285708730125926e+00	 6.285728819120710e+00	 1.000000144215274e+01
0	 4.285708730125925e+00	 6.428588789766899e+00	 1.000000144219133e+01
0	 4.285708730125926e+00	 6.571448927079809e+00	 1.000000144223849e+01
0	 4.285708730125926e+00	 6.714309197725895e+00	 1.000000144229423e+01
0	 4.285708730125926e+00	 6.857169568371619e+00	 1.000000144235855e+01
0	 4.285708730125926e+00	 7.000030005683427e+00	 1.000000144243144e+01
0	 4.285708730125926e+00	 7.142890476327779e+00	 1.000000144251290e+01
0	 4.428567384102075e+00	 5.714291269874074e+00	 1.000000180554644e+01
0	 4.428567384102074e+00	 5.857150240517929e+00	 1.000000180555073e+01
0	 4.428567384102074e+00	 6.000009511162681e+00	 1.000000180556359e+01
0	 4.428567384102074e+00	 6.142869048474792e+00	 1.000000180558503e+01
0	 4.428567384102074e+00	 6.285728819120711e+00	 1.000000180561504e+01
0	 4.428567384102075e+00	 6.428588789766899e+00	 1.000000180565363e+01
0	 4.428567384102075e+00	 6.571448927079810e+00	 1.000000180570079e+01
0	 4.428567384102073e+00	 6.714309197725895e+00	 1.000000180575653e+01
0	 4.428567384102073e+00	 6.857169568371615e+00	 1.000000180582084e+01
0	 4.428567384102074e+00	 7.000030005683424e+00	 1.000000180589373e+01
0	 4.428567384102074e+00	 7.142890476327777e+00	 1.000000180597520e+01
0	 4.571425771410667e+00	 5.714291269874074e+00	 1.000000208824039e+01
0	 4.571425771410666e+00	 5.857150240517928e+00	 1.000000208824469e+01
0	 4.571425771410667e+00	 6.000009511162683e+00	 1.000000208825755e+01
0	 4.571425771410667e+00	 6.142869048474791e+00	 1.000000208827898e+01
0	 4.571425771410667e+00	 6.285728819120711e+00	 1.000000208830900e+01
0	 4.571425771410667e+00	 6.428588789766899e+00	 1.000000208834759e+01
0	 4.571425771410667e+00	 6.571448927079809e+00	 1.000000208839475e+01
0	 4.571425771410668e+00	 6.714309197725896e+00	 1.000000208845048e+01
0	 4.571425771410667e+00	 6.857169568371616e+00	 1.000000208851480e+01
0	 4.571425771410667e+00	 7.000030005683426e+00	 1.000000208858770e+01
0	 4.571425771410667e+00	 7.142890476327776e+00	 1.000000208866916e+01
0	 4.714283958718594e+00	 5.714291269874074e+00	 1.000000229016522e+01
0	 4.714283958718593e+00	 5.857150240517928e+00	 1.000000229016950e+01
0	 4.714283958718593e+00	 6.000009511162683e+00	 1.000000229018237e+01
0	 4.714283958718593e+00	 6.142869048474791e+00	 1.000000229020380e+01
0	 4.714283958718595e+00	 6.285728819120714e+00	 1.000000229023382e+01
0	 4.714283958718593e+00	 6.428588789766899e+00	 1.000000229027240e+01
0	 4.714283958718593e+00	 6.571448927079810e+00	 1.000000229031956e+01
0	 4.714283958718593e+00	 6.714309197725897e+00	 1.000000229037531e+01
0	 4.714283958718592e+00	 6.857169568371615e+00	 1.000000229043963e+01
0	 4.714283958718592e+00	 7.000030005683425e+00	 1.000000229051251e+01
0	 4.714283958718593e+00	 7.142890476327778e+00	 1.000000229059398e+01
0	 4.857142012692742e+00	 5.714291269874074e+00	 1.000000241132033e+01
0	 4.857142012692742e+00	 5.857150240517928e+00	 1.000000241132462e+01
0	 4.857142012692741e+00	 6.000009511162681e+00	 1.000000241133748e+01
0	 4.857142012692742e+00	 6.142869048474791e+00	 1.000000241135892e+01
0	 4.857142012692742e+00	 6.285728819120712e+00	 1.000000241138893e+01
0	 4.857142012692741e+00	 6.428588789766898e+00	 1.000000241142753e+01
0	 4.857142012692742e+00	 6.571448927079811e+00	 1.000000241147469e+01
0	 4.857142012692742e+00	 6.714309197725896e+00	 1.000000241153043e+01
0	 4.857142012692742e+00	 6.857169568371615e+00	 1.000000241159475e+01
0	 4.857142012692742e+00	 7.000030005683425e+00	 1.000000241166763e+01
0	 4.857142012692741e+00	 7.142890476327777e+00	 1.000000241174910e+01
0	 5.000000000000001e+00	 5.714291269874074e+00	 1.000000245170541e+01
0	 5.000000000000001e+00	 5.857150240517929e+00	 1.000000245170969e+01
0	 5.000000000000000e+00	 6.000009511162681e+00	 1.000000245172257e+01
0	 5.000000000000003e+00	 6.142869048474791e+00	 1.000000245174401e+01
0	 5.000000000000001e+00	 6.285728819120711e+00	 1.000000245177401e+01
0	 5.000000000000001e+00	 6.428588789766900e+00	 1.000000245181260e+01
0	 5.000000000000002e+00	 6.571448927079808e+00	 1.000000245185977e+01
0	 5.000000000000001e+00	 6.714309197725897e+00	 1.000000245191550e+01
0	 5.000000000000002e+00	 6.857169568371615e+00	 1.000000245197982e+01
0	 5.000000000000000e+00	 7.000030005683426e+00	 1.000000245205270e+01
0	 5.000000000000001e+00	 7.142890476327777e+00	 1.000000245213417e+01
0	 5.142857987307261e+00	 5.714291269874074e+00	 1.000000241132033e+01
0	 5.142857987307261e+00	 5.857150240517928e+00	 1.000000241132462e+01
0	 5.142857987307262e+00	 6.000009511162681e+00	 1.000000241133749e+01
0	 5.142857987307261e+00	 6.142869048474791e+00	 1.000000241135893e+01
0	 5.142857987307260e+00	 6.285728819120712e+00	 1.000000241138894e+01
0	 5.142857987307262e+00	 6.428588789766899e+00	 1.000000241142753e+01
0	 5.142857987307260e+00	 6.571448927079808e+00	 1.000000241147468e+01
0	 5.142857987307259e+00	 6.714309197725895e+00	 1.000000241153043e+01
0	 5.142857987307260e+00	 6.857169568371616e+00	 1.000000241159474e+01
0	 5.142857987307261e+00	 7.000030005683426e+00	 1.000000241166763e+01
0	 5.142857987307262e+00	 7.142890476327779e+00	 1.000000241174910e+01
0	 5.285716041281408e+00	 5.714291269874074e+00	 1.000000229016522e+01
0	 5.285716041281410e+00	 5.857150240517930e+00	 1.000000229016950e+01
0	 5.285716041281409e+00	 6.000009511162682e+00	 1.000000229018236e+01
0	 5.285716041281407e+00	 6.142869048474790e+00	 1.000000229020380e+01
0	 5.285716041281408e+00	 6.285728819120711e+00	 1.000000229023382e+01
0	 5.285716041281408e+00	 6.428588789766899e+00	 1.000000229027241e+01
0	 5.285716041281410e+00	 6.571448927079810e+00	 1.000000229031956e+01
0	 5.285716041281408e+00	 6.714309197725895e+00	 1.000000229037531e+01
0	 5.285716041281407e+00	 6.857169568371615e+00	 1.000000229043962e+01
0	 5.285716041281408e+00	 7.000030005683427e+00	 1.000000229051251e+01
0	 5.285716041281408e+00	 7.142890476327778e+00	 1.000000229059398e+01
0	 5.428574228589334e+00	 5.714291269874074e+00	 1.000000208824039e+01
0	 5.428574228589335e+00	 5.857150240517927e+00	 1.000000208824468e+01
0	 5.428574228589334e+00	 6.000009511162680e+00	 1.000000208825754e+01
0	 5.428574228589333e+00	 6.142869048474791e+00	 1.000000208827899e+01
0	 5.428574228589336e+00	 6.285728819120713e+00	 1.000000208830900e+01
0	 5.428574228589334e+00	 6.428588789766899e+00	 1.000000208834759e+01
0	 5.428574228589334e+00	 6.571448927079808e+00	 1.000000208839475e+01
0	 5.428574228589335e+00	 6.714309197725897e+00	 1.000000208845049e+01
0	 5.428574228589335e+00	 6.857169568371616e+00	 1.000000208851480e+01
0	 5.428574228589335e+00	 7.000030005683426e+00	 1.000000208858769e+01
0	 5.428574228589335e+00	 7.142890476327777e+00	 1.000000208866915e+01
0	 5.571432615897928e+00	 5.714291269874074e+00	 1.000000180554643e+01
0	 5.571432615897927e+00	 5.857150240517928e+00	 1.000000180555073e+01
0	 5.571432615897929e+00	 6.000009511162682e+00	 1.000000180556359e+01
0	 5.571432615897928e+00	 6.142869048474792e+00	 1.000000180558503e+01
0	 5.571432615897928e+00	 6.285728819120711e+00	 1.000000180561504e+01
0	 5.571432615897927e+00	 6.428588789766900e+00	 1.000000180565363e+01
0	 5.571432615897927e+00	 6.571448927079808e+00	 1.000000180570079e+01
0	 5.571432615897929e+00	 6.714309197725896e+00	 1.000000180575653e+01
0	 5.571432615897928e+00	 6.857169568371617e+00	 1.000000180582084e+01
0	 5.571432615897928e+00	 7.000030005683427e+00	 1.000000180589373e+01
0	 5.571432615897927e+00	 7.142890476327777e+00	 1.000000180597520e+01
0	 5.714291269874074e+00	 5.714291269874073e+00	 1.000000144208414e+01
0	 5.714291269874074e+00	 5.857150240517930e+00	 1.000000144208843e+01
0	 5.714291269874075e+00	 6.000009511162681e+00	 1.000000144210128e+01
0	 5.714291269874075e+00	 6.142869048474792e+00	 1.000000144212273e+01
0	 5.714291269874074e+00	 6.285728819120712e+00	 1.000000144215274e+01
0	 5.714291269874074e+00	 6.428588789766899e+00	 1.000000144219133e+01
0	 5.714291269874074e+00	 6.571448927079808e+00	 1.000000144223849e+01
0	 5.714291269874073e+00	 6.714309197725894e+00	 1.000000144229423e+01
0	 5.714291269874074e+00	 6.857169568371616e+00	 1.000000144235855e+01
0	 5.714291269874074e+00	 7.000030005683425e+00	 1.000000144243143e+01
0	 5.714291269874075e+00	 7.142890476327779e+00	 1.000000144251290e+01
0	 4.285708730125926e+00	 7.142890476327779e+00	 1.000000144251290e+01
0	 4.285708730125926e+00	 7.285740955271015e+00	 1.000000146614721e+01
0	 4.285708730125926e+00	 7.428591450879009e+00	 1.000000153687864e+01
0	 4.285708730125926e+00	 7.571441979817511e+00	 1.000000165470714e+01
0	 4.285708730125925e+00	 7.714292558752280e+00	 1.000000181963262e+01
0	 4.285708730125926e+00	 7.857143204349074e+00	 1.000000203165496e+01
0	 4.285708730125926e+00	 7.999993933273643e+00	 1.000000229077403e+01
0	 4.285708730125926e+00	 8.142844762191748e+00	 1.000000259698965e+01
0	 4.285708730125926e+00	 8.285695707769140e+00	 1.000000295030157e+01
0	 4.285708730125926e+00	 8.428546786671578e+00	 1.000000335070960e+01
0	 4.285708730125926e+00	 8.571398015564817e+00	 1.000000379821341e+01
0	 4.428567384102074e+00	 7.142890476327777e+00	 1.000000180597520e+01
0	 4.428567384102074e+00	 7.285740955271013e+00	 1.000000182960951e+01
0	 4.428567384102076e+00	 7.428591450879007e+00	 1.000000190034094e+01
0	 4.428567384102074e+00	 7.571441979817509e+00	 1.000000201816944e+01
0	 4.428567384102074e+00	 7.714292558752280e+00	 1.000000218309491e+01
0	 4.428567384102076e+00	 7.857143204349076e+00	 1.000000239511727e+01
0	 4.428567384102074e+00	 7.999993933273643e+00	 1.000000265423633e+01
0	 4.428567384102077e+00	 8.142844762191750e+00	 1.000000296045195e+01
0	 4.428567384102073e+00	 8.285695707769138e+00	 1.000000331376388e+01
0	 4.428567384102075e+00	 8.428546786671577e+00	 1.000000371417190e+01
0	 4.428567384102076e+00	 8.571398015564814e+00	 1.000000416167572e+01
0	 4.571425771410667e+00	 7.142890476327776e+00	 1.000000208866916e+01
0	 4.571425771410667e+00	 7.285740955271013e+00	 1.000000211230347e+01
0	 4.571425771410668e+00	 7.428591450879006e+00	 1.000000218303489e+01
0	 4.571425771410667e+00	 7.571441979817511e+00	 1.000000230086339e+01
0	 4.571425771410667e+00	 7.714292558752282e+00	 1.000000246578887e+01
0	 4.571425771410668e+00	 7.857143204349073e+00	 1.000000267781123e+01
0	 4.571425771410667e+00	 7.999993933273644e+00	 1.000000293693029e+01
0	 4.571425771410667e+00	 8.142844762191746e+00	 1.000000324314591e+01
0	 4.571425771410667e+00	 8.285695707769142e+00	 1.000000359645784e+01
0	 4.571425771410667e+00	 8.428546786671575e+00	 1.000000399686586e+01
0	 4.571425771410667e+00	 8.571398015564814e+00	 1.000000444436967e+01
0	 4.714283958718593e+00	 7.142890476327778e+00	 1.000000229059398e+01
0	 4.714283958718594e+00	 7.285740955271014e+00	 1.000000231422829e+01
0	 4.714283958718594e+00	 7.428591450879009e+00	 1.000000238495972e+01
0	 4.714283958718593e+00	 7.571441979817510e+00	 1.000000250278821e+01
0	 4.714283958718593e+00	 7.714292558752280e+00	 1.000000266771369e+01
0	 4.714283958718594e+00	 7.857143204349073e+00	 1.000000287973605e+01
0	 4.714283958718594e+00	 7.999993933273646e+00	 1.000000313885512e+01
0	 4.714283958718595e+00	 8.142844762191750e+00	 1.000000344507073e+01
0	 4.714283958718594e+00	 8.285695707769140e+00	 1.000000379838267e+01
0	 4.714283958718593e+00	 8.428546786671575e+00	 1.000000419879067e+01
0	 4.714283958718593e+00	 8.571398015564814e+00	 1.000000464629449e+01
0	 4.857142012692741e+00	 7.142890476327777e+00	 1.000000241174910e+01
0	 4.857142012692742e+00	 7.285740955271014e+00	 1.000000243538340e+01
0	 4.857142012692741e+00	 7.428591450879007e+00	 1.000000250611483e+01
0	 4.857142012692742e+00	 7.571441979817511e+00	 1.000000262394332e+01
0	 4.857142012692742e+00	 7.714292558752279e+00	 1.000000278886881e+01
0	 4.857142012692741e+00	 7.857143204349073e+00	 1.000000300089117e+01
0	 4.857142012692742e+00	 7.999993933273644e+00	 1.000000326001024e+01
0	 4.857142012692740e+00	 8.142844762191748e+00	 1.000000356622584e+01
0	 4.857142012692742e+00	 8.285695707769142e+00	 1.000000391953778e+01
0	 4.857142012692743e+00	 8.428546786671580e+00	 1.000000431994580e+01
0	 4.857142012692742e+00	 8.571398015564814e+00	 1.000000476744961e+01
0	 5.000000000000001e+00	 7.142890476327777e+00	 1.000000245213417e+01
0	 5.000000000000002e+00	 7.285740955271015e+00	 1.000000247576848e+01
0	 5.000000000000002e+00	 7.428591450879007e+00	 1.000000254649991e+01
0	 5.000000000000002e+00	 7.571441979817511e+00	 1.000000266432841e+01
0	 5.000000000000001e+00	 7.714292558752278e+00	 1.000000282925389e+01
0	 5.000000000000001e+00	 7.857143204349072e+00	 1.000000304127625e+01
0	 5.000000000000002e+00	 7.999993933273644e+00	 1.000000330039531e+01
0	 5.000000000000002e+00	 8.142844762191748e+00	 1.000000360661092e+01
0	 5.000000000000002e+00	 8.285695707769140e+00	 1.000000395992286e+01
0	 5.000000000000002e+00	 8.428546786671577e+00	 1.000000436033088e+01
0	 5.000000000000001e+00	 8.571398015564816e+00	 1.000000480783468e+01
0	 5.142857987307262e+00	 7.142890476327779e+00	 1.000000241174909e+01
0	 5.142857987307260e+00	 7.285740955271015e+00	 1.000000243538341e+01
0	 5.142857987307259e+00	 7.428591450879007e+00	 1.000000250611483e+01
0	 5.142857987307263e+00	 7.571441979817512e+00	 1.000000262394332e+01
0	 5.142857987307263e+00	 7.714292558752282e+00	 1.000000278886881e+01
0	 5.142857987307262e+00	 7.857143204349072e+00	 1.000000300089116e+01
0	 5.142857987307263e+00	 7.999993933273645e+00	 1.000000326001023e+01
0	 5.142857987307259e+00	 8.142844762191746e+00	 1.000000356622584e+01
0	 5.142857987307263e+00	 8.285695707769143e+00	 1.000000391953779e+01
0	 5.142857987307262e+00	 8.428546786671577e+00	 1.000000431994579e+01
0	 5.142857987307261e+00	 8.571398015564816e+00	 1.000000476744961e+01
0	 5.285716041281408e+00	 7.142890476327778e+00	 1.000000229059398e+01
0	 5.285716041281409e+00	 7.285740955271016e+00	 1.000000231422829e+01
0	 5.285716041281409e+00	 7.428591450879009e+00	 1.000000238495972e+01
0	 5.285716041281408e+00	 7.571441979817509e+00	 1.000000250278821e+01
0	 5.285716041281408e+00	 7.714292558752281e+00	 1.000000266771370e+01
0	 5.285716041281409e+00	 7.857143204349073e+00	 1.000000287973605e+01
0	 5.285716041281407e+00	 7.999993933273641e+00	 1.000000313885512e+01
0	 5.285716041281409e+00	 8.142844762191746e+00	 1.000000344507072e+01
0	 5.285716041281407e+00	 8.285695707769140e+00	 1.000000379838266e+01
0	 5.285716041281408e+00	 8.428546786671578e+00	 1.000000419879068e+01
0	 5.285716041281408e+00	 8.571398015564816e+00	 1.000000464629449e+01
0	 5.428574228589335e+00	 7.142890476327777e+00	 1.000000208866915e+01
0	 5.428574228589336e+00	 7.285740955271014e+00	 1.000000211230347e+01
0	 5.428574228589335e+00	 7.428591450879006e+00	 1.000000218303489e+01
0	 5.428574228589335e+00	 7.571441979817511e+00	 1.000000230086338e+01
0	 5.428574228589334e+00	 7.714292558752281e+00	 1.000000246578887e+01
0	 5.428574228589334e+00	 7.857143204349074e+00	 1.000000267781122e+01
0	 5.428574228589335e+00	 7.999993933273645e+00	 1.000000293693030e+01
0	 5.428574228589335e+00	 8.142844762191750e+00	 1.000000324314590e+01
0	 5.428574228589336e+00	 8.285695707769143e+00	 1.000000359645784e+01
0	 5.428574228589336e+00	 8.428546786671577e+00	 1.000000399686586e+01
0	 5.428574228589335e+00	 8.571398015564814e+00	 1.000000444436966e+01
0	 5.571432615897927e+00	 7.142890476327777e+00	 1.000000180597520e+01
0	 5.571432615897928e+00	 7.285740955271014e+00	 1.000000182960951e+01
0	 5.571432615897928e+00	 7.428591450879005e+00	 1.000000190034094e+01
0	 5.571432615897929e+00	 7.571441979817512e+00	 1.000000201816943e+01
0	 5.571432615897927e+00	 7.714292558752282e+00	 1.000000218309492e+01
0	 5.571432615897927e+00	 7.857143204349073e+00	 1.000000239511727e+01
0	 5.571432615897929e+00	 7.999993933273644e+00	 1.000000265423633e+01
0	 5.571432615897929e+00	 8.142844762191748e+00	 1.000000296045195e+01
0	 5.571432615897928e+00	 8.285695707769140e+00	 1.000000331376388e+01
0	 5.571432615897930e+00	 8.428546786671580e+00	 1.000000371417190e+01
0	 5.571432615897927e+00	 8.571398015564814e+00	 1.000000416167572e+01
0	 5.714291269874075e+00	 7.142890476327779e+00	 1.000000144251290e+01
0	 5.714291269874074e+00	 7.285740955271013e+00	 1.000000146614721e+01
0	 5.714291269874074e+00	 7.428591450879007e+00	 1.000000153687864e+01
0	 5.714291269874074e+00	 7.571441979817511e+00	 1.000000165470714e+01
0	 5.714291269874074e+00	 7.714292558752280e+00	 1.000000181963262e+01
0	 5.714291269874073e+00	 7.857143204349073e+00	 1.000000203165497e+01
0	 5.714291269874073e+00	 7.999993933273643e+00	 1.000000229077404e+01
0	 5.714291269874075e+00	 8.142844762191750e+00	 1.000000259698964e+01
0	 5.714291269874074e+00	 8.285695707769142e+00	 1.000000295030159e+01
0	 5.714291269874074e+00	 8.428546786671575e+00	 1.000000335070960e+01
0	 5.714291269874074e+00	 8.571398015564814e+00	 1.000000379821341e+01
0	 4.285708730125926e+00	 8.571398015564817e+00	 1.000000379821340e+01
0	 4.285708730125926e+00	 8.714259388995401e+00	 1.000000410440068e+01
0	 4.285708730125926e+00	 8.857120812436385e+00	 1.000000408079405e+01
0	 4.285708730125925e+00	 8.999982169218280e+00	 1.000000372739339e+01
0	 4.285708730125926e+00	 9.142843342671600e+00	 1.000000304419698e+01
0	 4.285708730125925e+00	 9.285704216126851e+00	 1.000000203120147e+01
0	 4.285708730125926e+00	 9.428564672914549e+00	 1.000000068840191e+01
0	 4.285708730125926e+00	 9.571424596365203e+00	 9.999999015791717e+00
0	 4.285708730125926e+00	 9.714283869809318e+00	 9.999997013362682e+00
0	 4.285708730125926e+00	 9.857142376577416e+00	 9.999994681104987e+00
0	 4.285708730125926e+00	 1.000000000000000e+01	 9.999992019007198e+00
0	 4.428567384102076e+00	 8.571398015564814e+00	 1.000000416167572e+01
0	 4.428567384102074e+00	 8.714259388995400e+00	 1.000000446786298e+01
0	 4.428567384102074e+00	 8.857120812436383e+00	 1.000000444425634e+01
0	 4.428567384102076e+00	 8.999982169218281e+00	 1.000000409085569e+01
0	 4.428567384102075e+00	 9.142843342671599e+00	 1.000000340765927e+01
0	 4.428567384102073e+00	 9.285704216126849e+00	 1.000000239466378e+01
0	 4.428567384102075e+00	 9.428564672914552e+00	 1.000000105186423e+01
0	 4.428567384102074e+00	 9.571424596365201e+00	 9.999999379254014e+00
0	 4.428567384102073e+00	 9.714283869809320e+00	 9.999997376824970e+00
0	 4.428567384102074e+00	 9.857142376577414e+00	 9.999995044567289e+00
0	 4.428567384102075e+00	 1.000000000000000e+01	 9.999992382469514e+00
0	 4.571425771410667e+00	 8.571398015564814e+00	 1.000000444436967e+01
0	 4.571425771410669e+00	 8.714259388995403e+00	 1.000000475055692e+01
0	 4.571425771410667e+00	 8.857120812436385e+00	 1.000000472695029e+01
0	 4.571425771410669e+00	 8.999982169218281e+00	 1.000000437354966e+01
0	 4.571425771410667e+00	 9.142843342671599e+00	 1.000000369035324e+01
0	 4.571425771410667e+00	 9.285704216126852e+00	 1.000000267735775e+01
0	 4.571425771410667e+00	 9.428564672914549e+00	 1.000000133455818e+01
0	 4.571425771410666e+00	 9.571424596365199e+00	 9.999999661947959e+00
0	 4.571425771410667e+00	 9.714283869809323e+00	 9.999997659518931e+00
0	 4.571425771410667e+00	 9.857142376577418e+00	 9.999995327261267e+00
0	 4.571425771410668e+00	 1.000000000000000e+01	 9.999992665163450e+00
0	 4.714283958718593e+00	 8.571398015564814e+00	 1.000000464629449e+01
0	 4.714283958718593e+00	 8.714259388995400e+00	 1.000000495248175e+01
0	 4.714283958718593e+00	 8.857120812436383e+00	 1.000000492887511e+01
0	 4.714283958718593e+00	 8.999982169218281e+00	 1.000000457547448e+01
0	 4.714283958718594e+00	 9.142843342671599e+00	 1.000000389227806e+01
0	 4.714283958718593e+00	 9.285704216126854e+00	 1.000000287928256e+01
0	 4.714283958718593e+00	 9.428564672914550e+00	 1.000000153648300e+01
0	 4.714283958718593e+00	 9.571424596365203e+00	 9.999999863872794e+00
0	 4.714283958718593e+00	 9.714283869809320e+00	 9.999997861443749e+00
0	 4.714283958718593e+00	 9.857142376577418e+00	 9.999995529186059e+00
0	 4.714283958718593e+00	 1.000000000000000e+01	 9.999992867088297e+00
0	 4.857142012692742e+00	 8.571398015564814e+00	 1.000000476744961e+01
0	 4.857142012692742e+00	 8.714259388995400e+00	 1.000000507363688e+01
0	 4.857142012692742e+00	 8.857120812436381e+00	 1.000000505003024e+01
0	 4.857142012692741e+00	 8.999982169218280e+00	 1.000000469662958e+01
0	 4.857142012692742e+00	 9.142843342671602e+00	 1.000000401343318e+01
0	 4.857142012692742e+00	 9.285704216126852e+00	 1.000000300043767e+01
0	 4.857142012692743e+00	 9.428564672914552e+00	 1.000000165763812e+01
0	 4.857142012692742e+00	 9.571424596365203e+00	 9.999999985027921e+00
0	 4.857142012692742e+00	 9.714283869809323e+00	 9.999997982598886e+00
0	 4.857142012692742e+00	 9.857142376577418e+00	 9.999995650341186e+00
0	 4.857142012692742e+00	 1.000000000000000e+01	 9.999992988243402e+00
0	 5.000000000000001e+00	 8.571398015564816e+00	 1.000000480783469e+01
0	 4.999999999999998e+00	 8.714259388995396e+00	 1.000000511402195e+01
0	 5.000000000000002e+00	 8.857120812436385e+00	 1.000000509041532e+01
0	 4.999999999999999e+00	 8.999982169218281e+00	 1.000000473701465e+01
0	 5.000000000000001e+00	 9.142843342671602e+00	 1.000000405381825e+01
0	 5.000000000000001e+00	 9.285704216126854e+00	 1.000000304082275e+01
0	 5.000000000000001e+00	 9.428564672914552e+00	 1.000000169802318e+01
0	 5.000000000000001e+00	 9.571424596365205e+00	 1.000000002541299e+01
0	 5.000000000000001e+00	 9.714283869809320e+00	 9.999998022983966e+00
0	 5.000000000000002e+00	 9.857142376577420e+00	 9.999995690726237e+00
0	 5.000000000000002e+00	 1.000000000000000e+01	 9.999993028628479e+00
0	 5.142857987307261e+00	 8.571398015564816e+00	 1.000000476744961e+01
0	 5.142857987307261e+00	 8.714259388995400e+00	 1.000000507363686e+01
0	 5.142857987307260e+00	 8.857120812436383e+00	 1.000000505003025e+01
0	 5.142857987307260e+00	 8.999982169218280e+00	 1.000000469662958e+01
0	 5.142857987307260e+00	 9.142843342671599e+00	 1.000000401343318e+01
0	 5.142857987307262e+00	 9.285704216126854e+00	 1.000000300043768e+01
0	 5.142857987307260e+00	 9.428564672914549e+00	 1.000000165763811e+01
0	 5.142857987307261e+00	 9.571424596365203e+00	 9.999999985027904e+00
0	 5.142857987307260e+00	 9.714283869809320e+00	 9.999997982598849e+00
0	 5.142857987307260e+00	 9.857142376577416e+00	 9.999995650341205e+00
0	 5.142857987307262e+00	 1.000000000000000e+01	 9.999992988243431e+00
0	 5.285716041281408e+00	 8.571398015564816e+00	 1.000000464629450e+01
0	 5.285716041281408e+00	 8.714259388995400e+00	 1.000000495248176e+01
0	 5.285716041281407e+00	 8.857120812436383e+00	 1.000000492887512e+01
0	 5.285716041281409e+00	 8.999982169218283e+00	 1.000000457547445e+01
0	 5.285716041281410e+00	 9.142843342671597e+00	 1.000000389227806e+01
0	 5.285716041281408e+00	 9.285704216126849e+00	 1.000000287928255e+01
0	 5.285716041281409e+00	 9.428564672914549e+00	 1.000000153648299e+01
0	 5.285716041281408e+00	 9.571424596365201e+00	 9.999999863872787e+00
0	 5.285716041281410e+00	 9.714283869809321e+00	 9.999997861443742e+00
0	 5.285716041281408e+00	 9.857142376577418e+00	 9.999995529186055e+00
0	 5.285716041281409e+00	 1.000000000000000e+01	 9.999992867088272e+00
0	 5.428574228589335e+00	 8.571398015564814e+00	 1.000000444436966e+01
0	 5.428574228589334e+00	 8.714259388995400e+00	 1.000000475055693e+01
0	 5.428574228589335e+00	 8.857120812436387e+00	 1.000000472695030e+01
0	 5.428574228589335e+00	 8.999982169218283e+00	 1.000000437354964e+01
0	 5.428574228589336e+00	 9.142843342671602e+00	 1.000000369035324e+01
0	 5.428574228589333e+00	 9.285704216126852e+00	 1.000000267735774e+01
0	 5.428574228589335e+00	 9.428564672914547e+00	 1.000000133455818e+01
0	 5.428574228589335e+00	 9.571424596365203e+00	 9.999999661947975e+00
0	 5.428574228589336e+00	 9.714283869809323e+00	 9.999997659518947e+00
0	 5.428574228589334e+00	 9.857142376577416e+00	 9.999995327261239e+00
0	 5.428574228589335e+00	 1.000000000000000e+01	 9.999992665163488e+00
0	 5.571432615897927e+00	 8.571398015564814e+00	 1.000000416167572e+01
0	 5.571432615897930e+00	 8.714259388995401e+00	 1.000000446786298e+01
0	 5.571432615897929e+00	 8.857120812436385e+00	 1.000000444425634e+01
0	 5.571432615897928e+00	 8.999982169218281e+00	 1.000000409085570e+01
0	 5.571432615897929e+00	 9.142843342671600e+00	 1.000000340765929e+01
0	 5.571432615897927e+00	 9.285704216126851e+00	 1.000000239466378e+01
0	 5.571432615897928e+00	 9.428564672914549e+00	 1.000000105186422e+01
0	 5.571432615897927e+00	 9.571424596365201e+00	 9.999999379254017e+00
0	 5.571432615897927e+00	 9.714283869809320e+00	 9.999997376824998e+00
0	 5.571432615897928e+00	 9.857142376577416e+00	 9.999995044567262e+00
0	 5.571432615897928e+00	 1.000000000000000e+01	 9.999992382469500e+00
0	 5.714291269874074e+00	 8.571398015564814e+00	 1.000000379821340e+01
0	 5.714291269874074e+00	 8.714259388995403e+00	 1.000000410440068e+01
0	 5.714291269874074e+00	 8.857120812436385e+00	 1.000000408079405e+01
0	 5.714291269874075e+00	 8.999982169218283e+00	 1.000000372739338e+01
0	 5.714291269874074e+00	 9.142843342671599e+00	 1.000000304419698e+01
0	 5.714291269874074e+00	 9.285704216126854e+00	 1.000000203120147e+01
0	 5.714291269874074e+00	 9.428564672914547e+00	 1.000000068840192e+01
0	 5.714291269874074e+00	 9.571424596365199e+00	 9.999999015791726e+00
0	 5.714291269874074e+00	 9.714283869809320e+00	 9.999997013362691e+00
0	 5.714291269874074e+00	 9.857142376577416e+00	 9.999994681104976e+00
0	 5.714291269874075e+00	 1.000000000000000e+01	 9.999992019007205e+00
0	 5.714291269874075e+00	 0.000000000000000e+00	 1.000000049977644e+01
0	 5.714291269874074e+00	 1.428576234225853e-01	 1.000000076599007e+01
0	 5.714291269874074e+00	 2.857161301906819e-01	 1.000000099922742e+01
0	 5.714291269874074e+00	 4.285754036348008e-01	 1.000000119948962e+01
0	 5.714291269874074e+00	 5.714353270854531e-01	 1.000000136677765e+01
0	 5.714291269874074e+00	 7.142957838731496e-01	 1.000000150109233e+01
0	 5.714291269874074e+00	 8.571566573284018e-01	 1.000000160243434e+01
0	 5.714291269874075e+00	 1.000017830781720e+00	 1.000000167080414e+01
0	 5.714291269874074e+00	 1.142879187563616e+00	 1.000000170620209e+01
0	 5.714291269874074e+00	 1.285740611004601e+00	 1.000000170862836e+01
0	 5.714291269874074e+00	 1.428601984435185e+00	 1.000000167808294e+01
0	 5.857150240517928e+00	 0.000000000000000e+00	 1.000000011612266e+01
0	 5.857150240517929e+00	 1.428576234225853e-01	 1.000000038233629e+01
0	 5.857150240517928e+00	 2.857161301906819e-01	 1.000000061557364e+01
0	 5.857150240517929e+00	 4.285754036348008e-01	 1.000000081583584e+01
0	 5.857150240517927e+00	 5.714353270854531e-01	 1.000000098312387e+01
0	 5.857150240517928e+00	 7.142957838731497e-01	 1.000000111743856e+01
0	 5.857150240517927e+00	 8.571566573284017e-01	 1.000000121878055e+01
0	 5.857150240517929e+00	 1.000017830781720e+00	 1.000000128715035e+01
0	 5.857150240517929e+00	 1.142879187563616e+00	 1.000000132254831e+01
0	 5.857150240517927e+00	 1.285740611004601e+00	 1.000000132497457e+01
0	 5.857150240517928e+00	 1.428601984435185e+00	 1.000000129442916e+01
0	 6.000009511162681e+00	 0.000000000000000e+00	 9.999999772853265e+00
0	 6.000009511162682e+00	 1.428576234225853e-01	 1.000000003906690e+01
0	 6.000009511162683e+00	 2.857161301906819e-01	 1.000000027230424e+01
0	 6.000009511162681e+00	 4.285754036348007e-01	 1.000000047256644e+01
0	 6.000009511162681e+00	 5.714353270854531e-01	 1.000000063985448e+01
0	 6.000009511162681e+00	 7.142957838731496e-01	 1.000000077416916e+01
0	 6.000009511162681e+00	 8.571566573284016e-01	 1.000000087551116e+01
0	 6.000009511162683e+00	 1.000017830781720e+00	 1.000000094388097e+01
0	 6.000009511162682e+00	 1.142879187563616e+00	 1.000000097927892e+01
0	 6.000009511162683e+00	 1.285740611004601e+00	 1.000000098170518e+01
0	 6.000009511162681e+00	 1.428601984435185e+00	 1.000000095115977e+01
0	 6.142869048474791e+00	 0.000000000000000e+00	 9.999999469967790e+00
0	 6.142869048474794e+00	 1.428576234225853e-01	 9.999999736181424e+00
0	 6.142869048474791e+00	 2.857161301906820e-01	 9.999999969418774e+00
0	 6.142869048474790e+00	 4.285754036348006e-01	 1.000000016968097e+01
0	 6.142869048474794e+00	 5.714353270854531e-01	 1.000000033696900e+01
0	 6.142869048474791e+00	 7.142957838731496e-01	 1.000000047128369e+01
0	 6.142869048474792e+00	 8.571566573284016e-01	 1.000000057262569e+01
0	 6.142869048474791e+00	 1.000017830781720e+00	 1.000000064099549e+01
0	 6.142869048474790e+00	 1.142879187563616e+00	 1.000000067639343e+01
0	 6.142869048474791e+00	 1.285740611004601e+00	 1.000000067881970e+01
0	 6.142869048474790e+00	 1.428601984435185e+00	 1.000000064827429e+01
0	 6.285728819120711e+00	 0.000000000000000e+00	 9.999999207465795e+00
0	 6.285728819120713e+00	 1.428576234225853e-01	 9.999999473679434e+00
0	 6.285728819120713e+00	 2.857161301906819e-01	 9.999999706916780e+00
0	 6.285728819120711e+00	 4.285754036348006e-01	 9.999999907178973e+00
0	 6.285728819120711e+00	 5.714353270854530e-01	 1.000000007446701e+01
0	 6.285728819120712e+00	 7.142957838731496e-01	 1.000000020878170e+01
0	 6.285728819120711e+00	 8.571566573284014e-01	 1.000000031012369e+01
0	 6.285728819120711e+00	 1.000017830781720e+00	 1.000000037849350e+01
0	 6.285728819120713e+00	 1.142879187563616e+00	 1.000000041389145e+01
0	 6.285728819120712e+00	 1.285740611004601e+00	 1.000000041631771e+01
0	 6.285728819120711e+00	 1.428601984435185e+00	 1.000000038577230e+01
0	 6.428588789766900e+00	 0.000000000000000e+00	 9.999998985346926e+00
0	 6.428588789766902e+00	 1.428576234225852e-01	 9.999999251560563e+00
0	 6.428588789766899e+00	 2.857161301906818e-01	 9.999999484797907e+00
0	 6.428588789766901e+00	 4.285754036348008e-01	 9.999999685060114e+00
0	 6.428588789766900e+00	 5.714353270854532e-01	 9.999999852348138e+00
0	 6.428588789766898e+00	 7.142957838731496e-01	 9.999999986662827e+00
0	 6.428588789766899e+00	 8.571566573284016e-01	 1.000000008800483e+01
0	 6.428588789766901e+00	 1.000017830781720e+00	 1.000000015637463e+01
0	 6.428588789766899e+00	 1.142879187563616e+00	 1.000000019177258e+01
0	 6.428588789766900e+00	 1.285740611004601e+00	 1.000000019419884e+01
0	 6.428588789766899e+00	 1.428601984435185e+00	 1.000000016365344e+01
0	 6.571448927079809e+00	 0.000000000000000e+00	 9.999998803610865e+00
0	 6.571448927079809e+00	 1.428576234225853e-01	 9.999999069824502e+00
0	 6.571448927079806e+00	 2.857161301906818e-01	 9.999999303061845e+00
0	 6.571448927079808e+00	 4.285754036348006e-01	 9.999999503324046e+00
0	 6.571448927079811e+00	 5.714353270854532e-01	 9.999999670612077e+00
0	 6.571448927079810e+00	 7.142957838731497e-01	 9.999999804926764e+00
0	 6.571448927079809e+00	 8.571566573284015e-01	 9.999999906268762e+00
0	 6.571448927079808e+00	 1.000017830781720e+00	 9.999999974638563e+00
0	 6.571448927079809e+00	 1.142879187563616e+00	 1.000000001003651e+01
0	 6.571448927079810e+00	 1.285740611004601e+00	 1.000000001246278e+01
0	 6.571448927079810e+00	 1.428601984435185e+00	 9.999999981917369e+00
0	 6.714309197725897e+00	 0.000000000000000e+00	 9.999998662257362e+00
0	 6.714309197725896e+00	 1.428576234225853e-01	 9.999998928470989e+00
0	 6.714309197725897e+00	 2.857161301906819e-01	 9.999999161708342e+00
0	 6.714309197725896e+00	 4.285754036348007e-01	 9.999999361970540e+00
0	 6.714309197725898e+00	 5.714353270854532e-01	 9.999999529258577e+00
0	 6.714309197725896e+00	 7.142957838731497e-01	 9.999999663573252e+00
0	 6.714309197725896e+00	 8.571566573284016e-01	 9.999999764915255e+00
0	 6.714309197725894e+00	 1.000017830781720e+00	 9.999999833285063e+00
0	 6.714309197725894e+00	 1.142879187563616e+00	 9.999999868683009e+00
0	 6.714309197725896e+00	 1.285740611004601e+00	 9.999999871109274e+00
0	 6.714309197725896e+00	 1.428601984435185e+00	 9.999999840563866e+00
0	 6.857169568371615e+00	 0.000000000000000e+00	 9.999998561286208e+00
0	 6.857169568371616e+00	 1.428576234225852e-01	 9.999998827499843e+00
0	 6.857169568371617e+00	 2.857161301906819e-01	 9.999999060737188e+00
0	 6.857169568371618e+00	 4.285754036348009e-01	 9.999999260999386e+00
0	 6.857169568371616e+00	 5.714353270854531e-01	 9.999999428287422e+00
0	 6.857169568371617e+00	 7.142957838731497e-01	 9.999999562602108e+00
0	 6.857169568371617e+00	 8.571566573284020e-01	 9.999999663944109e+00
0	 6.857169568371617e+00	 1.000017830781720e+00	 9.999999732313915e+00
0	 6.857169568371617e+00	 1.142879187563616e+00	 9.999999767711865e+00
0	 6.857169568371617e+00	 1.285740611004601e+00	 9.999999770138125e+00
0	 6.857169568371617e+00	 1.428601984435185e+00	 9.999999739592718e+00
0	 7.000030005683427e+00	 0.000000000000000e+00	 9.999998500697277e+00
0	 7.000030005683426e+00	 1.428576234225853e-01	 9.999998766910917e+00
0	 7.000030005683428e+00	 2.857161301906820e-01	 9.999999000148264e+00
0	 7.000030005683426e+00	 4.285754036348007e-01	 9.999999200410459e+00
0	 7.000030005683425e+00	 5.714353270854531e-01	 9.999999367698495e+00
0	 7.000030005683426e+00	 7.142957838731495e-01	 9.999999502013177e+00
0	 7.000030005683427e+00	 8.571566573284017e-01	 9.999999603355176e+00
0	 7.000030005683428e+00	 1.000017830781720e+00	 9.999999671724980e+00
0	 7.000030005683427e+00	 1.142879187563616e+00	 9.999999707122933e+00
0	 7.000030005683427e+00	 1.285740611004601e+00	 9.999999709549193e+00
0	 7.000030005683427e+00	 1.428601984435185e+00	 9.999999679003787e+00
0	 7.142890476327777e+00	 0.000000000000000e+00	 9.999998480490476e+00
0	 7.142890476327779e+00	 1.428576234225852e-01	 9.999998746704113e+00
0	 7.142890476327778e+00	 2.857161301906819e-01	 9.999998979941461e+00
0	 7.142890476327778e+00	 4.285754036348008e-01	 9.999999180203655e+00
0	 7.142890476327778e+00	 5.714353270854531e-01	 9.999999347491691e+00
0	 7.142890476327776e+00	 7.142957838731497e-01	 9.999999481806380e+00
0	 7.142890476327779e+00	 8.571566573284016e-01	 9.999999583148373e+00
0	 7.142890476327779e+00	 1.000017830781720e+00	 9.999999651518179e+00
0	 7.142890476327778e+00	 1.142879187563616e+00	 9.999999686916128e+00
0	 7.142890476327779e+00	 1.285740611004601e+00	 9.999999689342392e+00
0	 7.142890476327779e+00	 1.428601984435185e+00	 9.999999658796984e+00
0	 5.714291269874074e+00	 1.428601984435185e+00	 1.000000167808295e+01
0	 5.714291269874074e+00	 1.571453213328422e+00	 1.000000163340202e+01
0	 5.714291269874076e+00	 1.714304292230859e+00	 1.000000159341524e+01
0	 5.714291269874074e+00	 1.857155237808252e+00	 1.000000155812264e+01
0	 5.714291269874074e+00	 2.000006066726355e+00	 1.000000152752422e+01
0	 5.714291269874074e+00	 2.142856795650926e+00	 1.000000150162003e+01
0	 5.714291269874074e+00	 2.285707441247718e+00	 1.000000148041009e+01
0	 5.714291269874074e+00	 2.428558020182487e+00	 1.000000146389439e+01
0	 5.714291269874074e+00	 2.571408549120992e+00	 1.000000145207295e+01
0	 5.714291269874075e+00	 2.714259044728984e+00	 1.000000144494578e+01
0	 5.714291269874074e+00	 2.857109523672222e+00	 1.000000144251289e+01
0	 5.857150240517928e+00	 1.428601984435185e+00	 1.000000129442916e+01
0	 5.857150240517929e+00	 1.571453213328422e+00	 1.000000124974824e+01
0	 5.857150240517927e+00	 1.714304292230859e+00	 1.000000120976146e+01
0	 5.857150240517927e+00	 1.857155237808252e+00	 1.000000117446885e+01
0	 5.857150240517927e+00	 2.000006066726355e+00	 1.000000114387044e+01
0	 5.857150240517929e+00	 2.142856795650925e+00	 1.000000111796625e+01
0	 5.857150240517928e+00	 2.285707441247718e+00	 1.000000109675630e+01
0	 5.857150240517927e+00	 2.428558020182488e+00	 1.000000108024060e+01
0	 5.857150240517928e+00	 2.571408549120992e+00	 1.000000106841916e+01
0	 5.857150240517927e+00	 2.714259044728984e+00	 1.000000106129200e+01
0	 5.857150240517928e+00	 2.857109523672222e+00	 1.000000105885911e+01
0	 6.000009511162681e+00	 1.428601984435185e+00	 1.000000095115977e+01
0	 6.000009511162683e+00	 1.571453213328422e+00	 1.000000090647884e+01
0	 6.000009511162681e+00	 1.714304292230859e+00	 1.000000086649207e+01
0	 6.000009511162681e+00	 1.857155237808251e+00	 1.000000083119946e+01
0	 6.000009511162683e+00	 2.000006066726355e+00	 1.000000080060105e+01
0	 6.000009511162681e+00	 2.142856795650925e+00	 1.000000077469686e+01
0	 6.000009511162681e+00	 2.285707441247718e+00	 1.000000075348691e+01
0	 6.000009511162683e+00	 2.428558020182489e+00	 1.000000073697121e+01
0	 6.000009511162679e+00	 2.571408549120991e+00	 1.000000072514977e+01
0	 6.000009511162684e+00	 2.714259044728985e+00	 1.000000071802261e+01
0	 6.000009511162683e+00	 2.857109523672223e+00	 1.000000071558973e+01
0	 6.142869048474790e+00	 1.428601984435185e+00	 1.000000064827429e+01
0	 6.142869048474792e+00	 1.571453213328422e+00	 1.000000060359337e+01
0	 6.142869048474791e+00	 1.714304292230859e+00	 1.000000056360659e+01
0	 6.142869048474791e+00	 1.857155237808251e+00	 1.000000052831398e+01
0	 6.142869048474789e+00	 2.000006066726355e+00	 1.000000049771558e+01
0	 6.142869048474789e+00	 2.142856795650924e+00	 1.000000047181138e+01
0	 6.142869048474792e+00	 2.285707441247718e+00	 1.000000045060143e+01
0	 6.142869048474791e+00	 2.428558020182489e+00	 1.000000043408573e+01
0	 6.142869048474792e+00	 2.571408549120992e+00	 1.000000042226429e+01
0	 6.142869048474791e+00	 2.714259044728984e+00	 1.000000041513713e+01
0	 6.142869048474790e+00	 2.857109523672222e+00	 1.000000041270424e+01
0	 6.285728819120711e+00	 1.428601984435185e+00	 1.000000038577231e+01
0	 6.285728819120711e+00	 1.571453213328422e+00	 1.000000034109138e+01
0	 6.285728819120711e+00	 1.714304292230859e+00	 1.000000030110459e+01
0	 6.285728819120710e+00	 1.857155237808251e+00	 1.000000026581199e+01
0	 6.285728819120709e+00	 2.000006066726355e+00	 1.000000023521358e+01
0	 6.285728819120712e+00	 2.142856795650926e+00	 1.000000020930940e+01
0	 6.285728819120713e+00	 2.285707441247718e+00	 1.000000018809944e+01
0	 6.285728819120712e+00	 2.428558020182488e+00	 1.000000017158374e+01
0	 6.285728819120711e+00	 2.571408549120992e+00	 1.000000015976230e+01
0	 6.285728819120712e+00	 2.714259044728986e+00	 1.000000015263514e+01
0	 6.285728819120711e+00	 2.857109523672221e+00	 1.000000015020225e+01
0	 6.428588789766899e+00	 1.428601984435185e+00	 1.000000016365344e+01
0	 6.428588789766900e+00	 1.571453213328422e+00	 1.000000011897251e+01
0	 6.428588789766901e+00	 1.714304292230859e+00	 1.000000007898572e+01
0	 6.428588789766897e+00	 1.857155237808251e+00	 1.000000004369312e+01
0	 6.428588789766899e+00	 2.000006066726355e+00	 1.000000001309471e+01
0	 6.428588789766899e+00	 2.142856795650925e+00	 9.999999987190519e+00
0	 6.428588789766899e+00	 2.285707441247719e+00	 9.999999965980571e+00
0	 6.428588789766899e+00	 2.428558020182488e+00	 9.999999949464868e+00
0	 6.428588789766899e+00	 2.571408549120992e+00	 9.999999937643430e+00
0	 6.428588789766899e+00	 2.714259044728984e+00	 9.999999930516271e+00
0	 6.428588789766899e+00	 2.857109523672222e+00	 9.999999928083382e+00
0	 6.571448927079810e+00	 1.428601984435185e+00	 9.999999981917369e+00
0	 6.571448927079809e+00	 1.571453213328422e+00	 9.999999937236446e+00
0	 6.571448927079809e+00	 1.714304292230859e+00	 9.999999897249662e+00
0	 6.571448927079810e+00	 1.857155237808251e+00	 9.999999861957058e+00
0	 6.571448927079809e+00	 2.000006066726356e+00	 9.999999831358654e+00
0	 6.571448927079809e+00	 2.142856795650925e+00	 9.999999805454459e+00
0	 6.571448927079810e+00	 2.285707441247718e+00	 9.999999784244508e+00
0	 6.571448927079807e+00	 2.428558020182488e+00	 9.999999767728806e+00
0	 6.571448927079809e+00	 2.571408549120992e+00	 9.999999755907371e+00
0	 6.571448927079809e+00	 2.714259044728984e+00	 9.999999748780208e+00
0	 6.571448927079808e+00	 2.857109523672222e+00	 9.999999746347321e+00
0	 6.714309197725896e+00	 1.428601984435185e+00	 9.999999840563866e+00
0	 6.714309197725897e+00	 1.571453213328422e+00	 9.999999795882934e+00
0	 6.714309197725897e+00	 1.714304292230859e+00	 9.999999755896155e+00
0	 6.714309197725897e+00	 1.857155237808251e+00	 9.999999720603551e+00
0	 6.714309197725896e+00	 2.000006066726356e+00	 9.999999690005147e+00
0	 6.714309197725894e+00	 2.142856795650924e+00	 9.999999664100955e+00
0	 6.714309197725896e+00	 2.285707441247718e+00	 9.999999642891002e+00
0	 6.714309197725896e+00	 2.428558020182489e+00	 9.999999626375295e+00
0	 6.714309197725897e+00	 2.571408549120992e+00	 9.999999614553868e+00
0	 6.714309197725897e+00	 2.714259044728984e+00	 9.999999607426705e+00
0	 6.714309197725895e+00	 2.857109523672222e+00	 9.999999604993816e+00
0	 6.857169568371617e+00	 1.428601984435185e+00	 9.999999739592720e+00
0	 6.857169568371617e+00	 1.571453213328422e+00	 9.999999694911796e+00
0	 6.857169568371618e+00	 1.714304292230860e+00	 9.999999654925013e+00
0	 6.857169568371618e+00	 1.857155237808252e+00	 9.999999619632415e+00
0	 6.857169568371617e+00	 2.000006066726356e+00	 9.999999589033994e+00
0	 6.857169568371615e+00	 2.142856795650925e+00	 9.999999563129808e+00
0	 6.857169568371617e+00	 2.285707441247718e+00	 9.999999541919852e+00
0	 6.857169568371617e+00	 2.428558020182488e+00	 9.999999525404153e+00
0	 6.857169568371617e+00	 2.571408549120992e+00	 9.999999513582717e+00
0	 6.857169568371615e+00	 2.714259044728984e+00	 9.999999506455554e+00
0	 6.857169568371615e+00	 2.857109523672222e+00	 9.999999504022664e+00
0	 7.000030005683427e+00	 1.428601984435185e+00	 9.999999679003787e+00
0	 7.000030005683425e+00	 1.571453213328422e+00	 9.999999634322853e+00
0	 7.000030005683426e+00	 1.714304292230859e+00	 9.999999594336082e+00
0	 7.000030005683426e+00	 1.857155237808251e+00	 9.999999559043470e+00
0	 7.000030005683427e+00	 2.000006066726356e+00	 9.999999528445061e+00
0	 7.000030005683424e+00	 2.142856795650925e+00	 9.999999502540872e+00
0	 7.000030005683424e+00	 2.285707441247717e+00	 9.999999481330923e+00
0	 7.000030005683427e+00	 2.428558020182488e+00	 9.999999464815218e+00
0	 7.000030005683426e+00	 2.571408549120992e+00	 9.999999452993784e+00
0	 7.000030005683425e+00	 2.714259044728984e+00	 9.999999445866626e+00
0	 7.000030005683426e+00	 2.857109523672222e+00	 9.999999443433733e+00
0	 7.142890476327779e+00	 1.428601984435185e+00	 9.999999658796980e+00
0	 7.142890476327779e+00	 1.571453213328422e+00	 9.999999614116057e+00
0	 7.142890476327778e+00	 1.714304292230859e+00	 9.999999574129284e+00
0	 7.142890476327777e+00	 1.857155237808251e+00	 9.999999538836668e+00
0	 7.142890476327778e+00	 2.000006066726356e+00	 9.999999508238263e+00
0	 7.142890476327777e+00	 2.142856795650926e+00	 9.999999482334070e+00
0	 7.142890476327775e+00	 2.285707441247718e+00	 9.999999461124119e+00
0	 7.142890476327777e+00	 2.428558020182488e+00	 9.999999444608424e+00
0	 7.142890476327778e+00	 2.571408549120992e+00	 9.999999432786980e+00
0	 7.142890476327778e+00	 2.714259044728984e+00	 9.999999425659821e+00
0	 7.142890476327779e+00	 2.857109523672222e+00	 9.999999423226932e+00
0	 5.714291269874074e+00	 2.857109523672222e+00	 1.000000144251289e+01
0	 5.714291269874075e+00	 2.999969994316577e+00	 1.000000144243143e+01
0	 5.714291269874075e+00	 3.142830431628385e+00	 1.000000144235854e+01
0	 5.714291269874075e+00	 3.285690802274106e+00	 1.000000144229423e+01
0	 5.714291269874073e+00	 3.428551072920192e+00	 1.000000144223848e+01
0	 5.714291269874074e+00	 3.571411210233103e+00	 1.000000144219133e+01
0	 5.714291269874074e+00	 3.714271180879289e+00	 1.000000144215274e+01
0	 5.714291269874074e+00	 3.857130951525209e+00	 1.000000144212272e+01
0	 5.714291269874074e+00	 3.999990488837320e+00	 1.000000144210128e+01
0	 5.714291269874074e+00	 4.142849759482075e+00	 1.000000144208842e+01
0	 5.714291269874074e+00	 4.285708730125924e+00	 1.000000144208413e+01
0	 5.857150240517928e+00	 2.857109523672222e+00	 1.000000105885911e+01
0	 5.857150240517927e+00	 2.999969994316575e+00	 1.000000105877765e+01
0	 5.857150240517926e+00	 3.142830431628385e+00	 1.000000105870476e+01
0	 5.857150240517926e+00	 3.285690802274106e+00	 1.000000105864044e+01
0	 5.857150240517928e+00	 3.428551072920193e+00	 1.000000105858470e+01
0	 5.857150240517929e+00	 3.571411210233103e+00	 1.000000105853754e+01
0	 5.857150240517929e+00	 3.714271180879289e+00	 1.000000105849895e+01
0	 5.857150240517929e+00	 3.857130951525211e+00	 1.000000105846894e+01
0	 5.857150240517927e+00	 3.999990488837320e+00	 1.000000105844750e+01
0	 5.857150240517927e+00	 4.142849759482075e+00	 1.000000105843464e+01
0	 5.857150240517928e+00	 4.285708730125926e+00	 1.000000105843035e+01
0	 6.000009511162683e+00	 2.857109523672223e+00	 1.000000071558973e+01
0	 6.000009511162682e+00	 2.999969994316577e+00	 1.000000071550826e+01
0	 6.000009511162681e+00	 3.142830431628386e+00	 1.000000071543537e+01
0	 6.000009511162683e+00	 3.285690802274106e+00	 1.000000071537105e+01
0	 6.000009511162683e+00	 3.428551072920194e+00	 1.000000071531532e+01
0	 6.000009511162681e+00	 3.571411210233103e+00	 1.000000071526815e+01
0	 6.000009511162682e+00	 3.714271180879289e+00	 1.000000071522956e+01
0	 6.000009511162682e+00	 3.857130951525211e+00	 1.000000071519955e+01
0	 6.000009511162682e+00	 3.999990488837320e+00	 1.000000071517811e+01
0	 6.000009511162682e+00	 4.142849759482076e+00	 1.000000071516525e+01
0	 6.000009511162682e+00	 4.285708730125925e+00	 1.000000071516096e+01
0	 6.142869048474790e+00	 2.857109523672222e+00	 1.000000041270424e+01
0	 6.142869048474791e+00	 2.999969994316576e+00	 1.000000041262278e+01
0	 6.142869048474791e+00	 3.142830431628385e+00	 1.000000041254989e+01
0	 6.142869048474791e+00	 3.285690802274106e+00	 1.000000041248558e+01
0	 6.142869048474791e+00	 3.428551072920193e+00	 1.000000041242983e+01
0	 6.142869048474791e+00	 3.571411210233102e+00	 1.000000041238267e+01
0	 6.142869048474792e+00	 3.714271180879290e+00	 1.000000041234408e+01
0	 6.142869048474790e+00	 3.857130951525209e+00	 1.000000041231407e+01
0	 6.142869048474791e+00	 3.999990488837320e+00	 1.000000041229263e+01
0	 6.142869048474791e+00	 4.142849759482075e+00	 1.000000041227977e+01
0	 6.142869048474794e+00	 4.285708730125926e+00	 1.000000041227548e+01
0	 6.285728819120711e+00	 2.857109523672221e+00	 1.000000015020225e+01
0	 6.285728819120712e+00	 2.999969994316575e+00	 1.000000015012079e+01
0	 6.285728819120711e+00	 3.142830431628386e+00	 1.000000015004790e+01
0	 6.285728819120713e+00	 3.285690802274106e+00	 1.000000014998358e+01
0	 6.285728819120712e+00	 3.428551072920192e+00	 1.000000014992784e+01
0	 6.285728819120712e+00	 3.571411210233103e+00	 1.000000014988068e+01
0	 6.285728819120711e+00	 3.714271180879289e+00	 1.000000014984209e+01
0	 6.285728819120711e+00	 3.857130951525210e+00	 1.000000014981207e+01
0	 6.285728819120712e+00	 3.999990488837320e+00	 1.000000014979064e+01
0	 6.285728819120714e+00	 4.142849759482074e+00	 1.000000014977778e+01
0	 6.285728819120711e+00	 4.285708730125926e+00	 1.000000014977349e+01
0	 6.428588789766899e+00	 2.857109523672222e+00	 9.999999928083382e+00
0	 6.428588789766899e+00	 2.999969994316576e+00	 9.999999928001920e+00
0	 6.428588789766899e+00	 3.142830431628386e+00	 9.999999927929029e+00
0	 6.428588789766899e+00	 3.285690802274106e+00	 9.999999927864710e+00
0	 6.428588789766899e+00	 3.428551072920194e+00	 9.999999927808970e+00
0	 6.428588789766899e+00	 3.571411210233103e+00	 9.999999927761817e+00
0	 6.428588789766901e+00	 3.714271180879290e+00	 9.999999927723223e+00
0	 6.428588789766899e+00	 3.857130951525210e+00	 9.999999927693214e+00
0	 6.428588789766899e+00	 3.999990488837320e+00	 9.999999927671771e+00
0	 6.428588789766899e+00	 4.142849759482074e+00	 9.999999927658905e+00
0	 6.428588789766899e+00	 4.285708730125926e+00	 9.999999927654619e+00
0	 6.571448927079808e+00	 2.857109523672222e+00	 9.999999746347321e+00
0	 6.571448927079810e+00	 2.999969994316576e+00	 9.999999746265859e+00
0	 6.571448927079809e+00	 3.142830431628385e+00	 9.999999746192966e+00
0	 6.571448927079806e+00	 3.285690802274105e+00	 9.999999746128648e+00
0	 6.571448927079810e+00	 3.428551072920194e+00	 9.999999746072911e+00
0	 6.571448927079809e+00	 3.571411210233103e+00	 9.999999746025754e+00
0	 6.571448927079810e+00	 3.714271180879289e+00	 9.999999745987161e+00
0	 6.571448927079809e+00	 3.857130951525211e+00	 9.999999745957147e+00
0	 6.571448927079809e+00	 3.999990488837319e+00	 9.999999745935710e+00
0	 6.571448927079806e+00	 4.142849759482074e+00	 9.999999745922842e+00
0	 6.571448927079809e+00	 4.285708730125926e+00	 9.999999745918556e+00
0	 6.714309197725895e+00	 2.857109523672222e+00	 9.999999604993814e+00
0	 6.714309197725894e+00	 2.999969994316575e+00	 9.999999604912350e+00
0	 6.714309197725896e+00	 3.142830431628385e+00	 9.999999604839463e+00
0	 6.714309197725896e+00	 3.285690802274106e+00	 9.999999604775144e+00
0	 6.714309197725896e+00	 3.428551072920194e+00	 9.999999604719408e+00
0	 6.714309197725896e+00	 3.571411210233102e+00	 9.999999604672247e+00
0	 6.714309197725898e+00	 3.714271180879290e+00	 9.999999604633659e+00
0	 6.714309197725895e+00	 3.857130951525210e+00	 9.999999604603644e+00
0	 6.714309197725896e+00	 3.999990488837321e+00	 9.999999604582204e+00
0	 6.714309197725896e+00	 4.142849759482075e+00	 9.999999604569338e+00
0	 6.714309197725895e+00	 4.285708730125925e+00	 9.999999604565053e+00
0	 6.857169568371615e+00	 2.857109523672222e+00	 9.999999504022670e+00
0	 6.857169568371616e+00	 2.999969994316576e+00	 9.999999503941204e+00
0	 6.857169568371617e+00	 3.142830431628385e+00	 9.999999503868320e+00
0	 6.857169568371618e+00	 3.285690802274106e+00	 9.999999503803995e+00
0	 6.857169568371616e+00	 3.428551072920193e+00	 9.999999503748265e+00
0	 6.857169568371617e+00	 3.571411210233103e+00	 9.999999503701098e+00
0	 6.857169568371617e+00	 3.714271180879290e+00	 9.999999503662504e+00
0	 6.857169568371615e+00	 3.857130951525210e+00	 9.999999503632488e+00
0	 6.857169568371616e+00	 3.999990488837320e+00	 9.999999503611052e+00
0	 6.857169568371615e+00	 4.142849759482074e+00	 9.999999503598190e+00
0	 6.857169568371617e+00	 4.285708730125926e+00	 9.999999503593905e+00
0	 7.000030005683426e+00	 2.857109523672222e+00	 9.999999443433735e+00
0	 7.000030005683426e+00	 2.999969994316576e+00	 9.999999443352269e+00
0	 7.000030005683424e+00	 3.142830431628385e+00	 9.999999443279378e+00
0	 7.000030005683427e+00	 3.285690802274106e+00	 9.999999443215062e+00
0	 7.000030005683424e+00	 3.428551072920192e+00	 9.999999443159323e+00
0	 7.000030005683426e+00	 3.571411210233103e+00	 9.999999443112159e+00
0	 7.000030005683426e+00	 3.714271180879290e+00	 9.999999443073575e+00
0	 7.000030005683427e+00	 3.857130951525211e+00	 9.999999443043560e+00
0	 7.000030005683425e+00	 3.999990488837320e+00	 9.999999443022116e+00
0	 7.000030005683428e+00	 4.142849759482075e+00	 9.999999443009258e+00
0	 7.000030005683426e+00	 4.285708730125926e+00	 9.999999443004970e+00
0	 7.142890476327779e+00	 2.857109523672222e+00	 9.999999423226932e+00
0	 7.142890476327778e+00	 2.999969994316576e+00	 9.999999423145471e+00
0	 7.142890476327778e+00	 3.142830431628385e+00	 9.999999423072575e+00
0	 7.142890476327780e+00	 3.285690802274106e+00	 9.999999423008260e+00
0	 7.142890476327778e+00	 3.428551072920193e+00	 9.999999422952525e+00
0	 7.142890476327777e+00	 3.571411210233102e+00	 9.999999422905359e+00
0	 7.142890476327779e+00	 3.714271180879290e+00	 9.999999422866775e+00
0	 7.142890476327779e+00	 3.857130951525211e+00	 9.999999422836755e+00
0	 7.142890476327780e+00	 3.999990488837321e+00	 9.999999422815320e+00
0	 7.142890476327779e+00	 4.142849759482075e+00	 9.999999422802457e+00
0	 7.142890476327779e+00	 4.285708730125926e+00	 9.999999422798167e+00
0	 5.714291269874074e+00	 4.285708730125924e+00	 1.000000144208413e+01
0	 5.714291269874074e+00	 4.428567384102074e+00	 1.000000144208413e+01
0	 5.714291269874074e+00	 4.571425771410667e+00	 1.000000144208413e+01
0	 5.714291269874073e+00	 4.714283958718594e+00	 1.000000144208413e+01
0	 5.714291269874074e+00	 4.857142012692742e+00	 1.000000144208413e+01
0	 5.714291269874074e+00	 5.000000000000001e+00	 1.000000144208413e+01
0	 5.714291269874076e+00	 5.142857987307261e+00	 1.000000144208414e+01
0	 5.714291269874075e+00	 5.285716041281409e+00	 1.000000144208413e+01
0	 5.714291269874074e+00	 5.428574228589336e+00	 1.000000144208414e+01
0	 5.714291269874074e+00	 5.571432615897928e+00	 1.000000144208414e+01
0	 5.714291269874074e+00	 5.714291269874073e+00	 1.000000144208414e+01
0	 5.857150240517928e+00	 4.285708730125926e+00	 1.000000105843035e+01
0	 5.857150240517928e+00	 4.428567384102073e+00	 1.000000105843035e+01
0	 5.857150240517927e+00	 4.571425771410666e+00	 1.000000105843035e+01
0	 5.857150240517929e+00	 4.714283958718593e+00	 1.000000105843035e+01
0	 5.857150240517928e+00	 4.857142012692742e+00	 1.000000105843035e+01
0	 5.857150240517930e+00	 5.000000000000003e+00	 1.000000105843035e+01
0	 5.857150240517927e+00	 5.142857987307260e+00	 1.000000105843035e+01
0	 5.857150240517932e+00	 5.285716041281410e+00	 1.000000105843035e+01
0	 5.857150240517927e+00	 5.428574228589336e+00	 1.000000105843035e+01
0	 5.857150240517928e+00	 5.571432615897928e+00	 1.000000105843035e+01
0	 5.857150240517929e+00	 5.714291269874074e+00	 1.000000105843035e+01
0	 6.000009511162682e+00	 4.285708730125925e+00	 1.000000071516096e+01
0	 6.000009511162682e+00	 4.428567384102074e+00	 1.000000071516096e+01
0	 6.000009511162682e+00	 4.571425771410667e+00	 1.000000071516096e+01
0	 6.000009511162682e+00	 4.714283958718594e+00	 1.000000071516095e+01
0	 6.000009511162682e+00	 4.857142012692741e+00	 1.000000071516095e+01
0	 6.000009511162683e+00	 5.000000000000001e+00	 1.000000071516095e+01
0	 6.000009511162683e+00	 5.142857987307261e+00	 1.000000071516096e+01
0	 6.000009511162681e+00	 5.285716041281409e+00	 1.000000071516096e+01
0	 6.000009511162681e+00	 5.428574228589334e+00	 1.000000071516096e+01
0	 6.000009511162681e+00	 5.571432615897929e+00	 1.000000071516096e+01
0	 6.000009511162681e+00	 5.714291269874075e+00	 1.000000071516095e+01
0	 6.142869048474794e+00	 4.285708730125926e+00	 1.000000041227548e+01
0	 6.142869048474791e+00	 4.428567384102073e+00	 1.000000041227548e+01
0	 6.142869048474792e+00	 4.571425771410668e+00	 1.000000041227548e+01
0	 6.142869048474791e+00	 4.714283958718593e+00	 1.000000041227548e+01
0	 6.142869048474791e+00	 4.857142012692742e+00	 1.000000041227548e+01
0	 6.142869048474792e+00	 5.000000000000002e+00	 1.000000041227548e+01
0	 6.142869048474789e+00	 5.142857987307260e+00	 1.000000041227548e+01
0	 6.142869048474792e+00	 5.285716041281408e+00	 1.000000041227548e+01
0	 6.142869048474790e+00	 5.428574228589335e+00	 1.000000041227548e+01
0	 6.142869048474792e+00	 5.571432615897928e+00	 1.000000041227548e+01
0	 6.142869048474792e+00	 5.714291269874074e+00	 1.000000041227548e+01
0	 6.285728819120711e+00	 4.285708730125926e+00	 1.000000014977349e+01
0	 6.285728819120713e+00	 4.428567384102074e+00	 1.000000014977349e+01
0	 6.285728819120711e+00	 4.571425771410667e+00	 1.000000014977349e+01
0	 6.285728819120715e+00	 4.714283958718593e+00	 1.000000014977349e+01
0	 6.285728819120711e+00	 4.857142012692742e+00	 1.000000014977349e+01
0	 6.285728819120712e+00	 5.000000000000002e+00	 1.000000014977349e+01
0	 6.285728819120712e+00	 5.142857987307261e+00	 1.000000014977349e+01
0	 6.285728819120713e+00	 5.285716041281409e+00	 1.000000014977350e+01
0	 6.285728819120713e+00	 5.428574228589335e+00	 1.000000014977349e+01
0	 6.285728819120711e+00	 5.571432615897927e+00	 1.000000014977349e+01
0	 6.285728819120712e+00	 5.714291269874074e+00	 1.000000014977349e+01
0	 6.428588789766899e+00	 4.285708730125926e+00	 9.999999927654619e+00
0	 6.428588789766899e+00	 4.428567384102074e+00	 9.999999927654626e+00
0	 6.428588789766900e+00	 4.571425771410667e+00	 9.999999927654617e+00
0	 6.428588789766899e+00	 4.714283958718592e+00	 9.999999927654617e+00
0	 6.428588789766898e+00	 4.857142012692741e+00	 9.999999927654617e+00
0	 6.428588789766899e+00	 5.000000000000001e+00	 9.999999927654622e+00
0	 6.428588789766899e+00	 5.142857987307261e+00	 9.999999927654624e+00
0	 6.428588789766899e+00	 5.285716041281408e+00	 9.999999927654628e+00
0	 6.428588789766899e+00	 5.428574228589335e+00	 9.999999927654619e+00
0	 6.428588789766899e+00	 5.571432615897927e+00	 9.999999927654628e+00
0	 6.428588789766900e+00	 5.714291269874074e+00	 9.999999927654619e+00
0	 6.571448927079809e+00	 4.285708730125926e+00	 9.999999745918556e+00
0	 6.571448927079809e+00	 4.428567384102075e+00	 9.999999745918561e+00
0	 6.571448927079810e+00	 4.571425771410667e+00	 9.999999745918556e+00
0	 6.571448927079809e+00	 4.714283958718594e+00	 9.999999745918556e+00
0	 6.571448927079809e+00	 4.857142012692742e+00	 9.999999745918561e+00
0	 6.571448927079809e+00	 5.000000000000002e+00	 9.999999745918554e+00
0	 6.571448927079808e+00	 5.142857987307260e+00	 9.999999745918565e+00
0	 6.571448927079810e+00	 5.285716041281410e+00	 9.999999745918565e+00
0	 6.571448927079808e+00	 5.428574228589335e+00	 9.999999745918553e+00
0	 6.571448927079809e+00	 5.571432615897927e+00	 9.999999745918563e+00
0	 6.571448927079809e+00	 5.714291269874074e+00	 9.999999745918558e+00
0	 6.714309197725895e+00	 4.285708730125925e+00	 9.999999604565053e+00
0	 6.714309197725896e+00	 4.428567384102075e+00	 9.999999604565044e+00
0	 6.714309197725894e+00	 4.571425771410667e+00	 9.999999604565049e+00
0	 6.714309197725896e+00	 4.714283958718593e+00	 9.999999604565055e+00
0	 6.714309197725896e+00	 4.857142012692742e+00	 9.999999604565051e+00
0	 6.714309197725895e+00	 5.000000000000001e+00	 9.999999604565058e+00
0	 6.714309197725896e+00	 5.142857987307261e+00	 9.999999604565051e+00
0	 6.714309197725895e+00	 5.285716041281407e+00	 9.999999604565062e+00
0	 6.714309197725896e+00	 5.428574228589335e+00	 9.999999604565055e+00
0	 6.714309197725896e+00	 5.571432615897926e+00	 9.999999604565058e+00
0	 6.714309197725894e+00	 5.714291269874073e+00	 9.999999604565057e+00
0	 6.857169568371617e+00	 4.285708730125926e+00	 9.999999503593905e+00
0	 6.857169568371615e+00	 4.428567384102073e+00	 9.999999503593905e+00
0	 6.857169568371617e+00	 4.571425771410668e+00	 9.999999503593894e+00
0	 6.857169568371617e+00	 4.714283958718593e+00	 9.999999503593898e+00
0	 6.857169568371617e+00	 4.857142012692742e+00	 9.999999503593902e+00
0	 6.857169568371617e+00	 5.000000000000001e+00	 9.999999503593902e+00
0	 6.857169568371615e+00	 5.142857987307259e+00	 9.999999503593902e+00
0	 6.857169568371615e+00	 5.285716041281408e+00	 9.999999503593909e+00
0	 6.857169568371616e+00	 5.428574228589336e+00	 9.999999503593900e+00
0	 6.857169568371619e+00	 5.571432615897930e+00	 9.999999503593909e+00
0	 6.857169568371618e+00	 5.714291269874074e+00	 9.999999503593909e+00
0	 7.000030005683426e+00	 4.285708730125926e+00	 9.999999443004970e+00
0	 7.000030005683424e+00	 4.428567384102076e+00	 9.999999443004974e+00
0	 7.000030005683427e+00	 4.571425771410667e+00	 9.999999443004970e+00
0	 7.000030005683426e+00	 4.714283958718593e+00	 9.999999443004970e+00
0	 7.000030005683426e+00	 4.857142012692742e+00	 9.999999443004976e+00
0	 7.000030005683427e+00	 5.000000000000002e+00	 9.999999443004970e+00
0	 7.000030005683426e+00	 5.142857987307261e+00	 9.999999443004970e+00
0	 7.000030005683426e+00	 5.285716041281407e+00	 9.999999443004977e+00
0	 7.000030005683424e+00	 5.428574228589335e+00	 9.999999443004970e+00
0	 7.000030005683427e+00	 5.571432615897928e+00	 9.999999443004970e+00
0	 7.000030005683426e+00	 5.714291269874074e+00	 9.999999443004976e+00
0	 7.142890476327779e+00	 4.285708730125926e+00	 9.999999422798167e+00
0	 7.142890476327776e+00	 4.428567384102074e+00	 9.999999422798167e+00
0	 7.142890476327778e+00	 4.571425771410667e+00	 9.999999422798169e+00
0	 7.142890476327777e+00	 4.714283958718592e+00	 9.999999422798165e+00
0	 7.142890476327779e+00	 4.857142012692742e+00	 9.999999422798172e+00
0	 7.142890476327777e+00	 5.000000000000001e+00	 9.999999422798165e+00
0	 7.142890476327778e+00	 5.142857987307261e+00	 9.999999422798169e+00
0	 7.142890476327778e+00	 5.285716041281409e+00	 9.999999422798174e+00
0	 7.142890476327777e+00	 5.428574228589334e+00	 9.999999422798176e+00
0	 7.142890476327777e+00	 5.571432615897927e+00	 9.999999422798174e+00
0	 7.142890476327778e+00	 5.714291269874073e+00	 9.999999422798174e+00
0	 5.714291269874074e+00	 5.714291269874073e+00	 1.000000144208414e+01
0	 5.714291269874074e+00	 5.857150240517930e+00	 1.000000144208843e+01
0	 5.714291269874075e+00	 6.000009511162681e+00	 1.000000144210128e+01
0	 5.714291269874075e+00	 6.142869048474792e+00	 1.000000144212273e+01
0	 5.714291269874074e+00	 6.285728819120712e+00	 1.000000144215274e+01
0	 5.714291269874074e+00	 6.428588789766899e+00	 1.000000144219133e+01
0	 5.714291269874074e+00	 6.571448927079808e+00	 1.000000144223849e+01
0	 5.714291269874073e+00	 6.714309197725894e+00	 1.000000144229423e+01
0	 5.714291269874074e+00	 6.857169568371616e+00	 1.000000144235855e+01
0	 5.714291269874074e+00	 7.000030005683425e+00	 1.000000144243143e+01
0	 5.714291269874075e+00	 7.142890476327779e+00	 1.000000144251290e+01
0	 5.857150240517929e+00	 5.714291269874074e+00	 1.000000105843035e+01
0	 5.857150240517927e+00	 5.857150240517928e+00	 1.000000105843464e+01
0	 5.857150240517927e+00	 6.000009511162682e+00	 1.000000105844750e+01
0	 5.857150240517927e+00	 6.142869048474792e+00	 1.000000105846895e+01
0	 5.857150240517929e+00	 6.285728819120712e+00	 1.000000105849896e+01
0	 5.857150240517929e+00	 6.428588789766900e+00	 1.000000105853754e+01
0	 5.857150240517926e+00	 6.571448927079809e+00	 1.000000105858470e+01
0	 5.857150240517927e+00	 6.714309197725898e+00	 1.000000105864044e+01
0	 5.857150240517929e+00	 6.857169568371616e+00	 1.000000105870476e+01
0	 5.857150240517928e+00	 7.000030005683427e+00	 1.000000105877766e+01
0	 5.857150240517928e+00	 7.142890476327779e+00	 1.000000105885911e+01
0	 6.000009511162681e+00	 5.714291269874075e+00	 1.000000071516095e+01
0	 6.000009511162682e+00	 5.857150240517926e+00	 1.000000071516526e+01
0	 6.000009511162683e+00	 6.000009511162682e+00	 1.000000071517811e+01
0	 6.000009511162680e+00	 6.142869048474790e+00	 1.000000071519955e+01
0	 6.000009511162682e+00	 6.285728819120712e+00	 1.000000071522957e+01
0	 6.000009511162681e+00	 6.428588789766899e+00	 1.000000071526815e+01
0	 6.000009511162682e+00	 6.571448927079808e+00	 1.000000071531531e+01
0	 6.000009511162682e+00	 6.714309197725895e+00	 1.000000071537106e+01
0	 6.000009511162681e+00	 6.857169568371617e+00	 1.000000071543537e+01
0	 6.000009511162682e+00	 7.000030005683427e+00	 1.000000071550826e+01
0	 6.000009511162683e+00	 7.142890476327777e+00	 1.000000071558972e+01
0	 6.142869048474792e+00	 5.714291269874074e+00	 1.000000041227548e+01
0	 6.142869048474791e+00	 5.857150240517928e+00	 1.000000041227977e+01
0	 6.142869048474792e+00	 6.000009511162682e+00	 1.000000041229264e+01
0	 6.142869048474790e+00	 6.142869048474791e+00	 1.000000041231407e+01
0	 6.142869048474792e+00	 6.285728819120711e+00	 1.000000041234409e+01
0	 6.142869048474791e+00	 6.428588789766899e+00	 1.000000041238268e+01
0	 6.142869048474790e+00	 6.571448927079809e+00	 1.000000041242983e+01
0	 6.142869048474791e+00	 6.714309197725896e+00	 1.000000041248558e+01
0	 6.142869048474791e+00	 6.857169568371615e+00	 1.000000041254990e+01
0	 6.142869048474793e+00	 7.000030005683427e+00	 1.000000041262278e+01
0	 6.142869048474791e+00	 7.142890476327777e+00	 1.000000041270425e+01
0	 6.285728819120712e+00	 5.714291269874074e+00	 1.000000014977349e+01
0	 6.285728819120714e+00	 5.857150240517929e+00	 1.000000014977779e+01
0	 6.285728819120712e+00	 6.000009511162681e+00	 1.000000014979064e+01
0	 6.285728819120713e+00	 6.142869048474793e+00	 1.000000014981208e+01
0	 6.285728819120712e+00	 6.285728819120711e+00	 1.000000014984210e+01
0	 6.285728819120711e+00	 6.428588789766899e+00	 1.000000014988068e+01
0	 6.285728819120712e+00	 6.571448927079810e+00	 1.000000014992785e+01
0	 6.285728819120712e+00	 6.714309197725895e+00	 1.000000014998358e+01
0	 6.285728819120713e+00	 6.857169568371617e+00	 1.000000015004790e+01
0	 6.285728819120711e+00	 7.000030005683425e+00	 1.000000015012079e+01
0	 6.285728819120710e+00	 7.142890476327774e+00	 1.000000015020225e+01
0	 6.428588789766900e+00	 5.714291269874074e+00	 9.999999927654619e+00
0	 6.428588789766901e+00	 5.857150240517928e+00	 9.999999927658912e+00
0	 6.428588789766900e+00	 6.000009511162681e+00	 9.999999927671778e+00
0	 6.428588789766900e+00	 6.142869048474791e+00	 9.999999927693214e+00
0	 6.428588789766899e+00	 6.285728819120711e+00	 9.999999927723229e+00
0	 6.428588789766897e+00	 6.428588789766898e+00	 9.999999927761817e+00
0	 6.428588789766899e+00	 6.571448927079810e+00	 9.999999927808986e+00
0	 6.428588789766899e+00	 6.714309197725896e+00	 9.999999927864717e+00
0	 6.428588789766899e+00	 6.857169568371616e+00	 9.999999927929027e+00
0	 6.428588789766900e+00	 7.000030005683428e+00	 9.999999928001920e+00
0	 6.428588789766899e+00	 7.142890476327778e+00	 9.999999928083380e+00
0	 6.571448927079809e+00	 5.714291269874074e+00	 9.999999745918558e+00
0	 6.571448927079807e+00	 5.857150240517928e+00	 9.999999745922850e+00
0	 6.571448927079808e+00	 6.000009511162682e+00	 9.999999745935709e+00
0	 6.571448927079809e+00	 6.142869048474791e+00	 9.999999745957160e+00
0	 6.571448927079809e+00	 6.285728819120713e+00	 9.999999745987161e+00
0	 6.571448927079809e+00	 6.428588789766900e+00	 9.999999746025745e+00
0	 6.571448927079807e+00	 6.571448927079806e+00	 9.999999746072916e+00
0	 6.571448927079808e+00	 6.714309197725895e+00	 9.999999746128656e+00
0	 6.571448927079810e+00	 6.857169568371617e+00	 9.999999746192973e+00
0	 6.571448927079808e+00	 7.000030005683424e+00	 9.999999746265859e+00
0	 6.571448927079808e+00	 7.142890476327775e+00	 9.999999746347324e+00
0	 6.714309197725894e+00	 5.714291269874073e+00	 9.999999604565057e+00
0	 6.714309197725897e+00	 5.857150240517926e+00	 9.999999604569348e+00
0	 6.714309197725895e+00	 6.000009511162681e+00	 9.999999604582214e+00
0	 6.714309197725896e+00	 6.142869048474791e+00	 9.999999604603653e+00
0	 6.714309197725894e+00	 6.285728819120709e+00	 9.999999604633658e+00
0	 6.714309197725894e+00	 6.428588789766899e+00	 9.999999604672251e+00
0	 6.714309197725897e+00	 6.571448927079810e+00	 9.999999604719415e+00
0	 6.714309197725897e+00	 6.714309197725897e+00	 9.999999604775150e+00
0	 6.714309197725896e+00	 6.857169568371615e+00	 9.999999604839466e+00
0	 6.714309197725895e+00	 7.000030005683426e+00	 9.999999604912350e+00
0	 6.714309197725897e+00	 7.142890476327777e+00	 9.999999604993821e+00
0	 6.857169568371618e+00	 5.714291269874074e+00	 9.999999503593909e+00
0	 6.857169568371616e+00	 5.857150240517928e+00	 9.999999503598199e+00
0	 6.857169568371616e+00	 6.000009511162682e+00	 9.999999503611061e+00
0	 6.857169568371615e+00	 6.142869048474790e+00	 9.999999503632498e+00
0	 6.857169568371615e+00	 6.285728819120711e+00	 9.999999503662508e+00
0	 6.857169568371617e+00	 6.428588789766900e+00	 9.999999503701101e+00
0	 6.857169568371616e+00	 6.571448927079810e+00	 9.999999503748263e+00
0	 6.857169568371616e+00	 6.714309197725895e+00	 9.999999503803998e+00
0	 6.857169568371616e+00	 6.857169568371615e+00	 9.999999503868311e+00
0	 6.857169568371615e+00	 7.000030005683424e+00	 9.999999503941201e+00
0	 6.857169568371616e+00	 7.142890476327776e+00	 9.999999504022664e+00
0	 7.000030005683426e+00	 5.714291269874074e+00	 9.999999443004976e+00
0	 7.000030005683425e+00	 5.857150240517927e+00	 9.999999443009266e+00
0	 7.000030005683426e+00	 6.000009511162682e+00	 9.999999443022126e+00
0	 7.000030005683427e+00	 6.142869048474792e+00	 9.999999443043565e+00
0	 7.000030005683427e+00	 6.285728819120712e+00	 9.999999443073570e+00
0	 7.000030005683427e+00	 6.428588789766899e+00	 9.999999443112159e+00
0	 7.000030005683426e+00	 6.571448927079808e+00	 9.999999443159332e+00
0	 7.000030005683427e+00	 6.714309197725897e+00	 9.999999443215067e+00
0	 7.000030005683426e+00	 6.857169568371618e+00	 9.999999443279386e+00
0	 7.000030005683425e+00	 7.000030005683425e+00	 9.999999443352269e+00
0	 7.000030005683425e+00	 7.142890476327776e+00	 9.999999443433735e+00
0	 7.142890476327778e+00	 5.714291269874073e+00	 9.999999422798174e+00
0	 7.142890476327777e+00	 5.857150240517927e+00	 9.999999422802462e+00
0	 7.142890476327778e+00	 6.000009511162682e+00	 9.999999422815325e+00
0	 7.142890476327779e+00	 6.142869048474793e+00	 9.999999422836760e+00
0	 7.142890476327777e+00	 6.285728819120713e+00	 9.999999422866775e+00
0	 7.142890476327779e+00	 6.428588789766899e+00	 9.999999422905365e+00
0	 7.142890476327777e+00	 6.571448927079808e+00	 9.999999422952522e+00
0	 7.142890476327779e+00	 6.714309197725897e+00	 9.999999423008269e+00
0	 7.142890476327776e+00	 6.857169568371617e+00	 9.999999423072577e+00
0	 7.142890476327777e+00	 7.000030005683425e+00	 9.999999423145475e+00
0	 7.142890476327779e+00	 7.142890476327780e+00	 9.999999423226932e+00
0	 5.714291269874075e+00	 7.142890476327779e+00	 1.000000144251290e+01
0	 5.714291269874074e+00	 7.285740955271013e+00	 1.000000146614721e+01
0	 5.714291269874074e+00	 7.428591450879007e+00	 1.000000153687864e+01
0	 5.714291269874074e+00	 7.571441979817511e+00	 1.000000165470714e+01
0	 5.714291269874074e+00	 7.714292558752280e+00	 1.000000181963262e+01
0	 5.714291269874073e+00	 7.857143204349073e+00	 1.000000203165497e+01
0	 5.714291269874073e+00	 7.999993933273643e+00	 1.000000229077404e+01
0	 5.714291269874075e+00	 8.142844762191750e+00	 1.000000259698964e+01
0	 5.714291269874074e+00	 8.285695707769142e+00	 1.000000295030159e+01
0	 5.714291269874074e+00	 8.428546786671575e+00	 1.000000335070960e+01
0	 5.714291269874074e+00	 8.571398015564814e+00	 1.000000379821341e+01
0	 5.857150240517928e+00	 7.142890476327779e+00	 1.000000105885911e+01
0	 5.857150240517927e+00	 7.285740955271013e+00	 1.000000108249343e+01
0	 5.857150240517927e+00	 7.428591450879007e+00	 1.000000115322486e+01
0	 5.857150240517927e+00	 7.571441979817510e+00	 1.000000127105335e+01
0	 5.857150240517927e+00	 7.714292558752280e+00	 1.000000143597883e+01
0	 5.857150240517927e+00	 7.857143204349071e+00	 1.000000164800118e+01
0	 5.857150240517928e+00	 7.999993933273643e+00	 1.000000190712026e+01
0	 5.857150240517928e+00	 8.142844762191750e+00	 1.000000221333586e+01
0	 5.857150240517929e+00	 8.285695707769140e+00	 1.000000256664780e+01
0	 5.857150240517927e+00	 8.428546786671578e+00	 1.000000296705581e+01
0	 5.857150240517928e+00	 8.571398015564812e+00	 1.000000341455963e+01
0	 6.000009511162683e+00	 7.142890476327777e+00	 1.000000071558972e+01
0	 6.000009511162683e+00	 7.285740955271015e+00	 1.000000073922404e+01
0	 6.000009511162681e+00	 7.428591450879008e+00	 1.000000080995546e+01
0	 6.000009511162683e+00	 7.571441979817513e+00	 1.000000092778397e+01
0	 6.000009511162682e+00	 7.714292558752280e+00	 1.000000109270943e+01
0	 6.000009511162681e+00	 7.857143204349073e+00	 1.000000130473179e+01
0	 6.000009511162682e+00	 7.999993933273643e+00	 1.000000156385086e+01
0	 6.000009511162683e+00	 8.142844762191746e+00	 1.000000187006647e+01
0	 6.000009511162682e+00	 8.285695707769142e+00	 1.000000222337841e+01
0	 6.000009511162681e+00	 8.428546786671577e+00	 1.000000262378643e+01
0	 6.000009511162682e+00	 8.571398015564814e+00	 1.000000307129024e+01
0	 6.142869048474791e+00	 7.142890476327777e+00	 1.000000041270425e+01
0	 6.142869048474791e+00	 7.285740955271013e+00	 1.000000043633856e+01
0	 6.142869048474792e+00	 7.428591450879010e+00	 1.000000050706998e+01
0	 6.142869048474790e+00	 7.571441979817510e+00	 1.000000062489848e+01
0	 6.142869048474791e+00	 7.714292558752281e+00	 1.000000078982395e+01
0	 6.142869048474791e+00	 7.857143204349073e+00	 1.000000100184631e+01
0	 6.142869048474791e+00	 7.999993933273646e+00	 1.000000126096539e+01
0	 6.142869048474790e+00	 8.142844762191746e+00	 1.000000156718100e+01
0	 6.142869048474793e+00	 8.285695707769142e+00	 1.000000192049293e+01
0	 6.142869048474791e+00	 8.428546786671577e+00	 1.000000232090095e+01
0	 6.142869048474791e+00	 8.571398015564814e+00	 1.000000276840476e+01
0	 6.285728819120710e+00	 7.142890476327774e+00	 1.000000015020225e+01
0	 6.285728819120712e+00	 7.285740955271016e+00	 1.000000017383657e+01
0	 6.285728819120713e+00	 7.428591450879009e+00	 1.000000024456799e+01
0	 6.285728819120714e+00	 7.571441979817512e+00	 1.000000036239649e+01
0	 6.285728819120712e+00	 7.714292558752282e+00	 1.000000052732197e+01
0	 6.285728819120714e+00	 7.857143204349075e+00	 1.000000073934433e+01
0	 6.285728819120711e+00	 7.999993933273643e+00	 1.000000099846340e+01
0	 6.285728819120710e+00	 8.142844762191748e+00	 1.000000130467901e+01
0	 6.285728819120710e+00	 8.285695707769138e+00	 1.000000165799094e+01
0	 6.285728819120711e+00	 8.428546786671575e+00	 1.000000205839894e+01
0	 6.285728819120711e+00	 8.571398015564814e+00	 1.000000250590277e+01
0	 6.428588789766899e+00	 7.142890476327778e+00	 9.999999928083380e+00
0	 6.428588789766900e+00	 7.285740955271014e+00	 9.999999951717694e+00
0	 6.428588789766899e+00	 7.428591450879006e+00	 1.000000002244912e+01
0	 6.428588789766897e+00	 7.571441979817508e+00	 1.000000014027763e+01
0	 6.428588789766900e+00	 7.714292558752283e+00	 1.000000030520310e+01
0	 6.428588789766901e+00	 7.857143204349075e+00	 1.000000051722544e+01
0	 6.428588789766899e+00	 7.999993933273642e+00	 1.000000077634452e+01
0	 6.428588789766899e+00	 8.142844762191746e+00	 1.000000108256014e+01
0	 6.428588789766900e+00	 8.285695707769140e+00	 1.000000143587208e+01
0	 6.428588789766900e+00	 8.428546786671575e+00	 1.000000183628009e+01
0	 6.428588789766899e+00	 8.571398015564816e+00	 1.000000228378390e+01
0	 6.571448927079808e+00	 7.142890476327775e+00	 9.999999746347328e+00
0	 6.571448927079807e+00	 7.285740955271014e+00	 9.999999769981642e+00
0	 6.571448927079810e+00	 7.428591450879008e+00	 9.999999840713068e+00
0	 6.571448927079808e+00	 7.571441979817510e+00	 9.999999958541554e+00
0	 6.571448927079808e+00	 7.714292558752280e+00	 1.000000012346704e+01
0	 6.571448927079809e+00	 7.857143204349073e+00	 1.000000033548938e+01
0	 6.571448927079809e+00	 7.999993933273644e+00	 1.000000059460846e+01
0	 6.571448927079810e+00	 8.142844762191746e+00	 1.000000090082407e+01
0	 6.571448927079807e+00	 8.285695707769142e+00	 1.000000125413601e+01
0	 6.571448927079809e+00	 8.428546786671577e+00	 1.000000165454402e+01
0	 6.571448927079809e+00	 8.571398015564816e+00	 1.000000210204783e+01
0	 6.714309197725897e+00	 7.142890476327777e+00	 9.999999604993821e+00
0	 6.714309197725897e+00	 7.285740955271015e+00	 9.999999628628128e+00
0	 6.714309197725897e+00	 7.428591450879009e+00	 9.999999699359552e+00
0	 6.714309197725894e+00	 7.571441979817509e+00	 9.999999817188058e+00
0	 6.714309197725894e+00	 7.714292558752279e+00	 9.999999982113545e+00
0	 6.714309197725896e+00	 7.857143204349073e+00	 1.000000019413589e+01
0	 6.714309197725898e+00	 7.999993933273644e+00	 1.000000045325496e+01
0	 6.714309197725897e+00	 8.142844762191748e+00	 1.000000075947057e+01
0	 6.714309197725896e+00	 8.285695707769140e+00	 1.000000111278251e+01
0	 6.714309197725896e+00	 8.428546786671577e+00	 1.000000151319052e+01
0	 6.714309197725896e+00	 8.571398015564816e+00	 1.000000196069432e+01
0	 6.857169568371616e+00	 7.142890476327776e+00	 9.999999504022666e+00
0	 6.857169568371615e+00	 7.285740955271014e+00	 9.999999527656984e+00
0	 6.857169568371617e+00	 7.428591450879008e+00	 9.999999598388415e+00
0	 6.857169568371615e+00	 7.571441979817509e+00	 9.999999716216907e+00
0	 6.857169568371615e+00	 7.714292558752279e+00	 9.999999881142379e+00
0	 6.857169568371615e+00	 7.857143204349074e+00	 1.000000009316474e+01
0	 6.857169568371616e+00	 7.999993933273645e+00	 1.000000035228381e+01
0	 6.857169568371616e+00	 8.142844762191746e+00	 1.000000065849941e+01
0	 6.857169568371616e+00	 8.285695707769140e+00	 1.000000101181136e+01
0	 6.857169568371615e+00	 8.428546786671577e+00	 1.000000141221937e+01
0	 6.857169568371619e+00	 8.571398015564817e+00	 1.000000185972318e+01
0	 7.000030005683425e+00	 7.142890476327776e+00	 9.999999443433735e+00
0	 7.000030005683427e+00	 7.285740955271014e+00	 9.999999467068053e+00
0	 7.000030005683425e+00	 7.428591450879006e+00	 9.999999537799480e+00
0	 7.000030005683423e+00	 7.571441979817509e+00	 9.999999655627970e+00
0	 7.000030005683427e+00	 7.714292558752282e+00	 9.999999820553455e+00
0	 7.000030005683427e+00	 7.857143204349073e+00	 1.000000003257580e+01
0	 7.000030005683426e+00	 7.999993933273643e+00	 1.000000029169487e+01
0	 7.000030005683425e+00	 8.142844762191746e+00	 1.000000059791049e+01
0	 7.000030005683426e+00	 8.285695707769142e+00	 1.000000095122241e+01
0	 7.000030005683426e+00	 8.428546786671577e+00	 1.000000135163043e+01
0	 7.000030005683427e+00	 8.571398015564817e+00	 1.000000179913424e+01
0	 7.142890476327779e+00	 7.142890476327780e+00	 9.999999423226932e+00
0	 7.142890476327778e+00	 7.285740955271013e+00	 9.999999446861240e+00
0	 7.142890476327779e+00	 7.428591450879007e+00	 9.999999517592673e+00
0	 7.142890476327778e+00	 7.571441979817512e+00	 9.999999635421164e+00
0	 7.142890476327777e+00	 7.714292558752281e+00	 9.999999800346657e+00
0	 7.142890476327778e+00	 7.857143204349074e+00	 1.000000001236900e+01
0	 7.142890476327777e+00	 7.999993933273643e+00	 1.000000027148808e+01
0	 7.142890476327778e+00	 8.142844762191746e+00	 1.000000057770368e+01
0	 7.142890476327778e+00	 8.285695707769140e+00	 1.000000093101562e+01
0	 7.142890476327778e+00	 8.428546786671575e+00	 1.000000133142363e+01
0	 7.142890476327779e+00	 8.571398015564816e+00	 1.000000177892744e+01
0	 5.714291269874074e+00	 8.571398015564814e+00	 1.000000379821340e+01
0	 5.714291269874074e+00	 8.714259388995403e+00	 1.000000410440068e+01
0	 5.714291269874074e+00	 8.857120812436385e+00	 1.000000408079405e+01
0	 5.714291269874075e+00	 8.999982169218283e+00	 1.000000372739338e+01
0	 5.714291269874074e+00	 9.142843342671599e+00	 1.000000304419698e+01
0	 5.714291269874074e+00	 9.285704216126854e+00	 1.000000203120147e+01
0	 5.714291269874074e+00	 9.428564672914547e+00	 1.000000068840192e+01
0	 5.714291269874074e+00	 9.571424596365199e+00	 9.999999015791726e+00
0	 5.714291269874074e+00	 9.714283869809320e+00	 9.999997013362691e+00
0	 5.714291269874074e+00	 9.857142376577416e+00	 9.999994681104976e+00
0	 5.714291269874075e+00	 1.000000000000000e+01	 9.999992019007205e+00
0	 5.857150240517928e+00	 8.571398015564812e+00	 1.000000341455963e+01
0	 5.857150240517928e+00	 8.714259388995403e+00	 1.000000372074690e+01
0	 5.857150240517929e+00	 8.857120812436387e+00	 1.000000369714026e+01
0	 5.857150240517928e+00	 8.999982169218283e+00	 1.000000334373960e+01
0	 5.857150240517929e+00	 9.142843342671602e+00	 1.000000266054320e+01
0	 5.857150240517929e+00	 9.285704216126856e+00	 1.000000164754769e+01
0	 5.857150240517928e+00	 9.428564672914547e+00	 1.000000030474813e+01
0	 5.857150240517930e+00	 9.571424596365201e+00	 9.999998632137928e+00
0	 5.857150240517927e+00	 9.714283869809320e+00	 9.999996629708882e+00
0	 5.857150240517928e+00	 9.857142376577416e+00	 9.999994297451192e+00
0	 5.857150240517928e+00	 1.000000000000000e+01	 9.999991635353467e+00
0	 6.000009511162682e+00	 8.571398015564814e+00	 1.000000307129024e+01
0	 6.000009511162683e+00	 8.714259388995401e+00	 1.000000337747750e+01
0	 6.000009511162681e+00	 8.857120812436385e+00	 1.000000335387086e+01
0	 6.000009511162683e+00	 8.999982169218280e+00	 1.000000300047020e+01
0	 6.000009511162683e+00	 9.142843342671600e+00	 1.000000231727381e+01
0	 6.000009511162682e+00	 9.285704216126851e+00	 1.000000130427830e+01
0	 6.000009511162681e+00	 9.428564672914550e+00	 9.999999961478746e+00
0	 6.000009511162681e+00	 9.571424596365203e+00	 9.999998288868529e+00
0	 6.000009511162682e+00	 9.714283869809318e+00	 9.999996286439480e+00
0	 6.000009511162681e+00	 9.857142376577416e+00	 9.999993954181798e+00
0	 6.000009511162681e+00	 1.000000000000000e+01	 9.999991292084033e+00
0	 6.142869048474791e+00	 8.571398015564814e+00	 1.000000276840476e+01
0	 6.142869048474791e+00	 8.714259388995400e+00	 1.000000307459203e+01
0	 6.142869048474791e+00	 8.857120812436383e+00	 1.000000305098539e+01
0	 6.142869048474793e+00	 8.999982169218281e+00	 1.000000269758473e+01
0	 6.142869048474792e+00	 9.142843342671599e+00	 1.000000201438833e+01
0	 6.142869048474791e+00	 9.285704216126852e+00	 1.000000100139284e+01
0	 6.142869048474791e+00	 9.428564672914549e+00	 9.999999658593268e+00
0	 6.142869048474792e+00	 9.571424596365205e+00	 9.999997985983063e+00
0	 6.142869048474791e+00	 9.714283869809323e+00	 9.999995983554017e+00
0	 6.142869048474791e+00	 9.857142376577418e+00	 9.999993651296327e+00
0	 6.142869048474791e+00	 1.000000000000000e+01	 9.999990989198578e+00
0	 6.285728819120711e+00	 8.571398015564814e+00	 1.000000250590277e+01
0	 6.285728819120712e+00	 8.714259388995400e+00	 1.000000281209003e+01
0	 6.285728819120714e+00	 8.857120812436387e+00	 1.000000278848340e+01
0	 6.285728819120711e+00	 8.999982169218280e+00	 1.000000243508274e+01
0	 6.285728819120712e+00	 9.142843342671600e+00	 1.000000175188634e+01
0	 6.285728819120711e+00	 9.285704216126851e+00	 1.000000073889083e+01
0	 6.285728819120713e+00	 9.428564672914550e+00	 9.999999396091262e+00
0	 6.285728819120710e+00	 9.571424596365199e+00	 9.999997723481080e+00
0	 6.285728819120711e+00	 9.714283869809320e+00	 9.999995721052040e+00
0	 6.285728819120711e+00	 9.857142376577420e+00	 9.999993388794330e+00
0	 6.285728819120711e+00	 9.999999999999998e+00	 9.999990726696605e+00
0	 6.428588789766899e+00	 8.571398015564816e+00	 1.000000228378390e+01
0	 6.428588789766899e+00	 8.714259388995398e+00	 1.000000258997116e+01
0	 6.428588789766899e+00	 8.857120812436383e+00	 1.000000256636453e+01
0	 6.428588789766901e+00	 8.999982169218281e+00	 1.000000221296387e+01
0	 6.428588789766901e+00	 9.142843342671599e+00	 1.000000152976747e+01
0	 6.428588789766898e+00	 9.285704216126852e+00	 1.000000051677196e+01
0	 6.428588789766899e+00	 9.428564672914549e+00	 9.999999173972407e+00
0	 6.428588789766899e+00	 9.571424596365201e+00	 9.999997501362193e+00
0	 6.428588789766899e+00	 9.714283869809321e+00	 9.999995498933160e+00
0	 6.428588789766900e+00	 9.857142376577418e+00	 9.999993166675464e+00
0	 6.428588789766900e+00	 1.000000000000000e+01	 9.999990504577690e+00
0	 6.571448927079809e+00	 8.571398015564816e+00	 1.000000210204783e+01
0	 6.571448927079810e+00	 8.714259388995401e+00	 1.000000240823509e+01
0	 6.571448927079808e+00	 8.857120812436381e+00	 1.000000238462846e+01
0	 6.571448927079810e+00	 8.999982169218281e+00	 1.000000203122781e+01
0	 6.571448927079810e+00	 9.142843342671602e+00	 1.000000134803141e+01
0	 6.571448927079809e+00	 9.285704216126852e+00	 1.000000033503591e+01
0	 6.571448927079809e+00	 9.428564672914550e+00	 9.999998992236328e+00
0	 6.571448927079808e+00	 9.571424596365199e+00	 9.999997319626125e+00
0	 6.571448927079809e+00	 9.714283869809318e+00	 9.999995317197108e+00
0	 6.571448927079808e+00	 9.857142376577416e+00	 9.999992984939398e+00
0	 6.571448927079809e+00	 1.000000000000000e+01	 9.999990322841617e+00
0	 6.714309197725896e+00	 8.571398015564816e+00	 1.000000196069432e+01
0	 6.714309197725896e+00	 8.714259388995401e+00	 1.000000226688160e+01
0	 6.714309197725893e+00	 8.857120812436381e+00	 1.000000224327496e+01
0	 6.714309197725895e+00	 8.999982169218281e+00	 1.000000188987430e+01
0	 6.714309197725896e+00	 9.142843342671600e+00	 1.000000120667790e+01
0	 6.714309197725896e+00	 9.285704216126849e+00	 1.000000019368240e+01
0	 6.714309197725896e+00	 9.428564672914550e+00	 9.999998850882836e+00
0	 6.714309197725893e+00	 9.571424596365198e+00	 9.999997178272624e+00
0	 6.714309197725895e+00	 9.714283869809320e+00	 9.999995175843591e+00
0	 6.714309197725897e+00	 9.857142376577420e+00	 9.999992843585924e+00
0	 6.714309197725897e+00	 1.000000000000000e+01	 9.999990181488123e+00
0	 6.857169568371619e+00	 8.571398015564817e+00	 1.000000185972318e+01
0	 6.857169568371617e+00	 8.714259388995400e+00	 1.000000216591044e+01
0	 6.857169568371615e+00	 8.857120812436383e+00	 1.000000214230382e+01
0	 6.857169568371615e+00	 8.999982169218280e+00	 1.000000178890315e+01
0	 6.857169568371617e+00	 9.142843342671600e+00	 1.000000110570676e+01
0	 6.857169568371616e+00	 9.285704216126852e+00	 1.000000009271125e+01
0	 6.857169568371616e+00	 9.428564672914549e+00	 9.999998749911688e+00
0	 6.857169568371618e+00	 9.571424596365203e+00	 9.999997077301483e+00
0	 6.857169568371615e+00	 9.714283869809321e+00	 9.999995074872416e+00
0	 6.857169568371617e+00	 9.857142376577418e+00	 9.999992742614751e+00
0	 6.857169568371615e+00	 1.000000000000000e+01	 9.999990080516939e+00
0	 7.000030005683427e+00	 8.571398015564817e+00	 1.000000179913424e+01
0	 7.000030005683428e+00	 8.714259388995401e+00	 1.000000210532152e+01
0	 7.000030005683427e+00	 8.857120812436387e+00	 1.000000208171488e+01
0	 7.000030005683427e+00	 8.999982169218281e+00	 1.000000172831423e+01
0	 7.000030005683426e+00	 9.142843342671602e+00	 1.000000104511782e+01
0	 7.000030005683424e+00	 9.285704216126851e+00	 1.000000003212233e+01
0	 7.000030005683428e+00	 9.428564672914547e+00	 9.999998689322751e+00
0	 7.000030005683428e+00	 9.571424596365205e+00	 9.999997016712564e+00
0	 7.000030005683426e+00	 9.714283869809320e+00	 9.999995014283510e+00
0	 7.000030005683425e+00	 9.857142376577418e+00	 9.999992682025816e+00
0	 7.000030005683427e+00	 1.000000000000000e+01	 9.999990019928063e+00
0	 7.142890476327779e+00	 8.571398015564816e+00	 1.000000177892744e+01
0	 7.142890476327777e+00	 8.714259388995400e+00	 1.000000208511470e+01
0	 7.142890476327779e+00	 8.857120812436387e+00	 1.000000206150808e+01
0	 7.142890476327777e+00	 8.999982169218281e+00	 1.000000170810742e+01
0	 7.142890476327777e+00	 9.142843342671602e+00	 1.000000102491101e+01
0	 7.142890476327778e+00	 9.285704216126854e+00	 1.000000001191552e+01
0	 7.142890476327778e+00	 9.428564672914549e+00	 9.999998669115952e+00
0	 7.142890476327777e+00	 9.571424596365201e+00	 9.999996996505772e+00
0	 7.142890476327778e+00	 9.714283869809321e+00	 9.999994994076713e+00
0	 7.142890476327778e+00	 9.857142376577414e+00	 9.999992661819000e+00
0	 7.142890476327777e+00	 1.000000000000000e+01	 9.999989999721251e+00
0	 7.142890476327777e+00	 0.000000000000000e+00	 9.999998480490476e+00
0	 7.142890476327779e+00	 1.428576234225852e-01	 9.999998746704113e+00
0	 7.142890476327778e+00	 2.857161301906819e-01	 9.999998979941463e+00
0	 7.142890476327778e+00	 4.285754036348008e-01	 9.999999180203659e+00
0	 7.142890476327778e+00	 5.714353270854531e-01	 9.999999347491691e+00
0	 7.142890476327776e+00	 7.142957838731497e-01	 9.999999481806380e+00
0	 7.142890476327779e+00	 8.571566573284016e-01	 9.999999583148375e+00
0	 7.142890476327779e+00	 1.000017830781720e+00	 9.999999651518181e+00
0	 7.142890476327778e+00	 1.142879187563616e+00	 9.999999686916128e+00
0	 7.142890476327779e+00	 1.285740611004601e+00	 9.999999689342388e+00
0	 7.142890476327779e+00	 1.428601984435185e+00	 9.999999658796984e+00
0	 7.285740955271013e+00	 0.000000000000000e+00	 9.999998470380383e+00
0	 7.285740955271016e+00	 1.428576234225853e-01	 9.999998736594019e+00
0	 7.285740955271014e+00	 2.857161301906819e-01	 9.999998969831367e+00
0	 7.285740955271014e+00	 4.285754036348007e-01	 9.999999170093563e+00
0	 7.285740955271015e+00	 5.714353270854527e-01	 9.999999337381603e+00
0	 7.285740955271014e+00	 7.142957838731498e-01	 9.999999471696281e+00
0	 7.285740955271015e+00	 8.571566573284018e-01	 9.999999573038281e+00
0	 7.285740955271012e+00	 1.000017830781720e+00	 9.999999641408083e+00
0	 7.285740955271013e+00	 1.142879187563616e+00	 9.999999676806034e+00
0	 7.285740955271015e+00	 1.285740611004601e+00	 9.999999679232300e+00
0	 7.285740955271014e+00	 1.428601984435185e+00	 9.999999648686895e+00
0	 7.428591450879007e+00	 0.000000000000000e+00	 9.999998440081617e+00
0	 7.428591450879007e+00	 1.428576234225853e-01	 9.999998706295250e+00
0	 7.428591450879010e+00	 2.857161301906819e-01	 9.999998939532592e+00
0	 7.428591450879007e+00	 4.285754036348006e-01	 9.999999139794790e+00
0	 7.428591450879007e+00	 5.714353270854530e-01	 9.999999307082833e+00
0	 7.428591450879007e+00	 7.142957838731497e-01	 9.999999441397515e+00
0	 7.428591450879008e+00	 8.571566573284018e-01	 9.999999542739511e+00
0	 7.428591450879005e+00	 1.000017830781720e+00	 9.999999611109317e+00
0	 7.428591450879007e+00	 1.142879187563616e+00	 9.999999646507263e+00
0	 7.428591450879006e+00	 1.285740611004601e+00	 9.999999648933526e+00
0	 7.428591450879006e+00	 1.428601984435185e+00	 9.999999618388120e+00
0	 7.571441979817512e+00	 0.000000000000000e+00	 9.999998389594186e+00
0	 7.571441979817510e+00	 1.428576234225853e-01	 9.999998655807820e+00
0	 7.571441979817513e+00	 2.857161301906818e-01	 9.999998889045170e+00
0	 7.571441979817511e+00	 4.285754036348007e-01	 9.999999089307360e+00
0	 7.571441979817511e+00	 5.714353270854530e-01	 9.999999256595400e+00
0	 7.571441979817509e+00	 7.142957838731497e-01	 9.999999390910084e+00
0	 7.571441979817512e+00	 8.571566573284018e-01	 9.999999492252083e+00
0	 7.571441979817513e+00	 1.000017830781720e+00	 9.999999560621891e+00
0	 7.571441979817512e+00	 1.142879187563616e+00	 9.999999596019840e+00
0	 7.571441979817512e+00	 1.285740611004601e+00	 9.999999598446101e+00
0	 7.571441979817510e+00	 1.428601984435185e+00	 9.999999567900694e+00
0	 7.714292558752281e+00	 0.000000000000000e+00	 9.999998318918138e+00
0	 7.714292558752282e+00	 1.428576234225853e-01	 9.999998585131772e+00
0	 7.714292558752281e+00	 2.857161301906819e-01	 9.999998818369118e+00
0	 7.714292558752282e+00	 4.285754036348008e-01	 9.999999018631318e+00
0	 7.714292558752280e+00	 5.714353270854529e-01	 9.999999185919348e+00
0	 7.714292558752281e+00	 7.142957838731496e-01	 9.999999320234037e+00
0	 7.714292558752281e+00	 8.571566573284017e-01	 9.999999421576035e+00
0	 7.714292558752279e+00	 1.000017830781720e+00	 9.999999489945839e+00
0	 7.714292558752281e+00	 1.142879187563616e+00	 9.999999525343783e+00
0	 7.714292558752281e+00	 1.285740611004601e+00	 9.999999527770051e+00
0	 7.714292558752281e+00	 1.428601984435185e+00	 9.999999497224646e+00
0	 7.857143204349074e+00	 0.000000000000000e+00	 9.999998228053514e+00
0	 7.857143204349071e+00	 1.428576234225853e-01	 9.999998494267150e+00
0	 7.857143204349072e+00	 2.857161301906819e-01	 9.999998727504497e+00
0	 7.857143204349071e+00	 4.285754036348006e-01	 9.999998927766699e+00
0	 7.857143204349073e+00	 5.714353270854531e-01	 9.999999095054728e+00
0	 7.857143204349072e+00	 7.142957838731496e-01	 9.999999229369413e+00
0	 7.857143204349074e+00	 8.571566573284017e-01	 9.999999330711415e+00
0	 7.857143204349074e+00	 1.000017830781720e+00	 9.999999399081217e+00
0	 7.857143204349074e+00	 1.142879187563616e+00	 9.999999434479170e+00
0	 7.857143204349072e+00	 1.285740611004601e+00	 9.999999436905421e+00
0	 7.857143204349073e+00	 1.428601984435185e+00	 9.999999406360022e+00
0	 7.999993933273645e+00	 0.000000000000000e+00	 9.999998117000386e+00
0	 7.999993933273646e+00	 1.428576234225853e-01	 9.999998383214020e+00
0	 7.999993933273644e+00	 2.857161301906819e-01	 9.999998616451359e+00
0	 7.999993933273644e+00	 4.285754036348007e-01	 9.999998816713559e+00
0	 7.999993933273645e+00	 5.714353270854532e-01	 9.999998984001593e+00
0	 7.999993933273646e+00	 7.142957838731498e-01	 9.999999118316277e+00
0	 7.999993933273643e+00	 8.571566573284015e-01	 9.999999219658280e+00
0	 7.999993933273644e+00	 1.000017830781720e+00	 9.999999288028087e+00
0	 7.999993933273642e+00	 1.142879187563616e+00	 9.999999323426032e+00
0	 7.999993933273643e+00	 1.285740611004601e+00	 9.999999325852302e+00
0	 7.999993933273644e+00	 1.428601984435185e+00	 9.999999295306893e+00
0	 8.142844762191748e+00	 0.000000000000000e+00	 9.999997985758823e+00
0	 8.142844762191746e+00	 1.428576234225853e-01	 9.999998251972459e+00
0	 8.142844762191748e+00	 2.857161301906819e-01	 9.999998485209808e+00
0	 8.142844762191748e+00	 4.285754036348007e-01	 9.999998685472002e+00
0	 8.142844762191746e+00	 5.714353270854530e-01	 9.999998852760040e+00
0	 8.142844762191745e+00	 7.142957838731496e-01	 9.999998987074722e+00
0	 8.142844762191748e+00	 8.571566573284017e-01	 9.999999088416718e+00
0	 8.142844762191748e+00	 1.000017830781720e+00	 9.999999156786526e+00
0	 8.142844762191746e+00	 1.142879187563616e+00	 9.999999192184472e+00
0	 8.142844762191748e+00	 1.285740611004601e+00	 9.999999194610734e+00
0	 8.142844762191746e+00	 1.428601984435185e+00	 9.999999164065331e+00
0	 8.285695707769140e+00	 0.000000000000000e+00	 9.999997834328923e+00
0	 8.285695707769138e+00	 1.428576234225852e-01	 9.999998100542557e+00
0	 8.285695707769140e+00	 2.857161301906819e-01	 9.999998333779915e+00
0	 8.285695707769142e+00	 4.285754036348008e-01	 9.999998534042104e+00
0	 8.285695707769143e+00	 5.714353270854531e-01	 9.999998701330131e+00
0	 8.285695707769142e+00	 7.142957838731496e-01	 9.999998835644815e+00
0	 8.285695707769142e+00	 8.571566573284017e-01	 9.999998936986820e+00
0	 8.285695707769142e+00	 1.000017830781720e+00	 9.999999005356626e+00
0	 8.285695707769142e+00	 1.142879187563616e+00	 9.999999040754574e+00
0	 8.285695707769140e+00	 1.285740611004601e+00	 9.999999043180836e+00
0	 8.285695707769142e+00	 1.428601984435185e+00	 9.999999012635426e+00
0	 8.428546786671577e+00	 0.000000000000000e+00	 9.999997662710790e+00
0	 8.428546786671578e+00	 1.428576234225853e-01	 9.999997928924422e+00
0	 8.428546786671578e+00	 2.857161301906819e-01	 9.999998162161772e+00
0	 8.428546786671577e+00	 4.285754036348006e-01	 9.999998362423968e+00
0	 8.428546786671577e+00	 5.714353270854531e-01	 9.999998529711998e+00
0	 8.428546786671577e+00	 7.142957838731497e-01	 9.999998664026686e+00
0	 8.428546786671577e+00	 8.571566573284017e-01	 9.999998765368684e+00
0	 8.428546786671577e+00	 1.000017830781720e+00	 9.999998833738490e+00
0	 8.428546786671578e+00	 1.142879187563616e+00	 9.999998869136437e+00
0	 8.428546786671578e+00	 1.285740611004601e+00	 9.999998871562704e+00
0	 8.428546786671578e+00	 1.428601984435185e+00	 9.999998841017295e+00
0	 8.571398015564816e+00	 0.000000000000000e+00	 9.999997470904542e+00
0	 8.571398015564816e+00	 1.428576234225853e-01	 9.999997737118173e+00
0	 8.571398015564816e+00	 2.857161301906819e-01	 9.999997970355524e+00
0	 8.571398015564816e+00	 4.285754036348007e-01	 9.999998170617719e+00
0	 8.571398015564812e+00	 5.714353270854530e-01	 9.999998337905755e+00
0	 8.571398015564816e+00	 7.142957838731496e-01	 9.999998472220442e+00
0	 8.571398015564817e+00	 8.571566573284017e-01	 9.999998573562436e+00
0	 8.571398015564816e+00	 1.000017830781720e+00	 9.999998641932242e+00
0	 8.571398015564816e+00	 1.142879187563616e+00	 9.999998677330190e+00
0	 8.571398015564814e+00	 1.285740611004601e+00	 9.999998679756455e+00
0	 8.571398015564817e+00	 1.428601984435185e+00	 9.999998649211049e+00
0	 7.142890476327779e+00	 1.428601984435185e+00	 9.999999658796984e+00
0	 7.142890476327779e+00	 1.571453213328422e+00	 9.999999614116057e+00
0	 7.142890476327778e+00	 1.714304292230859e+00	 9.999999574129284e+00
0	 7.142890476327777e+00	 1.857155237808251e+00	 9.999999538836668e+00
0	 7.142890476327778e+00	 2.000006066726356e+00	 9.999999508238259e+00
0	 7.142890476327777e+00	 2.142856795650926e+00	 9.999999482334070e+00
0	 7.142890476327775e+00	 2.285707441247718e+00	 9.999999461124119e+00
0	 7.142890476327777e+00	 2.428558020182488e+00	 9.999999444608424e+00
0	 7.142890476327778e+00	 2.571408549120992e+00	 9.999999432786980e+00
0	 7.142890476327778e+00	 2.714259044728984e+00	 9.999999425659823e+00
0	 7.142890476327779e+00	 2.857109523672222e+00	 9.999999423226932e+00
0	 7.285740955271014e+00	 1.428601984435185e+00	 9.999999648686895e+00
0	 7.285740955271013e+00	 1.571453213328422e+00	 9.999999604005962e+00
0	 7.285740955271013e+00	 1.714304292230858e+00	 9.999999564019184e+00
0	 7.285740955271017e+00	 1.857155237808252e+00	 9.999999528726574e+00
0	 7.285740955271013e+00	 2.000006066726355e+00	 9.999999498128172e+00
0	 7.285740955271013e+00	 2.142856795650925e+00	 9.999999472223980e+00
0	 7.285740955271015e+00	 2.285707441247718e+00	 9.999999451014030e+00
0	 7.285740955271014e+00	 2.428558020182489e+00	 9.999999434498328e+00
0	 7.285740955271015e+00	 2.571408549120993e+00	 9.999999422676892e+00
0	 7.285740955271016e+00	 2.714259044728984e+00	 9.999999415549723e+00
0	 7.285740955271015e+00	 2.857109523672223e+00	 9.999999413116843e+00
0	 7.428591450879006e+00	 1.428601984435185e+00	 9.999999618388122e+00
0	 7.428591450879007e+00	 1.571453213328422e+00	 9.999999573707196e+00
0	 7.428591450879007e+00	 1.714304292230859e+00	 9.999999533720414e+00
0	 7.428591450879008e+00	 1.857155237808252e+00	 9.999999498427812e+00
0	 7.428591450879007e+00	 2.000006066726355e+00	 9.999999467829390e+00
0	 7.428591450879008e+00	 2.142856795650926e+00	 9.999999441925207e+00
0	 7.428591450879007e+00	 2.285707441247718e+00	 9.999999420715257e+00
0	 7.428591450879007e+00	 2.428558020182488e+00	 9.999999404199562e+00
0	 7.428591450879007e+00	 2.571408549120992e+00	 9.999999392378122e+00
0	 7.428591450879007e+00	 2.714259044728984e+00	 9.999999385250954e+00
0	 7.428591450879008e+00	 2.857109523672222e+00	 9.999999382818075e+00
0	 7.571441979817510e+00	 1.428601984435185e+00	 9.999999567900694e+00
0	 7.571441979817513e+00	 1.571453213328422e+00	 9.999999523219770e+00
0	 7.571441979817509e+00	 1.714304292230859e+00	 9.999999483232987e+00
0	 7.571441979817510e+00	 1.857155237808251e+00	 9.999999447940379e+00
0	 7.571441979817508e+00	 2.000006066726355e+00	 9.999999417341970e+00
0	 7.571441979817511e+00	 2.142856795650925e+00	 9.999999391437786e+00
0	 7.571441979817510e+00	 2.285707441247718e+00	 9.999999370227826e+00
0	 7.571441979817509e+00	 2.428558020182487e+00	 9.999999353712134e+00
0	 7.571441979817509e+00	 2.571408549120991e+00	 9.999999341890691e+00
0	 7.571441979817511e+00	 2.714259044728984e+00	 9.999999334763535e+00
0	 7.571441979817511e+00	 2.857109523672222e+00	 9.999999332330642e+00
0	 7.714292558752281e+00	 1.428601984435185e+00	 9.999999497224643e+00
0	 7.714292558752279e+00	 1.571453213328422e+00	 9.999999452543719e+00
0	 7.714292558752281e+00	 1.714304292230859e+00	 9.999999412556940e+00
0	 7.714292558752278e+00	 1.857155237808251e+00	 9.999999377264327e+00
0	 7.714292558752280e+00	 2.000006066726355e+00	 9.999999346665920e+00
0	 7.714292558752281e+00	 2.142856795650926e+00	 9.999999320761738e+00
0	 7.714292558752280e+00	 2.285707441247717e+00	 9.999999299551774e+00
0	 7.714292558752280e+00	 2.428558020182488e+00	 9.999999283036079e+00
0	 7.714292558752281e+00	 2.571408549120992e+00	 9.999999271214641e+00
0	 7.714292558752281e+00	 2.714259044728985e+00	 9.999999264087483e+00
0	 7.714292558752280e+00	 2.857109523672222e+00	 9.999999261654592e+00
0	 7.857143204349073e+00	 1.428601984435185e+00	 9.999999406360022e+00
0	 7.857143204349073e+00	 1.571453213328422e+00	 9.999999361679095e+00
0	 7.857143204349074e+00	 1.714304292230859e+00	 9.999999321692311e+00
0	 7.857143204349075e+00	 1.857155237808252e+00	 9.999999286399717e+00
0	 7.857143204349072e+00	 2.000006066726355e+00	 9.999999255801299e+00
0	 7.857143204349075e+00	 2.142856795650926e+00	 9.999999229897114e+00
0	 7.857143204349073e+00	 2.285707441247718e+00	 9.999999208687161e+00
0	 7.857143204349071e+00	 2.428558020182488e+00	 9.999999192171460e+00
0	 7.857143204349073e+00	 2.571408549120992e+00	 9.999999180350024e+00
0	 7.857143204349076e+00	 2.714259044728984e+00	 9.999999173222861e+00
0	 7.857143204349074e+00	 2.857109523672223e+00	 9.999999170789971e+00
0	 7.999993933273644e+00	 1.428601984435185e+00	 9.999999295306893e+00
0	 7.999993933273644e+00	 1.571453213328422e+00	 9.999999250625967e+00
0	 7.999993933273644e+00	 1.714304292230859e+00	 9.999999210639192e+00
0	 7.999993933273643e+00	 1.857155237808251e+00	 9.999999175346581e+00
0	 7.999993933273643e+00	 2.000006066726355e+00	 9.999999144748173e+00
0	 7.999993933273645e+00	 2.142856795650926e+00	 9.999999118843981e+00
0	 7.999993933273644e+00	 2.285707441247718e+00	 9.999999097634031e+00
0	 7.999993933273642e+00	 2.428558020182489e+00	 9.999999081118329e+00
0	 7.999993933273646e+00	 2.571408549120993e+00	 9.999999069296891e+00
0	 7.999993933273644e+00	 2.714259044728985e+00	 9.999999062169730e+00
0	 7.999993933273644e+00	 2.857109523672223e+00	 9.999999059736844e+00
0	 8.142844762191746e+00	 1.428601984435185e+00	 9.999999164065331e+00
0	 8.142844762191748e+00	 1.571453213328422e+00	 9.999999119384405e+00
0	 8.142844762191748e+00	 1.714304292230859e+00	 9.999999079397623e+00
0	 8.142844762191746e+00	 1.857155237808251e+00	 9.999999044105021e+00
0	 8.142844762191748e+00	 2.000006066726355e+00	 9.999999013506605e+00
0	 8.142844762191750e+00	 2.142856795650926e+00	 9.999998987602416e+00
0	 8.142844762191746e+00	 2.285707441247718e+00	 9.999998966392461e+00
0	 8.142844762191750e+00	 2.428558020182489e+00	 9.999998949876771e+00
0	 8.142844762191750e+00	 2.571408549120993e+00	 9.999998938055320e+00
0	 8.142844762191752e+00	 2.714259044728985e+00	 9.999998930928166e+00
0	 8.142844762191750e+00	 2.857109523672223e+00	 9.999998928495277e+00
0	 8.285695707769142e+00	 1.428601984435185e+00	 9.999999012635426e+00
0	 8.285695707769140e+00	 1.571453213328422e+00	 9.999998967954500e+00
0	 8.285695707769140e+00	 1.714304292230859e+00	 9.999998927967718e+00
0	 8.285695707769140e+00	 1.857155237808251e+00	 9.999998892675110e+00
0	 8.285695707769140e+00	 2.000006066726355e+00	 9.999998862076707e+00
0	 8.285695707769142e+00	 2.142856795650925e+00	 9.999998836172516e+00
0	 8.285695707769138e+00	 2.285707441247717e+00	 9.999998814962565e+00
0	 8.285695707769140e+00	 2.428558020182488e+00	 9.999998798446864e+00
0	 8.285695707769143e+00	 2.571408549120993e+00	 9.999998786625426e+00
0	 8.285695707769143e+00	 2.714259044728985e+00	 9.999998779498267e+00
0	 8.285695707769140e+00	 2.857109523672222e+00	 9.999998777065379e+00
0	 8.428546786671578e+00	 1.428601984435185e+00	 9.999998841017295e+00
0	 8.428546786671577e+00	 1.571453213328422e+00	 9.999998796336369e+00
0	 8.428546786671578e+00	 1.714304292230859e+00	 9.999998756349589e+00
0	 8.428546786671578e+00	 1.857155237808252e+00	 9.999998721056976e+00
0	 8.428546786671577e+00	 2.000006066726355e+00	 9.999998690458574e+00
0	 8.428546786671577e+00	 2.142856795650925e+00	 9.999998664554386e+00
0	 8.428546786671577e+00	 2.285707441247718e+00	 9.999998643344439e+00
0	 8.428546786671577e+00	 2.428558020182488e+00	 9.999998626828729e+00
0	 8.428546786671578e+00	 2.571408549120992e+00	 9.999998615007295e+00
0	 8.428546786671578e+00	 2.714259044728985e+00	 9.999998607880134e+00
0	 8.428546786671578e+00	 2.857109523672222e+00	 9.999998605447248e+00
0	 8.571398015564817e+00	 1.428601984435185e+00	 9.999998649211051e+00
0	 8.571398015564816e+00	 1.571453213328422e+00	 9.999998604530123e+00
0	 8.571398015564817e+00	 1.714304292230859e+00	 9.999998564543343e+00
0	 8.571398015564814e+00	 1.857155237808251e+00	 9.999998529250730e+00
0	 8.571398015564816e+00	 2.000006066726355e+00	 9.999998498652319e+00
0	 8.571398015564817e+00	 2.142856795650926e+00	 9.999998472748141e+00
0	 8.571398015564816e+00	 2.285707441247718e+00	 9.999998451538186e+00
0	 8.571398015564816e+00	 2.428558020182488e+00	 9.999998435022487e+00
0	 8.571398015564814e+00	 2.571408549120992e+00	 9.999998423201044e+00
0	 8.571398015564816e+00	 2.714259044728984e+00	 9.999998416073884e+00
0	 8.571398015564814e+00	 2.857109523672223e+00	 9.999998413640995e+00
0	 7.142890476327779e+00	 2.857109523672222e+00	 9.999999423226932e+00
0	 7.142890476327778e+00	 2.999969994316576e+00	 9.999999423145470e+00
0	 7.142890476327778e+00	 3.142830431628385e+00	 9.999999423072575e+00
0	 7.142890476327780e+00	 3.285690802274106e+00	 9.999999423008262e+00
0	 7.142890476327778e+00	 3.428551072920193e+00	 9.999999422952525e+00
0	 7.142890476327777e+00	 3.571411210233102e+00	 9.999999422905359e+00
0	 7.142890476327779e+00	 3.714271180879290e+00	 9.999999422866775e+00
0	 7.142890476327779e+00	 3.857130951525211e+00	 9.999999422836755e+00
0	 7.142890476327780e+00	 3.999990488837321e+00	 9.999999422815321e+00
0	 7.142890476327779e+00	 4.142849759482075e+00	 9.999999422802457e+00
0	 7.142890476327779e+00	 4.285708730125926e+00	 9.999999422798167e+00
0	 7.285740955271015e+00	 2.857109523672223e+00	 9.999999413116843e+00
0	 7.285740955271011e+00	 2.999969994316575e+00	 9.999999413035379e+00
0	 7.285740955271015e+00	 3.142830431628385e+00	 9.999999412962492e+00
0	 7.285740955271015e+00	 3.285690802274107e+00	 9.999999412898172e+00
0	 7.285740955271014e+00	 3.428551072920193e+00	 9.999999412842435e+00
0	 7.285740955271015e+00	 3.571411210233102e+00	 9.999999412795272e+00
0	 7.285740955271014e+00	 3.714271180879289e+00	 9.999999412756679e+00
0	 7.285740955271016e+00	 3.857130951525211e+00	 9.999999412726662e+00
0	 7.285740955271015e+00	 3.999990488837321e+00	 9.999999412705225e+00
0	 7.285740955271012e+00	 4.142849759482074e+00	 9.999999412692365e+00
0	 7.285740955271015e+00	 4.285708730125926e+00	 9.999999412688075e+00
0	 7.428591450879008e+00	 2.857109523672222e+00	 9.999999382818075e+00
0	 7.428591450879006e+00	 2.999969994316576e+00	 9.999999382736609e+00
0	 7.428591450879006e+00	 3.142830431628385e+00	 9.999999382663720e+00
0	 7.428591450879008e+00	 3.285690802274106e+00	 9.999999382599400e+00
0	 7.428591450879006e+00	 3.428551072920193e+00	 9.999999382543660e+00
0	 7.428591450879006e+00	 3.571411210233103e+00	 9.999999382496497e+00
0	 7.428591450879006e+00	 3.714271180879290e+00	 9.999999382457911e+00
0	 7.428591450879009e+00	 3.857130951525210e+00	 9.999999382427895e+00
0	 7.428591450879009e+00	 3.999990488837320e+00	 9.999999382406457e+00
0	 7.428591450879008e+00	 4.142849759482073e+00	 9.999999382393597e+00
0	 7.428591450879009e+00	 4.285708730125926e+00	 9.999999382389303e+00
0	 7.571441979817511e+00	 2.857109523672222e+00	 9.999999332330642e+00
0	 7.571441979817511e+00	 2.999969994316576e+00	 9.999999332249178e+00
0	 7.571441979817509e+00	 3.142830431628385e+00	 9.999999332176284e+00
0	 7.571441979817509e+00	 3.285690802274105e+00	 9.999999332111971e+00
0	 7.571441979817512e+00	 3.428551072920193e+00	 9.999999332056230e+00
0	 7.571441979817511e+00	 3.571411210233104e+00	 9.999999332009066e+00
0	 7.571441979817510e+00	 3.714271180879290e+00	 9.999999331970486e+00
0	 7.571441979817513e+00	 3.857130951525211e+00	 9.999999331940472e+00
0	 7.571441979817513e+00	 3.999990488837320e+00	 9.999999331919030e+00
0	 7.571441979817513e+00	 4.142849759482075e+00	 9.999999331906169e+00
0	 7.571441979817511e+00	 4.285708730125926e+00	 9.999999331901876e+00
0	 7.714292558752280e+00	 2.857109523672222e+00	 9.999999261654592e+00
0	 7.714292558752280e+00	 2.999969994316575e+00	 9.999999261573123e+00
0	 7.714292558752281e+00	 3.142830431628385e+00	 9.999999261500243e+00
0	 7.714292558752280e+00	 3.285690802274106e+00	 9.999999261435924e+00
0	 7.714292558752280e+00	 3.428551072920192e+00	 9.999999261380180e+00
0	 7.714292558752283e+00	 3.571411210233102e+00	 9.999999261333020e+00
0	 7.714292558752281e+00	 3.714271180879291e+00	 9.999999261294429e+00
0	 7.714292558752280e+00	 3.857130951525209e+00	 9.999999261264424e+00
0	 7.714292558752281e+00	 3.999990488837320e+00	 9.999999261242978e+00
0	 7.714292558752279e+00	 4.142849759482074e+00	 9.999999261230117e+00
0	 7.714292558752279e+00	 4.285708730125925e+00	 9.999999261225829e+00
0	 7.857143204349074e+00	 2.857109523672223e+00	 9.999999170789970e+00
0	 7.857143204349073e+00	 2.999969994316576e+00	 9.999999170708509e+00
0	 7.857143204349076e+00	 3.142830431628385e+00	 9.999999170635613e+00
0	 7.857143204349074e+00	 3.285690802274107e+00	 9.999999170571307e+00
0	 7.857143204349072e+00	 3.428551072920192e+00	 9.999999170515563e+00
0	 7.857143204349075e+00	 3.571411210233104e+00	 9.999999170468399e+00
0	 7.857143204349073e+00	 3.714271180879289e+00	 9.999999170429801e+00
0	 7.857143204349074e+00	 3.857130951525211e+00	 9.999999170399800e+00
0	 7.857143204349073e+00	 3.999990488837320e+00	 9.999999170378359e+00
0	 7.857143204349073e+00	 4.142849759482075e+00	 9.999999170365495e+00
0	 7.857143204349074e+00	 4.285708730125926e+00	 9.999999170361212e+00
0	 7.999993933273644e+00	 2.857109523672223e+00	 9.999999059736840e+00
0	 7.999993933273645e+00	 2.999969994316577e+00	 9.999999059655376e+00
0	 7.999993933273641e+00	 3.142830431628385e+00	 9.999999059582491e+00
0	 7.999993933273644e+00	 3.285690802274106e+00	 9.999999059518172e+00
0	 7.999993933273646e+00	 3.428551072920194e+00	 9.999999059462439e+00
0	 7.999993933273642e+00	 3.571411210233102e+00	 9.999999059415272e+00
0	 7.999993933273642e+00	 3.714271180879290e+00	 9.999999059376671e+00
0	 7.999993933273644e+00	 3.857130951525210e+00	 9.999999059346671e+00
0	 7.999993933273646e+00	 3.999990488837320e+00	 9.999999059325226e+00
0	 7.999993933273645e+00	 4.142849759482074e+00	 9.999999059312369e+00
0	 7.999993933273641e+00	 4.285708730125924e+00	 9.999999059308072e+00
0	 8.142844762191750e+00	 2.857109523672223e+00	 9.999998928495279e+00
0	 8.142844762191746e+00	 2.999969994316576e+00	 9.999998928413817e+00
0	 8.142844762191746e+00	 3.142830431628386e+00	 9.999998928340922e+00
0	 8.142844762191748e+00	 3.285690802274105e+00	 9.999998928276606e+00
0	 8.142844762191746e+00	 3.428551072920193e+00	 9.999998928220867e+00
0	 8.142844762191750e+00	 3.571411210233103e+00	 9.999998928173708e+00
0	 8.142844762191750e+00	 3.714271180879291e+00	 9.999998928135117e+00
0	 8.142844762191748e+00	 3.857130951525211e+00	 9.999998928105100e+00
0	 8.142844762191746e+00	 3.999990488837320e+00	 9.999998928083665e+00
0	 8.142844762191748e+00	 4.142849759482074e+00	 9.999998928070799e+00
0	 8.142844762191748e+00	 4.285708730125926e+00	 9.999998928066514e+00
0	 8.285695707769140e+00	 2.857109523672222e+00	 9.999998777065379e+00
0	 8.285695707769140e+00	 2.999969994316576e+00	 9.999998776983912e+00
0	 8.285695707769140e+00	 3.142830431628385e+00	 9.999998776911022e+00
0	 8.285695707769142e+00	 3.285690802274106e+00	 9.999998776846711e+00
0	 8.285695707769142e+00	 3.428551072920194e+00	 9.999998776790969e+00
0	 8.285695707769140e+00	 3.571411210233102e+00	 9.999998776743807e+00
0	 8.285695707769142e+00	 3.714271180879291e+00	 9.999998776705219e+00
0	 8.285695707769138e+00	 3.857130951525209e+00	 9.999998776675199e+00
0	 8.285695707769142e+00	 3.999990488837320e+00	 9.999998776653763e+00
0	 8.285695707769140e+00	 4.142849759482075e+00	 9.999998776640904e+00
0	 8.285695707769140e+00	 4.285708730125926e+00	 9.999998776636613e+00
0	 8.428546786671578e+00	 2.857109523672222e+00	 9.999998605447244e+00
0	 8.428546786671575e+00	 2.999969994316576e+00	 9.999998605365780e+00
0	 8.428546786671578e+00	 3.142830431628386e+00	 9.999998605292889e+00
0	 8.428546786671578e+00	 3.285690802274107e+00	 9.999998605228576e+00
0	 8.428546786671578e+00	 3.428551072920194e+00	 9.999998605172840e+00
0	 8.428546786671578e+00	 3.571411210233103e+00	 9.999998605125672e+00
0	 8.428546786671578e+00	 3.714271180879290e+00	 9.999998605087082e+00
0	 8.428546786671578e+00	 3.857130951525211e+00	 9.999998605057073e+00
0	 8.428546786671577e+00	 3.999990488837320e+00	 9.999998605035630e+00
0	 8.428546786671578e+00	 4.142849759482075e+00	 9.999998605022766e+00
0	 8.428546786671577e+00	 4.285708730125926e+00	 9.999998605018478e+00
0	 8.571398015564814e+00	 2.857109523672223e+00	 9.999998413640995e+00
0	 8.571398015564816e+00	 2.999969994316575e+00	 9.999998413559537e+00
0	 8.571398015564812e+00	 3.142830431628385e+00	 9.999998413486642e+00
0	 8.571398015564816e+00	 3.285690802274106e+00	 9.999998413422329e+00
0	 8.571398015564816e+00	 3.428551072920193e+00	 9.999998413366590e+00
0	 8.571398015564816e+00	 3.571411210233102e+00	 9.999998413319421e+00
0	 8.571398015564816e+00	 3.714271180879290e+00	 9.999998413280828e+00
0	 8.571398015564816e+00	 3.857130951525211e+00	 9.999998413250822e+00
0	 8.571398015564817e+00	 3.999990488837320e+00	 9.999998413229381e+00
0	 8.571398015564816e+00	 4.142849759482074e+00	 9.999998413216520e+00
0	 8.571398015564817e+00	 4.285708730125926e+00	 9.999998413212230e+00
0	 7.142890476327779e+00	 4.285708730125926e+00	 9.999999422798167e+00
0	 7.142890476327776e+00	 4.428567384102074e+00	 9.999999422798167e+00
0	 7.142890476327778e+00	 4.571425771410667e+00	 9.999999422798169e+00
0	 7.142890476327777e+00	 4.714283958718592e+00	 9.999999422798167e+00
0	 7.142890476327779e+00	 4.857142012692742e+00	 9.999999422798172e+00
0	 7.142890476327777e+00	 5.000000000000001e+00	 9.999999422798165e+00
0	 7.142890476327778e+00	 5.142857987307261e+00	 9.999999422798169e+00
0	 7.142890476327778e+00	 5.285716041281409e+00	 9.999999422798172e+00
0	 7.142890476327777e+00	 5.428574228589334e+00	 9.999999422798176e+00
0	 7.142890476327777e+00	 5.571432615897927e+00	 9.999999422798174e+00
0	 7.142890476327778e+00	 5.714291269874073e+00	 9.999999422798174e+00
0	 7.285740955271015e+00	 4.285708730125926e+00	 9.999999412688075e+00
0	 7.285740955271015e+00	 4.428567384102075e+00	 9.999999412688078e+00
0	 7.285740955271014e+00	 4.571425771410667e+00	 9.999999412688073e+00
0	 7.285740955271017e+00	 4.714283958718593e+00	 9.999999412688076e+00
0	 7.285740955271014e+00	 4.857142012692742e+00	 9.999999412688076e+00
0	 7.285740955271016e+00	 5.000000000000001e+00	 9.999999412688076e+00
0	 7.285740955271012e+00	 5.142857987307261e+00	 9.999999412688073e+00
0	 7.285740955271014e+00	 5.285716041281408e+00	 9.999999412688080e+00
0	 7.285740955271015e+00	 5.428574228589336e+00	 9.999999412688080e+00
0	 7.285740955271014e+00	 5.571432615897928e+00	 9.999999412688073e+00
0	 7.285740955271015e+00	 5.714291269874074e+00	 9.999999412688082e+00
0	 7.428591450879009e+00	 4.285708730125926e+00	 9.999999382389303e+00
0	 7.428591450879008e+00	 4.428567384102075e+00	 9.999999382389309e+00
0	 7.428591450879005e+00	 4.571425771410667e+00	 9.999999382389305e+00
0	 7.428591450879008e+00	 4.714283958718593e+00	 9.999999382389301e+00
0	 7.428591450879007e+00	 4.857142012692742e+00	 9.999999382389301e+00
0	 7.428591450879006e+00	 5.000000000000001e+00	 9.999999382389303e+00
0	 7.428591450879007e+00	 5.142857987307260e+00	 9.999999382389310e+00
0	 7.428591450879007e+00	 5.285716041281409e+00	 9.999999382389305e+00
0	 7.428591450879006e+00	 5.428574228589335e+00	 9.999999382389312e+00
0	 7.428591450879007e+00	 5.571432615897928e+00	 9.999999382389317e+00
0	 7.428591450879008e+00	 5.714291269874074e+00	 9.999999382389312e+00
0	 7.571441979817511e+00	 4.285708730125926e+00	 9.999999331901876e+00
0	 7.571441979817512e+00	 4.428567384102074e+00	 9.999999331901872e+00
0	 7.571441979817512e+00	 4.571425771410667e+00	 9.999999331901876e+00
0	 7.571441979817508e+00	 4.714283958718593e+00	 9.999999331901876e+00
0	 7.571441979817511e+00	 4.857142012692742e+00	 9.999999331901879e+00
0	 7.571441979817513e+00	 5.000000000000001e+00	 9.999999331901881e+00
0	 7.571441979817510e+00	 5.142857987307262e+00	 9.999999331901876e+00
0	 7.571441979817509e+00	 5.285716041281410e+00	 9.999999331901874e+00
0	 7.571441979817512e+00	 5.428574228589337e+00	 9.999999331901881e+00
0	 7.571441979817511e+00	 5.571432615897928e+00	 9.999999331901879e+00
0	 7.571441979817511e+00	 5.714291269874074e+00	 9.999999331901886e+00
0	 7.714292558752279e+00	 4.285708730125925e+00	 9.999999261225829e+00
0	 7.714292558752280e+00	 4.428567384102075e+00	 9.999999261225826e+00
0	 7.714292558752281e+00	 4.571425771410667e+00	 9.999999261225831e+00
0	 7.714292558752281e+00	 4.714283958718593e+00	 9.999999261225829e+00
0	 7.714292558752282e+00	 4.857142012692742e+00	 9.999999261225835e+00
0	 7.714292558752279e+00	 5.000000000000002e+00	 9.999999261225831e+00
0	 7.714292558752283e+00	 5.142857987307262e+00	 9.999999261225833e+00
0	 7.714292558752282e+00	 5.285716041281409e+00	 9.999999261225829e+00
0	 7.714292558752282e+00	 5.428574228589334e+00	 9.999999261225835e+00
0	 7.714292558752281e+00	 5.571432615897927e+00	 9.999999261225835e+00
0	 7.714292558752280e+00	 5.714291269874075e+00	 9.999999261225827e+00
0	 7.857143204349074e+00	 4.285708730125926e+00	 9.999999170361212e+00
0	 7.857143204349076e+00	 4.428567384102076e+00	 9.999999170361214e+00
0	 7.857143204349073e+00	 4.571425771410667e+00	 9.999999170361209e+00
0	 7.857143204349074e+00	 4.714283958718594e+00	 9.999999170361210e+00
0	 7.857143204349072e+00	 4.857142012692741e+00	 9.999999170361212e+00
0	 7.857143204349074e+00	 5.000000000000002e+00	 9.999999170361205e+00
0	 7.857143204349072e+00	 5.142857987307261e+00	 9.999999170361207e+00
0	 7.857143204349073e+00	 5.285716041281408e+00	 9.999999170361203e+00
0	 7.857143204349074e+00	 5.428574228589335e+00	 9.999999170361207e+00
0	 7.857143204349074e+00	 5.571432615897928e+00	 9.999999170361210e+00
0	 7.857143204349075e+00	 5.714291269874074e+00	 9.999999170361212e+00
0	 7.999993933273641e+00	 4.285708730125924e+00	 9.999999059308072e+00
0	 7.999993933273644e+00	 4.428567384102075e+00	 9.999999059308077e+00
0	 7.999993933273642e+00	 4.571425771410667e+00	 9.999999059308083e+00
0	 7.999993933273643e+00	 4.714283958718593e+00	 9.999999059308077e+00
0	 7.999993933273643e+00	 4.857142012692742e+00	 9.999999059308072e+00
0	 7.999993933273643e+00	 5.000000000000001e+00	 9.999999059308081e+00
0	 7.999993933273644e+00	 5.142857987307262e+00	 9.999999059308083e+00
0	 7.999993933273643e+00	 5.285716041281408e+00	 9.999999059308079e+00
0	 7.999993933273645e+00	 5.428574228589335e+00	 9.999999059308077e+00
0	 7.999993933273643e+00	 5.571432615897928e+00	 9.999999059308081e+00
0	 7.999993933273643e+00	 5.714291269874074e+00	 9.999999059308081e+00
0	 8.142844762191748e+00	 4.285708730125926e+00	 9.999998928066514e+00
0	 8.142844762191748e+00	 4.428567384102074e+00	 9.999998928066519e+00
0	 8.142844762191748e+00	 4.571425771410667e+00	 9.999998928066512e+00
0	 8.142844762191746e+00	 4.714283958718594e+00	 9.999998928066509e+00
0	 8.142844762191746e+00	 4.857142012692740e+00	 9.999998928066519e+00
0	 8.142844762191746e+00	 5.000000000000001e+00	 9.999998928066510e+00
0	 8.142844762191748e+00	 5.142857987307259e+00	 9.999998928066518e+00
0	 8.142844762191750e+00	 5.285716041281409e+00	 9.999998928066518e+00
0	 8.142844762191748e+00	 5.428574228589334e+00	 9.999998928066518e+00
0	 8.142844762191748e+00	 5.571432615897929e+00	 9.999998928066519e+00
0	 8.142844762191750e+00	 5.714291269874075e+00	 9.999998928066516e+00
0	 8.285695707769140e+00	 4.285708730125926e+00	 9.999998776636613e+00
0	 8.285695707769140e+00	 4.428567384102073e+00	 9.999998776636618e+00
0	 8.285695707769140e+00	 4.571425771410668e+00	 9.999998776636614e+00
0	 8.285695707769142e+00	 4.714283958718594e+00	 9.999998776636609e+00
0	 8.285695707769142e+00	 4.857142012692742e+00	 9.999998776636613e+00
0	 8.285695707769140e+00	 5.000000000000002e+00	 9.999998776636616e+00
0	 8.285695707769140e+00	 5.142857987307261e+00	 9.999998776636625e+00
0	 8.285695707769140e+00	 5.285716041281408e+00	 9.999998776636613e+00
0	 8.285695707769140e+00	 5.428574228589334e+00	 9.999998776636614e+00
0	 8.285695707769138e+00	 5.571432615897927e+00	 9.999998776636620e+00
0	 8.285695707769140e+00	 5.714291269874073e+00	 9.999998776636618e+00
0	 8.428546786671577e+00	 4.285708730125926e+00	 9.999998605018478e+00
0	 8.428546786671575e+00	 4.428567384102074e+00	 9.999998605018485e+00
0	 8.428546786671578e+00	 4.571425771410667e+00	 9.999998605018483e+00
0	 8.428546786671577e+00	 4.714283958718593e+00	 9.999998605018481e+00
0	 8.428546786671580e+00	 4.857142012692742e+00	 9.999998605018483e+00
0	 8.428546786671575e+00	 5.000000000000000e+00	 9.999998605018474e+00
0	 8.428546786671577e+00	 5.142857987307261e+00	 9.999998605018483e+00
0	 8.428546786671578e+00	 5.285716041281408e+00	 9.999998605018487e+00
0	 8.428546786671575e+00	 5.428574228589335e+00	 9.999998605018479e+00
0	 8.428546786671578e+00	 5.571432615897929e+00	 9.999998605018487e+00
0	 8.428546786671578e+00	 5.714291269874075e+00	 9.999998605018485e+00
0	 8.571398015564817e+00	 4.285708730125926e+00	 9.999998413212230e+00
0	 8.571398015564816e+00	 4.428567384102076e+00	 9.999998413212232e+00
0	 8.571398015564816e+00	 4.571425771410667e+00	 9.999998413212229e+00
0	 8.571398015564816e+00	 4.714283958718593e+00	 9.999998413212230e+00
0	 8.571398015564816e+00	 4.857142012692742e+00	 9.999998413212230e+00
0	 8.571398015564816e+00	 5.000000000000002e+00	 9.999998413212232e+00
0	 8.571398015564814e+00	 5.142857987307261e+00	 9.999998413212230e+00
0	 8.571398015564816e+00	 5.285716041281409e+00	 9.999998413212232e+00
0	 8.571398015564816e+00	 5.428574228589335e+00	 9.999998413212234e+00
0	 8.571398015564816e+00	 5.571432615897928e+00	 9.999998413212237e+00
0	 8.571398015564816e+00	 5.714291269874074e+00	 9.999998413212234e+00
0	 7.142890476327778e+00	 5.714291269874073e+00	 9.999999422798174e+00
0	 7.142890476327777e+00	 5.857150240517927e+00	 9.999999422802459e+00
0	 7.142890476327778e+00	 6.000009511162682e+00	 9.999999422815325e+00
0	 7.142890476327779e+00	 6.142869048474793e+00	 9.999999422836762e+00
0	 7.142890476327777e+00	 6.285728819120713e+00	 9.999999422866775e+00
0	 7.142890476327779e+00	 6.428588789766899e+00	 9.999999422905365e+00
0	 7.142890476327777e+00	 6.571448927079808e+00	 9.999999422952522e+00
0	 7.142890476327779e+00	 6.714309197725897e+00	 9.999999423008269e+00
0	 7.142890476327776e+00	 6.857169568371617e+00	 9.999999423072577e+00
0	 7.142890476327777e+00	 7.000030005683425e+00	 9.999999423145475e+00
0	 7.142890476327779e+00	 7.142890476327780e+00	 9.999999423226932e+00
0	 7.285740955271015e+00	 5.714291269874074e+00	 9.999999412688082e+00
0	 7.285740955271016e+00	 5.857150240517929e+00	 9.999999412692370e+00
0	 7.285740955271013e+00	 6.000009511162681e+00	 9.999999412705225e+00
0	 7.285740955271015e+00	 6.142869048474792e+00	 9.999999412726673e+00
0	 7.285740955271016e+00	 6.285728819120711e+00	 9.999999412756681e+00
0	 7.285740955271015e+00	 6.428588789766900e+00	 9.999999412795280e+00
0	 7.285740955271013e+00	 6.571448927079807e+00	 9.999999412842435e+00
0	 7.285740955271015e+00	 6.714309197725896e+00	 9.999999412898172e+00
0	 7.285740955271014e+00	 6.857169568371615e+00	 9.999999412962483e+00
0	 7.285740955271012e+00	 7.000030005683424e+00	 9.999999413035379e+00
0	 7.285740955271015e+00	 7.142890476327778e+00	 9.999999413116845e+00
0	 7.428591450879008e+00	 5.714291269874074e+00	 9.999999382389312e+00
0	 7.428591450879008e+00	 5.857150240517927e+00	 9.999999382393604e+00
0	 7.428591450879009e+00	 6.000009511162681e+00	 9.999999382406457e+00
0	 7.428591450879010e+00	 6.142869048474793e+00	 9.999999382427903e+00
0	 7.428591450879006e+00	 6.285728819120711e+00	 9.999999382457913e+00
0	 7.428591450879007e+00	 6.428588789766900e+00	 9.999999382496494e+00
0	 7.428591450879006e+00	 6.571448927079810e+00	 9.999999382543667e+00
0	 7.428591450879010e+00	 6.714309197725899e+00	 9.999999382599407e+00
0	 7.428591450879007e+00	 6.857169568371616e+00	 9.999999382663713e+00
0	 7.428591450879004e+00	 7.000030005683424e+00	 9.999999382736608e+00
0	 7.428591450879007e+00	 7.142890476327777e+00	 9.999999382818071e+00
0	 7.571441979817511e+00	 5.714291269874074e+00	 9.999999331901886e+00
0	 7.571441979817510e+00	 5.857150240517928e+00	 9.999999331906173e+00
0	 7.571441979817513e+00	 6.000009511162682e+00	 9.999999331919035e+00
0	 7.571441979817510e+00	 6.142869048474791e+00	 9.999999331940469e+00
0	 7.571441979817512e+00	 6.285728819120713e+00	 9.999999331970486e+00
0	 7.571441979817511e+00	 6.428588789766900e+00	 9.999999332009073e+00
0	 7.571441979817510e+00	 6.571448927079809e+00	 9.999999332056234e+00
0	 7.571441979817512e+00	 6.714309197725898e+00	 9.999999332111980e+00
0	 7.571441979817510e+00	 6.857169568371615e+00	 9.999999332176296e+00
0	 7.571441979817511e+00	 7.000030005683425e+00	 9.999999332249178e+00
0	 7.571441979817511e+00	 7.142890476327779e+00	 9.999999332330644e+00
0	 7.714292558752280e+00	 5.714291269874075e+00	 9.999999261225827e+00
0	 7.714292558752281e+00	 5.857150240517928e+00	 9.999999261230116e+00
0	 7.714292558752280e+00	 6.000009511162681e+00	 9.999999261242980e+00
0	 7.714292558752282e+00	 6.142869048474791e+00	 9.999999261264430e+00
0	 7.714292558752282e+00	 6.285728819120712e+00	 9.999999261294425e+00
0	 7.714292558752283e+00	 6.428588789766900e+00	 9.999999261333018e+00
0	 7.714292558752281e+00	 6.571448927079809e+00	 9.999999261380191e+00
0	 7.714292558752278e+00	 6.714309197725895e+00	 9.999999261435931e+00
0	 7.714292558752278e+00	 6.857169568371614e+00	 9.999999261500246e+00
0	 7.714292558752280e+00	 7.000030005683426e+00	 9.999999261573135e+00
0	 7.714292558752279e+00	 7.142890476327776e+00	 9.999999261654594e+00
0	 7.857143204349075e+00	 5.714291269874074e+00	 9.999999170361212e+00
0	 7.857143204349072e+00	 5.857150240517928e+00	 9.999999170365500e+00
0	 7.857143204349074e+00	 6.000009511162684e+00	 9.999999170378359e+00
0	 7.857143204349075e+00	 6.142869048474791e+00	 9.999999170399803e+00
0	 7.857143204349074e+00	 6.285728819120710e+00	 9.999999170429819e+00
0	 7.857143204349075e+00	 6.428588789766899e+00	 9.999999170468399e+00
0	 7.857143204349074e+00	 6.571448927079810e+00	 9.999999170515567e+00
0	 7.857143204349074e+00	 6.714309197725897e+00	 9.999999170571305e+00
0	 7.857143204349075e+00	 6.857169568371616e+00	 9.999999170635618e+00
0	 7.857143204349074e+00	 7.000030005683427e+00	 9.999999170708509e+00
0	 7.857143204349072e+00	 7.142890476327779e+00	 9.999999170789975e+00
0	 7.999993933273643e+00	 5.714291269874074e+00	 9.999999059308081e+00
0	 7.999993933273645e+00	 5.857150240517928e+00	 9.999999059312376e+00
0	 7.999993933273643e+00	 6.000009511162682e+00	 9.999999059325230e+00
0	 7.999993933273645e+00	 6.142869048474793e+00	 9.999999059346672e+00
0	 7.999993933273643e+00	 6.285728819120711e+00	 9.999999059376680e+00
0	 7.999993933273643e+00	 6.428588789766899e+00	 9.999999059415272e+00
0	 7.999993933273644e+00	 6.571448927079809e+00	 9.999999059462438e+00
0	 7.999993933273643e+00	 6.714309197725896e+00	 9.999999059518174e+00
0	 7.999993933273642e+00	 6.857169568371615e+00	 9.999999059582489e+00
0	 7.999993933273644e+00	 7.000030005683426e+00	 9.999999059655378e+00
0	 7.999993933273645e+00	 7.142890476327779e+00	 9.999999059736842e+00
0	 8.142844762191750e+00	 5.714291269874075e+00	 9.999998928066516e+00
0	 8.142844762191748e+00	 5.857150240517927e+00	 9.999998928070802e+00
0	 8.142844762191746e+00	 6.000009511162682e+00	 9.999998928083677e+00
0	 8.142844762191750e+00	 6.142869048474792e+00	 9.999998928105111e+00
0	 8.142844762191746e+00	 6.285728819120711e+00	 9.999998928135120e+00
0	 8.142844762191748e+00	 6.428588789766899e+00	 9.999998928173714e+00
0	 8.142844762191746e+00	 6.571448927079809e+00	 9.999998928220869e+00
0	 8.142844762191748e+00	 6.714309197725897e+00	 9.999998928276609e+00
0	 8.142844762191745e+00	 6.857169568371616e+00	 9.999998928340926e+00
0	 8.142844762191748e+00	 7.000030005683426e+00	 9.999998928413815e+00
0	 8.142844762191750e+00	 7.142890476327778e+00	 9.999998928495280e+00
0	 8.285695707769140e+00	 5.714291269874073e+00	 9.999998776636618e+00
0	 8.285695707769138e+00	 5.857150240517927e+00	 9.999998776640901e+00
0	 8.285695707769142e+00	 6.000009511162682e+00	 9.999998776653769e+00
0	 8.285695707769140e+00	 6.142869048474792e+00	 9.999998776675206e+00
0	 8.285695707769142e+00	 6.285728819120712e+00	 9.999998776705219e+00
0	 8.285695707769142e+00	 6.428588789766899e+00	 9.999998776743812e+00
0	 8.285695707769140e+00	 6.571448927079808e+00	 9.999998776790974e+00
0	 8.285695707769140e+00	 6.714309197725896e+00	 9.999998776846711e+00
0	 8.285695707769140e+00	 6.857169568371617e+00	 9.999998776911022e+00
0	 8.285695707769140e+00	 7.000030005683424e+00	 9.999998776983912e+00
0	 8.285695707769138e+00	 7.142890476327778e+00	 9.999998777065377e+00
0	 8.428546786671578e+00	 5.714291269874075e+00	 9.999998605018485e+00
0	 8.428546786671578e+00	 5.857150240517927e+00	 9.999998605022771e+00
0	 8.428546786671577e+00	 6.000009511162682e+00	 9.999998605035632e+00
0	 8.428546786671578e+00	 6.142869048474793e+00	 9.999998605057067e+00
0	 8.428546786671573e+00	 6.285728819120710e+00	 9.999998605087088e+00
0	 8.428546786671577e+00	 6.428588789766899e+00	 9.999998605125677e+00
0	 8.428546786671578e+00	 6.571448927079810e+00	 9.999998605172845e+00
0	 8.428546786671577e+00	 6.714309197725897e+00	 9.999998605228569e+00
0	 8.428546786671578e+00	 6.857169568371617e+00	 9.999998605292886e+00
0	 8.428546786671577e+00	 7.000030005683426e+00	 9.999998605365786e+00
0	 8.428546786671575e+00	 7.142890476327779e+00	 9.999998605447242e+00
0	 8.571398015564816e+00	 5.714291269874074e+00	 9.999998413212234e+00
0	 8.571398015564816e+00	 5.857150240517927e+00	 9.999998413216526e+00
0	 8.571398015564816e+00	 6.000009511162681e+00	 9.999998413229388e+00
0	 8.571398015564816e+00	 6.142869048474793e+00	 9.999998413250832e+00
0	 8.571398015564814e+00	 6.285728819120712e+00	 9.999998413280831e+00
0	 8.571398015564816e+00	 6.428588789766899e+00	 9.999998413319425e+00
0	 8.571398015564817e+00	 6.571448927079810e+00	 9.999998413366592e+00
0	 8.571398015564817e+00	 6.714309197725898e+00	 9.999998413422338e+00
0	 8.571398015564816e+00	 6.857169568371617e+00	 9.999998413486644e+00
0	 8.571398015564819e+00	 7.000030005683428e+00	 9.999998413559528e+00
0	 8.571398015564816e+00	 7.142890476327779e+00	 9.999998413640999e+00
0	 7.142890476327779e+00	 7.142890476327780e+00	 9.999999423226932e+00
0	 7.142890476327778e+00	 7.285740955271013e+00	 9.999999446861240e+00
0	 7.142890476327779e+00	 7.428591450879007e+00	 9.999999517592675e+00
0	 7.142890476327778e+00	 7.571441979817512e+00	 9.999999635421165e+00
0	 7.142890476327777e+00	 7.714292558752281e+00	 9.999999800346657e+00
0	 7.142890476327778e+00	 7.857143204349074e+00	 1.000000001236900e+01
0	 7.142890476327777e+00	 7.999993933273643e+00	 1.000000027148808e+01
0	 7.142890476327778e+00	 8.142844762191746e+00	 1.000000057770369e+01
0	 7.142890476327778e+00	 8.285695707769140e+00	 1.000000093101562e+01
0	 7.142890476327778e+00	 8.428546786671575e+00	 1.000000133142363e+01
0	 7.142890476327779e+00	 8.571398015564816e+00	 1.000000177892744e+01
0	 7.285740955271015e+00	 7.142890476327778e+00	 9.999999413116845e+00
0	 7.285740955271015e+00	 7.285740955271015e+00	 9.999999436751153e+00
0	 7.285740955271015e+00	 7.428591450879008e+00	 9.999999507482581e+00
0	 7.285740955271013e+00	 7.571441979817510e+00	 9.999999625311077e+00
0	 7.285740955271013e+00	 7.714292558752281e+00	 9.999999790236558e+00
0	 7.285740955271014e+00	 7.857143204349073e+00	 1.000000000225890e+01
0	 7.285740955271014e+00	 7.999993933273645e+00	 1.000000026137798e+01
0	 7.285740955271014e+00	 8.142844762191746e+00	 1.000000056759360e+01
0	 7.285740955271014e+00	 8.285695707769140e+00	 1.000000092090553e+01
0	 7.285740955271015e+00	 8.428546786671577e+00	 1.000000132131354e+01
0	 7.285740955271014e+00	 8.571398015564816e+00	 1.000000176881736e+01
0	 7.428591450879007e+00	 7.142890476327777e+00	 9.999999382818071e+00
0	 7.428591450879008e+00	 7.285740955271015e+00	 9.999999406452382e+00
0	 7.428591450879009e+00	 7.428591450879008e+00	 9.999999477183810e+00
0	 7.428591450879008e+00	 7.571441979817513e+00	 9.999999595012309e+00
0	 7.428591450879008e+00	 7.714292558752281e+00	 9.999999759937790e+00
0	 7.428591450879005e+00	 7.857143204349073e+00	 9.999999971960143e+00
0	 7.428591450879008e+00	 7.999993933273645e+00	 1.000000023107921e+01
0	 7.428591450879006e+00	 8.142844762191748e+00	 1.000000053729482e+01
0	 7.428591450879005e+00	 8.285695707769140e+00	 1.000000089060675e+01
0	 7.428591450879007e+00	 8.428546786671578e+00	 1.000000129101477e+01
0	 7.428591450879007e+00	 8.571398015564816e+00	 1.000000173851859e+01
0	 7.571441979817511e+00	 7.142890476327779e+00	 9.999999332330644e+00
0	 7.571441979817511e+00	 7.285740955271014e+00	 9.999999355964961e+00
0	 7.571441979817512e+00	 7.428591450879009e+00	 9.999999426696382e+00
0	 7.571441979817508e+00	 7.571441979817509e+00	 9.999999544524886e+00
0	 7.571441979817512e+00	 7.714292558752281e+00	 9.999999709450368e+00
0	 7.571441979817510e+00	 7.857143204349073e+00	 9.999999921472714e+00
0	 7.571441979817513e+00	 7.999993933273644e+00	 1.000000018059178e+01
0	 7.571441979817511e+00	 8.142844762191746e+00	 1.000000048680740e+01
0	 7.571441979817508e+00	 8.285695707769140e+00	 1.000000084011933e+01
0	 7.571441979817509e+00	 8.428546786671577e+00	 1.000000124052734e+01
0	 7.571441979817510e+00	 8.571398015564814e+00	 1.000000168803116e+01
0	 7.714292558752279e+00	 7.142890476327776e+00	 9.999999261654594e+00
0	 7.714292558752280e+00	 7.285740955271013e+00	 9.999999285288903e+00
0	 7.714292558752281e+00	 7.428591450879006e+00	 9.999999356020339e+00
0	 7.714292558752281e+00	 7.571441979817512e+00	 9.999999473848831e+00
0	 7.714292558752278e+00	 7.714292558752279e+00	 9.999999638774312e+00
0	 7.714292558752280e+00	 7.857143204349073e+00	 9.999999850796664e+00
0	 7.714292558752279e+00	 7.999993933273642e+00	 1.000000010991574e+01
0	 7.714292558752280e+00	 8.142844762191750e+00	 1.000000041613134e+01
0	 7.714292558752282e+00	 8.285695707769142e+00	 1.000000076944329e+01
0	 7.714292558752280e+00	 8.428546786671577e+00	 1.000000116985130e+01
0	 7.714292558752279e+00	 8.571398015564812e+00	 1.000000161735511e+01
0	 7.857143204349072e+00	 7.142890476327779e+00	 9.999999170789975e+00
0	 7.857143204349074e+00	 7.285740955271014e+00	 9.999999194424277e+00
0	 7.857143204349072e+00	 7.428591450879005e+00	 9.999999265155711e+00
0	 7.857143204349074e+00	 7.571441979817513e+00	 9.999999382984209e+00
0	 7.857143204349072e+00	 7.714292558752279e+00	 9.999999547909688e+00
0	 7.857143204349074e+00	 7.857143204349075e+00	 9.999999759932040e+00
0	 7.857143204349075e+00	 7.999993933273645e+00	 1.000000001905111e+01
0	 7.857143204349073e+00	 8.142844762191746e+00	 1.000000032526673e+01
0	 7.857143204349073e+00	 8.285695707769138e+00	 1.000000067857866e+01
0	 7.857143204349073e+00	 8.428546786671575e+00	 1.000000107898667e+01
0	 7.857143204349072e+00	 8.571398015564814e+00	 1.000000152649048e+01
0	 7.999993933273645e+00	 7.142890476327779e+00	 9.999999059736846e+00
0	 7.999993933273643e+00	 7.285740955271014e+00	 9.999999083371153e+00
0	 7.999993933273646e+00	 7.428591450879008e+00	 9.999999154102579e+00
0	 7.999993933273642e+00	 7.571441979817511e+00	 9.999999271931081e+00
0	 7.999993933273643e+00	 7.714292558752279e+00	 9.999999436856557e+00
0	 7.999993933273644e+00	 7.857143204349075e+00	 9.999999648878912e+00
0	 7.999993933273644e+00	 7.999993933273643e+00	 9.999999907997978e+00
0	 7.999993933273646e+00	 8.142844762191748e+00	 1.000000021421359e+01
0	 7.999993933273644e+00	 8.285695707769142e+00	 1.000000056752552e+01
0	 7.999993933273643e+00	 8.428546786671577e+00	 1.000000096793355e+01
0	 7.999993933273645e+00	 8.571398015564817e+00	 1.000000141543736e+01
0	 8.142844762191750e+00	 7.142890476327778e+00	 9.999998928495284e+00
0	 8.142844762191750e+00	 7.285740955271015e+00	 9.999998952129596e+00
0	 8.142844762191748e+00	 7.428591450879006e+00	 9.999999022861026e+00
0	 8.142844762191746e+00	 7.571441979817512e+00	 9.999999140689516e+00
0	 8.142844762191748e+00	 7.714292558752281e+00	 9.999999305614995e+00
0	 8.142844762191748e+00	 7.857143204349073e+00	 9.999999517637349e+00
0	 8.142844762191748e+00	 7.999993933273645e+00	 9.999999776756420e+00
0	 8.142844762191746e+00	 8.142844762191746e+00	 1.000000008297202e+01
0	 8.142844762191746e+00	 8.285695707769138e+00	 1.000000043628397e+01
0	 8.142844762191748e+00	 8.428546786671577e+00	 1.000000083669199e+01
0	 8.142844762191750e+00	 8.571398015564817e+00	 1.000000128419578e+01
0	 8.285695707769138e+00	 7.142890476327778e+00	 9.999998777065375e+00
0	 8.285695707769140e+00	 7.285740955271015e+00	 9.999998800699689e+00
0	 8.285695707769142e+00	 7.428591450879006e+00	 9.999998871431117e+00
0	 8.285695707769143e+00	 7.571441979817512e+00	 9.999998989259616e+00
0	 8.285695707769140e+00	 7.714292558752280e+00	 9.999999154185094e+00
0	 8.285695707769140e+00	 7.857143204349074e+00	 9.999999366207446e+00
0	 8.285695707769142e+00	 7.999993933273644e+00	 9.999999625326522e+00
0	 8.285695707769143e+00	 8.142844762191748e+00	 9.999999931542128e+00
0	 8.285695707769140e+00	 8.285695707769140e+00	 1.000000028485407e+01
0	 8.285695707769138e+00	 8.428546786671575e+00	 1.000000068526207e+01
0	 8.285695707769142e+00	 8.571398015564814e+00	 1.000000113276589e+01
0	 8.428546786671575e+00	 7.142890476327779e+00	 9.999998605447242e+00
0	 8.428546786671575e+00	 7.285740955271014e+00	 9.999998629081560e+00
0	 8.428546786671578e+00	 7.428591450879006e+00	 9.999998699812988e+00
0	 8.428546786671577e+00	 7.571441979817509e+00	 9.999998817641476e+00
0	 8.428546786671578e+00	 7.714292558752282e+00	 9.999998982566964e+00
0	 8.428546786671577e+00	 7.857143204349073e+00	 9.999999194589311e+00
0	 8.428546786671578e+00	 7.999993933273643e+00	 9.999999453708384e+00
0	 8.428546786671577e+00	 8.142844762191748e+00	 9.999999759923995e+00
0	 8.428546786671578e+00	 8.285695707769140e+00	 1.000000011323593e+01
0	 8.428546786671578e+00	 8.428546786671578e+00	 1.000000051364395e+01
0	 8.428546786671580e+00	 8.571398015564817e+00	 1.000000096114776e+01
0	 8.571398015564816e+00	 7.142890476327779e+00	 9.999998413641000e+00
0	 8.571398015564816e+00	 7.285740955271013e+00	 9.999998437275316e+00
0	 8.571398015564816e+00	 7.428591450879008e+00	 9.999998508006740e+00
0	 8.571398015564814e+00	 7.571441979817510e+00	 9.999998625835243e+00
0	 8.571398015564814e+00	 7.714292558752279e+00	 9.999998790760714e+00
0	 8.571398015564814e+00	 7.857143204349073e+00	 9.999999002783065e+00
0	 8.571398015564816e+00	 7.999993933273642e+00	 9.999999261902147e+00
0	 8.571398015564817e+00	 8.142844762191748e+00	 9.999999568117746e+00
0	 8.571398015564816e+00	 8.285695707769140e+00	 9.999999921429687e+00
0	 8.571398015564817e+00	 8.428546786671578e+00	 1.000000032183770e+01
0	 8.571398015564816e+00	 8.571398015564816e+00	 1.000000076934151e+01
0	 7.142890476327779e+00	 8.571398015564816e+00	 1.000000177892744e+01
0	 7.142890476327777e+00	 8.714259388995400e+00	 1.000000208511470e+01
0	 7.142890476327779e+00	 8.857120812436387e+00	 1.000000206150808e+01
0	 7.142890476327777e+00	 8.999982169218281e+00	 1.000000170810742e+01
0	 7.142890476327777e+00	 9.142843342671602e+00	 1.000000102491101e+01
0	 7.142890476327778e+00	 9.285704216126854e+00	 1.000000001191552e+01
0	 7.142890476327778e+00	 9.428564672914549e+00	 9.999998669115950e+00
0	 7.142890476327777e+00	 9.571424596365201e+00	 9.999996996505772e+00
0	 7.142890476327778e+00	 9.714283869809321e+00	 9.999994994076713e+00
0	 7.142890476327778e+00	 9.857142376577414e+00	 9.999992661819000e+00
0	 7.142890476327777e+00	 1.000000000000000e+01	 9.999989999721251e+00
0	 7.285740955271014e+00	 8.571398015564816e+00	 1.000000176881736e+01
0	 7.285740955271014e+00	 8.714259388995401e+00	 1.000000207500462e+01
0	 7.285740955271013e+00	 8.857120812436381e+00	 1.000000205139799e+01
0	 7.285740955271013e+00	 8.999982169218281e+00	 1.000000169799733e+01
0	 7.285740955271015e+00	 9.142843342671602e+00	 1.000000101480093e+01
0	 7.285740955271014e+00	 9.285704216126851e+00	 1.000000000180543e+01
0	 7.285740955271014e+00	 9.428564672914547e+00	 9.999998659005866e+00
0	 7.285740955271016e+00	 9.571424596365199e+00	 9.999996986395685e+00
0	 7.285740955271012e+00	 9.714283869809320e+00	 9.999994983966626e+00
0	 7.285740955271016e+00	 9.857142376577416e+00	 9.999992651708924e+00
0	 7.285740955271013e+00	 1.000000000000000e+01	 9.999989989611196e+00
0	 7.428591450879007e+00	 8.571398015564816e+00	 1.000000173851859e+01
0	 7.428591450879005e+00	 8.714259388995398e+00	 1.000000204470584e+01
0	 7.428591450879007e+00	 8.857120812436387e+00	 1.000000202109922e+01
0	 7.428591450879007e+00	 8.999982169218278e+00	 1.000000166769856e+01
0	 7.428591450879006e+00	 9.142843342671600e+00	 1.000000098450217e+01
0	 7.428591450879006e+00	 9.285704216126851e+00	 9.999999971506643e+00
0	 7.428591450879010e+00	 9.428564672914552e+00	 9.999998628707083e+00
0	 7.428591450879008e+00	 9.571424596365199e+00	 9.999996956096888e+00
0	 7.428591450879006e+00	 9.714283869809321e+00	 9.999994953667853e+00
0	 7.428591450879007e+00	 9.857142376577416e+00	 9.999992621410158e+00
0	 7.428591450879007e+00	 1.000000000000000e+01	 9.999989959312408e+00
0	 7.571441979817510e+00	 8.571398015564814e+00	 1.000000168803116e+01
0	 7.571441979817513e+00	 8.714259388995401e+00	 1.000000199421842e+01
0	 7.571441979817510e+00	 8.857120812436385e+00	 1.000000197061179e+01
0	 7.571441979817514e+00	 8.999982169218283e+00	 1.000000161721114e+01
0	 7.571441979817510e+00	 9.142843342671599e+00	 1.000000093401472e+01
0	 7.571441979817511e+00	 9.285704216126852e+00	 9.999999921019221e+00
0	 7.571441979817511e+00	 9.428564672914549e+00	 9.999998578219660e+00
0	 7.571441979817511e+00	 9.571424596365203e+00	 9.999996905609450e+00
0	 7.571441979817509e+00	 9.714283869809316e+00	 9.999994903180417e+00
0	 7.571441979817510e+00	 9.857142376577416e+00	 9.999992570922716e+00
0	 7.571441979817512e+00	 1.000000000000000e+01	 9.999989908824944e+00
0	 7.714292558752279e+00	 8.571398015564812e+00	 1.000000161735511e+01
0	 7.714292558752281e+00	 8.714259388995400e+00	 1.000000192354237e+01
0	 7.714292558752277e+00	 8.857120812436383e+00	 1.000000189993573e+01
0	 7.714292558752280e+00	 8.999982169218278e+00	 1.000000154653508e+01
0	 7.714292558752279e+00	 9.142843342671600e+00	 1.000000086333868e+01
0	 7.714292558752283e+00	 9.285704216126856e+00	 9.999999850343178e+00
0	 7.714292558752280e+00	 9.428564672914549e+00	 9.999998507543612e+00
0	 7.714292558752281e+00	 9.571424596365201e+00	 9.999996834933413e+00
0	 7.714292558752281e+00	 9.714283869809320e+00	 9.999994832504367e+00
0	 7.714292558752281e+00	 9.857142376577420e+00	 9.999992500246675e+00
0	 7.714292558752281e+00	 1.000000000000000e+01	 9.999989838148892e+00
0	 7.857143204349072e+00	 8.571398015564814e+00	 1.000000152649048e+01
0	 7.857143204349072e+00	 8.714259388995398e+00	 1.000000183267775e+01
0	 7.857143204349073e+00	 8.857120812436385e+00	 1.000000180907111e+01
0	 7.857143204349073e+00	 8.999982169218281e+00	 1.000000145567047e+01
0	 7.857143204349072e+00	 9.142843342671599e+00	 1.000000077247406e+01
0	 7.857143204349073e+00	 9.285704216126851e+00	 9.999999759478555e+00
0	 7.857143204349073e+00	 9.428564672914549e+00	 9.999998416678993e+00
0	 7.857143204349074e+00	 9.571424596365203e+00	 9.999996744068781e+00
0	 7.857143204349073e+00	 9.714283869809320e+00	 9.999994741639732e+00
0	 7.857143204349073e+00	 9.857142376577416e+00	 9.999992409382070e+00
0	 7.857143204349074e+00	 1.000000000000000e+01	 9.999989747284282e+00
0	 7.999993933273645e+00	 8.571398015564817e+00	 1.000000141543736e+01
0	 7.999993933273643e+00	 8.714259388995398e+00	 1.000000172162462e+01
0	 7.999993933273643e+00	 8.857120812436383e+00	 1.000000169801798e+01
0	 7.999993933273644e+00	 8.999982169218283e+00	 1.000000134461733e+01
0	 7.999993933273642e+00	 9.142843342671599e+00	 1.000000066142093e+01
0	 7.999993933273645e+00	 9.285704216126854e+00	 9.999999648425430e+00
0	 7.999993933273643e+00	 9.428564672914550e+00	 9.999998305625857e+00
0	 7.999993933273645e+00	 9.571424596365203e+00	 9.999996633015652e+00
0	 7.999993933273643e+00	 9.714283869809320e+00	 9.999994630586613e+00
0	 7.999993933273643e+00	 9.857142376577412e+00	 9.999992298328923e+00
0	 7.999993933273645e+00	 1.000000000000000e+01	 9.999989636231177e+00
0	 8.142844762191750e+00	 8.571398015564817e+00	 1.000000128419578e+01
0	 8.142844762191745e+00	 8.714259388995398e+00	 1.000000159038307e+01
0	 8.142844762191748e+00	 8.857120812436385e+00	 1.000000156677643e+01
0	 8.142844762191746e+00	 8.999982169218280e+00	 1.000000121337576e+01
0	 8.142844762191743e+00	 9.142843342671600e+00	 1.000000053017936e+01
0	 8.142844762191748e+00	 9.285704216126852e+00	 9.999999517183866e+00
0	 8.142844762191746e+00	 9.428564672914547e+00	 9.999998174384302e+00
0	 8.142844762191748e+00	 9.571424596365199e+00	 9.999996501774099e+00
0	 8.142844762191746e+00	 9.714283869809320e+00	 9.999994499345043e+00
0	 8.142844762191748e+00	 9.857142376577416e+00	 9.999992167087356e+00
0	 8.142844762191748e+00	 1.000000000000000e+01	 9.999989504989582e+00
0	 8.285695707769142e+00	 8.571398015564814e+00	 1.000000113276589e+01
0	 8.285695707769142e+00	 8.714259388995401e+00	 1.000000143895316e+01
0	 8.285695707769142e+00	 8.857120812436385e+00	 1.000000141534652e+01
0	 8.285695707769142e+00	 8.999982169218281e+00	 1.000000106194587e+01
0	 8.285695707769138e+00	 9.142843342671600e+00	 1.000000037874946e+01
0	 8.285695707769140e+00	 9.285704216126851e+00	 9.999999365753965e+00
0	 8.285695707769142e+00	 9.428564672914549e+00	 9.999998022954395e+00
0	 8.285695707769140e+00	 9.571424596365203e+00	 9.999996350344199e+00
0	 8.285695707769142e+00	 9.714283869809321e+00	 9.999994347915141e+00
0	 8.285695707769142e+00	 9.857142376577418e+00	 9.999992015657469e+00
0	 8.285695707769140e+00	 9.999999999999998e+00	 9.999989353559688e+00
0	 8.428546786671580e+00	 8.571398015564817e+00	 1.000000096114776e+01
0	 8.428546786671577e+00	 8.714259388995400e+00	 1.000000126733503e+01
0	 8.428546786671577e+00	 8.857120812436385e+00	 1.000000124372839e+01
0	 8.428546786671578e+00	 8.999982169218281e+00	 1.000000089032774e+01
0	 8.428546786671577e+00	 9.142843342671597e+00	 1.000000020713133e+01
0	 8.428546786671575e+00	 9.285704216126849e+00	 9.999999194135833e+00
0	 8.428546786671578e+00	 9.428564672914550e+00	 9.999997851336271e+00
0	 8.428546786671577e+00	 9.571424596365201e+00	 9.999996178726063e+00
0	 8.428546786671578e+00	 9.714283869809321e+00	 9.999994176297029e+00
0	 8.428546786671577e+00	 9.857142376577418e+00	 9.999991844039331e+00
0	 8.428546786671577e+00	 1.000000000000000e+01	 9.999989181941539e+00
0	 8.571398015564816e+00	 8.571398015564816e+00	 1.000000076934152e+01
0	 8.571398015564817e+00	 8.714259388995400e+00	 1.000000107552877e+01
0	 8.571398015564814e+00	 8.857120812436385e+00	 1.000000105192214e+01
0	 8.571398015564817e+00	 8.999982169218281e+00	 1.000000069852149e+01
0	 8.571398015564816e+00	 9.142843342671600e+00	 1.000000001532508e+01
0	 8.571398015564816e+00	 9.285704216126851e+00	 9.999999002329560e+00
0	 8.571398015564816e+00	 9.428564672914549e+00	 9.999997659530013e+00
0	 8.571398015564816e+00	 9.571424596365201e+00	 9.999995986919819e+00
0	 8.571398015564816e+00	 9.714283869809321e+00	 9.999993984490771e+00
0	 8.571398015564816e+00	 9.857142376577418e+00	 9.999991652233058e+00
0	 8.571398015564816e+00	 1.000000000000000e+01	 9.999988990135259e+00
0	 8.571398015564816e+00	 0.000000000000000e+00	 9.999997470904542e+00
0	 8.571398015564816e+00	 1.428576234225853e-01	 9.999997737118173e+00
0	 8.571398015564816e+00	 2.857161301906819e-01	 9.999997970355523e+00
0	 8.571398015564816e+00	 4.285754036348007e-01	 9.999998170617719e+00
0	 8.571398015564812e+00	 5.714353270854530e-01	 9.999998337905755e+00
0	 8.571398015564816e+00	 7.142957838731496e-01	 9.999998472220442e+00
0	 8.571398015564817e+00	 8.571566573284017e-01	 9.999998573562436e+00
0	 8.571398015564816e+00	 1.000017830781720e+00	 9.999998641932242e+00
0	 8.571398015564816e+00	 1.142879187563616e+00	 9.999998677330190e+00
0	 8.571398015564814e+00	 1.285740611004601e+00	 9.999998679756457e+00
0	 8.571398015564817e+00	 1.428601984435185e+00	 9.999998649211049e+00
0	 8.714259388995400e+00	 0.000000000000000e+00	 9.999997339661473e+00
0	 8.714259388995400e+00	 1.428576234225853e-01	 9.999997605875112e+00
0	 8.714259388995401e+00	 2.857161301906819e-01	 9.999997839112460e+00
0	 8.714259388995398e+00	 4.285754036348007e-01	 9.999998039374654e+00
0	 8.714259388995398e+00	 5.714353270854530e-01	 9.999998206662692e+00
0	 8.714259388995400e+00	 7.142957838731496e-01	 9.999998340977374e+00
0	 8.714259388995400e+00	 8.571566573284018e-01	 9.999998442319372e+00
0	 8.714259388995405e+00	 1.000017830781720e+00	 9.999998510689178e+00
0	 8.714259388995401e+00	 1.142879187563616e+00	 9.999998546087131e+00
0	 8.714259388995398e+00	 1.285740611004601e+00	 9.999998548513393e+00
0	 8.714259388995401e+00	 1.428601984435185e+00	 9.999998517967978e+00
0	 8.857120812436385e+00	 0.000000000000000e+00	 9.999997349760752e+00
0	 8.857120812436383e+00	 1.428576234225852e-01	 9.999997615974394e+00
0	 8.857120812436387e+00	 2.857161301906819e-01	 9.999997849211745e+00
0	 8.857120812436387e+00	 4.285754036348008e-01	 9.999998049473930e+00
0	 8.857120812436385e+00	 5.714353270854532e-01	 9.999998216761970e+00
0	 8.857120812436385e+00	 7.142957838731496e-01	 9.999998351076654e+00
0	 8.857120812436385e+00	 8.571566573284017e-01	 9.999998452418652e+00
0	 8.857120812436385e+00	 1.000017830781720e+00	 9.999998520788459e+00
0	 8.857120812436385e+00	 1.142879187563616e+00	 9.999998556186405e+00
0	 8.857120812436381e+00	 1.285740611004601e+00	 9.999998558612671e+00
0	 8.857120812436387e+00	 1.428601984435185e+00	 9.999998528067255e+00
0	 8.999982169218280e+00	 0.000000000000000e+00	 9.999997501202424e+00
0	 8.999982169218283e+00	 1.428576234225853e-01	 9.999997767416064e+00
0	 8.999982169218281e+00	 2.857161301906819e-01	 9.999998000653404e+00
0	 8.999982169218280e+00	 4.285754036348006e-01	 9.999998200915607e+00
0	 8.999982169218281e+00	 5.714353270854531e-01	 9.999998368203649e+00
0	 8.999982169218281e+00	 7.142957838731495e-01	 9.999998502518324e+00
0	 8.999982169218281e+00	 8.571566573284017e-01	 9.999998603860327e+00
0	 8.999982169218280e+00	 1.000017830781720e+00	 9.999998672230127e+00
0	 8.999982169218283e+00	 1.142879187563616e+00	 9.999998707628079e+00
0	 8.999982169218283e+00	 1.285740611004601e+00	 9.999998710054339e+00
0	 8.999982169218283e+00	 1.428601984435185e+00	 9.999998679508934e+00
0	 9.142843342671599e+00	 0.000000000000000e+00	 9.999997793987236e+00
0	 9.142843342671599e+00	 1.428576234225852e-01	 9.999998060200872e+00
0	 9.142843342671595e+00	 2.857161301906818e-01	 9.999998293438212e+00
0	 9.142843342671599e+00	 4.285754036348007e-01	 9.999998493700412e+00
0	 9.142843342671599e+00	 5.714353270854531e-01	 9.999998660988444e+00
0	 9.142843342671600e+00	 7.142957838731496e-01	 9.999998795303137e+00
0	 9.142843342671602e+00	 8.571566573284016e-01	 9.999998896645133e+00
0	 9.142843342671600e+00	 1.000017830781720e+00	 9.999998965014935e+00
0	 9.142843342671599e+00	 1.142879187563616e+00	 9.999999000412881e+00
0	 9.142843342671600e+00	 1.285740611004601e+00	 9.999999002839150e+00
0	 9.142843342671602e+00	 1.428601984435186e+00	 9.999998972293740e+00
0	 9.285704216126852e+00	 0.000000000000000e+00	 9.999998228116615e+00
0	 9.285704216126851e+00	 1.428576234225852e-01	 9.999998494330249e+00
0	 9.285704216126849e+00	 2.857161301906819e-01	 9.999998727567593e+00
0	 9.285704216126851e+00	 4.285754036348007e-01	 9.999998927829790e+00
0	 9.285704216126851e+00	 5.714353270854530e-01	 9.999999095117825e+00
0	 9.285704216126852e+00	 7.142957838731496e-01	 9.999999229432513e+00
0	 9.285704216126854e+00	 8.571566573284018e-01	 9.999999330774513e+00
0	 9.285704216126852e+00	 1.000017830781720e+00	 9.999999399144320e+00
0	 9.285704216126851e+00	 1.142879187563616e+00	 9.999999434542268e+00
0	 9.285704216126851e+00	 1.285740611004601e+00	 9.999999436968530e+00
0	 9.285704216126852e+00	 1.428601984435185e+00	 9.999999406423122e+00
0	 9.428564672914549e+00	 0.000000000000000e+00	 9.999998803592693e+00
0	 9.428564672914549e+00	 1.428576234225853e-01	 9.999999069806327e+00
0	 9.428564672914547e+00	 2.857161301906819e-01	 9.999999303043673e+00
0	 9.428564672914550e+00	 4.285754036348007e-01	 9.999999503305869e+00
0	 9.428564672914549e+00	 5.714353270854532e-01	 9.999999670593903e+00
0	 9.428564672914550e+00	 7.142957838731496e-01	 9.999999804908592e+00
0	 9.428564672914549e+00	 8.571566573284016e-01	 9.999999906250585e+00
0	 9.428564672914550e+00	 1.000017830781720e+00	 9.999999974620394e+00
0	 9.428564672914549e+00	 1.142879187563616e+00	 1.000000001001834e+01
0	 9.428564672914549e+00	 1.285740611004600e+00	 1.000000001244461e+01
0	 9.428564672914550e+00	 1.428601984435186e+00	 9.999999981899197e+00
0	 9.571424596365201e+00	 0.000000000000000e+00	 9.999999520418283e+00
0	 9.571424596365205e+00	 1.428576234225853e-01	 9.999999786631921e+00
0	 9.571424596365201e+00	 2.857161301906819e-01	 1.000000001986927e+01
0	 9.571424596365203e+00	 4.285754036348007e-01	 1.000000022013146e+01
0	 9.571424596365201e+00	 5.714353270854530e-01	 1.000000038741950e+01
0	 9.571424596365201e+00	 7.142957838731496e-01	 1.000000052173418e+01
0	 9.571424596365203e+00	 8.571566573284018e-01	 1.000000062307618e+01
0	 9.571424596365199e+00	 1.000017830781720e+00	 1.000000069144599e+01
0	 9.571424596365201e+00	 1.142879187563616e+00	 1.000000072684394e+01
0	 9.571424596365203e+00	 1.285740611004601e+00	 1.000000072927020e+01
0	 9.571424596365201e+00	 1.428601984435185e+00	 1.000000069872479e+01
0	 9.714283869809320e+00	 0.000000000000000e+00	 1.000000037859691e+01
0	 9.714283869809321e+00	 1.428576234225853e-01	 1.000000064481056e+01
0	 9.714283869809321e+00	 2.857161301906819e-01	 1.000000087804790e+01
0	 9.714283869809318e+00	 4.285754036348007e-01	 1.000000107831008e+01
0	 9.714283869809320e+00	 5.714353270854531e-01	 1.000000124559812e+01
0	 9.714283869809320e+00	 7.142957838731496e-01	 1.000000137991281e+01
0	 9.714283869809320e+00	 8.571566573284015e-01	 1.000000148125481e+01
0	 9.714283869809321e+00	 1.000017830781720e+00	 1.000000154962461e+01
0	 9.714283869809320e+00	 1.142879187563616e+00	 1.000000158502256e+01
0	 9.714283869809320e+00	 1.285740611004601e+00	 1.000000158744882e+01
0	 9.714283869809320e+00	 1.428601984435185e+00	 1.000000155690342e+01
0	 9.857142376577416e+00	 0.000000000000000e+00	 1.000000137813278e+01
0	 9.857142376577416e+00	 1.428576234225853e-01	 1.000000164434641e+01
0	 9.857142376577416e+00	 2.857161301906819e-01	 1.000000187758375e+01
0	 9.857142376577418e+00	 4.285754036348007e-01	 1.000000207784595e+01
0	 9.857142376577416e+00	 5.714353270854531e-01	 1.000000224513400e+01
0	 9.857142376577416e+00	 7.142957838731495e-01	 1.000000237944868e+01
0	 9.857142376577418e+00	 8.571566573284017e-01	 1.000000248079067e+01
0	 9.857142376577418e+00	 1.000017830781720e+00	 1.000000254916046e+01
0	 9.857142376577416e+00	 1.142879187563616e+00	 1.000000258455841e+01
0	 9.857142376577416e+00	 1.285740611004601e+00	 1.000000258698468e+01
0	 9.857142376577418e+00	 1.428601984435185e+00	 1.000000255643928e+01
0	 1.000000000000000e+01	 0.000000000000000e+00	 1.000000251903077e+01
0	 1.000000000000000e+01	 1.428576234225853e-01	 1.000000278524440e+01
0	 1.000000000000000e+01	 2.857161301906819e-01	 1.000000301848174e+01
0	 9.999999999999998e+00	 4.285754036348007e-01	 1.000000321874394e+01
0	 1.000000000000000e+01	 5.714353270854531e-01	 1.000000338603198e+01
0	 1.000000000000000e+01	 7.142957838731496e-01	 1.000000352034667e+01
0	 1.000000000000000e+01	 8.571566573284017e-01	 1.000000362168866e+01
0	 1.000000000000000e+01	 1.000017830781720e+00	 1.000000369005847e+01
0	 1.000000000000000e+01	 1.142879187563616e+00	 1.000000372545642e+01
0	 1.000000000000000e+01	 1.285740611004601e+00	 1.000000372788267e+01
0	 1.000000000000000e+01	 1.428601984435185e+00	 1.000000369733727e+01
0	 8.571398015564817e+00	 1.428601984435185e+00	 9.999998649211049e+00
0	 8.571398015564816e+00	 1.571453213328422e+00	 9.999998604530123e+00
0	 8.571398015564817e+00	 1.714304292230859e+00	 9.999998564543343e+00
0	 8.571398015564814e+00	 1.857155237808251e+00	 9.999998529250730e+00
0	 8.571398015564816e+00	 2.000006066726355e+00	 9.999998498652323e+00
0	 8.571398015564817e+00	 2.142856795650926e+00	 9.999998472748141e+00
0	 8.571398015564816e+00	 2.285707441247718e+00	 9.999998451538186e+00
0	 8.571398015564816e+00	 2.428558020182488e+00	 9.999998435022485e+00
0	 8.571398015564814e+00	 2.571408549120992e+00	 9.999998423201045e+00
0	 8.571398015564816e+00	 2.714259044728984e+00	 9.999998416073884e+00
0	 8.571398015564814e+00	 2.857109523672223e+00	 9.999998413640995e+00
0	 8.714259388995401e+00	 1.428601984435185e+00	 9.999998517967978e+00
0	 8.714259388995401e+00	 1.571453213328423e+00	 9.999998473287054e+00
0	 8.714259388995400e+00	 1.714304292230859e+00	 9.999998433300270e+00
0	 8.714259388995401e+00	 1.857155237808252e+00	 9.999998398007662e+00
0	 8.714259388995400e+00	 2.000006066726356e+00	 9.999998367409258e+00
0	 8.714259388995400e+00	 2.142856795650926e+00	 9.999998341505071e+00
0	 8.714259388995398e+00	 2.285707441247717e+00	 9.999998320295116e+00
0	 8.714259388995400e+00	 2.428558020182488e+00	 9.999998303779417e+00
0	 8.714259388995400e+00	 2.571408549120992e+00	 9.999998291957979e+00
0	 8.714259388995400e+00	 2.714259044728985e+00	 9.999998284830820e+00
0	 8.714259388995398e+00	 2.857109523672221e+00	 9.999998282397929e+00
0	 8.857120812436387e+00	 1.428601984435185e+00	 9.999998528067254e+00
0	 8.857120812436385e+00	 1.571453213328422e+00	 9.999998483386332e+00
0	 8.857120812436385e+00	 1.714304292230859e+00	 9.999998443399560e+00
0	 8.857120812436383e+00	 1.857155237808251e+00	 9.999998408106956e+00
0	 8.857120812436387e+00	 2.000006066726355e+00	 9.999998377508533e+00
0	 8.857120812436385e+00	 2.142856795650926e+00	 9.999998351604347e+00
0	 8.857120812436385e+00	 2.285707441247718e+00	 9.999998330394394e+00
0	 8.857120812436383e+00	 2.428558020182488e+00	 9.999998313878693e+00
0	 8.857120812436383e+00	 2.571408549120992e+00	 9.999998302057257e+00
0	 8.857120812436383e+00	 2.714259044728984e+00	 9.999998294930098e+00
0	 8.857120812436381e+00	 2.857109523672222e+00	 9.999998292497210e+00
0	 8.999982169218283e+00	 1.428601984435185e+00	 9.999998679508931e+00
0	 8.999982169218283e+00	 1.571453213328422e+00	 9.999998634828003e+00
0	 8.999982169218281e+00	 1.714304292230859e+00	 9.999998594841228e+00
0	 8.999982169218280e+00	 1.857155237808252e+00	 9.999998559548622e+00
0	 8.999982169218281e+00	 2.000006066726355e+00	 9.999998528950208e+00
0	 8.999982169218281e+00	 2.142856795650926e+00	 9.999998503046019e+00
0	 8.999982169218283e+00	 2.285707441247717e+00	 9.999998481836068e+00
0	 8.999982169218283e+00	 2.428558020182489e+00	 9.999998465320367e+00
0	 8.999982169218281e+00	 2.571408549120993e+00	 9.999998453498934e+00
0	 8.999982169218281e+00	 2.714259044728985e+00	 9.999998446371773e+00
0	 8.999982169218281e+00	 2.857109523672223e+00	 9.999998443938878e+00
0	 9.142843342671602e+00	 1.428601984435186e+00	 9.999998972293740e+00
0	 9.142843342671599e+00	 1.571453213328422e+00	 9.999998927612818e+00
0	 9.142843342671600e+00	 1.714304292230858e+00	 9.999998887626038e+00
0	 9.142843342671600e+00	 1.857155237808251e+00	 9.999998852333428e+00
0	 9.142843342671600e+00	 2.000006066726355e+00	 9.999998821735014e+00
0	 9.142843342671599e+00	 2.142856795650925e+00	 9.999998795830829e+00
0	 9.142843342671597e+00	 2.285707441247717e+00	 9.999998774620879e+00
0	 9.142843342671600e+00	 2.428558020182488e+00	 9.999998758105178e+00
0	 9.142843342671600e+00	 2.571408549120992e+00	 9.999998746283740e+00
0	 9.142843342671599e+00	 2.714259044728984e+00	 9.999998739156579e+00
0	 9.142843342671599e+00	 2.857109523672221e+00	 9.999998736723697e+00
0	 9.285704216126852e+00	 1.428601984435185e+00	 9.999999406423123e+00
0	 9.285704216126851e+00	 1.571453213328422e+00	 9.999999361742194e+00
0	 9.285704216126851e+00	 1.714304292230859e+00	 9.999999321755414e+00
0	 9.285704216126851e+00	 1.857155237808251e+00	 9.999999286462806e+00
0	 9.285704216126852e+00	 2.000006066726355e+00	 9.999999255864399e+00
0	 9.285704216126854e+00	 2.142856795650925e+00	 9.999999229960210e+00
0	 9.285704216126852e+00	 2.285707441247717e+00	 9.999999208750259e+00
0	 9.285704216126851e+00	 2.428558020182488e+00	 9.999999192234558e+00
0	 9.285704216126854e+00	 2.571408549120992e+00	 9.999999180413122e+00
0	 9.285704216126852e+00	 2.714259044728985e+00	 9.999999173285957e+00
0	 9.285704216126852e+00	 2.857109523672223e+00	 9.999999170853069e+00
0	 9.428564672914550e+00	 1.428601984435186e+00	 9.999999981899197e+00
0	 9.428564672914550e+00	 1.571453213328422e+00	 9.999999937218270e+00
0	 9.428564672914549e+00	 1.714304292230859e+00	 9.999999897231492e+00
0	 9.428564672914549e+00	 1.857155237808251e+00	 9.999999861938887e+00
0	 9.428564672914550e+00	 2.000006066726355e+00	 9.999999831340476e+00
0	 9.428564672914547e+00	 2.142856795650925e+00	 9.999999805436286e+00
0	 9.428564672914550e+00	 2.285707441247718e+00	 9.999999784226336e+00
0	 9.428564672914550e+00	 2.428558020182488e+00	 9.999999767710641e+00
0	 9.428564672914549e+00	 2.571408549120992e+00	 9.999999755889192e+00
0	 9.428564672914549e+00	 2.714259044728984e+00	 9.999999748762038e+00
0	 9.428564672914547e+00	 2.857109523672222e+00	 9.999999746329154e+00
0	 9.571424596365201e+00	 1.428601984435185e+00	 1.000000069872479e+01
0	 9.571424596365201e+00	 1.571453213328422e+00	 1.000000065404387e+01
0	 9.571424596365205e+00	 1.714304292230859e+00	 1.000000061405709e+01
0	 9.571424596365198e+00	 1.857155237808251e+00	 1.000000057876448e+01
0	 9.571424596365205e+00	 2.000006066726356e+00	 1.000000054816607e+01
0	 9.571424596365203e+00	 2.142856795650926e+00	 1.000000052226188e+01
0	 9.571424596365201e+00	 2.285707441247718e+00	 1.000000050105193e+01
0	 9.571424596365203e+00	 2.428558020182488e+00	 1.000000048453623e+01
0	 9.571424596365201e+00	 2.571408549120992e+00	 1.000000047271479e+01
0	 9.571424596365199e+00	 2.714259044728984e+00	 1.000000046558763e+01
0	 9.571424596365201e+00	 2.857109523672222e+00	 1.000000046315474e+01
0	 9.714283869809320e+00	 1.428601984435185e+00	 1.000000155690342e+01
0	 9.714283869809320e+00	 1.571453213328422e+00	 1.000000151222249e+01
0	 9.714283869809320e+00	 1.714304292230859e+00	 1.000000147223571e+01
0	 9.714283869809321e+00	 1.857155237808252e+00	 1.000000143694310e+01
0	 9.714283869809321e+00	 2.000006066726355e+00	 1.000000140634469e+01
0	 9.714283869809321e+00	 2.142856795650926e+00	 1.000000138044051e+01
0	 9.714283869809321e+00	 2.285707441247718e+00	 1.000000135923056e+01
0	 9.714283869809321e+00	 2.428558020182488e+00	 1.000000134271485e+01
0	 9.714283869809321e+00	 2.571408549120992e+00	 1.000000133089342e+01
0	 9.714283869809320e+00	 2.714259044728984e+00	 1.000000132376626e+01
0	 9.714283869809321e+00	 2.857109523672222e+00	 1.000000132133337e+01
0	 9.857142376577418e+00	 1.428601984435185e+00	 1.000000255643928e+01
0	 9.857142376577416e+00	 1.571453213328422e+00	 1.000000251175835e+01
0	 9.857142376577420e+00	 1.714304292230859e+00	 1.000000247177157e+01
0	 9.857142376577418e+00	 1.857155237808251e+00	 1.000000243647895e+01
0	 9.857142376577420e+00	 2.000006066726356e+00	 1.000000240588054e+01
0	 9.857142376577416e+00	 2.142856795650926e+00	 1.000000237997636e+01
0	 9.857142376577418e+00	 2.285707441247718e+00	 1.000000235876641e+01
0	 9.857142376577416e+00	 2.428558020182488e+00	 1.000000234225071e+01
0	 9.857142376577414e+00	 2.571408549120991e+00	 1.000000233042927e+01
0	 9.857142376577416e+00	 2.714259044728984e+00	 1.000000232330212e+01
0	 9.857142376577416e+00	 2.857109523672222e+00	 1.000000232086922e+01
0	 1.000000000000000e+01	 1.428601984435185e+00	 1.000000369733727e+01
0	 1.000000000000000e+01	 1.571453213328422e+00	 1.000000365265636e+01
0	 1.000000000000000e+01	 1.714304292230859e+00	 1.000000361266957e+01
0	 1.000000000000000e+01	 1.857155237808251e+00	 1.000000357737696e+01
0	 1.000000000000000e+01	 2.000006066726355e+00	 1.000000354677855e+01
0	 9.999999999999998e+00	 2.142856795650925e+00	 1.000000352087437e+01
0	 1.000000000000000e+01	 2.285707441247718e+00	 1.000000349966441e+01
0	 1.000000000000000e+01	 2.428558020182488e+00	 1.000000348314871e+01
0	 1.000000000000000e+01	 2.571408549120992e+00	 1.000000347132728e+01
0	 1.000000000000000e+01	 2.714259044728984e+00	 1.000000346420012e+01
0	 9.999999999999998e+00	 2.857109523672222e+00	 1.000000346176722e+01
0	 8.571398015564814e+00	 2.857109523672223e+00	 9.999998413640995e+00
0	 8.571398015564816e+00	 2.999969994316575e+00	 9.999998413559537e+00
0	 8.571398015564812e+00	 3.142830431628385e+00	 9.999998413486642e+00
0	 8.571398015564816e+00	 3.285690802274106e+00	 9.999998413422329e+00
0	 8.571398015564816e+00	 3.428551072920193e+00	 9.999998413366587e+00
0	 8.571398015564816e+00	 3.571411210233102e+00	 9.999998413319421e+00
0	 8.571398015564816e+00	 3.714271180879290e+00	 9.999998413280828e+00
0	 8.571398015564816e+00	 3.857130951525211e+00	 9.999998413250820e+00
0	 8.571398015564817e+00	 3.999990488837320e+00	 9.999998413229385e+00
0	 8.571398015564816e+00	 4.142849759482074e+00	 9.999998413216520e+00
0	 8.571398015564817e+00	 4.285708730125926e+00	 9.999998413212230e+00
0	 8.714259388995398e+00	 2.857109523672221e+00	 9.999998282397929e+00
0	 8.714259388995401e+00	 2.999969994316575e+00	 9.999998282316467e+00
0	 8.714259388995400e+00	 3.142830431628386e+00	 9.999998282243578e+00
0	 8.714259388995401e+00	 3.285690802274106e+00	 9.999998282179263e+00
0	 8.714259388995401e+00	 3.428551072920193e+00	 9.999998282123521e+00
0	 8.714259388995400e+00	 3.571411210233103e+00	 9.999998282076360e+00
0	 8.714259388995401e+00	 3.714271180879290e+00	 9.999998282037771e+00
0	 8.714259388995401e+00	 3.857130951525211e+00	 9.999998282007754e+00
0	 8.714259388995401e+00	 3.999990488837321e+00	 9.999998281986317e+00
0	 8.714259388995400e+00	 4.142849759482074e+00	 9.999998281973463e+00
0	 8.714259388995398e+00	 4.285708730125926e+00	 9.999998281969166e+00
0	 8.857120812436381e+00	 2.857109523672222e+00	 9.999998292497208e+00
0	 8.857120812436388e+00	 2.999969994316576e+00	 9.999998292415746e+00
0	 8.857120812436383e+00	 3.142830431628385e+00	 9.999998292342861e+00
0	 8.857120812436387e+00	 3.285690802274106e+00	 9.999998292278551e+00
0	 8.857120812436385e+00	 3.428551072920193e+00	 9.999998292222804e+00
0	 8.857120812436383e+00	 3.571411210233102e+00	 9.999998292175635e+00
0	 8.857120812436381e+00	 3.714271180879289e+00	 9.999998292137040e+00
0	 8.857120812436385e+00	 3.857130951525210e+00	 9.999998292107039e+00
0	 8.857120812436383e+00	 3.999990488837319e+00	 9.999998292085595e+00
0	 8.857120812436385e+00	 4.142849759482075e+00	 9.999998292072732e+00
0	 8.857120812436381e+00	 4.285708730125926e+00	 9.999998292068444e+00
0	 8.999982169218281e+00	 2.857109523672223e+00	 9.999998443938878e+00
0	 8.999982169218280e+00	 2.999969994316576e+00	 9.999998443857420e+00
0	 8.999982169218283e+00	 3.142830431628385e+00	 9.999998443784529e+00
0	 8.999982169218281e+00	 3.285690802274106e+00	 9.999998443720214e+00
0	 8.999982169218283e+00	 3.428551072920194e+00	 9.999998443664470e+00
0	 8.999982169218281e+00	 3.571411210233102e+00	 9.999998443617313e+00
0	 8.999982169218283e+00	 3.714271180879291e+00	 9.999998443578725e+00
0	 8.999982169218278e+00	 3.857130951525210e+00	 9.999998443548709e+00
0	 8.999982169218283e+00	 3.999990488837320e+00	 9.999998443527272e+00
0	 8.999982169218283e+00	 4.142849759482074e+00	 9.999998443514409e+00
0	 8.999982169218281e+00	 4.285708730125926e+00	 9.999998443510119e+00
0	 9.142843342671599e+00	 2.857109523672221e+00	 9.999998736723693e+00
0	 9.142843342671602e+00	 2.999969994316576e+00	 9.999998736642228e+00
0	 9.142843342671599e+00	 3.142830431628386e+00	 9.999998736569339e+00
0	 9.142843342671602e+00	 3.285690802274107e+00	 9.999998736505020e+00
0	 9.142843342671600e+00	 3.428551072920194e+00	 9.999998736449283e+00
0	 9.142843342671600e+00	 3.571411210233101e+00	 9.999998736402116e+00
0	 9.142843342671599e+00	 3.714271180879289e+00	 9.999998736363530e+00
0	 9.142843342671600e+00	 3.857130951525211e+00	 9.999998736333513e+00
0	 9.142843342671599e+00	 3.999990488837320e+00	 9.999998736312078e+00
0	 9.142843342671602e+00	 4.142849759482074e+00	 9.999998736299213e+00
0	 9.142843342671599e+00	 4.285708730125926e+00	 9.999998736294923e+00
0	 9.285704216126852e+00	 2.857109523672223e+00	 9.999999170853069e+00
0	 9.285704216126852e+00	 2.999969994316576e+00	 9.999999170771607e+00
0	 9.285704216126852e+00	 3.142830431628385e+00	 9.999999170698713e+00
0	 9.285704216126854e+00	 3.285690802274106e+00	 9.999999170634407e+00
0	 9.285704216126852e+00	 3.428551072920193e+00	 9.999999170578665e+00
0	 9.285704216126851e+00	 3.571411210233103e+00	 9.999999170531506e+00
0	 9.285704216126851e+00	 3.714271180879290e+00	 9.999999170492908e+00
0	 9.285704216126852e+00	 3.857130951525211e+00	 9.999999170462896e+00
0	 9.285704216126852e+00	 3.999990488837320e+00	 9.999999170441459e+00
0	 9.285704216126851e+00	 4.142849759482074e+00	 9.999999170428598e+00
0	 9.285704216126852e+00	 4.285708730125926e+00	 9.999999170424308e+00
0	 9.428564672914547e+00	 2.857109523672222e+00	 9.999999746329154e+00
0	 9.428564672914549e+00	 2.999969994316575e+00	 9.999999746247683e+00
0	 9.428564672914549e+00	 3.142830431628386e+00	 9.999999746174792e+00
0	 9.428564672914549e+00	 3.285690802274106e+00	 9.999999746110481e+00
0	 9.428564672914549e+00	 3.428551072920193e+00	 9.999999746054741e+00
0	 9.428564672914552e+00	 3.571411210233104e+00	 9.999999746007582e+00
0	 9.428564672914550e+00	 3.714271180879290e+00	 9.999999745968992e+00
0	 9.428564672914549e+00	 3.857130951525210e+00	 9.999999745938975e+00
0	 9.428564672914550e+00	 3.999990488837321e+00	 9.999999745917538e+00
0	 9.428564672914549e+00	 4.142849759482075e+00	 9.999999745904674e+00
0	 9.428564672914549e+00	 4.285708730125926e+00	 9.999999745900382e+00
0	 9.571424596365201e+00	 2.857109523672222e+00	 1.000000046315474e+01
0	 9.571424596365203e+00	 2.999969994316576e+00	 1.000000046307328e+01
0	 9.571424596365201e+00	 3.142830431628385e+00	 1.000000046300039e+01
0	 9.571424596365199e+00	 3.285690802274106e+00	 1.000000046293608e+01
0	 9.571424596365199e+00	 3.428551072920193e+00	 1.000000046288034e+01
0	 9.571424596365201e+00	 3.571411210233103e+00	 1.000000046283318e+01
0	 9.571424596365201e+00	 3.714271180879290e+00	 1.000000046279458e+01
0	 9.571424596365203e+00	 3.857130951525210e+00	 1.000000046276457e+01
0	 9.571424596365201e+00	 3.999990488837320e+00	 1.000000046274313e+01
0	 9.571424596365201e+00	 4.142849759482074e+00	 1.000000046273027e+01
0	 9.571424596365199e+00	 4.285708730125925e+00	 1.000000046272597e+01
0	 9.714283869809321e+00	 2.857109523672222e+00	 1.000000132133337e+01
0	 9.714283869809321e+00	 2.999969994316576e+00	 1.000000132125190e+01
0	 9.714283869809320e+00	 3.142830431628385e+00	 1.000000132117901e+01
0	 9.714283869809321e+00	 3.285690802274106e+00	 1.000000132111470e+01
0	 9.714283869809321e+00	 3.428551072920194e+00	 1.000000132105896e+01
0	 9.714283869809320e+00	 3.571411210233103e+00	 1.000000132101179e+01
0	 9.714283869809320e+00	 3.714271180879290e+00	 1.000000132097320e+01
0	 9.714283869809320e+00	 3.857130951525209e+00	 1.000000132094319e+01
0	 9.714283869809321e+00	 3.999990488837321e+00	 1.000000132092176e+01
0	 9.714283869809320e+00	 4.142849759482075e+00	 1.000000132090890e+01
0	 9.714283869809320e+00	 4.285708730125926e+00	 1.000000132090460e+01
0	 9.857142376577416e+00	 2.857109523672222e+00	 1.000000232086922e+01
0	 9.857142376577416e+00	 2.999969994316576e+00	 1.000000232078776e+01
0	 9.857142376577416e+00	 3.142830431628386e+00	 1.000000232071487e+01
0	 9.857142376577418e+00	 3.285690802274106e+00	 1.000000232065055e+01
0	 9.857142376577418e+00	 3.428551072920193e+00	 1.000000232059482e+01
0	 9.857142376577418e+00	 3.571411210233103e+00	 1.000000232054765e+01
0	 9.857142376577416e+00	 3.714271180879290e+00	 1.000000232050907e+01
0	 9.857142376577420e+00	 3.857130951525211e+00	 1.000000232047905e+01
0	 9.857142376577418e+00	 3.999990488837320e+00	 1.000000232045761e+01
0	 9.857142376577414e+00	 4.142849759482074e+00	 1.000000232044476e+01
0	 9.857142376577416e+00	 4.285708730125926e+00	 1.000000232044047e+01
0	 9.999999999999998e+00	 2.857109523672222e+00	 1.000000346176722e+01
0	 1.000000000000000e+01	 2.999969994316576e+00	 1.000000346168575e+01
0	 1.000000000000000e+01	 3.142830431628385e+00	 1.000000346161286e+01
0	 1.000000000000000e+01	 3.285690802274106e+00	 1.000000346154855e+01
0	 1.000000000000000e+01	 3.428551072920193e+00	 1.000000346149282e+01
0	 1.000000000000000e+01	 3.571411210233102e+00	 1.000000346144564e+01
0	 1.000000000000000e+01	 3.714271180879290e+00	 1.000000346140705e+01
0	 1.000000000000000e+01	 3.857130951525210e+00	 1.000000346137705e+01
0	 1.000000000000000e+01	 3.999990488837320e+00	 1.000000346135560e+01
0	 1.000000000000000e+01	 4.142849759482075e+00	 1.000000346134275e+01
0	 1.000000000000000e+01	 4.285708730125926e+00	 1.000000346133846e+01
0	 8.571398015564817e+00	 4.285708730125926e+00	 9.999998413212230e+00
0	 8.571398015564816e+00	 4.428567384102076e+00	 9.999998413212232e+00
0	 8.571398015564816e+00	 4.571425771410667e+00	 9.999998413212229e+00
0	 8.571398015564816e+00	 4.714283958718593e+00	 9.999998413212230e+00
0	 8.571398015564816e+00	 4.857142012692742e+00	 9.999998413212230e+00
0	 8.571398015564816e+00	 5.000000000000002e+00	 9.999998413212234e+00
0	 8.571398015564814e+00	 5.142857987307261e+00	 9.999998413212230e+00
0	 8.571398015564816e+00	 5.285716041281409e+00	 9.999998413212232e+00
0	 8.571398015564816e+00	 5.428574228589335e+00	 9.999998413212232e+00
0	 8.571398015564816e+00	 5.571432615897928e+00	 9.999998413212237e+00
0	 8.571398015564816e+00	 5.714291269874074e+00	 9.999998413212234e+00
0	 8.714259388995398e+00	 4.285708730125926e+00	 9.999998281969166e+00
0	 8.714259388995400e+00	 4.428567384102074e+00	 9.999998281969164e+00
0	 8.714259388995398e+00	 4.571425771410667e+00	 9.999998281969166e+00
0	 8.714259388995400e+00	 4.714283958718593e+00	 9.999998281969173e+00
0	 8.714259388995398e+00	 4.857142012692742e+00	 9.999998281969166e+00
0	 8.714259388995400e+00	 5.000000000000000e+00	 9.999998281969170e+00
0	 8.714259388995398e+00	 5.142857987307261e+00	 9.999998281969170e+00
0	 8.714259388995400e+00	 5.285716041281409e+00	 9.999998281969166e+00
0	 8.714259388995400e+00	 5.428574228589335e+00	 9.999998281969166e+00
0	 8.714259388995400e+00	 5.571432615897928e+00	 9.999998281969171e+00
0	 8.714259388995401e+00	 5.714291269874074e+00	 9.999998281969173e+00
0	 8.857120812436381e+00	 4.285708730125926e+00	 9.999998292068444e+00
0	 8.857120812436385e+00	 4.428567384102074e+00	 9.999998292068447e+00
0	 8.857120812436383e+00	 4.571425771410667e+00	 9.999998292068449e+00
0	 8.857120812436383e+00	 4.714283958718593e+00	 9.999998292068438e+00
0	 8.857120812436381e+00	 4.857142012692742e+00	 9.999998292068442e+00
0	 8.857120812436385e+00	 5.000000000000002e+00	 9.999998292068451e+00
0	 8.857120812436383e+00	 5.142857987307260e+00	 9.999998292068451e+00
0	 8.857120812436383e+00	 5.285716041281408e+00	 9.999998292068453e+00
0	 8.857120812436387e+00	 5.428574228589335e+00	 9.999998292068451e+00
0	 8.857120812436385e+00	 5.571432615897929e+00	 9.999998292068451e+00
0	 8.857120812436385e+00	 5.714291269874074e+00	 9.999998292068453e+00
0	 8.999982169218281e+00	 4.285708730125926e+00	 9.999998443510119e+00
0	 8.999982169218283e+00	 4.428567384102075e+00	 9.999998443510123e+00
0	 8.999982169218281e+00	 4.571425771410667e+00	 9.999998443510119e+00
0	 8.999982169218281e+00	 4.714283958718593e+00	 9.999998443510123e+00
0	 8.999982169218281e+00	 4.857142012692742e+00	 9.999998443510123e+00
0	 8.999982169218281e+00	 5.000000000000001e+00	 9.999998443510115e+00
0	 8.999982169218280e+00	 5.142857987307258e+00	 9.999998443510119e+00
0	 8.999982169218281e+00	 5.285716041281408e+00	 9.999998443510123e+00
0	 8.999982169218281e+00	 5.428574228589336e+00	 9.999998443510124e+00
0	 8.999982169218280e+00	 5.571432615897929e+00	 9.999998443510124e+00
0	 8.999982169218280e+00	 5.714291269874074e+00	 9.999998443510121e+00
0	 9.142843342671599e+00	 4.285708730125926e+00	 9.999998736294923e+00
0	 9.142843342671602e+00	 4.428567384102076e+00	 9.999998736294929e+00
0	 9.142843342671602e+00	 4.571425771410667e+00	 9.999998736294931e+00
0	 9.142843342671602e+00	 4.714283958718594e+00	 9.999998736294931e+00
0	 9.142843342671602e+00	 4.857142012692742e+00	 9.999998736294927e+00
0	 9.142843342671597e+00	 5.000000000000001e+00	 9.999998736294927e+00
0	 9.142843342671597e+00	 5.142857987307260e+00	 9.999998736294927e+00
0	 9.142843342671599e+00	 5.285716041281409e+00	 9.999998736294934e+00
0	 9.142843342671600e+00	 5.428574228589334e+00	 9.999998736294929e+00
0	 9.142843342671600e+00	 5.571432615897928e+00	 9.999998736294931e+00
0	 9.142843342671597e+00	 5.714291269874074e+00	 9.999998736294934e+00
0	 9.285704216126852e+00	 4.285708730125926e+00	 9.999999170424308e+00
0	 9.285704216126852e+00	 4.428567384102075e+00	 9.999999170424307e+00
0	 9.285704216126852e+00	 4.571425771410667e+00	 9.999999170424307e+00
0	 9.285704216126854e+00	 4.714283958718593e+00	 9.999999170424307e+00
0	 9.285704216126852e+00	 4.857142012692742e+00	 9.999999170424307e+00
0	 9.285704216126851e+00	 5.000000000000000e+00	 9.999999170424314e+00
0	 9.285704216126851e+00	 5.142857987307261e+00	 9.999999170424308e+00
0	 9.285704216126852e+00	 5.285716041281407e+00	 9.999999170424308e+00
0	 9.285704216126852e+00	 5.428574228589335e+00	 9.999999170424310e+00
0	 9.285704216126852e+00	 5.571432615897926e+00	 9.999999170424310e+00
0	 9.285704216126852e+00	 5.714291269874074e+00	 9.999999170424310e+00
0	 9.428564672914549e+00	 4.285708730125926e+00	 9.999999745900382e+00
0	 9.428564672914550e+00	 4.428567384102075e+00	 9.999999745900389e+00
0	 9.428564672914550e+00	 4.571425771410667e+00	 9.999999745900388e+00
0	 9.428564672914549e+00	 4.714283958718593e+00	 9.999999745900386e+00
0	 9.428564672914550e+00	 4.857142012692742e+00	 9.999999745900380e+00
0	 9.428564672914549e+00	 5.000000000000001e+00	 9.999999745900389e+00
0	 9.428564672914550e+00	 5.142857987307260e+00	 9.999999745900382e+00
0	 9.428564672914549e+00	 5.285716041281409e+00	 9.999999745900380e+00
0	 9.428564672914549e+00	 5.428574228589336e+00	 9.999999745900388e+00
0	 9.428564672914549e+00	 5.571432615897928e+00	 9.999999745900386e+00
0	 9.428564672914550e+00	 5.714291269874074e+00	 9.999999745900380e+00
0	 9.571424596365199e+00	 4.285708730125925e+00	 1.000000046272597e+01
0	 9.571424596365201e+00	 4.428567384102073e+00	 1.000000046272597e+01
0	 9.571424596365199e+00	 4.571425771410667e+00	 1.000000046272598e+01
0	 9.571424596365201e+00	 4.714283958718593e+00	 1.000000046272597e+01
0	 9.571424596365199e+00	 4.857142012692742e+00	 1.000000046272597e+01
0	 9.571424596365203e+00	 5.000000000000001e+00	 1.000000046272598e+01
0	 9.571424596365203e+00	 5.142857987307261e+00	 1.000000046272598e+01
0	 9.571424596365199e+00	 5.285716041281408e+00	 1.000000046272598e+01
0	 9.571424596365203e+00	 5.428574228589335e+00	 1.000000046272599e+01
0	 9.571424596365201e+00	 5.571432615897927e+00	 1.000000046272599e+01
0	 9.571424596365199e+00	 5.714291269874074e+00	 1.000000046272597e+01
0	 9.714283869809320e+00	 4.285708730125926e+00	 1.000000132090460e+01
0	 9.714283869809321e+00	 4.428567384102075e+00	 1.000000132090461e+01
0	 9.714283869809321e+00	 4.571425771410667e+00	 1.000000132090460e+01
0	 9.714283869809321e+00	 4.714283958718594e+00	 1.000000132090461e+01
0	 9.714283869809321e+00	 4.857142012692741e+00	 1.000000132090460e+01
0	 9.714283869809321e+00	 5.000000000000001e+00	 1.000000132090460e+01
0	 9.714283869809320e+00	 5.142857987307260e+00	 1.000000132090460e+01
0	 9.714283869809321e+00	 5.285716041281409e+00	 1.000000132090460e+01
0	 9.714283869809321e+00	 5.428574228589335e+00	 1.000000132090462e+01
0	 9.714283869809320e+00	 5.571432615897927e+00	 1.000000132090461e+01
0	 9.714283869809320e+00	 5.714291269874073e+00	 1.000000132090461e+01
0	 9.857142376577416e+00	 4.285708730125926e+00	 1.000000232044047e+01
0	 9.857142376577416e+00	 4.428567384102075e+00	 1.000000232044046e+01
0	 9.857142376577416e+00	 4.571425771410667e+00	 1.000000232044045e+01
0	 9.857142376577418e+00	 4.714283958718593e+00	 1.000000232044047e+01
0	 9.857142376577420e+00	 4.857142012692742e+00	 1.000000232044046e+01
0	 9.857142376577416e+00	 5.000000000000000e+00	 1.000000232044047e+01
0	 9.857142376577416e+00	 5.142857987307260e+00	 1.000000232044047e+01
0	 9.857142376577416e+00	 5.285716041281407e+00	 1.000000232044047e+01
0	 9.857142376577416e+00	 5.428574228589334e+00	 1.000000232044047e+01
0	 9.857142376577418e+00	 5.571432615897928e+00	 1.000000232044047e+01
0	 9.857142376577416e+00	 5.714291269874074e+00	 1.000000232044047e+01
0	 1.000000000000000e+01	 4.285708730125926e+00	 1.000000346133846e+01
0	 1.000000000000000e+01	 4.428567384102075e+00	 1.000000346133846e+01
0	 1.000000000000000e+01	 4.571425771410668e+00	 1.000000346133846e+01
0	 1.000000000000000e+01	 4.714283958718593e+00	 1.000000346133845e+01
0	 1.000000000000000e+01	 4.857142012692742e+00	 1.000000346133844e+01
0	 1.000000000000000e+01	 5.000000000000002e+00	 1.000000346133845e+01
0	 1.000000000000000e+01	 5.142857987307262e+00	 1.000000346133847e+01
0	 1.000000000000000e+01	 5.285716041281409e+00	 1.000000346133846e+01
0	 1.000000000000000e+01	 5.428574228589335e+00	 1.000000346133846e+01
0	 1.000000000000000e+01	 5.571432615897928e+00	 1.000000346133847e+01
0	 1.000000000000000e+01	 5.714291269874075e+00	 1.000000346133847e+01
0	 8.571398015564816e+00	 5.714291269874074e+00	 9.999998413212234e+00
0	 8.571398015564816e+00	 5.857150240517927e+00	 9.999998413216527e+00
0	 8.571398015564816e+00	 6.000009511162681e+00	 9.999998413229388e+00
0	 8.571398015564816e+00	 6.142869048474793e+00	 9.999998413250829e+00
0	 8.571398015564814e+00	 6.285728819120712e+00	 9.999998413280833e+00
0	 8.571398015564816e+00	 6.428588789766899e+00	 9.999998413319425e+00
0	 8.571398015564817e+00	 6.571448927079810e+00	 9.999998413366590e+00
0	 8.571398015564817e+00	 6.714309197725898e+00	 9.999998413422334e+00
0	 8.571398015564816e+00	 6.857169568371617e+00	 9.999998413486646e+00
0	 8.571398015564819e+00	 7.000030005683428e+00	 9.999998413559526e+00
0	 8.571398015564816e+00	 7.142890476327779e+00	 9.999998413640997e+00
0	 8.714259388995401e+00	 5.714291269874074e+00	 9.999998281969173e+00
0	 8.714259388995400e+00	 5.857150240517928e+00	 9.999998281973461e+00
0	 8.714259388995403e+00	 6.000009511162682e+00	 9.999998281986326e+00
0	 8.714259388995401e+00	 6.142869048474792e+00	 9.999998282007763e+00
0	 8.714259388995400e+00	 6.285728819120712e+00	 9.999998282037772e+00
0	 8.714259388995400e+00	 6.428588789766899e+00	 9.999998282076360e+00
0	 8.714259388995401e+00	 6.571448927079811e+00	 9.999998282123528e+00
0	 8.714259388995400e+00	 6.714309197725897e+00	 9.999998282179259e+00
0	 8.714259388995401e+00	 6.857169568371616e+00	 9.999998282243578e+00
0	 8.714259388995400e+00	 7.000030005683427e+00	 9.999998282316467e+00
0	 8.714259388995398e+00	 7.142890476327777e+00	 9.999998282397931e+00
0	 8.857120812436385e+00	 5.714291269874074e+00	 9.999998292068453e+00
0	 8.857120812436385e+00	 5.857150240517928e+00	 9.999998292072727e+00
0	 8.857120812436385e+00	 6.000009511162680e+00	 9.999998292085603e+00
0	 8.857120812436385e+00	 6.142869048474791e+00	 9.999998292107044e+00
0	 8.857120812436385e+00	 6.285728819120715e+00	 9.999998292137057e+00
0	 8.857120812436387e+00	 6.428588789766901e+00	 9.999998292175651e+00
0	 8.857120812436385e+00	 6.571448927079809e+00	 9.999998292222804e+00
0	 8.857120812436381e+00	 6.714309197725893e+00	 9.999998292278539e+00
0	 8.857120812436383e+00	 6.857169568371615e+00	 9.999998292342863e+00
0	 8.857120812436385e+00	 7.000030005683425e+00	 9.999998292415754e+00
0	 8.857120812436385e+00	 7.142890476327779e+00	 9.999998292497207e+00
0	 8.999982169218280e+00	 5.714291269874074e+00	 9.999998443510121e+00
0	 8.999982169218283e+00	 5.857150240517928e+00	 9.999998443514414e+00
0	 8.999982169218281e+00	 6.000009511162684e+00	 9.999998443527275e+00
0	 8.999982169218281e+00	 6.142869048474792e+00	 9.999998443548712e+00
0	 8.999982169218280e+00	 6.285728819120711e+00	 9.999998443578729e+00
0	 8.999982169218281e+00	 6.428588789766900e+00	 9.999998443617315e+00
0	 8.999982169218280e+00	 6.571448927079809e+00	 9.999998443664477e+00
0	 8.999982169218280e+00	 6.714309197725894e+00	 9.999998443720219e+00
0	 8.999982169218283e+00	 6.857169568371617e+00	 9.999998443784529e+00
0	 8.999982169218281e+00	 7.000030005683427e+00	 9.999998443857420e+00
0	 8.999982169218280e+00	 7.142890476327776e+00	 9.999998443938880e+00
0	 9.142843342671597e+00	 5.714291269874074e+00	 9.999998736294934e+00
0	 9.142843342671599e+00	 5.857150240517928e+00	 9.999998736299219e+00
0	 9.142843342671602e+00	 6.000009511162683e+00	 9.999998736312090e+00
0	 9.142843342671600e+00	 6.142869048474794e+00	 9.999998736333522e+00
0	 9.142843342671597e+00	 6.285728819120711e+00	 9.999998736363537e+00
0	 9.142843342671599e+00	 6.428588789766900e+00	 9.999998736402123e+00
0	 9.142843342671602e+00	 6.571448927079810e+00	 9.999998736449289e+00
0	 9.142843342671599e+00	 6.714309197725896e+00	 9.999998736505027e+00
0	 9.142843342671600e+00	 6.857169568371616e+00	 9.999998736569337e+00
0	 9.142843342671600e+00	 7.000030005683425e+00	 9.999998736642230e+00
0	 9.142843342671599e+00	 7.142890476327778e+00	 9.999998736723693e+00
0	 9.285704216126852e+00	 5.714291269874074e+00	 9.999999170424310e+00
0	 9.285704216126852e+00	 5.857150240517927e+00	 9.999999170428605e+00
0	 9.285704216126852e+00	 6.000009511162681e+00	 9.999999170441466e+00
0	 9.285704216126854e+00	 6.142869048474792e+00	 9.999999170462901e+00
0	 9.285704216126851e+00	 6.285728819120711e+00	 9.999999170492913e+00
0	 9.285704216126851e+00	 6.428588789766899e+00	 9.999999170531501e+00
0	 9.285704216126851e+00	 6.571448927079808e+00	 9.999999170578658e+00
0	 9.285704216126849e+00	 6.714309197725896e+00	 9.999999170634403e+00
0	 9.285704216126852e+00	 6.857169568371616e+00	 9.999999170698720e+00
0	 9.285704216126851e+00	 7.000030005683424e+00	 9.999999170771606e+00
0	 9.285704216126852e+00	 7.142890476327779e+00	 9.999999170853076e+00
0	 9.428564672914550e+00	 5.714291269874074e+00	 9.999999745900380e+00
0	 9.428564672914550e+00	 5.857150240517927e+00	 9.999999745904679e+00
0	 9.428564672914547e+00	 6.000009511162681e+00	 9.999999745917533e+00
0	 9.428564672914549e+00	 6.142869048474791e+00	 9.999999745938977e+00
0	 9.428564672914550e+00	 6.285728819120711e+00	 9.999999745968989e+00
0	 9.428564672914549e+00	 6.428588789766899e+00	 9.999999746007582e+00
0	 9.428564672914552e+00	 6.571448927079810e+00	 9.999999746054748e+00
0	 9.428564672914547e+00	 6.714309197725897e+00	 9.999999746110477e+00
0	 9.428564672914550e+00	 6.857169568371617e+00	 9.999999746174799e+00
0	 9.428564672914547e+00	 7.000030005683427e+00	 9.999999746247683e+00
0	 9.428564672914549e+00	 7.142890476327777e+00	 9.999999746329147e+00
0	 9.571424596365199e+00	 5.714291269874074e+00	 1.000000046272597e+01
0	 9.571424596365203e+00	 5.857150240517928e+00	 1.000000046273027e+01
0	 9.571424596365199e+00	 6.000009511162681e+00	 1.000000046274313e+01
0	 9.571424596365201e+00	 6.142869048474791e+00	 1.000000046276457e+01
0	 9.571424596365201e+00	 6.285728819120712e+00	 1.000000046279458e+01
0	 9.571424596365201e+00	 6.428588789766899e+00	 1.000000046283318e+01
0	 9.571424596365199e+00	 6.571448927079808e+00	 1.000000046288034e+01
0	 9.571424596365201e+00	 6.714309197725895e+00	 1.000000046293608e+01
0	 9.571424596365203e+00	 6.857169568371617e+00	 1.000000046300040e+01
0	 9.571424596365205e+00	 7.000030005683429e+00	 1.000000046307328e+01
0	 9.571424596365203e+00	 7.142890476327779e+00	 1.000000046315474e+01
0	 9.714283869809320e+00	 5.714291269874073e+00	 1.000000132090461e+01
0	 9.714283869809318e+00	 5.857150240517929e+00	 1.000000132090890e+01
0	 9.714283869809320e+00	 6.000009511162683e+00	 1.000000132092176e+01
0	 9.714283869809321e+00	 6.142869048474792e+00	 1.000000132094320e+01
0	 9.714283869809321e+00	 6.285728819120712e+00	 1.000000132097321e+01
0	 9.714283869809321e+00	 6.428588789766899e+00	 1.000000132101179e+01
0	 9.714283869809320e+00	 6.571448927079810e+00	 1.000000132105896e+01
0	 9.714283869809323e+00	 6.714309197725897e+00	 1.000000132111470e+01
0	 9.714283869809320e+00	 6.857169568371615e+00	 1.000000132117901e+01
0	 9.714283869809321e+00	 7.000030005683427e+00	 1.000000132125190e+01
0	 9.714283869809321e+00	 7.142890476327778e+00	 1.000000132133337e+01
0	 9.857142376577416e+00	 5.714291269874074e+00	 1.000000232044047e+01
0	 9.857142376577418e+00	 5.857150240517927e+00	 1.000000232044476e+01
0	 9.857142376577416e+00	 6.000009511162682e+00	 1.000000232045761e+01
0	 9.857142376577416e+00	 6.142869048474791e+00	 1.000000232047905e+01
0	 9.857142376577416e+00	 6.285728819120711e+00	 1.000000232050907e+01
0	 9.857142376577418e+00	 6.428588789766900e+00	 1.000000232054765e+01
0	 9.857142376577416e+00	 6.571448927079808e+00	 1.000000232059482e+01
0	 9.857142376577418e+00	 6.714309197725896e+00	 1.000000232065056e+01
0	 9.857142376577416e+00	 6.857169568371617e+00	 1.000000232071488e+01
0	 9.857142376577418e+00	 7.000030005683426e+00	 1.000000232078776e+01
0	 9.857142376577414e+00	 7.142890476327778e+00	 1.000000232086922e+01
0	 1.000000000000000e+01	 5.714291269874075e+00	 1.000000346133847e+01
0	 1.000000000000000e+01	 5.857150240517928e+00	 1.000000346134274e+01
0	 1.000000000000000e+01	 6.000009511162681e+00	 1.000000346135562e+01
0	 1.000000000000000e+01	 6.142869048474791e+00	 1.000000346137705e+01
0	 9.999999999999998e+00	 6.285728819120711e+00	 1.000000346140706e+01
0	 1.000000000000000e+01	 6.428588789766900e+00	 1.000000346144565e+01
0	 1.000000000000000e+01	 6.571448927079809e+00	 1.000000346149283e+01
0	 1.000000000000000e+01	 6.714309197725897e+00	 1.000000346154855e+01
0	 1.000000000000000e+01	 6.857169568371615e+00	 1.000000346161288e+01
0	 1.000000000000000e+01	 7.000030005683427e+00	 1.000000346168577e+01
0	 1.000000000000000e+01	 7.142890476327777e+00	 1.000000346176722e+01
0	 8.571398015564816e+00	 7.142890476327779e+00	 9.999998413641000e+00
0	 8.571398015564816e+00	 7.285740955271013e+00	 9.999998437275318e+00
0	 8.571398015564816e+00	 7.428591450879008e+00	 9.999998508006742e+00
0	 8.571398015564814e+00	 7.571441979817510e+00	 9.999998625835245e+00
0	 8.571398015564814e+00	 7.714292558752279e+00	 9.999998790760714e+00
0	 8.571398015564814e+00	 7.857143204349073e+00	 9.999999002783067e+00
0	 8.571398015564816e+00	 7.999993933273642e+00	 9.999999261902143e+00
0	 8.571398015564817e+00	 8.142844762191748e+00	 9.999999568117746e+00
0	 8.571398015564816e+00	 8.285695707769140e+00	 9.999999921429687e+00
0	 8.571398015564817e+00	 8.428546786671578e+00	 1.000000032183770e+01
0	 8.571398015564816e+00	 8.571398015564816e+00	 1.000000076934152e+01
0	 8.714259388995398e+00	 7.142890476327777e+00	 9.999998282397931e+00
0	 8.714259388995400e+00	 7.285740955271015e+00	 9.999998306032246e+00
0	 8.714259388995400e+00	 7.428591450879006e+00	 9.999998376763672e+00
0	 8.714259388995401e+00	 7.571441979817512e+00	 9.999998494592175e+00
0	 8.714259388995396e+00	 7.714292558752279e+00	 9.999998659517654e+00
0	 8.714259388995401e+00	 7.857143204349073e+00	 9.999998871540010e+00
0	 8.714259388995400e+00	 7.999993933273644e+00	 9.999999130659065e+00
0	 8.714259388995400e+00	 8.142844762191748e+00	 9.999999436874688e+00
0	 8.714259388995401e+00	 8.285695707769142e+00	 9.999999790186616e+00
0	 8.714259388995401e+00	 8.428546786671578e+00	 1.000000019059463e+01
0	 8.714259388995400e+00	 8.571398015564816e+00	 1.000000063809844e+01
0	 8.857120812436385e+00	 7.142890476327779e+00	 9.999998292497210e+00
0	 8.857120812436385e+00	 7.285740955271013e+00	 9.999998316131519e+00
0	 8.857120812436387e+00	 7.428591450879007e+00	 9.999998386862949e+00
0	 8.857120812436385e+00	 7.571441979817511e+00	 9.999998504691447e+00
0	 8.857120812436387e+00	 7.714292558752279e+00	 9.999998669616932e+00
0	 8.857120812436385e+00	 7.857143204349073e+00	 9.999998881639277e+00
0	 8.857120812436388e+00	 7.999993933273646e+00	 9.999999140758346e+00
0	 8.857120812436381e+00	 8.142844762191746e+00	 9.999999446973961e+00
0	 8.857120812436387e+00	 8.285695707769140e+00	 9.999999800285899e+00
0	 8.857120812436385e+00	 8.428546786671575e+00	 1.000000020069392e+01
0	 8.857120812436383e+00	 8.571398015564814e+00	 1.000000064819772e+01
0	 8.999982169218280e+00	 7.142890476327776e+00	 9.999998443938882e+00
0	 8.999982169218283e+00	 7.285740955271016e+00	 9.999998467573194e+00
0	 8.999982169218278e+00	 7.428591450879007e+00	 9.999998538304627e+00
0	 8.999982169218283e+00	 7.571441979817514e+00	 9.999998656133123e+00
0	 8.999982169218283e+00	 7.714292558752282e+00	 9.999998821058611e+00
0	 8.999982169218280e+00	 7.857143204349074e+00	 9.999999033080954e+00
0	 8.999982169218281e+00	 7.999993933273644e+00	 9.999999292200025e+00
0	 8.999982169218280e+00	 8.142844762191750e+00	 9.999999598415632e+00
0	 8.999982169218280e+00	 8.285695707769138e+00	 9.999999951727574e+00
0	 8.999982169218280e+00	 8.428546786671577e+00	 1.000000035213558e+01
0	 8.999982169218283e+00	 8.571398015564817e+00	 1.000000079963940e+01
0	 9.142843342671599e+00	 7.142890476327778e+00	 9.999998736723693e+00
0	 9.142843342671602e+00	 7.285740955271013e+00	 9.999998760358004e+00
0	 9.142843342671600e+00	 7.428591450879005e+00	 9.999998831089439e+00
0	 9.142843342671602e+00	 7.571441979817513e+00	 9.999998948917929e+00
0	 9.142843342671599e+00	 7.714292558752279e+00	 9.999999113843410e+00
0	 9.142843342671600e+00	 7.857143204349073e+00	 9.999999325865758e+00
0	 9.142843342671599e+00	 7.999993933273642e+00	 9.999999584984835e+00
0	 9.142843342671600e+00	 8.142844762191748e+00	 9.999999891200446e+00
0	 9.142843342671599e+00	 8.285695707769140e+00	 1.000000024451237e+01
0	 9.142843342671599e+00	 8.428546786671575e+00	 1.000000064492040e+01
0	 9.142843342671600e+00	 8.571398015564816e+00	 1.000000109242421e+01
0	 9.285704216126852e+00	 7.142890476327779e+00	 9.999999170853078e+00
0	 9.285704216126854e+00	 7.285740955271016e+00	 9.999999194487385e+00
0	 9.285704216126852e+00	 7.428591450879007e+00	 9.999999265218811e+00
0	 9.285704216126852e+00	 7.571441979817512e+00	 9.999999383047305e+00
0	 9.285704216126854e+00	 7.714292558752281e+00	 9.999999547972797e+00
0	 9.285704216126851e+00	 7.857143204349073e+00	 9.999999759995143e+00
0	 9.285704216126854e+00	 7.999993933273644e+00	 1.000000001911421e+01
0	 9.285704216126852e+00	 8.142844762191750e+00	 1.000000032532983e+01
0	 9.285704216126852e+00	 8.285695707769140e+00	 1.000000067864176e+01
0	 9.285704216126851e+00	 8.428546786671577e+00	 1.000000107904977e+01
0	 9.285704216126851e+00	 8.571398015564816e+00	 1.000000152655359e+01
0	 9.428564672914549e+00	 7.142890476327777e+00	 9.999999746329152e+00
0	 9.428564672914549e+00	 7.285740955271014e+00	 9.999999769963459e+00
0	 9.428564672914550e+00	 7.428591450879009e+00	 9.999999840694887e+00
0	 9.428564672914549e+00	 7.571441979817511e+00	 9.999999958523382e+00
0	 9.428564672914545e+00	 7.714292558752278e+00	 1.000000012344887e+01
0	 9.428564672914547e+00	 7.857143204349073e+00	 1.000000033547122e+01
0	 9.428564672914549e+00	 7.999993933273645e+00	 1.000000059459028e+01
0	 9.428564672914549e+00	 8.142844762191746e+00	 1.000000090080590e+01
0	 9.428564672914549e+00	 8.285695707769143e+00	 1.000000125411784e+01
0	 9.428564672914547e+00	 8.428546786671577e+00	 1.000000165452584e+01
0	 9.428564672914549e+00	 8.571398015564816e+00	 1.000000210202967e+01
0	 9.571424596365203e+00	 7.142890476327779e+00	 1.000000046315474e+01
0	 9.571424596365198e+00	 7.285740955271014e+00	 1.000000048678905e+01
0	 9.571424596365199e+00	 7.428591450879007e+00	 1.000000055752049e+01
0	 9.571424596365201e+00	 7.571441979817511e+00	 1.000000067534899e+01
0	 9.571424596365199e+00	 7.714292558752280e+00	 1.000000084027447e+01
0	 9.571424596365203e+00	 7.857143204349074e+00	 1.000000105229682e+01
0	 9.571424596365199e+00	 7.999993933273644e+00	 1.000000131141588e+01
0	 9.571424596365201e+00	 8.142844762191748e+00	 1.000000161763148e+01
0	 9.571424596365201e+00	 8.285695707769140e+00	 1.000000197094343e+01
0	 9.571424596365203e+00	 8.428546786671578e+00	 1.000000237135144e+01
0	 9.571424596365201e+00	 8.571398015564814e+00	 1.000000281885525e+01
0	 9.714283869809321e+00	 7.142890476327778e+00	 1.000000132133337e+01
0	 9.714283869809321e+00	 7.285740955271014e+00	 1.000000134496768e+01
0	 9.714283869809321e+00	 7.428591450879006e+00	 1.000000141569911e+01
0	 9.714283869809320e+00	 7.571441979817510e+00	 1.000000153352761e+01
0	 9.714283869809321e+00	 7.714292558752279e+00	 1.000000169845308e+01
0	 9.714283869809320e+00	 7.857143204349073e+00	 1.000000191047544e+01
0	 9.714283869809320e+00	 7.999993933273643e+00	 1.000000216959451e+01
0	 9.714283869809321e+00	 8.142844762191748e+00	 1.000000247581012e+01
0	 9.714283869809320e+00	 8.285695707769140e+00	 1.000000282912205e+01
0	 9.714283869809321e+00	 8.428546786671578e+00	 1.000000322953006e+01
0	 9.714283869809321e+00	 8.571398015564816e+00	 1.000000367703388e+01
0	 9.857142376577414e+00	 7.142890476327778e+00	 1.000000232086922e+01
0	 9.857142376577416e+00	 7.285740955271015e+00	 1.000000234450353e+01
0	 9.857142376577416e+00	 7.428591450879007e+00	 1.000000241523497e+01
0	 9.857142376577416e+00	 7.571441979817511e+00	 1.000000253306348e+01
0	 9.857142376577418e+00	 7.714292558752279e+00	 1.000000269798895e+01
0	 9.857142376577416e+00	 7.857143204349073e+00	 1.000000291001129e+01
0	 9.857142376577416e+00	 7.999993933273645e+00	 1.000000316913037e+01
0	 9.857142376577416e+00	 8.142844762191748e+00	 1.000000347534598e+01
0	 9.857142376577418e+00	 8.285695707769142e+00	 1.000000382865791e+01
0	 9.857142376577420e+00	 8.428546786671578e+00	 1.000000422906592e+01
0	 9.857142376577418e+00	 8.571398015564816e+00	 1.000000467656974e+01
0	 1.000000000000000e+01	 7.142890476327777e+00	 1.000000346176722e+01
0	 1.000000000000000e+01	 7.285740955271013e+00	 1.000000348540154e+01
0	 1.000000000000000e+01	 7.428591450879007e+00	 1.000000355613296e+01
0	 1.000000000000000e+01	 7.571441979817512e+00	 1.000000367396146e+01
0	 1.000000000000000e+01	 7.714292558752281e+00	 1.000000383888693e+01
0	 1.000000000000000e+01	 7.857143204349074e+00	 1.000000405090929e+01
0	 1.000000000000000e+01	 7.999993933273645e+00	 1.000000431002835e+01
0	 1.000000000000000e+01	 8.142844762191748e+00	 1.000000461624399e+01
0	 9.999999999999998e+00	 8.285695707769140e+00	 1.000000496955590e+01
0	 1.000000000000000e+01	 8.428546786671577e+00	 1.000000536996391e+01
0	 1.000000000000000e+01	 8.571398015564816e+00	 1.000000581746774e+01
0	 8.571398015564816e+00	 8.571398015564816e+00	 1.000000076934151e+01
0	 8.571398015564817e+00	 8.714259388995400e+00	 1.000000107552877e+01
0	 8.571398015564814e+00	 8.857120812436385e+00	 1.000000105192214e+01
0	 8.571398015564817e+00	 8.999982169218281e+00	 1.000000069852149e+01
0	 8.571398015564816e+00	 9.142843342671600e+00	 1.000000001532508e+01
0	 8.571398015564816e+00	 9.285704216126851e+00	 9.999999002329560e+00
0	 8.571398015564816e+00	 9.428564672914549e+00	 9.999997659530013e+00
0	 8.571398015564816e+00	 9.571424596365201e+00	 9.999995986919819e+00
0	 8.571398015564816e+00	 9.714283869809321e+00	 9.999993984490771e+00
0	 8.571398015564816e+00	 9.857142376577418e+00	 9.999991652233058e+00
0	 8.571398015564816e+00	 1.000000000000000e+01	 9.999988990135256e+00
0	 8.714259388995400e+00	 8.571398015564816e+00	 1.000000063809844e+01
0	 8.714259388995400e+00	 8.714259388995400e+00	 1.000000094428571e+01
0	 8.714259388995398e+00	 8.857120812436383e+00	 1.000000092067908e+01
0	 8.714259388995401e+00	 8.999982169218281e+00	 1.000000056727842e+01
0	 8.714259388995398e+00	 9.142843342671599e+00	 9.999999884082021e+00
0	 8.714259388995398e+00	 9.285704216126852e+00	 9.999998871086511e+00
0	 8.714259388995400e+00	 9.428564672914550e+00	 9.999997528286952e+00
0	 8.714259388995400e+00	 9.571424596365201e+00	 9.999995855676740e+00
0	 8.714259388995401e+00	 9.714283869809321e+00	 9.999993853247727e+00
0	 8.714259388995400e+00	 9.857142376577416e+00	 9.999991520990015e+00
0	 8.714259388995400e+00	 1.000000000000000e+01	 9.999988858892248e+00
0	 8.857120812436383e+00	 8.571398015564814e+00	 1.000000064819772e+01
0	 8.857120812436383e+00	 8.714259388995400e+00	 1.000000095438498e+01
0	 8.857120812436387e+00	 8.857120812436390e+00	 1.000000093077835e+01
0	 8.857120812436383e+00	 8.999982169218278e+00	 1.000000057737770e+01
0	 8.857120812436385e+00	 9.142843342671600e+00	 9.999999894181300e+00
0	 8.857120812436385e+00	 9.285704216126854e+00	 9.999998881185796e+00
0	 8.857120812436383e+00	 9.428564672914549e+00	 9.999997538386229e+00
0	 8.857120812436385e+00	 9.571424596365203e+00	 9.999995865776025e+00
0	 8.857120812436388e+00	 9.714283869809323e+00	 9.999993863346994e+00
0	 8.857120812436381e+00	 9.857142376577416e+00	 9.999991531089290e+00
0	 8.857120812436385e+00	 1.000000000000000e+01	 9.999988868991519e+00
0	 8.999982169218283e+00	 8.571398015564817e+00	 1.000000079963940e+01
0	 8.999982169218283e+00	 8.714259388995398e+00	 1.000000110582666e+01
0	 8.999982169218280e+00	 8.857120812436383e+00	 1.000000108222003e+01
0	 8.999982169218283e+00	 8.999982169218281e+00	 1.000000072881937e+01
0	 8.999982169218281e+00	 9.142843342671600e+00	 1.000000004562297e+01
0	 8.999982169218281e+00	 9.285704216126854e+00	 9.999999032627464e+00
0	 8.999982169218283e+00	 9.428564672914550e+00	 9.999997689827888e+00
0	 8.999982169218280e+00	 9.571424596365203e+00	 9.999996017217702e+00
0	 8.999982169218281e+00	 9.714283869809321e+00	 9.999994014788658e+00
0	 8.999982169218280e+00	 9.857142376577416e+00	 9.999991682530970e+00
0	 8.999982169218280e+00	 1.000000000000000e+01	 9.999989020433244e+00
0	 9.142843342671600e+00	 8.571398015564816e+00	 1.000000109242421e+01
0	 9.142843342671599e+00	 8.714259388995401e+00	 1.000000139861147e+01
0	 9.142843342671599e+00	 8.857120812436385e+00	 1.000000137500483e+01
0	 9.142843342671600e+00	 8.999982169218281e+00	 1.000000102160418e+01
0	 9.142843342671597e+00	 9.142843342671599e+00	 1.000000033840778e+01
0	 9.142843342671599e+00	 9.285704216126852e+00	 9.999999325412279e+00
0	 9.142843342671600e+00	 9.428564672914552e+00	 9.999997982612699e+00
0	 9.142843342671599e+00	 9.571424596365203e+00	 9.999996310002508e+00
0	 9.142843342671599e+00	 9.714283869809320e+00	 9.999994307573473e+00
0	 9.142843342671600e+00	 9.857142376577421e+00	 9.999991975315810e+00
0	 9.142843342671599e+00	 9.999999999999998e+00	 9.999989313218034e+00
0	 9.285704216126851e+00	 8.571398015564816e+00	 1.000000152655359e+01
0	 9.285704216126852e+00	 8.714259388995401e+00	 1.000000183274086e+01
0	 9.285704216126851e+00	 8.857120812436383e+00	 1.000000180913422e+01
0	 9.285704216126852e+00	 8.999982169218281e+00	 1.000000145573357e+01
0	 9.285704216126852e+00	 9.142843342671599e+00	 1.000000077253717e+01
0	 9.285704216126854e+00	 9.285704216126854e+00	 9.999999759541659e+00
0	 9.285704216126851e+00	 9.428564672914549e+00	 9.999998416742091e+00
0	 9.285704216126851e+00	 9.571424596365201e+00	 9.999996744131872e+00
0	 9.285704216126849e+00	 9.714283869809320e+00	 9.999994741702865e+00
0	 9.285704216126852e+00	 9.857142376577416e+00	 9.999992409445181e+00
0	 9.285704216126852e+00	 1.000000000000000e+01	 9.999989747347428e+00
0	 9.428564672914549e+00	 8.571398015564816e+00	 1.000000210202967e+01
0	 9.428564672914550e+00	 8.714259388995400e+00	 1.000000240821693e+01
0	 9.428564672914549e+00	 8.857120812436385e+00	 1.000000238461029e+01
0	 9.428564672914549e+00	 8.999982169218283e+00	 1.000000203120964e+01
0	 9.428564672914550e+00	 9.142843342671600e+00	 1.000000134801323e+01
0	 9.428564672914549e+00	 9.285704216126852e+00	 1.000000033501773e+01
0	 9.428564672914552e+00	 9.428564672914550e+00	 9.999998992218176e+00
0	 9.428564672914550e+00	 9.571424596365203e+00	 9.999997319607939e+00
0	 9.428564672914547e+00	 9.714283869809320e+00	 9.999995317178918e+00
0	 9.428564672914550e+00	 9.857142376577418e+00	 9.999992984921235e+00
0	 9.428564672914549e+00	 1.000000000000000e+01	 9.999990322823450e+00
0	 9.571424596365201e+00	 8.571398015564814e+00	 1.000000281885525e+01
0	 9.571424596365201e+00	 8.714259388995400e+00	 1.000000312504252e+01
0	 9.571424596365203e+00	 8.857120812436385e+00	 1.000000310143589e+01
0	 9.571424596365201e+00	 8.999982169218281e+00	 1.000000274803524e+01
0	 9.571424596365199e+00	 9.142843342671599e+00	 1.000000206483884e+01
0	 9.571424596365201e+00	 9.285704216126852e+00	 1.000000105184333e+01
0	 9.571424596365203e+00	 9.428564672914549e+00	 9.999999709043763e+00
0	 9.571424596365203e+00	 9.571424596365203e+00	 9.999998036433563e+00
0	 9.571424596365201e+00	 9.714283869809321e+00	 9.999996034004530e+00
0	 9.571424596365201e+00	 9.857142376577418e+00	 9.999993701746826e+00
0	 9.571424596365201e+00	 1.000000000000000e+01	 9.999991039649089e+00
0	 9.714283869809321e+00	 8.571398015564816e+00	 1.000000367703388e+01
0	 9.714283869809320e+00	 8.714259388995401e+00	 1.000000398322115e+01
0	 9.714283869809320e+00	 8.857120812436383e+00	 1.000000395961451e+01
0	 9.714283869809320e+00	 8.999982169218281e+00	 1.000000360621386e+01
0	 9.714283869809320e+00	 9.142843342671599e+00	 1.000000292301745e+01
0	 9.714283869809320e+00	 9.285704216126852e+00	 1.000000191002195e+01
0	 9.714283869809321e+00	 9.428564672914549e+00	 1.000000056722238e+01
0	 9.714283869809320e+00	 9.571424596365201e+00	 9.999998894612188e+00
0	 9.714283869809321e+00	 9.714283869809321e+00	 9.999996892183139e+00
0	 9.714283869809320e+00	 9.857142376577416e+00	 9.999994559925476e+00
0	 9.714283869809320e+00	 1.000000000000000e+01	 9.999991897827675e+00
0	 9.857142376577418e+00	 8.571398015564816e+00	 1.000000467656974e+01
0	 9.857142376577416e+00	 8.714259388995400e+00	 1.000000498275700e+01
0	 9.857142376577416e+00	 8.857120812436383e+00	 1.000000495915037e+01
0	 9.857142376577418e+00	 8.999982169218281e+00	 1.000000460574972e+01
0	 9.857142376577418e+00	 9.142843342671599e+00	 1.000000392255331e+01
0	 9.857142376577418e+00	 9.285704216126852e+00	 1.000000290955780e+01
0	 9.857142376577418e+00	 9.428564672914550e+00	 1.000000156675826e+01
0	 9.857142376577418e+00	 9.571424596365201e+00	 9.999999894148027e+00
0	 9.857142376577416e+00	 9.714283869809320e+00	 9.999997891719012e+00
0	 9.857142376577416e+00	 9.857142376577416e+00	 9.999995559461317e+00
0	 9.857142376577416e+00	 9.999999999999998e+00	 9.999992897363533e+00
0	 1.000000000000000e+01	 8.571398015564816e+00	 1.000000581746774e+01
0	 1.000000000000000e+01	 8.714259388995400e+00	 1.000000612365500e+01
0	 1.000000000000000e+01	 8.857120812436385e+00	 1.000000610004835e+01
0	 1.000000000000000e+01	 8.999982169218280e+00	 1.000000574664769e+01
0	 9.999999999999998e+00	 9.142843342671599e+00	 1.000000506345130e+01
0	 1.000000000000000e+01	 9.285704216126852e+00	 1.000000405045580e+01
0	 1.000000000000000e+01	 9.428564672914549e+00	 1.000000270765624e+01
0	 1.000000000000000e+01	 9.571424596365201e+00	 1.000000103504603e+01
0	 1.000000000000000e+01	 9.714283869809320e+00	 9.999999032616980e+00
0	 9.999999999999998e+00	 9.857142376577416e+00	 9.999996700359292e+00
0	 1.000000000000000e+01	 1.000000000000000e+01	 9.999994038261555e+00
