label=Stress xy
num_items=1017

0:-5.2151056101610163e+00
1:-2.0385907868775708e+00
2:4.8362205274335297e+00
3:-7.4288142285299372e+00
4:-6.8599336334986241e+00
5:-5.7659379893089451e+00
6:-3.2877714059357972e+00
7:-2.7432964566635629e+00
8:-5.0015374306681917e+00
9:5.8287578939172482e+00
10:-1.7296608591042704e+00
11:-1.1811438002401792e+01
12:-3.0479010042934296e+00
13:-2.4501016911858281e-01
14:-1.5960071032544156e+00
15:-4.7675219338070534e+00
16:-2.1680277924339424e+00
17:-2.2891914633777974e-01
18:-1.4088976850216007e+01
19:-7.8689073690138986e+00
20:2.3804166642785134e+00
21:-4.2219440898464873e+00
22:-5.6626382379795368e+00
23:-3.3884993076189489e+00
24:-7.2236854800526484e-01
25:-2.3935585167482265e+00
26:-3.2549585750734877e+00
27:5.7590616388311417e+00
28:3.9043697919305940e+00
29:-1.5314302208982131e+00
30:-1.1323184216879960e+00
31:5.4752799108517913e-01
32:3.5810218510079893e-02
33:-2.7854350786467865e+00
34:-1.4187725309480856e+00
35:-3.3483040324737157e-01
36:-3.3218682712934053e+00
37:-2.1612823507625580e+00
38:8.0784753988929148e-01
39:-6.5880749571373265e-01
40:-9.3589571545241224e-01
41:-4.6304783281018180e-01
42:-1.7609405696737029e-01
43:-4.0795216627261061e-01
44:-7.1397443986802545e-01
45:1.6506088569001012e+00
46:8.0007209428061432e-01
47:-7.2429065122582048e-01
48:-1.5078438405121158e-01
49:-3.2302250708590968e-02
50:-1.3169205863650724e-01
51:-7.0089440154236815e-01
52:-4.0609253489787750e-01
53:-1.0226291472433877e-01
54:-8.7799724444994565e-01
55:4.9869991462151923e-02
56:1.9613642126574041e-01
57:-1.2511292482681186e-01
58:-5.3913793433601268e-02
59:-2.2588930991776560e-01
60:-6.3450317255335453e-02
61:-1.4990850463561872e-01
62:-5.1630545799860449e-02
63:-1.4694815827670702e+00
64:-7.0195146226094352e-01
65:-1.5630083716213932e+00
66:1.8485126053851303e-01
67:-2.6934401471051977e-01
68:1.2561118192977585e+00
69:9.7764980308202798e-01
70:-1.0130435703254737e+00
71:7.7584960219716914e-01
72:-1.8980483641981458e+00
73:-1.3795565596827695e+00
74:-6.7853771777807226e-01
75:1.6511740143182454e+00
76:1.0363340941347563e+00
77:-1.1911120043742679e-01
78:2.0723643330235744e+00
79:2.2899483275345114e+00
80:9.2185031132194339e-01
81:-7.5153728882200510e-01
82:-1.4623358712905901e+00
83:-2.1066816664884125e+00
84:-5.6592540479905729e-01
85:-9.2568164954715892e-01
86:-1.1006501714559229e+00
87:8.3954689618517559e-03
88:-7.5357468408525397e-01
89:-8.4616502283129036e-01
90:-2.1155639091376428e+00
91:-1.5545584738657161e+00
92:-8.0843453003672150e-01
93:-1.2315009409468058e+00
94:-1.2672906450620072e+00
95:-1.0577914517827878e+00
96:-8.1091225517574517e-01
97:-8.2665410660463268e-01
98:-8.4556862095770913e-01
99:-5.3596527166365793e-01
100:-4.8190171454730313e-01
101:-6.1537497238230787e-01
102:-8.5987581777761446e-01
103:-6.4039740244899246e-01
104:-5.5233511376724209e-01
105:-8.1042593307933453e-01
106:-6.9624322512562620e-01
107:-5.7621913418032877e-01
108:-6.1897551370298276e-01
109:-4.4311804674931743e-01
110:-2.4742892417341356e-01
111:-5.3086930580795710e-01
112:-4.6942290765826722e-01
113:-3.9231586061403090e-01
114:-5.2843619279693488e-01
115:-4.7248049849358686e-01
116:-4.0334569539876947e-01
117:-2.1474051539937938e-01
118:-1.8315553601419016e-01
119:6.2375619020683802e-02
120:-3.4702508671268939e-01
121:-2.0464542268725833e-01
122:3.7102863723090504e-02
123:-3.3768545413632312e-01
124:-1.9950541603955560e-01
125:-8.9430450505181169e-02
126:1.2924499934745974e+00
127:-8.0281294250973956e-01
128:-1.1634135033748685e-01
129:8.2644826290036477e-01
130:1.2262211541261323e-01
131:-4.1348615263646943e-01
132:-2.6016996622007260e-01
133:6.9345352870068244e-01
134:2.6017232699213005e-01
135:1.0189115912167670e+00
136:1.7650116227770212e+00
137:1.0922228264867297e+00
138:-7.9412466268009935e-02
139:6.0635487434827495e-01
140:7.8980109664419862e-01
141:-8.3489214208626664e-03
142:6.6915001039703478e-02
143:3.7686124373900964e-01
144:3.1967780622977604e-01
145:-4.9464028250872039e-01
146:-7.0103926735486555e-01
147:5.0509700739616548e-01
148:-8.3581337420051537e-03
149:-3.1838300496695848e-01
150:4.4444990165455045e-01
151:3.0589987675814823e-01
152:2.7891698266482967e-02
153:-6.5195846710549998e-01
154:-6.3294686302615166e-01
155:-6.7766946806622941e-01
156:-3.6340220717837890e-01
157:-4.1902021737902589e-01
158:-4.9245299495219513e-01
159:-1.1599399987779341e-01
160:-2.7592509102399465e-01
161:-3.6470271606016041e-01
162:-6.9986935006126172e-01
163:-6.6552977082839471e-01
164:-5.7939179409268349e-01
165:-5.4231075047157351e-01
166:-5.6620215363337922e-01
167:-5.2358305073180889e-01
168:-4.0121961054321031e-01
169:-4.3284703183499107e-01
170:-4.2255624519609375e-01
171:-5.2859006624247451e-01
172:-4.5743302797241125e-01
173:-3.7386786334307365e-01
174:-4.8097651851571183e-01
175:-4.0959589940200902e-01
176:-3.3132134171886995e-01
177:-3.9869038234930215e-01
178:-3.4918392644801072e-01
179:-2.9507016819996729e-01
180:-3.0599274169854868e-01
181:-1.9235559845083133e-01
182:-1.2046537056491334e-01
183:-2.7756581777571021e-01
184:-1.8228343876765185e-01
185:-8.1502790826360749e-02
186:-2.6120714862405631e-01
187:-1.6901968773454251e-01
188:-1.4216201148382407e-02
189:-7.4381232586109935e-01
190:5.0859352028403293e-01
191:6.6025721136016680e-01
192:-5.3911335877964273e-01
193:6.7101357575251000e-02
194:7.0968866074234571e-01
195:2.6163025882229607e-01
196:-7.0916756308450665e-02
197:3.4149351533281747e-01
198:4.2617778034124060e-01
199:2.5833039326711005e-01
200:3.3499134366559125e-01
201:7.7276543544245613e-01
202:6.3521930380805003e-01
203:4.6204570259292227e-01
204:5.9769317039183623e-01
205:6.9985813513838713e-01
206:5.5335732872231602e-01
207:4.0611025629342612e-01
208:3.4789347140990412e-01
209:1.2804537345400352e-01
210:4.2699716005952115e-01
211:3.4253653538967671e-01
212:1.9049953685368415e-01
213:4.5076356729285694e-01
214:3.1809223178376139e-01
215:2.0774417802654879e-01
216:-2.3034903255441174e-02
217:-1.9455164176984663e-01
218:-2.8005426270044864e-01
219:7.4998867551478665e-02
220:-6.3735688319554021e-02
221:-1.4018647176579049e-01
222:1.4015212909270328e-01
223:4.2310670937099948e-02
224:-3.5189934569218782e-02
225:-3.0987000052622204e-01
226:-3.4826019614158177e-01
227:-3.5972955924477662e-01
228:-1.7126157564017286e-01
229:-2.2587903374499735e-01
230:-2.6471686494497787e-01
231:-7.4921928469782711e-02
232:-1.3639552903094027e-01
233:-1.8011159928380918e-01
234:-3.4920277979446962e-01
235:-3.1454921294613591e-01
236:-2.7113102581794579e-01
237:-2.7094600336573132e-01
238:-2.5527108914506108e-01
239:-2.2104544548210014e-01
240:-1.9285254708441218e-01
241:-1.9039594654250347e-01
242:-1.6431190042048385e-01
243:-2.4410145303512462e-01
244:-1.5684983453624887e-01
245:-4.1421582597329400e-04
246:-1.9752584811804658e-01
247:-1.2915156329193853e-01
248:-1.6802805506461741e-02
249:-1.4176367219600930e-01
250:-9.4561529178164586e-02
251:-3.7736491931696182e-02
252:5.9394018800471138e-01
253:9.9112726397422649e-02
254:1.5791543282534767e-01
255:4.2605180957428929e-01
256:3.1633242058821343e-01
257:1.2668218538523612e-01
258:-1.2949460219670592e-01
259:2.7648063826728347e-01
260:2.4585235093510918e-01
261:3.4874511189560342e-01
262:5.1621294744693269e-01
263:4.8839467122921459e-01
264:1.4408742644835779e-01
265:2.5404881181741523e-01
266:3.3787249063784452e-01
267:1.8620579139166238e-01
268:1.9160604770037815e-01
269:2.5852802800055241e-01
270:4.1823648905003813e-01
271:3.1562322770859325e-01
272:2.2991187612271211e-01
273:3.3730662259926375e-01
274:3.0881302739133043e-01
275:2.6078557027260629e-01
276:2.8527024599780676e-01
277:2.9191956186965767e-01
278:2.6078030303287064e-01
279:1.7901107574555397e-01
280:8.8311259635648579e-02
281:1.9968446366883498e-03
282:2.2422940956984777e-01
283:1.4065061576619123e-01
284:5.0426017143279947e-02
285:2.3016273536088394e-01
286:1.6275237775013379e-01
287:8.9797342910299033e-02
288:-4.1995264921054078e-02
289:-9.8322516494541240e-02
290:-1.3303943849290759e-01
291:5.7098970493142985e-03
292:-4.1912679228563225e-02
293:-6.6146177400512748e-02
294:5.1730073618098678e-02
295:7.1636067851117537e-03
296:-1.9187437474568674e-02
297:-1.4483506321884823e-01
298:-1.4880800559245216e-01
299:-1.3109172948143785e-01
300:-7.6476856199921214e-02
301:-8.8050720127174409e-02
302:-8.3614719848747035e-02
303:-3.0639666857939542e-02
304:-4.4756953290596556e-02
305:-4.7102960195003499e-02
306:-1.1120608122811695e-01
307:-7.2587515738207709e-02
308:-3.3545234121661854e-02
309:-7.0830491917123969e-02
310:-4.2713079404102051e-02
311:-1.4040403784219425e-02
312:-4.1213445242737713e-02
313:-2.2907754414948769e-02
314:1.6500973331813119e-03
315:-3.3441481032762377e-01
316:1.2286766426337818e-01
317:2.7661405225666097e-01
318:-1.8357388771615429e-01
319:-2.3782029273259345e-02
320:2.0592593221771266e-01
321:1.7301543625153301e-01
322:2.4329208772791558e-02
323:1.0199846982444774e-01
324:2.6439399923278484e-01
325:2.5913596120744825e-01
326:2.7713902459168405e-01
327:2.7843739319761557e-01
328:3.1544044408040384e-01
329:2.9889486358112194e-01
330:1.8035749108274263e-01
331:2.4733623486005454e-01
332:2.5135575680146349e-01
333:2.8680707997910426e-01
334:2.7759947864230333e-01
335:2.4233229689901417e-01
336:2.8499578942776999e-01
337:2.5268555536316534e-01
338:2.1245651531411436e-01
339:2.4123902846288561e-01
340:2.1803316861983865e-01
341:1.8820512297780337e-01
342:2.1457146057568219e-01
343:1.6375955385715765e-01
344:1.1010143658983815e-01
345:1.8859120566078638e-01
346:1.5595273129197340e-01
347:1.2399752852643305e-01
348:1.6854742720814969e-01
349:1.3907503552559597e-01
350:1.1063503485444097e-01
351:7.8294574610918238e-02
352:3.2412892472266037e-02
353:-8.7541019155994669e-04
354:1.0079613963730107e-01
355:5.7852756239649861e-02
356:2.0864810669296324e-02
357:9.2084507102185825e-02
358:5.9740101201226962e-02
359:3.1967616785929874e-02
360:-1.4382376465572042e-02
361:-2.7742104239974506e-02
362:-2.9878226120508326e-02
363:6.2522098098669113e-03
364:-5.9494557662006804e-03
365:-8.1794718087244856e-03
366:2.0104635220825642e-02
367:8.0865431099836679e-03
368:3.2900298005419815e-03
369:-2.6613760361568799e-02
370:-1.5219011271021788e-02
371:2.5474241858233250e-03
372:-7.8098238027195527e-03
373:-5.8386425724063435e-03
374:-7.7912712468377709e-04
375:2.1522282029531993e-03
376:4.4575410686902343e-04
377:-1.4255727327098856e-03
378:2.4974756887995112e-01
379:1.2030238259532627e-01
380:8.2411256539003774e-02
381:2.5363367999064385e-02
382:1.2732991984522882e-01
383:8.9383388777703257e-02
384:-9.8784830510953395e-02
385:-6.1500014339164577e-02
386:1.4837431712773219e-02
387:1.0999968894239147e-01
388:1.5525762594876344e-01
389:1.8170563911035215e-01
390:6.3955564599795470e-02
391:6.1959903194275565e-02
392:8.7292748890071575e-02
393:4.4426195900850445e-02
394:6.4485449400063927e-02
395:5.9145853610625819e-02
396:1.8784342068315360e-01
397:1.8809636533166979e-01
398:1.7349974458177558e-01
399:1.0199689555564666e-01
400:1.1661823376486141e-01
401:1.1559020480554964e-01
402:4.9722910366379151e-02
403:3.1135946321500425e-02
404:1.7182384084885989e-02
405:1.5738683231793058e-01
406:1.2520973825349294e-01
407:9.2329097218754902e-02
408:1.0710495837868685e-01
409:8.4551769203702581e-02
410:5.9115836680356526e-02
411:1.4610676762670948e-02
412:1.8968560129129140e-02
413:2.3055728919498371e-02
414:7.4834064438389664e-02
415:5.1276074217202885e-02
416:3.3651063768752876e-02
417:4.6344376566315293e-02
418:3.2892478988500277e-02
419:2.4930482587524169e-02
420:2.0417917555202194e-02
421:1.1157517321284109e-02
422:2.4281637925458320e-03
423:2.4902549829347476e-02
424:1.2727563892601905e-02
425:5.5066256059435603e-03
426:2.0154618025017015e-02
427:1.1635858718700758e-02
428:5.8349469937038602e-03
429:1.9012305032516805e-04
430:1.2399832721291689e-03
431:3.6359541669968572e-03
432:3.9994608855362223e-03
433:3.2627545962999873e-03
434:1.9337580112540591e-03
435:4.9103027283048488e-03
436:4.9651320104910756e-03
437:3.9798102974951842e-03
438:3.4825074907131812e-03
439:5.8430525052817278e-04
440:-2.6850352920280373e-03
441:-4.5730236632673495e+01
442:-2.8061720897617725e+01
443:-1.8745521910261203e+01
444:-1.2046851528425493e+02
445:-5.9283163958830222e+01
446:8.4472547084384697e-01
447:-4.7258781868029018e+01
448:-2.3232456238447085e+01
449:1.3588684989384390e+01
450:-2.5017373183346923e+01
451:-4.4975595962009741e+01
452:-5.6398873327340027e+01
453:1.1354872666499435e+01
454:-8.8405092625054404e+00
455:-2.4493235741867338e+01
456:2.4485521106768136e+01
457:1.7267110463459748e+01
458:9.5962639091376190e+00
459:-5.8608044388569667e+01
460:-5.9849679947489278e+01
461:-6.1103112834125433e+01
462:-2.9132736242232646e+01
463:-3.1561659086680258e+01
464:-3.3191087208169584e+01
465:5.5474040361610255e+00
466:7.6819102680268880e-01
467:-2.2974547465803918e+00
468:-6.0972805976015749e+01
469:-5.9468254873146201e+01
470:-5.8257593789860458e+01
471:-3.0920978343247658e+01
472:-2.1822392604505335e+01
473:-1.2513399512150897e+01
474:-1.0520617688901233e-01
475:1.0246915393410930e+01
476:2.1720096314692842e+01
477:-6.1482414232717012e+01
478:-6.1672874448838243e+01
479:-4.4568824950147018e+01
480:-2.0691377764737808e+01
481:-5.1990870046738898e+01
482:-7.4241622168880838e+01
483:1.4700831846295173e+01
484:-2.2105444796151403e+01
485:-5.9690778136238158e+01
486:-2.0193058257832366e+01
487:4.9538252541423029e+00
488:-1.5149586288896844e+01
489:-5.4528631486633152e+01
490:1.2335466232674321e+01
491:5.3472241816923749e+01
492:-4.9148147455083844e+01
493:2.2401101340587559e+01
494:8.9963282707194779e+01
495:-5.5951861754876106e+01
496:-9.9066043235923317e+01
497:-6.9751725683497909e+01
498:2.3551403100496831e+01
499:-7.6913196838009384e+01
500:-1.3661266207632104e+02
501:7.6844802096801985e+01
502:-2.9200540708261727e+01
503:-1.2913632451227747e+02
504:4.4044782576511203e+01
505:2.1795780644579501e+01
506:1.6304511275613454e+01
507:1.2396416604521018e+02
508:6.6482231769446585e+01
509:1.8488454597557684e+01
510:1.0620219846705166e+02
511:6.6369867621991759e+01
512:2.4521811653188180e+01
513:1.8640088450468269e+01
514:2.1002397946678762e+01
515:2.1517909080462580e+01
516:8.5575589741912275e+00
517:1.6457148352213341e+01
518:2.3808051332412436e+01
519:1.2715820897794945e+01
520:1.6218319685962744e+01
521:2.1200582922083072e+01
522:1.9160529980996312e+01
523:1.2916719023563319e+01
524:8.5033744634522801e+00
525:2.3650892687801552e+01
526:1.6892916480872550e+01
527:1.1292386977514377e+01
528:2.1395243225139208e+01
529:1.6436907033297985e+01
530:1.1812753070220097e+01
531:9.4559810300333123e+00
532:1.6878413643349241e+01
533:2.5497653278523952e+01
534:1.0494074631561288e+01
535:1.2758966523549589e+01
536:1.5167593474808637e+01
537:1.0741583675494951e+01
538:1.0717627876486430e+01
539:9.5868450811253680e+00
540:2.0207832317924122e+01
541:-9.5013129548611541e+00
542:-4.2388846282969304e+01
543:1.0155946055576885e+01
544:-9.7692189105498297e+00
545:-2.9995455560937767e+01
546:3.4012679637279013e+00
547:-1.3955320656650631e+01
548:-2.8261211664083017e+01
549:-3.4280741515137947e+01
550:2.9547296507435277e+01
551:9.5058676781512148e+01
552:-1.9264790704432404e+01
553:3.6570396327572041e+01
554:9.0294718841546739e+01
555:-1.5275538515353047e+01
556:3.7495969999400501e+01
557:8.3980940156162291e+01
558:8.7069235749088492e+01
559:-8.8387360388194995e+00
560:-1.0755302853124260e+02
561:8.0153517384947662e+01
562:-4.9648831449172723e+00
563:-8.6903261842187177e+01
564:7.1433015852204122e+01
565:-7.7969109407906814e+00
566:-7.7434669418199235e+01
567:6.5494236501766707e+01
568:4.9938217733018000e+01
569:2.8869028348118430e+01
570:2.6745778331739906e+01
571:3.0072680982127345e+01
572:3.1155760029827320e+01
573:2.0998453792444067e+01
574:2.2691441210654322e+01
575:2.7048820954494918e+01
576:0.0000000000000000e+00
577:0.0000000000000000e+00
578:0.0000000000000000e+00
579:0.0000000000000000e+00
580:0.0000000000000000e+00
581:0.0000000000000000e+00
582:0.0000000000000000e+00
583:0.0000000000000000e+00
584:0.0000000000000000e+00
585:0.0000000000000000e+00
586:0.0000000000000000e+00
587:0.0000000000000000e+00
588:0.0000000000000000e+00
589:0.0000000000000000e+00
590:0.0000000000000000e+00
591:0.0000000000000000e+00
592:0.0000000000000000e+00
593:0.0000000000000000e+00
594:0.0000000000000000e+00
595:0.0000000000000000e+00
596:0.0000000000000000e+00
597:0.0000000000000000e+00
598:0.0000000000000000e+00
599:0.0000000000000000e+00
600:0.0000000000000000e+00
601:0.0000000000000000e+00
602:0.0000000000000000e+00
603:0.0000000000000000e+00
604:0.0000000000000000e+00
605:0.0000000000000000e+00
606:0.0000000000000000e+00
607:0.0000000000000000e+00
608:0.0000000000000000e+00
609:0.0000000000000000e+00
610:0.0000000000000000e+00
611:0.0000000000000000e+00
612:0.0000000000000000e+00
613:0.0000000000000000e+00
614:0.0000000000000000e+00
615:0.0000000000000000e+00
616:0.0000000000000000e+00
617:0.0000000000000000e+00
618:0.0000000000000000e+00
619:0.0000000000000000e+00
620:0.0000000000000000e+00
621:0.0000000000000000e+00
622:0.0000000000000000e+00
623:0.0000000000000000e+00
624:0.0000000000000000e+00
625:0.0000000000000000e+00
626:0.0000000000000000e+00
627:0.0000000000000000e+00
628:0.0000000000000000e+00
629:0.0000000000000000e+00
630:0.0000000000000000e+00
631:0.0000000000000000e+00
632:0.0000000000000000e+00
633:0.0000000000000000e+00
634:0.0000000000000000e+00
635:0.0000000000000000e+00
636:0.0000000000000000e+00
637:0.0000000000000000e+00
638:0.0000000000000000e+00
639:0.0000000000000000e+00
640:0.0000000000000000e+00
641:0.0000000000000000e+00
642:0.0000000000000000e+00
643:0.0000000000000000e+00
644:0.0000000000000000e+00
645:0.0000000000000000e+00
646:0.0000000000000000e+00
647:0.0000000000000000e+00
648:0.0000000000000000e+00
649:0.0000000000000000e+00
650:0.0000000000000000e+00
651:0.0000000000000000e+00
652:0.0000000000000000e+00
653:0.0000000000000000e+00
654:0.0000000000000000e+00
655:0.0000000000000000e+00
656:0.0000000000000000e+00
657:0.0000000000000000e+00
658:0.0000000000000000e+00
659:0.0000000000000000e+00
660:0.0000000000000000e+00
661:0.0000000000000000e+00
662:0.0000000000000000e+00
663:0.0000000000000000e+00
664:0.0000000000000000e+00
665:0.0000000000000000e+00
666:0.0000000000000000e+00
667:0.0000000000000000e+00
668:0.0000000000000000e+00
669:0.0000000000000000e+00
670:0.0000000000000000e+00
671:0.0000000000000000e+00
672:0.0000000000000000e+00
673:0.0000000000000000e+00
674:0.0000000000000000e+00
675:0.0000000000000000e+00
676:0.0000000000000000e+00
677:0.0000000000000000e+00
678:0.0000000000000000e+00
679:0.0000000000000000e+00
680:0.0000000000000000e+00
681:0.0000000000000000e+00
682:0.0000000000000000e+00
683:0.0000000000000000e+00
684:0.0000000000000000e+00
685:0.0000000000000000e+00
686:0.0000000000000000e+00
687:0.0000000000000000e+00
688:0.0000000000000000e+00
689:0.0000000000000000e+00
690:0.0000000000000000e+00
691:0.0000000000000000e+00
692:0.0000000000000000e+00
693:0.0000000000000000e+00
694:0.0000000000000000e+00
695:0.0000000000000000e+00
696:0.0000000000000000e+00
697:0.0000000000000000e+00
698:0.0000000000000000e+00
699:0.0000000000000000e+00
700:0.0000000000000000e+00
701:0.0000000000000000e+00
702:0.0000000000000000e+00
703:0.0000000000000000e+00
704:0.0000000000000000e+00
705:0.0000000000000000e+00
706:0.0000000000000000e+00
707:0.0000000000000000e+00
708:0.0000000000000000e+00
709:0.0000000000000000e+00
710:0.0000000000000000e+00
711:0.0000000000000000e+00
712:0.0000000000000000e+00
713:0.0000000000000000e+00
714:0.0000000000000000e+00
715:0.0000000000000000e+00
716:0.0000000000000000e+00
717:0.0000000000000000e+00
718:0.0000000000000000e+00
719:0.0000000000000000e+00
720:0.0000000000000000e+00
721:0.0000000000000000e+00
722:0.0000000000000000e+00
723:0.0000000000000000e+00
724:0.0000000000000000e+00
725:0.0000000000000000e+00
726:0.0000000000000000e+00
727:0.0000000000000000e+00
728:0.0000000000000000e+00
729:0.0000000000000000e+00
730:0.0000000000000000e+00
731:0.0000000000000000e+00
732:0.0000000000000000e+00
733:0.0000000000000000e+00
734:0.0000000000000000e+00
735:0.0000000000000000e+00
736:0.0000000000000000e+00
737:0.0000000000000000e+00
738:0.0000000000000000e+00
739:0.0000000000000000e+00
740:0.0000000000000000e+00
741:0.0000000000000000e+00
742:0.0000000000000000e+00
743:0.0000000000000000e+00
744:0.0000000000000000e+00
745:0.0000000000000000e+00
746:0.0000000000000000e+00
747:0.0000000000000000e+00
748:0.0000000000000000e+00
749:0.0000000000000000e+00
750:0.0000000000000000e+00
751:0.0000000000000000e+00
752:0.0000000000000000e+00
753:0.0000000000000000e+00
754:0.0000000000000000e+00
755:0.0000000000000000e+00
756:0.0000000000000000e+00
757:0.0000000000000000e+00
758:0.0000000000000000e+00
759:0.0000000000000000e+00
760:0.0000000000000000e+00
761:0.0000000000000000e+00
762:0.0000000000000000e+00
763:0.0000000000000000e+00
764:0.0000000000000000e+00
765:0.0000000000000000e+00
766:0.0000000000000000e+00
767:0.0000000000000000e+00
768:0.0000000000000000e+00
769:0.0000000000000000e+00
770:0.0000000000000000e+00
771:0.0000000000000000e+00
772:0.0000000000000000e+00
773:0.0000000000000000e+00
774:0.0000000000000000e+00
775:0.0000000000000000e+00
776:0.0000000000000000e+00
777:0.0000000000000000e+00
778:0.0000000000000000e+00
779:0.0000000000000000e+00
780:0.0000000000000000e+00
781:0.0000000000000000e+00
782:0.0000000000000000e+00
783:0.0000000000000000e+00
784:0.0000000000000000e+00
785:0.0000000000000000e+00
786:0.0000000000000000e+00
787:0.0000000000000000e+00
788:0.0000000000000000e+00
789:0.0000000000000000e+00
790:0.0000000000000000e+00
791:0.0000000000000000e+00
792:0.0000000000000000e+00
793:0.0000000000000000e+00
794:0.0000000000000000e+00
795:0.0000000000000000e+00
796:0.0000000000000000e+00
797:0.0000000000000000e+00
798:0.0000000000000000e+00
799:0.0000000000000000e+00
800:0.0000000000000000e+00
801:0.0000000000000000e+00
802:0.0000000000000000e+00
803:0.0000000000000000e+00
804:0.0000000000000000e+00
805:0.0000000000000000e+00
806:0.0000000000000000e+00
807:0.0000000000000000e+00
808:0.0000000000000000e+00
809:0.0000000000000000e+00
810:0.0000000000000000e+00
811:0.0000000000000000e+00
812:0.0000000000000000e+00
813:0.0000000000000000e+00
814:0.0000000000000000e+00
815:0.0000000000000000e+00
816:0.0000000000000000e+00
817:0.0000000000000000e+00
818:0.0000000000000000e+00
819:0.0000000000000000e+00
820:0.0000000000000000e+00
821:0.0000000000000000e+00
822:0.0000000000000000e+00
823:0.0000000000000000e+00
824:0.0000000000000000e+00
825:0.0000000000000000e+00
826:0.0000000000000000e+00
827:0.0000000000000000e+00
828:0.0000000000000000e+00
829:0.0000000000000000e+00
830:0.0000000000000000e+00
831:0.0000000000000000e+00
832:0.0000000000000000e+00
833:0.0000000000000000e+00
834:0.0000000000000000e+00
835:0.0000000000000000e+00
836:0.0000000000000000e+00
837:0.0000000000000000e+00
838:0.0000000000000000e+00
839:0.0000000000000000e+00
840:0.0000000000000000e+00
841:0.0000000000000000e+00
842:0.0000000000000000e+00
843:0.0000000000000000e+00
844:0.0000000000000000e+00
845:0.0000000000000000e+00
846:0.0000000000000000e+00
847:0.0000000000000000e+00
848:0.0000000000000000e+00
849:0.0000000000000000e+00
850:0.0000000000000000e+00
851:0.0000000000000000e+00
852:0.0000000000000000e+00
853:0.0000000000000000e+00
854:0.0000000000000000e+00
855:0.0000000000000000e+00
856:0.0000000000000000e+00
857:0.0000000000000000e+00
858:0.0000000000000000e+00
859:0.0000000000000000e+00
860:0.0000000000000000e+00
861:0.0000000000000000e+00
862:0.0000000000000000e+00
863:0.0000000000000000e+00
864:0.0000000000000000e+00
865:0.0000000000000000e+00
866:0.0000000000000000e+00
867:0.0000000000000000e+00
868:0.0000000000000000e+00
869:0.0000000000000000e+00
870:0.0000000000000000e+00
871:0.0000000000000000e+00
872:0.0000000000000000e+00
873:0.0000000000000000e+00
874:0.0000000000000000e+00
875:0.0000000000000000e+00
876:0.0000000000000000e+00
877:0.0000000000000000e+00
878:0.0000000000000000e+00
879:0.0000000000000000e+00
880:0.0000000000000000e+00
881:0.0000000000000000e+00
882:0.0000000000000000e+00
883:0.0000000000000000e+00
884:0.0000000000000000e+00
885:0.0000000000000000e+00
886:0.0000000000000000e+00
887:0.0000000000000000e+00
888:0.0000000000000000e+00
889:0.0000000000000000e+00
890:0.0000000000000000e+00
891:0.0000000000000000e+00
892:0.0000000000000000e+00
893:0.0000000000000000e+00
894:0.0000000000000000e+00
895:0.0000000000000000e+00
896:0.0000000000000000e+00
897:0.0000000000000000e+00
898:0.0000000000000000e+00
899:0.0000000000000000e+00
900:0.0000000000000000e+00
901:0.0000000000000000e+00
902:0.0000000000000000e+00
903:0.0000000000000000e+00
904:0.0000000000000000e+00
905:0.0000000000000000e+00
906:0.0000000000000000e+00
907:0.0000000000000000e+00
908:0.0000000000000000e+00
909:0.0000000000000000e+00
910:0.0000000000000000e+00
911:0.0000000000000000e+00
912:0.0000000000000000e+00
913:0.0000000000000000e+00
914:0.0000000000000000e+00
915:0.0000000000000000e+00
916:0.0000000000000000e+00
917:0.0000000000000000e+00
918:0.0000000000000000e+00
919:0.0000000000000000e+00
920:0.0000000000000000e+00
921:0.0000000000000000e+00
922:0.0000000000000000e+00
923:0.0000000000000000e+00
924:0.0000000000000000e+00
925:0.0000000000000000e+00
926:0.0000000000000000e+00
927:0.0000000000000000e+00
928:0.0000000000000000e+00
929:0.0000000000000000e+00
930:0.0000000000000000e+00
931:0.0000000000000000e+00
932:0.0000000000000000e+00
933:0.0000000000000000e+00
934:0.0000000000000000e+00
935:0.0000000000000000e+00
936:0.0000000000000000e+00
937:0.0000000000000000e+00
938:0.0000000000000000e+00
939:0.0000000000000000e+00
940:0.0000000000000000e+00
941:0.0000000000000000e+00
942:0.0000000000000000e+00
943:0.0000000000000000e+00
944:0.0000000000000000e+00
945:0.0000000000000000e+00
946:0.0000000000000000e+00
947:0.0000000000000000e+00
948:0.0000000000000000e+00
949:0.0000000000000000e+00
950:0.0000000000000000e+00
951:0.0000000000000000e+00
952:0.0000000000000000e+00
953:0.0000000000000000e+00
954:0.0000000000000000e+00
955:0.0000000000000000e+00
956:0.0000000000000000e+00
957:0.0000000000000000e+00
958:0.0000000000000000e+00
959:0.0000000000000000e+00
960:0.0000000000000000e+00
961:0.0000000000000000e+00
962:0.0000000000000000e+00
963:0.0000000000000000e+00
964:0.0000000000000000e+00
965:0.0000000000000000e+00
966:0.0000000000000000e+00
967:0.0000000000000000e+00
968:0.0000000000000000e+00
969:0.0000000000000000e+00
970:0.0000000000000000e+00
971:0.0000000000000000e+00
972:0.0000000000000000e+00
973:0.0000000000000000e+00
974:0.0000000000000000e+00
975:0.0000000000000000e+00
976:0.0000000000000000e+00
977:0.0000000000000000e+00
978:0.0000000000000000e+00
979:0.0000000000000000e+00
980:0.0000000000000000e+00
981:0.0000000000000000e+00
982:0.0000000000000000e+00
983:0.0000000000000000e+00
984:0.0000000000000000e+00
985:0.0000000000000000e+00
986:0.0000000000000000e+00
987:0.0000000000000000e+00
988:0.0000000000000000e+00
989:0.0000000000000000e+00
990:0.0000000000000000e+00
991:0.0000000000000000e+00
992:0.0000000000000000e+00
993:0.0000000000000000e+00
994:0.0000000000000000e+00
995:0.0000000000000000e+00
996:0.0000000000000000e+00
997:0.0000000000000000e+00
998:0.0000000000000000e+00
999:0.0000000000000000e+00
1000:0.0000000000000000e+00
1001:0.0000000000000000e+00
1002:0.0000000000000000e+00
1003:0.0000000000000000e+00
1004:0.0000000000000000e+00
1005:0.0000000000000000e+00
1006:0.0000000000000000e+00
1007:0.0000000000000000e+00
1008:0.0000000000000000e+00
1009:0.0000000000000000e+00
1010:0.0000000000000000e+00
1011:0.0000000000000000e+00
1012:0.0000000000000000e+00
1013:0.0000000000000000e+00
1014:0.0000000000000000e+00
1015:0.0000000000000000e+00
1016:0.0000000000000000e+00
