label=Stress xy
num_items=4608

0:-5.8282024776865216e-003
1:-4.9426965804183841e-002
2:-5.0461273005640066e-002
3:4.3771282650901105e-002
4:9.9342262421599371e-003
5:-4.7595635136206620e-002
6:7.1447647914951701e-002
7:6.1111631237947252e-002
8:-3.9174451503349084e-002
9:-2.1936134114343430e-002
10:-3.2938897971249016e-003
11:-6.6670939869136553e-002
12:-3.5633481849044108e-003
13:3.1131347629213535e-001
14:7.6675904742223777e-001
15:5.2798044418311159e-002
16:7.6162605999288324e-001
17:1.8336108632628112e+000
18:-1.2807578049975549e-001
19:-4.4879529863837020e-001
20:-1.1196674789970851e+000
21:1.1469977665700142e+000
22:1.7359610959638823e+000
23:2.0591733898059887e+000
24:2.6481857161174580e+000
25:4.0240033732594807e+000
26:5.2184716215180824e+000
27:-1.6264539240972480e+000
28:-1.0832824045295331e+000
29:1.6099280522752382e+000
30:1.9366868371855741e+000
31:2.0632587878601387e+000
32:3.2729751432639436e+000
33:5.4479953761069622e+000
34:5.1698333867628197e+000
35:4.9079212696401040e+000
36:4.1892210254163542e+000
37:8.0193306006728928e+000
38:1.0373748894225804e+001
39:4.8909909414193331e+000
40:7.9308436004512748e+000
41:1.0023268334239997e+001
42:5.1412209236724511e+000
43:5.9238065460973601e+000
44:6.2872275997394516e+000
45:1.0538074649354797e+001
46:8.6840356971406756e+000
47:5.2546539923720283e+000
48:9.3335307040116593e+000
49:5.0050606492556575e+000
50:-6.2885542770952568e-002
51:5.1867990026885140e+000
52:1.3745535901514563e+000
53:-2.3413013443722845e+000
54:3.2203514193687766e+000
55:1.3979282064788454e+000
56:6.9430075842841321e-001
57:-1.6245949463973768e+000
58:-1.0777527816684276e+000
59:3.9761922107484270e-002
60:-3.0346814675386229e+000
61:-1.7492858194675829e+000
62:-4.4134085814211838e-001
63:5.5804676081308957e-001
64:1.9675335779443662e-001
65:2.9875102144423561e-002
66:3.6753734607476329e-001
67:1.1779039940317891e-001
68:3.8048493540267486e-002
69:-8.6260831570930258e-002
70:-9.4550631476636421e-002
71:4.2754502866352753e-002
72:1.7249614261228889e-002
73:1.5747038307912683e-002
74:1.5020593310379183e-002
75:4.9098441916916237e-002
76:5.5255772605934887e-002
77:5.8593805675659201e-002
78:1.1023346786392864e-001
79:1.0669742095163730e-001
80:9.6746647844976177e-002
81:1.3164146533817752e-002
82:8.8197905149608007e-003
83:7.2792470955090390e-003
84:5.5378430306126415e-002
85:4.5031373357964880e-002
86:3.8124668952186143e-002
87:8.8581389153295706e-002
88:7.7244629494164760e-002
89:6.9984762320398061e-002
90:7.9619600870288725e-003
91:9.0070490497026721e-003
92:8.4537752654415092e-003
93:3.6424419226423206e-002
94:3.4760544152769857e-002
95:3.2311309485679444e-002
96:6.6971572925076939e-002
97:6.1262860890284994e-002
98:5.5581792415550939e-002
99:7.3771554563056519e-003
100:5.8518601992992416e-003
101:5.2397946650697249e-003
102:3.0355512801663393e-002
103:2.7136202792131588e-002
104:2.4762112380739928e-002
105:5.2461025446013818e-002
106:4.7901446932849978e-002
107:4.4119077893198314e-002
108:5.2529978421207981e-003
109:5.1376064618391783e-003
110:4.7381824562928538e-003
111:2.3666872875200431e-002
112:2.1752484818147254e-002
113:1.9870459219364305e-002
114:4.2017610397872336e-002
115:3.8301739355846458e-002
116:3.4934625855625588e-002
117:4.3735789295365427e-003
118:3.7989094568690760e-003
119:3.3722208439428592e-003
120:1.8712718477578941e-002
121:1.6717858848773564e-002
122:1.4912885502249925e-002
123:3.2987442421266944e-002
124:2.9587575140195336e-002
125:2.6419499563952335e-002
126:3.1398588422842460e-003
127:2.6581980687434663e-003
128:2.1543558390125532e-003
129:1.3751814593153557e-002
130:1.1471958746853790e-002
131:9.2350967125965373e-003
132:2.4350391502306321e-002
133:2.0328196392939334e-002
134:1.6414170363837247e-002
135:1.7877157100898149e-003
136:1.0242581817058367e-003
137:2.2724190876359949e-004
138:7.6695194773058932e-003
139:4.4641192280581131e-003
140:1.2054007565172708e-003
141:1.3680271758293377e-002
142:8.0822837007122009e-003
143:2.4112179430914025e-003
144:4.1818252019646979e-002
145:-2.2304302802608832e-002
146:-1.4689391021337123e-001
147:-6.5778799353796755e-002
148:-1.9009107133920258e-001
149:-2.0729500451090793e-001
150:-1.6137088331710231e-001
151:-1.0262315999839423e-001
152:2.3080829353622101e-001
153:7.0968164681061152e-003
154:1.0040915085100959e+000
155:2.4723290015438688e+000
156:1.2180667462467916e-001
157:1.6010949586969314e+000
158:3.7004746873908272e+000
159:7.8283132224008145e-001
160:2.6654635174459358e+000
161:5.3170358009032910e+000
162:3.5162739783367774e+000
163:5.1673720743577611e+000
164:6.5644230503627794e+000
165:5.0087181403384182e+000
166:6.6251097161116910e+000
167:7.6532274662399749e+000
168:6.7434720136721786e+000
169:7.9020156725218520e+000
170:8.1380588000975145e+000
171:6.8072017442939767e+000
172:6.2381827012987641e+000
173:5.4053953081182460e+000
174:7.5382677969419101e+000
175:6.3920876876441755e+000
176:5.0867534710509110e+000
177:7.5536308024475112e+000
178:5.8694719287429100e+000
179:4.1307731906325555e+000
180:4.9656556222393675e+000
181:4.3049445533506701e+000
182:3.4078290114863203e+000
183:4.1487178516533207e+000
184:2.2450498677657751e+000
185:2.0476760185912785e-001
186:2.9369730142381902e+000
187:5.8462286934014374e-001
188:-1.8045513666204458e+000
189:2.3758610363125396e+000
190:8.3263327283376945e-002
191:-1.8932405801547305e+000
192:-5.2502274436018492e-001
193:-7.5263071223305367e-001
194:-7.4500285177067815e-001
195:-2.3213697801846664e+000
196:-1.5848173934157901e+000
197:-6.9388715156748915e-001
198:-2.1692435858268975e+000
199:-1.4038399277660920e+000
200:-7.2918886298518171e-001
201:-7.7880800068487754e-001
202:-1.0105510568100651e+000
203:-1.1742845387745815e+000
204:-5.9136521702598377e-001
205:-1.0832496317008908e+000
206:-1.3483623047745532e+000
207:-5.0389287132639138e-001
208:-2.7957674849515751e-001
209:4.7232210446233179e-002
210:-1.0392386569725089e+000
211:-4.6901667054415347e-001
212:7.9988257207950234e-002
213:-1.1468631641025928e+000
214:-4.2923084793709809e-001
215:1.4347451476573603e-001
216:1.5705611368979530e-001
217:1.3784470681518604e-001
218:1.1297481594889872e-001
219:2.2286150637059352e-001
220:1.7888069673238255e-001
221:1.3543565170999519e-001
222:2.6533441428217397e-001
223:2.0929373260468725e-001
224:1.5998306415052493e-001
225:1.0142546991201874e-001
226:9.2664562218586238e-002
227:8.7630854463793748e-002
228:1.2121144218446257e-001
229:1.1664858345627595e-001
230:1.1397466919879591e-001
231:1.4569699983391884e-001
232:1.4160224197762608e-001
233:1.3755817312410770e-001
234:8.4264094781645038e-002
235:7.5700602204858122e-002
236:6.7723538945254430e-002
237:1.0960488608135890e-001
238:9.7136040026484419e-002
239:8.6360882736697397e-002
240:1.3154984896496255e-001
241:1.1672164656277173e-001
242:1.0469439237358348e-001
243:6.3901294472010886e-002
244:5.8835865507188619e-002
245:5.4500350721989430e-002
246:8.1709395632184573e-002
247:7.5816630157858680e-002
248:7.0559259104168673e-002
249:9.9572966785831676e-002
250:9.2541613384029220e-002
251:8.6051134643875662e-002
252:5.1926268909302985e-002
253:4.7263468223102838e-002
254:4.3094322364130376e-002
255:6.7278004285475645e-002
256:6.1285063615158494e-002
257:5.5967321003334583e-002
258:8.2026631483441845e-002
259:7.4890829656099084e-002
260:6.8611769118517657e-002
261:4.0708455681795319e-002
262:3.6529181409374972e-002
263:3.2612098312931125e-002
264:5.2908793027774820e-002
265:4.7489718589714958e-002
266:4.2395397434567036e-002
267:6.4954650109355097e-002
268:5.8363038508972669e-002
269:5.2158742298439968e-002
270:3.0047792777000079e-002
271:2.5070965177589905e-002
272:2.0229765740004110e-002
273:3.9056471414656346e-002
274:3.2573361903150397e-002
275:2.6255068190361611e-002
276:4.8095432913424822e-002
277:4.0211417927235406e-002
278:3.2521406376657014e-002
279:1.6839891525295862e-002
280:9.8869395295730963e-003
281:2.8451733338551301e-003
282:2.1812085486407038e-002
283:1.2676235935641439e-002
284:3.4172533115543161e-003
285:2.7106782972700905e-002
286:1.5962622808855312e-002
287:4.6610106983650266e-003
288:-1.6787260424112110e-001
289:1.3475160703515682e-001
290:8.2807289734491596e-001
291:3.5750064874163129e-001
292:7.8894068185944566e-001
293:1.8421813097890047e+000
294:1.5953067900731754e+000
295:1.5836210861483209e+000
296:2.4248394928134736e+000
297:1.5655346893299740e+000
298:3.5556671594539662e+000
299:6.1675936791538524e+000
300:2.8454563405828237e+000
301:4.8174703029062602e+000
302:6.7567635345368204e+000
303:3.5116454931289138e+000
304:5.4110710059762912e+000
305:6.6232610078620144e+000
306:7.3303858548915688e+000
307:7.7784922188026986e+000
308:7.3985138248661197e+000
309:7.0458954834662180e+000
310:6.0119763219701383e+000
311:4.8086581274444855e+000
312:6.1258473362955099e+000
313:3.9637412102660119e+000
314:2.2909217760250820e+000
315:6.6211242060434596e+000
316:4.8346937362919133e+000
317:3.0026514134333668e+000
318:3.9768638977890594e+000
319:2.3539087498979074e+000
320:6.1140854249550269e-001
321:1.5086996534910924e+000
322:5.2696392032799549e-002
323:-1.5967851353410001e+000
324:1.8219738978398845e+000
325:-3.7723212617351087e-001
326:-2.5815539281769100e+000
327:-4.1602570586933341e-001
328:-2.1245084118502069e+000
329:-3.8289317329356698e+000
330:-2.4571323295632337e+000
331:-3.6307942236300321e+000
332:-4.7912215699159946e+000
333:-2.9896232213002314e+000
334:-2.0842513811696111e+000
335:-1.0238447217959135e+000
336:-4.0239616299065402e+000
337:-2.8386517966231648e+000
338:-1.4151915189629498e+000
339:-4.7814013350789635e+000
340:-3.3883933412532250e+000
341:-1.6741192779168976e+000
342:-8.0423042803628286e-001
343:-1.0771310088259383e+000
344:-1.1441779820862126e+000
345:-8.9437986896484878e-001
346:-6.9780486892295079e-001
347:-5.2602342234704969e-001
348:-9.0354622957118891e-001
349:-3.4201505707740637e-001
350:-3.5924599044989305e-002
351:-9.1125501844382206e-001
352:-2.8168167674594863e-001
353:1.8517442877692383e-001
354:-3.6142940350310720e-001
355:-1.6223056088641441e-002
356:2.2883979153411790e-001
357:4.6844208847030097e-002
358:1.6582316410335354e-001
359:2.4723235595127088e-001
360:2.7277650913462026e-001
361:2.1759133126460684e-001
362:1.7107169592233476e-001
363:2.6614575082261216e-001
364:2.1981556599310545e-001
365:1.8260810542153072e-001
366:2.5208877692595727e-001
367:2.1780361604396287e-001
368:1.9309836115009268e-001
369:1.5764889187485676e-001
370:1.5224787863644190e-001
371:1.4653747507846707e-001
372:1.7104910762125278e-001
373:1.6283360906769806e-001
374:1.5490956606966583e-001
375:1.8421193309185727e-001
376:1.7277122733168956e-001
377:1.6222282300213531e-001
378:1.3999192032390009e-001
379:1.2529677127203145e-001
380:1.1352724472674099e-001
381:1.4849826614882997e-001
382:1.3565210314294260e-001
383:1.2505274536746180e-001
384:1.5583993301178975e-001
385:1.4488974281473938e-001
386:1.3550754057193706e-001
387:1.0827119161220668e-001
388:1.0048532742640578e-001
389:9.3312127746380216e-002
390:1.1962903025937008e-001
391:1.1075526269155320e-001
392:1.0283538459007251e-001
393:1.3000442988891298e-001
394:1.2029909898883193e-001
395:1.1188888251565075e-001
396:8.8983042912847948e-002
397:8.1455320969372830e-002
398:7.4812832262357146e-002
399:9.8280854772831147e-002
400:9.0450828166907804e-002
401:8.3422403903759088e-002
402:1.0719366799994083e-001
403:9.9096274696219538e-002
404:9.1716852841597807e-002
405:7.0875867530372602e-002
406:6.3690657315819091e-002
407:5.6928474782770536e-002
408:7.9107679649807972e-002
409:7.1103056025370898e-002
410:6.3581622968426441e-002
411:8.7075723411457945e-002
412:7.8393227194129528e-002
413:7.0254084430288785e-002
414:5.2498838062730112e-002
415:4.3895562328168429e-002
416:3.5493704392189275e-002
417:5.8638837431169349e-002
418:4.8990151948351365e-002
419:3.9539176023855226e-002
420:6.4881460387472167e-002
421:5.4332119531741004e-002
422:4.3976779994079306e-002
423:2.9569730847843520e-002
424:1.7372052638194791e-002
425:5.0011192159004304e-003
426:3.2856718510397342e-002
427:1.9091125312463118e-002
428:5.1322879831634050e-003
429:3.6648681876438619e-002
430:2.1558204598846935e-002
431:6.2544942711737243e-003
432:2.5579475919503118e+000
433:2.2932910772783766e+000
434:2.6833369636522821e+000
435:1.5856812767594326e+000
436:2.2934203753431612e+000
437:2.7436398347510180e+000
438:-3.3876771023849774e+000
439:-1.1277910843964462e-001
440:1.9923772061081007e+000
441:3.5473441727006021e+000
442:5.2442043196419821e+000
443:6.2289948463478115e+000
444:3.1764524014530497e+000
445:4.2875782868908239e+000
446:5.2558071226331311e+000
447:2.4592485938851771e+000
448:2.9887165886434950e+000
449:3.9444601042464185e+000
450:5.5755914603019034e+000
451:3.1930935127037299e+000
452:1.4117893369199208e+000
453:4.8106235461761964e+000
454:2.6158912241463805e+000
455:7.4823469778278273e-001
456:3.7291289332143305e+000
457:1.7924261013862743e+000
458:-9.1318910923710625e-002
459:6.0218154031079252e-001
460:-9.0144852947253384e-001
461:-2.5827011802651683e+000
462:-2.2343568017194693e-001
463:-1.9378022313869516e+000
464:-3.7013702280555241e+000
465:-1.1495490675846836e+000
466:-2.8854512122986331e+000
467:-4.5421336669104146e+000
468:-3.3678796643431528e+000
469:-4.2286283878700246e+000
470:-5.0249259201019587e+000
471:-4.3876793414628938e+000
472:-4.8015558725689944e+000
473:-4.9841508063049877e+000
474:-5.1038941290453721e+000
475:-5.1718527217040471e+000
476:-4.8416993109174511e+000
477:-4.8662997562472228e+000
478:-3.3879923991306153e+000
479:-1.6331611593213178e+000
480:-4.5388392140518032e+000
481:-2.9496310069538731e+000
482:-1.3207706947331288e+000
483:-4.1486194571058066e+000
484:-2.4812946658395583e+000
485:-1.0111895470203924e+000
486:-8.3129310753834396e-001
487:-2.0644416908086088e-001
488:1.1253621036455967e-001
489:-6.3816336761596082e-001
490:-1.0726116784980502e-001
491:1.7512476600865934e-001
492:-4.6371615471548699e-001
493:-4.8524582321381751e-002
494:1.7550301726940323e-001
495:1.6447826923368561e-001
496:2.1011602063477450e-001
497:2.3822057843323438e-001
498:2.1356501420640356e-001
499:2.1643246963712395e-001
500:2.0804850037704886e-001
501:2.0338034018476983e-001
502:1.9534084349336917e-001
503:1.8233169102300370e-001
504:2.3452789503269569e-001
505:2.1060853529236923e-001
506:1.9529873389078192e-001
507:2.0042467037782682e-001
508:1.9298204157608623e-001
509:1.9035719776579144e-001
510:1.7777621891243711e-001
511:1.7900071608762386e-001
512:1.8125122490695844e-001
513:1.8837773214399603e-001
514:1.7514227074103703e-001
515:1.6314019663774862e-001
516:1.8607131479515909e-001
517:1.7202280666822928e-001
518:1.5977897871474850e-001
519:1.7816834294464579e-001
520:1.6619493227133739e-001
521:1.5659749464525366e-001
522:1.5682832698495164e-001
523:1.4717621299790393e-001
524:1.3881403095835432e-001
525:1.5414347070396314e-001
526:1.4651003184191075e-001
527:1.3988980505170051e-001
528:1.5224623343515489e-001
529:1.4583231780649067e-001
530:1.4015489437402012e-001
531:1.3352780941746961e-001
532:1.2376691086591052e-001
533:1.1536252195532640e-001
534:1.3527164534382169e-001
535:1.2615913229393688e-001
536:1.1827288806642484e-001
537:1.3605034851570247e-001
538:1.2785461365004266e-001
539:1.2075490678815007e-001
540:1.1066914526221397e-001
541:1.0251554127601988e-001
542:9.5053466577754139e-002
543:1.1373571083431826e-001
544:1.0568013869489523e-001
545:9.8308858470421506e-002
546:1.1647294048749735e-001
547:1.0858725960600348e-001
548:1.0137863326647731e-001
549:9.0314589148010591e-002
550:8.1399033568739218e-002
551:7.3031679859593371e-002
552:9.3561185613294920e-002
553:8.4501201855571723e-002
554:7.5945918625422479e-002
555:9.6674618609225299e-002
556:8.7578603715188136e-002
557:7.8943788006170967e-002
558:6.7473798700242629e-002
559:5.6510093137468381e-002
560:4.5736033375198062e-002
561:7.0180489833835652e-002
562:5.8712290128077847e-002
563:4.7422476763270036e-002
564:7.3052957521181683e-002
565:6.1254160465117141e-002
566:4.9622490290452480e-002
567:3.8106881585087557e-002
568:2.2395969368987349e-002
569:6.4603628622002486e-003
570:3.9412611852684340e-002
571:2.2903882662912232e-002
572:6.1510616432255832e-003
573:4.1357481804434403e-002
574:2.4308557544273662e-002
575:6.9961439149698454e-003
576:-8.4029593680139083e+000
577:-4.1048921661680096e+000
578:-6.2078519633813896e-002
579:-1.5971699601925714e+001
580:-1.2579627356494338e+001
581:-5.3879558025795857e+000
582:-2.0271357910061337e+001
583:-1.9064191235825945e+001
584:-1.0002572389312116e+001
585:1.3859340996987315e+000
586:2.5353708341126420e+000
587:3.7644386012537683e+000
588:-1.1975307463925124e+000
589:2.4735873083074931e+000
590:4.4639229282519386e+000
591:-3.5265805402967327e+000
592:2.3751831978810660e+000
593:4.8357510338205163e+000
594:3.5800463385034820e+000
595:1.6474915648842905e+000
596:-3.1360387422116559e-001
597:4.1223507491777021e+000
598:2.0208813738356399e+000
599:-1.1507955593250425e-001
600:4.3065030195036940e+000
601:2.2223557078195073e+000
602:9.7765952769417311e-002
603:-1.4157694117616137e+000
604:-3.1039932996501540e+000
605:-4.6065611687850954e+000
606:-1.2973329569920014e+000
607:-2.9288648916870561e+000
608:-4.1373943860578946e+000
609:-1.1133391846673659e+000
610:-2.6983433072649468e+000
611:-3.6229985679676933e+000
612:-5.0679421722436615e+000
613:-4.9996047385207110e+000
614:-4.5112159464673534e+000
615:-4.4043999394260931e+000
616:-4.1743594025445034e+000
617:-3.6157035030316353e+000
618:-3.7102734564130233e+000
619:-3.3586923575592880e+000
620:-2.7699318917733975e+000
621:-3.7750959087839435e+000
622:-2.1788008616372019e+000
623:-8.5182464073285669e-001
624:-2.9577768229131447e+000
625:-1.6484715967316130e+000
626:-6.1938156087798613e-001
627:-2.1955483252462642e+000
628:-1.1514547708814051e+000
629:-3.9847277092997163e-001
630:-3.8413823874218078e-001
631:-3.5629440436055294e-002
632:1.4934656845003721e-001
633:-2.7533714348571653e-001
634:-2.2531226385415132e-002
635:1.0434393980514713e-001
636:-1.7006829701206999e-001
637:-7.2444625755446199e-003
638:6.7250659461539644e-002
639:1.7210705122058115e-001
640:1.6995043643280666e-001
641:1.6631158896278472e-001
642:1.1847574390016016e-001
643:1.2417667526847659e-001
644:1.3409810547517989e-001
645:7.3202147697759221e-002
646:8.2580621766357665e-002
647:1.0188232619397865e-001
648:1.6576977112537061e-001
649:1.6831555834778950e-001
650:1.7057027562268562e-001
651:1.3920512339754906e-001
652:1.4344768104057432e-001
653:1.4666480216077130e-001
654:1.1177445018003301e-001
655:1.1892558179101109e-001
656:1.2431691030385839e-001
657:1.6816354027418681e-001
658:1.5928189000029000e-001
659:1.5265572292181498e-001
660:1.4631489889879343e-001
661:1.4337711862750058e-001
662:1.4170946630545919e-001
663:1.2604217048927091e-001
664:1.2789945224221147e-001
665:1.3004150669822864e-001
666:1.4927156785177267e-001
667:1.4326044802179899e-001
668:1.3794374163868464e-001
669:1.3983990233439075e-001
670:1.3479647242534318e-001
671:1.3057957256711422e-001
672:1.2948169000963713e-001
673:1.2585081393020120e-001
674:1.2317858450555000e-001
675:1.3419926270306112e-001
676:1.2682956787724906e-001
677:1.2043541779771362e-001
678:1.2771681691799980e-001
679:1.2200887800082523e-001
680:1.1699268493741986e-001
681:1.2128783047048218e-001
682:1.1710702427409733e-001
683:1.1333416503897142e-001
684:1.1640588209581669e-001
685:1.0874782864252969e-001
686:1.0174814173697758e-001
687:1.1350485174146038e-001
688:1.0647680595918121e-001
689:1.0005014296107324e-001
690:1.1037773130863643e-001
691:1.0407891007293499e-001
692:9.8324487857839871e-002
693:9.7134039167093150e-002
694:8.8129111768117316e-002
695:7.9552822207500595e-002
696:9.5703393519028707e-002
697:8.7036832795634414e-002
698:7.8730514456457332e-002
699:9.4300688775708255e-002
700:8.6064337277380054e-002
701:7.8119832709136389e-002
702:7.3655351474858660e-002
703:6.1787504972599543e-002
704:5.0073272666320015e-002
705:7.2927737892511099e-002
706:6.1136778458536781e-002
707:4.9464256449186068e-002
708:7.2481675644096841e-002
709:6.0916058543972786e-002
710:4.9433702097112668e-002
711:4.1736100640092748e-002
712:2.4525825340587417e-002
713:7.0448628612068461e-003
714:4.1126312849705297e-002
715:2.3890936800489565e-002
716:6.3795358939325872e-003
717:4.1208277960151973e-002
718:2.4188669596728968e-002
719:6.8876986985164030e-003
720:-1.9924007861784972e+001
721:-1.7993855895565755e+001
722:-9.1375191949669397e+000
723:-1.4805062732858500e+001
724:-8.2040220736500657e+000
725:-1.9216328646097074e+000
726:-6.9970207092761392e+000
727:2.9982446468080997e+000
728:5.4300223681765694e+000
729:-3.2581972297130952e+000
730:1.6466446910597108e+000
731:3.4961220653019542e+000
732:-2.4892096972903621e-001
733:-5.5737958269377508e-001
734:-8.3488303359423277e-001
735:2.6397562652276201e+000
736:-2.4863451333161706e+000
737:-4.4951716612008363e+000
738:2.9831488273093600e+000
739:1.3378935928386926e+000
740:-3.1538481100266613e-001
741:-1.0686412502787566e+000
742:-1.5438511674289017e+000
743:-1.9097247998773055e+000
744:-4.4250423698060244e+000
745:-4.0410779224499551e+000
746:-3.4304177363197059e+000
747:-1.2861653183489974e+000
748:-2.5592815072974231e+000
749:-3.2057403098349453e+000
750:-2.1324146553002694e+000
751:-2.4258259529943524e+000
752:-2.4457067608032759e+000
753:-3.0189785402214344e+000
754:-2.4134420846824014e+000
755:-1.8875020357839429e+000
756:-3.1973489659227448e+000
757:-2.8165536027341940e+000
758:-2.2653386365238055e+000
759:-2.2885004189248574e+000
760:-1.8840070044761987e+000
761:-1.4470773640827745e+000
762:-1.5964516606732500e+000
763:-1.1389506525897874e+000
764:-7.8699679563862668e-001
765:-1.7684930159131680e+000
766:-8.9992067119288144e-001
767:-3.0650542968288153e-001
768:-1.1138864323701489e+000
769:-5.6193438285439490e-001
770:-2.1941573375485740e-001
771:-5.9297175606489860e-001
772:-3.0279399798134116e-001
773:-1.5632593751993579e-001
774:-1.3793685586025614e-001
775:-1.7028678254613652e-002
776:3.7923789623846807e-002
777:-1.3419078309315174e-001
778:-6.5863339264645840e-002
779:-2.4209006288088353e-002
780:-1.3615281776363455e-001
781:-1.1239251971240409e-001
782:-7.6022733637882783e-002
783:4.4147015793801161e-002
784:5.9196223420634554e-002
785:8.3604701396297693e-002
786:-8.7607464924415440e-003
787:2.0999439422698864e-002
788:5.2478120287058692e-002
789:-5.0729283291082790e-002
790:-1.2140542977154684e-002
791:2.0525916886384762e-002
792:9.5225159356710498e-002
793:1.0359663249399825e-001
794:1.1024497990530048e-001
795:6.5066609628371727e-002
796:7.5182001983275890e-002
797:8.4434676671422682e-002
798:3.2930142974355495e-002
799:4.6712027520836134e-002
800:6.0491602459791884e-002
801:1.1305471000256717e-001
802:1.1713425282197761e-001
803:1.2115183298055826e-001
804:8.9075284709625752e-002
805:9.6153805835677703e-002
806:1.0296416635623008e-001
807:6.7259143018022466e-002
808:7.6431458572560479e-002
809:8.5129415576929462e-002
810:1.2144870390395973e-001
811:1.1905172143070875e-001
812:1.1752291697951904e-001
813:1.0486647285074820e-001
814:1.0504091361931152e-001
815:1.0564052110294302e-001
816:8.8387670734842272e-002
817:9.1181358942429083e-002
818:9.3957202558099140e-002
819:1.1620169918708589e-001
820:1.1283215608506428e-001
821:1.0977618968747881e-001
822:1.0524936670360256e-001
823:1.0320738430970873e-001
824:1.0143847491099381e-001
825:9.4500964960224559e-002
826:9.3755397774703167e-002
827:9.3242399875100551e-002
828:1.0718243228598023e-001
829:1.0143311631872266e-001
830:9.6164912009376852e-002
831:9.9563020967220528e-002
832:9.4917632816663461e-002
833:9.0592853592681682e-002
834:9.2080165177154366e-002
835:8.8552378491157782e-002
836:8.5184698000402542e-002
837:9.2371633573961331e-002
838:8.4457740338365714e-002
839:7.6797958887817250e-002
840:8.7248581644176343e-002
841:7.9998317691673523e-002
842:7.2940884466621253e-002
843:8.2313696660021293e-002
844:7.5796771793235768e-002
845:6.9411396596313651e-002
846:7.1306894139792243e-002
847:5.9971114565531065e-002
848:4.8694925813208889e-002
849:6.7779568230335582e-002
850:5.6984376201420356e-002
851:4.6202610587522293e-002
852:6.4632537223310721e-002
853:5.4489354748312555e-002
854:4.4313434281412066e-002
855:4.0601410356481092e-002
856:2.3843991351907318e-002
857:6.8048614945314251e-003
858:3.8431203845476838e-002
859:2.2318757415862988e-002
860:5.9287408189730890e-003
861:3.6948496252863651e-002
862:2.1659502823079945e-002
863:6.0970799115640413e-003
864:-2.8006146294559624e+000
865:6.1797652613734781e+000
866:6.6859664605534288e+000
867:2.7083386034484913e-001
868:4.1170303301856652e+000
869:3.6043020590019368e+000
870:5.4502871812277576e-001
871:6.8788240513882792e-001
872:5.8706530175528859e-001
873:2.9846592818421347e+000
874:-2.5432705864363410e+000
875:-4.6200255746586869e+000
876:1.6248324529944396e+000
877:-8.7501096632450492e-001
878:-1.8625546122401184e+000
879:6.7670023031397708e-001
880:9.6748264457480881e-001
881:8.3168972558616994e-001
882:-4.5200121264833921e+000
883:-4.1533384236564217e+000
884:-3.5171869724058888e+000
885:-2.0014569735905625e+000
886:-2.2743424904109362e+000
887:-2.2480896929614178e+000
888:4.2010078881322438e-001
889:-3.7093628807332696e-001
890:-8.3317448484365753e-001
891:-3.0315431781057902e+000
892:-2.2698400475734881e+000
893:-1.6585777417599714e+000
894:-2.0521193472905912e+000
895:-1.6243316739058813e+000
896:-1.2373141815258788e+000
897:-9.0226056123492848e-001
898:-8.4519979776433685e-001
899:-7.1923857158437099e-001
900:-1.3530590130353051e+000
901:-9.0525780973416137e-001
902:-5.9372085295803778e-001
903:-1.0199394631373480e+000
904:-7.0066188212257263e-001
905:-4.8522421309477004e-001
906:-6.1120713362499290e-001
907:-4.5649283728060186e-001
908:-3.7319411838513045e-001
909:-4.5110870304403816e-001
910:-2.5394056570972046e-001
911:-1.6419127054443419e-001
912:-4.0080391512166652e-001
913:-2.9036455133764355e-001
914:-2.2835450994223427e-001
915:-3.5451074978155445e-001
916:-3.2068909292021397e-001
917:-2.7630723866707319e-001
918:-1.5590103789531462e-001
919:-1.3485786090282403e-001
920:-9.3730023997536466e-002
921:-2.0768367412365318e-001
922:-1.6320801456497094e-001
923:-1.1224192801542712e-001
924:-2.4329992691760083e-001
925:-1.8565449430826989e-001
926:-1.3511286763000360e-001
927:-6.5938748662479993e-002
928:-2.9131235100712683e-002
929:5.4295021904382089e-004
930:-8.7007931844102090e-002
931:-5.7805999269181819e-002
932:-3.2258375188282597e-002
933:-1.1382350563763582e-001
934:-8.6732078491500303e-002
935:-5.9815940091393495e-002
936:1.2870712945117383e-002
937:3.0119649398847818e-002
938:4.7297825264247716e-002
939:-1.8776354214643836e-002
940:3.6128126262323919e-003
941:2.4835579593957102e-002
942:-4.4422170838963992e-002
943:-1.9784740984264540e-002
944:2.5906497124659738e-003
945:5.5215043578196267e-002
946:6.4961075527727050e-002
947:7.4197542530987759e-002
948:3.3992825063812834e-002
949:4.4717844783375947e-002
950:5.5018511014300053e-002
951:1.2379405470226569e-002
952:2.4884217183280054e-002
953:3.7049886865328639e-002
954:7.8058606674860517e-002
955:8.2293286112967365e-002
956:8.6332316225172095e-002
957:5.9826039205777178e-002
958:6.6085579433476954e-002
959:7.1981457154495665e-002
960:4.2912046174998053e-002
961:5.0767358206210637e-002
962:5.8090994549971582e-002
963:8.7446256743299242e-002
964:8.7474562075024895e-002
965:8.7677921656370450e-002
966:7.4041155629295627e-002
967:7.5469717279035078e-002
968:7.6916186944327558e-002
969:6.0979324640413834e-002
970:6.3834727898581245e-002
971:6.6550892938232256e-002
972:8.6913870388497599e-002
973:8.4028757288342235e-002
974:8.1231792256311969e-002
975:7.6811468596235791e-002
976:7.4994458210415643e-002
977:7.3178815119428614e-002
978:6.7106927003438122e-002
979:6.6336312119128577e-002
980:6.5480283756363222e-002
981:7.8660362023015309e-002
982:7.2621686968561097e-002
983:6.6672799800633981e-002
984:7.1149486158982284e-002
985:6.5995351272486458e-002
986:6.0848771309377700e-002
987:6.3995473877614173e-002
988:5.9755895151831759e-002
989:5.5441638386311200e-002
990:6.2146015520710633e-002
991:5.2444061574465455e-002
992:4.2685365635570828e-002
993:5.6789825817097399e-002
994:4.7922922135375731e-002
995:3.8962951319237341e-002
996:5.1878517529633288e-002
997:4.3912821253174146e-002
998:3.5817732700530056e-002
999:3.5604463208648456e-002
1000:2.0892523401275738e-002
1001:5.9113333008425917e-003
1002:3.2428668129544445e-002
1003:1.8826501101555759e-002
1004:4.9653048420507002e-003
1005:2.9878800353319787e-002
1006:1.7487714719636140e-002
1007:4.8478209159906506e-003
1008:4.0932731313934469e-002
1009:-5.0756192395031274e-001
1010:-2.1658814937807871e-001
1011:-7.6461991050497238e-002
1012:-3.1290986773899088e-001
1013:-1.0294435406267821e-001
1014:-6.4495442675101711e-002
1015:-1.3123568474175715e-001
1016:-1.4461757591527713e-001
1017:4.4658151290944265e-001
1018:1.3287762050829797e+000
1019:1.3373280791815525e+000
1020:2.3488309754689429e-001
1021:5.9359910258377924e-001
1022:4.8120370728026240e-001
1023:-1.3681888156444280e-001
1024:-1.7534769801083402e-001
1025:-2.8245649706305759e-001
1026:8.8690468668451650e-001
1027:8.8083295080484764e-002
1028:-4.1070163050306530e-001
1029:2.0640321655396446e-001
1030:-2.1072509721910571e-001
1031:-4.5631930735640225e-001
1032:-3.5902876120605715e-001
1033:-4.4301485231540449e-001
1034:-4.8396920217367873e-001
1035:-5.2970908164682184e-001
1036:-5.7728598517576701e-001
1037:-5.3767584950278891e-001
1038:-5.0736303185565312e-001
1039:-5.2185392584256396e-001
1040:-4.9598675649543061e-001
1041:-4.8199594818668628e-001
1042:-4.6621435305019410e-001
1043:-4.5690367044752872e-001
1044:-4.7398067618385292e-001
1045:-3.8517841329510466e-001
1046:-3.4935320602963305e-001
1047:-4.6125088154754768e-001
1048:-4.0802470977570626e-001
1049:-3.7683610144704172e-001
1050:-4.5054683506341675e-001
1051:-4.2808917943036340e-001
1052:-3.9672959506038824e-001
1053:-3.4742159731925770e-001
1054:-3.2730845230952532e-001
1055:-2.8379651936374117e-001
1056:-3.6226302955906381e-001
1057:-3.2364078025553145e-001
1058:-2.7648955329663177e-001
1059:-3.7013242802038848e-001
1060:-3.1993022948029426e-001
1061:-2.7606886356552718e-001
1062:-2.4921047061824525e-001
1063:-1.9513895914354351e-001
1064:-1.5062189840826357e-001
1065:-2.4886354870227287e-001
1066:-2.0941213677190962e-001
1067:-1.7434256313668606e-001
1068:-2.5552276230710225e-001
1069:-2.2417418995433880e-001
1070:-1.9203484345243393e-001
1071:-1.3097884862087594e-001
1072:-1.0160305783833998e-001
1073:-7.1882876641655713e-002
1074:-1.5495800914044999e-001
1075:-1.2145487832463006e-001
1076:-8.9300503736000458e-002
1077:-1.7204298074657126e-001
1078:-1.3795443990674702e-001
1079:-1.0690780193545654e-001
1080:-5.5771285120307046e-002
1081:-3.1841237006332283e-002
1082:-1.0226950571909815e-002
1083:-7.3517028556053313e-002
1084:-5.1467759094205388e-002
1085:-3.0823229025207264e-002
1086:-9.2063136040238386e-002
1087:-7.0451356435810922e-002
1088:-4.9333293937533371e-002
1089:-2.4465972350538499e-004
1090:1.3655887298311390e-002
1091:2.7116395775376553e-002
1092:-2.0292203853651276e-002
1093:-4.4030589224867290e-003
1094:1.0614105976968942e-002
1095:-3.8063964403321729e-002
1096:-2.0978054495287814e-002
1097:-5.1960661059295681e-003
1098:3.3516027187830061e-002
1099:4.1965988916531041e-002
1100:4.9849172819548558e-002
1101:1.7616586663493607e-002
1102:2.6890982381081702e-002
1103:3.5645985248041655e-002
1104:2.2237998974022261e-003
1105:1.2477117191574577e-002
1106:2.2258426610173243e-002
1107:5.3140156372084829e-002
1108:5.6789112785539782e-002
1109:6.0216300977471215e-002
1110:3.9569889997975720e-002
1111:4.4409834624556235e-002
1112:4.8901543595580452e-002
1113:2.6818711620224353e-002
1114:3.2707043912473713e-002
1115:3.8120673115120754e-002
1116:6.1140393852751017e-002
1117:6.0946809094409166e-002
1118:6.0621256597544998e-002
1119:5.0401691262830742e-002
1120:5.1157575553663223e-002
1121:5.1708289552227601e-002
1122:4.0154880735916172e-002
1123:4.1858519710772993e-002
1124:4.3283785839609866e-002
1125:5.9445206510946424e-002
1126:5.5739625330660361e-002
1127:5.1918114672308245e-002
1128:5.1045557873446827e-002
1129:4.8236551995244771e-002
1130:4.5252089377777520e-002
1131:4.3131812873231541e-002
1132:4.1212300290276817e-002
1133:3.9057803706858255e-002
1134:4.8655939967311088e-002
1135:4.1245575941670901e-002
1136:3.3686070096747997e-002
1137:4.2512275741305845e-002
1138:3.6078016255412106e-002
1139:2.9463070951600261e-002
1140:3.6843529381871180e-002
1141:3.1403378448072602e-002
1142:2.5750997697708274e-002
1143:2.8117400191061032e-002
1144:1.6481030165810078e-002
1145:4.6038244970819289e-003
1146:2.4547886965748580e-002
1147:1.4244104241799796e-002
1148:3.7166623337471795e-003
1149:2.1501521343536500e-002
1150:1.2554321719519413e-002
1151:3.4006393707670846e-003
1152:-3.3481257568316332e-002
1153:-8.3375406776913324e-002
1154:-1.8521817214509043e-001
1155:-2.5988377894687168e-002
1156:-9.1902339466053889e-002
1157:-1.7859639312181239e-001
1158:-2.4100819946187093e-002
1159:-9.9966648211499018e-002
1160:-1.6544404448600247e-001
1161:-2.6648291194058349e-001
1162:-3.8336588056800780e-001
1163:-4.5840950571223926e-001
1164:-2.3340973920881389e-001
1165:-3.0955632360231866e-001
1166:-3.6693988759252538e-001
1167:-1.9463755200974894e-001
1168:-2.3897333017050848e-001
1169:-2.8762241100786917e-001
1170:-4.7404240736876946e-001
1171:-4.7623985187330431e-001
1172:-4.7303301782104273e-001
1173:-3.8689517929864359e-001
1174:-4.0722988409134747e-001
1175:-4.2296441017143799e-001
1176:-3.1332550678259075e-001
1177:-3.4777031726940161e-001
1178:-3.7841904888778288e-001
1179:-4.6204069378652324e-001
1180:-4.4179660577425994e-001
1181:-4.3833905181819732e-001
1182:-4.2340464827072849e-001
1183:-4.1564267103439073e-001
1184:-4.1328779945090161e-001
1185:-3.8883193147924711e-001
1186:-3.9256222479401992e-001
1187:-3.9032019535828955e-001
1188:-4.3881128568773792e-001
1189:-4.2317628826901976e-001
1190:-3.9223569754606685e-001
1191:-4.0931479712345031e-001
1192:-3.9041294366598017e-001
1193:-3.6513884912149336e-001
1194:-3.8204325611226259e-001
1195:-3.6134996063454849e-001
1196:-3.4321777628702826e-001
1197:-3.6489895333193101e-001
1198:-3.1763508132286156e-001
1199:-2.7944686899641491e-001
1200:-3.4636455120851728e-001
1201:-3.1356060184629808e-001
1202:-2.8436071229578069e-001
1203:-3.3219788293048880e-001
1204:-3.0960161346929721e-001
1205:-2.8513780394889066e-001
1206:-2.6127402437905817e-001
1207:-2.3004934932024459e-001
1208:-1.9711475978771986e-001
1209:-2.6691223348324294e-001
1210:-2.3402044301189495e-001
1211:-2.0143273243933613e-001
1212:-2.6798915189903777e-001
1213:-2.3622356387776711e-001
1214:-2.0677605012777861e-001
1215:-1.7731788223137937e-001
1216:-1.4533877270848414e-001
1217:-1.1648029747753373e-001
1218:-1.8367352715193991e-001
1219:-1.5613167887123236e-001
1220:-1.3028787812209230e-001
1221:-1.9136656231557161e-001
1222:-1.6654099816731902e-001
1223:-1.4199089479025373e-001
1224:-1.0214512311373408e-001
1225:-7.9984822062114574e-002
1226:-5.8224664984879215e-002
1227:-1.1620787528587137e-001
1228:-9.3208564534895025e-002
1229:-7.1198856756919310e-002
1230:-1.2791403762164272e-001
1231:-1.0493060951182955e-001
1232:-8.3526243373630377e-002
1233:-4.6742782464203006e-002
1234:-2.9647284575075854e-002
1235:-1.3884140257491202e-002
1236:-5.9946967834618732e-002
1237:-4.3295149836425545e-002
1238:-2.7641450435755954e-002
1239:-7.2658893825765403e-002
1240:-5.6126958650507174e-002
1241:-4.0258907098753592e-002
1242:-6.2925883493293675e-003
1243:4.5659535701291568e-003
1244:1.4918452703867751e-002
1245:-1.9741189100337699e-002
1246:-8.0341573034141325e-003
1247:3.0024860474217631e-003
1248:-3.2024558857332616e-002
1249:-1.9705624756505041e-002
1250:-8.2214247621297705e-003
1251:1.9776755987403999e-002
1252:2.6116205522710465e-002
1253:3.1944081481306195e-002
1254:8.2059821450415332e-003
1255:1.5153470935188007e-002
1256:2.1589148460726855e-002
1257:-2.7352170264131818e-003
1258:4.8421825511512145e-003
1259:1.1907533176205671e-002
1260:3.4249494624797108e-002
1261:3.6468596162186777e-002
1262:3.8368912597582364e-002
1263:2.4312296182865834e-002
1264:2.7316898708007974e-002
1265:2.9937042303767106e-002
1266:1.5037093135657827e-002
1267:1.8766415984244469e-002
1268:2.2045606076057780e-002
1269:3.8495561903845357e-002
1270:3.7066483395407912e-002
1271:3.5374404131118926e-002
1272:3.0497915610795071e-002
1273:2.9859886009064467e-002
1274:2.8922103566055422e-002
1275:2.3018778141649047e-002
1276:2.3157232198687733e-002
1277:2.2959181329027915e-002
1278:3.3459800902781861e-002
1279:2.8595494179261143e-002
1280:2.3504022738824872e-002
1281:2.7501865460657120e-002
1282:2.3593099196455979e-002
1283:1.9437388553261041e-002
1284:2.2021129755302630e-002
1285:1.9040617570943094e-002
1286:1.5793381345505255e-002
1287:1.9644380793834400e-002
1288:1.1492138014883966e-002
1289:3.1435798937319878e-003
1290:1.6230835487465952e-002
1291:9.4114005204984572e-003
1292:2.4134138773373400e-003
1293:1.3219813107892924e-002
1294:7.6913849284962763e-003
1295:2.0021687389317681e-003
1296:-2.1845032736843326e-002
1297:-9.6026755711832654e-002
1298:-1.5354056178142836e-001
1299:-1.4959801181290864e-002
1300:-7.7609872711671801e-002
1301:-1.3318115379149656e-001
1302:-1.2098481695937038e-002
1303:-6.3667387017461899e-002
1304:-1.1774662834328049e-001
1305:-1.7675181006299145e-001
1306:-2.1560809012482082e-001
1307:-2.6352053707687689e-001
1308:-1.6052117671959382e-001
1309:-2.0494386325193992e-001
1310:-2.5164520697141812e-001
1311:-1.4860145998361590e-001
1312:-1.9603017892995853e-001
1313:-2.3896004536034479e-001
1314:-2.8995672183058163e-001
1315:-3.2490916471151826e-001
1316:-3.5655081357195351e-001
1317:-2.7395254541672887e-001
1318:-3.0085964614930966e-001
1319:-3.2531953035621147e-001
1320:-2.5716921831261247e-001
1321:-2.7869678531989045e-001
1322:-2.9864071329631381e-001
1323:-3.6881060457936021e-001
1324:-3.7614619131739879e-001
1325:-3.7528570491454660e-001
1326:-3.3519216918597311e-001
1327:-3.4336121952495657e-001
1328:-3.4707172542680292e-001
1329:-3.0658512389960463e-001
1330:-3.1449891775331523e-001
1331:-3.2169169587364432e-001
1332:-3.6725811653943718e-001
1333:-3.4856819948627826e-001
1334:-3.3413204927107071e-001
1335:-3.4367656560591775e-001
1336:-3.3191066641259037e-001
1337:-3.2128197908517825e-001
1338:-3.2225166926408261e-001
1339:-3.1617098821074102e-001
1340:-3.0811096405126692e-001
1341:-3.2531363466304736e-001
1342:-3.0480682450254210e-001
1343:-2.8136776731325686e-001
1344:-3.1277579395653915e-001
1345:-2.9271634322544837e-001
1346:-2.7153738870128419e-001
1347:-2.9988553180597111e-001
1348:-2.8140407116395399e-001
1349:-2.6361584996457260e-001
1350:-2.6505480918265545e-001
1351:-2.3594986635807477e-001
1352:-2.0935862519809473e-001
1353:-2.5799572841161589e-001
1354:-2.3411802602221915e-001
1355:-2.1141230283310650e-001
1356:-2.5272965531440139e-001
1357:-2.3255050630486901e-001
1358:-2.1220161403129359e-001
1359:-1.9500969689073888e-001
1360:-1.7069069943700510e-001
1361:-1.4640628227122049e-001
1362:-1.9799106989181595e-001
1363:-1.7422459367066506e-001
1364:-1.5108750072297586e-001
1365:-1.9945127170889138e-001
1366:-1.7688349640039164e-001
1367:-1.5553990735086076e-001
1368:-1.3257931482923974e-001
1369:-1.1035982691825691e-001
1370:-8.9743250441585543e-002
1371:-1.3831449617144931e-001
1372:-1.1785808488684964e-001
1373:-9.8497084517971387e-002
1374:-1.4387614493628764e-001
1375:-1.2472659726833851e-001
1376:-1.0616495999751338e-001
1377:-7.9091130730388440e-002
1378:-6.2465700130307410e-002
1379:-4.6457760169067691e-002
1380:-8.8058798243951061e-002
1381:-7.1353055241441074e-002
1382:-5.5439608746319341e-002
1383:-9.5876209656568720e-002
1384:-7.9325409423956009e-002
1385:-6.3741711567276968e-002
1386:-3.8143067733760909e-002
1387:-2.5729733778161783e-002
1388:-1.4169518742645108e-002
1389:-4.7228021640751745e-002
1390:-3.4896375491877123e-002
1391:-2.3316681861674043e-002
1392:-5.5677752809982897e-002
1393:-4.3345542277985538e-002
1394:-3.1664117863240575e-002
1395:-8.5651692288632123e-003
1396:-6.5669587468604950e-004
1397:6.7230409804534897e-003
1398:-1.7549460642481567e-002
1399:-9.2029249086042555e-003
1400:-1.4422346005582628e-003
1401:-2.5735173384640625e-002
1402:-1.7036774086078371e-002
1403:-8.9813291401441616e-003
1404:1.0043471253427749e-002
1405:1.4111140187439869e-002
1406:1.7707043905255140e-002
1407:2.1166597263890656e-003
1408:6.6541247573021481e-003
1409:1.0711158632738901e-002
1410:-5.2124085138295822e-003
1411:-2.1667467797598805e-004
1412:4.2899620631212578e-003
1413:1.8893521314656464e-002
1414:1.9450480961676390e-002
1415:1.9652707076381049e-002
1416:1.2221546284160405e-002
1417:1.3419372303470199e-002
1418:1.4236574424442349e-002
1419:6.1072719358860241e-003
1420:7.8991124277886897e-003
1421:9.2844386553458721e-003
1422:1.8977578914576278e-002
1423:1.6507119610117107e-002
1424:1.3762235587353393e-002
1425:1.3972437435824724e-002
1426:1.2311767750610575e-002
1427:1.0369989695981673e-002
1428:9.4030701659676644e-003
1429:8.5020550156887850e-003
1430:7.3132478448841567e-003
1431:1.1540966249310116e-002
1432:6.7320311272989026e-003
1433:1.7719164941016137e-003
1434:8.7123048746232806e-003
1435:5.0511791771221445e-003
1436:1.2541298291762445e-003
1437:6.1771953859779552e-003
1438:3.5698459686347322e-003
1439:8.4182876158961958e-004
1440:-1.3130453300741007e-002
1441:-6.0066318987273520e-002
1442:-1.1147871535495975e-001
1443:-1.5118987860500119e-002
1444:-5.7863843013594631e-002
1445:-1.0225291402778222e-001
1446:-1.4285321779882097e-002
1447:-5.4295427276206232e-002
1448:-9.3117433813565686e-002
1449:-1.4157362485998973e-001
1450:-1.8701148234702403e-001
1451:-2.2674666011106995e-001
1452:-1.2720055205393260e-001
1453:-1.6550590968453263e-001
1454:-2.0074915512245192e-001
1455:-1.1382049985373428e-001
1456:-1.4663921604192137e-001
1457:-1.7903638756772855e-001
1458:-2.4371824027269046e-001
1459:-2.6509221549851308e-001
1460:-2.8508027485389048e-001
1461:-2.1756864445598012e-001
1462:-2.4108857583351873e-001
1463:-2.6303848784015355e-001
1464:-1.9573868224151372e-001
1465:-2.1987863174874073e-001
1466:-2.4226445838459398e-001
1467:-2.9284313949417046e-001
1468:-3.0052401013700997e-001
1469:-3.0835562574237335e-001
1470:-2.7161270885047717e-001
1471:-2.7975999968010634e-001
1472:-2.8731630514097500e-001
1473:-2.5134522186009284e-001
1474:-2.6043738045263265e-001
1475:-2.6819682334511535e-001
1476:-3.0989092319930556e-001
1477:-3.0556874337657958e-001
1478:-2.9866050179259895e-001
1479:-2.8876095680732794e-001
1480:-2.8554724494803746e-001
1481:-2.8077904269329823e-001
1482:-2.6966795152747375e-001
1483:-2.6748674988678850e-001
1484:-2.6478262921645734e-001
1485:-2.9115056348218127e-001
1486:-2.7456578621045574e-001
1487:-2.5898105340098571e-001
1488:-2.7529710474291547e-001
1489:-2.6238606626916189e-001
1490:-2.4971666191711925e-001
1491:-2.6106478071385275e-001
1492:-2.5099651113045623e-001
1493:-2.4041146532823510e-001
1494:-2.4917390995790678e-001
1495:-2.3013585568665579e-001
1496:-2.1067162703903675e-001
1497:-2.4093363380103502e-001
1498:-2.2328641751490791e-001
1499:-2.0567352593449584e-001
1500:-2.3249246062528250e-001
1501:-2.1651689770298094e-001
1502:-2.0103615856847448e-001
1503:-1.9848969770540051e-001
1504:-1.7717904917007815e-001
1505:-1.5712809181034129e-001
1506:-1.9490454624634498e-001
1507:-1.7599571441298537e-001
1508:-1.5787378311997988e-001
1509:-1.9162548384484548e-001
1510:-1.7464986734363505e-001
1511:-1.5798836074754827e-001
1512:-1.4600650887844968e-001
1513:-1.2733989704360638e-001
1514:-1.0916094818869168e-001
1515:-1.4740860960774663e-001
1516:-1.2947911901402159e-001
1517:-1.1220029250441182e-001
1518:-1.4808376181877281e-001
1519:-1.3103065821938453e-001
1520:-1.1479121980829704e-001
1521:-9.9069132156503842e-002
1522:-8.2878252637858182e-002
1523:-6.7656236289963229e-002
1524:-1.0267621153801340e-001
1525:-8.7322078912689963e-002
1526:-7.2768054546297062e-002
1527:-1.0583333095183159e-001
1528:-9.1171377111648369e-002
1529:-7.7140776618580695e-002
1530:-5.9701002903285325e-002
1531:-4.7368412973525155e-002
1532:-3.5669265737773237e-002
1533:-6.4996259511771112e-002
1534:-5.2761823452291537e-002
1535:-4.1202395958656962e-002
1536:-6.9530998240007233e-002
1537:-5.7465668678349201e-002
1538:-4.6116913554369712e-002
1539:-2.9706016384210290e-002
1540:-2.0922889316430965e-002
1541:-1.2789289356705565e-002
1542:-3.5292891937830695e-002
1543:-2.6505626195078687e-002
1544:-1.8333365852862365e-002
1545:-4.0277656578172505e-002
1546:-3.1472007528393305e-002
1547:-2.3246842171644272e-002
1548:-8.9330626199864045e-003
1549:-3.7154584535435157e-003
1550:1.0064737293850859e-003
1551:-1.4374705718308888e-002
1552:-8.8750249618549017e-003
1553:-3.8849448000775441e-003
1554:-1.9194925310641393e-002
1555:-1.3458948151065811e-002
1556:-8.2465001973342899e-003
1557:2.9709487900645422e-003
1558:5.0530230993718634e-003
1559:6.7216942594993667e-003
1560:-1.7261168148277365e-003
1561:7.6612352172056330e-004
1562:2.8471774797164764e-003
1563:-5.9172117483203349e-003
1564:-3.0511314402585144e-003
1565:-5.9402074011328653e-004
1566:7.0382194382361844e-003
1567:6.5370211121833152e-003
1568:5.7459471906020640e-003
1569:3.4588102182865799e-003
1570:3.5576252437501225e-003
1571:3.3660881366277128e-003
1572:2.8111362646144841e-004
1573:9.0765453766351043e-004
1574:1.2433667792194896e-003
1575:4.8847220006639222e-003
1576:2.8305238528168368e-003
1577:6.6355563389896850e-004
1578:2.9189435755874920e-003
1579:1.6961723154823906e-003
1580:3.7251556783615865e-004
1581:1.1548283573396653e-003
1582:6.4513382871488468e-004
1583:4.6438396090481396e-005
1584:-1.2375878208559758e-002
1585:-5.0992474380477201e-002
1586:-8.7831089171805501e-002
1587:-9.5404479369047956e-003
1588:-4.4978272878747470e-002
1589:-7.9443305230090938e-002
1590:-8.3641540029886861e-003
1591:-4.0337032443540602e-002
1592:-7.2142307083676707e-002
1593:-1.0722301501795940e-001
1594:-1.3829730268155271e-001
1595:-1.6956528399448212e-001
1596:-9.7904187531158815e-002
1597:-1.2729305792755152e-001
1598:-1.5634931577817673e-001
1599:-8.9537051292921790e-002
1600:-1.1706242840841347e-001
1601:-1.4372888678302928e-001
1602:-1.8575388302681464e-001
1603:-2.0891083893460066e-001
1604:-2.3039153691402947e-001
1605:-1.7096633541138864e-001
1606:-1.9156558633508447e-001
1607:-2.1094026505920366e-001
1608:-1.5692779338626922e-001
1609:-1.7567480123930540e-001
1610:-1.9364892262153591e-001
1611:-2.3941287291471636e-001
1612:-2.4907376982278109e-001
1613:-2.5727506169513686e-001
1614:-2.1950133603445163e-001
1615:-2.2959230651584228e-001
1616:-2.3852934814747409e-001
1617:-2.0183298676442457e-001
1618:-2.1193468499297857e-001
1619:-2.2118813055771344e-001
1620:-2.5899844560874319e-001
1621:-2.5748982943682458e-001
1622:-2.5571492278221175e-001
1623:-2.4090703450305248e-001
1624:-2.4061724908828375e-001
1625:-2.3991150368974060e-001
1626:-2.2404894334711795e-001
1627:-2.2480908958903317e-001
1628:-2.2500360634607988e-001
1629:-2.5264446706093907e-001
1630:-2.4361689228781233e-001
1631:-2.3393435625312520e-001
1632:-2.3743505594135927e-001
1633:-2.2965925798633979e-001
1634:-2.2151203736159952e-001
1635:-2.2306382125359633e-001
1636:-2.1651163251276492e-001
1637:-2.0987155969405200e-001
1638:-2.2658681276867904e-001
1639:-2.1180145058361441e-001
1640:-1.9757240079205474e-001
1641:-2.1529788966225619e-001
1642:-2.0252823983534343e-001
1643:-1.9006570840139109e-001
1644:-2.0468276485710010e-001
1645:-1.9358570638802405e-001
1646:-1.8254657231135052e-001
1647:-1.8879298695173338e-001
1648:-1.7263347384405250e-001
1649:-1.5669226959710175e-001
1650:-1.8206996682515295e-001
1651:-1.6709054738039966e-001
1652:-1.5247300794027796e-001
1653:-1.7523749478914985e-001
1654:-1.6144792210158995e-001
1655:-1.4816380056255354e-001
1656:-1.4718115005603655e-001
1657:-1.3082250260623504e-001
1658:-1.1527865210952386e-001
1659:-1.4378457073467113e-001
1660:-1.2873401847080371e-001
1661:-1.1433915135619055e-001
1662:-1.4025034162782213e-001
1663:-1.2633419683490582e-001
1664:-1.1291462538739669e-001
1665:-1.0663424312981765e-001
1666:-9.2327560105305323e-002
1667:-7.8612444501481041e-002
1668:-1.0617851039470771e-001
1669:-9.2508690843736890e-002
1670:-7.9462469620430326e-002
1671:-1.0519389968899022e-001
1672:-9.2183931698625890e-002
1673:-7.9829592942895752e-002
1674:-7.1151748129295520e-002
1675:-5.9304639571894607e-002
1676:-4.8167451844725852e-002
1677:-7.2361392969219271e-002
1678:-6.1018954354475817e-002
1679:-5.0322005631562881e-002
1680:-7.3081148620766506e-002
1681:-6.2196379747520979e-002
1682:-5.1892669827690377e-002
1683:-4.2398922793293714e-002
1684:-3.3622069393316155e-002
1685:-2.5414874290398390e-002
1686:-4.4712254009384111e-002
1687:-3.6080659187429309e-002
1688:-2.8016042986962423e-002
1689:-4.6436459916803320e-002
1690:-3.7979131372807021e-002
1691:-3.0086101774731932e-002
1692:-2.1347569005161840e-002
1693:-1.5545565632164297e-002
1694:-1.0263742835750992e-002
1695:-2.3991316794676594e-002
1696:-1.8178367977969383e-002
1697:-1.2860163590127883e-002
1698:-2.6116546633735034e-002
1699:-2.0306916833384838e-002
1700:-1.4966595314174663e-002
1701:-7.8645553644644903e-003
1702:-4.8274774027400342e-003
1703:-2.1957646658653180e-003
1704:-1.0387268200675710e-002
1705:-7.1431296576884851e-003
1706:-4.2941866778435133e-003
1707:-1.2437748152914619e-002
1708:-9.0333034176948278e-003
1709:-6.0138845838897826e-003
1710:-1.1965385512834794e-003
1711:-3.1823310069916262e-004
1712:2.7273391471395789e-004
1713:-3.1331139967634295e-003
1714:-1.9143690980854590e-003
1715:-9.7049193586490508e-004
1716:-4.7242630867397615e-003
1717:-3.2327517929587476e-003
1718:-2.0036375369147166e-003
1719:3.5803599806951108e-004
1720:1.9126073503117976e-004
1721:-5.9828305176546899e-005
1722:-6.4686409274933613e-004
1723:-3.5286908123455794e-004
1724:-1.3896515809640276e-004
1725:-1.4978858472248929e-003
1726:-8.6858491483323395e-004
1727:-3.1515238201227090e-004
1728:-8.4132272950031457e-003
1729:-3.8327865562058687e-002
1730:-6.8286367011425694e-002
1731:-8.3130560932016956e-003
1732:-3.5135174608976909e-002
1733:-6.1922672042283085e-002
1734:-7.6332740424410774e-003
1735:-3.1875552969047892e-002
1736:-5.6004726548407879e-002
1737:-8.4799429069128449e-002
1738:-1.1096006969904740e-001
1739:-1.3619189980217170e-001
1740:-7.6706668589216584e-002
1741:-1.0033174740526297e-001
1742:-1.2331413934930587e-001
1743:-6.9288142865407701e-002
1744:-9.0650167470498894e-002
1745:-1.1165562885837324e-001
1746:-1.4873608381845865e-001
1747:-1.6680906653030847e-001
1748:-1.8425816473163120e-001
1749:-1.3494770345223475e-001
1750:-1.5199505564236276e-001
1751:-1.6847888158897159e-001
1752:-1.2240998742046513e-001
1753:-1.3826715671558371e-001
1754:-1.5362115803418125e-001
1755:-1.9220892812562657e-001
1756:-2.0202729191212443e-001
1757:-2.1113614694623567e-001
1758:-1.7594066205142683e-001
1759:-1.8511540620060207e-001
1760:-1.9375175770780823e-001
1761:-1.6057767238051643e-001
1762:-1.6921739223746032e-001
1763:-1.7748983556284165e-001
1764:-2.1410184969532500e-001
1765:-2.1528064522154869e-001
1766:-2.1589871305063199e-001
1767:-1.9670100279541636e-001
1768:-1.9829277487535951e-001
1769:-1.9949033371199326e-001
1770:-1.8041599501495334e-001
1771:-1.8228937132599804e-001
1772:-1.8393504884754971e-001
1773:-2.1426447871347168e-001
1774:-2.0838876431053757e-001
1775:-2.0250753159662441e-001
1776:-1.9835051238423460e-001
1777:-1.9348655269137219e-001
1778:-1.8861658536779380e-001
1779:-1.8320294270629145e-001
1780:-1.7918417369957354e-001
1781:-1.7515890774240336e-001
1782:-1.9777954775914230e-001
1783:-1.8743124842442616e-001
1784:-1.7710554095293826e-001
1785:-1.8447126651511833e-001
1786:-1.7519681881302876e-001
1787:-1.6607273703243050e-001
1788:-1.7152608049438581e-001
1789:-1.6325089821228458e-001
1790:-1.5525385590992372e-001
1791:-1.7021430071756466e-001
1792:-1.5718297900887637e-001
1793:-1.4467721105667378e-001
1794:-1.5995053547737065e-001
1795:-1.4822982305056456e-001
1796:-1.3696017568120858e-001
1797:-1.4983437183151987e-001
1798:-1.3927094263509454e-001
1799:-1.2908408979707167e-001
1800:-1.3717126901368279e-001
1801:-1.2384179873938302e-001
1802:-1.1097416250996592e-001
1803:-1.3007615227390931e-001
1804:-1.1772150779716130e-001
1805:-1.0586842785221540e-001
1806:-1.2276880998681479e-001
1807:-1.1135958178155246e-001
1808:-1.0049164859499933e-001
1809:-1.0354681920588696e-001
1810:-9.1010208198180287e-002
1811:-7.9120956712633750e-002
1812:-9.9019146306570827e-002
1813:-8.7389817397990871e-002
1814:-7.6347398306561939e-002
1815:-9.4191713013742212e-002
1816:-8.3400394143185660e-002
1817:-7.3135535384764847e-002
1818:-7.2595863015319603e-002
1819:-6.2004706205829978e-002
1820:-5.1972638766712383e-002
1821:-7.0229426513436374e-002
1822:-6.0222384516119408e-002
1823:-5.0763364538385383e-002
1824:-6.7405632476379346e-002
1825:-5.7986501809595713e-002
1826:-4.9104325811594185e-002
1827:-4.6645786062091549e-002
1828:-3.8366737385191037e-002
1829:-3.0638364173018490e-002
1830:-4.5730378278295555e-002
1831:-3.7866805166591841e-002
1832:-3.0509770215523334e-002
1833:-4.4364421410452895e-002
1834:-3.6909831123721086e-002
1835:-2.9917641693531512e-002
1836:-2.6732161538709966e-002
1837:-2.0974363875536393e-002
1838:-1.5670358148044169e-002
1839:-2.6761638867947354e-002
1840:-2.1186204005592967e-002
1841:-1.6036675434675188e-002
1842:-2.6333251758494443e-002
1843:-2.0966157777306926e-002
1844:-1.5997084443303691e-002
1845:-1.3141001527036908e-002
1846:-9.7001752561328321e-003
1847:-6.6314689477234489e-003
1848:-1.3560867897155054e-002
1849:-1.0145521498288864e-002
1850:-7.0681135720356810e-003
1851:-1.3591572163556864e-002
1852:-1.0233275644852971e-002
1853:-7.1787361088591541e-003
1854:-5.2959378697845063e-003
1855:-3.6979862072994288e-003
1856:-2.3526860735937558e-003
1857:-5.6987408549024421e-003
1858:-4.0016902225981001e-003
1859:-2.5362714574336280e-003
1860:-5.8016582588617189e-003
1861:-4.0637565349065079e-003
1862:-2.5364670164453322e-003
1863:-1.7764701147702908e-003
1864:-1.0262638231855318e-003
1865:-3.5001722947624090e-004
1866:-1.8936023602699943e-003
1867:-1.0472089411851712e-003
1868:-2.7243867130124426e-004
1869:-1.8735898570034855e-003
1870:-1.0316822510315132e-003
1871:-2.5906124556267235e-004
1872:-6.9769311653460142e-003
1873:-2.9850783464356875e-002
1874:-5.2598495772380557e-002
1875:-5.9523173124010152e-003
1876:-2.6385815894237555e-002
1877:-4.6726865305178840e-002
1878:-5.2018854811095817e-003
1879:-2.3215676486061036e-002
1880:-4.1170709140223125e-002
1881:-6.5087847626553799e-002
1882:-8.5183271583030171e-002
1883:-1.0503417024498327e-001
1884:-5.7859311791178439e-002
1885:-7.5740492945489693e-002
1886:-9.3476042538868376e-002
1887:-5.0975370338183418e-002
1888:-6.6721733462943397e-002
1889:-8.2421358760371918e-002
1890:-1.1520066273256169e-001
1891:-1.3016893911949229e-001
1892:-1.4471005313014720e-001
1893:-1.0251664423014419e-001
1894:-1.1579695772123441e-001
1895:-1.2885094318136711e-001
1896:-9.0390877672747283e-002
1897:-1.0209215079085031e-001
1898:-1.1376793022331841e-001
1899:-1.5132997930165593e-001
1900:-1.5963801692780488e-001
1901:-1.6767354887965180e-001
1902:-1.3483687767525548e-001
1903:-1.4242346880371667e-001
1904:-1.4989211740927796e-001
1905:-1.1913058403198860e-001
1906:-1.2592361437613175e-001
1907:-1.3275326534878171e-001
1908:-1.7054075448078646e-001
1909:-1.7244898688158661e-001
1910:-1.7422512657329028e-001
1911:-1.5256248775411496e-001
1912:-1.5436600386878122e-001
1913:-1.5619946231969359e-001
1914:-1.3519333040550444e-001
1915:-1.3684922503504454e-001
1916:-1.3869709704616190e-001
1917:-1.7365091022079385e-001
1918:-1.7000979070046202e-001
1919:-1.6640437142386552e-001
1920:-1.5579212950171414e-001
1921:-1.5265651153178367e-001
1922:-1.4970209343172805e-001
1923:-1.3841954237096291e-001
1924:-1.3570481878063922e-001
1925:-1.3331679468633373e-001
1926:-1.6305581676760844e-001
1927:-1.5534348078715920e-001
1928:-1.4796045581896144e-001
1929:-1.4682852760401446e-001
1930:-1.4003459812616209e-001
1931:-1.3361805442939786e-001
1932:-1.3086443483249879e-001
1933:-1.2488869469583057e-001
1934:-1.1933841510907532e-001
1935:-1.4290863847476340e-001
1936:-1.3296120107230311e-001
1937:-1.2338965252260201e-001
1938:-1.2914052645569643e-001
1939:-1.2021567348356219e-001
1940:-1.1173883545574807e-001
1941:-1.1538980531728493e-001
1942:-1.0743183622510995e-001
1943:-9.9994008168809906e-002
1944:-1.1742876303109920e-001
1945:-1.0662659668239916e-001
1946:-9.6372019697732597e-002
1947:-1.0643813526287459e-001
1948:-9.6751752714100359e-002
1949:-8.7594859507754239e-002
1950:-9.5317477253472796e-002
1951:-8.6678796552430284e-002
1952:-7.8551505172201386e-002
1953:-9.0404552339152636e-002
1954:-8.0126498740643898e-002
1955:-7.0356563080262113e-002
1956:-8.2223270975437371e-002
1957:-7.2905282402652538e-002
1958:-6.4092828744728519e-002
1959:-7.3751263287082744e-002
1960:-6.5377117063108822e-002
1961:-5.7505922730728534e-002
1962:-6.4892639897842025e-002
1963:-5.5893568490047507e-002
1964:-4.7414573942023253e-002
1965:-5.9160644309461372e-002
1966:-5.1002778825064592e-002
1967:-4.3318057101038962e-002
1968:-5.3095363671824540e-002
1969:-4.5760172273186545e-002
1970:-3.8851191535516472e-002
1971:-4.2879297580666935e-002
1972:-3.5719638886920362e-002
1973:-2.8997618602833307e-002
1974:-3.9192072544569190e-002
1975:-3.2648525404170070e-002
1976:-2.6501658034962221e-002
1977:-3.5132430085957379e-002
1978:-2.9216417273142749e-002
1979:-2.3656125593058033e-002
1980:-2.5546206274962284e-002
1981:-2.0366243661550348e-002
1982:-1.5560041301952368e-002
1983:-2.3344529163950564e-002
1984:-1.8591339561483997e-002
1985:-1.4156425217221894e-002
1986:-2.0800574524961823e-002
1987:-1.6487802118702630e-002
1988:-1.2437819975036709e-002
1989:-1.3226445655559221e-002
1990:-9.9526842052952910e-003
1991:-6.9588300837814211e-003
1992:-1.1996783372840929e-002
1993:-8.9544997712593562e-003
1994:-6.1443458510471154e-003
1995:-1.0464398069245127e-002
1996:-7.6821006072879949e-003
1997:-5.0841551793064784e-003
1998:-5.6061834281434962e-003
1999:-3.8948200907269036e-003
2000:-2.3752792879007134e-003
2001:-4.8776486389701954e-003
2002:-3.2806780101691129e-003
2003:-1.8319790299842669e-003
2004:-3.9206929335856358e-003
2005:-2.4690082775463283e-003
2006:-1.1220443841499607e-003
2007:-1.7287162194957952e-003
2008:-9.4668353486965240e-004
2009:-2.3305707298008034e-004
2010:-1.2460157291988118e-003
2011:-6.2905913613176706e-004
2012:-7.9819903579703548e-005
2013:-6.1864769308300890e-004
2014:-2.1136279736915704e-004
2015:1.2889360005486359e-004
2016:-4.8247112424220553e-003
2017:-2.1270461639480542e-002
2018:-3.7689823608086342e-002
2019:-4.0649759680945656e-003
2020:-1.7591676279810897e-002
2021:-3.1169536311532294e-002
2022:-3.2478783384125528e-003
2023:-1.3953325819042085e-002
2024:-2.4787481168136082e-002
2025:-4.6648396901772943e-002
2026:-6.1046042927716614e-002
2027:-7.5465241037885614e-002
2028:-3.8555627250668370e-002
2029:-5.0428543762819966e-002
2030:-6.2458796338035374e-002
2031:-3.0641528851515071e-002
2032:-4.0030887221936116e-002
2033:-4.9713365634266010e-002
2034:-8.2763284138536342e-002
2035:-9.3468666727818603e-002
2036:-1.0426518551789438e-001
2037:-6.8491679644778813e-002
2038:-7.7279724238146774e-002
2039:-8.6358868320545026e-002
2040:-5.4491401950522489e-002
2041:-6.1356377039049143e-002
2042:-6.8712414904842270e-002
2043:-1.0919927188691474e-001
2044:-1.1539876985954825e-001
2045:-1.2175148027383940e-001
2046:-9.0435627828879622e-002
2047:-9.5436087362651773e-002
2048:-1.0083586298175228e-001
2049:-7.1930414250700916e-002
2050:-7.5732641324899458e-002
2051:-8.0180288128096661e-002
2052:-1.2401110278254468e-001
2053:-1.2551952584914100e-001
2054:-1.2732982124584322e-001
2055:-1.0271820376383674e-001
2056:-1.0386335773477841e-001
2057:-1.0552600206601322e-001
2058:-8.1671245630122957e-002
2059:-8.2403864655181999e-002
2060:-8.3869592070708682e-002
2061:-1.2710295830143425e-001
2062:-1.2458987545517969e-001
2063:-1.2249768198037450e-001
2064:-1.0535000691660897e-001
2065:-1.0313521774396610e-001
2066:-1.0151950103919143e-001
2067:-8.3717342678155504e-002
2068:-8.1756908371052761e-002
2069:-8.0573729628240512e-002
2070:-1.2027399837371129e-001
2071:-1.1476273861153172e-001
2072:-1.0973157368204209e-001
2073:-9.9678779598622202e-002
2074:-9.4982232807537342e-002
2075:-9.0905456338097226e-002
2076:-7.9090575104844338e-002
2077:-7.5165409531505287e-002
2078:-7.1999689768755606e-002
2079:-1.0611591781110345e-001
2080:-9.8772291732476133e-002
2081:-9.1986809288722896e-002
2082:-8.7918614418179539e-002
2083:-8.1729095560743426e-002
2084:-7.6156189861586052e-002
2085:-6.9617264762494191e-002
2086:-6.4541344663874428e-002
2087:-6.0140507246930472e-002
2088:-8.7699006801044713e-002
2089:-7.9721499701304363e-002
2090:-7.2258771218517440e-002
2091:-7.2592882773256040e-002
2092:-6.5873981226660383e-002
2093:-5.9699605606605671e-002
2094:-5.7285509351220572e-002
2095:-5.1810098055523196e-002
2096:-4.6908959995944875e-002
2097:-6.7840889725272358e-002
2098:-6.0107822747621227e-002
2099:-5.2868182635696266e-002
2100:-5.6034874612157101e-002
2101:-4.9562986869081449e-002
2102:-4.3554376342892685e-002
2103:-4.3989143043054284e-002
2104:-3.8765245320090173e-002
2105:-3.3974475165170707e-002
2106:-4.8806587814726937e-002
2107:-4.2027833167322982e-002
2108:-3.5648379531577512e-002
2109:-4.0175881592882941e-002
2110:-3.4503629547961143e-002
2111:-2.9185136828274148e-002
2112:-3.1277507430049735e-002
2113:-2.6719541407971545e-002
2114:-2.2469793024695390e-002
2115:-3.2215503771892695e-002
2116:-2.6748696894325241e-002
2117:-2.1604952822397733e-002
2118:-2.6332047586257616e-002
2119:-2.1780102854281811e-002
2120:-1.7479949497278661e-002
2121:-2.0201494958666966e-002
2122:-1.6573827418557788e-002
2123:-1.3126679822759319e-002
2124:-1.8965149147513620e-002
2125:-1.4974174651011998e-002
2126:-1.1208578231697174e-002
2127:-1.5280638057347060e-002
2128:-1.1958652240157800e-002
2129:-8.7889628321025457e-003
2130:-1.1376171107005804e-002
2131:-8.7423178499369553e-003
2132:-6.1876793339450970e-003
2133:-9.3779246812817265e-003
2134:-6.8029321985289158e-003
2135:-4.3765347830933363e-003
2136:-7.2609322326517029e-003
2137:-5.1286905999182748e-003
2138:-3.0699431636936258e-003
2139:-4.9717812263059026e-003
2140:-3.2958260207513641e-003
2141:-1.6182641408786706e-003
2142:-3.2978823343326295e-003
2143:-1.9700644165125429e-003
2144:-7.1735530902706070e-004
2145:-2.1731352082488891e-003
2146:-1.1134771880661407e-003
2147:-7.0717636652773314e-005
2148:-9.1071985177957064e-004
2149:-1.3118207837427526e-004
2150:6.8966756783107289e-004
2151:-2.8120466188239575e-004
2152:-2.4332802599683935e-005
2153:1.7408856683720264e-004
2154:2.3788687405576104e-004
2155:2.4740591253482458e-004
2156:2.2726385351439274e-004
2157:8.8125764997860217e-004
2158:6.9157634320041877e-004
2159:5.0102333130815687e-004
2160:-2.6698511903351777e-003
2161:-1.1504458543200737e-002
2162:-2.0506182172451558e-002
2163:-1.5133262457866386e-003
2164:-6.6598251225453483e-003
2165:-1.2027882301192866e-002
2166:-3.1921115629807541e-004
2167:-1.7510996145483155e-003
2168:-3.4589884001904425e-003
2169:-2.5322672790837029e-002
2170:-3.3022382512758464e-002
2171:-4.1120973175351586e-002
2172:-1.4771345634114637e-002
2173:-1.9092594117522600e-002
2174:-2.4040386010650647e-002
2175:-4.1086482143020357e-003
2176:-5.0065400487406177e-003
2177:-6.7586377619677472e-003
2178:-4.5049187778092248e-002
2179:-5.0605061439717491e-002
2180:-5.6800231563365708e-002
2181:-2.6283387236035436e-002
2182:-2.9251625443032097e-002
2183:-3.3168600647099492e-002
2184:-7.2962888235690295e-003
2185:-7.6525870875333094e-003
2186:-9.2670628836376539e-003
2187:-5.9441669409454161e-002
2188:-6.2437764256519840e-002
2189:-6.6249741619404626e-002
2190:-3.4678321032614368e-002
2191:-3.6082999311390918e-002
2192:-3.8643250409755824e-002
2193:-9.6294901840182304e-003
2194:-9.4135308788312316e-003
2195:-1.0692834697022865e-002
2196:-6.7472506614181554e-002
2197:-6.7912129410960281e-002
2198:-6.9244441307757004e-002
2199:-3.9338572368663269e-002
2200:-3.9212907085403509e-002
2201:-4.0312710651519867e-002
2202:-1.0850973048937814e-002
2203:-1.0155767309849247e-002
2204:-1.1018810169493942e-002
2205:-6.9111080018398593e-002
2206:-6.7329461601244936e-002
2207:-6.6454457115499146e-002
2208:-4.0236895122758930e-002
2209:-3.8842664123947261e-002
2210:-3.8621402911544790e-002
2211:-1.0998798345362401e-002
2212:-9.9902205799192786e-003
2213:-1.0420968455884826e-002
2214:-6.5223699853466557e-002
2215:-6.1833848186612625e-002
2216:-5.9295816923491632e-002
2217:-3.7918929463218461e-002
2218:-3.5633594900898478e-002
2219:-3.4377849773467577e-002
2220:-1.0250027605441003e-002
2221:-9.0821087525134719e-003
2222:-9.1215483656198089e-003
2223:-5.7327477606116492e-002
2224:-5.3017032746308188e-002
2225:-4.9427819891442938e-002
2226:-3.3250347577605970e-002
2227:-3.0497025561519678e-002
2228:-2.8565057792088379e-002
2229:-8.8449589247133753e-003
2230:-7.6704859780281033e-003
2231:-7.4174895196949713e-003
2232:-4.7068313404056678e-002
2233:-4.2461515837563635e-002
2234:-3.8440262589785751e-002
2235:-2.7218600517928199e-002
2236:-2.4377064648865406e-002
2237:-2.2130058770436341e-002
2238:-7.0967200189329125e-003
2239:-6.0421519284426933e-003
2240:-5.5910995005030882e-003
2241:-3.6032465095807563e-002
2242:-3.1667783377791497e-002
2243:-2.7715819631594415e-002
2244:-2.0751536295213056e-002
2245:-1.8118090025612002e-002
2246:-1.5857373969130718e-002
2247:-5.2562933811397417e-003
2248:-4.3820040135249113e-003
2249:-3.8404571003518308e-003
2250:-2.5491916372204822e-002
2251:-2.1708815150844579e-002
2252:-1.8194914731256992e-002
2253:-1.4587890777761833e-002
2254:-1.2362058566137226e-002
2255:-1.0316887807110146e-002
2256:-3.5397233148805915e-003
2257:-2.8924813098149091e-003
2258:-2.3373614081699562e-003
2259:-1.6327823446886078e-002
2260:-1.3335771702957402e-002
2261:-1.0473944931822887e-002
2262:-9.2486805567035188e-003
2263:-7.5248482863067654e-003
2264:-5.8296741685428081e-003
2265:-2.0806826126450661e-003
2266:-1.6472010662707311e-003
2267:-1.1408108523502324e-003
2268:-9.0333381770479424e-003
2269:-6.8775466187240789e-003
2270:-4.7482069883033901e-003
2271:-5.0068308843708026e-003
2272:-3.8030199190811891e-003
2273:-2.5174235815725297e-003
2274:-9.4650580884373650e-004
2275:-7.0957159372877652e-004
2276:-2.8261470629263922e-004
2277:-3.7478217363020702e-003
2278:-2.3875528074512081e-003
2279:-9.7349848098215216e-004
2280:-1.9446310419669918e-003
2281:-1.2126366604739490e-003
2282:-3.2264600402449092e-004
2283:-1.4555659112590211e-004
2284:-5.4919525615791547e-005
2285:2.9792469219221774e-004
2286:-3.9566048396765771e-004
2287:1.9982140131052367e-004
2288:8.8596064233232154e-004
2289:3.2050071414539535e-006
2290:2.6141734995316368e-004
2291:7.2165204819749182e-004
2292:3.7131603531951289e-004
2293:3.0371723588428309e-004
2294:5.4950579155198839e-004
2295:1.0209164048320034e-003
2296:7.5570168938915330e-004
2297:5.1476166085669746e-004
2298:7.8520135705631672e-004
2299:4.6581510944198907e-004
2300:2.2832952326799400e-004
2301:5.6178920406397561e-004
2302:2.4598588152445776e-004
2303:6.9709194936858288e-005
2304:0.0000000000000000e+000
2305:0.0000000000000000e+000
2306:0.0000000000000000e+000
2307:0.0000000000000000e+000
2308:0.0000000000000000e+000
2309:0.0000000000000000e+000
2310:0.0000000000000000e+000
2311:0.0000000000000000e+000
2312:0.0000000000000000e+000
2313:0.0000000000000000e+000
2314:0.0000000000000000e+000
2315:0.0000000000000000e+000
2316:0.0000000000000000e+000
2317:0.0000000000000000e+000
2318:0.0000000000000000e+000
2319:0.0000000000000000e+000
2320:0.0000000000000000e+000
2321:0.0000000000000000e+000
2322:0.0000000000000000e+000
2323:0.0000000000000000e+000
2324:0.0000000000000000e+000
2325:0.0000000000000000e+000
2326:0.0000000000000000e+000
2327:0.0000000000000000e+000
2328:0.0000000000000000e+000
2329:0.0000000000000000e+000
2330:0.0000000000000000e+000
2331:0.0000000000000000e+000
2332:0.0000000000000000e+000
2333:0.0000000000000000e+000
2334:0.0000000000000000e+000
2335:0.0000000000000000e+000
2336:0.0000000000000000e+000
2337:0.0000000000000000e+000
2338:0.0000000000000000e+000
2339:0.0000000000000000e+000
2340:0.0000000000000000e+000
2341:0.0000000000000000e+000
2342:0.0000000000000000e+000
2343:0.0000000000000000e+000
2344:0.0000000000000000e+000
2345:0.0000000000000000e+000
2346:0.0000000000000000e+000
2347:0.0000000000000000e+000
2348:0.0000000000000000e+000
2349:0.0000000000000000e+000
2350:0.0000000000000000e+000
2351:0.0000000000000000e+000
2352:0.0000000000000000e+000
2353:0.0000000000000000e+000
2354:0.0000000000000000e+000
2355:0.0000000000000000e+000
2356:0.0000000000000000e+000
2357:0.0000000000000000e+000
2358:0.0000000000000000e+000
2359:0.0000000000000000e+000
2360:0.0000000000000000e+000
2361:0.0000000000000000e+000
2362:0.0000000000000000e+000
2363:0.0000000000000000e+000
2364:0.0000000000000000e+000
2365:0.0000000000000000e+000
2366:0.0000000000000000e+000
2367:0.0000000000000000e+000
2368:0.0000000000000000e+000
2369:0.0000000000000000e+000
2370:0.0000000000000000e+000
2371:0.0000000000000000e+000
2372:0.0000000000000000e+000
2373:0.0000000000000000e+000
2374:0.0000000000000000e+000
2375:0.0000000000000000e+000
2376:0.0000000000000000e+000
2377:0.0000000000000000e+000
2378:0.0000000000000000e+000
2379:0.0000000000000000e+000
2380:0.0000000000000000e+000
2381:0.0000000000000000e+000
2382:0.0000000000000000e+000
2383:0.0000000000000000e+000
2384:0.0000000000000000e+000
2385:0.0000000000000000e+000
2386:0.0000000000000000e+000
2387:0.0000000000000000e+000
2388:0.0000000000000000e+000
2389:0.0000000000000000e+000
2390:0.0000000000000000e+000
2391:0.0000000000000000e+000
2392:0.0000000000000000e+000
2393:0.0000000000000000e+000
2394:0.0000000000000000e+000
2395:0.0000000000000000e+000
2396:0.0000000000000000e+000
2397:0.0000000000000000e+000
2398:0.0000000000000000e+000
2399:0.0000000000000000e+000
2400:0.0000000000000000e+000
2401:0.0000000000000000e+000
2402:0.0000000000000000e+000
2403:0.0000000000000000e+000
2404:0.0000000000000000e+000
2405:0.0000000000000000e+000
2406:0.0000000000000000e+000
2407:0.0000000000000000e+000
2408:0.0000000000000000e+000
2409:0.0000000000000000e+000
2410:0.0000000000000000e+000
2411:0.0000000000000000e+000
2412:0.0000000000000000e+000
2413:0.0000000000000000e+000
2414:0.0000000000000000e+000
2415:0.0000000000000000e+000
2416:0.0000000000000000e+000
2417:0.0000000000000000e+000
2418:0.0000000000000000e+000
2419:0.0000000000000000e+000
2420:0.0000000000000000e+000
2421:0.0000000000000000e+000
2422:0.0000000000000000e+000
2423:0.0000000000000000e+000
2424:0.0000000000000000e+000
2425:0.0000000000000000e+000
2426:0.0000000000000000e+000
2427:0.0000000000000000e+000
2428:0.0000000000000000e+000
2429:0.0000000000000000e+000
2430:0.0000000000000000e+000
2431:0.0000000000000000e+000
2432:0.0000000000000000e+000
2433:0.0000000000000000e+000
2434:0.0000000000000000e+000
2435:0.0000000000000000e+000
2436:0.0000000000000000e+000
2437:0.0000000000000000e+000
2438:0.0000000000000000e+000
2439:0.0000000000000000e+000
2440:0.0000000000000000e+000
2441:0.0000000000000000e+000
2442:0.0000000000000000e+000
2443:0.0000000000000000e+000
2444:0.0000000000000000e+000
2445:0.0000000000000000e+000
2446:0.0000000000000000e+000
2447:0.0000000000000000e+000
2448:0.0000000000000000e+000
2449:0.0000000000000000e+000
2450:0.0000000000000000e+000
2451:0.0000000000000000e+000
2452:0.0000000000000000e+000
2453:0.0000000000000000e+000
2454:0.0000000000000000e+000
2455:0.0000000000000000e+000
2456:0.0000000000000000e+000
2457:0.0000000000000000e+000
2458:0.0000000000000000e+000
2459:0.0000000000000000e+000
2460:0.0000000000000000e+000
2461:0.0000000000000000e+000
2462:0.0000000000000000e+000
2463:0.0000000000000000e+000
2464:0.0000000000000000e+000
2465:0.0000000000000000e+000
2466:0.0000000000000000e+000
2467:0.0000000000000000e+000
2468:0.0000000000000000e+000
2469:0.0000000000000000e+000
2470:0.0000000000000000e+000
2471:0.0000000000000000e+000
2472:0.0000000000000000e+000
2473:0.0000000000000000e+000
2474:0.0000000000000000e+000
2475:0.0000000000000000e+000
2476:0.0000000000000000e+000
2477:0.0000000000000000e+000
2478:0.0000000000000000e+000
2479:0.0000000000000000e+000
2480:0.0000000000000000e+000
2481:0.0000000000000000e+000
2482:0.0000000000000000e+000
2483:0.0000000000000000e+000
2484:0.0000000000000000e+000
2485:0.0000000000000000e+000
2486:0.0000000000000000e+000
2487:0.0000000000000000e+000
2488:0.0000000000000000e+000
2489:0.0000000000000000e+000
2490:0.0000000000000000e+000
2491:0.0000000000000000e+000
2492:0.0000000000000000e+000
2493:0.0000000000000000e+000
2494:0.0000000000000000e+000
2495:0.0000000000000000e+000
2496:0.0000000000000000e+000
2497:0.0000000000000000e+000
2498:0.0000000000000000e+000
2499:0.0000000000000000e+000
2500:0.0000000000000000e+000
2501:0.0000000000000000e+000
2502:0.0000000000000000e+000
2503:0.0000000000000000e+000
2504:0.0000000000000000e+000
2505:0.0000000000000000e+000
2506:0.0000000000000000e+000
2507:0.0000000000000000e+000
2508:0.0000000000000000e+000
2509:0.0000000000000000e+000
2510:0.0000000000000000e+000
2511:0.0000000000000000e+000
2512:0.0000000000000000e+000
2513:0.0000000000000000e+000
2514:0.0000000000000000e+000
2515:0.0000000000000000e+000
2516:0.0000000000000000e+000
2517:0.0000000000000000e+000
2518:0.0000000000000000e+000
2519:0.0000000000000000e+000
2520:0.0000000000000000e+000
2521:0.0000000000000000e+000
2522:0.0000000000000000e+000
2523:0.0000000000000000e+000
2524:0.0000000000000000e+000
2525:0.0000000000000000e+000
2526:0.0000000000000000e+000
2527:0.0000000000000000e+000
2528:0.0000000000000000e+000
2529:0.0000000000000000e+000
2530:0.0000000000000000e+000
2531:0.0000000000000000e+000
2532:0.0000000000000000e+000
2533:0.0000000000000000e+000
2534:0.0000000000000000e+000
2535:0.0000000000000000e+000
2536:0.0000000000000000e+000
2537:0.0000000000000000e+000
2538:0.0000000000000000e+000
2539:0.0000000000000000e+000
2540:0.0000000000000000e+000
2541:0.0000000000000000e+000
2542:0.0000000000000000e+000
2543:0.0000000000000000e+000
2544:0.0000000000000000e+000
2545:0.0000000000000000e+000
2546:0.0000000000000000e+000
2547:0.0000000000000000e+000
2548:0.0000000000000000e+000
2549:0.0000000000000000e+000
2550:0.0000000000000000e+000
2551:0.0000000000000000e+000
2552:0.0000000000000000e+000
2553:0.0000000000000000e+000
2554:0.0000000000000000e+000
2555:0.0000000000000000e+000
2556:0.0000000000000000e+000
2557:0.0000000000000000e+000
2558:0.0000000000000000e+000
2559:0.0000000000000000e+000
2560:0.0000000000000000e+000
2561:0.0000000000000000e+000
2562:0.0000000000000000e+000
2563:0.0000000000000000e+000
2564:0.0000000000000000e+000
2565:0.0000000000000000e+000
2566:0.0000000000000000e+000
2567:0.0000000000000000e+000
2568:0.0000000000000000e+000
2569:0.0000000000000000e+000
2570:0.0000000000000000e+000
2571:0.0000000000000000e+000
2572:0.0000000000000000e+000
2573:0.0000000000000000e+000
2574:0.0000000000000000e+000
2575:0.0000000000000000e+000
2576:0.0000000000000000e+000
2577:0.0000000000000000e+000
2578:0.0000000000000000e+000
2579:0.0000000000000000e+000
2580:0.0000000000000000e+000
2581:0.0000000000000000e+000
2582:0.0000000000000000e+000
2583:0.0000000000000000e+000
2584:0.0000000000000000e+000
2585:0.0000000000000000e+000
2586:0.0000000000000000e+000
2587:0.0000000000000000e+000
2588:0.0000000000000000e+000
2589:0.0000000000000000e+000
2590:0.0000000000000000e+000
2591:0.0000000000000000e+000
2592:0.0000000000000000e+000
2593:0.0000000000000000e+000
2594:0.0000000000000000e+000
2595:0.0000000000000000e+000
2596:0.0000000000000000e+000
2597:0.0000000000000000e+000
2598:0.0000000000000000e+000
2599:0.0000000000000000e+000
2600:0.0000000000000000e+000
2601:0.0000000000000000e+000
2602:0.0000000000000000e+000
2603:0.0000000000000000e+000
2604:0.0000000000000000e+000
2605:0.0000000000000000e+000
2606:0.0000000000000000e+000
2607:0.0000000000000000e+000
2608:0.0000000000000000e+000
2609:0.0000000000000000e+000
2610:0.0000000000000000e+000
2611:0.0000000000000000e+000
2612:0.0000000000000000e+000
2613:0.0000000000000000e+000
2614:0.0000000000000000e+000
2615:0.0000000000000000e+000
2616:0.0000000000000000e+000
2617:0.0000000000000000e+000
2618:0.0000000000000000e+000
2619:0.0000000000000000e+000
2620:0.0000000000000000e+000
2621:0.0000000000000000e+000
2622:0.0000000000000000e+000
2623:0.0000000000000000e+000
2624:0.0000000000000000e+000
2625:0.0000000000000000e+000
2626:0.0000000000000000e+000
2627:0.0000000000000000e+000
2628:0.0000000000000000e+000
2629:0.0000000000000000e+000
2630:0.0000000000000000e+000
2631:0.0000000000000000e+000
2632:0.0000000000000000e+000
2633:0.0000000000000000e+000
2634:0.0000000000000000e+000
2635:0.0000000000000000e+000
2636:0.0000000000000000e+000
2637:0.0000000000000000e+000
2638:0.0000000000000000e+000
2639:0.0000000000000000e+000
2640:0.0000000000000000e+000
2641:0.0000000000000000e+000
2642:0.0000000000000000e+000
2643:0.0000000000000000e+000
2644:0.0000000000000000e+000
2645:0.0000000000000000e+000
2646:0.0000000000000000e+000
2647:0.0000000000000000e+000
2648:0.0000000000000000e+000
2649:0.0000000000000000e+000
2650:0.0000000000000000e+000
2651:0.0000000000000000e+000
2652:0.0000000000000000e+000
2653:0.0000000000000000e+000
2654:0.0000000000000000e+000
2655:0.0000000000000000e+000
2656:0.0000000000000000e+000
2657:0.0000000000000000e+000
2658:0.0000000000000000e+000
2659:0.0000000000000000e+000
2660:0.0000000000000000e+000
2661:0.0000000000000000e+000
2662:0.0000000000000000e+000
2663:0.0000000000000000e+000
2664:0.0000000000000000e+000
2665:0.0000000000000000e+000
2666:0.0000000000000000e+000
2667:0.0000000000000000e+000
2668:0.0000000000000000e+000
2669:0.0000000000000000e+000
2670:0.0000000000000000e+000
2671:0.0000000000000000e+000
2672:0.0000000000000000e+000
2673:0.0000000000000000e+000
2674:0.0000000000000000e+000
2675:0.0000000000000000e+000
2676:0.0000000000000000e+000
2677:0.0000000000000000e+000
2678:0.0000000000000000e+000
2679:0.0000000000000000e+000
2680:0.0000000000000000e+000
2681:0.0000000000000000e+000
2682:0.0000000000000000e+000
2683:0.0000000000000000e+000
2684:0.0000000000000000e+000
2685:0.0000000000000000e+000
2686:0.0000000000000000e+000
2687:0.0000000000000000e+000
2688:0.0000000000000000e+000
2689:0.0000000000000000e+000
2690:0.0000000000000000e+000
2691:0.0000000000000000e+000
2692:0.0000000000000000e+000
2693:0.0000000000000000e+000
2694:0.0000000000000000e+000
2695:0.0000000000000000e+000
2696:0.0000000000000000e+000
2697:0.0000000000000000e+000
2698:0.0000000000000000e+000
2699:0.0000000000000000e+000
2700:0.0000000000000000e+000
2701:0.0000000000000000e+000
2702:0.0000000000000000e+000
2703:0.0000000000000000e+000
2704:0.0000000000000000e+000
2705:0.0000000000000000e+000
2706:0.0000000000000000e+000
2707:0.0000000000000000e+000
2708:0.0000000000000000e+000
2709:0.0000000000000000e+000
2710:0.0000000000000000e+000
2711:0.0000000000000000e+000
2712:0.0000000000000000e+000
2713:0.0000000000000000e+000
2714:0.0000000000000000e+000
2715:0.0000000000000000e+000
2716:0.0000000000000000e+000
2717:0.0000000000000000e+000
2718:0.0000000000000000e+000
2719:0.0000000000000000e+000
2720:0.0000000000000000e+000
2721:0.0000000000000000e+000
2722:0.0000000000000000e+000
2723:0.0000000000000000e+000
2724:0.0000000000000000e+000
2725:0.0000000000000000e+000
2726:0.0000000000000000e+000
2727:0.0000000000000000e+000
2728:0.0000000000000000e+000
2729:0.0000000000000000e+000
2730:0.0000000000000000e+000
2731:0.0000000000000000e+000
2732:0.0000000000000000e+000
2733:0.0000000000000000e+000
2734:0.0000000000000000e+000
2735:0.0000000000000000e+000
2736:0.0000000000000000e+000
2737:0.0000000000000000e+000
2738:0.0000000000000000e+000
2739:0.0000000000000000e+000
2740:0.0000000000000000e+000
2741:0.0000000000000000e+000
2742:0.0000000000000000e+000
2743:0.0000000000000000e+000
2744:0.0000000000000000e+000
2745:0.0000000000000000e+000
2746:0.0000000000000000e+000
2747:0.0000000000000000e+000
2748:0.0000000000000000e+000
2749:0.0000000000000000e+000
2750:0.0000000000000000e+000
2751:0.0000000000000000e+000
2752:0.0000000000000000e+000
2753:0.0000000000000000e+000
2754:0.0000000000000000e+000
2755:0.0000000000000000e+000
2756:0.0000000000000000e+000
2757:0.0000000000000000e+000
2758:0.0000000000000000e+000
2759:0.0000000000000000e+000
2760:0.0000000000000000e+000
2761:0.0000000000000000e+000
2762:0.0000000000000000e+000
2763:0.0000000000000000e+000
2764:0.0000000000000000e+000
2765:0.0000000000000000e+000
2766:0.0000000000000000e+000
2767:0.0000000000000000e+000
2768:0.0000000000000000e+000
2769:0.0000000000000000e+000
2770:0.0000000000000000e+000
2771:0.0000000000000000e+000
2772:0.0000000000000000e+000
2773:0.0000000000000000e+000
2774:0.0000000000000000e+000
2775:0.0000000000000000e+000
2776:0.0000000000000000e+000
2777:0.0000000000000000e+000
2778:0.0000000000000000e+000
2779:0.0000000000000000e+000
2780:0.0000000000000000e+000
2781:0.0000000000000000e+000
2782:0.0000000000000000e+000
2783:0.0000000000000000e+000
2784:0.0000000000000000e+000
2785:0.0000000000000000e+000
2786:0.0000000000000000e+000
2787:0.0000000000000000e+000
2788:0.0000000000000000e+000
2789:0.0000000000000000e+000
2790:0.0000000000000000e+000
2791:0.0000000000000000e+000
2792:0.0000000000000000e+000
2793:0.0000000000000000e+000
2794:0.0000000000000000e+000
2795:0.0000000000000000e+000
2796:0.0000000000000000e+000
2797:0.0000000000000000e+000
2798:0.0000000000000000e+000
2799:0.0000000000000000e+000
2800:0.0000000000000000e+000
2801:0.0000000000000000e+000
2802:0.0000000000000000e+000
2803:0.0000000000000000e+000
2804:0.0000000000000000e+000
2805:0.0000000000000000e+000
2806:0.0000000000000000e+000
2807:0.0000000000000000e+000
2808:0.0000000000000000e+000
2809:0.0000000000000000e+000
2810:0.0000000000000000e+000
2811:0.0000000000000000e+000
2812:0.0000000000000000e+000
2813:0.0000000000000000e+000
2814:0.0000000000000000e+000
2815:0.0000000000000000e+000
2816:0.0000000000000000e+000
2817:0.0000000000000000e+000
2818:0.0000000000000000e+000
2819:0.0000000000000000e+000
2820:0.0000000000000000e+000
2821:0.0000000000000000e+000
2822:0.0000000000000000e+000
2823:0.0000000000000000e+000
2824:0.0000000000000000e+000
2825:0.0000000000000000e+000
2826:0.0000000000000000e+000
2827:0.0000000000000000e+000
2828:0.0000000000000000e+000
2829:0.0000000000000000e+000
2830:0.0000000000000000e+000
2831:0.0000000000000000e+000
2832:0.0000000000000000e+000
2833:0.0000000000000000e+000
2834:0.0000000000000000e+000
2835:0.0000000000000000e+000
2836:0.0000000000000000e+000
2837:0.0000000000000000e+000
2838:0.0000000000000000e+000
2839:0.0000000000000000e+000
2840:0.0000000000000000e+000
2841:0.0000000000000000e+000
2842:0.0000000000000000e+000
2843:0.0000000000000000e+000
2844:0.0000000000000000e+000
2845:0.0000000000000000e+000
2846:0.0000000000000000e+000
2847:0.0000000000000000e+000
2848:0.0000000000000000e+000
2849:0.0000000000000000e+000
2850:0.0000000000000000e+000
2851:0.0000000000000000e+000
2852:0.0000000000000000e+000
2853:0.0000000000000000e+000
2854:0.0000000000000000e+000
2855:0.0000000000000000e+000
2856:0.0000000000000000e+000
2857:0.0000000000000000e+000
2858:0.0000000000000000e+000
2859:0.0000000000000000e+000
2860:0.0000000000000000e+000
2861:0.0000000000000000e+000
2862:0.0000000000000000e+000
2863:0.0000000000000000e+000
2864:0.0000000000000000e+000
2865:0.0000000000000000e+000
2866:0.0000000000000000e+000
2867:0.0000000000000000e+000
2868:0.0000000000000000e+000
2869:0.0000000000000000e+000
2870:0.0000000000000000e+000
2871:0.0000000000000000e+000
2872:0.0000000000000000e+000
2873:0.0000000000000000e+000
2874:0.0000000000000000e+000
2875:0.0000000000000000e+000
2876:0.0000000000000000e+000
2877:0.0000000000000000e+000
2878:0.0000000000000000e+000
2879:0.0000000000000000e+000
2880:0.0000000000000000e+000
2881:0.0000000000000000e+000
2882:0.0000000000000000e+000
2883:0.0000000000000000e+000
2884:0.0000000000000000e+000
2885:0.0000000000000000e+000
2886:0.0000000000000000e+000
2887:0.0000000000000000e+000
2888:0.0000000000000000e+000
2889:0.0000000000000000e+000
2890:0.0000000000000000e+000
2891:0.0000000000000000e+000
2892:0.0000000000000000e+000
2893:0.0000000000000000e+000
2894:0.0000000000000000e+000
2895:0.0000000000000000e+000
2896:0.0000000000000000e+000
2897:0.0000000000000000e+000
2898:0.0000000000000000e+000
2899:0.0000000000000000e+000
2900:0.0000000000000000e+000
2901:0.0000000000000000e+000
2902:0.0000000000000000e+000
2903:0.0000000000000000e+000
2904:0.0000000000000000e+000
2905:0.0000000000000000e+000
2906:0.0000000000000000e+000
2907:0.0000000000000000e+000
2908:0.0000000000000000e+000
2909:0.0000000000000000e+000
2910:0.0000000000000000e+000
2911:0.0000000000000000e+000
2912:0.0000000000000000e+000
2913:0.0000000000000000e+000
2914:0.0000000000000000e+000
2915:0.0000000000000000e+000
2916:0.0000000000000000e+000
2917:0.0000000000000000e+000
2918:0.0000000000000000e+000
2919:0.0000000000000000e+000
2920:0.0000000000000000e+000
2921:0.0000000000000000e+000
2922:0.0000000000000000e+000
2923:0.0000000000000000e+000
2924:0.0000000000000000e+000
2925:0.0000000000000000e+000
2926:0.0000000000000000e+000
2927:0.0000000000000000e+000
2928:0.0000000000000000e+000
2929:0.0000000000000000e+000
2930:0.0000000000000000e+000
2931:0.0000000000000000e+000
2932:0.0000000000000000e+000
2933:0.0000000000000000e+000
2934:0.0000000000000000e+000
2935:0.0000000000000000e+000
2936:0.0000000000000000e+000
2937:0.0000000000000000e+000
2938:0.0000000000000000e+000
2939:0.0000000000000000e+000
2940:0.0000000000000000e+000
2941:0.0000000000000000e+000
2942:0.0000000000000000e+000
2943:0.0000000000000000e+000
2944:0.0000000000000000e+000
2945:0.0000000000000000e+000
2946:0.0000000000000000e+000
2947:0.0000000000000000e+000
2948:0.0000000000000000e+000
2949:0.0000000000000000e+000
2950:0.0000000000000000e+000
2951:0.0000000000000000e+000
2952:0.0000000000000000e+000
2953:0.0000000000000000e+000
2954:0.0000000000000000e+000
2955:0.0000000000000000e+000
2956:0.0000000000000000e+000
2957:0.0000000000000000e+000
2958:0.0000000000000000e+000
2959:0.0000000000000000e+000
2960:0.0000000000000000e+000
2961:0.0000000000000000e+000
2962:0.0000000000000000e+000
2963:0.0000000000000000e+000
2964:0.0000000000000000e+000
2965:0.0000000000000000e+000
2966:0.0000000000000000e+000
2967:0.0000000000000000e+000
2968:0.0000000000000000e+000
2969:0.0000000000000000e+000
2970:0.0000000000000000e+000
2971:0.0000000000000000e+000
2972:0.0000000000000000e+000
2973:0.0000000000000000e+000
2974:0.0000000000000000e+000
2975:0.0000000000000000e+000
2976:0.0000000000000000e+000
2977:0.0000000000000000e+000
2978:0.0000000000000000e+000
2979:0.0000000000000000e+000
2980:0.0000000000000000e+000
2981:0.0000000000000000e+000
2982:0.0000000000000000e+000
2983:0.0000000000000000e+000
2984:0.0000000000000000e+000
2985:0.0000000000000000e+000
2986:0.0000000000000000e+000
2987:0.0000000000000000e+000
2988:0.0000000000000000e+000
2989:0.0000000000000000e+000
2990:0.0000000000000000e+000
2991:0.0000000000000000e+000
2992:0.0000000000000000e+000
2993:0.0000000000000000e+000
2994:0.0000000000000000e+000
2995:0.0000000000000000e+000
2996:0.0000000000000000e+000
2997:0.0000000000000000e+000
2998:0.0000000000000000e+000
2999:0.0000000000000000e+000
3000:0.0000000000000000e+000
3001:0.0000000000000000e+000
3002:0.0000000000000000e+000
3003:0.0000000000000000e+000
3004:0.0000000000000000e+000
3005:0.0000000000000000e+000
3006:0.0000000000000000e+000
3007:0.0000000000000000e+000
3008:0.0000000000000000e+000
3009:0.0000000000000000e+000
3010:0.0000000000000000e+000
3011:0.0000000000000000e+000
3012:0.0000000000000000e+000
3013:0.0000000000000000e+000
3014:0.0000000000000000e+000
3015:0.0000000000000000e+000
3016:0.0000000000000000e+000
3017:0.0000000000000000e+000
3018:0.0000000000000000e+000
3019:0.0000000000000000e+000
3020:0.0000000000000000e+000
3021:0.0000000000000000e+000
3022:0.0000000000000000e+000
3023:0.0000000000000000e+000
3024:0.0000000000000000e+000
3025:0.0000000000000000e+000
3026:0.0000000000000000e+000
3027:0.0000000000000000e+000
3028:0.0000000000000000e+000
3029:0.0000000000000000e+000
3030:0.0000000000000000e+000
3031:0.0000000000000000e+000
3032:0.0000000000000000e+000
3033:0.0000000000000000e+000
3034:0.0000000000000000e+000
3035:0.0000000000000000e+000
3036:0.0000000000000000e+000
3037:0.0000000000000000e+000
3038:0.0000000000000000e+000
3039:0.0000000000000000e+000
3040:0.0000000000000000e+000
3041:0.0000000000000000e+000
3042:0.0000000000000000e+000
3043:0.0000000000000000e+000
3044:0.0000000000000000e+000
3045:0.0000000000000000e+000
3046:0.0000000000000000e+000
3047:0.0000000000000000e+000
3048:0.0000000000000000e+000
3049:0.0000000000000000e+000
3050:0.0000000000000000e+000
3051:0.0000000000000000e+000
3052:0.0000000000000000e+000
3053:0.0000000000000000e+000
3054:0.0000000000000000e+000
3055:0.0000000000000000e+000
3056:0.0000000000000000e+000
3057:0.0000000000000000e+000
3058:0.0000000000000000e+000
3059:0.0000000000000000e+000
3060:0.0000000000000000e+000
3061:0.0000000000000000e+000
3062:0.0000000000000000e+000
3063:0.0000000000000000e+000
3064:0.0000000000000000e+000
3065:0.0000000000000000e+000
3066:0.0000000000000000e+000
3067:0.0000000000000000e+000
3068:0.0000000000000000e+000
3069:0.0000000000000000e+000
3070:0.0000000000000000e+000
3071:0.0000000000000000e+000
3072:0.0000000000000000e+000
3073:0.0000000000000000e+000
3074:0.0000000000000000e+000
3075:0.0000000000000000e+000
3076:0.0000000000000000e+000
3077:0.0000000000000000e+000
3078:0.0000000000000000e+000
3079:0.0000000000000000e+000
3080:0.0000000000000000e+000
3081:0.0000000000000000e+000
3082:0.0000000000000000e+000
3083:0.0000000000000000e+000
3084:0.0000000000000000e+000
3085:0.0000000000000000e+000
3086:0.0000000000000000e+000
3087:0.0000000000000000e+000
3088:0.0000000000000000e+000
3089:0.0000000000000000e+000
3090:0.0000000000000000e+000
3091:0.0000000000000000e+000
3092:0.0000000000000000e+000
3093:0.0000000000000000e+000
3094:0.0000000000000000e+000
3095:0.0000000000000000e+000
3096:0.0000000000000000e+000
3097:0.0000000000000000e+000
3098:0.0000000000000000e+000
3099:0.0000000000000000e+000
3100:0.0000000000000000e+000
3101:0.0000000000000000e+000
3102:0.0000000000000000e+000
3103:0.0000000000000000e+000
3104:0.0000000000000000e+000
3105:0.0000000000000000e+000
3106:0.0000000000000000e+000
3107:0.0000000000000000e+000
3108:0.0000000000000000e+000
3109:0.0000000000000000e+000
3110:0.0000000000000000e+000
3111:0.0000000000000000e+000
3112:0.0000000000000000e+000
3113:0.0000000000000000e+000
3114:0.0000000000000000e+000
3115:0.0000000000000000e+000
3116:0.0000000000000000e+000
3117:0.0000000000000000e+000
3118:0.0000000000000000e+000
3119:0.0000000000000000e+000
3120:0.0000000000000000e+000
3121:0.0000000000000000e+000
3122:0.0000000000000000e+000
3123:0.0000000000000000e+000
3124:0.0000000000000000e+000
3125:0.0000000000000000e+000
3126:0.0000000000000000e+000
3127:0.0000000000000000e+000
3128:0.0000000000000000e+000
3129:0.0000000000000000e+000
3130:0.0000000000000000e+000
3131:0.0000000000000000e+000
3132:0.0000000000000000e+000
3133:0.0000000000000000e+000
3134:0.0000000000000000e+000
3135:0.0000000000000000e+000
3136:0.0000000000000000e+000
3137:0.0000000000000000e+000
3138:0.0000000000000000e+000
3139:0.0000000000000000e+000
3140:0.0000000000000000e+000
3141:0.0000000000000000e+000
3142:0.0000000000000000e+000
3143:0.0000000000000000e+000
3144:0.0000000000000000e+000
3145:0.0000000000000000e+000
3146:0.0000000000000000e+000
3147:0.0000000000000000e+000
3148:0.0000000000000000e+000
3149:0.0000000000000000e+000
3150:0.0000000000000000e+000
3151:0.0000000000000000e+000
3152:0.0000000000000000e+000
3153:0.0000000000000000e+000
3154:0.0000000000000000e+000
3155:0.0000000000000000e+000
3156:0.0000000000000000e+000
3157:0.0000000000000000e+000
3158:0.0000000000000000e+000
3159:0.0000000000000000e+000
3160:0.0000000000000000e+000
3161:0.0000000000000000e+000
3162:0.0000000000000000e+000
3163:0.0000000000000000e+000
3164:0.0000000000000000e+000
3165:0.0000000000000000e+000
3166:0.0000000000000000e+000
3167:0.0000000000000000e+000
3168:0.0000000000000000e+000
3169:0.0000000000000000e+000
3170:0.0000000000000000e+000
3171:0.0000000000000000e+000
3172:0.0000000000000000e+000
3173:0.0000000000000000e+000
3174:0.0000000000000000e+000
3175:0.0000000000000000e+000
3176:0.0000000000000000e+000
3177:0.0000000000000000e+000
3178:0.0000000000000000e+000
3179:0.0000000000000000e+000
3180:0.0000000000000000e+000
3181:0.0000000000000000e+000
3182:0.0000000000000000e+000
3183:0.0000000000000000e+000
3184:0.0000000000000000e+000
3185:0.0000000000000000e+000
3186:0.0000000000000000e+000
3187:0.0000000000000000e+000
3188:0.0000000000000000e+000
3189:0.0000000000000000e+000
3190:0.0000000000000000e+000
3191:0.0000000000000000e+000
3192:0.0000000000000000e+000
3193:0.0000000000000000e+000
3194:0.0000000000000000e+000
3195:0.0000000000000000e+000
3196:0.0000000000000000e+000
3197:0.0000000000000000e+000
3198:0.0000000000000000e+000
3199:0.0000000000000000e+000
3200:0.0000000000000000e+000
3201:0.0000000000000000e+000
3202:0.0000000000000000e+000
3203:0.0000000000000000e+000
3204:0.0000000000000000e+000
3205:0.0000000000000000e+000
3206:0.0000000000000000e+000
3207:0.0000000000000000e+000
3208:0.0000000000000000e+000
3209:0.0000000000000000e+000
3210:0.0000000000000000e+000
3211:0.0000000000000000e+000
3212:0.0000000000000000e+000
3213:0.0000000000000000e+000
3214:0.0000000000000000e+000
3215:0.0000000000000000e+000
3216:0.0000000000000000e+000
3217:0.0000000000000000e+000
3218:0.0000000000000000e+000
3219:0.0000000000000000e+000
3220:0.0000000000000000e+000
3221:0.0000000000000000e+000
3222:0.0000000000000000e+000
3223:0.0000000000000000e+000
3224:0.0000000000000000e+000
3225:0.0000000000000000e+000
3226:0.0000000000000000e+000
3227:0.0000000000000000e+000
3228:0.0000000000000000e+000
3229:0.0000000000000000e+000
3230:0.0000000000000000e+000
3231:0.0000000000000000e+000
3232:0.0000000000000000e+000
3233:0.0000000000000000e+000
3234:0.0000000000000000e+000
3235:0.0000000000000000e+000
3236:0.0000000000000000e+000
3237:0.0000000000000000e+000
3238:0.0000000000000000e+000
3239:0.0000000000000000e+000
3240:0.0000000000000000e+000
3241:0.0000000000000000e+000
3242:0.0000000000000000e+000
3243:0.0000000000000000e+000
3244:0.0000000000000000e+000
3245:0.0000000000000000e+000
3246:0.0000000000000000e+000
3247:0.0000000000000000e+000
3248:0.0000000000000000e+000
3249:0.0000000000000000e+000
3250:0.0000000000000000e+000
3251:0.0000000000000000e+000
3252:0.0000000000000000e+000
3253:0.0000000000000000e+000
3254:0.0000000000000000e+000
3255:0.0000000000000000e+000
3256:0.0000000000000000e+000
3257:0.0000000000000000e+000
3258:0.0000000000000000e+000
3259:0.0000000000000000e+000
3260:0.0000000000000000e+000
3261:0.0000000000000000e+000
3262:0.0000000000000000e+000
3263:0.0000000000000000e+000
3264:0.0000000000000000e+000
3265:0.0000000000000000e+000
3266:0.0000000000000000e+000
3267:0.0000000000000000e+000
3268:0.0000000000000000e+000
3269:0.0000000000000000e+000
3270:0.0000000000000000e+000
3271:0.0000000000000000e+000
3272:0.0000000000000000e+000
3273:0.0000000000000000e+000
3274:0.0000000000000000e+000
3275:0.0000000000000000e+000
3276:0.0000000000000000e+000
3277:0.0000000000000000e+000
3278:0.0000000000000000e+000
3279:0.0000000000000000e+000
3280:0.0000000000000000e+000
3281:0.0000000000000000e+000
3282:0.0000000000000000e+000
3283:0.0000000000000000e+000
3284:0.0000000000000000e+000
3285:0.0000000000000000e+000
3286:0.0000000000000000e+000
3287:0.0000000000000000e+000
3288:0.0000000000000000e+000
3289:0.0000000000000000e+000
3290:0.0000000000000000e+000
3291:0.0000000000000000e+000
3292:0.0000000000000000e+000
3293:0.0000000000000000e+000
3294:0.0000000000000000e+000
3295:0.0000000000000000e+000
3296:0.0000000000000000e+000
3297:0.0000000000000000e+000
3298:0.0000000000000000e+000
3299:0.0000000000000000e+000
3300:0.0000000000000000e+000
3301:0.0000000000000000e+000
3302:0.0000000000000000e+000
3303:0.0000000000000000e+000
3304:0.0000000000000000e+000
3305:0.0000000000000000e+000
3306:0.0000000000000000e+000
3307:0.0000000000000000e+000
3308:0.0000000000000000e+000
3309:0.0000000000000000e+000
3310:0.0000000000000000e+000
3311:0.0000000000000000e+000
3312:0.0000000000000000e+000
3313:0.0000000000000000e+000
3314:0.0000000000000000e+000
3315:0.0000000000000000e+000
3316:0.0000000000000000e+000
3317:0.0000000000000000e+000
3318:0.0000000000000000e+000
3319:0.0000000000000000e+000
3320:0.0000000000000000e+000
3321:0.0000000000000000e+000
3322:0.0000000000000000e+000
3323:0.0000000000000000e+000
3324:0.0000000000000000e+000
3325:0.0000000000000000e+000
3326:0.0000000000000000e+000
3327:0.0000000000000000e+000
3328:0.0000000000000000e+000
3329:0.0000000000000000e+000
3330:0.0000000000000000e+000
3331:0.0000000000000000e+000
3332:0.0000000000000000e+000
3333:0.0000000000000000e+000
3334:0.0000000000000000e+000
3335:0.0000000000000000e+000
3336:0.0000000000000000e+000
3337:0.0000000000000000e+000
3338:0.0000000000000000e+000
3339:0.0000000000000000e+000
3340:0.0000000000000000e+000
3341:0.0000000000000000e+000
3342:0.0000000000000000e+000
3343:0.0000000000000000e+000
3344:0.0000000000000000e+000
3345:0.0000000000000000e+000
3346:0.0000000000000000e+000
3347:0.0000000000000000e+000
3348:0.0000000000000000e+000
3349:0.0000000000000000e+000
3350:0.0000000000000000e+000
3351:0.0000000000000000e+000
3352:0.0000000000000000e+000
3353:0.0000000000000000e+000
3354:0.0000000000000000e+000
3355:0.0000000000000000e+000
3356:0.0000000000000000e+000
3357:0.0000000000000000e+000
3358:0.0000000000000000e+000
3359:0.0000000000000000e+000
3360:0.0000000000000000e+000
3361:0.0000000000000000e+000
3362:0.0000000000000000e+000
3363:0.0000000000000000e+000
3364:0.0000000000000000e+000
3365:0.0000000000000000e+000
3366:0.0000000000000000e+000
3367:0.0000000000000000e+000
3368:0.0000000000000000e+000
3369:0.0000000000000000e+000
3370:0.0000000000000000e+000
3371:0.0000000000000000e+000
3372:0.0000000000000000e+000
3373:0.0000000000000000e+000
3374:0.0000000000000000e+000
3375:0.0000000000000000e+000
3376:0.0000000000000000e+000
3377:0.0000000000000000e+000
3378:0.0000000000000000e+000
3379:0.0000000000000000e+000
3380:0.0000000000000000e+000
3381:0.0000000000000000e+000
3382:0.0000000000000000e+000
3383:0.0000000000000000e+000
3384:0.0000000000000000e+000
3385:0.0000000000000000e+000
3386:0.0000000000000000e+000
3387:0.0000000000000000e+000
3388:0.0000000000000000e+000
3389:0.0000000000000000e+000
3390:0.0000000000000000e+000
3391:0.0000000000000000e+000
3392:0.0000000000000000e+000
3393:0.0000000000000000e+000
3394:0.0000000000000000e+000
3395:0.0000000000000000e+000
3396:0.0000000000000000e+000
3397:0.0000000000000000e+000
3398:0.0000000000000000e+000
3399:0.0000000000000000e+000
3400:0.0000000000000000e+000
3401:0.0000000000000000e+000
3402:0.0000000000000000e+000
3403:0.0000000000000000e+000
3404:0.0000000000000000e+000
3405:0.0000000000000000e+000
3406:0.0000000000000000e+000
3407:0.0000000000000000e+000
3408:0.0000000000000000e+000
3409:0.0000000000000000e+000
3410:0.0000000000000000e+000
3411:0.0000000000000000e+000
3412:0.0000000000000000e+000
3413:0.0000000000000000e+000
3414:0.0000000000000000e+000
3415:0.0000000000000000e+000
3416:0.0000000000000000e+000
3417:0.0000000000000000e+000
3418:0.0000000000000000e+000
3419:0.0000000000000000e+000
3420:0.0000000000000000e+000
3421:0.0000000000000000e+000
3422:0.0000000000000000e+000
3423:0.0000000000000000e+000
3424:0.0000000000000000e+000
3425:0.0000000000000000e+000
3426:0.0000000000000000e+000
3427:0.0000000000000000e+000
3428:0.0000000000000000e+000
3429:0.0000000000000000e+000
3430:0.0000000000000000e+000
3431:0.0000000000000000e+000
3432:0.0000000000000000e+000
3433:0.0000000000000000e+000
3434:0.0000000000000000e+000
3435:0.0000000000000000e+000
3436:0.0000000000000000e+000
3437:0.0000000000000000e+000
3438:0.0000000000000000e+000
3439:0.0000000000000000e+000
3440:0.0000000000000000e+000
3441:0.0000000000000000e+000
3442:0.0000000000000000e+000
3443:0.0000000000000000e+000
3444:0.0000000000000000e+000
3445:0.0000000000000000e+000
3446:0.0000000000000000e+000
3447:0.0000000000000000e+000
3448:0.0000000000000000e+000
3449:0.0000000000000000e+000
3450:0.0000000000000000e+000
3451:0.0000000000000000e+000
3452:0.0000000000000000e+000
3453:0.0000000000000000e+000
3454:0.0000000000000000e+000
3455:0.0000000000000000e+000
3456:0.0000000000000000e+000
3457:0.0000000000000000e+000
3458:0.0000000000000000e+000
3459:0.0000000000000000e+000
3460:0.0000000000000000e+000
3461:0.0000000000000000e+000
3462:0.0000000000000000e+000
3463:0.0000000000000000e+000
3464:0.0000000000000000e+000
3465:0.0000000000000000e+000
3466:0.0000000000000000e+000
3467:0.0000000000000000e+000
3468:0.0000000000000000e+000
3469:0.0000000000000000e+000
3470:0.0000000000000000e+000
3471:0.0000000000000000e+000
3472:0.0000000000000000e+000
3473:0.0000000000000000e+000
3474:0.0000000000000000e+000
3475:0.0000000000000000e+000
3476:0.0000000000000000e+000
3477:0.0000000000000000e+000
3478:0.0000000000000000e+000
3479:0.0000000000000000e+000
3480:0.0000000000000000e+000
3481:0.0000000000000000e+000
3482:0.0000000000000000e+000
3483:0.0000000000000000e+000
3484:0.0000000000000000e+000
3485:0.0000000000000000e+000
3486:0.0000000000000000e+000
3487:0.0000000000000000e+000
3488:0.0000000000000000e+000
3489:0.0000000000000000e+000
3490:0.0000000000000000e+000
3491:0.0000000000000000e+000
3492:0.0000000000000000e+000
3493:0.0000000000000000e+000
3494:0.0000000000000000e+000
3495:0.0000000000000000e+000
3496:0.0000000000000000e+000
3497:0.0000000000000000e+000
3498:0.0000000000000000e+000
3499:0.0000000000000000e+000
3500:0.0000000000000000e+000
3501:0.0000000000000000e+000
3502:0.0000000000000000e+000
3503:0.0000000000000000e+000
3504:0.0000000000000000e+000
3505:0.0000000000000000e+000
3506:0.0000000000000000e+000
3507:0.0000000000000000e+000
3508:0.0000000000000000e+000
3509:0.0000000000000000e+000
3510:0.0000000000000000e+000
3511:0.0000000000000000e+000
3512:0.0000000000000000e+000
3513:0.0000000000000000e+000
3514:0.0000000000000000e+000
3515:0.0000000000000000e+000
3516:0.0000000000000000e+000
3517:0.0000000000000000e+000
3518:0.0000000000000000e+000
3519:0.0000000000000000e+000
3520:0.0000000000000000e+000
3521:0.0000000000000000e+000
3522:0.0000000000000000e+000
3523:0.0000000000000000e+000
3524:0.0000000000000000e+000
3525:0.0000000000000000e+000
3526:0.0000000000000000e+000
3527:0.0000000000000000e+000
3528:0.0000000000000000e+000
3529:0.0000000000000000e+000
3530:0.0000000000000000e+000
3531:0.0000000000000000e+000
3532:0.0000000000000000e+000
3533:0.0000000000000000e+000
3534:0.0000000000000000e+000
3535:0.0000000000000000e+000
3536:0.0000000000000000e+000
3537:0.0000000000000000e+000
3538:0.0000000000000000e+000
3539:0.0000000000000000e+000
3540:0.0000000000000000e+000
3541:0.0000000000000000e+000
3542:0.0000000000000000e+000
3543:0.0000000000000000e+000
3544:0.0000000000000000e+000
3545:0.0000000000000000e+000
3546:0.0000000000000000e+000
3547:0.0000000000000000e+000
3548:0.0000000000000000e+000
3549:0.0000000000000000e+000
3550:0.0000000000000000e+000
3551:0.0000000000000000e+000
3552:0.0000000000000000e+000
3553:0.0000000000000000e+000
3554:0.0000000000000000e+000
3555:0.0000000000000000e+000
3556:0.0000000000000000e+000
3557:0.0000000000000000e+000
3558:0.0000000000000000e+000
3559:0.0000000000000000e+000
3560:0.0000000000000000e+000
3561:0.0000000000000000e+000
3562:0.0000000000000000e+000
3563:0.0000000000000000e+000
3564:0.0000000000000000e+000
3565:0.0000000000000000e+000
3566:0.0000000000000000e+000
3567:0.0000000000000000e+000
3568:0.0000000000000000e+000
3569:0.0000000000000000e+000
3570:0.0000000000000000e+000
3571:0.0000000000000000e+000
3572:0.0000000000000000e+000
3573:0.0000000000000000e+000
3574:0.0000000000000000e+000
3575:0.0000000000000000e+000
3576:0.0000000000000000e+000
3577:0.0000000000000000e+000
3578:0.0000000000000000e+000
3579:0.0000000000000000e+000
3580:0.0000000000000000e+000
3581:0.0000000000000000e+000
3582:0.0000000000000000e+000
3583:0.0000000000000000e+000
3584:0.0000000000000000e+000
3585:0.0000000000000000e+000
3586:0.0000000000000000e+000
3587:0.0000000000000000e+000
3588:0.0000000000000000e+000
3589:0.0000000000000000e+000
3590:0.0000000000000000e+000
3591:0.0000000000000000e+000
3592:0.0000000000000000e+000
3593:0.0000000000000000e+000
3594:0.0000000000000000e+000
3595:0.0000000000000000e+000
3596:0.0000000000000000e+000
3597:0.0000000000000000e+000
3598:0.0000000000000000e+000
3599:0.0000000000000000e+000
3600:0.0000000000000000e+000
3601:0.0000000000000000e+000
3602:0.0000000000000000e+000
3603:0.0000000000000000e+000
3604:0.0000000000000000e+000
3605:0.0000000000000000e+000
3606:0.0000000000000000e+000
3607:0.0000000000000000e+000
3608:0.0000000000000000e+000
3609:0.0000000000000000e+000
3610:0.0000000000000000e+000
3611:0.0000000000000000e+000
3612:0.0000000000000000e+000
3613:0.0000000000000000e+000
3614:0.0000000000000000e+000
3615:0.0000000000000000e+000
3616:0.0000000000000000e+000
3617:0.0000000000000000e+000
3618:0.0000000000000000e+000
3619:0.0000000000000000e+000
3620:0.0000000000000000e+000
3621:0.0000000000000000e+000
3622:0.0000000000000000e+000
3623:0.0000000000000000e+000
3624:0.0000000000000000e+000
3625:0.0000000000000000e+000
3626:0.0000000000000000e+000
3627:0.0000000000000000e+000
3628:0.0000000000000000e+000
3629:0.0000000000000000e+000
3630:0.0000000000000000e+000
3631:0.0000000000000000e+000
3632:0.0000000000000000e+000
3633:0.0000000000000000e+000
3634:0.0000000000000000e+000
3635:0.0000000000000000e+000
3636:0.0000000000000000e+000
3637:0.0000000000000000e+000
3638:0.0000000000000000e+000
3639:0.0000000000000000e+000
3640:0.0000000000000000e+000
3641:0.0000000000000000e+000
3642:0.0000000000000000e+000
3643:0.0000000000000000e+000
3644:0.0000000000000000e+000
3645:0.0000000000000000e+000
3646:0.0000000000000000e+000
3647:0.0000000000000000e+000
3648:0.0000000000000000e+000
3649:0.0000000000000000e+000
3650:0.0000000000000000e+000
3651:0.0000000000000000e+000
3652:0.0000000000000000e+000
3653:0.0000000000000000e+000
3654:0.0000000000000000e+000
3655:0.0000000000000000e+000
3656:0.0000000000000000e+000
3657:0.0000000000000000e+000
3658:0.0000000000000000e+000
3659:0.0000000000000000e+000
3660:0.0000000000000000e+000
3661:0.0000000000000000e+000
3662:0.0000000000000000e+000
3663:0.0000000000000000e+000
3664:0.0000000000000000e+000
3665:0.0000000000000000e+000
3666:0.0000000000000000e+000
3667:0.0000000000000000e+000
3668:0.0000000000000000e+000
3669:0.0000000000000000e+000
3670:0.0000000000000000e+000
3671:0.0000000000000000e+000
3672:0.0000000000000000e+000
3673:0.0000000000000000e+000
3674:0.0000000000000000e+000
3675:0.0000000000000000e+000
3676:0.0000000000000000e+000
3677:0.0000000000000000e+000
3678:0.0000000000000000e+000
3679:0.0000000000000000e+000
3680:0.0000000000000000e+000
3681:0.0000000000000000e+000
3682:0.0000000000000000e+000
3683:0.0000000000000000e+000
3684:0.0000000000000000e+000
3685:0.0000000000000000e+000
3686:0.0000000000000000e+000
3687:0.0000000000000000e+000
3688:0.0000000000000000e+000
3689:0.0000000000000000e+000
3690:0.0000000000000000e+000
3691:0.0000000000000000e+000
3692:0.0000000000000000e+000
3693:0.0000000000000000e+000
3694:0.0000000000000000e+000
3695:0.0000000000000000e+000
3696:0.0000000000000000e+000
3697:0.0000000000000000e+000
3698:0.0000000000000000e+000
3699:0.0000000000000000e+000
3700:0.0000000000000000e+000
3701:0.0000000000000000e+000
3702:0.0000000000000000e+000
3703:0.0000000000000000e+000
3704:0.0000000000000000e+000
3705:0.0000000000000000e+000
3706:0.0000000000000000e+000
3707:0.0000000000000000e+000
3708:0.0000000000000000e+000
3709:0.0000000000000000e+000
3710:0.0000000000000000e+000
3711:0.0000000000000000e+000
3712:0.0000000000000000e+000
3713:0.0000000000000000e+000
3714:0.0000000000000000e+000
3715:0.0000000000000000e+000
3716:0.0000000000000000e+000
3717:0.0000000000000000e+000
3718:0.0000000000000000e+000
3719:0.0000000000000000e+000
3720:0.0000000000000000e+000
3721:0.0000000000000000e+000
3722:0.0000000000000000e+000
3723:0.0000000000000000e+000
3724:0.0000000000000000e+000
3725:0.0000000000000000e+000
3726:0.0000000000000000e+000
3727:0.0000000000000000e+000
3728:0.0000000000000000e+000
3729:0.0000000000000000e+000
3730:0.0000000000000000e+000
3731:0.0000000000000000e+000
3732:0.0000000000000000e+000
3733:0.0000000000000000e+000
3734:0.0000000000000000e+000
3735:0.0000000000000000e+000
3736:0.0000000000000000e+000
3737:0.0000000000000000e+000
3738:0.0000000000000000e+000
3739:0.0000000000000000e+000
3740:0.0000000000000000e+000
3741:0.0000000000000000e+000
3742:0.0000000000000000e+000
3743:0.0000000000000000e+000
3744:0.0000000000000000e+000
3745:0.0000000000000000e+000
3746:0.0000000000000000e+000
3747:0.0000000000000000e+000
3748:0.0000000000000000e+000
3749:0.0000000000000000e+000
3750:0.0000000000000000e+000
3751:0.0000000000000000e+000
3752:0.0000000000000000e+000
3753:0.0000000000000000e+000
3754:0.0000000000000000e+000
3755:0.0000000000000000e+000
3756:0.0000000000000000e+000
3757:0.0000000000000000e+000
3758:0.0000000000000000e+000
3759:0.0000000000000000e+000
3760:0.0000000000000000e+000
3761:0.0000000000000000e+000
3762:0.0000000000000000e+000
3763:0.0000000000000000e+000
3764:0.0000000000000000e+000
3765:0.0000000000000000e+000
3766:0.0000000000000000e+000
3767:0.0000000000000000e+000
3768:0.0000000000000000e+000
3769:0.0000000000000000e+000
3770:0.0000000000000000e+000
3771:0.0000000000000000e+000
3772:0.0000000000000000e+000
3773:0.0000000000000000e+000
3774:0.0000000000000000e+000
3775:0.0000000000000000e+000
3776:0.0000000000000000e+000
3777:0.0000000000000000e+000
3778:0.0000000000000000e+000
3779:0.0000000000000000e+000
3780:0.0000000000000000e+000
3781:0.0000000000000000e+000
3782:0.0000000000000000e+000
3783:0.0000000000000000e+000
3784:0.0000000000000000e+000
3785:0.0000000000000000e+000
3786:0.0000000000000000e+000
3787:0.0000000000000000e+000
3788:0.0000000000000000e+000
3789:0.0000000000000000e+000
3790:0.0000000000000000e+000
3791:0.0000000000000000e+000
3792:0.0000000000000000e+000
3793:0.0000000000000000e+000
3794:0.0000000000000000e+000
3795:0.0000000000000000e+000
3796:0.0000000000000000e+000
3797:0.0000000000000000e+000
3798:0.0000000000000000e+000
3799:0.0000000000000000e+000
3800:0.0000000000000000e+000
3801:0.0000000000000000e+000
3802:0.0000000000000000e+000
3803:0.0000000000000000e+000
3804:0.0000000000000000e+000
3805:0.0000000000000000e+000
3806:0.0000000000000000e+000
3807:0.0000000000000000e+000
3808:0.0000000000000000e+000
3809:0.0000000000000000e+000
3810:0.0000000000000000e+000
3811:0.0000000000000000e+000
3812:0.0000000000000000e+000
3813:0.0000000000000000e+000
3814:0.0000000000000000e+000
3815:0.0000000000000000e+000
3816:0.0000000000000000e+000
3817:0.0000000000000000e+000
3818:0.0000000000000000e+000
3819:0.0000000000000000e+000
3820:0.0000000000000000e+000
3821:0.0000000000000000e+000
3822:0.0000000000000000e+000
3823:0.0000000000000000e+000
3824:0.0000000000000000e+000
3825:0.0000000000000000e+000
3826:0.0000000000000000e+000
3827:0.0000000000000000e+000
3828:0.0000000000000000e+000
3829:0.0000000000000000e+000
3830:0.0000000000000000e+000
3831:0.0000000000000000e+000
3832:0.0000000000000000e+000
3833:0.0000000000000000e+000
3834:0.0000000000000000e+000
3835:0.0000000000000000e+000
3836:0.0000000000000000e+000
3837:0.0000000000000000e+000
3838:0.0000000000000000e+000
3839:0.0000000000000000e+000
3840:0.0000000000000000e+000
3841:0.0000000000000000e+000
3842:0.0000000000000000e+000
3843:0.0000000000000000e+000
3844:0.0000000000000000e+000
3845:0.0000000000000000e+000
3846:0.0000000000000000e+000
3847:0.0000000000000000e+000
3848:0.0000000000000000e+000
3849:0.0000000000000000e+000
3850:0.0000000000000000e+000
3851:0.0000000000000000e+000
3852:0.0000000000000000e+000
3853:0.0000000000000000e+000
3854:0.0000000000000000e+000
3855:0.0000000000000000e+000
3856:0.0000000000000000e+000
3857:0.0000000000000000e+000
3858:0.0000000000000000e+000
3859:0.0000000000000000e+000
3860:0.0000000000000000e+000
3861:0.0000000000000000e+000
3862:0.0000000000000000e+000
3863:0.0000000000000000e+000
3864:0.0000000000000000e+000
3865:0.0000000000000000e+000
3866:0.0000000000000000e+000
3867:0.0000000000000000e+000
3868:0.0000000000000000e+000
3869:0.0000000000000000e+000
3870:0.0000000000000000e+000
3871:0.0000000000000000e+000
3872:0.0000000000000000e+000
3873:0.0000000000000000e+000
3874:0.0000000000000000e+000
3875:0.0000000000000000e+000
3876:0.0000000000000000e+000
3877:0.0000000000000000e+000
3878:0.0000000000000000e+000
3879:0.0000000000000000e+000
3880:0.0000000000000000e+000
3881:0.0000000000000000e+000
3882:0.0000000000000000e+000
3883:0.0000000000000000e+000
3884:0.0000000000000000e+000
3885:0.0000000000000000e+000
3886:0.0000000000000000e+000
3887:0.0000000000000000e+000
3888:0.0000000000000000e+000
3889:0.0000000000000000e+000
3890:0.0000000000000000e+000
3891:0.0000000000000000e+000
3892:0.0000000000000000e+000
3893:0.0000000000000000e+000
3894:0.0000000000000000e+000
3895:0.0000000000000000e+000
3896:0.0000000000000000e+000
3897:0.0000000000000000e+000
3898:0.0000000000000000e+000
3899:0.0000000000000000e+000
3900:0.0000000000000000e+000
3901:0.0000000000000000e+000
3902:0.0000000000000000e+000
3903:0.0000000000000000e+000
3904:0.0000000000000000e+000
3905:0.0000000000000000e+000
3906:0.0000000000000000e+000
3907:0.0000000000000000e+000
3908:0.0000000000000000e+000
3909:0.0000000000000000e+000
3910:0.0000000000000000e+000
3911:0.0000000000000000e+000
3912:0.0000000000000000e+000
3913:0.0000000000000000e+000
3914:0.0000000000000000e+000
3915:0.0000000000000000e+000
3916:0.0000000000000000e+000
3917:0.0000000000000000e+000
3918:0.0000000000000000e+000
3919:0.0000000000000000e+000
3920:0.0000000000000000e+000
3921:0.0000000000000000e+000
3922:0.0000000000000000e+000
3923:0.0000000000000000e+000
3924:0.0000000000000000e+000
3925:0.0000000000000000e+000
3926:0.0000000000000000e+000
3927:0.0000000000000000e+000
3928:0.0000000000000000e+000
3929:0.0000000000000000e+000
3930:0.0000000000000000e+000
3931:0.0000000000000000e+000
3932:0.0000000000000000e+000
3933:0.0000000000000000e+000
3934:0.0000000000000000e+000
3935:0.0000000000000000e+000
3936:0.0000000000000000e+000
3937:0.0000000000000000e+000
3938:0.0000000000000000e+000
3939:0.0000000000000000e+000
3940:0.0000000000000000e+000
3941:0.0000000000000000e+000
3942:0.0000000000000000e+000
3943:0.0000000000000000e+000
3944:0.0000000000000000e+000
3945:0.0000000000000000e+000
3946:0.0000000000000000e+000
3947:0.0000000000000000e+000
3948:0.0000000000000000e+000
3949:0.0000000000000000e+000
3950:0.0000000000000000e+000
3951:0.0000000000000000e+000
3952:0.0000000000000000e+000
3953:0.0000000000000000e+000
3954:0.0000000000000000e+000
3955:0.0000000000000000e+000
3956:0.0000000000000000e+000
3957:0.0000000000000000e+000
3958:0.0000000000000000e+000
3959:0.0000000000000000e+000
3960:0.0000000000000000e+000
3961:0.0000000000000000e+000
3962:0.0000000000000000e+000
3963:0.0000000000000000e+000
3964:0.0000000000000000e+000
3965:0.0000000000000000e+000
3966:0.0000000000000000e+000
3967:0.0000000000000000e+000
3968:0.0000000000000000e+000
3969:0.0000000000000000e+000
3970:0.0000000000000000e+000
3971:0.0000000000000000e+000
3972:0.0000000000000000e+000
3973:0.0000000000000000e+000
3974:0.0000000000000000e+000
3975:0.0000000000000000e+000
3976:0.0000000000000000e+000
3977:0.0000000000000000e+000
3978:0.0000000000000000e+000
3979:0.0000000000000000e+000
3980:0.0000000000000000e+000
3981:0.0000000000000000e+000
3982:0.0000000000000000e+000
3983:0.0000000000000000e+000
3984:0.0000000000000000e+000
3985:0.0000000000000000e+000
3986:0.0000000000000000e+000
3987:0.0000000000000000e+000
3988:0.0000000000000000e+000
3989:0.0000000000000000e+000
3990:0.0000000000000000e+000
3991:0.0000000000000000e+000
3992:0.0000000000000000e+000
3993:0.0000000000000000e+000
3994:0.0000000000000000e+000
3995:0.0000000000000000e+000
3996:0.0000000000000000e+000
3997:0.0000000000000000e+000
3998:0.0000000000000000e+000
3999:0.0000000000000000e+000
4000:0.0000000000000000e+000
4001:0.0000000000000000e+000
4002:0.0000000000000000e+000
4003:0.0000000000000000e+000
4004:0.0000000000000000e+000
4005:0.0000000000000000e+000
4006:0.0000000000000000e+000
4007:0.0000000000000000e+000
4008:0.0000000000000000e+000
4009:0.0000000000000000e+000
4010:0.0000000000000000e+000
4011:0.0000000000000000e+000
4012:0.0000000000000000e+000
4013:0.0000000000000000e+000
4014:0.0000000000000000e+000
4015:0.0000000000000000e+000
4016:0.0000000000000000e+000
4017:0.0000000000000000e+000
4018:0.0000000000000000e+000
4019:0.0000000000000000e+000
4020:0.0000000000000000e+000
4021:0.0000000000000000e+000
4022:0.0000000000000000e+000
4023:0.0000000000000000e+000
4024:0.0000000000000000e+000
4025:0.0000000000000000e+000
4026:0.0000000000000000e+000
4027:0.0000000000000000e+000
4028:0.0000000000000000e+000
4029:0.0000000000000000e+000
4030:0.0000000000000000e+000
4031:0.0000000000000000e+000
4032:0.0000000000000000e+000
4033:0.0000000000000000e+000
4034:0.0000000000000000e+000
4035:0.0000000000000000e+000
4036:0.0000000000000000e+000
4037:0.0000000000000000e+000
4038:0.0000000000000000e+000
4039:0.0000000000000000e+000
4040:0.0000000000000000e+000
4041:0.0000000000000000e+000
4042:0.0000000000000000e+000
4043:0.0000000000000000e+000
4044:0.0000000000000000e+000
4045:0.0000000000000000e+000
4046:0.0000000000000000e+000
4047:0.0000000000000000e+000
4048:0.0000000000000000e+000
4049:0.0000000000000000e+000
4050:0.0000000000000000e+000
4051:0.0000000000000000e+000
4052:0.0000000000000000e+000
4053:0.0000000000000000e+000
4054:0.0000000000000000e+000
4055:0.0000000000000000e+000
4056:0.0000000000000000e+000
4057:0.0000000000000000e+000
4058:0.0000000000000000e+000
4059:0.0000000000000000e+000
4060:0.0000000000000000e+000
4061:0.0000000000000000e+000
4062:0.0000000000000000e+000
4063:0.0000000000000000e+000
4064:0.0000000000000000e+000
4065:0.0000000000000000e+000
4066:0.0000000000000000e+000
4067:0.0000000000000000e+000
4068:0.0000000000000000e+000
4069:0.0000000000000000e+000
4070:0.0000000000000000e+000
4071:0.0000000000000000e+000
4072:0.0000000000000000e+000
4073:0.0000000000000000e+000
4074:0.0000000000000000e+000
4075:0.0000000000000000e+000
4076:0.0000000000000000e+000
4077:0.0000000000000000e+000
4078:0.0000000000000000e+000
4079:0.0000000000000000e+000
4080:0.0000000000000000e+000
4081:0.0000000000000000e+000
4082:0.0000000000000000e+000
4083:0.0000000000000000e+000
4084:0.0000000000000000e+000
4085:0.0000000000000000e+000
4086:0.0000000000000000e+000
4087:0.0000000000000000e+000
4088:0.0000000000000000e+000
4089:0.0000000000000000e+000
4090:0.0000000000000000e+000
4091:0.0000000000000000e+000
4092:0.0000000000000000e+000
4093:0.0000000000000000e+000
4094:0.0000000000000000e+000
4095:0.0000000000000000e+000
4096:0.0000000000000000e+000
4097:0.0000000000000000e+000
4098:0.0000000000000000e+000
4099:0.0000000000000000e+000
4100:0.0000000000000000e+000
4101:0.0000000000000000e+000
4102:0.0000000000000000e+000
4103:0.0000000000000000e+000
4104:0.0000000000000000e+000
4105:0.0000000000000000e+000
4106:0.0000000000000000e+000
4107:0.0000000000000000e+000
4108:0.0000000000000000e+000
4109:0.0000000000000000e+000
4110:0.0000000000000000e+000
4111:0.0000000000000000e+000
4112:0.0000000000000000e+000
4113:0.0000000000000000e+000
4114:0.0000000000000000e+000
4115:0.0000000000000000e+000
4116:0.0000000000000000e+000
4117:0.0000000000000000e+000
4118:0.0000000000000000e+000
4119:0.0000000000000000e+000
4120:0.0000000000000000e+000
4121:0.0000000000000000e+000
4122:0.0000000000000000e+000
4123:0.0000000000000000e+000
4124:0.0000000000000000e+000
4125:0.0000000000000000e+000
4126:0.0000000000000000e+000
4127:0.0000000000000000e+000
4128:0.0000000000000000e+000
4129:0.0000000000000000e+000
4130:0.0000000000000000e+000
4131:0.0000000000000000e+000
4132:0.0000000000000000e+000
4133:0.0000000000000000e+000
4134:0.0000000000000000e+000
4135:0.0000000000000000e+000
4136:0.0000000000000000e+000
4137:0.0000000000000000e+000
4138:0.0000000000000000e+000
4139:0.0000000000000000e+000
4140:0.0000000000000000e+000
4141:0.0000000000000000e+000
4142:0.0000000000000000e+000
4143:0.0000000000000000e+000
4144:0.0000000000000000e+000
4145:0.0000000000000000e+000
4146:0.0000000000000000e+000
4147:0.0000000000000000e+000
4148:0.0000000000000000e+000
4149:0.0000000000000000e+000
4150:0.0000000000000000e+000
4151:0.0000000000000000e+000
4152:0.0000000000000000e+000
4153:0.0000000000000000e+000
4154:0.0000000000000000e+000
4155:0.0000000000000000e+000
4156:0.0000000000000000e+000
4157:0.0000000000000000e+000
4158:0.0000000000000000e+000
4159:0.0000000000000000e+000
4160:0.0000000000000000e+000
4161:0.0000000000000000e+000
4162:0.0000000000000000e+000
4163:0.0000000000000000e+000
4164:0.0000000000000000e+000
4165:0.0000000000000000e+000
4166:0.0000000000000000e+000
4167:0.0000000000000000e+000
4168:0.0000000000000000e+000
4169:0.0000000000000000e+000
4170:0.0000000000000000e+000
4171:0.0000000000000000e+000
4172:0.0000000000000000e+000
4173:0.0000000000000000e+000
4174:0.0000000000000000e+000
4175:0.0000000000000000e+000
4176:0.0000000000000000e+000
4177:0.0000000000000000e+000
4178:0.0000000000000000e+000
4179:0.0000000000000000e+000
4180:0.0000000000000000e+000
4181:0.0000000000000000e+000
4182:0.0000000000000000e+000
4183:0.0000000000000000e+000
4184:0.0000000000000000e+000
4185:0.0000000000000000e+000
4186:0.0000000000000000e+000
4187:0.0000000000000000e+000
4188:0.0000000000000000e+000
4189:0.0000000000000000e+000
4190:0.0000000000000000e+000
4191:0.0000000000000000e+000
4192:0.0000000000000000e+000
4193:0.0000000000000000e+000
4194:0.0000000000000000e+000
4195:0.0000000000000000e+000
4196:0.0000000000000000e+000
4197:0.0000000000000000e+000
4198:0.0000000000000000e+000
4199:0.0000000000000000e+000
4200:0.0000000000000000e+000
4201:0.0000000000000000e+000
4202:0.0000000000000000e+000
4203:0.0000000000000000e+000
4204:0.0000000000000000e+000
4205:0.0000000000000000e+000
4206:0.0000000000000000e+000
4207:0.0000000000000000e+000
4208:0.0000000000000000e+000
4209:0.0000000000000000e+000
4210:0.0000000000000000e+000
4211:0.0000000000000000e+000
4212:0.0000000000000000e+000
4213:0.0000000000000000e+000
4214:0.0000000000000000e+000
4215:0.0000000000000000e+000
4216:0.0000000000000000e+000
4217:0.0000000000000000e+000
4218:0.0000000000000000e+000
4219:0.0000000000000000e+000
4220:0.0000000000000000e+000
4221:0.0000000000000000e+000
4222:0.0000000000000000e+000
4223:0.0000000000000000e+000
4224:0.0000000000000000e+000
4225:0.0000000000000000e+000
4226:0.0000000000000000e+000
4227:0.0000000000000000e+000
4228:0.0000000000000000e+000
4229:0.0000000000000000e+000
4230:0.0000000000000000e+000
4231:0.0000000000000000e+000
4232:0.0000000000000000e+000
4233:0.0000000000000000e+000
4234:0.0000000000000000e+000
4235:0.0000000000000000e+000
4236:0.0000000000000000e+000
4237:0.0000000000000000e+000
4238:0.0000000000000000e+000
4239:0.0000000000000000e+000
4240:0.0000000000000000e+000
4241:0.0000000000000000e+000
4242:0.0000000000000000e+000
4243:0.0000000000000000e+000
4244:0.0000000000000000e+000
4245:0.0000000000000000e+000
4246:0.0000000000000000e+000
4247:0.0000000000000000e+000
4248:0.0000000000000000e+000
4249:0.0000000000000000e+000
4250:0.0000000000000000e+000
4251:0.0000000000000000e+000
4252:0.0000000000000000e+000
4253:0.0000000000000000e+000
4254:0.0000000000000000e+000
4255:0.0000000000000000e+000
4256:0.0000000000000000e+000
4257:0.0000000000000000e+000
4258:0.0000000000000000e+000
4259:0.0000000000000000e+000
4260:0.0000000000000000e+000
4261:0.0000000000000000e+000
4262:0.0000000000000000e+000
4263:0.0000000000000000e+000
4264:0.0000000000000000e+000
4265:0.0000000000000000e+000
4266:0.0000000000000000e+000
4267:0.0000000000000000e+000
4268:0.0000000000000000e+000
4269:0.0000000000000000e+000
4270:0.0000000000000000e+000
4271:0.0000000000000000e+000
4272:0.0000000000000000e+000
4273:0.0000000000000000e+000
4274:0.0000000000000000e+000
4275:0.0000000000000000e+000
4276:0.0000000000000000e+000
4277:0.0000000000000000e+000
4278:0.0000000000000000e+000
4279:0.0000000000000000e+000
4280:0.0000000000000000e+000
4281:0.0000000000000000e+000
4282:0.0000000000000000e+000
4283:0.0000000000000000e+000
4284:0.0000000000000000e+000
4285:0.0000000000000000e+000
4286:0.0000000000000000e+000
4287:0.0000000000000000e+000
4288:0.0000000000000000e+000
4289:0.0000000000000000e+000
4290:0.0000000000000000e+000
4291:0.0000000000000000e+000
4292:0.0000000000000000e+000
4293:0.0000000000000000e+000
4294:0.0000000000000000e+000
4295:0.0000000000000000e+000
4296:0.0000000000000000e+000
4297:0.0000000000000000e+000
4298:0.0000000000000000e+000
4299:0.0000000000000000e+000
4300:0.0000000000000000e+000
4301:0.0000000000000000e+000
4302:0.0000000000000000e+000
4303:0.0000000000000000e+000
4304:0.0000000000000000e+000
4305:0.0000000000000000e+000
4306:0.0000000000000000e+000
4307:0.0000000000000000e+000
4308:0.0000000000000000e+000
4309:0.0000000000000000e+000
4310:0.0000000000000000e+000
4311:0.0000000000000000e+000
4312:0.0000000000000000e+000
4313:0.0000000000000000e+000
4314:0.0000000000000000e+000
4315:0.0000000000000000e+000
4316:0.0000000000000000e+000
4317:0.0000000000000000e+000
4318:0.0000000000000000e+000
4319:0.0000000000000000e+000
4320:0.0000000000000000e+000
4321:0.0000000000000000e+000
4322:0.0000000000000000e+000
4323:0.0000000000000000e+000
4324:0.0000000000000000e+000
4325:0.0000000000000000e+000
4326:0.0000000000000000e+000
4327:0.0000000000000000e+000
4328:0.0000000000000000e+000
4329:0.0000000000000000e+000
4330:0.0000000000000000e+000
4331:0.0000000000000000e+000
4332:0.0000000000000000e+000
4333:0.0000000000000000e+000
4334:0.0000000000000000e+000
4335:0.0000000000000000e+000
4336:0.0000000000000000e+000
4337:0.0000000000000000e+000
4338:0.0000000000000000e+000
4339:0.0000000000000000e+000
4340:0.0000000000000000e+000
4341:0.0000000000000000e+000
4342:0.0000000000000000e+000
4343:0.0000000000000000e+000
4344:0.0000000000000000e+000
4345:0.0000000000000000e+000
4346:0.0000000000000000e+000
4347:0.0000000000000000e+000
4348:0.0000000000000000e+000
4349:0.0000000000000000e+000
4350:0.0000000000000000e+000
4351:0.0000000000000000e+000
4352:0.0000000000000000e+000
4353:0.0000000000000000e+000
4354:0.0000000000000000e+000
4355:0.0000000000000000e+000
4356:0.0000000000000000e+000
4357:0.0000000000000000e+000
4358:0.0000000000000000e+000
4359:0.0000000000000000e+000
4360:0.0000000000000000e+000
4361:0.0000000000000000e+000
4362:0.0000000000000000e+000
4363:0.0000000000000000e+000
4364:0.0000000000000000e+000
4365:0.0000000000000000e+000
4366:0.0000000000000000e+000
4367:0.0000000000000000e+000
4368:0.0000000000000000e+000
4369:0.0000000000000000e+000
4370:0.0000000000000000e+000
4371:0.0000000000000000e+000
4372:0.0000000000000000e+000
4373:0.0000000000000000e+000
4374:0.0000000000000000e+000
4375:0.0000000000000000e+000
4376:0.0000000000000000e+000
4377:0.0000000000000000e+000
4378:0.0000000000000000e+000
4379:0.0000000000000000e+000
4380:0.0000000000000000e+000
4381:0.0000000000000000e+000
4382:0.0000000000000000e+000
4383:0.0000000000000000e+000
4384:0.0000000000000000e+000
4385:0.0000000000000000e+000
4386:0.0000000000000000e+000
4387:0.0000000000000000e+000
4388:0.0000000000000000e+000
4389:0.0000000000000000e+000
4390:0.0000000000000000e+000
4391:0.0000000000000000e+000
4392:0.0000000000000000e+000
4393:0.0000000000000000e+000
4394:0.0000000000000000e+000
4395:0.0000000000000000e+000
4396:0.0000000000000000e+000
4397:0.0000000000000000e+000
4398:0.0000000000000000e+000
4399:0.0000000000000000e+000
4400:0.0000000000000000e+000
4401:0.0000000000000000e+000
4402:0.0000000000000000e+000
4403:0.0000000000000000e+000
4404:0.0000000000000000e+000
4405:0.0000000000000000e+000
4406:0.0000000000000000e+000
4407:0.0000000000000000e+000
4408:0.0000000000000000e+000
4409:0.0000000000000000e+000
4410:0.0000000000000000e+000
4411:0.0000000000000000e+000
4412:0.0000000000000000e+000
4413:0.0000000000000000e+000
4414:0.0000000000000000e+000
4415:0.0000000000000000e+000
4416:0.0000000000000000e+000
4417:0.0000000000000000e+000
4418:0.0000000000000000e+000
4419:0.0000000000000000e+000
4420:0.0000000000000000e+000
4421:0.0000000000000000e+000
4422:0.0000000000000000e+000
4423:0.0000000000000000e+000
4424:0.0000000000000000e+000
4425:0.0000000000000000e+000
4426:0.0000000000000000e+000
4427:0.0000000000000000e+000
4428:0.0000000000000000e+000
4429:0.0000000000000000e+000
4430:0.0000000000000000e+000
4431:0.0000000000000000e+000
4432:0.0000000000000000e+000
4433:0.0000000000000000e+000
4434:0.0000000000000000e+000
4435:0.0000000000000000e+000
4436:0.0000000000000000e+000
4437:0.0000000000000000e+000
4438:0.0000000000000000e+000
4439:0.0000000000000000e+000
4440:0.0000000000000000e+000
4441:0.0000000000000000e+000
4442:0.0000000000000000e+000
4443:0.0000000000000000e+000
4444:0.0000000000000000e+000
4445:0.0000000000000000e+000
4446:0.0000000000000000e+000
4447:0.0000000000000000e+000
4448:0.0000000000000000e+000
4449:0.0000000000000000e+000
4450:0.0000000000000000e+000
4451:0.0000000000000000e+000
4452:0.0000000000000000e+000
4453:0.0000000000000000e+000
4454:0.0000000000000000e+000
4455:0.0000000000000000e+000
4456:0.0000000000000000e+000
4457:0.0000000000000000e+000
4458:0.0000000000000000e+000
4459:0.0000000000000000e+000
4460:0.0000000000000000e+000
4461:0.0000000000000000e+000
4462:0.0000000000000000e+000
4463:0.0000000000000000e+000
4464:0.0000000000000000e+000
4465:0.0000000000000000e+000
4466:0.0000000000000000e+000
4467:0.0000000000000000e+000
4468:0.0000000000000000e+000
4469:0.0000000000000000e+000
4470:0.0000000000000000e+000
4471:0.0000000000000000e+000
4472:0.0000000000000000e+000
4473:0.0000000000000000e+000
4474:0.0000000000000000e+000
4475:0.0000000000000000e+000
4476:0.0000000000000000e+000
4477:0.0000000000000000e+000
4478:0.0000000000000000e+000
4479:0.0000000000000000e+000
4480:0.0000000000000000e+000
4481:0.0000000000000000e+000
4482:0.0000000000000000e+000
4483:0.0000000000000000e+000
4484:0.0000000000000000e+000
4485:0.0000000000000000e+000
4486:0.0000000000000000e+000
4487:0.0000000000000000e+000
4488:0.0000000000000000e+000
4489:0.0000000000000000e+000
4490:0.0000000000000000e+000
4491:0.0000000000000000e+000
4492:0.0000000000000000e+000
4493:0.0000000000000000e+000
4494:0.0000000000000000e+000
4495:0.0000000000000000e+000
4496:0.0000000000000000e+000
4497:0.0000000000000000e+000
4498:0.0000000000000000e+000
4499:0.0000000000000000e+000
4500:0.0000000000000000e+000
4501:0.0000000000000000e+000
4502:0.0000000000000000e+000
4503:0.0000000000000000e+000
4504:0.0000000000000000e+000
4505:0.0000000000000000e+000
4506:0.0000000000000000e+000
4507:0.0000000000000000e+000
4508:0.0000000000000000e+000
4509:0.0000000000000000e+000
4510:0.0000000000000000e+000
4511:0.0000000000000000e+000
4512:0.0000000000000000e+000
4513:0.0000000000000000e+000
4514:0.0000000000000000e+000
4515:0.0000000000000000e+000
4516:0.0000000000000000e+000
4517:0.0000000000000000e+000
4518:0.0000000000000000e+000
4519:0.0000000000000000e+000
4520:0.0000000000000000e+000
4521:0.0000000000000000e+000
4522:0.0000000000000000e+000
4523:0.0000000000000000e+000
4524:0.0000000000000000e+000
4525:0.0000000000000000e+000
4526:0.0000000000000000e+000
4527:0.0000000000000000e+000
4528:0.0000000000000000e+000
4529:0.0000000000000000e+000
4530:0.0000000000000000e+000
4531:0.0000000000000000e+000
4532:0.0000000000000000e+000
4533:0.0000000000000000e+000
4534:0.0000000000000000e+000
4535:0.0000000000000000e+000
4536:0.0000000000000000e+000
4537:0.0000000000000000e+000
4538:0.0000000000000000e+000
4539:0.0000000000000000e+000
4540:0.0000000000000000e+000
4541:0.0000000000000000e+000
4542:0.0000000000000000e+000
4543:0.0000000000000000e+000
4544:0.0000000000000000e+000
4545:0.0000000000000000e+000
4546:0.0000000000000000e+000
4547:0.0000000000000000e+000
4548:0.0000000000000000e+000
4549:0.0000000000000000e+000
4550:0.0000000000000000e+000
4551:0.0000000000000000e+000
4552:0.0000000000000000e+000
4553:0.0000000000000000e+000
4554:0.0000000000000000e+000
4555:0.0000000000000000e+000
4556:0.0000000000000000e+000
4557:0.0000000000000000e+000
4558:0.0000000000000000e+000
4559:0.0000000000000000e+000
4560:0.0000000000000000e+000
4561:0.0000000000000000e+000
4562:0.0000000000000000e+000
4563:0.0000000000000000e+000
4564:0.0000000000000000e+000
4565:0.0000000000000000e+000
4566:0.0000000000000000e+000
4567:0.0000000000000000e+000
4568:0.0000000000000000e+000
4569:0.0000000000000000e+000
4570:0.0000000000000000e+000
4571:0.0000000000000000e+000
4572:0.0000000000000000e+000
4573:0.0000000000000000e+000
4574:0.0000000000000000e+000
4575:0.0000000000000000e+000
4576:0.0000000000000000e+000
4577:0.0000000000000000e+000
4578:0.0000000000000000e+000
4579:0.0000000000000000e+000
4580:0.0000000000000000e+000
4581:0.0000000000000000e+000
4582:0.0000000000000000e+000
4583:0.0000000000000000e+000
4584:0.0000000000000000e+000
4585:0.0000000000000000e+000
4586:0.0000000000000000e+000
4587:0.0000000000000000e+000
4588:0.0000000000000000e+000
4589:0.0000000000000000e+000
4590:0.0000000000000000e+000
4591:0.0000000000000000e+000
4592:0.0000000000000000e+000
4593:0.0000000000000000e+000
4594:0.0000000000000000e+000
4595:0.0000000000000000e+000
4596:0.0000000000000000e+000
4597:0.0000000000000000e+000
4598:0.0000000000000000e+000
4599:0.0000000000000000e+000
4600:0.0000000000000000e+000
4601:0.0000000000000000e+000
4602:0.0000000000000000e+000
4603:0.0000000000000000e+000
4604:0.0000000000000000e+000
4605:0.0000000000000000e+000
4606:0.0000000000000000e+000
4607:0.0000000000000000e+000
