label=Stress xy
num_items=3456

0:2.3090982813793701e-01
1:6.2925556103827252e-01
2:7.3451373862550351e-01
3:-1.9411984259811475e-02
4:-8.7577074866852969e-02
5:-3.0360620179148823e-01
6:-5.6263877484098435e-01
7:-5.4252814030571928e-01
8:-5.2505802309253791e-01
9:7.4585070709923640e-01
10:5.9256682154342755e-01
11:1.1438634335320160e-02
12:-2.5924958814868709e-01
13:2.8160727548606451e-01
14:9.4167577218099618e-01
15:-3.9679793976041011e-01
16:4.5827496367475640e-01
17:1.9796154348825836e+00
18:-5.6818105827990384e-01
19:-1.1609616472530342e+00
20:-9.1442466609990358e-01
21:9.8823910088125444e-01
22:5.2618163627812797e-01
23:2.4219979253711099e-01
24:2.4936305656895073e+00
25:1.9967424217738401e+00
26:1.0166879494561347e+00
27:-4.2373122345656444e-01
28:1.6038798050479020e-01
29:2.5832293634089171e-01
30:2.8853655219653368e-01
31:4.4273982368238429e-01
32:3.2727943834965190e-01
33:6.3600184019816797e-01
34:5.8541049059382011e-01
35:4.8167607547756142e-01
36:1.4504976269720768e-01
37:3.3787939068973157e-02
38:1.8738562496539046e-02
39:2.1926382586407173e-01
40:1.8387128546992146e-01
41:2.2016717905940711e-01
42:4.1808885217175312e-01
43:3.6805450795142319e-01
44:3.6518458464256354e-01
45:3.3881604564744983e-02
46:3.3566850778248301e-02
47:2.5044159594644001e-02
48:2.2538403811117591e-01
49:1.6224645052693565e-01
50:1.0144086130454782e-01
51:3.4633183103914239e-01
52:2.6227871853473045e-01
53:1.9109754015113095e-01
54:2.2905848118091664e-02
55:2.6560530947285197e-02
56:2.5849711537352552e-02
57:8.5023997829813347e-02
58:8.7829252167809083e-02
59:9.0512706159934689e-02
60:1.6843399054440195e-01
61:1.5608394768222203e-01
62:1.4785580636744389e-01
63:2.1385004540837093e-02
64:1.2910194336013153e-02
65:9.6087281785562501e-03
66:8.5026704657856306e-02
67:6.6650436188459145e-02
68:5.3047483702070006e-02
69:1.3867610544894179e-01
70:1.1552055020058044e-01
71:9.6738282870867415e-02
72:1.0471638575821640e-02
73:1.1967281298268481e-02
74:1.1244744681531119e-02
75:4.9109118911542647e-02
76:4.5864051301265286e-02
77:4.2258486292198222e-02
78:8.9156365912664612e-02
79:8.0026922002444115e-02
80:7.2394662633802773e-02
81:9.7488526254490056e-03
82:7.5413623115147231e-03
83:6.5403296367445582e-03
84:3.9459434457245125e-02
85:3.4453630873742598e-02
86:3.0648219222661685e-02
87:6.8065493876999561e-02
88:6.0625106659156172e-02
89:5.4379045666983074e-02
90:6.4765439488215339e-03
91:6.2839912615965336e-03
92:5.7883833298332348e-03
93:2.9001968909318349e-02
94:2.6502804253951528e-02
95:2.4201314883462739e-02
96:5.1264564177037404e-02
97:4.6487620213921929e-02
98:4.2409082065099898e-02
99:5.3724233938731289e-03
100:4.7594075197283127e-03
101:4.3403471367891621e-03
102:2.2915497369384148e-02
103:2.0876102378592852e-02
104:1.9154935970328121e-02
105:4.0266598566812375e-02
106:3.6817324601643900e-02
107:3.3810552310316176e-02
108:4.1613574837636004e-03
109:3.8396173015554981e-03
110:3.5170926361503016e-03
111:1.8225285110184848e-02
112:1.6645279701991231e-02
113:1.5218615448958030e-02
114:3.2146278488122848e-02
115:2.9346623007294518e-02
116:2.6854434320009866e-02
117:3.3134094429368008e-03
118:2.9592487967876873e-03
119:2.6403538392737874e-03
120:1.4376943235526784e-02
121:1.2882137280015733e-02
122:1.1495636413692129e-02
123:2.5391049514758825e-02
124:2.2772916907207542e-02
125:2.0336128789385354e-02
126:2.4373486855669641e-03
127:2.0418118744262967e-03
128:1.6555046239234393e-03
129:1.0594825707951254e-02
130:8.8451991636397543e-03
131:7.1411370494393316e-03
132:1.8752699371198393e-02
133:1.5683853884184206e-02
134:1.2696907696733975e-02
135:1.3814328120336271e-03
136:7.9711023434959048e-04
137:1.7742472701843894e-04
138:5.9398248131837771e-03
139:3.4570935346847848e-03
140:9.2930833226234025e-04
141:1.0592126118297537e-02
142:6.2578044744740300e-03
143:1.8687379124361853e-03
144:-8.7002321825561613e-01
145:-3.5674580985352949e-01
146:1.7575627073859124e-01
147:-5.0239382834132829e-01
148:5.7842927003191502e-01
149:1.6083930632889045e+00
150:9.3674648840224117e-01
151:1.5303796500706726e+00
152:2.0030695293165648e+00
153:4.3444091720209427e-01
154:1.2554919763408579e+00
155:2.8155004790293106e+00
156:1.9734918349317854e+00
157:2.5161323761800904e+00
158:3.5004725790923237e+00
159:2.1259520148651458e+00
160:2.2468521595662039e+00
161:2.5121941840454287e+00
162:3.2783327151113211e+00
163:2.4393194182982065e+00
164:9.9220290134884837e-01
165:3.5455095969907107e+00
166:2.1879829876967904e+00
167:4.5425051942272415e-01
168:2.3301193970797081e+00
169:1.2526913160332418e+00
170:3.0954737162730232e-02
171:4.6810863605569858e-01
172:5.0835054194557794e-01
173:5.5113626483842937e-01
174:-2.9955851170754076e-02
175:2.6805107565463526e-01
176:5.4344873623981316e-01
177:-2.3230193969010746e-01
178:1.4707553206397442e-01
179:4.7869065433466285e-01
180:5.3005054951869479e-01
181:4.3897953485304358e-01
182:3.8790500535416977e-01
183:5.7562521994866189e-01
184:4.5114355520746979e-01
185:3.6654983720522288e-01
186:5.2837267004914446e-01
187:4.2399734275691325e-01
188:3.5940142377579742e-01
189:3.5820779824230869e-01
190:2.9025540010391293e-01
191:2.3600545821598060e-01
192:3.3916672595144148e-01
193:3.0779475169619902e-01
194:2.8243938031533855e-01
195:3.4421907027146770e-01
196:3.2988596363939227e-01
197:3.1388360650561070e-01
198:2.1435568134444644e-01
199:1.8944930696212503e-01
200:1.7087581674367253e-01
201:2.6328146827235988e-01
202:2.2517019832849858e-01
203:1.9674613400615065e-01
204:2.9403536784912954e-01
205:2.5132518421087119e-01
206:2.2165652765176488e-01
207:1.5933937095659179e-01
208:1.3676833789935214e-01
209:1.1820698243816591e-01
210:1.8375709811087129e-01
211:1.6333126007673118e-01
212:1.4606558385715090e-01
213:2.0911671407005641e-01
214:1.8876565174310300e-01
215:1.7072523544921328e-01
216:1.0959519766035189e-01
217:9.7414578464447829e-02
218:8.7465708262828692e-02
219:1.3663225544947688e-01
220:1.2131140525051749e-01
221:1.0888894673059146e-01
222:1.6019358977388548e-01
223:1.4285179758617977e-01
224:1.2907503976224952e-01
225:8.2288440605028546e-02
226:7.3808451967841915e-02
227:6.6573032799957840e-02
228:1.0268100631008999e-01
229:9.2817758884699966e-02
230:8.4377807123676166e-02
231:1.2215741157023233e-01
232:1.1089467859172313e-01
233:1.0123396747265935e-01
234:6.2834801032629825e-02
235:5.6997641325992408e-02
236:5.2054659908926028e-02
237:7.9917585252397547e-02
238:7.2799529207067018e-02
239:6.6747691402985948e-02
240:9.6093628222657212e-02
241:8.7854797875109719e-02
242:8.0854225720484604e-02
243:4.9470171049855016e-02
244:4.5289903610606794e-02
245:4.1629414070430470e-02
246:6.3537725980033641e-02
247:5.8297018342397360e-02
248:5.3717374617045212e-02
249:7.7088993688539595e-02
250:7.0868999741399347e-02
251:6.5451355719756743e-02
252:3.9596199121107539e-02
253:3.6176697878823633e-02
254:3.3133109409680561e-02
255:5.1167225508813904e-02
256:4.6851581127184655e-02
257:4.2992937919226294e-02
258:6.2425571829205509e-02
259:5.7274555383111783e-02
260:5.2661628511219492e-02
261:3.1336367351549439e-02
262:2.8105058707603790e-02
263:2.5094111445099238e-02
264:4.0686156856265351e-02
265:3.6504218147887242e-02
266:3.2603682643814767e-02
267:4.9882506849429339e-02
268:4.4818717259961040e-02
269:4.0097372697680357e-02
270:2.3135660936866569e-02
271:1.9337992864926892e-02
272:1.5639203900314758e-02
273:3.0057667907879556e-02
274:2.5105237504861815e-02
275:2.0273702307777610e-02
276:3.7007755155864831e-02
277:3.0982856298471657e-02
278:2.5100868745593162e-02
279:1.3028983941853508e-02
280:7.6515165949611989e-03
281:2.2083154720993923e-03
282:1.6855394306610899e-02
283:9.8013535537344338e-03
284:2.6535069009676975e-03
285:2.0937558281949702e-02
286:1.2341443317513022e-02
287:3.6234503292771674e-03
288:2.0989684742695438e+00
289:1.8501549064040164e+00
290:1.4791712776285373e+00
291:2.8983045747147158e+00
292:1.5351306301164407e+00
293:1.1565478785774533e-01
294:2.0495585607311515e+00
295:5.2118701663443079e-01
296:-9.9761826187315872e-01
297:1.2832547942349974e+00
298:1.1085235713182919e+00
299:1.0092226911779039e+00
300:-4.6450072989039076e-01
301:-9.1489717941604098e-01
302:-1.2297630765345344e+00
303:-1.5839248692193499e+00
304:-1.9598532487314808e+00
305:-2.1401508662056141e+00
306:8.6969337289529525e-01
307:3.8354920287586414e-01
308:-1.9130740566509832e-01
309:-1.1594624765131256e+00
310:-7.7412075692330073e-01
311:-5.1833344216062882e-01
312:-1.9226130591450898e+00
313:-1.2310180776273021e+00
314:-7.0981946724229195e-01
315:-2.6670347878685768e-01
316:7.6323081300423368e-02
317:3.7288049684883579e-01
318:-3.8683745188743340e-01
319:-1.1800369422600979e-01
320:1.3395809016318821e-01
321:-5.2769041944247297e-01
322:-3.0479960903959735e-01
323:-6.9183600642306387e-02
324:4.2700417602865370e-01
325:3.6700478341845422e-01
326:3.3886725717118038e-01
327:2.1046085320360788e-01
328:2.3536474198111668e-01
329:2.6503046857296875e-01
330:3.2084076869255337e-02
331:1.2184027889372973e-01
332:1.8925829018396889e-01
333:3.3352573752249121e-01
334:3.2128984059820553e-01
335:3.0680670073944644e-01
336:2.7196991020253425e-01
337:2.6530624253154284e-01
338:2.6209491911982746e-01
339:2.0390173806713852e-01
340:2.0713259995983313e-01
341:2.1951539330555253e-01
342:2.8911918348348675e-01
343:2.5220444413954651e-01
344:2.2758183741688204e-01
345:2.5480803797217272e-01
346:2.3485656752208095e-01
347:2.2126762042127457e-01
348:2.2298687660651370e-01
349:2.1690570520262234e-01
350:2.1125744787602463e-01
351:2.1631269953960150e-01
352:1.9578548757979511e-01
353:1.7759913353141149e-01
354:2.1239039352100608e-01
355:1.9349222787367693e-01
356:1.7788825878763861e-01
357:2.0431059852378691e-01
358:1.8854839325105471e-01
359:1.7703372318947269e-01
360:1.6717144389527405e-01
361:1.5028793852728592e-01
362:1.3693012836985297e-01
363:1.6930242765677941e-01
364:1.5503311137501885e-01
365:1.4348765894662482e-01
366:1.7061142593563211e-01
367:1.5855481941441757e-01
368:1.4842024538938364e-01
369:1.2999377600689616e-01
370:1.1832425036647787e-01
371:1.0833592143857464e-01
372:1.3698446350706903e-01
373:1.2556896223883024e-01
374:1.1592801521132325e-01
375:1.4234247567075950e-01
376:1.3155590988751922e-01
377:1.2263725587323200e-01
378:1.0302686747737932e-01
379:9.4510055837276896e-02
380:8.7270688843108485e-02
381:1.1076914431306296e-01
382:1.0233666546736589e-01
383:9.5144255235364447e-02
384:1.1774767174487735e-01
385:1.0943391347802880e-01
386:1.0232284779263653e-01
387:8.3329153253380792e-02
388:7.6748116761873833e-02
389:7.1017955688771658e-02
390:9.1134814801419939e-02
391:8.4314034984304523e-02
392:7.8369602024704665e-02
393:9.8288902524546667e-02
394:9.1343135370653833e-02
395:8.5299186513378547e-02
396:6.7799597126843497e-02
397:6.2288474155089084e-02
398:5.7347169396708073e-02
399:7.4973965486751212e-02
400:6.9069497954112574e-02
401:6.3762795438658385e-02
402:8.1781310391420600e-02
403:7.5557881284957884e-02
404:6.9960163999475661e-02
405:5.4351670254937118e-02
406:4.8866697378169413e-02
407:4.3746631256402761e-02
408:6.0502573646960857e-02
409:5.4465665067811274e-02
410:4.8809810961323884e-02
411:6.6483012754652890e-02
412:5.9984026408873431e-02
413:5.3882242253416056e-02
414:4.0382961709189646e-02
415:3.3805657592021338e-02
416:2.7379242502603037e-02
417:4.5059062288535116e-02
418:3.7680413878080583e-02
419:3.0458053776296540e-02
420:4.9805564956314989e-02
421:4.1745857505255030e-02
422:3.3847837643770327e-02
423:2.2826596658994811e-02
424:1.3423190067160883e-02
425:3.8845486560357069e-03
426:2.5329789781940185e-02
427:1.4729227821804709e-02
428:3.9756026498629663e-03
429:2.8233884227742430e-02
430:1.6624920975336049e-02
431:4.8450661186105323e-03
432:9.3904415740756619e-01
433:-2.2143432690655718e-01
434:-1.3660602259550920e+00
435:-3.1045950172591996e-01
436:-8.5624855034826186e-01
437:-1.4304502917319246e+00
438:-5.4649420750697664e-01
439:-7.9066668045177091e-01
440:-1.1075171241848005e+00
441:-1.7909322485201706e+00
442:-1.9948135201460613e+00
443:-2.0100111039180582e+00
444:-1.6310807972466070e+00
445:-1.6604138432130180e+00
446:-1.5850369735424501e+00
447:-1.2273977598553039e+00
448:-1.2622175709320855e+00
449:-1.2763012385888097e+00
450:-1.7803096803793819e+00
451:-1.1965061581207057e+00
452:-7.6602055927798851e-01
453:-1.4406457851175787e+00
454:-1.1221322205842281e+00
455:-8.5740466979282626e-01
456:-1.2486326840277022e+00
457:-1.1233225331862950e+00
458:-9.5226648641282707e-01
459:-6.0938350347301018e-01
460:-3.9337889275523213e-01
461:-1.6305667194175108e-01
462:-7.2434899952252907e-01
463:-5.0344367760222164e-01
464:-2.9234560592662090e-01
465:-8.2142892524166100e-01
466:-5.9429471457123118e-01
467:-4.0109261448592676e-01
468:-5.6932081447317436e-02
469:5.0456281993170808e-02
470:1.3035620854269256e-01
471:-1.9611874242819774e-01
472:-8.1878674752254785e-02
473:1.4274206549272183e-02
474:-3.1520268438109761e-01
475:-1.9694841914536357e-01
476:-8.7380089767495700e-02
477:1.5117101958868220e-01
478:1.6606552167078895e-01
479:1.8951280116402106e-01
480:5.0048212005957986e-02
481:8.9020286578221280e-02
482:1.2878656349198112e-01
483:-3.8969206967184082e-02
484:1.8937323507635988e-02
485:6.9879481254320974e-02
486:1.9801895290527394e-01
487:1.9757782615726788e-01
488:1.9604548975313982e-01
489:1.4279124493444004e-01
490:1.5038157617152725e-01
491:1.5757266850584259e-01
492:8.8121975325006902e-02
493:1.0455443741136894e-01
494:1.2127963134830894e-01
495:1.9122954813743251e-01
496:1.7947441173054815e-01
497:1.7168226315495039e-01
498:1.5832783164092751e-01
499:1.5530108288798372e-01
500:1.5430613861492085e-01
501:1.2742110689619282e-01
502:1.3167703560224514e-01
503:1.3603358543677579e-01
504:1.6674887280996048e-01
505:1.5609493744703473e-01
506:1.4709177377960356e-01
507:1.5192742738290271e-01
508:1.4441785148345898e-01
509:1.3842869315394812e-01
510:1.3591402509936240e-01
511:1.3197893859676735e-01
512:1.2943391553854375e-01
513:1.4160420157334047e-01
514:1.3183100740737747e-01
515:1.2383505853884523e-01
516:1.3458910033544078e-01
517:1.2728792895295341e-01
518:1.2135907076523571e-01
519:1.2730458866885438e-01
520:1.2225935738489695e-01
521:1.1818150719306235e-01
522:1.1929620011609962e-01
523:1.1129886071035569e-01
524:1.0446600006455754e-01
525:1.1766487399675651e-01
526:1.1070385767457944e-01
527:1.0481337466514271e-01
528:1.1530960725699797e-01
529:1.0952414017925274e-01
530:1.0471526096706030e-01
531:1.0055234209232938e-01
532:9.3755796537403069e-02
533:8.7844637654978130e-02
534:1.0134079703173383e-01
535:9.5125393152340393e-02
536:8.9713437366888402e-02
537:1.0173213537561444e-01
538:9.6124875965943046e-02
539:9.1239126071665413e-02
540:8.4348545929657764e-02
541:7.8076663284520162e-02
542:7.2428738728257336e-02
543:8.6399371937472103e-02
544:8.0284779377304008e-02
545:7.4760171416432555e-02
546:8.8138770952861559e-02
547:8.2263347536208536e-02
548:7.6943935229252747e-02
549:6.8888649105671454e-02
550:6.2223881902196243e-02
551:5.5955026493766644e-02
552:7.1221615044538888e-02
553:6.4447444321226482e-02
554:5.8048603242636256e-02
555:7.3456085649549085e-02
556:6.6659616813769335e-02
557:6.0217895472377082e-02
558:5.1741986015993266e-02
559:4.3379756736263840e-02
560:3.5176403115540190e-02
561:5.3694280928256052e-02
562:4.4980086410426744e-02
563:3.6409705094784715e-02
564:5.5785611427555809e-02
565:4.6849945281850019e-02
566:3.8043029881511252e-02
567:2.9337768851007574e-02
568:1.7258090071419572e-02
569:4.9986110283804022e-03
570:3.0289810856796991e-02
571:1.7612081571332705e-02
572:4.7417658819972628e-03
573:3.1739805161545571e-02
574:1.8670065641997913e-02
575:5.3949535781823953e-03
576:-2.9424980134781681e-01
577:-5.4972142279793268e-01
578:-8.7004793436666772e-01
579:-9.3853120457192355e-03
580:-3.6719804142524637e-01
581:-7.1871643131733531e-01
582:2.1698656944650264e-02
583:-3.8265751931161002e-01
584:-7.0957012647438267e-01
585:-1.0008219424273075e+00
586:-1.0882017113967222e+00
587:-1.1758388669688360e+00
588:-8.5561393646683404e-01
589:-9.7113577777745397e-01
590:-1.0750853245861034e+00
591:-8.2247806929023493e-01
592:-9.1845636603760739e-01
593:-9.9103268717834536e-01
594:-1.1886023449284817e+00
595:-1.1037528329307793e+00
596:-9.5552922996593870e-01
597:-1.0811759576618258e+00
598:-9.8986280605440025e-01
599:-8.7412832770395499e-01
600:-9.7709962338315604e-01
601:-8.8112835738834916e-01
602:-7.9968852887464270e-01
603:-8.3233342132394605e-01
604:-6.2098392851340456e-01
605:-4.4508071510456831e-01
606:-7.8743763158911417e-01
607:-6.3169089648654964e-01
608:-4.9246900897514279e-01
609:-7.4744634008312194e-01
610:-6.3842933080836772e-01
611:-5.2701573731422646e-01
612:-3.6477868547743647e-01
613:-2.4605853099707456e-01
614:-1.3386723995196459e-01
615:-4.1977592552245252e-01
616:-3.0401982122239884e-01
617:-1.9678106945552884e-01
618:-4.6042363478626352e-01
619:-3.5132250252272407e-01
620:-2.5272721189030040e-01
621:-8.2611693619759591e-02
622:-2.0007690896379608e-02
623:3.3985387692265077e-02
624:-1.4748161451313432e-01
625:-8.4007917220873585e-02
626:-2.7044929191845396e-02
627:-2.0630395424175391e-01
628:-1.4143157680201243e-01
629:-8.0969693753998595e-02
630:5.4542453358919822e-02
631:7.6741096988091131e-02
632:9.8923024205650384e-02
633:-2.2968545486537167e-03
634:2.8845466699930673e-02
635:5.8215684407293460e-02
636:-5.2555746060669581e-02
637:-1.4803358009592453e-02
638:1.9421539370649259e-02
639:1.0762656584095284e-01
640:1.1505233769551255e-01
641:1.2199361531897875e-01
642:7.0040240978919768e-02
643:8.2084805486664983e-02
644:9.3565315053757606e-02
645:3.3721911562872506e-02
646:5.0501657464700832e-02
647:6.6637787716322158e-02
648:1.2331759015396983e-01
649:1.2197720944036924e-01
650:1.2178064268103135e-01
651:9.7686146149464706e-02
652:1.0100716428031950e-01
653:1.0475611616873863e-01
654:7.3407601332142844e-02
655:8.0765462688288894e-02
656:8.7835377605307047e-02
657:1.2070798520138544e-01
658:1.1699259565729686e-01
659:1.1407124659362640e-01
660:1.0545603574291584e-01
661:1.0422554297451354e-01
662:1.0359833922043120e-01
663:9.0140272032839100e-02
664:9.1443268092992622e-02
665:9.3158801701373431e-02
666:1.1178972538799203e-01
667:1.0692641108467177e-01
668:1.0294352842824564e-01
669:1.0252831723952439e-01
670:9.9504637559976863e-02
671:9.7124894929797034e-02
672:9.3285605041056791e-02
673:9.2002541183011877e-02
674:9.1126919776821025e-02
675:1.0033010959264249e-01
676:9.5194381961607483e-02
677:9.0725888746872457e-02
678:9.5250785922302086e-02
679:9.1137702551882208e-02
680:8.7587276250254920e-02
681:8.9975840871690471e-02
682:8.6928475422195672e-02
683:8.4339189693973457e-02
684:8.7817733288575214e-02
685:8.2198801153421000e-02
686:7.7102140249902626e-02
687:8.5119889789084080e-02
688:8.0112180565964600e-02
689:7.5544769254022953e-02
690:8.2334940596334644e-02
691:7.7972249329803497e-02
692:7.3967882653987502e-02
693:7.3698953421930738e-02
694:6.6979729657342099e-02
695:6.0595539337431253e-02
696:7.2371090991354581e-02
697:6.5933790571794257e-02
698:5.9784358579532682e-02
699:7.1056267551595387e-02
700:6.4978969027016789e-02
701:5.9142373912377033e-02
702:5.6168223095569403e-02
703:4.7196590626778140e-02
704:3.8340955200962340e-02
705:5.5447530835925539e-02
706:4.6563979824886630e-02
707:3.7767660321584171e-02
708:5.4952313618647865e-02
709:4.6272167664054731e-02
710:3.7650487681960207e-02
711:3.1991294312685249e-02
712:1.8815662969171969e-02
713:5.4295981406958819e-03
714:3.1435196646864554e-02
715:1.8274942542702090e-02
716:4.8996492134074747e-03
717:3.1422994568440832e-02
718:1.8464426483231423e-02
719:5.2862134327299626e-03
720:-4.2996441460829704e-02
721:-4.0492842777990040e-01
722:-6.8383532776366251e-01
723:-9.1461550042421555e-02
724:-3.1959779043743186e-01
725:-5.1667733657835813e-01
726:-7.6210806165887407e-02
727:-2.0544043760610189e-01
728:-3.5558176687346688e-01
729:-7.7893299438524544e-01
730:-8.6396357526108081e-01
731:-9.2349858345567204e-01
732:-6.0086025857258341e-01
733:-6.9965622474599787e-01
734:-7.7759167042907118e-01
735:-4.3948153542734092e-01
736:-5.5368912451509089e-01
737:-6.5167124530340648e-01
738:-9.0816731861456967e-01
739:-8.2582890428982669e-01
740:-7.6428846697911224e-01
741:-7.8504637742914074e-01
742:-7.4837623882800353e-01
743:-7.1508622394085330e-01
744:-6.8028409889764030e-01
745:-6.8204199049677627e-01
746:-6.6976215250986348e-01
747:-7.2428914863858207e-01
748:-6.3076361054287822e-01
749:-5.3075684463328898e-01
750:-6.8271295162266088e-01
751:-6.0153999878494968e-01
752:-5.1877040624381954e-01
753:-6.4296146740005788e-01
754:-5.7432465122849463e-01
755:-5.0897578346397321e-01
756:-4.6924014405465475e-01
757:-3.6844900547362130e-01
758:-2.7760385890923900e-01
759:-4.6893115676825203e-01
760:-3.8535387196027443e-01
761:-3.0781017153268092e-01
762:-4.6982787412494237e-01
763:-3.9989212955658959e-01
764:-3.3207756173235548e-01
765:-2.3330006898412356e-01
766:-1.6800651099583813e-01
767:-1.0663397815949269e-01
768:-2.6693441657281736e-01
769:-2.0291519409761935e-01
770:-1.4323515467908887e-01
771:-2.9403282117414448e-01
772:-2.3280859154993566e-01
773:-1.7634170288711518e-01
774:-7.7345644749567871e-02
775:-3.8017279715793099e-02
776:-2.5297164250010508e-03
777:-1.1452669573425789e-01
778:-7.4790554748088642e-02
779:-3.8216519265817227e-02
780:-1.4861249182419836e-01
781:-1.0832036096901818e-01
782:-7.0511639378661214e-02
783:1.2878036672976311e-02
784:3.2283972009539703e-02
785:5.0862106018124062e-02
786:-2.1194398985153632e-02
787:1.8775141063383520e-03
788:2.3568234031464803e-02
789:-5.2079330679898256e-02
790:-2.6191312374376285e-02
791:-2.2378790736108773e-03
792:5.8887111799983391e-02
793:6.8083931458091523e-02
794:7.6758277391959104e-02
795:3.3175051573217991e-02
796:4.4994240657906026e-02
797:5.6200885152611194e-02
798:8.6748152911659653e-03
799:2.3017998230467792e-02
800:3.6658565714065942e-02
801:7.9960636213393319e-02
802:8.2800868313068349e-02
803:8.5908248378771146e-02
804:6.0921983758127483e-02
805:6.6307814118850922e-02
806:7.1651913823059160e-02
807:4.2792127838275990e-02
808:5.0456714530987157e-02
809:5.7770691944643612e-02
810:8.6719882506939114e-02
811:8.6421838282284932e-02
812:8.6422176732669678e-02
813:7.3573239547628927e-02
814:7.4962037119100197e-02
815:7.6510928948227641e-02
816:6.0714380695549811e-02
817:6.3756758088426471e-02
818:6.6820941321580618e-02
819:8.5720854486375092e-02
820:8.3367190724946041e-02
821:8.1399846110355639e-02
822:7.6627986843774420e-02
823:7.5535712828070548e-02
824:7.4687730690222220e-02
825:6.7733632109147332e-02
826:6.7857839079330781e-02
827:6.8084310658363081e-02
828:7.9696676925190280e-02
829:7.5761713718578677e-02
830:7.2136568790000508e-02
831:7.3537626494045064e-02
832:7.0420896872600128e-02
833:6.7529267309935664e-02
834:6.7481047503099523e-02
835:6.5206071680896663e-02
836:6.3071477698238856e-02
837:6.9412587590890348e-02
838:6.3611499680612735e-02
839:5.8019076816372660e-02
840:6.5179875848282734e-02
841:5.9946608381505791e-02
842:5.4859071407438550e-02
843:6.1116605497592097e-02
844:5.6496125902009538e-02
845:5.1958442245795024e-02
846:5.3953666036475320e-02
847:4.5466783539717906e-02
848:3.7020393300599259e-02
849:5.1063868048393413e-02
850:4.3019987247668243e-02
851:3.4983597718331177e-02
852:4.8472092115048715e-02
853:4.0959051578236684e-02
854:3.3420501326564100e-02
855:3.0905675865051035e-02
856:1.8170582860258234e-02
857:5.2152409558366844e-03
858:2.9137139315203932e-02
859:1.6936850894445198e-02
860:4.5188438989093504e-03
861:2.7907886076179694e-02
862:1.6379942954965910e-02
863:4.6368115838382974e-03
864:-5.2558646524721676e-02
865:-1.6362604650465515e-01
866:-3.0452273347192865e-01
867:-3.6453763735915849e-02
868:-1.5870994773198904e-01
869:-2.8947224752731848e-01
870:-3.3976231693814717e-02
871:-1.6311037298034314e-01
872:-2.7942745887804271e-01
873:-3.8592847102753286e-01
874:-4.9677315900293750e-01
875:-5.9405614287741071e-01
876:-3.5582671563154794e-01
877:-4.4176324697504971e-01
878:-5.1865702551400250e-01
879:-3.3088396023205269e-01
880:-3.9674998512539517e-01
881:-4.5809220851056043e-01
882:-6.2688872029931419e-01
883:-6.4005234292500390e-01
884:-6.3596366089127232e-01
885:-5.4624944423740185e-01
886:-5.6298999813338391e-01
887:-5.6884924019778049e-01
888:-4.8101176054930472e-01
889:-4.9844108981574681e-01
890:-5.1136010007843147e-01
891:-6.1374161579762787e-01
892:-5.5500777843824334e-01
893:-5.0000290948962367e-01
894:-5.5687237819951452e-01
895:-5.1711094767144417e-01
896:-4.7770945901415657e-01
897:-5.0770402877882259e-01
898:-4.8319000253484562e-01
899:-4.5566689162166213e-01
900:-4.6583495147230791e-01
901:-4.0170305746409191e-01
902:-3.3863728580242319e-01
903:-4.4992193479339132e-01
904:-3.9447274363189799e-01
905:-3.4037639680128473e-01
906:-4.3320895359863248e-01
907:-3.8655623880808465e-01
908:-3.4154309033274272e-01
909:-3.0280241374351513e-01
910:-2.4492347741177292e-01
911:-1.9152126127367927e-01
912:-3.0951589914575006e-01
913:-2.5868445033743137e-01
914:-2.1094721288641743e-01
915:-3.1538712702297939e-01
916:-2.7056208910287921e-01
917:-2.2744875370372195e-01
918:-1.6466339364150800e-01
919:-1.2436423253656767e-01
920:-8.6365889522639780e-02
921:-1.8574820008906498e-01
922:-1.4641017116771493e-01
923:-1.0942418352806720e-01
924:-2.0375605086304674e-01
925:-1.6589601155701836e-01
926:-1.3043923672337895e-01
927:-6.7614922368957692e-02
928:-4.0995409266571622e-02
929:-1.6397373580663094e-02
930:-9.0958861478325603e-02
931:-6.4111081430220013e-02
932:-3.9029992009514937e-02
933:-1.1241807422920652e-01
934:-8.5369903396758165e-02
935:-5.9833636402645635e-02
936:-4.9311625109480272e-03
937:1.0673657950445902e-02
938:2.5495298007368630e-02
939:-2.6857185328414000e-02
940:-9.5922452005091762e-03
941:6.7027246130836769e-03
942:-4.7059266860627141e-02
943:-2.8467275077256042e-02
944:-1.1032043518026505e-02
945:3.2287525178321209e-02
946:4.1015652604799280e-02
947:4.9283351392012772e-02
948:1.4334406968337297e-02
949:2.4550331712224115e-02
950:3.4237313122427872e-02
951:-2.6851191846352560e-03
952:8.9248132390081676e-03
953:1.9937287634558230e-02
954:5.2767071423554614e-02
955:5.6728948869908681e-02
956:6.0629781816858130e-02
957:3.8570157314332228e-02
958:4.3980468657792454e-02
959:4.9183309416750955e-02
960:2.5056209763764728e-02
961:3.1792086821370219e-02
962:3.8174067209389317e-02
963:6.1978526920170085e-02
964:6.2773914268273612e-02
965:6.3603174610096139e-02
966:5.1220709358053396e-02
967:5.3115131934444858e-02
968:5.4950427557680405e-02
969:4.0855361793520416e-02
970:4.3817869743208990e-02
971:4.6628250792850857e-02
972:6.3319503199855437e-02
973:6.1551882587343995e-02
974:5.9874640507443622e-02
975:5.5213501838276335e-02
976:5.4322529913757890e-02
977:5.3434818793149270e-02
978:4.7424584757347392e-02
979:4.7394866825229733e-02
980:4.7281291968329621e-02
981:5.8162001776292480e-02
982:5.3926360348829784e-02
983:4.9738626676821607e-02
984:5.2148759416631003e-02
985:4.8608991192850788e-02
986:4.5060172324367438e-02
987:4.6424181851110656e-02
988:4.3603825684212540e-02
989:4.0717460472452775e-02
990:4.6455695340834595e-02
991:3.9302051378190705e-02
992:3.2103965532745610e-02
993:4.2155764113608045e-02
994:3.5680069246865197e-02
995:2.9127873246067533e-02
996:3.8212141115360726e-02
997:3.2461530445852864e-02
998:2.6602359391032934e-02
999:2.6821788628766781e-02
1000:1.5759744767865774e-02
1001:4.4859883436850915e-03
1002:2.4284880022488194e-02
1003:1.4112968145069075e-02
1004:3.7387575477094920e-03
1005:2.2234896622563019e-02
1006:1.3030887015894874e-02
1007:3.6339925326253244e-03
1008:-3.3946864550096024e-02
1009:-1.5631216122301472e-01
1010:-2.6222605848206931e-01
1011:-2.7830194494198983e-02
1012:-1.2520875330247294e-01
1013:-2.1496969090575754e-01
1014:-2.2183139051497738e-02
1015:-9.8246038353634796e-02
1016:-1.7552509465966715e-01
1017:-3.0849763600805180e-01
1018:-3.6999572797421909e-01
1019:-4.2805579694195345e-01
1020:-2.5855899917511516e-01
1021:-3.2078182865690813e-01
1022:-3.7877895265145345e-01
1023:-2.1695369752926724e-01
1024:-2.7802253601930899e-01
1025:-3.3407798653328147e-01
1026:-4.4997119242870265e-01
1027:-4.6762753982422711e-01
1028:-4.8247226855736242e-01
1029:-4.0127760914543925e-01
1030:-4.2116539674194220e-01
1031:-4.3770814242642514e-01
1032:-3.5673752479362070e-01
1033:-3.7928397835425931e-01
1034:-3.9795196675326200e-01
1035:-4.8148409735408793e-01
1036:-4.6264394349734284e-01
1037:-4.4006330097018553e-01
1038:-4.3874684358768778e-01
1039:-4.2607058940970377e-01
1040:-4.1050940934147290e-01
1041:-4.0092033869425098e-01
1042:-3.9364672599503370e-01
1043:-3.8434375018575090e-01
1044:-4.2051701357055316e-01
1045:-3.7926503736319644e-01
1046:-3.3944383431025960e-01
1047:-3.9590752798987783e-01
1048:-3.6342700333156408e-01
1049:-3.3137301388488333e-01
1050:-3.7405081113531630e-01
1051:-3.4891923035133104e-01
1052:-3.2320994683618498e-01
1053:-3.1570526878977145e-01
1054:-2.7385347408091776e-01
1055:-2.3328432637561522e-01
1056:-3.1112011198840506e-01
1057:-2.7406844549854481e-01
1058:-2.3820748913579304e-01
1059:-3.0599135044647696e-01
1060:-2.7361123143880528e-01
1061:-2.4232988568179054e-01
1062:-2.1071980388157321e-01
1063:-1.7437979915207094e-01
1064:-1.4030407418864752e-01
1065:-2.1802812648816849e-01
1066:-1.8489449069236663e-01
1067:-1.5349629168596843e-01
1068:-2.2440558184199008e-01
1069:-1.9415980458087156e-01
1070:-1.6512062113248568e-01
1071:-1.2270596897258107e-01
1072:-9.5766729913772261e-02
1073:-7.0256411514160608e-02
1074:-1.3677796942220916e-01
1075:-1.1050632494320869e-01
1076:-8.5633216908391957e-02
1077:-1.4923937107649796e-01
1078:-1.2380705645833651e-01
1079:-9.9742894069342433e-02
1080:-5.7360635777360676e-02
1081:-3.8396651543189830e-02
1082:-2.0616696603686070e-02
1083:-7.2894879937656226e-02
1084:-5.3794252407566710e-02
1085:-3.5784574196098394e-02
1086:-8.7225335612606050e-02
1087:-6.8033996021887616e-02
1088:-4.9840525773745016e-02
1089:-1.1977126718905757e-02
1090:2.8532249580754489e-04
1091:1.1909978979949942e-02
1092:-2.6809217423427390e-02
1093:-1.3727891743459661e-02
1094:-1.3544539688983741e-03
1095:-4.0583331863823173e-02
1096:-2.6822596352166144e-02
1097:-1.3839843920731938e-02
1098:1.7392176301003065e-02
1099:2.4753693708377156e-02
1100:3.1704605183019006e-02
1101:4.5933746126369029e-03
1102:1.2820217464415893e-02
1103:2.0587999557946258e-02
1104:-7.4842915872508908e-03
1105:1.5483446715844279e-03
1106:1.0073465346669162e-02
1107:3.4715676790945206e-02
1108:3.8247110298197863e-02
1109:4.1576803951519040e-02
1110:2.4095355212099004e-02
1111:2.8496649027362656e-02
1112:3.2618708432695619e-02
1113:1.4043038457577334e-02
1114:1.9256655067215668e-02
1115:2.4113542710917812e-02
1116:4.2660053989217933e-02
1117:4.3101577514831083e-02
1118:4.3416709991569657e-02
1119:3.4149075496984482e-02
1120:3.5346652838549819e-02
1121:3.6358788696660004e-02
1122:2.6068852940352990e-02
1123:2.8003821321369429e-02
1124:2.9694297784334755e-02
1125:4.2804952588436203e-02
1126:4.0406641014165808e-02
1127:3.7911559160170104e-02
1128:3.6155188210883704e-02
1129:3.4469148502719087e-02
1130:3.2637586187506742e-02
1131:2.9891857105399908e-02
1132:2.8912706527829294e-02
1133:2.7739281015895581e-02
1134:3.5646024469347247e-02
1135:3.0337560920458525e-02
1136:2.4904357486293612e-02
1137:3.0784791486474498e-02
1138:2.6247459478085631e-02
1139:2.1561846118789887e-02
1140:2.6300908659050319e-02
1141:2.2545872323635210e-02
1142:1.8619013171669811e-02
1143:2.0831664643401217e-02
1144:1.2229255386000629e-02
1145:3.4403900215406583e-03
1146:1.8007947486478205e-02
1147:1.0464160071181998e-02
1148:2.7465951184882701e-03
1149:1.5591363488670115e-02
1150:9.1206519305979967e-03
1151:2.4888414047754752e-03
1152:0.0000000000000000e+00
1153:0.0000000000000000e+00
1154:0.0000000000000000e+00
1155:0.0000000000000000e+00
1156:0.0000000000000000e+00
1157:0.0000000000000000e+00
1158:0.0000000000000000e+00
1159:0.0000000000000000e+00
1160:0.0000000000000000e+00
1161:0.0000000000000000e+00
1162:0.0000000000000000e+00
1163:0.0000000000000000e+00
1164:0.0000000000000000e+00
1165:0.0000000000000000e+00
1166:0.0000000000000000e+00
1167:0.0000000000000000e+00
1168:0.0000000000000000e+00
1169:0.0000000000000000e+00
1170:0.0000000000000000e+00
1171:0.0000000000000000e+00
1172:0.0000000000000000e+00
1173:0.0000000000000000e+00
1174:0.0000000000000000e+00
1175:0.0000000000000000e+00
1176:0.0000000000000000e+00
1177:0.0000000000000000e+00
1178:0.0000000000000000e+00
1179:0.0000000000000000e+00
1180:0.0000000000000000e+00
1181:0.0000000000000000e+00
1182:0.0000000000000000e+00
1183:0.0000000000000000e+00
1184:0.0000000000000000e+00
1185:0.0000000000000000e+00
1186:0.0000000000000000e+00
1187:0.0000000000000000e+00
1188:0.0000000000000000e+00
1189:0.0000000000000000e+00
1190:0.0000000000000000e+00
1191:0.0000000000000000e+00
1192:0.0000000000000000e+00
1193:0.0000000000000000e+00
1194:0.0000000000000000e+00
1195:0.0000000000000000e+00
1196:0.0000000000000000e+00
1197:0.0000000000000000e+00
1198:0.0000000000000000e+00
1199:0.0000000000000000e+00
1200:0.0000000000000000e+00
1201:0.0000000000000000e+00
1202:0.0000000000000000e+00
1203:0.0000000000000000e+00
1204:0.0000000000000000e+00
1205:0.0000000000000000e+00
1206:0.0000000000000000e+00
1207:0.0000000000000000e+00
1208:0.0000000000000000e+00
1209:0.0000000000000000e+00
1210:0.0000000000000000e+00
1211:0.0000000000000000e+00
1212:0.0000000000000000e+00
1213:0.0000000000000000e+00
1214:0.0000000000000000e+00
1215:0.0000000000000000e+00
1216:0.0000000000000000e+00
1217:0.0000000000000000e+00
1218:0.0000000000000000e+00
1219:0.0000000000000000e+00
1220:0.0000000000000000e+00
1221:0.0000000000000000e+00
1222:0.0000000000000000e+00
1223:0.0000000000000000e+00
1224:0.0000000000000000e+00
1225:0.0000000000000000e+00
1226:0.0000000000000000e+00
1227:0.0000000000000000e+00
1228:0.0000000000000000e+00
1229:0.0000000000000000e+00
1230:0.0000000000000000e+00
1231:0.0000000000000000e+00
1232:0.0000000000000000e+00
1233:0.0000000000000000e+00
1234:0.0000000000000000e+00
1235:0.0000000000000000e+00
1236:0.0000000000000000e+00
1237:0.0000000000000000e+00
1238:0.0000000000000000e+00
1239:0.0000000000000000e+00
1240:0.0000000000000000e+00
1241:0.0000000000000000e+00
1242:0.0000000000000000e+00
1243:0.0000000000000000e+00
1244:0.0000000000000000e+00
1245:0.0000000000000000e+00
1246:0.0000000000000000e+00
1247:0.0000000000000000e+00
1248:0.0000000000000000e+00
1249:0.0000000000000000e+00
1250:0.0000000000000000e+00
1251:0.0000000000000000e+00
1252:0.0000000000000000e+00
1253:0.0000000000000000e+00
1254:0.0000000000000000e+00
1255:0.0000000000000000e+00
1256:0.0000000000000000e+00
1257:0.0000000000000000e+00
1258:0.0000000000000000e+00
1259:0.0000000000000000e+00
1260:0.0000000000000000e+00
1261:0.0000000000000000e+00
1262:0.0000000000000000e+00
1263:0.0000000000000000e+00
1264:0.0000000000000000e+00
1265:0.0000000000000000e+00
1266:0.0000000000000000e+00
1267:0.0000000000000000e+00
1268:0.0000000000000000e+00
1269:0.0000000000000000e+00
1270:0.0000000000000000e+00
1271:0.0000000000000000e+00
1272:0.0000000000000000e+00
1273:0.0000000000000000e+00
1274:0.0000000000000000e+00
1275:0.0000000000000000e+00
1276:0.0000000000000000e+00
1277:0.0000000000000000e+00
1278:0.0000000000000000e+00
1279:0.0000000000000000e+00
1280:0.0000000000000000e+00
1281:0.0000000000000000e+00
1282:0.0000000000000000e+00
1283:0.0000000000000000e+00
1284:0.0000000000000000e+00
1285:0.0000000000000000e+00
1286:0.0000000000000000e+00
1287:0.0000000000000000e+00
1288:0.0000000000000000e+00
1289:0.0000000000000000e+00
1290:0.0000000000000000e+00
1291:0.0000000000000000e+00
1292:0.0000000000000000e+00
1293:0.0000000000000000e+00
1294:0.0000000000000000e+00
1295:0.0000000000000000e+00
1296:0.0000000000000000e+00
1297:0.0000000000000000e+00
1298:0.0000000000000000e+00
1299:0.0000000000000000e+00
1300:0.0000000000000000e+00
1301:0.0000000000000000e+00
1302:0.0000000000000000e+00
1303:0.0000000000000000e+00
1304:0.0000000000000000e+00
1305:0.0000000000000000e+00
1306:0.0000000000000000e+00
1307:0.0000000000000000e+00
1308:0.0000000000000000e+00
1309:0.0000000000000000e+00
1310:0.0000000000000000e+00
1311:0.0000000000000000e+00
1312:0.0000000000000000e+00
1313:0.0000000000000000e+00
1314:0.0000000000000000e+00
1315:0.0000000000000000e+00
1316:0.0000000000000000e+00
1317:0.0000000000000000e+00
1318:0.0000000000000000e+00
1319:0.0000000000000000e+00
1320:0.0000000000000000e+00
1321:0.0000000000000000e+00
1322:0.0000000000000000e+00
1323:0.0000000000000000e+00
1324:0.0000000000000000e+00
1325:0.0000000000000000e+00
1326:0.0000000000000000e+00
1327:0.0000000000000000e+00
1328:0.0000000000000000e+00
1329:0.0000000000000000e+00
1330:0.0000000000000000e+00
1331:0.0000000000000000e+00
1332:0.0000000000000000e+00
1333:0.0000000000000000e+00
1334:0.0000000000000000e+00
1335:0.0000000000000000e+00
1336:0.0000000000000000e+00
1337:0.0000000000000000e+00
1338:0.0000000000000000e+00
1339:0.0000000000000000e+00
1340:0.0000000000000000e+00
1341:0.0000000000000000e+00
1342:0.0000000000000000e+00
1343:0.0000000000000000e+00
1344:0.0000000000000000e+00
1345:0.0000000000000000e+00
1346:0.0000000000000000e+00
1347:0.0000000000000000e+00
1348:0.0000000000000000e+00
1349:0.0000000000000000e+00
1350:0.0000000000000000e+00
1351:0.0000000000000000e+00
1352:0.0000000000000000e+00
1353:0.0000000000000000e+00
1354:0.0000000000000000e+00
1355:0.0000000000000000e+00
1356:0.0000000000000000e+00
1357:0.0000000000000000e+00
1358:0.0000000000000000e+00
1359:0.0000000000000000e+00
1360:0.0000000000000000e+00
1361:0.0000000000000000e+00
1362:0.0000000000000000e+00
1363:0.0000000000000000e+00
1364:0.0000000000000000e+00
1365:0.0000000000000000e+00
1366:0.0000000000000000e+00
1367:0.0000000000000000e+00
1368:0.0000000000000000e+00
1369:0.0000000000000000e+00
1370:0.0000000000000000e+00
1371:0.0000000000000000e+00
1372:0.0000000000000000e+00
1373:0.0000000000000000e+00
1374:0.0000000000000000e+00
1375:0.0000000000000000e+00
1376:0.0000000000000000e+00
1377:0.0000000000000000e+00
1378:0.0000000000000000e+00
1379:0.0000000000000000e+00
1380:0.0000000000000000e+00
1381:0.0000000000000000e+00
1382:0.0000000000000000e+00
1383:0.0000000000000000e+00
1384:0.0000000000000000e+00
1385:0.0000000000000000e+00
1386:0.0000000000000000e+00
1387:0.0000000000000000e+00
1388:0.0000000000000000e+00
1389:0.0000000000000000e+00
1390:0.0000000000000000e+00
1391:0.0000000000000000e+00
1392:0.0000000000000000e+00
1393:0.0000000000000000e+00
1394:0.0000000000000000e+00
1395:0.0000000000000000e+00
1396:0.0000000000000000e+00
1397:0.0000000000000000e+00
1398:0.0000000000000000e+00
1399:0.0000000000000000e+00
1400:0.0000000000000000e+00
1401:0.0000000000000000e+00
1402:0.0000000000000000e+00
1403:0.0000000000000000e+00
1404:0.0000000000000000e+00
1405:0.0000000000000000e+00
1406:0.0000000000000000e+00
1407:0.0000000000000000e+00
1408:0.0000000000000000e+00
1409:0.0000000000000000e+00
1410:0.0000000000000000e+00
1411:0.0000000000000000e+00
1412:0.0000000000000000e+00
1413:0.0000000000000000e+00
1414:0.0000000000000000e+00
1415:0.0000000000000000e+00
1416:0.0000000000000000e+00
1417:0.0000000000000000e+00
1418:0.0000000000000000e+00
1419:0.0000000000000000e+00
1420:0.0000000000000000e+00
1421:0.0000000000000000e+00
1422:0.0000000000000000e+00
1423:0.0000000000000000e+00
1424:0.0000000000000000e+00
1425:0.0000000000000000e+00
1426:0.0000000000000000e+00
1427:0.0000000000000000e+00
1428:0.0000000000000000e+00
1429:0.0000000000000000e+00
1430:0.0000000000000000e+00
1431:0.0000000000000000e+00
1432:0.0000000000000000e+00
1433:0.0000000000000000e+00
1434:0.0000000000000000e+00
1435:0.0000000000000000e+00
1436:0.0000000000000000e+00
1437:0.0000000000000000e+00
1438:0.0000000000000000e+00
1439:0.0000000000000000e+00
1440:0.0000000000000000e+00
1441:0.0000000000000000e+00
1442:0.0000000000000000e+00
1443:0.0000000000000000e+00
1444:0.0000000000000000e+00
1445:0.0000000000000000e+00
1446:0.0000000000000000e+00
1447:0.0000000000000000e+00
1448:0.0000000000000000e+00
1449:0.0000000000000000e+00
1450:0.0000000000000000e+00
1451:0.0000000000000000e+00
1452:0.0000000000000000e+00
1453:0.0000000000000000e+00
1454:0.0000000000000000e+00
1455:0.0000000000000000e+00
1456:0.0000000000000000e+00
1457:0.0000000000000000e+00
1458:0.0000000000000000e+00
1459:0.0000000000000000e+00
1460:0.0000000000000000e+00
1461:0.0000000000000000e+00
1462:0.0000000000000000e+00
1463:0.0000000000000000e+00
1464:0.0000000000000000e+00
1465:0.0000000000000000e+00
1466:0.0000000000000000e+00
1467:0.0000000000000000e+00
1468:0.0000000000000000e+00
1469:0.0000000000000000e+00
1470:0.0000000000000000e+00
1471:0.0000000000000000e+00
1472:0.0000000000000000e+00
1473:0.0000000000000000e+00
1474:0.0000000000000000e+00
1475:0.0000000000000000e+00
1476:0.0000000000000000e+00
1477:0.0000000000000000e+00
1478:0.0000000000000000e+00
1479:0.0000000000000000e+00
1480:0.0000000000000000e+00
1481:0.0000000000000000e+00
1482:0.0000000000000000e+00
1483:0.0000000000000000e+00
1484:0.0000000000000000e+00
1485:0.0000000000000000e+00
1486:0.0000000000000000e+00
1487:0.0000000000000000e+00
1488:0.0000000000000000e+00
1489:0.0000000000000000e+00
1490:0.0000000000000000e+00
1491:0.0000000000000000e+00
1492:0.0000000000000000e+00
1493:0.0000000000000000e+00
1494:0.0000000000000000e+00
1495:0.0000000000000000e+00
1496:0.0000000000000000e+00
1497:0.0000000000000000e+00
1498:0.0000000000000000e+00
1499:0.0000000000000000e+00
1500:0.0000000000000000e+00
1501:0.0000000000000000e+00
1502:0.0000000000000000e+00
1503:0.0000000000000000e+00
1504:0.0000000000000000e+00
1505:0.0000000000000000e+00
1506:0.0000000000000000e+00
1507:0.0000000000000000e+00
1508:0.0000000000000000e+00
1509:0.0000000000000000e+00
1510:0.0000000000000000e+00
1511:0.0000000000000000e+00
1512:0.0000000000000000e+00
1513:0.0000000000000000e+00
1514:0.0000000000000000e+00
1515:0.0000000000000000e+00
1516:0.0000000000000000e+00
1517:0.0000000000000000e+00
1518:0.0000000000000000e+00
1519:0.0000000000000000e+00
1520:0.0000000000000000e+00
1521:0.0000000000000000e+00
1522:0.0000000000000000e+00
1523:0.0000000000000000e+00
1524:0.0000000000000000e+00
1525:0.0000000000000000e+00
1526:0.0000000000000000e+00
1527:0.0000000000000000e+00
1528:0.0000000000000000e+00
1529:0.0000000000000000e+00
1530:0.0000000000000000e+00
1531:0.0000000000000000e+00
1532:0.0000000000000000e+00
1533:0.0000000000000000e+00
1534:0.0000000000000000e+00
1535:0.0000000000000000e+00
1536:0.0000000000000000e+00
1537:0.0000000000000000e+00
1538:0.0000000000000000e+00
1539:0.0000000000000000e+00
1540:0.0000000000000000e+00
1541:0.0000000000000000e+00
1542:0.0000000000000000e+00
1543:0.0000000000000000e+00
1544:0.0000000000000000e+00
1545:0.0000000000000000e+00
1546:0.0000000000000000e+00
1547:0.0000000000000000e+00
1548:0.0000000000000000e+00
1549:0.0000000000000000e+00
1550:0.0000000000000000e+00
1551:0.0000000000000000e+00
1552:0.0000000000000000e+00
1553:0.0000000000000000e+00
1554:0.0000000000000000e+00
1555:0.0000000000000000e+00
1556:0.0000000000000000e+00
1557:0.0000000000000000e+00
1558:0.0000000000000000e+00
1559:0.0000000000000000e+00
1560:0.0000000000000000e+00
1561:0.0000000000000000e+00
1562:0.0000000000000000e+00
1563:0.0000000000000000e+00
1564:0.0000000000000000e+00
1565:0.0000000000000000e+00
1566:0.0000000000000000e+00
1567:0.0000000000000000e+00
1568:0.0000000000000000e+00
1569:0.0000000000000000e+00
1570:0.0000000000000000e+00
1571:0.0000000000000000e+00
1572:0.0000000000000000e+00
1573:0.0000000000000000e+00
1574:0.0000000000000000e+00
1575:0.0000000000000000e+00
1576:0.0000000000000000e+00
1577:0.0000000000000000e+00
1578:0.0000000000000000e+00
1579:0.0000000000000000e+00
1580:0.0000000000000000e+00
1581:0.0000000000000000e+00
1582:0.0000000000000000e+00
1583:0.0000000000000000e+00
1584:0.0000000000000000e+00
1585:0.0000000000000000e+00
1586:0.0000000000000000e+00
1587:0.0000000000000000e+00
1588:0.0000000000000000e+00
1589:0.0000000000000000e+00
1590:0.0000000000000000e+00
1591:0.0000000000000000e+00
1592:0.0000000000000000e+00
1593:0.0000000000000000e+00
1594:0.0000000000000000e+00
1595:0.0000000000000000e+00
1596:0.0000000000000000e+00
1597:0.0000000000000000e+00
1598:0.0000000000000000e+00
1599:0.0000000000000000e+00
1600:0.0000000000000000e+00
1601:0.0000000000000000e+00
1602:0.0000000000000000e+00
1603:0.0000000000000000e+00
1604:0.0000000000000000e+00
1605:0.0000000000000000e+00
1606:0.0000000000000000e+00
1607:0.0000000000000000e+00
1608:0.0000000000000000e+00
1609:0.0000000000000000e+00
1610:0.0000000000000000e+00
1611:0.0000000000000000e+00
1612:0.0000000000000000e+00
1613:0.0000000000000000e+00
1614:0.0000000000000000e+00
1615:0.0000000000000000e+00
1616:0.0000000000000000e+00
1617:0.0000000000000000e+00
1618:0.0000000000000000e+00
1619:0.0000000000000000e+00
1620:0.0000000000000000e+00
1621:0.0000000000000000e+00
1622:0.0000000000000000e+00
1623:0.0000000000000000e+00
1624:0.0000000000000000e+00
1625:0.0000000000000000e+00
1626:0.0000000000000000e+00
1627:0.0000000000000000e+00
1628:0.0000000000000000e+00
1629:0.0000000000000000e+00
1630:0.0000000000000000e+00
1631:0.0000000000000000e+00
1632:0.0000000000000000e+00
1633:0.0000000000000000e+00
1634:0.0000000000000000e+00
1635:0.0000000000000000e+00
1636:0.0000000000000000e+00
1637:0.0000000000000000e+00
1638:0.0000000000000000e+00
1639:0.0000000000000000e+00
1640:0.0000000000000000e+00
1641:0.0000000000000000e+00
1642:0.0000000000000000e+00
1643:0.0000000000000000e+00
1644:0.0000000000000000e+00
1645:0.0000000000000000e+00
1646:0.0000000000000000e+00
1647:0.0000000000000000e+00
1648:0.0000000000000000e+00
1649:0.0000000000000000e+00
1650:0.0000000000000000e+00
1651:0.0000000000000000e+00
1652:0.0000000000000000e+00
1653:0.0000000000000000e+00
1654:0.0000000000000000e+00
1655:0.0000000000000000e+00
1656:0.0000000000000000e+00
1657:0.0000000000000000e+00
1658:0.0000000000000000e+00
1659:0.0000000000000000e+00
1660:0.0000000000000000e+00
1661:0.0000000000000000e+00
1662:0.0000000000000000e+00
1663:0.0000000000000000e+00
1664:0.0000000000000000e+00
1665:0.0000000000000000e+00
1666:0.0000000000000000e+00
1667:0.0000000000000000e+00
1668:0.0000000000000000e+00
1669:0.0000000000000000e+00
1670:0.0000000000000000e+00
1671:0.0000000000000000e+00
1672:0.0000000000000000e+00
1673:0.0000000000000000e+00
1674:0.0000000000000000e+00
1675:0.0000000000000000e+00
1676:0.0000000000000000e+00
1677:0.0000000000000000e+00
1678:0.0000000000000000e+00
1679:0.0000000000000000e+00
1680:0.0000000000000000e+00
1681:0.0000000000000000e+00
1682:0.0000000000000000e+00
1683:0.0000000000000000e+00
1684:0.0000000000000000e+00
1685:0.0000000000000000e+00
1686:0.0000000000000000e+00
1687:0.0000000000000000e+00
1688:0.0000000000000000e+00
1689:0.0000000000000000e+00
1690:0.0000000000000000e+00
1691:0.0000000000000000e+00
1692:0.0000000000000000e+00
1693:0.0000000000000000e+00
1694:0.0000000000000000e+00
1695:0.0000000000000000e+00
1696:0.0000000000000000e+00
1697:0.0000000000000000e+00
1698:0.0000000000000000e+00
1699:0.0000000000000000e+00
1700:0.0000000000000000e+00
1701:0.0000000000000000e+00
1702:0.0000000000000000e+00
1703:0.0000000000000000e+00
1704:0.0000000000000000e+00
1705:0.0000000000000000e+00
1706:0.0000000000000000e+00
1707:0.0000000000000000e+00
1708:0.0000000000000000e+00
1709:0.0000000000000000e+00
1710:0.0000000000000000e+00
1711:0.0000000000000000e+00
1712:0.0000000000000000e+00
1713:0.0000000000000000e+00
1714:0.0000000000000000e+00
1715:0.0000000000000000e+00
1716:0.0000000000000000e+00
1717:0.0000000000000000e+00
1718:0.0000000000000000e+00
1719:0.0000000000000000e+00
1720:0.0000000000000000e+00
1721:0.0000000000000000e+00
1722:0.0000000000000000e+00
1723:0.0000000000000000e+00
1724:0.0000000000000000e+00
1725:0.0000000000000000e+00
1726:0.0000000000000000e+00
1727:0.0000000000000000e+00
1728:0.0000000000000000e+00
1729:0.0000000000000000e+00
1730:0.0000000000000000e+00
1731:0.0000000000000000e+00
1732:0.0000000000000000e+00
1733:0.0000000000000000e+00
1734:0.0000000000000000e+00
1735:0.0000000000000000e+00
1736:0.0000000000000000e+00
1737:0.0000000000000000e+00
1738:0.0000000000000000e+00
1739:0.0000000000000000e+00
1740:0.0000000000000000e+00
1741:0.0000000000000000e+00
1742:0.0000000000000000e+00
1743:0.0000000000000000e+00
1744:0.0000000000000000e+00
1745:0.0000000000000000e+00
1746:0.0000000000000000e+00
1747:0.0000000000000000e+00
1748:0.0000000000000000e+00
1749:0.0000000000000000e+00
1750:0.0000000000000000e+00
1751:0.0000000000000000e+00
1752:0.0000000000000000e+00
1753:0.0000000000000000e+00
1754:0.0000000000000000e+00
1755:0.0000000000000000e+00
1756:0.0000000000000000e+00
1757:0.0000000000000000e+00
1758:0.0000000000000000e+00
1759:0.0000000000000000e+00
1760:0.0000000000000000e+00
1761:0.0000000000000000e+00
1762:0.0000000000000000e+00
1763:0.0000000000000000e+00
1764:0.0000000000000000e+00
1765:0.0000000000000000e+00
1766:0.0000000000000000e+00
1767:0.0000000000000000e+00
1768:0.0000000000000000e+00
1769:0.0000000000000000e+00
1770:0.0000000000000000e+00
1771:0.0000000000000000e+00
1772:0.0000000000000000e+00
1773:0.0000000000000000e+00
1774:0.0000000000000000e+00
1775:0.0000000000000000e+00
1776:0.0000000000000000e+00
1777:0.0000000000000000e+00
1778:0.0000000000000000e+00
1779:0.0000000000000000e+00
1780:0.0000000000000000e+00
1781:0.0000000000000000e+00
1782:0.0000000000000000e+00
1783:0.0000000000000000e+00
1784:0.0000000000000000e+00
1785:0.0000000000000000e+00
1786:0.0000000000000000e+00
1787:0.0000000000000000e+00
1788:0.0000000000000000e+00
1789:0.0000000000000000e+00
1790:0.0000000000000000e+00
1791:0.0000000000000000e+00
1792:0.0000000000000000e+00
1793:0.0000000000000000e+00
1794:0.0000000000000000e+00
1795:0.0000000000000000e+00
1796:0.0000000000000000e+00
1797:0.0000000000000000e+00
1798:0.0000000000000000e+00
1799:0.0000000000000000e+00
1800:0.0000000000000000e+00
1801:0.0000000000000000e+00
1802:0.0000000000000000e+00
1803:0.0000000000000000e+00
1804:0.0000000000000000e+00
1805:0.0000000000000000e+00
1806:0.0000000000000000e+00
1807:0.0000000000000000e+00
1808:0.0000000000000000e+00
1809:0.0000000000000000e+00
1810:0.0000000000000000e+00
1811:0.0000000000000000e+00
1812:0.0000000000000000e+00
1813:0.0000000000000000e+00
1814:0.0000000000000000e+00
1815:0.0000000000000000e+00
1816:0.0000000000000000e+00
1817:0.0000000000000000e+00
1818:0.0000000000000000e+00
1819:0.0000000000000000e+00
1820:0.0000000000000000e+00
1821:0.0000000000000000e+00
1822:0.0000000000000000e+00
1823:0.0000000000000000e+00
1824:0.0000000000000000e+00
1825:0.0000000000000000e+00
1826:0.0000000000000000e+00
1827:0.0000000000000000e+00
1828:0.0000000000000000e+00
1829:0.0000000000000000e+00
1830:0.0000000000000000e+00
1831:0.0000000000000000e+00
1832:0.0000000000000000e+00
1833:0.0000000000000000e+00
1834:0.0000000000000000e+00
1835:0.0000000000000000e+00
1836:0.0000000000000000e+00
1837:0.0000000000000000e+00
1838:0.0000000000000000e+00
1839:0.0000000000000000e+00
1840:0.0000000000000000e+00
1841:0.0000000000000000e+00
1842:0.0000000000000000e+00
1843:0.0000000000000000e+00
1844:0.0000000000000000e+00
1845:0.0000000000000000e+00
1846:0.0000000000000000e+00
1847:0.0000000000000000e+00
1848:0.0000000000000000e+00
1849:0.0000000000000000e+00
1850:0.0000000000000000e+00
1851:0.0000000000000000e+00
1852:0.0000000000000000e+00
1853:0.0000000000000000e+00
1854:0.0000000000000000e+00
1855:0.0000000000000000e+00
1856:0.0000000000000000e+00
1857:0.0000000000000000e+00
1858:0.0000000000000000e+00
1859:0.0000000000000000e+00
1860:0.0000000000000000e+00
1861:0.0000000000000000e+00
1862:0.0000000000000000e+00
1863:0.0000000000000000e+00
1864:0.0000000000000000e+00
1865:0.0000000000000000e+00
1866:0.0000000000000000e+00
1867:0.0000000000000000e+00
1868:0.0000000000000000e+00
1869:0.0000000000000000e+00
1870:0.0000000000000000e+00
1871:0.0000000000000000e+00
1872:0.0000000000000000e+00
1873:0.0000000000000000e+00
1874:0.0000000000000000e+00
1875:0.0000000000000000e+00
1876:0.0000000000000000e+00
1877:0.0000000000000000e+00
1878:0.0000000000000000e+00
1879:0.0000000000000000e+00
1880:0.0000000000000000e+00
1881:0.0000000000000000e+00
1882:0.0000000000000000e+00
1883:0.0000000000000000e+00
1884:0.0000000000000000e+00
1885:0.0000000000000000e+00
1886:0.0000000000000000e+00
1887:0.0000000000000000e+00
1888:0.0000000000000000e+00
1889:0.0000000000000000e+00
1890:0.0000000000000000e+00
1891:0.0000000000000000e+00
1892:0.0000000000000000e+00
1893:0.0000000000000000e+00
1894:0.0000000000000000e+00
1895:0.0000000000000000e+00
1896:0.0000000000000000e+00
1897:0.0000000000000000e+00
1898:0.0000000000000000e+00
1899:0.0000000000000000e+00
1900:0.0000000000000000e+00
1901:0.0000000000000000e+00
1902:0.0000000000000000e+00
1903:0.0000000000000000e+00
1904:0.0000000000000000e+00
1905:0.0000000000000000e+00
1906:0.0000000000000000e+00
1907:0.0000000000000000e+00
1908:0.0000000000000000e+00
1909:0.0000000000000000e+00
1910:0.0000000000000000e+00
1911:0.0000000000000000e+00
1912:0.0000000000000000e+00
1913:0.0000000000000000e+00
1914:0.0000000000000000e+00
1915:0.0000000000000000e+00
1916:0.0000000000000000e+00
1917:0.0000000000000000e+00
1918:0.0000000000000000e+00
1919:0.0000000000000000e+00
1920:0.0000000000000000e+00
1921:0.0000000000000000e+00
1922:0.0000000000000000e+00
1923:0.0000000000000000e+00
1924:0.0000000000000000e+00
1925:0.0000000000000000e+00
1926:0.0000000000000000e+00
1927:0.0000000000000000e+00
1928:0.0000000000000000e+00
1929:0.0000000000000000e+00
1930:0.0000000000000000e+00
1931:0.0000000000000000e+00
1932:0.0000000000000000e+00
1933:0.0000000000000000e+00
1934:0.0000000000000000e+00
1935:0.0000000000000000e+00
1936:0.0000000000000000e+00
1937:0.0000000000000000e+00
1938:0.0000000000000000e+00
1939:0.0000000000000000e+00
1940:0.0000000000000000e+00
1941:0.0000000000000000e+00
1942:0.0000000000000000e+00
1943:0.0000000000000000e+00
1944:0.0000000000000000e+00
1945:0.0000000000000000e+00
1946:0.0000000000000000e+00
1947:0.0000000000000000e+00
1948:0.0000000000000000e+00
1949:0.0000000000000000e+00
1950:0.0000000000000000e+00
1951:0.0000000000000000e+00
1952:0.0000000000000000e+00
1953:0.0000000000000000e+00
1954:0.0000000000000000e+00
1955:0.0000000000000000e+00
1956:0.0000000000000000e+00
1957:0.0000000000000000e+00
1958:0.0000000000000000e+00
1959:0.0000000000000000e+00
1960:0.0000000000000000e+00
1961:0.0000000000000000e+00
1962:0.0000000000000000e+00
1963:0.0000000000000000e+00
1964:0.0000000000000000e+00
1965:0.0000000000000000e+00
1966:0.0000000000000000e+00
1967:0.0000000000000000e+00
1968:0.0000000000000000e+00
1969:0.0000000000000000e+00
1970:0.0000000000000000e+00
1971:0.0000000000000000e+00
1972:0.0000000000000000e+00
1973:0.0000000000000000e+00
1974:0.0000000000000000e+00
1975:0.0000000000000000e+00
1976:0.0000000000000000e+00
1977:0.0000000000000000e+00
1978:0.0000000000000000e+00
1979:0.0000000000000000e+00
1980:0.0000000000000000e+00
1981:0.0000000000000000e+00
1982:0.0000000000000000e+00
1983:0.0000000000000000e+00
1984:0.0000000000000000e+00
1985:0.0000000000000000e+00
1986:0.0000000000000000e+00
1987:0.0000000000000000e+00
1988:0.0000000000000000e+00
1989:0.0000000000000000e+00
1990:0.0000000000000000e+00
1991:0.0000000000000000e+00
1992:0.0000000000000000e+00
1993:0.0000000000000000e+00
1994:0.0000000000000000e+00
1995:0.0000000000000000e+00
1996:0.0000000000000000e+00
1997:0.0000000000000000e+00
1998:0.0000000000000000e+00
1999:0.0000000000000000e+00
2000:0.0000000000000000e+00
2001:0.0000000000000000e+00
2002:0.0000000000000000e+00
2003:0.0000000000000000e+00
2004:0.0000000000000000e+00
2005:0.0000000000000000e+00
2006:0.0000000000000000e+00
2007:0.0000000000000000e+00
2008:0.0000000000000000e+00
2009:0.0000000000000000e+00
2010:0.0000000000000000e+00
2011:0.0000000000000000e+00
2012:0.0000000000000000e+00
2013:0.0000000000000000e+00
2014:0.0000000000000000e+00
2015:0.0000000000000000e+00
2016:0.0000000000000000e+00
2017:0.0000000000000000e+00
2018:0.0000000000000000e+00
2019:0.0000000000000000e+00
2020:0.0000000000000000e+00
2021:0.0000000000000000e+00
2022:0.0000000000000000e+00
2023:0.0000000000000000e+00
2024:0.0000000000000000e+00
2025:0.0000000000000000e+00
2026:0.0000000000000000e+00
2027:0.0000000000000000e+00
2028:0.0000000000000000e+00
2029:0.0000000000000000e+00
2030:0.0000000000000000e+00
2031:0.0000000000000000e+00
2032:0.0000000000000000e+00
2033:0.0000000000000000e+00
2034:0.0000000000000000e+00
2035:0.0000000000000000e+00
2036:0.0000000000000000e+00
2037:0.0000000000000000e+00
2038:0.0000000000000000e+00
2039:0.0000000000000000e+00
2040:0.0000000000000000e+00
2041:0.0000000000000000e+00
2042:0.0000000000000000e+00
2043:0.0000000000000000e+00
2044:0.0000000000000000e+00
2045:0.0000000000000000e+00
2046:0.0000000000000000e+00
2047:0.0000000000000000e+00
2048:0.0000000000000000e+00
2049:0.0000000000000000e+00
2050:0.0000000000000000e+00
2051:0.0000000000000000e+00
2052:0.0000000000000000e+00
2053:0.0000000000000000e+00
2054:0.0000000000000000e+00
2055:0.0000000000000000e+00
2056:0.0000000000000000e+00
2057:0.0000000000000000e+00
2058:0.0000000000000000e+00
2059:0.0000000000000000e+00
2060:0.0000000000000000e+00
2061:0.0000000000000000e+00
2062:0.0000000000000000e+00
2063:0.0000000000000000e+00
2064:0.0000000000000000e+00
2065:0.0000000000000000e+00
2066:0.0000000000000000e+00
2067:0.0000000000000000e+00
2068:0.0000000000000000e+00
2069:0.0000000000000000e+00
2070:0.0000000000000000e+00
2071:0.0000000000000000e+00
2072:0.0000000000000000e+00
2073:0.0000000000000000e+00
2074:0.0000000000000000e+00
2075:0.0000000000000000e+00
2076:0.0000000000000000e+00
2077:0.0000000000000000e+00
2078:0.0000000000000000e+00
2079:0.0000000000000000e+00
2080:0.0000000000000000e+00
2081:0.0000000000000000e+00
2082:0.0000000000000000e+00
2083:0.0000000000000000e+00
2084:0.0000000000000000e+00
2085:0.0000000000000000e+00
2086:0.0000000000000000e+00
2087:0.0000000000000000e+00
2088:0.0000000000000000e+00
2089:0.0000000000000000e+00
2090:0.0000000000000000e+00
2091:0.0000000000000000e+00
2092:0.0000000000000000e+00
2093:0.0000000000000000e+00
2094:0.0000000000000000e+00
2095:0.0000000000000000e+00
2096:0.0000000000000000e+00
2097:0.0000000000000000e+00
2098:0.0000000000000000e+00
2099:0.0000000000000000e+00
2100:0.0000000000000000e+00
2101:0.0000000000000000e+00
2102:0.0000000000000000e+00
2103:0.0000000000000000e+00
2104:0.0000000000000000e+00
2105:0.0000000000000000e+00
2106:0.0000000000000000e+00
2107:0.0000000000000000e+00
2108:0.0000000000000000e+00
2109:0.0000000000000000e+00
2110:0.0000000000000000e+00
2111:0.0000000000000000e+00
2112:0.0000000000000000e+00
2113:0.0000000000000000e+00
2114:0.0000000000000000e+00
2115:0.0000000000000000e+00
2116:0.0000000000000000e+00
2117:0.0000000000000000e+00
2118:0.0000000000000000e+00
2119:0.0000000000000000e+00
2120:0.0000000000000000e+00
2121:0.0000000000000000e+00
2122:0.0000000000000000e+00
2123:0.0000000000000000e+00
2124:0.0000000000000000e+00
2125:0.0000000000000000e+00
2126:0.0000000000000000e+00
2127:0.0000000000000000e+00
2128:0.0000000000000000e+00
2129:0.0000000000000000e+00
2130:0.0000000000000000e+00
2131:0.0000000000000000e+00
2132:0.0000000000000000e+00
2133:0.0000000000000000e+00
2134:0.0000000000000000e+00
2135:0.0000000000000000e+00
2136:0.0000000000000000e+00
2137:0.0000000000000000e+00
2138:0.0000000000000000e+00
2139:0.0000000000000000e+00
2140:0.0000000000000000e+00
2141:0.0000000000000000e+00
2142:0.0000000000000000e+00
2143:0.0000000000000000e+00
2144:0.0000000000000000e+00
2145:0.0000000000000000e+00
2146:0.0000000000000000e+00
2147:0.0000000000000000e+00
2148:0.0000000000000000e+00
2149:0.0000000000000000e+00
2150:0.0000000000000000e+00
2151:0.0000000000000000e+00
2152:0.0000000000000000e+00
2153:0.0000000000000000e+00
2154:0.0000000000000000e+00
2155:0.0000000000000000e+00
2156:0.0000000000000000e+00
2157:0.0000000000000000e+00
2158:0.0000000000000000e+00
2159:0.0000000000000000e+00
2160:0.0000000000000000e+00
2161:0.0000000000000000e+00
2162:0.0000000000000000e+00
2163:0.0000000000000000e+00
2164:0.0000000000000000e+00
2165:0.0000000000000000e+00
2166:0.0000000000000000e+00
2167:0.0000000000000000e+00
2168:0.0000000000000000e+00
2169:0.0000000000000000e+00
2170:0.0000000000000000e+00
2171:0.0000000000000000e+00
2172:0.0000000000000000e+00
2173:0.0000000000000000e+00
2174:0.0000000000000000e+00
2175:0.0000000000000000e+00
2176:0.0000000000000000e+00
2177:0.0000000000000000e+00
2178:0.0000000000000000e+00
2179:0.0000000000000000e+00
2180:0.0000000000000000e+00
2181:0.0000000000000000e+00
2182:0.0000000000000000e+00
2183:0.0000000000000000e+00
2184:0.0000000000000000e+00
2185:0.0000000000000000e+00
2186:0.0000000000000000e+00
2187:0.0000000000000000e+00
2188:0.0000000000000000e+00
2189:0.0000000000000000e+00
2190:0.0000000000000000e+00
2191:0.0000000000000000e+00
2192:0.0000000000000000e+00
2193:0.0000000000000000e+00
2194:0.0000000000000000e+00
2195:0.0000000000000000e+00
2196:0.0000000000000000e+00
2197:0.0000000000000000e+00
2198:0.0000000000000000e+00
2199:0.0000000000000000e+00
2200:0.0000000000000000e+00
2201:0.0000000000000000e+00
2202:0.0000000000000000e+00
2203:0.0000000000000000e+00
2204:0.0000000000000000e+00
2205:0.0000000000000000e+00
2206:0.0000000000000000e+00
2207:0.0000000000000000e+00
2208:0.0000000000000000e+00
2209:0.0000000000000000e+00
2210:0.0000000000000000e+00
2211:0.0000000000000000e+00
2212:0.0000000000000000e+00
2213:0.0000000000000000e+00
2214:0.0000000000000000e+00
2215:0.0000000000000000e+00
2216:0.0000000000000000e+00
2217:0.0000000000000000e+00
2218:0.0000000000000000e+00
2219:0.0000000000000000e+00
2220:0.0000000000000000e+00
2221:0.0000000000000000e+00
2222:0.0000000000000000e+00
2223:0.0000000000000000e+00
2224:0.0000000000000000e+00
2225:0.0000000000000000e+00
2226:0.0000000000000000e+00
2227:0.0000000000000000e+00
2228:0.0000000000000000e+00
2229:0.0000000000000000e+00
2230:0.0000000000000000e+00
2231:0.0000000000000000e+00
2232:0.0000000000000000e+00
2233:0.0000000000000000e+00
2234:0.0000000000000000e+00
2235:0.0000000000000000e+00
2236:0.0000000000000000e+00
2237:0.0000000000000000e+00
2238:0.0000000000000000e+00
2239:0.0000000000000000e+00
2240:0.0000000000000000e+00
2241:0.0000000000000000e+00
2242:0.0000000000000000e+00
2243:0.0000000000000000e+00
2244:0.0000000000000000e+00
2245:0.0000000000000000e+00
2246:0.0000000000000000e+00
2247:0.0000000000000000e+00
2248:0.0000000000000000e+00
2249:0.0000000000000000e+00
2250:0.0000000000000000e+00
2251:0.0000000000000000e+00
2252:0.0000000000000000e+00
2253:0.0000000000000000e+00
2254:0.0000000000000000e+00
2255:0.0000000000000000e+00
2256:0.0000000000000000e+00
2257:0.0000000000000000e+00
2258:0.0000000000000000e+00
2259:0.0000000000000000e+00
2260:0.0000000000000000e+00
2261:0.0000000000000000e+00
2262:0.0000000000000000e+00
2263:0.0000000000000000e+00
2264:0.0000000000000000e+00
2265:0.0000000000000000e+00
2266:0.0000000000000000e+00
2267:0.0000000000000000e+00
2268:0.0000000000000000e+00
2269:0.0000000000000000e+00
2270:0.0000000000000000e+00
2271:0.0000000000000000e+00
2272:0.0000000000000000e+00
2273:0.0000000000000000e+00
2274:0.0000000000000000e+00
2275:0.0000000000000000e+00
2276:0.0000000000000000e+00
2277:0.0000000000000000e+00
2278:0.0000000000000000e+00
2279:0.0000000000000000e+00
2280:0.0000000000000000e+00
2281:0.0000000000000000e+00
2282:0.0000000000000000e+00
2283:0.0000000000000000e+00
2284:0.0000000000000000e+00
2285:0.0000000000000000e+00
2286:0.0000000000000000e+00
2287:0.0000000000000000e+00
2288:0.0000000000000000e+00
2289:0.0000000000000000e+00
2290:0.0000000000000000e+00
2291:0.0000000000000000e+00
2292:0.0000000000000000e+00
2293:0.0000000000000000e+00
2294:0.0000000000000000e+00
2295:0.0000000000000000e+00
2296:0.0000000000000000e+00
2297:0.0000000000000000e+00
2298:0.0000000000000000e+00
2299:0.0000000000000000e+00
2300:0.0000000000000000e+00
2301:0.0000000000000000e+00
2302:0.0000000000000000e+00
2303:0.0000000000000000e+00
2304:0.0000000000000000e+00
2305:0.0000000000000000e+00
2306:0.0000000000000000e+00
2307:0.0000000000000000e+00
2308:0.0000000000000000e+00
2309:0.0000000000000000e+00
2310:0.0000000000000000e+00
2311:0.0000000000000000e+00
2312:0.0000000000000000e+00
2313:0.0000000000000000e+00
2314:0.0000000000000000e+00
2315:0.0000000000000000e+00
2316:0.0000000000000000e+00
2317:0.0000000000000000e+00
2318:0.0000000000000000e+00
2319:0.0000000000000000e+00
2320:0.0000000000000000e+00
2321:0.0000000000000000e+00
2322:0.0000000000000000e+00
2323:0.0000000000000000e+00
2324:0.0000000000000000e+00
2325:0.0000000000000000e+00
2326:0.0000000000000000e+00
2327:0.0000000000000000e+00
2328:0.0000000000000000e+00
2329:0.0000000000000000e+00
2330:0.0000000000000000e+00
2331:0.0000000000000000e+00
2332:0.0000000000000000e+00
2333:0.0000000000000000e+00
2334:0.0000000000000000e+00
2335:0.0000000000000000e+00
2336:0.0000000000000000e+00
2337:0.0000000000000000e+00
2338:0.0000000000000000e+00
2339:0.0000000000000000e+00
2340:0.0000000000000000e+00
2341:0.0000000000000000e+00
2342:0.0000000000000000e+00
2343:0.0000000000000000e+00
2344:0.0000000000000000e+00
2345:0.0000000000000000e+00
2346:0.0000000000000000e+00
2347:0.0000000000000000e+00
2348:0.0000000000000000e+00
2349:0.0000000000000000e+00
2350:0.0000000000000000e+00
2351:0.0000000000000000e+00
2352:0.0000000000000000e+00
2353:0.0000000000000000e+00
2354:0.0000000000000000e+00
2355:0.0000000000000000e+00
2356:0.0000000000000000e+00
2357:0.0000000000000000e+00
2358:0.0000000000000000e+00
2359:0.0000000000000000e+00
2360:0.0000000000000000e+00
2361:0.0000000000000000e+00
2362:0.0000000000000000e+00
2363:0.0000000000000000e+00
2364:0.0000000000000000e+00
2365:0.0000000000000000e+00
2366:0.0000000000000000e+00
2367:0.0000000000000000e+00
2368:0.0000000000000000e+00
2369:0.0000000000000000e+00
2370:0.0000000000000000e+00
2371:0.0000000000000000e+00
2372:0.0000000000000000e+00
2373:0.0000000000000000e+00
2374:0.0000000000000000e+00
2375:0.0000000000000000e+00
2376:0.0000000000000000e+00
2377:0.0000000000000000e+00
2378:0.0000000000000000e+00
2379:0.0000000000000000e+00
2380:0.0000000000000000e+00
2381:0.0000000000000000e+00
2382:0.0000000000000000e+00
2383:0.0000000000000000e+00
2384:0.0000000000000000e+00
2385:0.0000000000000000e+00
2386:0.0000000000000000e+00
2387:0.0000000000000000e+00
2388:0.0000000000000000e+00
2389:0.0000000000000000e+00
2390:0.0000000000000000e+00
2391:0.0000000000000000e+00
2392:0.0000000000000000e+00
2393:0.0000000000000000e+00
2394:0.0000000000000000e+00
2395:0.0000000000000000e+00
2396:0.0000000000000000e+00
2397:0.0000000000000000e+00
2398:0.0000000000000000e+00
2399:0.0000000000000000e+00
2400:0.0000000000000000e+00
2401:0.0000000000000000e+00
2402:0.0000000000000000e+00
2403:0.0000000000000000e+00
2404:0.0000000000000000e+00
2405:0.0000000000000000e+00
2406:0.0000000000000000e+00
2407:0.0000000000000000e+00
2408:0.0000000000000000e+00
2409:0.0000000000000000e+00
2410:0.0000000000000000e+00
2411:0.0000000000000000e+00
2412:0.0000000000000000e+00
2413:0.0000000000000000e+00
2414:0.0000000000000000e+00
2415:0.0000000000000000e+00
2416:0.0000000000000000e+00
2417:0.0000000000000000e+00
2418:0.0000000000000000e+00
2419:0.0000000000000000e+00
2420:0.0000000000000000e+00
2421:0.0000000000000000e+00
2422:0.0000000000000000e+00
2423:0.0000000000000000e+00
2424:0.0000000000000000e+00
2425:0.0000000000000000e+00
2426:0.0000000000000000e+00
2427:0.0000000000000000e+00
2428:0.0000000000000000e+00
2429:0.0000000000000000e+00
2430:0.0000000000000000e+00
2431:0.0000000000000000e+00
2432:0.0000000000000000e+00
2433:0.0000000000000000e+00
2434:0.0000000000000000e+00
2435:0.0000000000000000e+00
2436:0.0000000000000000e+00
2437:0.0000000000000000e+00
2438:0.0000000000000000e+00
2439:0.0000000000000000e+00
2440:0.0000000000000000e+00
2441:0.0000000000000000e+00
2442:0.0000000000000000e+00
2443:0.0000000000000000e+00
2444:0.0000000000000000e+00
2445:0.0000000000000000e+00
2446:0.0000000000000000e+00
2447:0.0000000000000000e+00
2448:0.0000000000000000e+00
2449:0.0000000000000000e+00
2450:0.0000000000000000e+00
2451:0.0000000000000000e+00
2452:0.0000000000000000e+00
2453:0.0000000000000000e+00
2454:0.0000000000000000e+00
2455:0.0000000000000000e+00
2456:0.0000000000000000e+00
2457:0.0000000000000000e+00
2458:0.0000000000000000e+00
2459:0.0000000000000000e+00
2460:0.0000000000000000e+00
2461:0.0000000000000000e+00
2462:0.0000000000000000e+00
2463:0.0000000000000000e+00
2464:0.0000000000000000e+00
2465:0.0000000000000000e+00
2466:0.0000000000000000e+00
2467:0.0000000000000000e+00
2468:0.0000000000000000e+00
2469:0.0000000000000000e+00
2470:0.0000000000000000e+00
2471:0.0000000000000000e+00
2472:0.0000000000000000e+00
2473:0.0000000000000000e+00
2474:0.0000000000000000e+00
2475:0.0000000000000000e+00
2476:0.0000000000000000e+00
2477:0.0000000000000000e+00
2478:0.0000000000000000e+00
2479:0.0000000000000000e+00
2480:0.0000000000000000e+00
2481:0.0000000000000000e+00
2482:0.0000000000000000e+00
2483:0.0000000000000000e+00
2484:0.0000000000000000e+00
2485:0.0000000000000000e+00
2486:0.0000000000000000e+00
2487:0.0000000000000000e+00
2488:0.0000000000000000e+00
2489:0.0000000000000000e+00
2490:0.0000000000000000e+00
2491:0.0000000000000000e+00
2492:0.0000000000000000e+00
2493:0.0000000000000000e+00
2494:0.0000000000000000e+00
2495:0.0000000000000000e+00
2496:0.0000000000000000e+00
2497:0.0000000000000000e+00
2498:0.0000000000000000e+00
2499:0.0000000000000000e+00
2500:0.0000000000000000e+00
2501:0.0000000000000000e+00
2502:0.0000000000000000e+00
2503:0.0000000000000000e+00
2504:0.0000000000000000e+00
2505:0.0000000000000000e+00
2506:0.0000000000000000e+00
2507:0.0000000000000000e+00
2508:0.0000000000000000e+00
2509:0.0000000000000000e+00
2510:0.0000000000000000e+00
2511:0.0000000000000000e+00
2512:0.0000000000000000e+00
2513:0.0000000000000000e+00
2514:0.0000000000000000e+00
2515:0.0000000000000000e+00
2516:0.0000000000000000e+00
2517:0.0000000000000000e+00
2518:0.0000000000000000e+00
2519:0.0000000000000000e+00
2520:0.0000000000000000e+00
2521:0.0000000000000000e+00
2522:0.0000000000000000e+00
2523:0.0000000000000000e+00
2524:0.0000000000000000e+00
2525:0.0000000000000000e+00
2526:0.0000000000000000e+00
2527:0.0000000000000000e+00
2528:0.0000000000000000e+00
2529:0.0000000000000000e+00
2530:0.0000000000000000e+00
2531:0.0000000000000000e+00
2532:0.0000000000000000e+00
2533:0.0000000000000000e+00
2534:0.0000000000000000e+00
2535:0.0000000000000000e+00
2536:0.0000000000000000e+00
2537:0.0000000000000000e+00
2538:0.0000000000000000e+00
2539:0.0000000000000000e+00
2540:0.0000000000000000e+00
2541:0.0000000000000000e+00
2542:0.0000000000000000e+00
2543:0.0000000000000000e+00
2544:0.0000000000000000e+00
2545:0.0000000000000000e+00
2546:0.0000000000000000e+00
2547:0.0000000000000000e+00
2548:0.0000000000000000e+00
2549:0.0000000000000000e+00
2550:0.0000000000000000e+00
2551:0.0000000000000000e+00
2552:0.0000000000000000e+00
2553:0.0000000000000000e+00
2554:0.0000000000000000e+00
2555:0.0000000000000000e+00
2556:0.0000000000000000e+00
2557:0.0000000000000000e+00
2558:0.0000000000000000e+00
2559:0.0000000000000000e+00
2560:0.0000000000000000e+00
2561:0.0000000000000000e+00
2562:0.0000000000000000e+00
2563:0.0000000000000000e+00
2564:0.0000000000000000e+00
2565:0.0000000000000000e+00
2566:0.0000000000000000e+00
2567:0.0000000000000000e+00
2568:0.0000000000000000e+00
2569:0.0000000000000000e+00
2570:0.0000000000000000e+00
2571:0.0000000000000000e+00
2572:0.0000000000000000e+00
2573:0.0000000000000000e+00
2574:0.0000000000000000e+00
2575:0.0000000000000000e+00
2576:0.0000000000000000e+00
2577:0.0000000000000000e+00
2578:0.0000000000000000e+00
2579:0.0000000000000000e+00
2580:0.0000000000000000e+00
2581:0.0000000000000000e+00
2582:0.0000000000000000e+00
2583:0.0000000000000000e+00
2584:0.0000000000000000e+00
2585:0.0000000000000000e+00
2586:0.0000000000000000e+00
2587:0.0000000000000000e+00
2588:0.0000000000000000e+00
2589:0.0000000000000000e+00
2590:0.0000000000000000e+00
2591:0.0000000000000000e+00
2592:0.0000000000000000e+00
2593:0.0000000000000000e+00
2594:0.0000000000000000e+00
2595:0.0000000000000000e+00
2596:0.0000000000000000e+00
2597:0.0000000000000000e+00
2598:0.0000000000000000e+00
2599:0.0000000000000000e+00
2600:0.0000000000000000e+00
2601:0.0000000000000000e+00
2602:0.0000000000000000e+00
2603:0.0000000000000000e+00
2604:0.0000000000000000e+00
2605:0.0000000000000000e+00
2606:0.0000000000000000e+00
2607:0.0000000000000000e+00
2608:0.0000000000000000e+00
2609:0.0000000000000000e+00
2610:0.0000000000000000e+00
2611:0.0000000000000000e+00
2612:0.0000000000000000e+00
2613:0.0000000000000000e+00
2614:0.0000000000000000e+00
2615:0.0000000000000000e+00
2616:0.0000000000000000e+00
2617:0.0000000000000000e+00
2618:0.0000000000000000e+00
2619:0.0000000000000000e+00
2620:0.0000000000000000e+00
2621:0.0000000000000000e+00
2622:0.0000000000000000e+00
2623:0.0000000000000000e+00
2624:0.0000000000000000e+00
2625:0.0000000000000000e+00
2626:0.0000000000000000e+00
2627:0.0000000000000000e+00
2628:0.0000000000000000e+00
2629:0.0000000000000000e+00
2630:0.0000000000000000e+00
2631:0.0000000000000000e+00
2632:0.0000000000000000e+00
2633:0.0000000000000000e+00
2634:0.0000000000000000e+00
2635:0.0000000000000000e+00
2636:0.0000000000000000e+00
2637:0.0000000000000000e+00
2638:0.0000000000000000e+00
2639:0.0000000000000000e+00
2640:0.0000000000000000e+00
2641:0.0000000000000000e+00
2642:0.0000000000000000e+00
2643:0.0000000000000000e+00
2644:0.0000000000000000e+00
2645:0.0000000000000000e+00
2646:0.0000000000000000e+00
2647:0.0000000000000000e+00
2648:0.0000000000000000e+00
2649:0.0000000000000000e+00
2650:0.0000000000000000e+00
2651:0.0000000000000000e+00
2652:0.0000000000000000e+00
2653:0.0000000000000000e+00
2654:0.0000000000000000e+00
2655:0.0000000000000000e+00
2656:0.0000000000000000e+00
2657:0.0000000000000000e+00
2658:0.0000000000000000e+00
2659:0.0000000000000000e+00
2660:0.0000000000000000e+00
2661:0.0000000000000000e+00
2662:0.0000000000000000e+00
2663:0.0000000000000000e+00
2664:0.0000000000000000e+00
2665:0.0000000000000000e+00
2666:0.0000000000000000e+00
2667:0.0000000000000000e+00
2668:0.0000000000000000e+00
2669:0.0000000000000000e+00
2670:0.0000000000000000e+00
2671:0.0000000000000000e+00
2672:0.0000000000000000e+00
2673:0.0000000000000000e+00
2674:0.0000000000000000e+00
2675:0.0000000000000000e+00
2676:0.0000000000000000e+00
2677:0.0000000000000000e+00
2678:0.0000000000000000e+00
2679:0.0000000000000000e+00
2680:0.0000000000000000e+00
2681:0.0000000000000000e+00
2682:0.0000000000000000e+00
2683:0.0000000000000000e+00
2684:0.0000000000000000e+00
2685:0.0000000000000000e+00
2686:0.0000000000000000e+00
2687:0.0000000000000000e+00
2688:0.0000000000000000e+00
2689:0.0000000000000000e+00
2690:0.0000000000000000e+00
2691:0.0000000000000000e+00
2692:0.0000000000000000e+00
2693:0.0000000000000000e+00
2694:0.0000000000000000e+00
2695:0.0000000000000000e+00
2696:0.0000000000000000e+00
2697:0.0000000000000000e+00
2698:0.0000000000000000e+00
2699:0.0000000000000000e+00
2700:0.0000000000000000e+00
2701:0.0000000000000000e+00
2702:0.0000000000000000e+00
2703:0.0000000000000000e+00
2704:0.0000000000000000e+00
2705:0.0000000000000000e+00
2706:0.0000000000000000e+00
2707:0.0000000000000000e+00
2708:0.0000000000000000e+00
2709:0.0000000000000000e+00
2710:0.0000000000000000e+00
2711:0.0000000000000000e+00
2712:0.0000000000000000e+00
2713:0.0000000000000000e+00
2714:0.0000000000000000e+00
2715:0.0000000000000000e+00
2716:0.0000000000000000e+00
2717:0.0000000000000000e+00
2718:0.0000000000000000e+00
2719:0.0000000000000000e+00
2720:0.0000000000000000e+00
2721:0.0000000000000000e+00
2722:0.0000000000000000e+00
2723:0.0000000000000000e+00
2724:0.0000000000000000e+00
2725:0.0000000000000000e+00
2726:0.0000000000000000e+00
2727:0.0000000000000000e+00
2728:0.0000000000000000e+00
2729:0.0000000000000000e+00
2730:0.0000000000000000e+00
2731:0.0000000000000000e+00
2732:0.0000000000000000e+00
2733:0.0000000000000000e+00
2734:0.0000000000000000e+00
2735:0.0000000000000000e+00
2736:0.0000000000000000e+00
2737:0.0000000000000000e+00
2738:0.0000000000000000e+00
2739:0.0000000000000000e+00
2740:0.0000000000000000e+00
2741:0.0000000000000000e+00
2742:0.0000000000000000e+00
2743:0.0000000000000000e+00
2744:0.0000000000000000e+00
2745:0.0000000000000000e+00
2746:0.0000000000000000e+00
2747:0.0000000000000000e+00
2748:0.0000000000000000e+00
2749:0.0000000000000000e+00
2750:0.0000000000000000e+00
2751:0.0000000000000000e+00
2752:0.0000000000000000e+00
2753:0.0000000000000000e+00
2754:0.0000000000000000e+00
2755:0.0000000000000000e+00
2756:0.0000000000000000e+00
2757:0.0000000000000000e+00
2758:0.0000000000000000e+00
2759:0.0000000000000000e+00
2760:0.0000000000000000e+00
2761:0.0000000000000000e+00
2762:0.0000000000000000e+00
2763:0.0000000000000000e+00
2764:0.0000000000000000e+00
2765:0.0000000000000000e+00
2766:0.0000000000000000e+00
2767:0.0000000000000000e+00
2768:0.0000000000000000e+00
2769:0.0000000000000000e+00
2770:0.0000000000000000e+00
2771:0.0000000000000000e+00
2772:0.0000000000000000e+00
2773:0.0000000000000000e+00
2774:0.0000000000000000e+00
2775:0.0000000000000000e+00
2776:0.0000000000000000e+00
2777:0.0000000000000000e+00
2778:0.0000000000000000e+00
2779:0.0000000000000000e+00
2780:0.0000000000000000e+00
2781:0.0000000000000000e+00
2782:0.0000000000000000e+00
2783:0.0000000000000000e+00
2784:0.0000000000000000e+00
2785:0.0000000000000000e+00
2786:0.0000000000000000e+00
2787:0.0000000000000000e+00
2788:0.0000000000000000e+00
2789:0.0000000000000000e+00
2790:0.0000000000000000e+00
2791:0.0000000000000000e+00
2792:0.0000000000000000e+00
2793:0.0000000000000000e+00
2794:0.0000000000000000e+00
2795:0.0000000000000000e+00
2796:0.0000000000000000e+00
2797:0.0000000000000000e+00
2798:0.0000000000000000e+00
2799:0.0000000000000000e+00
2800:0.0000000000000000e+00
2801:0.0000000000000000e+00
2802:0.0000000000000000e+00
2803:0.0000000000000000e+00
2804:0.0000000000000000e+00
2805:0.0000000000000000e+00
2806:0.0000000000000000e+00
2807:0.0000000000000000e+00
2808:0.0000000000000000e+00
2809:0.0000000000000000e+00
2810:0.0000000000000000e+00
2811:0.0000000000000000e+00
2812:0.0000000000000000e+00
2813:0.0000000000000000e+00
2814:0.0000000000000000e+00
2815:0.0000000000000000e+00
2816:0.0000000000000000e+00
2817:0.0000000000000000e+00
2818:0.0000000000000000e+00
2819:0.0000000000000000e+00
2820:0.0000000000000000e+00
2821:0.0000000000000000e+00
2822:0.0000000000000000e+00
2823:0.0000000000000000e+00
2824:0.0000000000000000e+00
2825:0.0000000000000000e+00
2826:0.0000000000000000e+00
2827:0.0000000000000000e+00
2828:0.0000000000000000e+00
2829:0.0000000000000000e+00
2830:0.0000000000000000e+00
2831:0.0000000000000000e+00
2832:0.0000000000000000e+00
2833:0.0000000000000000e+00
2834:0.0000000000000000e+00
2835:0.0000000000000000e+00
2836:0.0000000000000000e+00
2837:0.0000000000000000e+00
2838:0.0000000000000000e+00
2839:0.0000000000000000e+00
2840:0.0000000000000000e+00
2841:0.0000000000000000e+00
2842:0.0000000000000000e+00
2843:0.0000000000000000e+00
2844:0.0000000000000000e+00
2845:0.0000000000000000e+00
2846:0.0000000000000000e+00
2847:0.0000000000000000e+00
2848:0.0000000000000000e+00
2849:0.0000000000000000e+00
2850:0.0000000000000000e+00
2851:0.0000000000000000e+00
2852:0.0000000000000000e+00
2853:0.0000000000000000e+00
2854:0.0000000000000000e+00
2855:0.0000000000000000e+00
2856:0.0000000000000000e+00
2857:0.0000000000000000e+00
2858:0.0000000000000000e+00
2859:0.0000000000000000e+00
2860:0.0000000000000000e+00
2861:0.0000000000000000e+00
2862:0.0000000000000000e+00
2863:0.0000000000000000e+00
2864:0.0000000000000000e+00
2865:0.0000000000000000e+00
2866:0.0000000000000000e+00
2867:0.0000000000000000e+00
2868:0.0000000000000000e+00
2869:0.0000000000000000e+00
2870:0.0000000000000000e+00
2871:0.0000000000000000e+00
2872:0.0000000000000000e+00
2873:0.0000000000000000e+00
2874:0.0000000000000000e+00
2875:0.0000000000000000e+00
2876:0.0000000000000000e+00
2877:0.0000000000000000e+00
2878:0.0000000000000000e+00
2879:0.0000000000000000e+00
2880:0.0000000000000000e+00
2881:0.0000000000000000e+00
2882:0.0000000000000000e+00
2883:0.0000000000000000e+00
2884:0.0000000000000000e+00
2885:0.0000000000000000e+00
2886:0.0000000000000000e+00
2887:0.0000000000000000e+00
2888:0.0000000000000000e+00
2889:0.0000000000000000e+00
2890:0.0000000000000000e+00
2891:0.0000000000000000e+00
2892:0.0000000000000000e+00
2893:0.0000000000000000e+00
2894:0.0000000000000000e+00
2895:0.0000000000000000e+00
2896:0.0000000000000000e+00
2897:0.0000000000000000e+00
2898:0.0000000000000000e+00
2899:0.0000000000000000e+00
2900:0.0000000000000000e+00
2901:0.0000000000000000e+00
2902:0.0000000000000000e+00
2903:0.0000000000000000e+00
2904:0.0000000000000000e+00
2905:0.0000000000000000e+00
2906:0.0000000000000000e+00
2907:0.0000000000000000e+00
2908:0.0000000000000000e+00
2909:0.0000000000000000e+00
2910:0.0000000000000000e+00
2911:0.0000000000000000e+00
2912:0.0000000000000000e+00
2913:0.0000000000000000e+00
2914:0.0000000000000000e+00
2915:0.0000000000000000e+00
2916:0.0000000000000000e+00
2917:0.0000000000000000e+00
2918:0.0000000000000000e+00
2919:0.0000000000000000e+00
2920:0.0000000000000000e+00
2921:0.0000000000000000e+00
2922:0.0000000000000000e+00
2923:0.0000000000000000e+00
2924:0.0000000000000000e+00
2925:0.0000000000000000e+00
2926:0.0000000000000000e+00
2927:0.0000000000000000e+00
2928:0.0000000000000000e+00
2929:0.0000000000000000e+00
2930:0.0000000000000000e+00
2931:0.0000000000000000e+00
2932:0.0000000000000000e+00
2933:0.0000000000000000e+00
2934:0.0000000000000000e+00
2935:0.0000000000000000e+00
2936:0.0000000000000000e+00
2937:0.0000000000000000e+00
2938:0.0000000000000000e+00
2939:0.0000000000000000e+00
2940:0.0000000000000000e+00
2941:0.0000000000000000e+00
2942:0.0000000000000000e+00
2943:0.0000000000000000e+00
2944:0.0000000000000000e+00
2945:0.0000000000000000e+00
2946:0.0000000000000000e+00
2947:0.0000000000000000e+00
2948:0.0000000000000000e+00
2949:0.0000000000000000e+00
2950:0.0000000000000000e+00
2951:0.0000000000000000e+00
2952:0.0000000000000000e+00
2953:0.0000000000000000e+00
2954:0.0000000000000000e+00
2955:0.0000000000000000e+00
2956:0.0000000000000000e+00
2957:0.0000000000000000e+00
2958:0.0000000000000000e+00
2959:0.0000000000000000e+00
2960:0.0000000000000000e+00
2961:0.0000000000000000e+00
2962:0.0000000000000000e+00
2963:0.0000000000000000e+00
2964:0.0000000000000000e+00
2965:0.0000000000000000e+00
2966:0.0000000000000000e+00
2967:0.0000000000000000e+00
2968:0.0000000000000000e+00
2969:0.0000000000000000e+00
2970:0.0000000000000000e+00
2971:0.0000000000000000e+00
2972:0.0000000000000000e+00
2973:0.0000000000000000e+00
2974:0.0000000000000000e+00
2975:0.0000000000000000e+00
2976:0.0000000000000000e+00
2977:0.0000000000000000e+00
2978:0.0000000000000000e+00
2979:0.0000000000000000e+00
2980:0.0000000000000000e+00
2981:0.0000000000000000e+00
2982:0.0000000000000000e+00
2983:0.0000000000000000e+00
2984:0.0000000000000000e+00
2985:0.0000000000000000e+00
2986:0.0000000000000000e+00
2987:0.0000000000000000e+00
2988:0.0000000000000000e+00
2989:0.0000000000000000e+00
2990:0.0000000000000000e+00
2991:0.0000000000000000e+00
2992:0.0000000000000000e+00
2993:0.0000000000000000e+00
2994:0.0000000000000000e+00
2995:0.0000000000000000e+00
2996:0.0000000000000000e+00
2997:0.0000000000000000e+00
2998:0.0000000000000000e+00
2999:0.0000000000000000e+00
3000:0.0000000000000000e+00
3001:0.0000000000000000e+00
3002:0.0000000000000000e+00
3003:0.0000000000000000e+00
3004:0.0000000000000000e+00
3005:0.0000000000000000e+00
3006:0.0000000000000000e+00
3007:0.0000000000000000e+00
3008:0.0000000000000000e+00
3009:0.0000000000000000e+00
3010:0.0000000000000000e+00
3011:0.0000000000000000e+00
3012:0.0000000000000000e+00
3013:0.0000000000000000e+00
3014:0.0000000000000000e+00
3015:0.0000000000000000e+00
3016:0.0000000000000000e+00
3017:0.0000000000000000e+00
3018:0.0000000000000000e+00
3019:0.0000000000000000e+00
3020:0.0000000000000000e+00
3021:0.0000000000000000e+00
3022:0.0000000000000000e+00
3023:0.0000000000000000e+00
3024:0.0000000000000000e+00
3025:0.0000000000000000e+00
3026:0.0000000000000000e+00
3027:0.0000000000000000e+00
3028:0.0000000000000000e+00
3029:0.0000000000000000e+00
3030:0.0000000000000000e+00
3031:0.0000000000000000e+00
3032:0.0000000000000000e+00
3033:0.0000000000000000e+00
3034:0.0000000000000000e+00
3035:0.0000000000000000e+00
3036:0.0000000000000000e+00
3037:0.0000000000000000e+00
3038:0.0000000000000000e+00
3039:0.0000000000000000e+00
3040:0.0000000000000000e+00
3041:0.0000000000000000e+00
3042:0.0000000000000000e+00
3043:0.0000000000000000e+00
3044:0.0000000000000000e+00
3045:0.0000000000000000e+00
3046:0.0000000000000000e+00
3047:0.0000000000000000e+00
3048:0.0000000000000000e+00
3049:0.0000000000000000e+00
3050:0.0000000000000000e+00
3051:0.0000000000000000e+00
3052:0.0000000000000000e+00
3053:0.0000000000000000e+00
3054:0.0000000000000000e+00
3055:0.0000000000000000e+00
3056:0.0000000000000000e+00
3057:0.0000000000000000e+00
3058:0.0000000000000000e+00
3059:0.0000000000000000e+00
3060:0.0000000000000000e+00
3061:0.0000000000000000e+00
3062:0.0000000000000000e+00
3063:0.0000000000000000e+00
3064:0.0000000000000000e+00
3065:0.0000000000000000e+00
3066:0.0000000000000000e+00
3067:0.0000000000000000e+00
3068:0.0000000000000000e+00
3069:0.0000000000000000e+00
3070:0.0000000000000000e+00
3071:0.0000000000000000e+00
3072:0.0000000000000000e+00
3073:0.0000000000000000e+00
3074:0.0000000000000000e+00
3075:0.0000000000000000e+00
3076:0.0000000000000000e+00
3077:0.0000000000000000e+00
3078:0.0000000000000000e+00
3079:0.0000000000000000e+00
3080:0.0000000000000000e+00
3081:0.0000000000000000e+00
3082:0.0000000000000000e+00
3083:0.0000000000000000e+00
3084:0.0000000000000000e+00
3085:0.0000000000000000e+00
3086:0.0000000000000000e+00
3087:0.0000000000000000e+00
3088:0.0000000000000000e+00
3089:0.0000000000000000e+00
3090:0.0000000000000000e+00
3091:0.0000000000000000e+00
3092:0.0000000000000000e+00
3093:0.0000000000000000e+00
3094:0.0000000000000000e+00
3095:0.0000000000000000e+00
3096:0.0000000000000000e+00
3097:0.0000000000000000e+00
3098:0.0000000000000000e+00
3099:0.0000000000000000e+00
3100:0.0000000000000000e+00
3101:0.0000000000000000e+00
3102:0.0000000000000000e+00
3103:0.0000000000000000e+00
3104:0.0000000000000000e+00
3105:0.0000000000000000e+00
3106:0.0000000000000000e+00
3107:0.0000000000000000e+00
3108:0.0000000000000000e+00
3109:0.0000000000000000e+00
3110:0.0000000000000000e+00
3111:0.0000000000000000e+00
3112:0.0000000000000000e+00
3113:0.0000000000000000e+00
3114:0.0000000000000000e+00
3115:0.0000000000000000e+00
3116:0.0000000000000000e+00
3117:0.0000000000000000e+00
3118:0.0000000000000000e+00
3119:0.0000000000000000e+00
3120:0.0000000000000000e+00
3121:0.0000000000000000e+00
3122:0.0000000000000000e+00
3123:0.0000000000000000e+00
3124:0.0000000000000000e+00
3125:0.0000000000000000e+00
3126:0.0000000000000000e+00
3127:0.0000000000000000e+00
3128:0.0000000000000000e+00
3129:0.0000000000000000e+00
3130:0.0000000000000000e+00
3131:0.0000000000000000e+00
3132:0.0000000000000000e+00
3133:0.0000000000000000e+00
3134:0.0000000000000000e+00
3135:0.0000000000000000e+00
3136:0.0000000000000000e+00
3137:0.0000000000000000e+00
3138:0.0000000000000000e+00
3139:0.0000000000000000e+00
3140:0.0000000000000000e+00
3141:0.0000000000000000e+00
3142:0.0000000000000000e+00
3143:0.0000000000000000e+00
3144:0.0000000000000000e+00
3145:0.0000000000000000e+00
3146:0.0000000000000000e+00
3147:0.0000000000000000e+00
3148:0.0000000000000000e+00
3149:0.0000000000000000e+00
3150:0.0000000000000000e+00
3151:0.0000000000000000e+00
3152:0.0000000000000000e+00
3153:0.0000000000000000e+00
3154:0.0000000000000000e+00
3155:0.0000000000000000e+00
3156:0.0000000000000000e+00
3157:0.0000000000000000e+00
3158:0.0000000000000000e+00
3159:0.0000000000000000e+00
3160:0.0000000000000000e+00
3161:0.0000000000000000e+00
3162:0.0000000000000000e+00
3163:0.0000000000000000e+00
3164:0.0000000000000000e+00
3165:0.0000000000000000e+00
3166:0.0000000000000000e+00
3167:0.0000000000000000e+00
3168:0.0000000000000000e+00
3169:0.0000000000000000e+00
3170:0.0000000000000000e+00
3171:0.0000000000000000e+00
3172:0.0000000000000000e+00
3173:0.0000000000000000e+00
3174:0.0000000000000000e+00
3175:0.0000000000000000e+00
3176:0.0000000000000000e+00
3177:0.0000000000000000e+00
3178:0.0000000000000000e+00
3179:0.0000000000000000e+00
3180:0.0000000000000000e+00
3181:0.0000000000000000e+00
3182:0.0000000000000000e+00
3183:0.0000000000000000e+00
3184:0.0000000000000000e+00
3185:0.0000000000000000e+00
3186:0.0000000000000000e+00
3187:0.0000000000000000e+00
3188:0.0000000000000000e+00
3189:0.0000000000000000e+00
3190:0.0000000000000000e+00
3191:0.0000000000000000e+00
3192:0.0000000000000000e+00
3193:0.0000000000000000e+00
3194:0.0000000000000000e+00
3195:0.0000000000000000e+00
3196:0.0000000000000000e+00
3197:0.0000000000000000e+00
3198:0.0000000000000000e+00
3199:0.0000000000000000e+00
3200:0.0000000000000000e+00
3201:0.0000000000000000e+00
3202:0.0000000000000000e+00
3203:0.0000000000000000e+00
3204:0.0000000000000000e+00
3205:0.0000000000000000e+00
3206:0.0000000000000000e+00
3207:0.0000000000000000e+00
3208:0.0000000000000000e+00
3209:0.0000000000000000e+00
3210:0.0000000000000000e+00
3211:0.0000000000000000e+00
3212:0.0000000000000000e+00
3213:0.0000000000000000e+00
3214:0.0000000000000000e+00
3215:0.0000000000000000e+00
3216:0.0000000000000000e+00
3217:0.0000000000000000e+00
3218:0.0000000000000000e+00
3219:0.0000000000000000e+00
3220:0.0000000000000000e+00
3221:0.0000000000000000e+00
3222:0.0000000000000000e+00
3223:0.0000000000000000e+00
3224:0.0000000000000000e+00
3225:0.0000000000000000e+00
3226:0.0000000000000000e+00
3227:0.0000000000000000e+00
3228:0.0000000000000000e+00
3229:0.0000000000000000e+00
3230:0.0000000000000000e+00
3231:0.0000000000000000e+00
3232:0.0000000000000000e+00
3233:0.0000000000000000e+00
3234:0.0000000000000000e+00
3235:0.0000000000000000e+00
3236:0.0000000000000000e+00
3237:0.0000000000000000e+00
3238:0.0000000000000000e+00
3239:0.0000000000000000e+00
3240:0.0000000000000000e+00
3241:0.0000000000000000e+00
3242:0.0000000000000000e+00
3243:0.0000000000000000e+00
3244:0.0000000000000000e+00
3245:0.0000000000000000e+00
3246:0.0000000000000000e+00
3247:0.0000000000000000e+00
3248:0.0000000000000000e+00
3249:0.0000000000000000e+00
3250:0.0000000000000000e+00
3251:0.0000000000000000e+00
3252:0.0000000000000000e+00
3253:0.0000000000000000e+00
3254:0.0000000000000000e+00
3255:0.0000000000000000e+00
3256:0.0000000000000000e+00
3257:0.0000000000000000e+00
3258:0.0000000000000000e+00
3259:0.0000000000000000e+00
3260:0.0000000000000000e+00
3261:0.0000000000000000e+00
3262:0.0000000000000000e+00
3263:0.0000000000000000e+00
3264:0.0000000000000000e+00
3265:0.0000000000000000e+00
3266:0.0000000000000000e+00
3267:0.0000000000000000e+00
3268:0.0000000000000000e+00
3269:0.0000000000000000e+00
3270:0.0000000000000000e+00
3271:0.0000000000000000e+00
3272:0.0000000000000000e+00
3273:0.0000000000000000e+00
3274:0.0000000000000000e+00
3275:0.0000000000000000e+00
3276:0.0000000000000000e+00
3277:0.0000000000000000e+00
3278:0.0000000000000000e+00
3279:0.0000000000000000e+00
3280:0.0000000000000000e+00
3281:0.0000000000000000e+00
3282:0.0000000000000000e+00
3283:0.0000000000000000e+00
3284:0.0000000000000000e+00
3285:0.0000000000000000e+00
3286:0.0000000000000000e+00
3287:0.0000000000000000e+00
3288:0.0000000000000000e+00
3289:0.0000000000000000e+00
3290:0.0000000000000000e+00
3291:0.0000000000000000e+00
3292:0.0000000000000000e+00
3293:0.0000000000000000e+00
3294:0.0000000000000000e+00
3295:0.0000000000000000e+00
3296:0.0000000000000000e+00
3297:0.0000000000000000e+00
3298:0.0000000000000000e+00
3299:0.0000000000000000e+00
3300:0.0000000000000000e+00
3301:0.0000000000000000e+00
3302:0.0000000000000000e+00
3303:0.0000000000000000e+00
3304:0.0000000000000000e+00
3305:0.0000000000000000e+00
3306:0.0000000000000000e+00
3307:0.0000000000000000e+00
3308:0.0000000000000000e+00
3309:0.0000000000000000e+00
3310:0.0000000000000000e+00
3311:0.0000000000000000e+00
3312:0.0000000000000000e+00
3313:0.0000000000000000e+00
3314:0.0000000000000000e+00
3315:0.0000000000000000e+00
3316:0.0000000000000000e+00
3317:0.0000000000000000e+00
3318:0.0000000000000000e+00
3319:0.0000000000000000e+00
3320:0.0000000000000000e+00
3321:0.0000000000000000e+00
3322:0.0000000000000000e+00
3323:0.0000000000000000e+00
3324:0.0000000000000000e+00
3325:0.0000000000000000e+00
3326:0.0000000000000000e+00
3327:0.0000000000000000e+00
3328:0.0000000000000000e+00
3329:0.0000000000000000e+00
3330:0.0000000000000000e+00
3331:0.0000000000000000e+00
3332:0.0000000000000000e+00
3333:0.0000000000000000e+00
3334:0.0000000000000000e+00
3335:0.0000000000000000e+00
3336:0.0000000000000000e+00
3337:0.0000000000000000e+00
3338:0.0000000000000000e+00
3339:0.0000000000000000e+00
3340:0.0000000000000000e+00
3341:0.0000000000000000e+00
3342:0.0000000000000000e+00
3343:0.0000000000000000e+00
3344:0.0000000000000000e+00
3345:0.0000000000000000e+00
3346:0.0000000000000000e+00
3347:0.0000000000000000e+00
3348:0.0000000000000000e+00
3349:0.0000000000000000e+00
3350:0.0000000000000000e+00
3351:0.0000000000000000e+00
3352:0.0000000000000000e+00
3353:0.0000000000000000e+00
3354:0.0000000000000000e+00
3355:0.0000000000000000e+00
3356:0.0000000000000000e+00
3357:0.0000000000000000e+00
3358:0.0000000000000000e+00
3359:0.0000000000000000e+00
3360:0.0000000000000000e+00
3361:0.0000000000000000e+00
3362:0.0000000000000000e+00
3363:0.0000000000000000e+00
3364:0.0000000000000000e+00
3365:0.0000000000000000e+00
3366:0.0000000000000000e+00
3367:0.0000000000000000e+00
3368:0.0000000000000000e+00
3369:0.0000000000000000e+00
3370:0.0000000000000000e+00
3371:0.0000000000000000e+00
3372:0.0000000000000000e+00
3373:0.0000000000000000e+00
3374:0.0000000000000000e+00
3375:0.0000000000000000e+00
3376:0.0000000000000000e+00
3377:0.0000000000000000e+00
3378:0.0000000000000000e+00
3379:0.0000000000000000e+00
3380:0.0000000000000000e+00
3381:0.0000000000000000e+00
3382:0.0000000000000000e+00
3383:0.0000000000000000e+00
3384:0.0000000000000000e+00
3385:0.0000000000000000e+00
3386:0.0000000000000000e+00
3387:0.0000000000000000e+00
3388:0.0000000000000000e+00
3389:0.0000000000000000e+00
3390:0.0000000000000000e+00
3391:0.0000000000000000e+00
3392:0.0000000000000000e+00
3393:0.0000000000000000e+00
3394:0.0000000000000000e+00
3395:0.0000000000000000e+00
3396:0.0000000000000000e+00
3397:0.0000000000000000e+00
3398:0.0000000000000000e+00
3399:0.0000000000000000e+00
3400:0.0000000000000000e+00
3401:0.0000000000000000e+00
3402:0.0000000000000000e+00
3403:0.0000000000000000e+00
3404:0.0000000000000000e+00
3405:0.0000000000000000e+00
3406:0.0000000000000000e+00
3407:0.0000000000000000e+00
3408:0.0000000000000000e+00
3409:0.0000000000000000e+00
3410:0.0000000000000000e+00
3411:0.0000000000000000e+00
3412:0.0000000000000000e+00
3413:0.0000000000000000e+00
3414:0.0000000000000000e+00
3415:0.0000000000000000e+00
3416:0.0000000000000000e+00
3417:0.0000000000000000e+00
3418:0.0000000000000000e+00
3419:0.0000000000000000e+00
3420:0.0000000000000000e+00
3421:0.0000000000000000e+00
3422:0.0000000000000000e+00
3423:0.0000000000000000e+00
3424:0.0000000000000000e+00
3425:0.0000000000000000e+00
3426:0.0000000000000000e+00
3427:0.0000000000000000e+00
3428:0.0000000000000000e+00
3429:0.0000000000000000e+00
3430:0.0000000000000000e+00
3431:0.0000000000000000e+00
3432:0.0000000000000000e+00
3433:0.0000000000000000e+00
3434:0.0000000000000000e+00
3435:0.0000000000000000e+00
3436:0.0000000000000000e+00
3437:0.0000000000000000e+00
3438:0.0000000000000000e+00
3439:0.0000000000000000e+00
3440:0.0000000000000000e+00
3441:0.0000000000000000e+00
3442:0.0000000000000000e+00
3443:0.0000000000000000e+00
3444:0.0000000000000000e+00
3445:0.0000000000000000e+00
3446:0.0000000000000000e+00
3447:0.0000000000000000e+00
3448:0.0000000000000000e+00
3449:0.0000000000000000e+00
3450:0.0000000000000000e+00
3451:0.0000000000000000e+00
3452:0.0000000000000000e+00
3453:0.0000000000000000e+00
3454:0.0000000000000000e+00
3455:0.0000000000000000e+00
