label=Stress xy
num_items=405

0:6.0006984605391986e+00
1:1.6700542655102399e+00
2:2.1533849688937043e+00
3:9.1652595412738620e+00
4:8.4357724337696673e+00
5:8.1871746577010800e+00
6:1.1143312371968129e+01
7:1.2202194018180762e+01
8:1.1959553973659032e+01
9:2.3539934160915852e+00
10:2.1088396468156745e+00
11:1.7498967793547837e+00
12:7.8236048840471533e+00
13:7.3922444184351592e+00
14:7.2106934753380347e+00
15:1.1549091383344738e+01
16:1.1129756908175217e+01
17:1.0909342174867543e+01
18:1.6973036716901313e+00
19:1.7869196677018500e+00
20:1.8395092703483549e+00
21:7.1542533758368876e+00
22:7.0165715264742170e+00
23:6.7723335094655983e+00
24:1.0762244722815998e+01
25:1.0468792517936057e+01
26:1.0111080359804021e+01
27:1.7623184937354819e+00
28:1.6574315917511004e+00
29:1.5874232693037715e+00
30:6.5768208579035887e+00
31:6.3492367971924599e+00
32:6.1749180426678372e+00
33:9.8743085579720056e+00
34:9.5592042468956517e+00
35:9.2693269760916284e+00
36:1.5483646848959143e+00
37:1.5278732912044486e+00
38:1.4852028751535022e+00
39:6.0504575687934867e+00
40:5.8538944615442059e+00
41:5.6315263582005706e+00
42:9.0681084806664050e+00
43:8.7557639670554472e+00
44:8.4351170408057019e+00
45:1.4194995670802624e+00
46:1.3666166081159614e+00
47:1.3262228083683480e+00
48:5.4720948288540381e+00
49:5.2676541956441048e+00
50:5.0749955633233936e+00
51:8.2218522630073494e+00
52:7.9131477804813484e+00
53:7.6059290646718152e+00
54:1.2763137453930540e+00
55:1.2339553616808607e+00
56:1.1850899643055837e+00
57:4.9318347330608026e+00
58:4.7269667544817189e+00
59:4.5170972578510140e+00
60:7.3951555244364595e+00
61:7.0816503054580009e+00
62:6.7688655875174089e+00
63:1.1266338027645650e+00
64:1.0820464526120899e+00
65:1.0406202576199575e+00
66:4.3668513069689556e+00
67:4.1645609516664797e+00
68:3.9641947483626190e+00
69:6.5587890137571199e+00
70:6.2492443650191278e+00
71:5.9386262468064483e+00
72:9.8645439523104006e-01
73:9.4137912634678633e-01
74:8.9491659491868980e-01
75:3.8167827217642780e+00
76:3.6119666802029089e+00
77:3.4065410884956546e+00
78:5.7272510870248308e+00
79:5.4150033555236607e+00
80:5.1035818860080919e+00
81:8.3880431328098304e-01
82:7.9490773600937592e-01
83:7.5145237947827481e-01
84:3.2581596130011050e+00
85:3.0552953983962183e+00
86:2.8524922817987859e+00
87:4.8932443086544177e+00
88:4.5826336075313616e+00
89:4.2715576917598010e+00
90:6.9599849139456715e-01
91:6.5081541885481098e-01
92:6.0576663054327096e-01
93:2.7042751902869311e+00
94:2.4999386301040873e+00
95:2.2958075210018096e+00
96:4.0606281487197524e+00
97:3.7491188768409476e+00
98:3.4377306744795320e+00
99:5.5044632906176005e-01
100:5.0654851656894984e-01
101:4.6203872975374494e-01
102:2.1478262296359407e+00
103:1.9447376790617532e+00
104:1.7412287943758056e+00
105:3.2269546625348315e+00
106:2.9159002896309216e+00
107:2.6050887162166467e+00
108:4.0594839380148073e-01
109:3.6091913348923477e-01
110:3.1709034126631286e-01
111:1.5927017870132065e+00
112:1.3883733170745316e+00
113:1.1848035417641811e+00
114:2.3946260538566611e+00
115:2.0833017222648764e+00
116:1.7711901862646191e+00
117:2.6246758162784545e-01
118:2.1733488848674209e-01
119:1.7011754419884312e-01
120:1.0372631285697764e+00
121:8.3389732211830436e-01
122:6.2820536471878785e-01
123:1.5597315842604351e+00
124:1.2489336494920549e+00
125:9.3986756088912426e-01
126:1.1373028334471513e-01
127:7.1390773022206311e-02
128:-1.0155426523418554e-02
129:4.7787774764251889e-01
130:2.7040265660355223e-01
131:4.2215324637234590e-02
132:7.3049192683828212e-01
133:4.1584199077844075e-01
134:9.2980400838804378e-02
135:1.1665380738104535e+01
136:1.3127822747717175e+01
137:1.3200871120485512e+01
138:1.2031795701727193e+01
139:1.3710187274943326e+01
140:1.4015643908295221e+01
141:1.1825480484349562e+01
142:1.3179482472356611e+01
143:1.3199508308116899e+01
144:1.2936664565764893e+01
145:1.2564618271694483e+01
146:1.2234136855210103e+01
147:1.3862714634832574e+01
148:1.3524150409245113e+01
149:1.3111868744716283e+01
150:1.2923218641818234e+01
151:1.2547310621370105e+01
152:1.2227017005813654e+01
153:1.2014183475172755e+01
154:1.1675366921089212e+01
155:1.1326785220415983e+01
156:1.2841647835727759e+01
157:1.2475608815564680e+01
158:1.2137579146992097e+01
159:1.2015687277113010e+01
160:1.1681233206827947e+01
161:1.1327869628825944e+01
162:1.1092349222693848e+01
163:1.0737363250832432e+01
164:1.0379885122554931e+01
165:1.1905502428705018e+01
166:1.1522605446132282e+01
167:1.1118061861106449e+01
168:1.1089713994071742e+01
169:1.0733778891895534e+01
170:1.0379574550994684e+01
171:1.0142376929255285e+01
172:9.7927738130655495e+00
173:9.4500320734441861e+00
174:1.0856020080165694e+01
175:1.0482270331571888e+01
176:1.0125831080481783e+01
177:1.0144095562437535e+01
178:9.7948044423747955e+00
179:9.4501118956319932e+00
180:9.2217425776824342e+00
181:8.8730944379016261e+00
182:8.5176984940020581e+00
183:9.8877490702738289e+00
184:9.5122355107701360e+00
185:9.1242899970472759e+00
186:9.2207369720953452e+00
187:8.8720158437971914e+00
188:8.5177205882360774e+00
189:8.2802842486958124e+00
190:7.9287466110599949e+00
191:7.5822771595263925e+00
192:8.8690262156269242e+00
193:8.4922900506446819e+00
194:8.1236425508639911e+00
195:8.2808512431570822e+00
196:7.9292866764627750e+00
197:7.5822217228648272e+00
198:7.3517308279077156e+00
199:7.0028821416884410e+00
200:6.6507482741818054e+00
201:7.8795481278446582e+00
202:7.5045073725513758e+00
203:7.1246287224438420e+00
204:7.3514209580697001e+00
205:7.0026281361932980e+00
206:6.6508039772073912e+00
207:6.4157435324388725e+00
208:6.0650463004712911e+00
209:5.7162306029732246e+00
210:6.8738537079659494e+00
211:6.4975778779193405e+00
212:6.1239361492099560e+00
213:6.4159079953971645e+00
214:6.0651574884501303e+00
215:5.7161869116499489e+00
216:5.4837839970017788e+00
217:5.1340898688979761e+00
218:4.7835156589748511e+00
219:5.8768032962489629e+00
220:5.5010978958594494e+00
221:5.1242074334215708e+00
222:5.4836994028526069e+00
223:5.1340459128235736e+00
224:4.7835462568477514e+00
225:4.5498672578709876e+00
226:4.1998565979072398e+00
227:3.8499782750970497e+00
228:4.8754265429827583e+00
229:4.4998005323951471e+00
230:4.1243272363440093e+00
231:4.5499099835555263e+00
232:4.1998718193987310e+00
233:3.8499588052494000e+00
234:3.6165223446796846e+00
235:3.2662847896516576e+00
236:2.9166327122907192e+00
237:3.8757820573927932e+00
238:3.4994523293601607e+00
239:3.1239369052091703e+00
240:3.6165012771874361e+00
241:3.2662806302480196e+00
242:2.9166438533181180e+00
243:2.6839403431663245e+00
244:2.3343382559340986e+00
245:1.9830715725828989e+00
246:2.8764570517615247e+00
247:2.5014156660060314e+00
248:2.1241064032777670e+00
249:2.6839498576569412e+00
250:2.3343378232059160e+00
251:1.9830649952413257e+00
252:1.7482258549397223e+00
253:1.3982105036274839e+00
254:1.0527848071914363e+00
255:1.8736742236232367e+00
256:1.4975063980988412e+00
257:1.1279503965420830e+00
258:1.7482217031028191e+00
259:1.3982123655838774e+00
260:1.0527881342311640e+00
261:8.2375832680758876e-01
262:4.7528528109488932e-01
263:1.2860034069695803e-01
264:8.8600442867110829e-01
265:5.1566972467791128e-01
266:1.5461932270756742e-01
267:8.2375855681318555e-01
268:4.7528290904111536e-01
269:1.2860469438488870e-01
270:1.1401048266847956e+01
271:1.2279290318267133e+01
272:1.1954498199981174e+01
273:9.5766722164329590e+00
274:8.4882045307939400e+00
275:8.1676131150214832e+00
276:6.5672972083283794e+00
277:1.5929082686370053e+00
278:2.0951428446105353e+00
279:1.1527520453161847e+01
280:1.1103397272148047e+01
281:1.0898188204756339e+01
282:7.8134007351204815e+00
283:7.3791470287839260e+00
284:7.1931207492118645e+00
285:2.3869405474368905e+00
286:2.1557637148298734e+00
287:1.7323217732303289e+00
288:1.0764296738557583e+01
289:1.0477977735364130e+01
290:1.0113191804672962e+01
291:7.1457155534626127e+00
292:7.0213859297425332e+00
293:6.7790320723250836e+00
294:1.6629080140543380e+00
295:1.7691454871969168e+00
296:1.8514959021814044e+00
297:9.8704913966260737e+00
298:9.5534829311453251e+00
299:9.2685248578256765e+00
300:6.5783477990092560e+00
301:6.3449734510136899e+00
302:6.1715645978785956e+00
303:1.7791260207111330e+00
304:1.6643279074754667e+00
305:1.5810854171683077e+00
306:9.0706309652651491e+00
307:8.7590795076279075e+00
308:8.4354618783962643e+00
309:6.0504758302913393e+00
310:5.8568314787857991e+00
311:5.6332188097343154e+00
312:1.5406758834525196e+00
313:1.5253012686751204e+00
314:1.4883107552070216e+00
315:8.2203683239535081e+00
316:7.9113432643240289e+00
317:7.6058181318491025e+00
318:5.4717315669156257e+00
319:5.2658564306769984e+00
320:5.0741975527309426e+00
321:1.4228160635376212e+00
322:1.3674623520121871e+00
323:1.3247958230098140e+00
324:7.3959940598854192e+00
325:7.0825800696369265e+00
326:6.7688711327513573e+00
327:4.9321971550196837e+00
328:4.7279846645315828e+00
329:4.5174432003703044e+00
330:1.2749866294150649e+00
331:1.2337445807701697e+00
332:1.1857002951260305e+00
333:6.5583308506036442e+00
334:6.2487907496267399e+00
335:5.9386569848801338e+00
336:4.3665837649052541e+00
337:4.1640201579584240e+00
338:3.9640608009670792e+00
339:1.1271127115102684e+00
340:1.0820576297015925e+00
341:1.0403813867693570e+00
342:5.7274937060343145e+00
343:5.4152123818476188e+00
344:5.1035469387849668e+00
345:3.8169542588266934e+00
346:3.6122381021293450e+00
347:3.4065840888353645e+00
348:9.8630879258140303e-01
349:9.4141068067159717e-01
350:8.9499750500594655e-01
351:4.8931200590920652e+00
352:4.5825438812863020e+00
353:4.2715861974462737e+00
354:3.2580591917030501e+00
355:3.0551664333594246e+00
356:2.8524838467862992e+00
357:8.3883191728099560e-01
358:7.9487805450314697e-01
359:7.5143057438656047e-01
360:4.0606903734997086e+00
361:3.7491546176128541e+00
362:3.4377111585034981e+00
363:2.7043299837153576e+00
364:2.4999963687976043e+00
365:2.2958051233116601e+00
366:6.9600299498320251e-01
367:6.5083246592574417e-01
368:6.0576735219763300e-01
369:3.2269244489813165e+00
370:2.9158874364009768e+00
371:2.6051002692784433e+00
372:2.1477980977628182e+00
373:1.9447138813391516e+00
374:1.7412332522542786e+00
375:5.5043638304924880e-01
376:5.0654166069812712e-01
377:4.6204514810640940e-01
378:2.3946393798466303e+00
379:2.0833042069154928e+00
380:1.7711827811923821e+00
381:1.5927150958464851e+00
382:1.3883807854243209e+00
383:1.1847984928730699e+00
384:4.0595780323658986e-01
385:3.6092113808518572e-01
386:3.1708347737601372e-01
387:1.5597257606406734e+00
388:1.2489349885473067e+00
389:9.3987168098748608e-01
390:1.0372566892671298e+00
391:8.3389692185563757e-01
392:6.2820954284219177e-01
393:2.6246139066192475e-01
394:2.1733651919827141e-01
395:1.7012337589055845e-01
396:7.3049252557960687e-01
397:4.1583899199731933e-01
398:9.2985585171075080e-02
399:4.7787927167290689e-01
400:2.7039950436549137e-01
401:4.2218311089733299e-02
402:1.1373237591094133e-01
403:7.1386487739418455e-02
404:-1.0154670973339100e-02
