x	y	stress_yy
 1.000000000000000e+000	 0.000000000000000e+000	 3.149884153355341e+001
 9.999607948607566e-001	 8.854871081647989e-003	 3.148662736891475e+001
 9.998426119589265e-001	 1.774123199891274e-002	 3.146330751452840e+001
 9.996446072361988e-001	 2.665819249913576e-002	 3.142874950647807e+001
 9.993659466433188e-001	 3.560484091004573e-002	 3.138282366806367e+001
 9.990058067093817e-001	 4.458024417780557e-002	 3.132540329410928e+001
 9.985633751160035e-001	 5.358344792087626e-002	 3.125636483783310e+001
 9.980378512759272e-001	 6.261347650004139e-002	 3.117558810006921e+001
 9.974284469156016e-001	 7.166933310492561e-002	 3.108295642061783e+001
 9.967343866612564e-001	 8.074999985732718e-002	 3.097835687148714e+001
 9.959549086279672e-001	 8.985443793167208e-002	 3.086168045177556e+001
 1.025000000000000e+000	 0.000000000000000e+000	 2.948662087328937e+001
 1.024959814732242e+000	 9.076242858200138e-003	 2.948291144194470e+001
 1.024838677257766e+000	 1.818476279791112e-002	 2.946864824279999e+001
 1.024635722416802e+000	 2.732464731015810e-002	 2.944367684330977e+001
 1.024350095308862e+000	 3.649496193086309e-002	 2.940784490921425e+001
 1.023980951876270e+000	 4.569475027984318e-002	 2.936100239855637e+001
 1.023527459492681e+000	 5.492303411602097e-002	 2.930300175936517e+001
 1.022988797556156e+000	 6.417881340919977e-002	 2.923369813080907e+001
 1.022364158086304e+000	 7.346106642874495e-002	 2.915294954760680e+001
 1.021652746325009e+000	 8.276874984949986e-002	 2.906061714746851e+001
 1.020853781340225e+000	 9.210079887525120e-002	 2.895656538132311e+001
 1.050000000000000e+000	 0.000000000000000e+000	 2.770488098078653e+001
 1.049958834603733e+000	 9.297614634757053e-003	 2.770790453733527e+001
 1.049834742556624e+000	 1.862829359692863e-002	 2.770090844051846e+001
 1.049626837597447e+000	 2.799110212122364e-002	 2.768371658586248e+001
 1.049334243974483e+000	 3.738508295175749e-002	 2.765615429278691e+001
 1.048956097043280e+000	 4.680925638200162e-002	 2.761804850857817e+001
 1.048491543869534e+000	 5.626262031134031e-002	 2.756922801712913e+001
 1.047939743836623e+000	 6.574415031859668e-002	 2.750952365226059e+001
 1.047299869257318e+000	 7.525279975287690e-002	 2.743876851542338e+001
 1.046571105989159e+000	 8.478749984206949e-002	 2.735679819756174e+001
 1.045752654052973e+000	 9.434715981932203e-002	 2.726345100490150e+001
 1.075000000000000e+000	 0.000000000000000e+000	 2.613754812741114e+001
 1.074957854475228e+000	 9.518986411318733e-003	 2.614570810487209e+001
 1.074830807855502e+000	 1.907182439596528e-002	 2.614436599972148e+001
 1.074617952778136e+000	 2.865755693233238e-002	 2.613332427502072e+001
 1.074318392640180e+000	 3.827520397272900e-002	 2.611238615625401e+001
 1.073931242210410e+000	 4.792376248428091e-002	 2.608135584552202e+001
 1.073455628246560e+000	 5.760220650683429e-002	 2.604003874159838e+001
 1.072890690117328e+000	 6.730948722823207e-002	 2.598824166567632e+001
 1.072235580428645e+000	 7.704453307732143e-002	 2.592577309261443e+001
 1.071489465653705e+000	 8.680624983503611e-002	 2.585244338747052e+001
 1.070651526766214e+000	 9.659352076388458e-002	 2.576806504709277e+001
 1.100000000000000e+000	 0.000000000000000e+000	 2.477000983258403e+001
 1.099956874346727e+000	 9.740358187885179e-003	 2.478187063208238e+001
 1.099826873154398e+000	 1.951535519502105e-002	 2.478473152738766e+001
 1.099609067958868e+000	 2.932401174348432e-002	 2.477837373549602e+001
 1.099302541305955e+000	 3.916532499377757e-002	 2.476257858579091e+001
 1.098906387377661e+000	 4.903826858668107e-002	 2.473712774473589e+001
 1.098419712623762e+000	 5.894179270250287e-002	 2.470180344752535e+001
 1.097841636398272e+000	 6.887482413810600e-002	 2.465638873653277e+001
 1.097171291600285e+000	 7.883626640207855e-002	 2.460066770637400e+001
 1.096407825318649e+000	 8.882499982839967e-002	 2.453442575538303e+001
 1.095550399479947e+000	 9.883988170893882e-002	 2.445744984327385e+001
 1.125000000000000e+000	 0.000000000000000e+000	 2.358895250288613e+001
 1.124955894218232e+000	 9.961729964456389e-003	 2.360322686226402e+001
 1.124822938453314e+000	 1.995888599409595e-002	 2.360898915488807e+001
 1.124600183139643e+000	 2.999046655467946e-002	 2.360599948873562e+001
 1.124286689971807e+000	 4.005544601490321e-002	 2.359401744419872e+001
 1.123881532545033e+000	 5.015277468920207e-002	 2.357280230956920e+001
 1.123383797001138e+000	 6.028137889834612e-002	 2.354211332457812e+001
 1.122792582679455e+000	 7.044016104821843e-002	 2.350170993183992e+001
 1.122107002772237e+000	 8.062799972714825e-002	 2.345135203602810e+001
 1.121326184983989e+000	 9.084374982216013e-002	 2.339080027058600e+001
 1.120449272194170e+000	 1.010862426544848e-001	 2.331981627175185e+001
 1.150000000000000e+000	 0.000000000000000e+000	 2.258222024867164e+001
 1.149954914089741e+000	 1.018310174103236e-002	 2.259775798407616e+001
 1.149819003752249e+000	 2.040241679318999e-002	 2.260525811142233e+001
 1.149591298320462e+000	 3.065692136591780e-002	 2.260445972066923e+001
 1.149270838637736e+000	 4.094556703610593e-002	 2.259510074301073e+001
 1.148856677712526e+000	 5.126728079184391e-002	 2.257691819746033e+001
 1.148347881378689e+000	 6.162096509436398e-002	 2.254964844658945e+001
 1.147743528960876e+000	 7.200549795856938e-002	 2.251302746127988e+001
 1.147042713944502e+000	 8.241973305253056e-002	 2.246679109432568e+001
 1.146244544649727e+000	 9.286249981631761e-002	 2.241067536269411e+001
 1.145348144908886e+000	 1.033326036005224e-001	 2.234441673822921e+001
 1.175000000000000e+000	 0.000000000000000e+000	 2.173869172409250e+001
 1.174953933961256e+000	 1.040447351761311e-002	 2.175446966926702e+001
 1.174815069051203e+000	 2.084594759230317e-002	 2.176267196893085e+001
 1.174582413501324e+000	 3.132337617719934e-002	 2.176301674293474e+001
 1.174254987303742e+000	 4.183568805738572e-002	 2.175522032879815e+001
 1.173831822880139e+000	 5.238178689460660e-002	 2.173899753971504e+001
 1.173311965756415e+000	 6.296055129055647e-002	 2.171406193281663e+001
 1.172694475242536e+000	 7.357083486915882e-002	 2.168012608756155e+001
 1.171978425117079e+000	 8.421146637822544e-002	 2.163690189409654e+001
 1.171162904315861e+000	 9.488124981087202e-002	 2.158410085140329e+001
 1.170247017624094e+000	 1.055789645470518e-001	 2.152143437501787e+001
 1.200000000000000e+000	 0.000000000000000e+000	 2.104817236211958e+001
 1.199952953832774e+000	 1.062584529419862e-002	 2.106328535568569e+001
 1.199811134350176e+000	 2.128947839143546e-002	 2.107127298139303e+001
 1.199573528682229e+000	 3.198983098852408e-002	 2.107183239645072e+001
 1.199239135969825e+000	 4.272580907874259e-002	 2.106465835868740e+001
 1.198806968047874e+000	 5.349629299749016e-002	 2.104944349631246e+001
 1.198276050134315e+000	 6.430013748692358e-002	 2.102587858904370e+001
 1.197645421524434e+000	 7.513617177998677e-002	 2.099365286048104e+001
 1.196914136289970e+000	 8.600319970423291e-002	 2.095245428157705e+001
 1.196081263982393e+000	 9.689999980582341e-002	 2.090196988502461e+001
 1.195145890339793e+000	 1.078253254940729e-001	 2.084188609035162e+001
 1.225000000000000e+000	 0.000000000000000e+000	 2.050129980527562e+001
 1.224951973704298e+000	 1.084721707078889e-002	 2.051495259768030e+001
 1.224807199649169e+000	 2.173300919058689e-002	 2.052191936217047e+001
 1.224564643863177e+000	 3.265628579989203e-002	 2.052187626271463e+001
 1.224223284635985e+000	 4.361593010017652e-002	 2.051449645234472e+001
 1.223782113215730e+000	 5.461079910049457e-002	 2.049945035502056e+001
 1.223240134512389e+000	 6.563972368346535e-002	 2.047640595997710e+001
 1.222596367806571e+000	 7.670150869105327e-002	 2.044502912844393e+001
 1.221849847463172e+000	 8.779493303055298e-002	 2.040498391259360e+001
 1.220999623649321e+000	 9.891874980117173e-002	 2.035593288654468e+001
 1.220044763055984e+000	 1.100716864415856e-001	 2.029753748921112e+001
 1.250000000000000e+000	 0.000000000000000e+000	 2.008946068468026e+001
 1.249950993575827e+000	 1.106858884738393e-002	 2.010096065444829e+001
 1.249803264948180e+000	 2.217653998975746e-002	 2.010620368806907e+001
 1.249555759044169e+000	 3.332274061130316e-002	 2.010484488974524e+001
 1.249207433302221e+000	 4.450605112168753e-002	 2.009653574572256e+001
 1.248757258383706e+000	 5.572530520361980e-002	 2.008092441861760e+001
 1.248204218890639e+000	 6.697930988018173e-002	 2.005765605535403e+001
 1.247547314088946e+000	 7.826684560235826e-002	 2.002637310860483e+001
 1.246785558636687e+000	 8.958666635718562e-002	 1.998671567160428e+001
 1.245917983316646e+000	 1.009374997969170e-001	 1.993832182615860e+001
 1.244943635772666e+000	 1.123180473895901e-001	 1.988082800364975e+001
 9.959549086279672e-001	 8.985443793167208e-002	 3.086168045177556e+001
 9.950892650105072e-001	 9.898158769347730e-002	 3.074245405998072e+001
 9.941367226775285e-001	 1.081303688543235e-001	 3.061073495947450e+001
 9.930965637671553e-001	 1.172996806447691e-001	 3.046649307426623e+001
 9.919680862820067e-001	 1.264884020066531e-001	 3.030970454483710e+001
 9.907506046851590e-001	 1.356953918032302e-001	 3.014035189466615e+001
 9.894434504957538e-001	 1.449194890479376e-001	 2.995842419403254e+001
 9.880459728836375e-001	 1.541595131519814e-001	 2.976391722073473e+001
 9.865575392624050e-001	 1.634142641909074e-001	 2.955683361736024e+001
 9.849775358802030e-001	 1.726825231903043e-001	 2.933718304473274e+001
 9.833053684076398e-001	 1.819630524307584e-001	 2.910498233115719e+001
 1.020853781340225e+000	 9.210079887525120e-002	 2.895656538132311e+001
 1.019966496631707e+000	 1.014561273807282e-001	 2.885692296621702e+001
 1.018990140739942e+000	 1.108336280703761e-001	 2.874517702862456e+001
 1.017923977856507e+000	 1.202321726555192e-001	 2.862126750749793e+001
 1.016767288434090e+000	 1.296506120515437e-001	 2.848513993116452e+001
 1.015519369797345e+000	 1.390877765932872e-001	 2.833674560456444e+001
 1.014179536753393e+000	 1.485424762695243e-001	 2.817604179499282e+001
 1.012747122201329e+000	 1.580135009767427e-001	 2.800299191598194e+001
 1.011221477740089e+000	 1.674996207923785e-001	 2.781756570894741e+001
 1.009601974274025e+000	 1.769995862676611e-001	 2.761973942221360e+001
 1.007888002615511e+000	 1.865121287401930e-001	 2.740949598702377e+001
 1.045752654052973e+000	 9.434715981932203e-002	 2.726345100490150e+001
 1.044843728253489e+000	 1.039306670685564e-001	 2.718115582261995e+001
 1.043843558803008e+000	 1.135368872870630e-001	 2.708712807133033e+001
 1.042751391946564e+000	 1.231646646669310e-001	 2.698127823936180e+001
 1.041566490586910e+000	 1.328128220970941e-001	 2.686352179752550e+001
 1.040288134910280e+000	 1.424801613839724e-001	 2.673377940722630e+001
 1.038915623011773e+000	 1.521654634916777e-001	 2.659197712829268e+001
 1.037448271519734e+000	 1.618674888019788e-001	 2.643804662615179e+001
 1.035885416218438e+000	 1.715849773942018e-001	 2.627192537796442e+001
 1.034226412668443e+000	 1.813166493452169e-001	 2.609355687732147e+001
 1.032470636823890e+000	 1.910612050496422e-001	 2.590289083709298e+001
 1.070651526766214e+000	 9.659352076388458e-002	 2.576806504709277e+001
 1.069720959875853e+000	 1.064052067569619e-001	 2.570108647939991e+001
 1.068696976866728e+000	 1.162401465043839e-001	 2.562272896882437e+001
 1.067578806037326e+000	 1.260971566790045e-001	 2.553287400936778e+001
 1.066365692740468e+000	 1.359750321433043e-001	 2.543140748922187e+001
 1.065056900023964e+000	 1.458725461752858e-001	 2.531821991995699e+001
 1.063651709270896e+000	 1.557884507143977e-001	 2.519320666662778e+001
 1.062149420838853e+000	 1.657214766276896e-001	 2.505626817841546e+001
 1.060549354697454e+000	 1.756703339963774e-001	 2.490731021940975e+001
 1.058850851063458e+000	 1.856337124229717e-001	 2.474624409911938e+001
 1.057053271032776e+000	 1.956102813591062e-001	 2.457298690228453e+001
 1.095550399479947e+000	 9.883988170893882e-002	 2.445744984327385e+001
 1.094598191498799e+000	 1.088797464459448e-001	 2.440394634965546e+001
 1.093550394931101e+000	 1.189434057223389e-001	 2.433940102642914e+001
 1.092406220128793e+000	 1.290296486917397e-001	 2.426366675736351e+001
 1.091164894894763e+000	 1.391372421901744e-001	 2.417660024926366e+001
 1.089825665138398e+000	 1.492649309672275e-001	 2.407806228247488e+001
 1.088387795530760e+000	 1.594114379376842e-001	 2.396791796349173e+001
 1.086850570158686e+000	 1.695754644538752e-001	 2.384603697928258e+001
 1.085213293177134e+000	 1.797556905989053e-001	 2.371229385292130e+001
 1.083475289459071e+000	 1.899507755009255e-001	 2.356656820009962e+001
 1.081635905242169e+000	 2.001593576685848e-001	 2.340874498607708e+001
 1.120449272194170e+000	 1.010862426544848e-001	 2.331981627175185e+001
 1.119475423122327e+000	 1.113542861355051e-001	 2.327812023571998e+001
 1.118403812996127e+000	 1.216466649409279e-001	 2.322570370421401e+001
 1.117233634220965e+000	 1.319621407051365e-001	 2.316239126794137e+001
 1.115964097049794e+000	 1.422994522377043e-001	 2.308801078529004e+001
 1.114594430253582e+000	 1.526573157597974e-001	 2.300239365442043e+001
 1.113123881791367e+000	 1.630344251615375e-001	 2.290537508864182e+001
 1.111551719479233e+000	 1.734294522805355e-001	 2.279679439467362e+001
 1.109877231657481e+000	 1.838410472017854e-001	 2.267649525337020e+001
 1.108099727855280e+000	 1.942678385790783e-001	 2.254432600246728e+001
 1.106218539452070e+000	 2.047084339780781e-001	 2.240013992088823e+001
 1.145348144908886e+000	 1.033326036005224e-001	 2.234441673822921e+001
 1.144352654746438e+000	 1.138288258256427e-001	 2.231302096076734e+001
 1.143257231061807e+000	 1.243499241601511e-001	 2.227121090452311e+001
 1.142061048313842e+000	 1.348946327191951e-001	 2.221878312209670e+001
 1.140763299205564e+000	 1.454616622858940e-001	 2.215553689297913e+001
 1.139363195369515e+000	 1.560497005529956e-001	 2.208127451753811e+001
 1.137859968052715e+000	 1.666574123859573e-001	 2.199580161546093e+001
 1.136252868800495e+000	 1.772834401076706e-001	 2.189892742824348e+001
 1.134541170138493e+000	 1.879264038050178e-001	 2.179046512529069e+001
 1.132724166252086e+000	 1.985849016574301e-001	 2.167023211316995e+001
 1.130801173662478e+000	 2.092575102875861e-001	 2.153805034753588e+001
 1.170247017624094e+000	 1.055789645470518e-001	 2.152143437501787e+001
 1.169229886371130e+000	 1.163033655163576e-001	 2.149898000489330e+001
 1.168110649128139e+000	 1.270531833800084e-001	 2.146640305258489e+001
 1.166888462407425e+000	 1.378271247339154e-001	 2.142347222952546e+001
 1.165562501362070e+000	 1.486238723347436e-001	 2.136995844668173e+001
 1.164131960486198e+000	 1.594420853468220e-001	 2.130563513077113e+001
 1.162596054314805e+000	 1.702803996109437e-001	 2.123027854610298e+001
 1.160954018122470e+000	 1.811374279352803e-001	 2.114366812162167e+001
 1.159205108620171e+000	 1.920117604086025e-001	 2.104558678270205e+001
 1.157348604649489e+000	 2.029019647359809e-001	 2.093582128722155e+001
 1.155383807873393e+000	 2.138065865971087e-001	 2.081416256540680e+001
 1.195145890339793e+000	 1.078253254940729e-001	 2.084188609035162e+001
 1.194107117996405e+000	 1.187779052076498e-001	 2.082715181168666e+001
 1.192964067195126e+000	 1.297564426004998e-001	 2.080257266704517e+001
 1.191715876501712e+000	 1.407596167492973e-001	 2.076788966938459e+001
 1.190361703519314e+000	 1.517860823842530e-001	 2.072284551622624e+001
 1.188900725603630e+000	 1.628344701412766e-001	 2.066718492846957e+001
 1.187332140577637e+000	 1.739033868364968e-001	 2.060065499599540e+001
 1.185655167445159e+000	 1.849914157633647e-001	 2.052300552962248e+001
 1.183869047102515e+000	 1.960971170125395e-001	 2.043398941895281e+001
 1.181973043047488e+000	 2.072190278147308e-001	 2.033336299561094e+001
 1.179966442084816e+000	 2.183556629066459e-001	 2.022088640135433e+001
 1.220044763055984e+000	 1.100716864415856e-001	 2.029753748921112e+001
 1.218984349622261e+000	 1.212524448995195e-001	 2.028942981236317e+001
 1.217817485262765e+000	 1.324597018216254e-001	 2.027174149329223e+001
 1.216543290596704e+000	 1.436921087653410e-001	 2.024418593830629e+001
 1.215160905677295e+000	 1.549482924344222e-001	 2.020647773472682e+001
 1.213669490721812e+000	 1.662268549363595e-001	 2.015833301269551e+001
 1.212068226841211e+000	 1.775263740626166e-001	 2.009946981493305e+001
 1.210356316768562e+000	 1.888454035919240e-001	 2.002960847400087e+001
 1.208532985585524e+000	 2.001824736168286e-001	 1.994847199658425e+001
 1.206597481446085e+000	 2.115360908936796e-001	 1.985578645428298e+001
 1.204549076296746e+000	 2.229047392161979e-001	 1.975128138036389e+001
 1.244943635772666e+000	 1.123180473895901e-001	 1.988082800364975e+001
 1.243861581248701e+000	 1.237269845919664e-001	 1.987837252700321e+001
 1.242670903331058e+000	 1.351629610433850e-001	 1.986658758078272e+001
 1.241370704692402e+000	 1.466246007820463e-001	 1.984515900865052e+001
 1.239960107836013e+000	 1.581105024852513e-001	 1.981377334225478e+001
 1.238438255840743e+000	 1.696192397320706e-001	 1.977211818645144e+001
 1.236804313105527e+000	 1.811493612893029e-001	 1.971988261364112e+001
 1.235057466092679e+000	 1.926993914209579e-001	 1.965675756675790e+001
 1.233196924069199e+000	 2.042678302214702e-001	 1.958243627041054e+001
 1.231221919845279e+000	 2.158531539728274e-001	 1.949661464964211e+001
 1.229131710509183e+000	 2.274538155257646e-001	 1.939899175573876e+001
 9.833053684076398e-001	 1.819630524307584e-001	 2.910498233115719e+001
 9.815404625233627e-001	 1.912545957719429e-001	 2.888590367089583e+001
 9.796822644929402e-001	 2.005558789966087e-001	 2.865330580658669e+001
 9.777302417428043e-001	 2.098656101739950e-001	 2.840728130491708e+001
 9.756838834310224e-001	 2.191824800423044e-001	 2.814793231857424e+001
 9.735427010105087e-001	 2.285051624109132e-001	 2.787537068844554e+001
 9.713062287851815e-001	 2.378323145820489e-001	 2.758971803649432e+001
 9.689740244583481e-001	 2.471625777918797e-001	 2.729110584888406e+001
 9.665456696725904e-001	 2.564945776709276e-001	 2.697967554893087e+001
 9.640207705404181e-001	 2.658269247236917e-001	 2.665557855947245e+001
 9.613989581649598e-001	 2.751582148273362e-001	 2.631897635424914e+001
 1.007888002615511e+000	 1.865121287401930e-001	 2.740949598702377e+001
 1.006078974084998e+000	 1.960359606660597e-001	 2.721859541754701e+001
 1.004174321104526e+000	 2.055697759725002e-001	 2.701445412299495e+001
 1.002173497786187e+000	 2.151122504304846e-001	 2.679713297181246e+001
 1.000075980516998e+000	 2.246620420466705e-001	 2.656670194828133e+001
 9.978812685361967e-001	 2.342177914756685e-001	 2.632324028156687e+001
 9.955888845052953e-001	 2.437781224522615e-001	 2.606683656648516e+001
 9.931983750701838e-001	 2.533416422435219e-001	 2.579758887553805e+001
 9.907093114145075e-001	 2.629069421207346e-001	 2.551560486176640e+001
 9.881212898035870e-001	 2.724725978510110e-001	 2.522100185197634e+001
 9.854339321181277e-001	 2.820371702084442e-001	 2.491390692990114e+001
 1.032470636823890e+000	 1.910612050496422e-001	 2.590289083709298e+001
 1.030617485647049e+000	 2.008173255599959e-001	 2.573786403813724e+001
 1.028666377716457e+000	 2.105836729480256e-001	 2.555985397738708e+001
 1.026616753829864e+000	 2.203588906864321e-001	 2.536889045519327e+001
 1.024468077603238e+000	 2.301416040503285e-001	 2.516501194245590e+001
 1.022219836062135e+000	 2.399304205395593e-001	 2.494826573663087e+001
 1.019871540225668e+000	 2.497239303214633e-001	 2.471870811047582e+001
 1.017422725682307e+000	 2.595207066940172e-001	 2.447640445305502e+001
 1.014872953156760e+000	 2.693193065692687e-001	 2.422142940252305e+001
 1.012221809067160e+000	 2.791182709769417e-001	 2.395386697020935e+001
 1.009468906071790e+000	 2.889161255880586e-001	 2.367381065552924e+001
 1.057053271032776e+000	 1.956102813591062e-001	 2.457298690228453e+001
 1.055155997209518e+000	 2.055986904537517e-001	 2.443173487675214e+001
 1.053158434328735e+000	 2.155975699231847e-001	 2.427773672570739e+001
 1.051060009873836e+000	 2.256055309418376e-001	 2.411099172723738e+001
 1.048860174689739e+000	 2.356211660532781e-001	 2.393150740819820e+001
 1.046558403588324e+000	 2.456430496025855e-001	 2.373929972734850e+001
 1.044154195946299e+000	 2.556697381896544e-001	 2.353439325221705e+001
 1.041647076294716e+000	 2.656997711433656e-001	 2.331682132919513e+001
 1.039036594899347e+000	 2.757316710165300e-001	 2.308662624634194e+001
 1.036322328331137e+000	 2.857639441014841e-001	 2.284385938839075e+001
 1.033503880025945e+000	 2.957950809661792e-001	 2.258858138344428e+001
 1.081635905242169e+000	 2.001593576685848e-001	 2.340874498607708e+001
 1.079694508772404e+000	 2.103800553473268e-001	 2.328935694617714e+001
 1.077650490941359e+000	 2.206114668979778e-001	 2.315744019571887e+001
 1.075503265918102e+000	 2.308521711967008e-001	 2.301296395852535e+001
 1.073252271776502e+000	 2.411007280555194e-001	 2.285590530767884e+001
 1.070896971114763e+000	 2.513556786647472e-001	 2.268624937599855e+001
 1.068436851667188e+000	 2.616155460568347e-001	 2.250398956122587e+001
 1.065871426907412e+000	 2.718788355915671e-001	 2.230912772537650e+001
 1.063200236642269e+000	 2.821440354625184e-001	 2.210167438771599e+001
 1.060422847595518e+000	 2.924096172246378e-001	 2.188164891081006e+001
 1.057538853980594e+000	 3.026740363428060e-001	 2.164907967910065e+001
 1.106218539452070e+000	 2.047084339780781e-001	 2.240013992088823e+001
 1.104233020335707e+000	 2.151614202407214e-001	 2.230087807581755e+001
 1.102142547554328e+000	 2.256253638724046e-001	 2.218928574568800e+001
 1.099946521962661e+000	 2.360988114510220e-001	 2.206530249599394e+001
 1.097644368863529e+000	 2.465802900570525e-001	 2.192887536312900e+001
 1.095235538641453e+000	 2.570683077260444e-001	 2.177995909247376e+001
 1.092719507388336e+000	 2.675613539230042e-001	 2.161851637214312e+001
 1.090095777520394e+000	 2.780579000386215e-001	 2.144451806182271e+001
 1.087363878385527e+000	 2.885563999072339e-001	 2.125794341611607e+001
 1.084523366860303e+000	 2.990552903464032e-001	 2.105878030181773e+001
 1.081573827935737e+000	 3.095529917179392e-001	 2.084702540852337e+001
 1.130801173662478e+000	 2.092575102875861e-001	 2.153805034753588e+001
 1.128771531899427e+000	 2.199427851339355e-001	 2.145733634467289e+001
 1.126634604167643e+000	 2.306392608464652e-001	 2.136447135889359e+001
 1.124389778007516e+000	 2.413454517048011e-001	 2.125936562637374e+001
 1.122036465950818e+000	 2.520598520578772e-001	 2.114193649596279e+001
 1.119574106168393e+000	 2.627809367864770e-001	 2.101210869519092e+001
 1.117002163109742e+000	 2.735071617881629e-001	 2.086981459287086e+001
 1.114320128133663e+000	 2.842369644845291e-001	 2.071499445769121e+001
 1.111527520129120e+000	 2.949687643506765e-001	 2.054759671218753e+001
 1.108623886125492e+000	 3.057009634667798e-001	 2.036757818146910e+001
 1.105608801891373e+000	 3.164319470915787e-001	 2.017490433607096e+001
 1.155383807873393e+000	 2.138065865971087e-001	 2.081416256540680e+001
 1.153310043463564e+000	 2.247241500269691e-001	 2.075056537393169e+001
 1.151126660781304e+000	 2.356531578201598e-001	 2.067497838564525e+001
 1.148833034052665e+000	 2.465920919580380e-001	 2.058728277408229e+001
 1.146428563038369e+000	 2.575394140579937e-001	 2.048736648643715e+001
 1.143912673695583e+000	 2.684935658460451e-001	 2.037512453784217e+001
 1.141284818831407e+000	 2.794529696523108e-001	 2.025045930316017e+001
 1.138544478747219e+000	 2.904160289292898e-001	 2.011328080565346e+001
 1.135691161873047e+000	 3.013811287928463e-001	 1.996350700187944e+001
 1.132724405391085e+000	 3.123466365857682e-001	 1.980106406215069e+001
 1.129643775847504e+000	 3.233109024637244e-001	 1.962588664588801e+001
 1.179966442084816e+000	 2.183556629066459e-001	 2.022088640135433e+001
 1.177848555028117e+000	 2.295055149198221e-001	 2.017311145799225e+001
 1.175618717395311e+000	 2.406670547934880e-001	 2.011348994254960e+001
 1.173276290098108e+000	 2.518387322107328e-001	 2.004187417438030e+001
 1.170820660126183e+000	 2.630189760574019e-001	 1.995812292585469e+001
 1.168251241223024e+000	 2.742061949047486e-001	 1.986210174530284e+001
 1.165567474553330e+000	 2.853987775154480e-001	 1.975368327837578e+001
 1.162768829361061e+000	 2.965950933729035e-001	 1.963274758715302e+001
 1.159854803617310e+000	 3.077934932337432e-001	 1.949918246630776e+001
 1.156824924657083e+000	 3.189923097033680e-001	 1.935288375562777e+001
 1.153678749804127e+000	 3.301898578343763e-001	 1.919375564817651e+001
 1.204549076296746e+000	 2.229047392161979e-001	 1.975128138036389e+001
 1.202387066593088e+000	 2.342868798124946e-001	 1.971816084270531e+001
 1.200110774009665e+000	 2.456809517664502e-001	 1.967331930370369e+001
 1.197719546143846e+000	 2.570853724628855e-001	 1.961658038246832e+001
 1.195212757214258e+000	 2.684985380561018e-001	 1.954777384808855e+001
 1.192589808750716e+000	 2.799188239625876e-001	 1.946673597167292e+001
 1.189850130275511e+000	 2.913445853775742e-001	 1.937330987769800e+001
 1.186993179975190e+000	 3.027741578153702e-001	 1.926734589395838e+001
 1.184018445361908e+000	 3.142058576733672e-001	 1.914870189939043e+001
 1.180925443923485e+000	 3.256379828195793e-001	 1.901724366902536e+001
 1.177713723761245e+000	 3.370688132035347e-001	 1.887284521531181e+001
 1.229131710509183e+000	 2.274538155257646e-001	 1.939899175573876e+001
 1.226925578158476e+000	 2.390682447049866e-001	 1.937947573022785e+001
 1.224602830624363e+000	 2.506948487390461e-001	 1.934834688494468e+001
 1.222162802189878e+000	 2.623320127144961e-001	 1.930540024149184e+001
 1.219604854302598e+000	 2.739781000540935e-001	 1.925043668532448e+001
 1.216928376278658e+000	 2.856314530195621e-001	 1.918326334735378e+001
 1.214132785997951e+000	 2.972903932386898e-001	 1.910369398574012e+001
 1.211217530589605e+000	 3.089532222566900e-001	 1.901154936712972e+001
 1.208182087106841e+000	 3.206182221117184e-001	 1.890665764656651e+001
 1.205025963190290e+000	 3.322836559344021e-001	 1.878885474529159e+001
 1.201748697718857e+000	 3.439477685711992e-001	 1.865798472562427e+001
 9.613989581649598e-001	 2.751582148273362e-001	 2.631897635424914e+001
 9.586798891490923e-001	 2.844870297499801e-001	 2.599080175213383e+001
 9.558632460948671e-001	 2.938119376861946e-001	 2.565188568664009e+001
 9.529487380907490e-001	 3.031314938110319e-001	 2.530259202777796e+001
 9.499361011842371e-001	 3.124442408536596e-001	 2.494329599177215e+001
 9.468250988417173e-001	 3.217487096881426e-001	 2.457438397416222e+001
 9.436155223939604e-001	 3.310434199417801e-001	 2.419625336553231e+001
 9.403071914665516e-001	 3.403268806206379e-001	 2.380931234974303e+001
 9.368999543945393e-001	 3.495975907518840e-001	 2.341397968457342e+001
 9.333936886206079e-001	 3.588540400425035e-001	 2.301068446471203e+001
 9.297883010760839e-001	 3.680947095539379e-001	 2.259986586707231e+001
 9.854339321181277e-001	 2.820371702084442e-001	 2.491390692990114e+001
 9.826468863761853e-001	 2.915992055051701e-001	 2.462880787028675e+001
 9.797598272449696e-001	 3.011572361404365e-001	 2.433258303609782e+001
 9.767724565401572e-001	 3.107097811686687e-001	 2.402554421868675e+001
 9.736845037104360e-001	 3.202553468872610e-001	 2.370801447152458e+001
 9.704957263088508e-001	 3.297924274421271e-001	 2.338032799657517e+001
 9.672059104494429e-001	 3.393195054512462e-001	 2.304283001414174e+001
 9.638148712484376e-001	 3.488350526458335e-001	 2.269587661598301e+001
 9.603224532492587e-001	 3.583375305287335e-001	 2.233983460152413e+001
 9.567285308306593e-001	 3.678253910496042e-001	 2.197508129701963e+001
 9.530330085972487e-001	 3.772970772964199e-001	 2.160200435755563e+001
 1.009468906071790e+000	 2.889161255880586e-001	 2.367381065552924e+001
 1.006613883603867e+000	 2.987113812587859e-001	 2.342791559659119e+001
 1.003656408395746e+000	 3.085025345930624e-001	 2.317051051763959e+001
 1.000596174990316e+000	 3.182880685246868e-001	 2.290185671402178e+001
 9.974329062374506e-001	 3.280664529192808e-001	 2.262222668309279e+001
 9.941663537768565e-001	 3.378361451946069e-001	 2.233190406306005e+001
 9.907962985058437e-001	 3.475955909593246e-001	 2.203118355609943e+001
 9.873225510312766e-001	 3.573432246697983e-001	 2.172037083546151e+001
 9.837449521049576e-001	 3.670774703045499e-001	 2.139978243631432e+001
 9.800633730417054e-001	 3.767967420559097e-001	 2.106974563009429e+001
 9.762777161194137e-001	 3.864994450383867e-001	 2.073059828216886e+001
 1.033503880025945e+000	 2.957950809661792e-001	 2.258858138344428e+001
 1.030580880832138e+000	 3.058235570108274e-001	 2.237832391361651e+001
 1.027552989547197e+000	 3.158478330440721e-001	 2.215617108245803e+001
 1.024419893441225e+000	 3.258663558790866e-001	 2.192233512768355e+001
 1.021181308765282e+000	 3.358775589497191e-001	 2.167703945221220e+001
 1.017836981245734e+000	 3.458798629455820e-001	 2.142051861479821e+001
 1.014386686563162e+000	 3.558716764660149e-001	 2.115301830568883e+001
 1.010830230815070e+000	 3.658513966925322e-001	 2.087479530695099e+001
 1.007167450961636e+000	 3.758174100793332e-001	 2.058611743713235e+001
 1.003398215253747e+000	 3.857680930614205e-001	 2.028726347994523e+001
 9.995224236425787e-001	 3.957018127798380e-001	 1.997852309669046e+001
 1.057538853980594e+000	 3.026740363428060e-001	 2.164907967910065e+001
 1.054547878060998e+000	 3.129357327612945e-001	 2.147117207386420e+001
 1.051449570699323e+000	 3.231931314934659e-001	 2.128098158238455e+001
 1.048243611892883e+000	 3.334446432318678e-001	 2.107867269091782e+001
 1.044929711293928e+000	 3.436886649785758e-001	 2.086442103683731e+001
 1.041507608715483e+000	 3.539235806950522e-001	 2.063841345047425e+001
 1.037977074621398e+000	 3.641477619713173e-001	 2.040084798270160e+001
 1.034337910599816e+000	 3.743595687140354e-001	 2.015193391782458e+001
 1.030589949819293e+000	 3.845573498530832e-001	 1.989189177136240e+001
 1.026733057466783e+000	 3.947394440661365e-001	 1.962095327232691e+001
 1.022767131166744e+000	 4.049041805207738e-001	 1.933936132962807e+001
 1.081573827935737e+000	 3.095529917179392e-001	 2.084702540852337e+001
 1.078514875290446e+000	 3.200479085101873e-001	 2.069843512533014e+001
 1.075346151852123e+000	 3.305384299412435e-001	 2.053717122537332e+001
 1.072067330345292e+000	 3.410229305830305e-001	 2.036335162816606e+001
 1.068678113823391e+000	 3.514997710058511e-001	 2.017710541245094e+001
 1.065178236186105e+000	 3.619672984430177e-001	 1.997857290877636e+001
 1.061567462680552e+000	 3.724238474752317e-001	 1.976790577849313e+001
 1.057845590385517e+000	 3.828677407343076e-001	 1.954526707865738e+001
 1.054012448677931e+000	 3.932972896257999e-001	 1.931083131234222e+001
 1.050067899680813e+000	 4.037107950700577e-001	 1.906478446388078e+001
 1.046011838691909e+000	 4.141065482611943e-001	 1.880732401858397e+001
 1.105608801891373e+000	 3.164319470915787e-001	 2.017490433607096e+001
 1.102481872520483e+000	 3.271600842575055e-001	 2.005283306416730e+001
 1.099242733005597e+000	 3.378837283874052e-001	 1.991769327592219e+001
 1.095891048798451e+000	 3.486012179325746e-001	 1.976955739693527e+001
 1.092426516353670e+000	 3.593108770315448e-001	 1.960850904189839e+001
 1.088848863657598e+000	 3.700110161894784e-001	 1.943464315752704e+001
 1.085157850740624e+000	 3.806999329777582e-001	 1.924806615255281e+001
 1.081353270172171e+000	 3.913759127533489e-001	 1.904889601418413e+001
 1.077434947537546e+000	 4.020372293974834e-001	 1.883726241045644e+001
 1.073402741895839e+000	 4.126821460731842e-001	 1.861330677790987e+001
 1.069256546218074e+000	 4.233089160010993e-001	 1.837718239405140e+001
 1.129643775847504e+000	 3.233109024637244e-001	 1.962588664588801e+001
 1.126448869751110e+000	 3.342722600032497e-001	 1.952775158488084e+001
 1.123139314159746e+000	 3.452290268319507e-001	 1.941614802778044e+001
 1.119714767252360e+000	 3.561795052805001e-001	 1.929110387576971e+001
 1.116174918884764e+000	 3.671219830556570e-001	 1.915265827034897e+001
 1.112519491129963e+000	 3.780547339344343e-001	 1.900086178632875e+001
 1.108748238801613e+000	 3.889760184788967e-001	 1.883577661249027e+001
 1.104860949959779e+000	 3.998840847711594e-001	 1.865747671924049e+001
 1.100857446398142e+000	 4.107771691681336e-001	 1.846604801260100e+001
 1.096737584111859e+000	 4.216534970755155e-001	 1.826158847388445e+001
 1.092501253745239e+000	 4.325112837404888e-001	 1.804420828442754e+001
 1.153678749804127e+000	 3.301898578343763e-001	 1.919375564817651e+001
 1.150415866982325e+000	 3.413844357474193e-001	 1.911717273674938e+001
 1.147035895314569e+000	 3.525743252748803e-001	 1.902671540506796e+001
 1.143538485707019e+000	 3.637577926268072e-001	 1.892236790372606e+001
 1.139923321416675e+000	 3.749330890781875e-001	 1.880412579588743e+001
 1.136190118603200e+000	 3.860984516778856e-001	 1.867199620012893e+001
 1.132338626863521e+000	 3.972521039786471e-001	 1.852599802152367e+001
 1.128368629748340e+000	 4.083922567877390e-001	 1.836616217021173e+001
 1.124279945259717e+000	 4.195171089377506e-001	 1.819253176671431e+001
 1.120072426328874e+000	 4.306248480770524e-001	 1.800516233325921e+001
 1.115745961273404e+000	 4.417136514793630e-001	 1.780412197040009e+001
 1.177713723761245e+000	 3.370688132035347e-001	 1.887284521531181e+001
 1.174382864214129e+000	 3.484966114900147e-001	 1.881561407129631e+001
 1.170932476470067e+000	 3.599196237161938e-001	 1.874409581631879e+001
 1.167362204162428e+000	 3.713360799714957e-001	 1.865823183542301e+001
 1.163671723949401e+000	 3.827441950991365e-001	 1.855797491921678e+001
 1.159860746077309e+000	 3.941421694198319e-001	 1.844328955643008e+001
 1.155929014926346e+000	 4.055281894770097e-001	 1.831415221525477e+001
 1.151876309537855e+000	 4.169004288030879e-001	 1.817055161263059e+001
 1.147702444122271e+000	 4.282570487063344e-001	 1.801248897065127e+001
 1.143407268546884e+000	 4.395961990777942e-001	 1.783997825927171e+001
 1.138990668802569e+000	 4.509160192177217e-001	 1.765304642451051e+001
 1.201748697718857e+000	 3.439477685711992e-001	 1.865798472562427e+001
 1.198349861446522e+000	 3.556087872310357e-001	 1.861807509206487e+001
 1.194829057626238e+000	 3.672649221558912e-001	 1.856345810603947e+001
 1.191185922618588e+000	 3.789143673145656e-001	 1.849403298948518e+001
 1.187420126482944e+000	 3.905553011185041e-001	 1.840971048339624e+001
 1.183531373552289e+000	 4.021858871602736e-001	 1.831041319003456e+001
 1.179519402990089e+000	 4.138042749739844e-001	 1.819607590443119e+001
 1.175383989328324e+000	 4.254086008172057e-001	 1.806664593426300e+001
 1.171124942985806e+000	 4.369969884738850e-001	 1.792208340719246e+001
 1.166742110765889e+000	 4.485675500777414e-001	 1.776236156476519e+001
 1.162235376332733e+000	 4.601183869555650e-001	 1.758746704196991e+001
 9.297883010760839e-001	 3.680947095539379e-001	 2.259986586707231e+001
 9.260837285441588e-001	 3.773180723910820e-001	 2.220847598583760e+001
 9.222799380044703e-001	 3.865225944084204e-001	 2.180741897471637e+001
 9.183769269585733e-001	 3.957067349304588e-001	 2.139717837703640e+001
 9.143747237357484e-001	 4.048689474837917e-001	 2.097824966594877e+001
 9.102733877783561e-001	 4.140076805434688e-001	 2.055113992067004e+001
 9.060730099062141e-001	 4.231213782919209e-001	 2.011636748194287e+001
 9.017737125594307e-001	 4.322084813897782e-001	 1.967446158687553e+001
 8.973756500191495e-001	 4.412674277578942e-001	 1.922596198336676e+001
 8.928790086056798e-001	 4.502966533698555e-001	 1.877141852437050e+001
 8.882840068535240e-001	 4.592945930542355e-001	 1.831139074230422e+001
 9.530330085972487e-001	 3.772970772964199e-001	 2.160200435755563e+001
 9.492358217518436e-001	 3.867510242020995e-001	 2.125175980949276e+001
 9.453369364486186e-001	 3.961856592678930e-001	 2.089186167972033e+001
 9.413363501266674e-001	 4.055994033014218e-001	 2.052276939565339e+001
 9.372340918235038e-001	 4.149906711674480e-001	 2.014495428029973e+001
 9.330302224675481e-001	 4.243578725529000e-001	 1.975889925280337e+001
 9.287248351491139e-001	 4.336994127447718e-001	 1.936509850835948e+001
 9.243180553693136e-001	 4.430136934202115e-001	 1.896405717761950e+001
 9.198100412663188e-001	 4.522991134480965e-001	 1.855629096574814e+001
 9.152009838184482e-001	 4.615540697013549e-001	 1.814232577134289e+001
 9.104911070235671e-001	 4.707769578792765e-001	 1.772269728547575e+001
 9.762777161194137e-001	 3.864994450383867e-001	 2.073059828216886e+001
 9.723879149605194e-001	 3.961839760128773e-001	 2.041937357175407e+001
 9.683939348937277e-001	 4.058487241273528e-001	 2.009848621462374e+001
 9.642957732956735e-001	 4.154920716725500e-001	 1.976837232718535e+001
 9.600934599121020e-001	 4.251123948513975e-001	 1.942947991720632e+001
 9.557870571574937e-001	 4.347080645627025e-001	 1.908226860842648e+001
 9.513766603926590e-001	 4.442774471980223e-001	 1.872720934465020e+001
 9.468623981797121e-001	 4.538189054510228e-001	 1.836478407338934e+001
 9.422444325138552e-001	 4.633307991386043e-001	 1.799548540917753e+001
 9.375229590314141e-001	 4.728114860330365e-001	 1.761981627672067e+001
 9.326982071936175e-001	 4.822593227043255e-001	 1.723828953409724e+001
 9.995224236425787e-001	 3.957018127798380e-001	 1.997852309669046e+001
 9.955400081701847e-001	 4.056169278234152e-001	 1.970436307955114e+001
 9.914509333397977e-001	 4.155117889867997e-001	 1.942050887161821e+001
 9.872551964655910e-001	 4.253847400438426e-001	 1.912737400582792e+001
 9.829528280015432e-001	 4.352341185356400e-001	 1.882538393171827e+001
 9.785438918481941e-001	 4.450582565728768e-001	 1.851497576394539e+001
 9.740284856368490e-001	 4.548554816516729e-001	 1.819659801033866e+001
 9.694067409906272e-001	 4.646241174822122e-001	 1.787071027952352e+001
 9.646788237617586e-001	 4.743624848294175e-001	 1.753778296818538e+001
 9.598449342445781e-001	 4.840689023649002e-001	 1.719829692809564e+001
 9.549053073636764e-001	 4.937416875293824e-001	 1.685274311306771e+001
 1.022767131166744e+000	 4.049041805207738e-001	 1.933936132962807e+001
 1.018692101380841e+000	 4.150498796337134e-001	 1.910046666176335e+001
 1.014507931786829e+000	 4.251748538462337e-001	 1.885182386110266e+001
 1.010214619636420e+000	 4.352774084153001e-001	 1.859382453358651e+001
 1.005812196091827e+000	 4.453558422201753e-001	 1.832687225603797e+001
 1.001300726539648e+000	 4.554084485834224e-001	 1.805138234847724e+001
 9.966803108816845e-001	 4.654335161057235e-001	 1.776778162598924e+001
 9.919510838020583e-001	 4.754293295137793e-001	 1.747650813012842e+001
 9.871132150100292e-001	 4.853941705205362e-001	 1.717801083988900e+001
 9.821669094579393e-001	 4.953263186969464e-001	 1.687274936231519e+001
 9.771124075337430e-001	 5.052240523544471e-001	 1.656119360287354e+001
 1.046011838691909e+000	 4.141065482611943e-001	 1.880732401858397e+001
 1.041844194592487e+000	 4.244828314437720e-001	 1.860203822233798e+001
 1.037564930234820e+000	 4.348379187056548e-001	 1.838692798743953e+001
 1.033174042808161e+000	 4.451700767869224e-001	 1.816236358385440e+001
 1.028671564182954e+000	 4.554775659050038e-001	 1.792872733539283e+001
 1.024057561231856e+000	 4.657586405943396e-001	 1.768641341577208e+001
 1.019332136127165e+000	 4.760115505601738e-001	 1.743582762420278e+001
 1.014495426614006e+000	 4.862345415457248e-001	 1.717738714043720e+001
 1.009547606258667e+000	 4.964258562119608e-001	 1.691152025926042e+001
 1.004488884671498e+000	 5.065837350291748e-001	 1.663866610445302e+001
 9.993195077038174e-001	 5.167064171795196e-001	 1.635927432230016e+001
 1.069256546218074e+000	 4.233089160010993e-001	 1.837718239405140e+001
 1.064996287805123e+000	 4.339157832535907e-001	 1.820398032995873e+001
 1.060621928683773e+000	 4.445009835650630e-001	 1.802085514961204e+001
 1.056133465980815e+000	 4.550627451587097e-001	 1.782815631756727e+001
 1.051530932274924e+000	 4.655992895901254e-001	 1.762624546357718e+001
 1.046814395924818e+000	 4.761088326056284e-001	 1.741549620240530e+001
 1.041983961373291e+000	 4.865895850150243e-001	 1.719629393309127e+001
 1.037039769426470e+000	 4.970397535780482e-001	 1.696903561755730e+001
 1.031981997507671e+000	 5.074575419036906e-001	 1.673412953849017e+001
 1.026810859885255e+000	 5.178411513615852e-001	 1.649199503648003e+001
 1.021526607873900e+000	 5.281887820046000e-001	 1.624306222644259e+001
 1.092501253745239e+000	 4.325112837404888e-001	 1.804420828442754e+001
 1.088148381018750e+000	 4.433487350631697e-001	 1.790168584945787e+001
 1.083678927133686e+000	 4.541640484244583e-001	 1.774911920349992e+001
 1.079092889154379e+000	 4.649554135306616e-001	 1.758683748027404e+001
 1.074390300367736e+000	 4.757210132755399e-001	 1.741518211821150e+001
 1.069571230618535e+000	 4.864590246172887e-001	 1.723450670407345e+001
 1.064635786620062e+000	 4.971676194702747e-001	 1.704517679590463e+001
 1.059584112239450e+000	 5.078449656107497e-001	 1.684756972516451e+001
 1.054416388757043e+000	 5.184892275957261e-001	 1.664207437792119e+001
 1.049132835099209e+000	 5.290985676941781e-001	 1.642909095504109e+001
 1.043733708043990e+000	 5.396711468296881e-001	 1.620903071135288e+001
 1.115745961273404e+000	 4.417136514793630e-001	 1.780412197040009e+001
 1.111300474233367e+000	 4.527816868725090e-001	 1.769098686930208e+001
 1.106735925584561e+000	 4.638271132838406e-001	 1.756766396637038e+001
 1.102052312328856e+000	 4.748480819027783e-001	 1.743446248707377e+001
 1.097249668461392e+000	 4.858427369612475e-001	 1.729170412909476e+001
 1.092328065313005e+000	 4.968092166293204e-001	 1.713972292985275e+001
 1.087287611867478e+000	 5.077456539259250e-001	 1.697886511320397e+001
 1.082128455052946e+000	 5.186501776438290e-001	 1.680948891511067e+001
 1.076850780006782e+000	 5.295209132880672e-001	 1.663196438811624e+001
 1.071454810313361e+000	 5.403559840269530e-001	 1.644667318450938e+001
 1.065940808214088e+000	 5.511535116547843e-001	 1.625400831810682e+001
 1.138990668802569e+000	 4.509160192177217e-001	 1.765304642451051e+001
 1.134452567448973e+000	 4.622146386816085e-001	 1.756810988285515e+001
 1.129792924036396e+000	 4.734901781432102e-001	 1.747281934326777e+001
 1.125011735504244e+000	 4.847407502750598e-001	 1.736746449715204e+001
 1.120109036555890e+000	 4.959644606472483e-001	 1.725234770349252e+001
 1.115084900008229e+000	 5.071594086417235e-001	 1.712778388042601e+001
 1.109939437115540e+000	 5.183236883819752e-001	 1.699410037578926e+001
 1.104672797866958e+000	 5.294553896772867e-001	 1.685163681638520e+001
 1.099285171256888e+000	 5.405525989807138e-001	 1.670074493575381e+001
 1.093776785527711e+000	 5.516134003599104e-001	 1.654178838027938e+001
 1.088147908384193e+000	 5.626358764798881e-001	 1.637514249351533e+001
 1.162235376332733e+000	 4.601183869555650e-001	 1.758746704196991e+001
 1.157604660665571e+000	 4.716475904904681e-001	 1.752963634788936e+001
 1.152849922489192e+000	 4.831532430025667e-001	 1.746126271823676e+001
 1.147971158680544e+000	 4.946334186475060e-001	 1.738261663937284e+001
 1.142968404651232e+000	 5.060861843335418e-001	 1.729398148839097e+001
 1.137841734704207e+000	 5.175096006544983e-001	 1.719565344892228e+001
 1.132591262364247e+000	 5.289017228384254e-001	 1.708794140567559e+001
 1.127217140681487e+000	 5.402606017111222e-001	 1.697116681740155e+001
 1.121719562507361e+000	 5.515842846736661e-001	 1.684566356801632e+001
 1.116098760742258e+000	 5.628708166930497e-001	 1.671177779566448e+001
 1.110355008554307e+000	 5.741182413050000e-001	 1.656986769955087e+001
 8.882840068535240e-001	 4.592945930542355e-001	 1.831139074230422e+001
 8.835908956630776e-001	 4.682596813065159e-001	 1.786488600598446e+001
 8.787999584278387e-001	 4.771903531077779e-001	 1.741905651028093e+001
 8.739115111371587e-001	 4.860850447508238e-001	 1.697472212366138e+001
 8.689259024546855e-001	 4.949421946742140e-001	 1.653270777170675e+001
 8.638435137714190e-001	 5.037602443012851e-001	 1.609384264642253e+001
 8.586647592332956e-001	 5.125376388839769e-001	 1.565895939952200e+001
 8.533900857430293e-001	 5.212728283505861e-001	 1.522889332078454e+001
 8.480199729359588e-001	 5.299642681565356e-001	 1.480448150264791e+001
 8.425549331296908e-001	 5.386104201372436e-001	 1.438656199223722e+001
 8.369955112473729e-001	 5.472097533621585e-001	 1.397597293207958e+001
 9.104911070235671e-001	 4.707769578792765e-001	 1.772269728547575e+001
 9.056806680544064e-001	 4.799661733393891e-001	 1.733061557470992e+001
 9.007699573891275e-001	 4.891201119369574e-001	 1.693712244916987e+001
 8.957592989168135e-001	 4.982371708721023e-001	 1.654294584181628e+001
 8.906490500177037e-001	 5.073157495443472e-001	 1.614882010789080e+001
 8.854396016175709e-001	 5.163542504126110e-001	 1.575548533920492e+001
 8.801313782159999e-001	 5.253510798601305e-001	 1.536368666135545e+001
 8.747248378882713e-001	 5.343046490634094e-001	 1.497417351478816e+001
 8.692204722606064e-001	 5.432133748642545e-001	 1.458769892067959e+001
 8.636188064585516e-001	 5.520756806439688e-001	 1.420501873265582e+001
 8.579203990283327e-001	 5.608899971987366e-001	 1.382689087541573e+001
 9.326982071936175e-001	 4.822593227043255e-001	 1.723828953409724e+001
 9.277704404455582e-001	 4.916726653720899e-001	 1.689339097738217e+001
 9.227399563500827e-001	 5.010498707658234e-001	 1.654506236390010e+001
 9.176070866960091e-001	 5.103892969929659e-001	 1.619394340645530e+001
 9.123721975801657e-001	 5.196893044140039e-001	 1.584068159600768e+001
 9.070356894631003e-001	 5.289482565234379e-001	 1.548593161764480e+001
 9.015979971980450e-001	 5.381645208358035e-001	 1.513035474840850e+001
 8.960595900328475e-001	 5.473364697758096e-001	 1.477461823771475e+001
 8.904209715846122e-001	 5.564624815716491e-001	 1.441939467115642e+001
 8.846826797868248e-001	 5.655409411505090e-001	 1.406536131852773e+001
 8.788452868087893e-001	 5.745702410353089e-001	 1.371319946695987e+001
 9.549053073636764e-001	 4.937416875293824e-001	 1.685274311306771e+001
 9.498602128365320e-001	 5.033791574046180e-001	 1.654829981501604e+001
 9.447099553107049e-001	 5.129796295943758e-001	 1.623846950684245e+001
 9.394548744747450e-001	 5.225414231134140e-001	 1.592380713373965e+001
 9.340953451420719e-001	 5.320628592831832e-001	 1.560487676823196e+001
 9.286317773080073e-001	 5.415422626337659e-001	 1.528225112478960e+001
 9.230646161794309e-001	 5.509779618109953e-001	 1.495651105519334e+001
 9.173943421767584e-001	 5.603682904877877e-001	 1.462824502521167e+001
 9.116214709079761e-001	 5.697115882787198e-001	 1.429804857320195e+001
 9.057465531145108e-001	 5.790062016568645e-001	 1.396652375130046e+001
 8.997701745887435e-001	 5.882504848718763e-001	 1.363427854991606e+001
 9.771124075337430e-001	 5.052240523544471e-001	 1.656119360287354e+001
 9.719499852273285e-001	 5.150856494369737e-001	 1.629094360123260e+001
 9.666799542709936e-001	 5.249093884226146e-001	 1.601340552886175e+001
 9.613026622530214e-001	 5.346935492334473e-001	 1.572905277669411e+001
 9.558184927034218e-001	 5.444364141518855e-001	 1.543836920788104e+001
 9.502278651522912e-001	 5.541362687435948e-001	 1.514184876823689e+001
 9.445312351601573e-001	 5.637914027857063e-001	 1.483999507629781e+001
 9.387290943200033e-001	 5.734001111993428e-001	 1.453332099338289e+001
 9.328219702306987e-001	 5.829606949854664e-001	 1.422234817409631e+001
 9.268104264416094e-001	 5.924714621630346e-001	 1.390760659776488e+001
 9.206950623681951e-001	 6.019307287084381e-001	 1.358963408135507e+001
 9.993195077038174e-001	 5.167064171795196e-001	 1.635927432230016e+001
 9.940397576179476e-001	 5.267921414691568e-001	 1.611738066085776e+001
 9.886499532309490e-001	 5.368391472505395e-001	 1.586634843503955e+001
 9.831504500308382e-001	 5.468456753530652e-001	 1.560657247666685e+001
 9.775416402642159e-001	 5.568099690201107e-001	 1.533845943262132e+001
 9.718239529959529e-001	 5.667302748529248e-001	 1.506242746851778e+001
 9.659978541402250e-001	 5.766048437599363e-001	 1.477890595082162e+001
 9.600638464625828e-001	 5.864319319104752e-001	 1.448833510762736e+001
 9.540224695527794e-001	 5.962098016918890e-001	 1.419116566837010e+001
 9.478742997681203e-001	 6.059367226690200e-001	 1.388785848279464e+001
 9.416199501471442e-001	 6.156109725449948e-001	 1.357888411956276e+001
 1.021526607873900e+000	 5.281887820046000e-001	 1.624306222644259e+001
 1.016129530008389e+000	 5.384986335011673e-001	 1.602407647653025e+001
 1.010619952190571e+000	 5.487689060781509e-001	 1.579414732878049e+001
 1.004998237808195e+000	 5.589978014722680e-001	 1.555359385155475e+001
 9.992647878244535e-001	 5.691835238878589e-001	 1.530274827116932e+001
 9.934200408389918e-001	 5.793242809617556e-001	 1.504195576638685e+001
 9.874644731196335e-001	 5.894182847336853e-001	 1.477157424014666e+001
 9.813985986044974e-001	 5.994637526211851e-001	 1.449197406858513e+001
 9.752229688742189e-001	 6.094589083979877e-001	 1.420353782745091e+001
 9.689381730940442e-001	 6.194019831748203e-001	 1.390665999607664e+001
 9.625448379255903e-001	 6.292912163815461e-001	 1.368126485728443e+001
 1.043733708043990e+000	 5.396711468296881e-001	 1.620903071135288e+001
 1.038219302398653e+000	 5.502051255330052e-001	 1.600786037404025e+001
 1.032589951149860e+000	 5.606986649054486e-001	 1.579398293326733e+001
 1.026846025585093e+000	 5.711499275910554e-001	 1.556764430680875e+001
 1.020987935384136e+000	 5.815570787551301e-001	 1.532910491530768e+001
 1.015016128681408e+000	 5.919182870700875e-001	 1.507863956535136e+001
 1.008931092098383e+000	 6.022317257069535e-001	 1.481653730854556e+001
 1.002733350745746e+000	 6.124955733314723e-001	 1.454310127647357e+001
 9.964234681950165e-001	 6.227080151037621e-001	 1.425864849148309e+001
 9.900020464193805e-001	 6.328672436804356e-001	 1.410531240408227e+001
 9.834697257035339e-001	 6.429714602180920e-001	 1.398507874056004e+001
 1.065940808214088e+000	 5.511535116547843e-001	 1.625400831810682e+001
 1.060309074788740e+000	 5.619116175646708e-001	 1.606588762200114e+001
 1.054559950108815e+000	 5.726284237324328e-001	 1.586333304773375e+001
 1.048693813361531e+000	 5.833020537094278e-001	 1.564651980756377e+001
 1.042711082943262e+000	 5.939306336219243e-001	 1.541563896539894e+001
 1.036612216523202e+000	 6.045122931779203e-001	 1.517089740638472e+001
 1.030397711076473e+000	 6.150451666797406e-001	 1.491251778121372e+001
 1.024068102886329e+000	 6.255273940413367e-001	 1.464982661488915e+001
 1.017623967515172e+000	 6.359571218092125e-001	 1.454685957932571e+001
 1.011065919744129e+000	 6.463325041858661e-001	 1.443421011626968e+001
 1.004394613480975e+000	 6.566517040546329e-001	 1.431195180304153e+001
 1.088147908384193e+000	 5.626358764798881e-001	 1.637514249351533e+001
 1.082398847178649e+000	 5.736181095961634e-001	 1.619560617237701e+001
 1.076529949067438e+000	 5.845581825591033e-001	 1.599994223358147e+001
 1.070541601137510e+000	 5.954541798273849e-001	 1.578825747458896e+001
 1.064434230501831e+000	 6.063041884882413e-001	 1.556067589889792e+001
 1.058208304364373e+000	 6.171062992852543e-001	 1.531733877022569e+001
 1.051864330053904e+000	 6.278586076520469e-001	 1.510566765687984e+001
 1.045402855026246e+000	 6.385592147507786e-001	 1.501133757492514e+001
 1.038824466834687e+000	 6.492062285143389e-001	 1.490567208180290e+001
 1.032129793068291e+000	 6.597977646911115e-001	 1.478867148761815e+001
 1.025319501257913e+000	 6.703319478911681e-001	 1.466033974571120e+001
 1.110355008554307e+000	 5.741182413050000e-001	 1.656986769955087e+001
 1.104488619568381e+000	 5.853246016274840e-001	 1.639472739214791e+001
 1.098499948025727e+000	 5.964879413854604e-001	 1.620179513816336e+001
 1.092389388913029e+000	 6.076063059449270e-001	 1.599111146872429e+001
 1.086157378059845e+000	 6.186777433540813e-001	 1.576273548264228e+001
 1.079804392204921e+000	 6.297003053920891e-001	 1.559076609642303e+001
 1.073330949030676e+000	 6.406720486238723e-001	 1.550403785586262e+001
 1.066737607165498e+000	 6.515910354597978e-001	 1.540454388817958e+001
 1.060024966153559e+000	 6.624553352191411e-001	 1.529221160995208e+001
 1.053193666391865e+000	 6.732630251961720e-001	 1.516697262244778e+001
 1.046244389034349e+000	 6.840121917276982e-001	 1.502876291144995e+001
 8.369955112473729e-001	 5.472097533621585e-001	 1.397597293207958e+001
 8.313422847138690e-001	 5.557607449888236e-001	 1.357453022245018e+001
 8.255958633264965e-001	 5.642618811166034e-001	 1.316452491883803e+001
 8.197568890991047e-001	 5.727116576387267e-001	 1.274628240206374e+001
 8.138260360782970e-001	 5.811085810912837e-001	 1.232013865993268e+001
 8.078040101335782e-001	 5.894511694988002e-001	 1.188644000714567e+001
 8.016915487208972e-001	 5.977379532152196e-001	 1.144554278697867e+001
 7.954894206196910e-001	 6.059674757593239e-001	 1.099781305509616e+001
 7.891984256435692e-001	 6.141382946436216e-001	 1.054362624591061e+001
 7.828193943248217e-001	 6.222489821957410e-001	 1.008336682194515e+001
 7.763531875729710e-001	 6.302981263713646e-001	 9.723196090923988e+000
 8.579203990283327e-001	 5.608899971987366e-001	 1.382689087541573e+001
 8.521258418306248e-001	 5.696547636152222e-001	 1.342308662789877e+001
 8.462357599078701e-001	 5.783684281454595e-001	 1.301139994083709e+001
 8.402508113242638e-001	 5.870294490800074e-001	 1.259217840687017e+001
 8.341716869775760e-001	 5.956362956183596e-001	 1.216577981949463e+001
 8.279991103840487e-001	 6.041874487356549e-001	 1.173257186571258e+001
 8.217338374360308e-001	 6.126814020446861e-001	 1.129293180061647e+001
 8.153766561324448e-001	 6.211166626522043e-001	 1.084724610432227e+001
 8.089283862822416e-001	 6.294917520085319e-001	 1.048564213828479e+001
 8.023898791810181e-001	 6.378052067494876e-001	 1.019534192042077e+001
 7.957620172610354e-001	 6.460555795296462e-001	 9.899073394076755e+000
 8.788452868087893e-001	 5.745702410353089e-001	 1.371319946695987e+001
 8.729093989469730e-001	 5.835487822418006e-001	 1.330765979270479e+001
 8.668756564889210e-001	 5.924749751746508e-001	 1.289485684567061e+001
 8.607447335491761e-001	 6.013472405217495e-001	 1.247516015126117e+001
 8.545173378766733e-001	 6.101640101459929e-001	 1.204894907776543e+001
 8.481942106343932e-001	 6.189237279731328e-001	 1.161661250211861e+001
 8.417761261510833e-001	 6.276248508748118e-001	 1.123071570822334e+001
 8.352638916451534e-001	 6.362658495457502e-001	 1.095956047301358e+001
 8.286583469208936e-001	 6.448452093740827e-001	 1.068290566929399e+001
 8.219603640372094e-001	 6.533614313038202e-001	 1.040097162467269e+001
 8.151708469490998e-001	 6.618130326884288e-001	 1.011398133638270e+001
 8.997701745887435e-001	 5.882504848718763e-001	 1.363427854991606e+001
 8.936929560629136e-001	 5.974428008685592e-001	 1.322757702585635e+001
 8.875155530696497e-001	 6.065815222041774e-001	 1.281417313697170e+001
 8.812386557738413e-001	 6.156650319639527e-001	 1.239445809828244e+001
 8.748629887755891e-001	 6.246917246741830e-001	 1.196883265652494e+001
 8.683893108846112e-001	 6.336600072112341e-001	 1.170851007995284e+001
 8.618184148660554e-001	 6.425682997055966e-001	 1.144917088537305e+001
 8.551511271578161e-001	 6.514150364399609e-001	 1.118497773280142e+001
 8.483883075595252e-001	 6.601986667402745e-001	 1.091615299960153e+001
 8.415308488933955e-001	 6.689176558587390e-001	 1.064292079852009e+001
 8.345796766371638e-001	 6.775704858477131e-001	 1.036550687101636e+001
 9.206950623681951e-001	 6.019307287084381e-001	 1.358963408135507e+001
 9.144765131784466e-001	 6.113368194954976e-001	 1.318229655888088e+001
 9.081554496500561e-001	 6.206880692340396e-001	 1.276876175494169e+001
 9.017325779982595e-001	 6.299828234066174e-001	 1.244612722620214e+001
 8.952086396743232e-001	 6.392194392029307e-001	 1.220202769190456e+001
 8.885844111347034e-001	 6.483962864499585e-001	 1.195345544083624e+001
 8.818607035809463e-001	 6.575117485370405e-001	 1.170063515864023e+001
 8.750383626704336e-001	 6.665642233348367e-001	 1.144379246011858e+001
 8.681182681981370e-001	 6.755521241071071e-001	 1.118315377461080e+001
 8.611013337495769e-001	 6.844738804142442e-001	 1.091894623472682e+001
 8.539885063252279e-001	 6.933279390074986e-001	 1.065139756848100e+001
 9.416199501471442e-001	 6.156109725449948e-001	 1.357888411956276e+001
 9.352600702935722e-001	 6.252308381226158e-001	 1.317576872470862e+001
 9.287953462301400e-001	 6.347946162642376e-001	 1.294504271788835e+001
 9.222265002224307e-001	 6.443006148497431e-001	 1.271017779775188e+001
 9.155542905728754e-001	 6.537471537322354e-001	 1.247140379604164e+001
 9.087795113846693e-001	 6.631325656893065e-001	 1.222895070186921e+001
 9.019029922957564e-001	 6.724551973691438e-001	 1.198304853376147e+001
 8.949255981830053e-001	 6.817134102303775e-001	 1.173392721659258e+001
 8.878482288367283e-001	 6.909055814745803e-001	 1.148181646349618e+001
 8.806718186057527e-001	 7.000301049703354e-001	 1.122694566282946e+001
 8.733973360132922e-001	 7.090853921677851e-001	 1.096954377023856e+001
 9.625448379255903e-001	 6.292912163815461e-001	 1.368126485728443e+001
 9.560436274082902e-001	 6.391248567499139e-001	 1.345838950290540e+001
 9.494352428099019e-001	 6.489011632947710e-001	 1.323189589257262e+001
 9.427204224463548e-001	 6.586184062933304e-001	 1.300202117243418e+001
 9.358999414712462e-001	 6.682748682620976e-001	 1.276900177292387e+001
 9.289746116345086e-001	 6.778688449292775e-001	 1.253307326854514e+001
 9.219452810104858e-001	 6.873986462019062e-001	 1.229447024411610e+001
 9.148128336955317e-001	 6.968625971265834e-001	 1.205342616760549e+001
 9.075781894752993e-001	 7.062590388426944e-001	 1.181017326966320e+001
 9.002423034619237e-001	 7.155863295270126e-001	 1.156494242992297e+001
 8.928061657013564e-001	 7.248428453285732e-001	 1.131796307012703e+001
 9.834697257035339e-001	 6.429714602180920e-001	 1.398507874056004e+001
 9.768271845226005e-001	 6.530188753773920e-001	 1.376615080253295e+001
 9.700751393893412e-001	 6.630077103256397e-001	 1.354433631013891e+001
 9.632143446700321e-001	 6.729361977373790e-001	 1.331987926580895e+001
 9.562455923694353e-001	 6.828025827925169e-001	 1.309302194487585e+001
 9.491697118842217e-001	 6.926051241698716e-001	 1.286400474885940e+001
 9.419875697251338e-001	 7.023420950353276e-001	 1.263306606693418e+001
 9.347000692080123e-001	 7.120117840234542e-001	 1.240044214572399e+001
 9.273081501138503e-001	 7.216124962114492e-001	 1.216636696753221e+001
 9.198127883180899e-001	 7.311425540842763e-001	 1.193107213709047e+001
 9.122149953894206e-001	 7.406002984898628e-001	 1.169478677687376e+001
 1.004394613480975e+000	 6.566517040546329e-001	 1.431195180304153e+001
 9.976107416365034e-001	 6.669128940050499e-001	 1.409740936917476e+001
 9.907150359684581e-001	 6.771142573568438e-001	 1.388069625051375e+001
 9.837082668934620e-001	 6.872539891818887e-001	 1.366206256661318e+001
 9.765912432674425e-001	 6.973302973234933e-001	 1.344175569098797e+001
 9.693648121338087e-001	 7.073414034110892e-001	 1.322002009888232e+001
 9.620298584397014e-001	 7.172855438694087e-001	 1.299709722497902e+001
 9.545873047204476e-001	 7.271609709209903e-001	 1.277322533120127e+001
 9.470381107523808e-001	 7.369659535808444e-001	 1.254863938472436e+001
 9.393832731742507e-001	 7.466987786421260e-001	 1.232357094627932e+001
 9.316238250774851e-001	 7.563577516516536e-001	 1.209824806879430e+001
 1.025319501257913e+000	 6.703319478911681e-001	 1.466033974571120e+001
 1.018394298749999e+000	 6.808069126328878e-001	 1.445059651137986e+001
 1.011354932547253e+000	 6.912208043883835e-001	 1.423938512741739e+001
 1.004202189116645e+000	 7.015717806268597e-001	 1.402696109868157e+001
 9.969368941652685e-001	 7.118580118550273e-001	 1.381357615560915e+001
 9.895599123832695e-001	 7.220776826529302e-001	 1.359947809744534e+001
 9.820721471541883e-001	 7.322289927041489e-001	 1.338491064720677e+001
 9.744745402328373e-001	 7.423101578191913e-001	 1.317011331853927e+001
 9.667680713908913e-001	 7.523194109508808e-001	 1.295532129459203e+001
 9.589537580304065e-001	 7.622550032005621e-001	 1.274076531898870e+001
 9.510326547655491e-001	 7.721152048139458e-001	 1.252667159893649e+001
 1.046244389034349e+000	 6.840121917276982e-001	 1.502876291144995e+001
 1.039177855863086e+000	 6.947009312609056e-001	 1.482421064436619e+001
 1.031994829125725e+000	 7.053273514202587e-001	 1.461888177498468e+001
 1.024696111339581e+000	 7.158895720722920e-001	 1.441303646743678e+001
 1.017282545062913e+000	 7.263857263871184e-001	 1.420693007182145e+001
 1.009755012632604e+000	 7.368139618953941e-001	 1.400081296386485e+001
 1.002114435868594e+000	 7.471724415395481e-001	 1.379493039814722e+001
 9.943617757451817e-001	 7.574593447180577e-001	 1.358952237506403e+001
 9.864980320293814e-001	 7.676728683215579e-001	 1.338482352164581e+001
 9.785242428865573e-001	 7.778112277595842e-001	 1.318106298631415e+001
 9.704414844536136e-001	 7.878726579767392e-001	 1.297846434760715e+001
 7.763531875729710e-001	 6.302981263713646e-001	 9.723196090923988e+000
 7.698006963084499e-001	 6.382843315578651e-001	 9.294773938211986e+000
 7.631628410692363e-001	 6.462062193673844e-001	 8.874487810480497e+000
 7.564405715924578e-001	 6.540624294185955e-001	 8.463002195605890e+000
 7.496348663729667e-001	 6.618516201064840e-001	 8.060973391529284e+000
 7.427467321968386e-001	 6.695724693589142e-001	 7.669048915431067e+000
 7.357772036510774e-001	 6.772236753791965e-001	 7.287866925581217e+000
 7.287273426100210e-001	 6.848039573737854e-001	 6.918055656695130e+000
 7.215982376989776e-001	 6.923120562642575e-001	 6.560232869594580e+000
 7.143910037356571e-001	 6.997467353827424e-001	 6.215005315939614e+000
 7.071067811500000e-001	 7.071067811500000e-001	 5.882968218761765e+000
 7.957620172610354e-001	 6.460555795296462e-001	 9.899073394076755e+000
 7.890457137156018e-001	 6.542414398460118e-001	 9.509245737305909e+000
 7.822419120960087e-001	 6.623613748509767e-001	 9.126203553657231e+000
 7.753515858828121e-001	 6.704139901536809e-001	 8.750557439319252e+000
 7.683757380332351e-001	 6.783979106089844e-001	 8.382910666561227e+000
 7.613154005030053e-001	 6.863117810929481e-001	 8.023858656267965e+000
 7.541716337438014e-001	 6.941542672639653e-001	 7.673988462342862e+000
 7.469455261768199e-001	 7.019240563086516e-001	 7.333878268690807e+000
 7.396381936430014e-001	 7.096198576716236e-001	 7.004096899462588e+000
 7.322507788304985e-001	 7.172404037683136e-001	 6.685203343210570e+000
 7.247844506799999e-001	 7.247844506800000e-001	 6.377746291572025e+000
 8.151708469490998e-001	 6.618130326884288e-001	 1.011398133638270e+001
 8.082907311227530e-001	 6.701985481345644e-001	 9.758687248388251e+000
 8.013209831227808e-001	 6.785165303348901e-001	 9.408893041594681e+000
 7.942626001731661e-001	 6.867655508890119e-001	 9.065156884758281e+000
 7.871166096935036e-001	 6.949442011116653e-001	 8.728030439860689e+000
 7.798840688091721e-001	 7.030510928271078e-001	 8.398058397098186e+000
 7.725660638365257e-001	 7.110848591488145e-001	 8.075778021001252e+000
 7.651637097436187e-001	 7.190441552435636e-001	 7.761718708279139e+000
 7.576781495870251e-001	 7.269276590790100e-001	 7.456401557953326e+000
 7.501105539253395e-001	 7.347340721538893e-001	 7.160338954314700e+000
 7.424621202100000e-001	 7.424621202100000e-001	 6.874034163207044e+000
 8.345796766371638e-001	 6.775704858477131e-001	 1.036550687101636e+001
 8.275357485299048e-001	 6.861556564235237e-001	 1.004098004250418e+001
 8.204000541495531e-001	 6.946716858191245e-001	 9.720728873040057e+000
 8.131736144635205e-001	 7.031171116245896e-001	 9.405260409879395e+000
 8.058574813537721e-001	 7.114904916145274e-001	 9.095075963646686e+000
 7.984527371153392e-001	 7.197904045613930e-001	 8.790670705028772e+000
 7.909604939292501e-001	 7.280154510337448e-001	 8.492533271928602e+000
 7.833818933104181e-001	 7.361642541785208e-001	 8.201145387557602e+000
 7.757181055310486e-001	 7.442354604864162e-001	 7.916981489914095e+000
 7.679703290201807e-001	 7.522277405394704e-001	 7.640508373066610e+000
 7.601397897400000e-001	 7.601397897400000e-001	 7.372184840630734e+000
 8.539885063252279e-001	 6.933279390074986e-001	 1.065139756848100e+001
 8.467807659370565e-001	 7.021127647128891e-001	 1.035414060535949e+001
 8.394791251763253e-001	 7.108268413036804e-001	 1.005999322675633e+001
 8.320846287538746e-001	 7.194686723604126e-001	 9.769412518729025e+000
 8.245983530140405e-001	 7.280367821175704e-001	 9.482850555497906e+000
 8.170214054215057e-001	 7.365297162958037e-001	 9.200754057236541e+000
 8.093549240219742e-001	 7.449460429187546e-001	 8.923564057720251e+000
 8.016000768772169e-001	 7.532843531135229e-001	 8.651715582193383e+000
 7.937580614750726e-001	 7.615432618938427e-001	 8.385637335786690e+000
 7.858301041150223e-001	 7.697214089250566e-001	 8.125751402787884e+000
 7.778174592700000e-001	 7.778174592700000e-001	 7.872472957040280e+000
 8.733973360132922e-001	 7.090853921677851e-001	 1.096954377023856e+001
 8.660257833442079e-001	 7.180698730026608e-001	 1.069630534680254e+001
 8.585581962030976e-001	 7.269819967885571e-001	 1.042506568596502e+001
 8.509956430442284e-001	 7.358202330964815e-001	 1.015623293854490e+001
 8.433392246743088e-001	 7.445830726207936e-001	 9.890210924423824e+000
 8.355900737276726e-001	 7.532690280303400e-001	 9.627398850960208e+000
 8.277493541146983e-001	 7.618766348038450e-001	 9.368191040725595e+000
 8.198182604440158e-001	 7.704044520485702e-001	 9.112976668804556e+000
 8.117980174190962e-001	 7.788510633012893e-001	 8.862139509874270e+000
 8.036898792098633e-001	 7.872150773106477e-001	 8.616057695250948e+000
 7.954951288000000e-001	 7.954951288000000e-001	 8.375103480062522e+000
 8.928061657013564e-001	 7.248428453285732e-001	 1.131796307012703e+001
 8.852708007513596e-001	 7.340269812928388e-001	 1.106571756559142e+001
 8.776372672298697e-001	 7.431371522737551e-001	 1.081441265090493e+001
 8.699066573345828e-001	 7.521717938327969e-001	 1.056440844332231e+001
 8.620800963345773e-001	 7.611293631241980e-001	 1.031606136744835e+001
 8.541587420338392e-001	 7.700083397650018e-001	 1.006972393392854e+001
 8.461437842074222e-001	 7.788072266890160e-001	 9.825744526987812e+000
 8.380364440108148e-001	 7.875245509836630e-001	 9.584467200943577e+000
 8.298379733631200e-001	 7.961588647087562e-001	 9.346231485791458e+000
 8.215496543047046e-001	 8.047087456962437e-001	 9.111372201934026e+000
 8.131727983300000e-001	 8.131727983300000e-001	 8.880219284098455e+000
 9.122149953894206e-001	 7.406002984898628e-001	 1.169478677687376e+001
 9.045158181585112e-001	 7.499840895834230e-001	 1.146071607823308e+001
 8.967163382566420e-001	 7.592923077592744e-001	 1.122657810297921e+001
 8.888176716249372e-001	 7.685233545693583e-001	 1.099268572117969e+001
 8.808209679948458e-001	 7.776756536277830e-001	 1.075934870705504e+001
 8.727274103400061e-001	 7.867476514997894e-001	 1.052687357771243e+001
 8.645382143001464e-001	 7.957378185742671e-001	 1.029556344031899e+001
 8.562546275776136e-001	 8.046446499188009e-001	 1.006571784772151e+001
 8.478779293071437e-001	 8.134666661162426e-001	 9.837632662494912e+000
 8.394094293995459e-001	 8.222024140818449e-001	 9.611599929372144e+000
 8.308504678599999e-001	 8.308504678599999e-001	 9.387907755985546e+000
 9.316238250774851e-001	 7.563577516516536e-001	 1.209824806879430e+001
 9.237608355656627e-001	 7.659411978744137e-001	 1.187972526921805e+001
 9.157954092834143e-001	 7.754474632451148e-001	 1.166017552338404e+001
 9.077286859152912e-001	 7.848749153061654e-001	 1.143986513330484e+001
 8.995618396551142e-001	 7.942219441315489e-001	 1.121905786145163e+001
 8.912960786461726e-001	 8.034869632347024e-001	 1.099801482940795e+001
 8.829326443928708e-001	 8.126684104595989e-001	 1.077699442461579e+001
 8.744728111444123e-001	 8.217647488539841e-001	 1.055625221510377e+001
 8.659178852511673e-001	 8.307744675237495e-001	 1.033604087206036e+001
 8.572692044943870e-001	 8.396960824674510e-001	 1.011661010008829e+001
 8.485281373899998e-001	 8.485281373899998e-001	 9.898206574952415e+000
 9.510326547655491e-001	 7.721152048139458e-001	 1.252667159893649e+001
 9.430058529728143e-001	 7.818983061658105e-001	 1.232124635959339e+001
 9.348744803101865e-001	 7.916026187312762e-001	 1.211388080129303e+001
 9.266397002056453e-001	 8.012264760432186e-001	 1.190479523711062e+001
 9.183027113153827e-001	 8.107682346354956e-001	 1.169420795725146e+001
 9.098647469523398e-001	 8.202262749697412e-001	 1.148233518760328e+001
 9.013270744855949e-001	 8.295990023450112e-001	 1.126939105609589e+001
 8.926909947112114e-001	 8.388848477892125e-001	 1.105558756663934e+001
 8.839578411951912e-001	 8.480822689312765e-001	 1.084113458038441e+001
 8.751289795892284e-001	 8.571897508530622e-001	 1.062623980402347e+001
 8.662058069199999e-001	 8.662058069199999e-001	 1.041110878482363e+001
 9.704414844536136e-001	 7.878726579767392e-001	 1.297846434760715e+001
 9.622508703799659e-001	 7.978554144576137e-001	 1.278384972330697e+001
 9.539535513369586e-001	 8.077577742177589e-001	 1.258642599305945e+001
 9.455507144959995e-001	 8.175780367805177e-001	 1.238636796661259e+001
 9.370435829756511e-001	 8.273145251396229e-001	 1.218384890863263e+001
 9.284334152585064e-001	 8.369655867049054e-001	 1.197904055722937e+001
 9.197215045783189e-001	 8.465295942305035e-001	 1.177211315006567e+001
 9.109091782780104e-001	 8.560049467244861e-001	 1.156323545770245e+001
 9.019977971392149e-001	 8.653900703388237e-001	 1.135257482380303e+001
 8.929887546840698e-001	 8.746834192386785e-001	 1.114029721179471e+001
 8.838834764499999e-001	 8.838834764499999e-001	 1.092656725756032e+001
 7.071067811500000e-001	 7.071067811500000e-001	 5.882968218761765e+000
 6.997467353827424e-001	 7.143910037356571e-001	 5.580898462764347e+000
 6.923120562642576e-001	 7.215982376989775e-001	 5.281544463014027e+000
 6.848039573737853e-001	 7.287273426100210e-001	 4.985291214452258e+000
 6.772236753791965e-001	 7.357772036510774e-001	 4.692521373132274e+000
 6.695724693589142e-001	 7.427467321968386e-001	 4.403614989446654e+000
 6.618516201064840e-001	 7.496348663729667e-001	 4.118949245574258e+000
 6.540624294185956e-001	 7.564405715924577e-001	 3.838898197371937e+000
 6.462062193673844e-001	 7.631628410692365e-001	 3.563832520923943e+000
 6.382843315578652e-001	 7.698006963084498e-001	 3.294119263952503e+000
 6.302981263713646e-001	 7.763531875729710e-001	 3.030121602282269e+000
 7.247844506799999e-001	 7.247844506800000e-001	 6.377746291572025e+000
 7.172404037683134e-001	 7.322507788304985e-001	 6.086409810371282e+000
 7.096198576716237e-001	 7.396381936430012e-001	 5.797951845898357e+000
 7.019240563086517e-001	 7.469455261768201e-001	 5.512745528645494e+000
 6.941542672639653e-001	 7.541716337438014e-001	 5.231161291019952e+000
 6.863117810929481e-001	 7.613154005030052e-001	 4.953566622058613e+000
 6.783979106089844e-001	 7.683757380332351e-001	 4.680325826903269e+000
 6.704139901536809e-001	 7.753515858828118e-001	 4.411799791208439e+000
 6.623613748509767e-001	 7.822419120960087e-001	 4.148345750640743e+000
 6.542414398460118e-001	 7.890457137156017e-001	 3.890317065618109e+000
 6.460555795296461e-001	 7.957620172610354e-001	 3.638063001427362e+000
 7.424621202100000e-001	 7.424621202100000e-001	 6.874034163207044e+000
 7.347340721538893e-001	 7.501105539253395e-001	 6.592651780604252e+000
 7.269276590790101e-001	 7.576781495870252e-001	 6.314292775891411e+000
 7.190441552435636e-001	 7.651637097436189e-001	 6.039318186416203e+000
 7.110848591488145e-001	 7.725660638365257e-001	 5.768086000082498e+000
 7.030510928271078e-001	 7.798840688091721e-001	 5.500950932302794e+000
 6.949442011116653e-001	 7.871166096935036e-001	 5.238264208244551e+000
 6.867655508890120e-001	 7.942626001731661e-001	 4.980373350487940e+000
 6.785165303348898e-001	 8.013209831227809e-001	 4.727621972197405e+000
 6.701985481345646e-001	 8.082907311227530e-001	 4.480349575900157e+000
 6.618130326884288e-001	 8.151708469490996e-001	 4.238891357949753e+000
 7.601397897400000e-001	 7.601397897400000e-001	 7.372184840630734e+000
 7.522277405394704e-001	 7.679703290201808e-001	 7.100049766044261e+000
 7.442354604864165e-001	 7.757181055310487e-001	 6.831066602652133e+000
 7.361642541785208e-001	 7.833818933104180e-001	 6.565584014844687e+000
 7.280154510337445e-001	 7.909604939292499e-001	 6.303947273000327e+000
 7.197904045613930e-001	 7.984527371153392e-001	 6.046498053485779e+000
 7.114904916145275e-001	 8.058574813537721e-001	 5.793574244479673e+000
 7.031171116245893e-001	 8.131736144635203e-001	 5.545509757677226e+000
 6.946716858191244e-001	 8.204000541495530e-001	 5.302634345921488e+000
 6.861556564235237e-001	 8.275357485299046e-001	 5.065273426794350e+000
 6.775704858477131e-001	 8.345796766371638e-001	 4.833747912187276e+000
 7.778174592700000e-001	 7.778174592700000e-001	 7.872472957040280e+000
 7.697214089250566e-001	 7.858301041150223e-001	 7.608945620456409e+000
 7.615432618938427e-001	 7.937580614750724e-001	 7.348683851882423e+000
 7.532843531135229e-001	 8.016000768772169e-001	 7.092023614400501e+000
 7.449460429187546e-001	 8.093549240219742e-001	 6.839297138327896e+000
 7.365297162958037e-001	 8.170214054215057e-001	 6.590832745137115e+000
 7.280367821175703e-001	 8.245983530140405e-001	 6.346954677720542e+000
 7.194686723604127e-001	 8.320846287538745e-001	 6.107982937000019e+000
 7.108268413036801e-001	 8.394791251763255e-001	 5.874233124866713e+000
 7.021127647128891e-001	 8.467807659370564e-001	 5.646016293421690e+000
 6.933279390074987e-001	 8.539885063252281e-001	 5.423638800476891e+000
 7.954951288000000e-001	 7.954951288000000e-001	 8.375103480062522e+000
 7.872150773106477e-001	 8.036898792098633e-001	 8.119606940880686e+000
 7.788510633012895e-001	 8.117980174190961e-001	 7.867476094656229e+000
 7.704044520485701e-001	 8.198182604440157e-001	 7.619033828565128e+000
 7.618766348038449e-001	 8.277493541146982e-001	 7.374598963174325e+000
 7.532690280303400e-001	 8.355900737276725e-001	 7.134486101207212e+000
 7.445830726207936e-001	 8.433392246743088e-001	 6.899005483172782e+000
 7.358202330964817e-001	 8.509956430442285e-001	 6.668462849796618e+000
 7.269819967885571e-001	 8.585581962030977e-001	 6.443159311176544e+000
 7.180698730026608e-001	 8.660257833442079e-001	 6.223391222570461e+000
 7.090853921677852e-001	 8.733973360132923e-001	 6.009450066710596e+000
 8.131727983300000e-001	 8.131727983300000e-001	 8.880219284098455e+000
 8.047087456962437e-001	 8.215496543047046e-001	 8.632235139014826e+000
 7.961588647087559e-001	 8.298379733631198e-001	 8.387704529443955e+000
 7.875245509836630e-001	 8.380364440108148e-001	 8.146936847853178e+000
 7.788072266890160e-001	 8.461437842074223e-001	 7.910237090317023e+000
 7.700083397650018e-001	 8.541587420338392e-001	 7.677905731108215e+000
 7.611293631241979e-001	 8.620800963345773e-001	 7.450238604669139e+000
 7.521717938327970e-001	 8.699066573345828e-001	 7.227526794837681e+000
 7.431371522737550e-001	 8.776372672298699e-001	 7.010056531183378e+000
 7.340269812928387e-001	 8.852708007513597e-001	 6.798109092297165e+000
 7.248428453285735e-001	 8.928061657013564e-001	 6.591960715861832e+000
 8.308504678599999e-001	 8.308504678599999e-001	 9.387907755985546e+000
 8.222024140818448e-001	 8.394094293995459e-001	 9.146972482208783e+000
 8.134666661162426e-001	 8.478779293071436e-001	 8.909567468559610e+000
 8.046446499188010e-001	 8.562546275776138e-001	 8.675988151616846e+000
 7.957378185742673e-001	 8.645382143001466e-001	 8.446525245045528e+000
 7.867476514997893e-001	 8.727274103400060e-001	 8.221464641047927e+000
 7.776756536277829e-001	 8.808209679948457e-001	 8.001087319709155e+000
 7.685233545693583e-001	 8.888176716249369e-001	 7.785669266044388e+000
 7.592923077592743e-001	 8.967163382566421e-001	 7.575481394537186e+000
 7.499840895834231e-001	 9.045158181585112e-001	 7.370789480941136e+000
 7.406002984898628e-001	 9.122149953894206e-001	 7.171854101104707e+000
 8.485281373899998e-001	 8.485281373899998e-001	 9.898206574952415e+000
 8.396960824674509e-001	 8.572692044943873e-001	 9.663908254333672e+000
 8.307744675237496e-001	 8.659178852511674e-001	 9.433206888802360e+000
 8.217647488539840e-001	 8.744728111444126e-001	 9.206383457125526e+000
 8.126684104595990e-001	 8.829326443928708e-001	 8.983713891149842e+000
 8.034869632347023e-001	 8.912960786461726e-001	 8.765469005197231e+000
 7.942219441315489e-001	 8.995618396551142e-001	 8.551914433868628e+000
 7.848749153061655e-001	 9.077286859152911e-001	 8.343310577993503e+000
 7.754474632451146e-001	 9.157954092834144e-001	 8.139912558443426e+000
 7.659411978744137e-001	 9.237608355656627e-001	 7.941970177511241e+000
 7.563577516516535e-001	 9.316238250774851e-001	 7.749727887543219e+000
 8.662058069199999e-001	 8.662058069199999e-001	 1.041110878482363e+001
 8.571897508530622e-001	 8.751289795892283e-001	 1.018308416225961e+001
 8.480822689312767e-001	 8.839578411951911e-001	 9.958714179978358e+000
 8.388848477892124e-001	 8.926909947112115e-001	 9.738264817737644e+000
 8.295990023450112e-001	 9.013270744855950e-001	 9.521996686175582e+000
 8.202262749697411e-001	 9.098647469523395e-001	 9.310164985285409e+000
 8.107682346354954e-001	 9.183027113153826e-001	 9.103019471812656e+000
 8.012264760432186e-001	 9.266397002056451e-001	 8.900804435238365e+000
 7.916026187312760e-001	 9.348744803101865e-001	 8.703758681994177e+000
 7.818983061658106e-001	 9.430058529728145e-001	 8.512115527536393e+000
 7.721152048139458e-001	 9.510326547655491e-001	 8.326102795891609e+000
 8.838834764499999e-001	 8.838834764499999e-001	 1.092656725756032e+001
 8.746834192386785e-001	 8.929887546840698e-001	 1.070449909355564e+001
 8.653900703388238e-001	 9.019977971392147e-001	 1.048613520359998e+001
 8.560049467244860e-001	 9.109091782780104e-001	 1.027172598929169e+001
 8.465295942305037e-001	 9.197215045783191e-001	 1.006151616204822e+001
 8.369655867049053e-001	 9.284334152585063e-001	 9.855744731844395e+000
 8.273145251396229e-001	 9.370435829756509e-001	 9.654645005386453e+000
 8.175780367805178e-001	 9.455507144959995e-001	 9.458444593311224e+000
 8.077577742177586e-001	 9.539535513369589e-001	 9.267365425979419e+000
 7.978554144576137e-001	 9.622508703799658e-001	 9.081623777413302e+000
 7.878726579767392e-001	 9.704414844536136e-001	 8.901430296913707e+000
 6.302981263713646e-001	 7.763531875729710e-001	 3.030121602282269e+000
 6.222489821957411e-001	 7.828193943248218e-001	 2.817053811482061e+000
 6.141382946436216e-001	 7.891984256435691e-001	 2.586560521414155e+000
 6.059674757593238e-001	 7.954894206196910e-001	 2.361571115669172e+000
 5.977379532152196e-001	 8.016915487208971e-001	 2.142358489393935e+000
 5.894511694988002e-001	 8.078040101335781e-001	 1.929189661698362e+000
 5.811085810912837e-001	 8.138260360782970e-001	 1.722325598191304e+000
 5.727116576387268e-001	 8.197568890991045e-001	 1.522021043631378e+000
 5.642618811166035e-001	 8.255958633264966e-001	 1.328524364779760e+000
 5.557607449888236e-001	 8.313422847138690e-001	 1.142077403517275e+000
 5.472097533621585e-001	 8.369955112473729e-001	 9.629153402663416e-001
 6.460555795296461e-001	 7.957620172610354e-001	 3.638063001427362e+000
 6.378052067494876e-001	 8.023898791810181e-001	 3.439125270222939e+000
 6.294917520085319e-001	 8.089283862822417e-001	 3.245594843760313e+000
 6.211166626522043e-001	 8.153766561324448e-001	 3.041068290600290e+000
 6.126814020446861e-001	 8.217338374360308e-001	 2.822461101684866e+000
 6.041874487356549e-001	 8.279991103840487e-001	 2.609080052918651e+000
 5.956362956183596e-001	 8.341716869775759e-001	 2.401176627326704e+000
 5.870294490800074e-001	 8.402508113242636e-001	 2.198996624818260e+000
 5.783684281454594e-001	 8.462357599078704e-001	 2.002780017482344e+000
 5.696547636152223e-001	 8.521258418306248e-001	 1.812760814504631e+000
 5.608899971987366e-001	 8.579203990283327e-001	 1.629166936718306e+000
 6.618130326884288e-001	 8.151708469490996e-001	 4.238891357949753e+000
 6.533614313038202e-001	 8.219603640372094e-001	 4.041043386536522e+000
 6.448452093740830e-001	 8.286583469208937e-001	 3.847801996873173e+000
 6.362658495457499e-001	 8.352638916451532e-001	 3.659361458407322e+000
 6.276248508748118e-001	 8.417761261510834e-001	 3.475913227443325e+000
 6.189237279731329e-001	 8.481942106343930e-001	 3.272196745132837e+000
 6.101640101459929e-001	 8.545173378766733e-001	 3.062238636316784e+000
 6.013472405217496e-001	 8.607447335491760e-001	 2.857198741496457e+000
 5.924749751746506e-001	 8.668756564889212e-001	 2.657308706278692e+000
 5.835487822418006e-001	 8.729093989469730e-001	 2.462794749587053e+000
 5.745702410353087e-001	 8.788452868087893e-001	 2.273877549782100e+000
 6.775704858477131e-001	 8.345796766371638e-001	 4.833747912187276e+000
 6.689176558587390e-001	 8.415308488933956e-001	 4.635938894292926e+000
 6.601986667402746e-001	 8.483883075595253e-001	 4.441955000040400e+000
 6.514150364399607e-001	 8.551511271578162e-001	 4.251974198726309e+000
 6.425682997055964e-001	 8.618184148660554e-001	 4.066172334389937e+000
 6.336600072112341e-001	 8.683893108846115e-001	 3.884723103985372e+000
 6.246917246741831e-001	 8.748629887755891e-001	 3.706554387122556e+000
 6.156650319639528e-001	 8.812386557738412e-001	 3.497752490872219e+000
 6.065815222041774e-001	 8.875155530696497e-001	 3.293316197878564e+000
 5.974428008685592e-001	 8.936929560629136e-001	 3.093463937621201e+000
 5.882504848718763e-001	 8.997701745887436e-001	 2.898409122627973e+000
 6.933279390074987e-001	 8.539885063252281e-001	 5.423638800476891e+000
 6.844738804142442e-001	 8.611013337495768e-001	 5.224908907073345e+000
 6.755521241071072e-001	 8.681182681981370e-001	 5.029240283280593e+000
 6.665642233348367e-001	 8.750383626704337e-001	 4.836794359525825e+000
 6.575117485370405e-001	 8.818607035809464e-001	 4.647731120281505e+000
 6.483962864499587e-001	 8.885844111347035e-001	 4.462209106995337e+000
 6.392194392029307e-001	 8.952086396743231e-001	 4.280385421070482e+000
 6.299828234066175e-001	 9.017325779982596e-001	 4.102415726637616e+000
 6.206880692340399e-001	 9.081554496500564e-001	 3.911818862566578e+000
 6.113368194954976e-001	 9.144765131784467e-001	 3.705857739859220e+000
 6.019307287084381e-001	 9.206950623681951e-001	 3.503922449189188e+000
 7.090853921677852e-001	 8.733973360132923e-001	 6.009450066710596e+000
 7.000301049703352e-001	 8.806718186057527e-001	 5.808923872945570e+000
 6.909055814745804e-001	 8.878482288367283e-001	 5.610711187139905e+000
 6.817134102303774e-001	 8.949255981830052e-001	 5.414956609894380e+000
 6.724551973691438e-001	 9.019029922957563e-001	 5.221803967771511e+000
 6.631325656893065e-001	 9.087795113846693e-001	 5.031396341873502e+000
 6.537471537322354e-001	 9.155542905728754e-001	 4.843876095358247e+000
 6.443006148497433e-001	 9.222265002224306e-001	 4.659384899581056e+000
 6.347946162642375e-001	 9.287953462301400e-001	 4.478063758562468e+000
 6.252308381226157e-001	 9.352600702935721e-001	 4.300053031492604e+000
 6.156109725449946e-001	 9.416199501471442e-001	 4.091399524076654e+000
 7.248428453285735e-001	 8.928061657013564e-001	 6.591960715861832e+000
 7.155863295270126e-001	 9.002423034619237e-001	 6.388841342453813e+000
 7.062590388426944e-001	 9.075781894752993e-001	 6.187302428939392e+000
 6.968625971265833e-001	 9.148128336955316e-001	 5.987471405395162e+000
 6.873986462019063e-001	 9.219452810104858e-001	 5.789475593494492e+000
 6.778688449292776e-001	 9.289746116345086e-001	 5.593442261675767e+000
 6.682748682620976e-001	 9.358999414712462e-001	 5.399498678132720e+000
 6.586184062933305e-001	 9.427204224463548e-001	 5.207772161259727e+000
 6.489011632947709e-001	 9.494352428099019e-001	 5.018390127200496e+000
 6.391248567499139e-001	 9.560436274082902e-001	 4.831480134162866e+000
 6.292912163815461e-001	 9.625448379255903e-001	 4.647169923179689e+000
 7.406002984898628e-001	 9.122149953894206e-001	 7.171854101104707e+000
 7.311425540842764e-001	 9.198127883180900e-001	 6.965417978994156e+000
 7.216124962114491e-001	 9.273081501138502e-001	 6.759842722266603e+000
 7.120117840234543e-001	 9.347000692080125e-001	 6.555238202270434e+000
 7.023420950353279e-001	 9.419875697251339e-001	 6.351714842323537e+000
 6.926051241698717e-001	 9.491697118842217e-001	 6.149383700465997e+000
 6.828025827925169e-001	 9.562455923694353e-001	 5.948356548912806e+000
 6.729361977373790e-001	 9.632143446700319e-001	 5.748745949783411e+000
 6.630077103256397e-001	 9.700751393893412e-001	 5.550665326702056e+000
 6.530188753773921e-001	 9.768271845226005e-001	 5.354229031881587e+000
 6.429714602180920e-001	 9.834697257035339e-001	 5.159552408322851e+000
 7.563577516516535e-001	 9.316238250774851e-001	 7.749727887543219e+000
 7.466987786421260e-001	 9.393832731742509e-001	 7.539320067892178e+000
 7.369659535808448e-001	 9.470381107523809e-001	 7.329065819031659e+000
 7.271609709209902e-001	 9.545873047204475e-001	 7.119057019870977e+000
 7.172855438694087e-001	 9.620298584397016e-001	 6.909386757345212e+000
 7.073414034110892e-001	 9.693648121338087e-001	 6.700149437794316e+000
 6.973302973234934e-001	 9.765912432674425e-001	 6.491440893914611e+000
 6.872539891818886e-001	 9.837082668934617e-001	 6.283358486799603e+000
 6.771142573568437e-001	 9.907150359684582e-001	 6.076001202607542e+000
 6.669128940050501e-001	 9.976107416365034e-001	 5.869469743415388e+000
 6.566517040546327e-001	 1.004394613480975e+000	 5.663866611841604e+000
 7.721152048139458e-001	 9.510326547655491e-001	 8.326102795891609e+000
 7.622550032005621e-001	 9.589537580304064e-001	 8.111132738655348e+000
 7.523194109508807e-001	 9.667680713908911e-001	 7.895620199433991e+000
 7.423101578191912e-001	 9.744745402328375e-001	 7.679638587277783e+000
 7.322289927041489e-001	 9.820721471541883e-001	 7.463263171878825e+000
 7.220776826529302e-001	 9.895599123832695e-001	 7.246571224667886e+000
 7.118580118550273e-001	 9.969368941652685e-001	 7.029642154347493e+000
 7.015717806268598e-001	 1.004202189116645e+000	 6.812557636316233e+000
 6.912208043883834e-001	 1.011354932547253e+000	 6.595401735462364e+000
 6.808069126328881e-001	 1.018394298749999e+000	 6.378261021831166e+000
 6.703319478911681e-001	 1.025319501257913e+000	 6.161224678696447e+000
 7.878726579767392e-001	 9.704414844536136e-001	 8.901430296913707e+000
 7.778112277595841e-001	 9.785242428865572e-001	 8.681368080554558e+000
 7.676728683215578e-001	 9.864980320293814e-001	 8.460077599133552e+000
 7.574593447180574e-001	 9.943617757451816e-001	 8.237613272328755e+000
 7.471724415395482e-001	 1.002114435868594e+000	 8.014032030452819e+000
 7.368139618953939e-001	 1.009755012632604e+000	 7.789393486405070e+000
 7.263857263871183e-001	 1.017282545062913e+000	 7.563760100914799e+000
 7.158895720722921e-001	 1.024696111339581e+000	 7.337197340465449e+000
 7.053273514202586e-001	 1.031994829125725e+000	 7.109773827316097e+000
 6.947009312609058e-001	 1.039177855863086e+000	 6.881561481065972e+000
 6.840121917276981e-001	 1.046244389034349e+000	 6.652635651239581e+000
 5.472097533621585e-001	 8.369955112473729e-001	 9.629153402663416e-001
 5.386104201372436e-001	 8.425549331296908e-001	 8.254461892567183e-001
 5.299642681565356e-001	 8.480199729359587e-001	 6.921969689858242e-001
 5.212728283505860e-001	 8.533900857430293e-001	 5.634251533189397e-001
 5.125376388839767e-001	 8.586647592332956e-001	 4.393836680996101e-001
 5.037602443012850e-001	 8.638435137714189e-001	 3.203207371591132e-001
 4.949421946742140e-001	 8.689259024546855e-001	 2.064797358740873e-001
 4.860850447508238e-001	 8.739115111371586e-001	 9.809905230693176e-002
 4.771903531077779e-001	 8.787999584278388e-001	-4.588044049752814e-003
 4.682596813065159e-001	 8.835908956630776e-001	-1.013535259186512e-001
 4.592945930542355e-001	 8.882840068535240e-001	-1.919747242809958e-001
 5.608899971987366e-001	 8.579203990283327e-001	 1.629166936718306e+000
 5.520756806439687e-001	 8.636188064585515e-001	 1.489226256822794e+000
 5.432133748642545e-001	 8.692204722606064e-001	 1.353240225142577e+000
 5.343046490634091e-001	 8.747248378882713e-001	 1.221455135954883e+000
 5.253510798601305e-001	 8.801313782159997e-001	 1.094112848537294e+000
 5.163542504126110e-001	 8.854396016175709e-001	 9.714506506202754e-001
 5.073157495443472e-001	 8.906490500177037e-001	 8.537011291415974e-001
 4.982371708721025e-001	 8.957592989168137e-001	 7.410920483014398e-001
 4.891201119369574e-001	 9.007699573891274e-001	 6.338462349030560e-001
 4.799661733393892e-001	 9.056806680544065e-001	 5.321814709502278e-001
 4.707769578792765e-001	 9.104911070235670e-001	 4.363103934608024e-001
 5.745702410353087e-001	 8.788452868087893e-001	 2.273877549782100e+000
 5.655409411505090e-001	 8.846826797868248e-001	 2.130334779611171e+000
 5.564624815716492e-001	 8.904209715846120e-001	 1.990483550803241e+000
 5.473364697758096e-001	 8.960595900328476e-001	 1.854559161363202e+000
 5.381645208358035e-001	 9.015979971980450e-001	 1.722792580821820e+000
 5.289482565234379e-001	 9.070356894631003e-001	 1.595410331377907e+000
 5.196893044140039e-001	 9.123721975801657e-001	 1.472634376104010e+000
 5.103892969929659e-001	 9.176070866960091e-001	 1.354682014177012e+000
 5.010498707658233e-001	 9.227399563500828e-001	 1.241765783082027e+000
 4.916726653720898e-001	 9.277704404455581e-001	 1.134093367723691e+000
 4.822593227043255e-001	 9.326982071936176e-001	 1.031867516371119e+000
 5.882504848718763e-001	 8.997701745887436e-001	 2.898409122627973e+000
 5.790062016568643e-001	 9.057465531145107e-001	 2.750227968709651e+000
 5.697115882787198e-001	 9.116214709079761e-001	 2.605477608286460e+000
 5.603682904877875e-001	 9.173943421767581e-001	 2.464382472874279e+000
 5.509779618109955e-001	 9.230646161794308e-001	 2.327162765654044e+000
 5.415422626337660e-001	 9.286317773080073e-001	 2.194034360604206e+000
 5.320628592831832e-001	 9.340953451420719e-001	 2.065208708466917e+000
 5.225414231134142e-001	 9.394548744747451e-001	 1.940892749469037e+000
 5.129796295943757e-001	 9.447099553107049e-001	 1.821288832707808e+000
 5.033791574046179e-001	 9.498602128365320e-001	 1.706594642100013e+000
 4.937416875293824e-001	 9.549053073636764e-001	 1.597003128783127e+000
 6.019307287084381e-001	 9.206950623681951e-001	 3.503922449189188e+000
 5.924714621630346e-001	 9.268104264416094e-001	 3.350153583239232e+000
 5.829606949854665e-001	 9.328219702306987e-001	 3.199557316336884e+000
 5.734001111993426e-001	 9.387290943200036e-001	 3.052347293163518e+000
 5.637914027857062e-001	 9.445312351601573e-001	 2.908733023899257e+000
 5.541362687435949e-001	 9.502278651522912e-001	 2.768919801701292e+000
 5.444364141518855e-001	 9.558184927034217e-001	 2.633108626789580e+000
 5.346935492334473e-001	 9.613026622530212e-001	 2.501496137024210e+000
 5.249093884226144e-001	 9.666799542709937e-001	 2.374274544842447e+000
 5.150856494369737e-001	 9.719499852273285e-001	 2.251631580417861e+000
 5.052240523544471e-001	 9.771124075337430e-001	 2.133750440891974e+000
 6.156109725449946e-001	 9.416199501471442e-001	 4.091399524076654e+000
 6.059367226690199e-001	 9.478742997681203e-001	 3.931174091683312e+000
 5.962098016918892e-001	 9.540224695527798e-001	 3.773865821633735e+000
 5.864319319104752e-001	 9.600638464625831e-001	 3.619677604323585e+000
 5.766048437599364e-001	 9.659978541402251e-001	 3.468808283235536e+000
 5.667302748529246e-001	 9.718239529959528e-001	 3.321452591164694e+000
 5.568099690201107e-001	 9.775416402642158e-001	 3.177801092834774e+000
 5.468456753530653e-001	 9.831504500308381e-001	 3.038040133744364e+000
 5.368391472505394e-001	 9.886499532309492e-001	 2.902351795073952e+000
 5.267921414691568e-001	 9.940397576179476e-001	 2.770913854474085e+000
 5.167064171795196e-001	 9.993195077038174e-001	 2.643899752548152e+000
 6.292912163815461e-001	 9.625448379255903e-001	 4.647169923179689e+000
 6.194019831748203e-001	 9.689381730940442e-001	 4.494186812174809e+000
 6.094589083979877e-001	 9.752229688742187e-001	 4.329375343579892e+000
 5.994637526211849e-001	 9.813985986044971e-001	 4.167420695754214e+000
 5.894182847336852e-001	 9.874644731196336e-001	 4.008511027413161e+000
 5.793242809617556e-001	 9.934200408389918e-001	 3.852830487160416e+000
 5.691835238878589e-001	 9.992647878244535e-001	 3.700559175089918e+000
 5.589978014722681e-001	 1.004998237808195e+000	 3.551873110362657e+000
 5.487689060781508e-001	 1.010619952190571e+000	 3.406944204545967e+000
 5.384986335011672e-001	 1.016129530008389e+000	 3.265940240495850e+000
 5.281887820046000e-001	 1.021526607873900e+000	 3.129024856556148e+000
 6.429714602180920e-001	 9.834697257035339e-001	 5.159552408322851e+000
 6.328672436804357e-001	 9.900020464193806e-001	 5.015649449825133e+000
 6.227080151037622e-001	 9.964234681950164e-001	 4.866905358055010e+000
 6.124955733314721e-001	 1.002733350745746e+000	 4.696465961256850e+000
 6.022317257069535e-001	 1.008931092098383e+000	 4.528800705183160e+000
 5.919182870700875e-001	 1.015016128681408e+000	 4.364083088495736e+000
 5.815570787551301e-001	 1.020987935384136e+000	 4.202482675711630e+000
 5.711499275910557e-001	 1.026846025585093e+000	 4.044165084015180e+000
 5.606986649054486e-001	 1.032589951149860e+000	 3.889291975537245e+000
 5.502051255330052e-001	 1.038219302398653e+000	 3.738021054839909e+000
 5.396711468296881e-001	 1.043733708043990e+000	 3.590506071338994e+000
 6.566517040546327e-001	 1.004394613480975e+000	 5.663866611841604e+000
 6.463325041858661e-001	 1.011065919744129e+000	 5.509471844278862e+000
 6.359571218092126e-001	 1.017623967515172e+000	 5.356852328493258e+000
 6.255273940413366e-001	 1.024068102886329e+000	 5.206119670317232e+000
 6.150451666797405e-001	 1.030397711076473e+000	 5.030490713109703e+000
 6.045122931779204e-001	 1.036612216523202e+000	 4.856089351219483e+000
 5.939306336219241e-001	 1.042711082943261e+000	 4.684516179101634e+000
 5.833020537094280e-001	 1.048693813361531e+000	 4.515926296740409e+000
 5.726284237324328e-001	 1.054559950108815e+000	 4.350470997593520e+000
 5.619116175646707e-001	 1.060309074788740e+000	 4.188297785229054e+000
 5.511535116547843e-001	 1.065940808214088e+000	 4.029550394520041e+000
 6.703319478911681e-001	 1.025319501257913e+000	 6.161224678696447e+000
 6.597977646911116e-001	 1.032129793068291e+000	 5.995670041301247e+000
 6.492062285143391e-001	 1.038824466834687e+000	 5.831466617647047e+000
 6.385592147507786e-001	 1.045402855026246e+000	 5.668711080130490e+000
 6.278586076520468e-001	 1.051864330053904e+000	 5.507501658875505e+000
 6.171062992852543e-001	 1.058208304364373e+000	 5.329592960331680e+000
 6.063041884882413e-001	 1.064434230501831e+000	 5.147464890453300e+000
 5.954541798273851e-001	 1.070541601137510e+000	 4.968023519060920e+000
 5.845581825591033e-001	 1.076529949067438e+000	 4.791409614133015e+000
 5.736181095961636e-001	 1.082398847178649e+000	 4.617760318163803e+000
 5.626358764798881e-001	 1.088147908384193e+000	 4.447209188718800e+000
 6.840121917276981e-001	 1.046244389034349e+000	 6.652635651239581e+000
 6.732630251961720e-001	 1.053193666391865e+000	 6.475312289973100e+000
 6.624553352191411e-001	 1.060024966153559e+000	 6.298904332667638e+000
 6.515910354597977e-001	 1.066737607165498e+000	 6.123493162155159e+000
 6.406720486238722e-001	 1.073330949030676e+000	 5.949162237778743e+000
 6.297003053920891e-001	 1.079804392204921e+000	 5.775997194749174e+000
 6.186777433540813e-001	 1.086157378059845e+000	 5.592008573672482e+000
 6.076063059449273e-001	 1.092389388913029e+000	 5.401194397134896e+000
 5.964879413854602e-001	 1.098499948025727e+000	 5.212903377059066e+000
 5.853246016274839e-001	 1.104488619568381e+000	 5.027262099044863e+000
 5.741182413050000e-001	 1.110355008554307e+000	 4.844393745051573e+000
 4.592945930542355e-001	 8.882840068535240e-001	-1.919747242809958e-001
 4.502966533698555e-001	 8.928790086056798e-001	-3.060793360875944e-001
 4.412674277578943e-001	 8.973756500191494e-001	-4.113724284207294e-001
 4.322084813897782e-001	 9.017737125594310e-001	-5.075748624056602e-001
 4.231213782919209e-001	 9.060730099062141e-001	-5.944159650805908e-001
 4.140076805434689e-001	 9.102733877783562e-001	-6.716336494474243e-001
 4.048689474837917e-001	 9.143747237357485e-001	-7.389745231835507e-001
 3.957067349304588e-001	 9.183769269585733e-001	-7.961939861041618e-001
 3.865225944084202e-001	 9.222799380044704e-001	-8.430563164812720e-001
 3.773180723910820e-001	 9.260837285441589e-001	-8.793347463412545e-001
 3.680947095539379e-001	 9.297883010760839e-001	-9.048115258803735e-001
 4.707769578792765e-001	 9.104911070235670e-001	 4.363103934608024e-001
 4.615540697013549e-001	 9.152009838184482e-001	 3.226517831116895e-001
 4.522991134480965e-001	 9.198100412663188e-001	 2.172074788086576e-001
 4.430136934202114e-001	 9.243180553693136e-001	 1.202359934853751e-001
 4.336994127447717e-001	 9.287248351491139e-001	 3.198794009312227e-002
 4.243578725529000e-001	 9.330302224675479e-001	-4.729406705191926e-002
 4.149906711674480e-001	 9.372340918235038e-001	-1.173755006196304e-001
 4.055994033014220e-001	 9.413363501266672e-001	-1.780299984310396e-001
 3.961856592678930e-001	 9.453369364486187e-001	-2.290394315681134e-001
 3.867510242020995e-001	 9.492358217518440e-001	-2.701939625748124e-001
 3.772970772964199e-001	 9.530330085972488e-001	-3.012920939058411e-001
 4.822593227043255e-001	 9.326982071936176e-001	 1.031867516371119e+000
 4.728114860330365e-001	 9.375229590314141e-001	 9.164967822817568e-001
 4.633307991386043e-001	 9.422444325138553e-001	 8.087587985620022e-001
 4.538189054510227e-001	 9.468623981797123e-001	 7.088920051763678e-001
 4.442774471980223e-001	 9.513766603926590e-001	 6.171274932936079e-001
 4.347080645627026e-001	 9.557870571574938e-001	 5.336889280608710e-001
 4.251123948513975e-001	 9.600934599121022e-001	 4.587924806569336e-001
 4.154920716725500e-001	 9.642957732956732e-001	 3.926467694798699e-001
 4.058487241273527e-001	 9.683939348937278e-001	 3.354528103124446e-001
 3.961839760128774e-001	 9.723879149605194e-001	 2.874039752985416e-001
 3.864994450383867e-001	 9.762777161194137e-001	 2.486859605494318e-001
 4.937416875293824e-001	 9.549053073636764e-001	 1.597003128783127e+000
 4.840689023649002e-001	 9.598449342445778e-001	 1.477929595668256e+000
 4.743624848294175e-001	 9.646788237617586e-001	 1.365921743413806e+000
 4.646241174822119e-001	 9.694067409906272e-001	 1.261198412431946e+000
 4.548554816516729e-001	 9.740284856368491e-001	 1.163971632166659e+000
 4.450582565728768e-001	 9.785438918481941e-001	 1.074446565385183e+000
 4.352341185356399e-001	 9.829528280015430e-001	 9.928214607375826e-001
 4.253847400438428e-001	 9.872551964655909e-001	 9.192876134104688e-001
 4.155117889867996e-001	 9.914509333397977e-001	 8.540293336905500e-001
 4.056169278234152e-001	 9.955400081701847e-001	 7.972239232475253e-001
 3.957018127798380e-001	 9.995224236425787e-001	 7.490416589356598e-001
 5.052240523544471e-001	 9.771124075337430e-001	 2.133750440891974e+000
 4.953263186969465e-001	 9.821669094579394e-001	 2.009137138108000e+000
 4.853941705205365e-001	 9.871132150100292e-001	 1.891035880390692e+000
 4.754293295137794e-001	 9.919510838020585e-001	 1.779646308154976e+000
 4.654335161057235e-001	 9.966803108816846e-001	 1.675161776576968e+000
 4.554084485834225e-001	 1.001300726539648e+000	 1.577769321553394e+000
 4.453558422201753e-001	 1.005812196091827e+000	 1.487649632926790e+000
 4.352774084153003e-001	 1.010214619636420e+000	 1.404977034771551e+000
 4.251748538462336e-001	 1.014507931786828e+000	 1.329919472529380e+000
 4.150498796337134e-001	 1.018692101380841e+000	 1.262638506779413e+000
 4.049041805207738e-001	 1.022767131166744e+000	 1.203289313419613e+000
 5.167064171795196e-001	 9.993195077038174e-001	 2.643899752548152e+000
 5.065837350291749e-001	 1.004488884671498e+000	 2.512051196074175e+000
 4.964258562119608e-001	 1.009547606258667e+000	 2.386173536032927e+000
 4.862345415457247e-001	 1.014495426614006e+000	 2.266447543593456e+000
 4.760115505601738e-001	 1.019332136127165e+000	 2.153048219471923e+000
 4.657586405943396e-001	 1.024057561231856e+000	 2.046144781764783e+000
 4.554775659050038e-001	 1.028671564182954e+000	 1.945900660051584e+000
 4.451700767869224e-001	 1.033174042808161e+000	 1.852473495531478e+000
 4.348379187056548e-001	 1.037564930234820e+000	 1.766015146953856e+000
 4.244828314437720e-001	 1.041844194592487e+000	 1.686671702101218e+000
 4.141065482611941e-001	 1.046011838691909e+000	 1.614583494581358e+000
 5.281887820046000e-001	 1.021526607873900e+000	 3.129024856556148e+000
 5.178411513615852e-001	 1.026810859885255e+000	 2.988376159020651e+000
 5.074575419036908e-001	 1.031981997507672e+000	 2.853168844273116e+000
 4.970397535780481e-001	 1.037039769426470e+000	 2.723565080694308e+000
 4.865895850150243e-001	 1.041983961373291e+000	 2.599721771112107e+000
 4.761088326056284e-001	 1.046814395924818e+000	 2.481790562767167e+000
 4.655992895901254e-001	 1.051530932274924e+000	 2.369917862556234e+000
 4.550627451587097e-001	 1.056133465980815e+000	 2.264244857285895e+000
 4.445009835650630e-001	 1.060621928683773e+000	 2.164907538666950e+000
 4.339157832535908e-001	 1.064996287805123e+000	 2.072036732782116e+000
 4.233089160010993e-001	 1.069256546218074e+000	 1.985758133759721e+000
 5.396711468296881e-001	 1.043733708043990e+000	 3.590506071338994e+000
 5.290985676941781e-001	 1.049132835099209e+000	 3.439613210554349e+000
 5.184892275957262e-001	 1.054416388757043e+000	 3.293643086075600e+000
 5.078449656107494e-001	 1.059584112239450e+000	 3.152739469688311e+000
 4.971676194702746e-001	 1.064635786620062e+000	 3.017041363611707e+000
 4.864590246172887e-001	 1.069571230618535e+000	 2.886683032904428e+000
 4.757210132755399e-001	 1.074390300367736e+000	 2.761794042159954e+000
 4.649554135306616e-001	 1.079092889154379e+000	 2.642499296190331e+000
 4.541640484244582e-001	 1.083678927133686e+000	 2.528919084398491e+000
 4.433487350631697e-001	 1.088148381018750e+000	 2.421169128543681e+000
 4.325112837404888e-001	 1.092501253745239e+000	 2.319360633608698e+000
 5.511535116547843e-001	 1.065940808214088e+000	 4.029550394520041e+000
 5.403559840269530e-001	 1.071454810313361e+000	 3.867081495711038e+000
 5.295209132880673e-001	 1.076850780006782e+000	 3.709026861620247e+000
 5.186501776438290e-001	 1.082128455052946e+000	 3.555512016977399e+000
 5.077456539259250e-001	 1.087287611867478e+000	 3.406658204912551e+000
 4.968092166293204e-001	 1.092328065313005e+000	 3.262582442158676e+000
 4.858427369612475e-001	 1.097249668461392e+000	 3.123397577556734e+000
 4.748480819027783e-001	 1.102052312328856e+000	 2.989212353526435e+000
 4.638271132838406e-001	 1.106735925584560e+000	 2.860131470172478e+000
 4.527816868725090e-001	 1.111300474233367e+000	 2.736255651701809e+000
 4.417136514793630e-001	 1.115745961273404e+000	 2.617681714834879e+000
 5.626358764798881e-001	 1.088147908384193e+000	 4.447209188718800e+000
 5.516134003599104e-001	 1.093776785527711e+000	 4.271936696319692e+000
 5.405525989807140e-001	 1.099285171256888e+000	 4.100579547525896e+000
 5.294553896772866e-001	 1.104672797866959e+000	 3.933245116137482e+000
 5.183236883819752e-001	 1.109939437115540e+000	 3.770036975127615e+000
 5.071594086417235e-001	 1.115084900008229e+000	 3.611054975043821e+000
 4.959644606472483e-001	 1.120109036555890e+000	 3.456395324723980e+000
 4.847407502750599e-001	 1.125011735504244e+000	 3.306150673954105e+000
 4.734901781432100e-001	 1.129792924036396e+000	 3.160410197705235e+000
 4.622146386816085e-001	 1.134452567448973e+000	 3.019259681595168e+000
 4.509160192177217e-001	 1.138990668802569e+000	 2.882781608232018e+000
 5.741182413050000e-001	 1.110355008554307e+000	 4.844393745051573e+000
 5.628708166930497e-001	 1.116098760742258e+000	 4.655187377323615e+000
 5.515842846736662e-001	 1.121719562507361e+000	 4.469406419206180e+000
 5.402606017111221e-001	 1.127217140681487e+000	 4.287140139201019e+000
 5.289017228384254e-001	 1.132591262364247e+000	 4.108474479324188e+000
 5.175096006544983e-001	 1.137841734704207e+000	 3.933492157152434e+000
 5.060861843335419e-001	 1.142968404651232e+000	 3.762272769193862e+000
 4.946334186475062e-001	 1.147971158680544e+000	 3.594892895173257e+000
 4.831532430025666e-001	 1.152849922489192e+000	 3.431426202835627e+000
 4.716475904904681e-001	 1.157604660665571e+000	 3.271943552882672e+000
 4.601183869555650e-001	 1.162235376332733e+000	 3.116513103671833e+000
 3.680947095539379e-001	 9.297883010760839e-001	-9.048115258803735e-001
 3.588540400425035e-001	 9.333936886206078e-001	-9.218269293984326e-001
 3.495975907518841e-001	 9.368999543945393e-001	-9.380473269693550e-001
 3.403268806206378e-001	 9.403071914665516e-001	-9.534115987109983e-001
 3.310434199417800e-001	 9.436155223939605e-001	-9.678565731237873e-001
 3.217487096881426e-001	 9.468250988417171e-001	-9.813170786953422e-001
 3.124442408536596e-001	 9.499361011842371e-001	-9.937259992737434e-001
 3.031314938110319e-001	 9.529487380907489e-001	-1.005014333106289e+000
 2.938119376861946e-001	 9.558632460948671e-001	-1.015111255430219e+000
 2.844870297499801e-001	 9.586798891490925e-001	-1.023944184492058e+000
 2.751582148273362e-001	 9.613989581649598e-001	-1.031438850863919e+000
 3.772970772964199e-001	 9.530330085972488e-001	-3.012920939058411e-001
 3.678253910496041e-001	 9.567285308306593e-001	-3.396784991092690e-001
 3.583375305287336e-001	 9.603224532492585e-001	-3.757642023202674e-001
 3.488350526458335e-001	 9.638148712484377e-001	-4.094849119576989e-001
 3.393195054512463e-001	 9.672059104494433e-001	-4.407757138506622e-001
 3.297924274421272e-001	 9.704957263088508e-001	-4.695710974327683e-001
 3.202553468872610e-001	 9.736845037104360e-001	-4.958049844634241e-001
 3.107097811686687e-001	 9.767724565401572e-001	-5.194107602451543e-001
 3.011572361404364e-001	 9.797598272449696e-001	-5.403213072945511e-001
 2.915992055051700e-001	 9.826468863761855e-001	-5.584690414178108e-001
 2.820371702084442e-001	 9.854339321181277e-001	-5.737859501302542e-001
 3.864994450383867e-001	 9.762777161194137e-001	 2.486859605494318e-001
 3.767967420559097e-001	 9.800633730417054e-001	 1.898565277562371e-001
 3.670774703045501e-001	 9.837449521049575e-001	 1.347411950261855e-001
 3.573432246697982e-001	 9.873225510312769e-001	 8.340730496078815e-002
 3.475955909593246e-001	 9.907962985058436e-001	 3.592145380787754e-002
 3.378361451946069e-001	 9.941663537768565e-001	-7.650509737075015e-003
 3.280664529192808e-001	 9.974329062374506e-001	-4.724348708474103e-002
 3.182880685246871e-001	 1.000596174990316e+000	-8.279313369862337e-002
 3.085025345930623e-001	 1.003656408395746e+000	-1.142358644642585e-001
 2.987113812587859e-001	 1.006613883603867e+000	-1.415088605013864e-001
 2.889161255880585e-001	 1.009468906071790e+000	-1.645500774290244e-001
 3.957018127798380e-001	 9.995224236425787e-001	 7.490416589356598e-001
 3.857680930614206e-001	 1.003398215253747e+000	 6.706467333641224e-001
 3.758174100793333e-001	 1.007167450961636e+000	 5.972929817715489e-001
 3.658513966925321e-001	 1.010830230815070e+000	 5.290506507853585e-001
 3.558716764660148e-001	 1.014386686563162e+000	 4.659879285451985e-001
 3.458798629455820e-001	 1.017836981245734e+000	 4.081709681572726e-001
 3.358775589497192e-001	 1.021181308765282e+000	 3.556639108998692e-001
 3.258663558790867e-001	 1.024419893441224e+000	 3.085289090732749e-001
 3.158478330440720e-001	 1.027552989547198e+000	 2.668261483951339e-001
 3.058235570108274e-001	 1.030580880832138e+000	 2.306138698532982e-001
 2.957950809661792e-001	 1.033503880025945e+000	 1.999483909348526e-001
 4.049041805207738e-001	 1.022767131166744e+000	 1.203289313419613e+000
 3.947394440661366e-001	 1.026733057466782e+000	 1.106162111283267e+000
 3.845573498530832e-001	 1.030589949819293e+000	 1.015322261278114e+000
 3.743595687140353e-001	 1.034337910599817e+000	 9.308427417291300e-001
 3.641477619713173e-001	 1.037977074621398e+000	 8.527932141926922e-001
 3.539235806950523e-001	 1.041507608715483e+000	 7.812400712907329e-001
 3.436886649785759e-001	 1.044929711293928e+000	 7.162464853370146e-001
 3.334446432318680e-001	 1.048243611892883e+000	 6.578724575819573e-001
 3.231931314934658e-001	 1.051449570699323e+000	 6.061748679097641e-001
 3.129357327612944e-001	 1.054547878060998e+000	 5.612075248320111e-001
 3.026740363428060e-001	 1.057538853980594e+000	 5.230212156292606e-001
 4.141065482611941e-001	 1.046011838691909e+000	 1.614583494581358e+000
 4.037107950700578e-001	 1.050067899680813e+000	 1.499518354105749e+000
 3.932972896257999e-001	 1.054012448677930e+000	 1.391910791716949e+000
 3.828677407343075e-001	 1.057845590385517e+000	 1.291836320646232e+000
 3.724238474752317e-001	 1.061567462680552e+000	 1.199365930259155e+000
 3.619672984430177e-001	 1.065178236186105e+000	 1.114566158058563e+000
 3.514997710058511e-001	 1.068678113823391e+000	 1.037499163458899e+000
 3.410229305830306e-001	 1.072067330345292e+000	 9.682228030916186e-001
 3.305384299412434e-001	 1.075346151852123e+000	 9.067907074094214e-001
 3.200479085101872e-001	 1.078514875290446e+000	 8.532523583671349e-001
 3.095529917179391e-001	 1.081573827935737e+000	 8.076531679651330e-001
 4.233089160010993e-001	 1.069256546218074e+000	 1.985758133759721e+000
 4.126821460731842e-001	 1.073402741895839e+000	 1.853515364422195e+000
 4.020372293974833e-001	 1.077434947537546e+000	 1.729828958370597e+000
 3.913759127533488e-001	 1.081353270172171e+000	 1.614776743266433e+000
 3.806999329777581e-001	 1.085157850740624e+000	 1.508430864574610e+000
 3.700110161894784e-001	 1.088848863657598e+000	 1.410857881585300e+000
 3.593108770315449e-001	 1.092426516353670e+000	 1.322118866124030e+000
 3.486012179325746e-001	 1.095891048798451e+000	 1.242269503646018e+000
 3.378837283874051e-001	 1.099242733005597e+000	 1.171360196416833e+000
 3.271600842575055e-001	 1.102481872520484e+000	 1.109436168491932e+000
 3.164319470915787e-001	 1.105608801891373e+000	 1.056537572218386e+000
 4.325112837404888e-001	 1.092501253745239e+000	 2.319360633608698e+000
 4.216534970755158e-001	 1.096737584111859e+000	 2.170670849501555e+000
 4.107771691681337e-001	 1.100857446398142e+000	 2.031568898407886e+000
 3.998840847711594e-001	 1.104860949959779e+000	 1.902134678952070e+000
 3.889760184788967e-001	 1.108748238801614e+000	 1.782441295808636e+000
 3.780547339344343e-001	 1.112519491129963e+000	 1.672555179646821e+000
 3.671219830556570e-001	 1.116174918884764e+000	 1.572536210622813e+000
 3.561795052805002e-001	 1.119714767252360e+000	 1.482437845049517e+000
 3.452290268319506e-001	 1.123139314159746e+000	 1.402307244882165e+000
 3.342722600032496e-001	 1.126448869751110e+000	 1.332185409670392e+000
 3.233109024637242e-001	 1.129643775847504e+000	 1.272107310634088e+000
 4.417136514793630e-001	 1.115745961273404e+000	 2.617681714834879e+000
 4.306248480770524e-001	 1.120072426328874e+000	 2.453249716636785e+000
 4.195171089377507e-001	 1.124279945259717e+000	 2.299373485061703e+000
 4.083922567877390e-001	 1.128368629748340e+000	 2.156134723861357e+000
 3.972521039786471e-001	 1.132338626863521e+000	 2.023607275674426e+000
 3.860984516778855e-001	 1.136190118603200e+000	 1.901857265852378e+000
 3.749330890781875e-001	 1.139923321416674e+000	 1.790943250632648e+000
 3.637577926268073e-001	 1.143538485707019e+000	 1.690916369225179e+000
 3.525743252748801e-001	 1.147035895314569e+000	 1.601820499389196e+000
 3.413844357474192e-001	 1.150415866982325e+000	 1.523692416086054e+000
 3.301898578343763e-001	 1.153678749804127e+000	 1.456561952805151e+000
 4.509160192177217e-001	 1.138990668802569e+000	 2.882781608232018e+000
 4.395961990777943e-001	 1.143407268546884e+000	 2.703289869059943e+000
 4.282570487063345e-001	 1.147702444122272e+000	 2.535261762724249e+000
 4.169004288030878e-001	 1.151876309537856e+000	 2.378780510458157e+000
 4.055281894770098e-001	 1.155929014926346e+000	 2.233920448005603e+000
 3.941421694198319e-001	 1.159860746077309e+000	 2.100747193335001e+000
 3.827441950991367e-001	 1.163671723949401e+000	 1.979317819443359e+000
 3.713360799714958e-001	 1.167362204162428e+000	 1.869681031754009e+000
 3.599196237161937e-001	 1.170932476470067e+000	 1.771877349621119e+000
 3.484966114900147e-001	 1.174382864214129e+000	 1.685939291466809e+000
 3.370688132035346e-001	 1.177713723761245e+000	 1.611891563086008e+000
 4.601183869555650e-001	 1.162235376332733e+000	 3.116513103671833e+000
 4.485675500777414e-001	 1.166742110765889e+000	 2.922624906348049e+000
 4.369969884738851e-001	 1.171124942985806e+000	 2.741051329830494e+000
 4.254086008172057e-001	 1.175383989328324e+000	 2.571876803881598e+000
 4.138042749739843e-001	 1.179519402990089e+000	 2.415175889544206e+000
 4.021858871602735e-001	 1.183531373552289e+000	 2.271013470798753e+000
 3.905553011185042e-001	 1.187420126482944e+000	 2.139444951996302e+000
 3.789143673145657e-001	 1.191185922618588e+000	 2.020516460509039e+000
 3.672649221558911e-001	 1.194829057626238e+000	 1.914265054050696e+000
 3.556087872310356e-001	 1.198349861446522e+000	 1.820718932130445e+000
 3.439477685711992e-001	 1.201748697718857e+000	 1.739897651116769e+000
 2.751582148273362e-001	 9.613989581649598e-001	-1.031438850863919e+000
 2.658269247236917e-001	 9.640207705404181e-001	-1.048240625163388e+000
 2.564945776709277e-001	 9.665456696725904e-001	-1.061548530431595e+000
 2.471625777918796e-001	 9.689740244583481e-001	-1.071342879655735e+000
 2.378323145820488e-001	 9.713062287851813e-001	-1.077603342214507e+000
 2.285051624109132e-001	 9.735427010105087e-001	-1.080308955507360e+000
 2.191824800423044e-001	 9.756838834310223e-001	-1.079438139539856e+000
 2.098656101739950e-001	 9.777302417428043e-001	-1.074968714384607e+000
 2.005558789966087e-001	 9.796822644929403e-001	-1.066877920425947e+000
 1.912545957719429e-001	 9.815404625233627e-001	-1.055142441294409e+000
 1.819630524307584e-001	 9.833053684076398e-001	-1.039738429385932e+000
 2.820371702084442e-001	 9.854339321181277e-001	-5.737859501302542e-001
 2.724725978510110e-001	 9.881212898035869e-001	-6.014401518894292e-001
 2.629069421207347e-001	 9.907093114145075e-001	-6.250935426595677e-001
 2.533416422435218e-001	 9.931983750701839e-001	-6.447309404779034e-001
 2.437781224522615e-001	 9.955888845052953e-001	-6.603368759082818e-001
 2.342177914756684e-001	 9.978812685361966e-001	-6.718955879741448e-001
 2.246620420466706e-001	 1.000075980516999e+000	-6.793910230876408e-001
 2.151122504304847e-001	 1.002173497786187e+000	-6.828068369177177e-001
 2.055697759725002e-001	 1.004174321104526e+000	-6.821263991334619e-001
 1.960359606660596e-001	 1.006078974084998e+000	-6.773328009505403e-001
 1.865121287401930e-001	 1.007888002615511e+000	-6.684088653984037e-001
 2.889161255880585e-001	 1.009468906071790e+000	-1.645500774290244e-001
 2.791182709769418e-001	 1.012221809067160e+000	-2.032508380575946e-001
 2.693193065692688e-001	 1.014872953156760e+000	-2.374875550868778e-001
 2.595207066940171e-001	 1.017422725682307e+000	-2.672493953843628e-001
 2.497239303214633e-001	 1.019871540225668e+000	-2.925255654682801e-001
 2.399304205395593e-001	 1.022219836062135e+000	-3.133052921367475e-001
 2.301416040503285e-001	 1.024468077603237e+000	-3.295778061644906e-001
 2.203588906864322e-001	 1.026616753829864e+000	-3.413323290372107e-001
 2.105836729480255e-001	 1.028666377716458e+000	-3.485580626827549e-001
 2.008173255599959e-001	 1.030617485647049e+000	-3.512441821480602e-001
 1.910612050496423e-001	 1.032470636823890e+000	-3.493798311631767e-001
 2.957950809661792e-001	 1.033503880025945e+000	 1.999483909348526e-001
 2.857639441014841e-001	 1.036322328331137e+000	 1.500286869837035e-001
 2.757316710165300e-001	 1.039036594899347e+000	 1.049948324863882e-001
 2.656997711433655e-001	 1.041647076294715e+000	 6.485343318528639e-002
 2.556697381896544e-001	 1.044154195946299e+000	 2.961075627974579e-002
 2.456430496025855e-001	 1.046558403588324e+000	-7.272352442771880e-004
 2.356211660532782e-001	 1.048860174689739e+000	-2.615485145955859e-002
 2.256055309418377e-001	 1.051060009873835e+000	-4.666664751004066e-002
 2.155975699231846e-001	 1.053158434328735e+000	-6.225739877404661e-002
 2.055986904537516e-001	 1.055155997209519e+000	-7.292207914679935e-002
 1.956102813591062e-001	 1.057053271032776e+000	-7.865584240469715e-002
 3.026740363428060e-001	 1.057538853980594e+000	 5.230212156292606e-001
 2.924096172246379e-001	 1.060422847595518e+000	 4.617314051356445e-001
 2.821440354625185e-001	 1.063200236642269e+000	 4.057098829981418e-001
 2.718788355915670e-001	 1.065871426907412e+000	 3.549591162671684e-001
 2.616155460568347e-001	 1.068436851667188e+000	 3.094809621163491e-001
 2.513556786647472e-001	 1.070896971114763e+000	 2.692767168272596e-001
 2.411007280555194e-001	 1.073252271776503e+000	 2.343471614591924e-001
 2.308521711967009e-001	 1.075503265918101e+000	 2.046926041864901e-001
 2.206114668979776e-001	 1.077650490941359e+000	 1.803129193017487e-001
 2.103800553473268e-001	 1.079694508772404e+000	 1.612075828931657e-001
 2.001593576685848e-001	 1.081635905242169e+000	 1.473757052169970e-001
 3.095529917179391e-001	 1.081573827935737e+000	 8.076531679651330e-001
 2.990552903464032e-001	 1.084523366860303e+000	 7.348628416325254e-001
 2.885563999072340e-001	 1.087363878385527e+000	 6.676857373759437e-001
 2.780579000386214e-001	 1.090095777520394e+000	 6.061202413209280e-001
 2.675613539230041e-001	 1.092719507388336e+000	 5.501638853608643e-001
 2.570683077260444e-001	 1.095235538641453e+000	 4.998134105341602e-001
 2.465802900570525e-001	 1.097644368863529e+000	 4.550648269100519e-001
 2.360988114510221e-001	 1.099946521962661e+000	 4.159134699445586e-001
 2.256253638724045e-001	 1.102142547554328e+000	 3.823540532851485e-001
 2.151614202407214e-001	 1.104233020335707e+000	 3.543807180123286e-001
 2.047084339780781e-001	 1.106218539452070e+000	 3.319870783227119e-001
 3.164319470915787e-001	 1.105608801891373e+000	 1.056537572218386e+000
 3.057009634667799e-001	 1.108623886125492e+000	 9.721366581584831e-001
 2.949687643506767e-001	 1.111527520129120e+000	 8.936580799738657e-001
 2.842369644845290e-001	 1.114320128133663e+000	 8.210961713148102e-001
 2.735071617881628e-001	 1.117002163109742e+000	 7.544441937270201e-001
 2.627809367864770e-001	 1.119574106168393e+000	 6.936944141946688e-001
 2.520598520578772e-001	 1.122036465950818e+000	 6.388381789801021e-001
 2.413454517048012e-001	 1.124389778007516e+000	 5.898659837035178e-001
 2.306392608464651e-001	 1.126634604167643e+000	 5.467675396190957e-001
 2.199427851339355e-001	 1.128771531899427e+000	 5.095318360607801e-001
 2.092575102875861e-001	 1.130801173662478e+000	 4.781471990447426e-001
 3.233109024637242e-001	 1.129643775847504e+000	 1.272107310634088e+000
 3.123466365857683e-001	 1.132724405391085e+000	 1.176005702161627e+000
 3.013811287928464e-001	 1.135691161873047e+000	 1.086101250974076e+000
 2.904160289292896e-001	 1.138544478747219e+000	 1.002384238820805e+000
 2.794529696523108e-001	 1.141284818831407e+000	 9.248436835364813e-001
 2.684935658460451e-001	 1.143912673695583e+000	 8.534674305571189e-001
 2.575394140579937e-001	 1.146428563038369e+000	 7.882422404865720e-001
 2.465920919580381e-001	 1.148833034052665e+000	 7.291538726368361e-001
 2.356531578201596e-001	 1.151126660781304e+000	 6.761871644809265e-001
 2.247241500269691e-001	 1.153310043463564e+000	 6.293261069745407e-001
 2.138065865971087e-001	 1.155383807873393e+000	 5.885539157177152e-001
 3.301898578343763e-001	 1.153678749804127e+000	 1.456561952805151e+000
 3.189923097033681e-001	 1.156824924657083e+000	 1.348689175004241e+000
 3.077934932337433e-001	 1.159854803617310e+000	 1.247255469738380e+000
 2.965950933729034e-001	 1.162768829361061e+000	 1.152247040847899e+000
 2.853987775154478e-001	 1.165567474553330e+000	 1.063648662155922e+000
 2.742061949047486e-001	 1.168251241223025e+000	 9.814437827975766e-001
 2.630189760574019e-001	 1.170820660126182e+000	 9.056146283176160e-001
 2.518387322107329e-001	 1.173276290098108e+000	 8.361422974406537e-001
 2.406670547934879e-001	 1.175618717395311e+000	 7.730068544359877e-001
 2.295055149198221e-001	 1.177848555028118e+000	 7.161874170169793e-001
 2.183556629066459e-001	 1.179966442084816e+000	 6.656622397330425e-001
 3.370688132035346e-001	 1.177713723761245e+000	 1.611891563086008e+000
 3.256379828195793e-001	 1.180925443923485e+000	 1.492196473400206e+000
 3.142058576733674e-001	 1.184018445361908e+000	 1.379150724688451e+000
 3.027741578153701e-001	 1.186993179975190e+000	 1.272736391451215e+000
 2.913445853775742e-001	 1.189850130275511e+000	 1.172933977482830e+000
 2.799188239625876e-001	 1.192589808750716e+000	 1.079722534884538e+000
 2.684985380561019e-001	 1.195212757214259e+000	 9.930797785276371e-001
 2.570853724628856e-001	 1.197719546143846e+000	 9.129821958521963e-001
 2.456809517664501e-001	 1.200110774009664e+000	 8.394051519079163e-001
 2.342868798124946e-001	 1.202387066593088e+000	 7.723229895620277e-001
 2.229047392161979e-001	 1.204549076296746e+000	 7.117091248191418e-001
 3.439477685711992e-001	 1.201748697718857e+000	 1.739897651116769e+000
 3.322836559344022e-001	 1.205025963190290e+000	 1.608348169880235e+000
 3.206182221117185e-001	 1.208182087106841e+000	 1.483627796399934e+000
 3.089532222566899e-001	 1.211217530589606e+000	 1.365714400027341e+000
 2.972903932386897e-001	 1.214132785997952e+000	 1.254584163892290e+000
 2.856314530195621e-001	 1.216928376278658e+000	 1.150211717499883e+000
 2.739781000540936e-001	 1.219604854302598e+000	 1.052570264420899e+000
 2.623320127144961e-001	 1.222162802189878e+000	 9.616317049461002e-001
 2.506948487390460e-001	 1.224602830624363e+000	 8.773667535937598e-001
 2.390682447049865e-001	 1.226925578158476e+000	 7.997450513835430e-001
 2.274538155257646e-001	 1.229131710509183e+000	 7.287352728081928e-001
 1.819630524307584e-001	 9.833053684076398e-001	-1.039738429385932e+000
 1.726825231903044e-001	 9.849775358802030e-001	-1.036130193973840e+000
 1.634142641909075e-001	 9.865575392624050e-001	-1.032668971435878e+000
 1.541595131519813e-001	 9.880459728836374e-001	-1.029318085748005e+000
 1.449194890479376e-001	 9.894434504957537e-001	-1.026037179490545e+000
 1.356953918032302e-001	 9.907506046851591e-001	-1.022782330030909e+000
 1.264884020066532e-001	 9.919680862820068e-001	-1.019506169623073e+000
 1.172996806447692e-001	 9.930965637671554e-001	-1.016158009110371e+000
 1.081303688543234e-001	 9.941367226775286e-001	-1.012683964920141e+000
 9.898158769347724e-002	 9.950892650105072e-001	-1.009027089034913e+000
 8.985443793167208e-002	 9.959549086279671e-001	-1.005127501629934e+000
 1.865121287401930e-001	 1.007888002615511e+000	-6.684088653984037e-001
 1.769995862676611e-001	 1.009601974274025e+000	-6.733377385008992e-001
 1.674996207923786e-001	 1.011221477740089e+000	-6.773997487960179e-001
 1.580135009767427e-001	 1.012747122201329e+000	-6.805719066113227e-001
 1.485424762695243e-001	 1.014179536753393e+000	-6.828280637008866e-001
 1.390877765932872e-001	 1.015519369797345e+000	-6.841390028261323e-001
 1.296506120515437e-001	 1.016767288434090e+000	-6.844725314180887e-001
 1.202321726555193e-001	 1.017923977856507e+000	-6.837935790452344e-001
 1.108336280703761e-001	 1.018990140739942e+000	-6.820642984044520e-001
 1.014561273807281e-001	 1.019966496631707e+000	-6.792441695560114e-001
 9.210079887525120e-002	 1.020853781340225e+000	-6.752901071177507e-001
 1.910612050496423e-001	 1.032470636823890e+000	-3.493798311631767e-001
 1.813166493452170e-001	 1.034226412668443e+000	-3.635193290942295e-001
 1.715849773942018e-001	 1.035885416218438e+000	-3.758454645698732e-001
 1.618674888019788e-001	 1.037448271519734e+000	-3.863482401819722e-001
 1.521654634916776e-001	 1.038915623011773e+000	-3.950149878538438e-001
 1.424801613839724e-001	 1.040288134910280e+000	-4.018304329076952e-001
 1.328128220970941e-001	 1.041566490586910e+000	-4.067767624020950e-001
 1.231646646669311e-001	 1.042751391946564e+000	-4.098336974950300e-001
 1.135368872870629e-001	 1.043843558803008e+000	-4.109785695833884e-001
 1.039306670685564e-001	 1.044843728253489e+000	-4.101863999669519e-001
 9.434715981932204e-002	 1.045752654052973e+000	-4.074299827810690e-001
 1.956102813591062e-001	 1.057053271032776e+000	-7.865584240469715e-002
 1.856337124229718e-001	 1.058850851063458e+000	-1.026328800065551e-001
 1.756703339963775e-001	 1.060549354697454e+000	-1.239136788704627e-001
 1.657214766276897e-001	 1.062149420838853e+000	-1.425005990896551e-001
 1.557884507143976e-001	 1.063651709270896e+000	-1.583937841956049e-001
 1.458725461752858e-001	 1.065056900023964e+000	-1.715912007294582e-001
 1.359750321433044e-001	 1.066365692740468e+000	-1.820886822970932e-001
 1.260971566790045e-001	 1.067578806037326e+000	-1.898799778904297e-001
 1.162401465043838e-001	 1.068696976866728e+000	-1.949568042572582e-001
 1.064052067569619e-001	 1.069720959875853e+000	-1.973089020933841e-001
 9.659352076388458e-002	 1.070651526766214e+000	-1.969240958279608e-001
 2.001593576685848e-001	 1.081635905242169e+000	 1.473757052169970e-001
 1.899507755009255e-001	 1.083475289459071e+000	 1.129778302742891e-001
 1.797556905989053e-001	 1.085213293177134e+000	 8.209883362456617e-002
 1.695754644538752e-001	 1.086850570158686e+000	 5.472457775505418e-002
 1.594114379376842e-001	 1.088387795530760e+000	 3.084272043031935e-002
 1.492649309672275e-001	 1.089825665138398e+000	 1.044269866040231e-002
 1.391372421901744e-001	 1.091164894894763e+000	-6.484292048211749e-003
 1.290296486917398e-001	 1.092406220128793e+000	-1.994532297379146e-002
 1.189434057223388e-001	 1.093550394931100e+000	-2.994576179920450e-002
 1.088797464459448e-001	 1.094598191498799e+000	-3.648930637002414e-002
 9.883988170893882e-002	 1.095550399479947e+000	-3.957802238654974e-002
 2.047084339780781e-001	 1.106218539452070e+000	 3.319870783227119e-001
 1.942678385790784e-001	 1.108099727855280e+000	 2.866260328301288e-001
 1.838410472017855e-001	 1.109877231657481e+000	 2.455493297359738e-001
 1.734294522805354e-001	 1.111551719479234e+000	 2.087315836373386e-001
 1.630344251615375e-001	 1.113123881791367e+000	 1.761488150941068e-001
 1.526573157597974e-001	 1.114594430253582e+000	 1.477784572411518e-001
 1.422994522377043e-001	 1.115964097049795e+000	 1.235993574236692e-001
 1.319621407051366e-001	 1.117233634220965e+000	 1.035917740133544e-001
 1.216466649409279e-001	 1.118403812996127e+000	 8.773736857508117e-002
 1.113542861355051e-001	 1.119475423122327e+000	 7.601919356003485e-002
 1.010862426544848e-001	 1.120449272194170e+000	 6.842167570824680e-002
 2.092575102875861e-001	 1.130801173662478e+000	 4.781471990447426e-001
 1.985849016574302e-001	 1.132724166252086e+000	 4.213192498815125e-001
 1.879264038050179e-001	 1.134541170138493e+000	 3.694867030553930e-001
 1.772834401076705e-001	 1.136252868800495e+000	 3.226134079296807e-001
 1.666574123859573e-001	 1.137859968052715e+000	 2.806642617460913e-001
 1.560497005529956e-001	 1.139363195369515e+000	 2.436052380384688e-001
 1.454616622858941e-001	 1.140763299205564e+000	 2.114034097843563e-001
 1.348946327191952e-001	 1.142061048313842e+000	 1.840269674279322e-001
 1.243499241601511e-001	 1.143257231061806e+000	 1.614452319204175e-001
 1.138288258256426e-001	 1.144352654746438e+000	 1.436286629326859e-001
 1.033326036005224e-001	 1.145348144908886e+000	 1.305488624040372e-001
 2.138065865971087e-001	 1.155383807873393e+000	 5.885539157177152e-001
 2.029019647359810e-001	 1.157348604649489e+000	 5.197918170072049e-001
 1.920117604086025e-001	 1.159205108620171e+000	 4.566842885446152e-001
 1.811374279352802e-001	 1.160954018122470e+000	 3.991848535300658e-001
 1.702803996109438e-001	 1.162596054314805e+000	 3.472477555486578e-001
 1.594420853468219e-001	 1.164131960486198e+000	 3.008280079918302e-001
 1.486238723347437e-001	 1.165562501362070e+000	 2.598814379050294e-001
 1.378271247339154e-001	 1.166888462407424e+000	 2.243647243745544e-001
 1.270531833800084e-001	 1.168110649128140e+000	 1.942354315758700e-001
 1.163033655163575e-001	 1.169229886371130e+000	 1.694520366206394e-001
 1.055789645470518e-001	 1.170247017624094e+000	 1.499739523474198e-001
 2.183556629066459e-001	 1.179966442084816e+000	 6.656622397330425e-001
 2.072190278147308e-001	 1.181973043047488e+000	 5.845333400867820e-001
 1.960971170125395e-001	 1.183869047102514e+000	 5.096685665597884e-001
 1.849914157633647e-001	 1.185655167445159e+000	 4.410115146198901e-001
 1.739033868364968e-001	 1.187332140577637e+000	 3.785062026671484e-001
 1.628344701412766e-001	 1.188900725603630e+000	 3.220971417137908e-001
 1.517860823842531e-001	 1.190361703519314e+000	 2.717293991533777e-001
 1.407596167492974e-001	 1.191715876501712e+000	 2.273486567108120e-001
 1.297564426004998e-001	 1.192964067195125e+000	 1.889012626767427e-001
 1.187779052076498e-001	 1.194107117996405e+000	 1.563342785456127e-001
 1.078253254940729e-001	 1.195145890339793e+000	 1.295955201859106e-001
 2.229047392161979e-001	 1.204549076296746e+000	 7.117091248191418e-001
 2.115360908936796e-001	 1.206597481446085e+000	 6.178136677189609e-001
 2.001824736168288e-001	 1.208532985585524e+000	 5.307443520972234e-001
 1.888454035919239e-001	 1.210356316768561e+000	 4.504352061250274e-001
 1.775263740626165e-001	 1.212068226841211e+000	 3.768204130243585e-001
 1.662268549363594e-001	 1.213669490721812e+000	 3.098344002988602e-001
 1.549482924344223e-001	 1.215160905677295e+000	 2.494119226897779e-001
 1.436921087653411e-001	 1.216543290596704e+000	 1.954881389295489e-001
 1.324597018216253e-001	 1.217817485262765e+000	 1.479986823793002e-001
 1.212524448995194e-001	 1.218984349622261e+000	 1.068797256530882e-001
 1.100716864415856e-001	 1.220044763055984e+000	 7.206803934320220e-002
 2.274538155257646e-001	 1.229131710509183e+000	 7.287352728081928e-001
 2.158531539728275e-001	 1.231221919845279e+000	 6.217048669501142e-001
 2.042678302214702e-001	 1.233196924069199e+000	 5.220169613296262e-001
 1.926993914209578e-001	 1.235057466092679e+000	 4.295963416417298e-001
 1.811493612893029e-001	 1.236804313105527e+000	 3.443677099254138e-001
 1.696192397320706e-001	 1.238438255840743e+000	 2.662557926754789e-001
 1.581105024852513e-001	 1.239960107836013e+000	 1.951854422881496e-001
 1.466246007820464e-001	 1.241370704692402e+000	 1.310817318954272e-001
 1.351629610433849e-001	 1.242670903331058e+000	 7.387004365866499e-002
 1.237269845919663e-001	 1.243861581248700e+000	 2.347615060954676e-002
 1.123180473895901e-001	 1.244943635772666e+000	-2.017370785869595e-002
 8.985443793167208e-002	 9.959549086279671e-001	-1.005127501629934e+000
 8.074999985732721e-002	 9.967343866612564e-001	-1.006831356994010e+000
 7.166933310492567e-002	 9.974284469156016e-001	-1.009529000142901e+000
 6.261347650004133e-002	 9.980378512759270e-001	-1.013159496708219e+000
 5.358344792087624e-002	 9.985633751160036e-001	-1.017658050526378e+000
 4.458024417780558e-002	 9.990058067093818e-001	-1.022956174794562e+000
 3.560484091004575e-002	 9.993659466433188e-001	-1.028981865023755e+000
 2.665819249913583e-002	 9.996446072361989e-001	-1.035659773431002e+000
 1.774123199891268e-002	 9.998426119589265e-001	-1.042911384418702e+000
 8.854871081647956e-003	 9.999607948607566e-001	-1.050655190800441e+000
 0.000000000000000e+000	 1.000000000000000e+000	-1.058806870436575e+000
 9.210079887525120e-002	 1.020853781340225e+000	-6.752901071177507e-001
 8.276874984949990e-002	 1.021652746325009e+000	-6.783213433869506e-001
 7.346106642874500e-002	 1.022364158086303e+000	-6.813530726881042e-001
 6.417881340919973e-002	 1.022988797556156e+000	-6.843436946728206e-001
 5.492303411602096e-002	 1.023527459492682e+000	-6.872480709142522e-001
 4.569475027984318e-002	 1.023980951876270e+000	-6.900176698653640e-001
 3.649496193086310e-002	 1.024350095308862e+000	-6.926007140632997e-001
 2.732464731015816e-002	 1.024635722416802e+000	-6.949423292419299e-001
 1.818476279791106e-002	 1.024838677257766e+000	-6.969846950232602e-001
 9.076242858200107e-003	 1.024959814732242e+000	-6.986671968627917e-001
 0.000000000000000e+000	 1.025000000000000e+000	-6.999265789319713e-001
 9.434715981932204e-002	 1.045752654052973e+000	-4.074299827810690e-001
 8.478749984206953e-002	 1.046571105989159e+000	-4.130917345721545e-001
 7.525279975287695e-002	 1.047299869257318e+000	-4.178258780284558e-001
 6.574415031859660e-002	 1.047939743836623e+000	-4.216090935645148e-001
 5.626262031134028e-002	 1.048491543869534e+000	-4.244148215620604e-001
 4.680925638200162e-002	 1.048956097043280e+000	-4.262133824474587e-001
 3.738508295175753e-002	 1.049334243974483e+000	-4.269720994650778e-001
 2.799110212122371e-002	 1.049626837597447e+000	-4.266554238298064e-001
 1.862829359692857e-002	 1.049834742556624e+000	-4.252250619457488e-001
 9.297614634757019e-003	 1.049958834603733e+000	-4.226401043856904e-001
 0.000000000000000e+000	 1.050000000000000e+000	-4.188571563259816e-001
 9.659352076388458e-002	 1.070651526766214e+000	-1.969240958279608e-001
 8.680624983503614e-002	 1.071489465653705e+000	-2.064387833873497e-001
 7.704453307732150e-002	 1.072235580428645e+000	-2.141594050679533e-001
 6.730948722823200e-002	 1.072890690117329e+000	-2.200799404971832e-001
 5.760220650683426e-002	 1.073455628246560e+000	-2.241914022630491e-001
 4.792376248428092e-002	 1.073931242210410e+000	-2.264819323590689e-001
 3.827520397272902e-002	 1.074318392640181e+000	-2.269369017777268e-001
 2.865755693233245e-002	 1.074617952778136e+000	-2.255390129557816e-001
 1.907182439596521e-002	 1.074830807855502e+000	-2.222684047738674e-001
 9.518986411318698e-003	 1.074957854475228e+000	-2.171027598176997e-001
 0.000000000000000e+000	 1.075000000000000e+000	-2.100174136134828e-001
 9.883988170893882e-002	 1.095550399479947e+000	-3.957802238654974e-002
 8.882499982839968e-002	 1.096407825318649e+000	-5.409371480164209e-002
 7.883626640207862e-002	 1.097171291600285e+000	-6.600733132926588e-002
 6.887482413810593e-002	 1.097841636398273e+000	-7.532923480446506e-002
 5.894179270250285e-002	 1.098419712623762e+000	-8.206706948804918e-002
 4.903826858668107e-002	 1.098906387377661e+000	-8.622583506545277e-002
 3.916532499377761e-002	 1.099302541305955e+000	-8.780796425262626e-002
 2.932401174348439e-002	 1.099609067958868e+000	-8.681340372727038e-002
 1.951535519502098e-002	 1.099826873154398e+000	-8.323969810313169e-002
 9.740358187885141e-003	 1.099956874346727e+000	-7.708207666775417e-002
 0.000000000000000e+000	 1.100000000000000e+000	-6.833354260682453e-002
 1.010862426544848e-001	 1.120449272194170e+000	 6.842167570824680e-002
 9.084374982216018e-002	 1.121326184983990e+000	 4.782560432113293e-002
 8.062799972714832e-002	 1.122107002772237e+000	 3.058405355866663e-002
 7.044016104821836e-002	 1.122792582679455e+000	 1.667113331725616e-002
 6.028137889834608e-002	 1.123383797001138e+000	 6.063447689876235e-003
 5.015277468920207e-002	 1.123881532545033e+000	-1.259957718187757e-003
 4.005544601490324e-002	 1.124286689971807e+000	-5.317652544139692e-003
 2.999046655467953e-002	 1.124600183139644e+000	-6.125882225705070e-003
 1.995888599409588e-002	 1.124822938453314e+000	-3.698632091901219e-003
 9.961729964456352e-003	 1.124955894218232e+000	 1.952305279870337e-003
 0.000000000000000e+000	 1.125000000000000e+000	 1.081725971016215e-002
 1.033326036005224e-001	 1.145348144908886e+000	 1.305488624040372e-001
 9.286249981631764e-002	 1.146244544649727e+000	 1.028566915148579e-001
 8.241973305253061e-002	 1.147042713944502e+000	 7.921852308961422e-002
 7.200549795856930e-002	 1.147743528960876e+000	 5.959374051137794e-002
 6.162096509436395e-002	 1.148347881378689e+000	 4.394402070374334e-002
 5.126728079184391e-002	 1.148856677712526e+000	 3.223330167995846e-002
 4.094556703610597e-002	 1.149270838637736e+000	 2.442774555143181e-002
 3.065692136591787e-002	 1.149591298320462e+000	 2.049569725108262e-002
 2.040241679318992e-002	 1.149819003752249e+000	 2.040763923005759e-002
 1.018310174103233e-002	 1.149954914089742e+000	 2.413614238597104e-002
 0.000000000000000e+000	 1.150000000000000e+000	 3.165581348356624e-002
 1.055789645470518e-001	 1.170247017624094e+000	 1.499739523474198e-001
 9.488124981087207e-002	 1.171162904315862e+000	 1.142291099452760e-001
 8.421146637822551e-002	 1.171978425117080e+000	 8.318714120691202e-002
 7.357083486915875e-002	 1.172694475242536e+000	 5.679345293721288e-002
 6.296055129055644e-002	 1.173311965756415e+000	 3.499556824722594e-002
 5.238178689460660e-002	 1.173831822880139e+000	 1.774311330152983e-002
 4.183568805738575e-002	 1.174254987303742e+000	 4.987799047143004e-003
 3.132337617719941e-002	 1.174582413501324e+000	-3.316601830865154e-003
 2.084594759230309e-002	 1.174815069051203e+000	-7.214282477671143e-003
 1.040447351761307e-002	 1.174953933961256e+000	-6.747433709718322e-003
 0.000000000000000e+000	 1.175000000000000e+000	-1.956279875760163e-003
 1.078253254940729e-001	 1.195145890339793e+000	 1.295955201859106e-001
 9.689999980582342e-002	 1.196081263982393e+000	 8.489654698957007e-002
 8.600319970423299e-002	 1.196914136289970e+000	 4.550083621499702e-002
 7.513617177998672e-002	 1.197645421524434e+000	 1.134052111203009e-002
 6.430013748692355e-002	 1.198276050134314e+000	-1.765030281522021e-002
 5.349629299749016e-002	 1.198806968047874e+000	-4.153557285732540e-002
 4.272580907874261e-002	 1.199239135969825e+000	-6.037725965265541e-002
 3.198983098852416e-002	 1.199573528682229e+000	-7.423537300894988e-002
 2.128947839143539e-002	 1.199811134350176e+000	-8.316797275061329e-002
 1.062584529419858e-002	 1.199952953832775e+000	-8.723118434720396e-002
 0.000000000000000e+000	 1.200000000000000e+000	-8.647921907390667e-002
 1.100716864415856e-001	 1.220044763055984e+000	 7.206803934320220e-002
 9.891874980117174e-002	 1.220999623649321e+000	 1.756496482690751e-002
 8.779493303055304e-002	 1.221849847463172e+000	-3.108101395174244e-002
 7.670150869105320e-002	 1.222596367806571e+000	-7.395037767670613e-002
 6.563972368346532e-002	 1.223240134512389e+000	-1.111217758332790e-001
 5.461079910049455e-002	 1.223782113215730e+000	-1.426720045100682e-001
 4.361593010017655e-002	 1.224223284635984e+000	-1.686759902004013e-001
 3.265628579989210e-002	 1.224564643863177e+000	-1.892067793745113e-001
 2.173300919058682e-002	 1.224807199649169e+000	-2.043355335854603e-001
 1.084721707078885e-002	 1.224951973704298e+000	-2.141315298683999e-001
 0.000000000000000e+000	 1.225000000000000e+000	-2.186621661873711e-001
 1.123180473895901e-001	 1.244943635772666e+000	-2.017370785869595e-002
 1.009374997969171e-001	 1.245917983316647e+000	-8.528262704191980e-002
 8.958666635718569e-002	 1.246785558636688e+000	-1.440254266921460e-001
 7.826684560235818e-002	 1.247547314088946e+000	-1.964945820486146e-001
 6.697930988018169e-002	 1.248204218890639e+000	-2.427808453495195e-001
 5.572530520361981e-002	 1.248757258383706e+000	-2.829732073089410e-001
 4.450605112168756e-002	 1.249207433302222e+000	-3.171588650998358e-001
 3.332274061130324e-002	 1.249555759044168e+000	-3.454231966177769e-001
 2.217653998975738e-002	 1.249803264948180e+000	-3.678497407937877e-001
 1.106858884738389e-002	 1.249950993575827e+000	-3.845201837174026e-001
 0.000000000000000e+000	 1.250000000000000e+000	-3.955143503260762e-001
 1.250000000000000e+000	 0.000000000000000e+000	 2.008946068468026e+001
 1.249950993575827e+000	 1.106858884738393e-002	 2.010096065444829e+001
 1.249803264948180e+000	 2.217653998975746e-002	 2.010620368806907e+001
 1.249555759044169e+000	 3.332274061130316e-002	 2.010484488974524e+001
 1.249207433302221e+000	 4.450605112168753e-002	 2.009653574572256e+001
 1.248757258383706e+000	 5.572530520361980e-002	 2.008092441861760e+001
 1.248204218890639e+000	 6.697930988018173e-002	 2.005765605535403e+001
 1.247547314088946e+000	 7.826684560235826e-002	 2.002637310860483e+001
 1.246785558636687e+000	 8.958666635718562e-002	 1.998671567160428e+001
 1.245917983316646e+000	 1.009374997969170e-001	 1.993832182615860e+001
 1.244943635772666e+000	 1.123180473895901e-001	 1.988082800364975e+001
 1.275000000000000e+000	 0.000000000000000e+000	 1.942960689913264e+001
 1.274950013447356e+000	 1.128996062397897e-002	 1.943989659790295e+001
 1.274799330247192e+000	 2.262007078892803e-002	 1.944501138744640e+001
 1.274546874225160e+000	 3.398919542271432e-002	 1.944452547726297e+001
 1.274191581968459e+000	 4.539617214319854e-002	 1.943801133482359e+001
 1.273732403551682e+000	 5.683981130674506e-002	 1.942503981778250e+001
 1.273168303268888e+000	 6.831889607689813e-002	 1.940518030332203e+001
 1.272498260371322e+000	 7.983218251366328e-002	 1.937800081445878e+001
 1.271721269810203e+000	 9.137839968381828e-002	 1.934306814315999e+001
 1.270836342983972e+000	 1.029562497926623e-001	 1.929994797013801e+001
 1.269842508489349e+000	 1.145644083375946e-001	 1.924820498121356e+001
 1.300000000000000e+000	 0.000000000000000e+000	 1.881033727107778e+001
 1.299949033318879e+000	 1.151133240056925e-002	 1.882059146980572e+001
 1.299795395546183e+000	 2.306360158807946e-002	 1.882525902063865e+001
 1.299537989406108e+000	 3.465565023408224e-002	 1.882393837591103e+001
 1.299175730634619e+000	 4.628629316463247e-002	 1.881622718039210e+001
 1.298707548719537e+000	 5.795431740974946e-002	 1.880172238803599e+001
 1.298132387646963e+000	 6.965848227343988e-002	 1.878002037387294e+001
 1.297449206653458e+000	 8.139751942472973e-002	 1.875071704084360e+001
 1.296656980983405e+000	 9.317013301013835e-002	 1.871340792140132e+001
 1.295754702650900e+000	 1.049749997880106e-001	 1.866768827373161e+001
 1.294741381205540e+000	 1.168107692851074e-001	 1.861315317246439e+001
 1.325000000000000e+000	 0.000000000000000e+000	 1.823148572431099e+001
 1.324948053190397e+000	 1.173270417715475e-002	 1.824347002726795e+001
 1.324791460845157e+000	 2.350713238721176e-002	 1.824944677723608e+001
 1.324529104587013e+000	 3.532210504540698e-002	 1.824903865421603e+001
 1.324159879300702e+000	 4.717641418598934e-002	 1.824186847926875e+001
 1.323682693887272e+000	 5.906882351263301e-002	 1.822755931550474e+001
 1.323096472024863e+000	 7.099806846980700e-002	 1.820573456217730e+001
 1.322400152935356e+000	 8.296285633555769e-002	 1.817601804165397e+001
 1.321592692156295e+000	 9.496186633614581e-002	 1.813803407906715e+001
 1.320673062317432e+000	 1.069937497829620e-001	 1.809140757447363e+001
 1.319640253921239e+000	 1.190571302321284e-001	 1.803576406738334e+001
 1.350000000000000e+000	 0.000000000000000e+000	 1.769289848456867e+001
 1.349947073061912e+000	 1.195407595373549e-002	 1.770820069253077e+001
 1.349787526144111e+000	 2.395066318632493e-002	 1.771706438021687e+001
 1.349520219767875e+000	 3.598855985668854e-002	 1.771913651210027e+001
 1.349144027966708e+000	 4.806653520726913e-002	 1.771406515833963e+001
 1.348657839054886e+000	 6.018332961539571e-002	 1.770149957967880e+001
 1.348060556402588e+000	 7.233765466599949e-002	 1.768109030336497e+001
 1.347351099217016e+000	 8.452819324614716e-002	 1.765248918983049e+001
 1.346528403328873e+000	 9.675359966184070e-002	 1.761534948991518e+001
 1.345591421983566e+000	 1.090124997775164e-001	 1.756932589243864e+001
 1.344539126636447e+000	 1.213034911786578e-001	 1.751407456196773e+001
 1.375000000000000e+000	 0.000000000000000e+000	 1.719443296116999e+001
 1.374946092933421e+000	 1.217544773031147e-002	 1.721447167990331e+001
 1.374783591443046e+000	 2.439419398541897e-002	 1.722762998459228e+001
 1.374511334948693e+000	 3.665501466792687e-002	 1.723357925004986e+001
 1.374128176632636e+000	 4.895665622847185e-002	 1.723199293917201e+001
 1.373632984222379e+000	 6.129783571803756e-002	 1.722254667139110e+001
 1.373024640780139e+000	 7.367724086201738e-002	 1.720491828000986e+001
 1.372302045498437e+000	 8.609353015649812e-002	 1.717878785813229e+001
 1.371464114501138e+000	 9.854533298722303e-002	 1.714383779294291e+001
 1.370509781649304e+000	 1.110312497716739e-001	 1.709975278812386e+001
 1.369437999351162e+000	 1.235498521246955e-001	 1.704621987423934e+001
 1.400000000000000e+000	 0.000000000000000e+000	 1.673595674848275e+001
 1.399945112804926e+000	 1.239681950688268e-002	 1.676198922861383e+001
 1.399779656741962e+000	 2.483772478449388e-002	 1.678068763883237e+001
 1.399502450129468e+000	 3.732146947912201e-002	 1.679174795656437e+001
 1.399112325298488e+000	 4.984677724959750e-002	 1.679486924920352e+001
 1.398608129389751e+000	 6.241234182055857e-002	 1.678975372573320e+001
 1.397988725157516e+000	 7.501682705786059e-002	 1.677610677503669e+001
 1.397252991779620e+000	 8.765886706661052e-002	 1.675363699058171e+001
 1.396399825673091e+000	 1.003370663122927e-001	 1.672205618120543e+001
 1.395428141314644e+000	 1.130499997654344e-001	 1.668107936776858e+001
 1.394336872065386e+000	 1.257962130702414e-001	 1.663042476549206e+001
 1.425000000000000e+000	 0.000000000000000e+000	 1.631734673249803e+001
 1.424944132676425e+000	 1.261819128344913e-002	 1.635047602167643e+001
 1.424775722040858e+000	 2.528125558354965e-002	 1.637580501350997e+001
 1.424493565310201e+000	 3.798792429027395e-002	 1.639305454429604e+001
 1.424096473964263e+000	 5.073689827064606e-002	 1.640194956333240e+001
 1.423583274557002e+000	 6.352684792295871e-002	 1.640221916729582e+001
 1.422952809534717e+000	 7.635641325352920e-002	 1.639359661905864e+001
 1.422203938060564e+000	 8.922420397648445e-002	 1.637581935059912e+001
 1.421335536844730e+000	 1.021287996370498e-001	 1.634862894970514e+001
 1.420346500979588e+000	 1.150687497587979e-001	 1.631177113021881e+001
 1.419235744779119e+000	 1.280425740152957e-001	 1.626499568561894e+001
 1.450000000000000e+000	 0.000000000000000e+000	 1.593848828982823e+001
 1.449943152547921e+000	 1.283956306001081e-002	 1.597966976832332e+001
 1.449771787339736e+000	 2.572478638258629e-002	 1.601257136491246e+001
 1.449484680490890e+000	 3.865437910138269e-002	 1.603693909279518e+001
 1.449080622629961e+000	 5.162701929161755e-002	 1.605252412396409e+001
 1.448558419724132e+000	 6.464135402523800e-002	 1.605908280590159e+001
 1.447916893911744e+000	 7.769599944902315e-002	 1.605637666040412e+001
 1.447154884341269e+000	 9.078954088611986e-002	 1.604417236415821e+001
 1.446271248016057e+000	 1.039205329614944e-001	 1.602224171074107e+001
 1.445264860644134e+000	 1.170874997517645e-001	 1.599036155377147e+001
 1.444134617492359e+000	 1.302889349598582e-001	 1.594831373099147e+001
 1.475000000000000e+000	 0.000000000000000e+000	 1.559927456816282e+001
 1.474942172419411e+000	 1.306093483656772e-002	 1.564932193059650e+001
 1.474767852638594e+000	 2.616831718160380e-002	 1.569059570574396e+001
 1.474475795671536e+000	 3.932083391244823e-002	 1.572286746148496e+001
 1.474064771295581e+000	 5.251714031251197e-002	 1.574591499461222e+001
 1.473533564891141e+000	 6.575586012739645e-002	 1.575952232938201e+001
 1.472880978288596e+000	 7.903558564434252e-002	 1.576347969581896e+001
 1.472105830621736e+000	 9.235487779551677e-002	 1.575758348736627e+001
 1.471206959187071e+000	 1.057122662856263e-001	 1.574163619752775e+001
 1.470183220308284e+000	 1.191062497443342e-001	 1.571544633520399e+001
 1.469033490205108e+000	 1.325352959039290e-001	 1.567882831848680e+001
 1.500000000000000e+000	 0.000000000000000e+000	 1.529960583867868e+001
 1.499941192290897e+000	 1.328230661311987e-002	 1.535919657728032e+001
 1.499763917937433e+000	 2.661184798060218e-002	 1.540950515875726e+001
 1.499466910852138e+000	 3.998728872347057e-002	 1.545032914133862e+001
 1.499048919961125e+000	 5.340726133332932e-002	 1.548147340813960e+001
 1.498508710058030e+000	 6.687036622943404e-002	 1.550275014707680e+001
 1.497845062665274e+000	 8.037517183948720e-002	 1.551397880809816e+001
 1.497056776901965e+000	 9.392021470467514e-002	 1.551498603728626e+001
 1.496142670357773e+000	 1.075039996094457e-001	 1.550560558745228e+001
 1.495101579972036e+000	 1.211249997365068e-001	 1.548567820490088e+001
 1.493932362917365e+000	 1.347816568475081e-001	 1.545505149211226e+001
 1.244943635772666e+000	 1.123180473895901e-001	 1.988082800364975e+001
 1.243861581248701e+000	 1.237269845919664e-001	 1.987837252700321e+001
 1.242670903331058e+000	 1.351629610433850e-001	 1.986658758078272e+001
 1.241370704692402e+000	 1.466246007820463e-001	 1.984515900865052e+001
 1.239960107836013e+000	 1.581105024852513e-001	 1.981377334225478e+001
 1.238438255840743e+000	 1.696192397320706e-001	 1.977211818645144e+001
 1.236804313105527e+000	 1.811493612893029e-001	 1.971988261364112e+001
 1.235057466092679e+000	 1.926993914209579e-001	 1.965675756675790e+001
 1.233196924069199e+000	 2.042678302214702e-001	 1.958243627041054e+001
 1.231221919845279e+000	 2.158531539728274e-001	 1.949661464964211e+001
 1.229131710509183e+000	 2.274538155257646e-001	 1.939899175573876e+001
 1.269842508489349e+000	 1.145644083375946e-001	 1.924820498121356e+001
 1.268738812875140e+000	 1.262015242844133e-001	 1.925616988651134e+001
 1.267524321399351e+000	 1.378662202651446e-001	 1.925526569121573e+001
 1.266198118788100e+000	 1.495570927987517e-001	 1.924510282663779e+001
 1.264759309994731e+000	 1.612727125360804e-001	 1.922529175200558e+001
 1.263207020959674e+000	 1.730116245277816e-001	 1.919544301646851e+001
 1.261540399369842e+000	 1.847723485159893e-001	 1.915516731588834e+001
 1.259758615416796e+000	 1.965533792499918e-001	 1.910407554450614e+001
 1.257860862552874e+000	 2.083531868261117e-001	 1.904177884160889e+001
 1.255846358244472e+000	 2.201702170519753e-001	 1.896788863335429e+001
 1.253714344721621e+000	 2.320028918353312e-001	 1.888201666994776e+001
 1.294741381205540e+000	 1.168107692851074e-001	 1.861315317246439e+001
 1.293616044500996e+000	 1.286760639762829e-001	 1.862200543727417e+001
 1.292377739466991e+000	 1.405694794862700e-001	 1.862197912128793e+001
 1.291025532883092e+000	 1.524895848147953e-001	 1.861271341428211e+001
 1.289558512152712e+000	 1.644349225862496e-001	 1.859384804986475e+001
 1.287975786077856e+000	 1.764040093228645e-001	 1.856502333135200e+001
 1.286276485633416e+000	 1.883953357421090e-001	 1.852588015057270e+001
 1.284459764740199e+000	 2.004073670785510e-001	 1.847605999971756e+001
 1.282524801035884e+000	 2.124385434304009e-001	 1.841520497638862e+001
 1.280470796643069e+000	 2.244872801309241e-001	 1.834295778204605e+001
 1.278296978933551e+000	 2.365519681448832e-001	 1.825896171408991e+001
 1.319640253921239e+000	 1.190571302321284e-001	 1.803576406738334e+001
 1.318493276126270e+000	 1.311506036675752e-001	 1.804677970533466e+001
 1.317231157533977e+000	 1.432727387067614e-001	 1.804889314727452e+001
 1.315852946977380e+000	 1.554220768301773e-001	 1.804177255682833e+001
 1.314357714309955e+000	 1.675971326357590e-001	 1.802508717106948e+001
 1.312744551195288e+000	 1.797963941173191e-001	 1.799850728949695e+001
 1.311012571896248e+000	 1.920183229676621e-001	 1.796170425403184e+001
 1.309160914062888e+000	 2.042613549066355e-001	 1.791435042017626e+001
 1.307188739518228e+000	 2.165239000343379e-001	 1.785611911952391e+001
 1.305095235041069e+000	 2.288043432096740e-001	 1.778668461385820e+001
 1.302879613144973e+000	 2.411010444544205e-001	 1.770572204112062e+001
 1.344539126636447e+000	 1.213034911786578e-001	 1.751407456196773e+001
 1.343370507750963e+000	 1.336251433582901e-001	 1.752836843727825e+001
 1.342084575600310e+000	 1.459759979266187e-001	 1.753372256928550e+001
 1.340680361070962e+000	 1.583545688448975e-001	 1.752983439348860e+001
 1.339156916466462e+000	 1.707593426846085e-001	 1.751640296329363e+001
 1.337513316311972e+000	 1.831887789111455e-001	 1.749312890126037e+001
 1.335748658158338e+000	 1.956413101926485e-001	 1.745971433940426e+001
 1.333862063384863e+000	 2.081153427342453e-001	 1.741586284872555e+001
 1.331852677999906e+000	 2.206092566379227e-001	 1.736127935818875e+001
 1.329719673438472e+000	 2.331214062882248e-001	 1.729567006342856e+001
 1.327462247355889e+000	 2.456501207639431e-001	 1.721874232551113e+001
 1.369437999351162e+000	 1.235498521246955e-001	 1.704621987423934e+001
 1.368247739375074e+000	 1.360996830484277e-001	 1.706475287474416e+001
 1.366937993665990e+000	 1.486792571458420e-001	 1.707429483322806e+001
 1.365507775163839e+000	 1.612870608589561e-001	 1.707457283465989e+001
 1.363956118622232e+000	 1.739215527327983e-001	 1.706531614232621e+001
 1.362282081427904e+000	 1.865811637043437e-001	 1.704625611045503e+001
 1.360484744419686e+000	 1.992642974170683e-001	 1.701712608387467e+001
 1.358563212706124e+000	 2.119693305613802e-001	 1.697766128490803e+001
 1.356516616480918e+000	 2.246946132411550e-001	 1.692759868776097e+001
 1.354344111835277e+000	 2.374384693665766e-001	 1.686667688072145e+001
 1.352044881566296e+000	 2.501991970734510e-001	 1.679463591654654e+001
 1.394336872065386e+000	 1.257962130702414e-001	 1.663042476549206e+001
 1.393124970998602e+000	 1.385742227379879e-001	 1.665401033522416e+001
 1.391791411731016e+000	 1.513825163644311e-001	 1.666853997314610e+001
 1.390335189256011e+000	 1.642195528723529e-001	 1.667377086806837e+001
 1.388755320777263e+000	 1.770837627803282e-001	 1.666946296456115e+001
 1.387050846543088e+000	 1.899735484969136e-001	 1.665537883600529e+001
 1.385220830680293e+000	 2.028872846409216e-001	 1.663128354259845e+001
 1.383264362026671e+000	 2.158233183880405e-001	 1.659694447454623e+001
 1.381180554961265e+000	 2.287799698440352e-001	 1.655213118073297e+001
 1.378968550231487e+000	 2.417555324447294e-001	 1.649661518323104e+001
 1.376627515776197e+000	 2.547482733829443e-001	 1.643016977807466e+001
 1.419235744779119e+000	 1.280425740152957e-001	 1.626499568561894e+001
 1.418002202621548e+000	 1.410487624269708e-001	 1.629430578435620e+001
 1.416644829795389e+000	 1.540857755823860e-001	 1.631448161226085e+001
 1.415162603347478e+000	 1.671520448850881e-001	 1.632531099058258e+001
 1.413554522931558e+000	 1.802459728271983e-001	 1.632658509185661e+001
 1.411819611657523e+000	 1.933659332888553e-001	 1.631809827237603e+001
 1.409956916940157e+000	 2.065102718642082e-001	 1.629964788747636e+001
 1.407965511346504e+000	 2.196773062142261e-001	 1.627103408989360e+001
 1.405844493440946e+000	 2.328653264465631e-001	 1.623205961152637e+001
 1.403592988627099e+000	 2.460725955226832e-001	 1.618252952900519e+001
 1.401210149985591e+000	 2.592973496924230e-001	 1.612225101354485e+001
 1.444134617492359e+000	 1.302889349598582e-001	 1.594831373099147e+001
 1.442879434243912e+000	 1.435233021153764e-001	 1.598388428004967e+001
 1.441498247859109e+000	 1.567890347997069e-001	 1.601022889493842e+001
 1.439990017438240e+000	 1.700845368971616e-001	 1.602716662983911e+001
 1.438353725085115e+000	 1.834081828734085e-001	 1.603452050485709e+001
 1.436588376771206e+000	 1.967583180801687e-001	 1.603211729685368e+001
 1.434693003199280e+000	 2.101332590869281e-001	 1.601978731088351e+001
 1.432666660665624e+000	 2.235312940399370e-001	 1.599736413252858e+001
 1.430508431919961e+000	 2.369506830487386e-001	 1.596468436149827e+001
 1.428217427022115e+000	 2.503896586004381e-001	 1.592158732694286e+001
 1.425792784194477e+000	 2.638464260018870e-001	 1.586791478500793e+001
 1.469033490205108e+000	 1.325352959039290e-001	 1.567882831848680e+001
 1.467756665865694e+000	 1.459978418032046e-001	 1.572106418500479e+001
 1.466351665922175e+000	 1.594922940163938e-001	 1.575396923913506e+001
 1.464817431528297e+000	 1.730170289085734e-001	 1.577739443824545e+001
 1.463152927237936e+000	 1.865703929189589e-001	 1.579119534038439e+001
 1.461357141884141e+000	 2.001507028708540e-001	 1.579523185235809e+001
 1.459429089457661e+000	 2.137562463090815e-001	 1.578936795613772e+001
 1.457367809984029e+000	 2.273852818651730e-001	 1.577347141392041e+001
 1.455172370398310e+000	 2.410360396505620e-001	 1.574741345225203e+001
 1.452841865416533e+000	 2.547067216779938e-001	 1.571106842570510e+001
 1.450375418402855e+000	 2.683955023113362e-001	 1.566431346069271e+001
 1.493932362917365e+000	 1.347816568475081e-001	 1.545505149211226e+001
 1.492633897486894e+000	 1.484723814904555e-001	 1.550423105797997e+001
 1.491205083984588e+000	 1.621955532324464e-001	 1.554396181359802e+001
 1.489644845617648e+000	 1.759495209193235e-001	 1.557412735758229e+001
 1.487952129390018e+000	 1.897326029638494e-001	 1.559461654508970e+001
 1.486125906996327e+000	 2.035430876609109e-001	 1.560532319197313e+001
 1.484165175715299e+000	 2.173792335306682e-001	 1.560614575492101e+001
 1.482068959301720e+000	 2.312392696899344e-001	 1.559698698793836e+001
 1.479836308875994e+000	 2.451213962520329e-001	 1.557775357561683e+001
 1.477466303810354e+000	 2.590237847553505e-001	 1.554835574373511e+001
 1.474958052610726e+000	 2.729445786207708e-001	 1.550870684782458e+001
 1.229131710509183e+000	 2.274538155257646e-001	 1.939899175573876e+001
 1.226925578158476e+000	 2.390682447049866e-001	 1.937947573022785e+001
 1.224602830624363e+000	 2.506948487390461e-001	 1.934834688494468e+001
 1.222162802189878e+000	 2.623320127144961e-001	 1.930540024149184e+001
 1.219604854302598e+000	 2.739781000540935e-001	 1.925043668532448e+001
 1.216928376278658e+000	 2.856314530195621e-001	 1.918326334735378e+001
 1.214132785997951e+000	 2.972903932386898e-001	 1.910369398574012e+001
 1.211217530589605e+000	 3.089532222566900e-001	 1.901154936712972e+001
 1.208182087106841e+000	 3.206182221117184e-001	 1.890665764656651e+001
 1.205025963190290e+000	 3.322836559344021e-001	 1.878885474529159e+001
 1.201748697718857e+000	 3.439477685711992e-001	 1.865798472562427e+001
 1.253714344721621e+000	 2.320028918353312e-001	 1.888201666994776e+001
 1.251464089723864e+000	 2.438496095974737e-001	 1.887982238224467e+001
 1.249094887239062e+000	 2.557087457116228e-001	 1.885867165930627e+001
 1.246606058235910e+000	 2.675786529660630e-001	 1.881425458428026e+001
 1.243996951390936e+000	 2.794576620520075e-001	 1.875796149056263e+001
 1.241266943806600e+000	 2.913440820764148e-001	 1.868959713565002e+001
 1.238415441720392e+000	 3.032362010996293e-001	 1.860897288748656e+001
 1.235441881204021e+000	 3.151322866977697e-001	 1.851590711399151e+001
 1.232345728851775e+000	 3.270305865497552e-001	 1.841022557138507e+001
 1.229126482457096e+000	 3.389293290488261e-001	 1.829176179050324e+001
 1.225783671676468e+000	 3.508267239383701e-001	 1.816035746027319e+001
 1.278296978933551e+000	 2.365519681448832e-001	 1.825896171408991e+001
 1.276002601288834e+000	 2.486309744901317e-001	 1.826322857648415e+001
 1.273586943853415e+000	 2.607226426845269e-001	 1.825557367541899e+001
 1.271049314281647e+000	 2.728252932180848e-001	 1.823568316460847e+001
 1.268389048479013e+000	 2.849372240504741e-001	 1.820324419857899e+001
 1.265605511334292e+000	 2.970567111338884e-001	 1.815794486136329e+001
 1.262698097442573e+000	 3.091820089612281e-001	 1.809947408965784e+001
 1.259666231818150e+000	 3.213113511395163e-001	 1.802752159100045e+001
 1.256509370596372e+000	 3.334429509884361e-001	 1.794177775756836e+001
 1.253227001723497e+000	 3.455750021638406e-001	 1.784193357624070e+001
 1.249818645633586e+000	 3.577056793060471e-001	 1.772682785893356e+001
 1.302879613144973e+000	 2.411010444544205e-001	 1.770572204112062e+001
 1.300541112853388e+000	 2.534123393829606e-001	 1.771616079282645e+001
 1.298079000467422e+000	 2.657365396577586e-001	 1.771484362674394e+001
 1.295492570327091e+000	 2.780719334705617e-001	 1.770146861181166e+001
 1.292781145566826e+000	 2.904167860494936e-001	 1.767573466705123e+001
 1.289944078861733e+000	 3.027693401919827e-001	 1.763734145218842e+001
 1.286980753164496e+000	 3.151278168234856e-001	 1.758598925197625e+001
 1.283890582431992e+000	 3.274904155819297e-001	 1.752137885485337e+001
 1.280673012340635e+000	 3.398553154277612e-001	 1.744321142661871e+001
 1.277327520989495e+000	 3.522206752794460e-001	 1.735118837985056e+001
 1.273853619590210e+000	 3.645846346742306e-001	 1.724501123984445e+001
 1.327462247355889e+000	 2.456501207639431e-001	 1.721874232551113e+001
 1.325079624417525e+000	 2.581937042759605e-001	 1.723498815482948e+001
 1.322571057081084e+000	 2.707504366313178e-001	 1.723963409385354e+001
 1.319935826372240e+000	 2.833185737234933e-001	 1.723239110210818e+001
 1.317173242654377e+000	 2.958963480490658e-001	 1.721297084964900e+001
 1.314282646388924e+000	 3.084819692506980e-001	 1.718108556792915e+001
 1.311263408886161e+000	 3.210736246864023e-001	 1.713644789355383e+001
 1.308114933045548e+000	 3.336694800250099e-001	 1.707877070563432e+001
 1.304836654084563e+000	 3.462676798677304e-001	 1.700776695750610e+001
 1.301428040255088e+000	 3.588663483956419e-001	 1.692314950362749e+001
 1.297888593546341e+000	 3.714635900429203e-001	 1.682463092252570e+001
 1.352044881566296e+000	 2.501991970734510e-001	 1.679463591654654e+001
 1.349618135981244e+000	 2.629750691691311e-001	 1.681624947111974e+001
 1.347063113694399e+000	 2.757643336052045e-001	 1.682641033177758e+001
 1.344379082417094e+000	 2.885652139768798e-001	 1.682484338040071e+001
 1.341565339741666e+000	 3.013759100491908e-001	 1.681127408103453e+001
 1.338621213915864e+000	 3.141945983100343e-001	 1.678542828925441e+001
 1.335546064607567e+000	 3.270194325499778e-001	 1.674703205354965e+001
 1.332339283658817e+000	 3.398485444687569e-001	 1.669581140951896e+001
 1.329000295828156e+000	 3.526800443083437e-001	 1.663149216772907e+001
 1.325528559520278e+000	 3.655120215124286e-001	 1.655379969614446e+001
 1.321923567501977e+000	 3.783425454121162e-001	 1.646245869809073e+001
 1.376627515776197e+000	 2.547482733829443e-001	 1.643016977807466e+001
 1.374156647544547e+000	 2.677564340624728e-001	 1.645663808494000e+001
 1.371555170307368e+000	 2.807782305794187e-001	 1.647179300310851e+001
 1.368822338461654e+000	 2.938118542307212e-001	 1.647537442422034e+001
 1.365957436828692e+000	 3.068554720498686e-001	 1.646712270492777e+001
 1.362959781442553e+000	 3.199072273699914e-001	 1.644677843294673e+001
 1.359828720328715e+000	 3.329652404142124e-001	 1.641408218420100e+001
 1.356563634271800e+000	 3.460276089131709e-001	 1.636877427193739e+001
 1.353163937571413e+000	 3.590924087496012e-001	 1.631059448875265e+001
 1.349629078785063e+000	 3.721576946298060e-001	 1.623928184253504e+001
 1.345958541457119e+000	 3.852215007818184e-001	 1.615457428738337e+001
 1.401210149985591e+000	 2.592973496924230e-001	 1.612225101354485e+001
 1.398695159107433e+000	 2.725377989559853e-001	 1.615298831848142e+001
 1.396047226919992e+000	 2.857921275539604e-001	 1.617254454575924e+001
 1.393265594505920e+000	 2.990584944850176e-001	 1.618067573911009e+001
 1.390349533915456e+000	 3.123350340510991e-001	 1.617713830138222e+001
 1.387298348968993e+000	 3.256198564305694e-001	 1.616168871540106e+001
 1.384111376049604e+000	 3.389110482791060e-001	 1.613408325493931e+001
 1.380787984884495e+000	 3.522066733582516e-001	 1.609407768676238e+001
 1.377327579314336e+000	 3.655047731915028e-001	 1.604142696478305e+001
 1.373729598049444e+000	 3.788033677477741e-001	 1.597588491742666e+001
 1.369993515411769e+000	 3.921004561520270e-001	 1.589720392937262e+001
 1.425792784194477e+000	 2.638464260018870e-001	 1.586791478500793e+001
 1.423233670669902e+000	 2.773191638496688e-001	 1.590226331952609e+001
 1.420539283532269e+000	 2.908060245288296e-001	 1.592555695095289e+001
 1.417708850549892e+000	 3.043051347397688e-001	 1.593756907172755e+001
 1.414741631001958e+000	 3.178145960528825e-001	 1.593807333882514e+001
 1.411636916495182e+000	 3.313324854917684e-001	 1.592684334748583e+001
 1.408394031770235e+000	 3.448568561446586e-001	 1.590365229401134e+001
 1.405012335496905e+000	 3.583857378039990e-001	 1.586827262868489e+001
 1.401491221056923e+000	 3.719171376340487e-001	 1.582047569994531e+001
 1.397830117313421e+000	 3.854490408663329e-001	 1.576003139101857e+001
 1.394028489365924e+000	 3.989794115227418e-001	 1.568670775027956e+001
 1.450375418402855e+000	 2.683955023113362e-001	 1.566431346069271e+001
 1.447772182231955e+000	 2.821005287435232e-001	 1.570154414402435e+001
 1.445031340144201e+000	 2.958199215040264e-001	 1.572784078412890e+001
 1.442152106593569e+000	 3.095517749949748e-001	 1.574299537246235e+001
 1.439133728088196e+000	 3.232941580552186e-001	 1.574680008182253e+001
 1.435975484021120e+000	 3.370451145535882e-001	 1.573904689094356e+001
 1.432676687490608e+000	 3.508026640108701e-001	 1.571952719705427e+001
 1.429236686109027e+000	 3.645648022504133e-001	 1.568803141755155e+001
 1.425654862799175e+000	 3.783295020772385e-001	 1.564434858201872e+001
 1.421930636576994e+000	 3.920947139854825e-001	 1.558826591589781e+001
 1.418063463319586e+000	 4.058583668939629e-001	 1.551956841720014e+001
 1.474958052610726e+000	 2.729445786207708e-001	 1.550870684782458e+001
 1.472310693793589e+000	 2.868818936375483e-001	 1.554801993041414e+001
 1.469523396755786e+000	 3.008338184795506e-001	 1.557651530375837e+001
 1.466595362636951e+000	 3.147984152506358e-001	 1.559400486179187e+001
 1.463525825174173e+000	 3.287737200581074e-001	 1.560030060806775e+001
 1.460314051546808e+000	 3.427577436160288e-001	 1.559521422915136e+001
 1.456959343210722e+000	 3.567484718777407e-001	 1.557855665481306e+001
 1.453461036720863e+000	 3.707438666974944e-001	 1.555013760626839e+001
 1.449818504541093e+000	 3.847418665210725e-001	 1.550976513379911e+001
 1.446031155840162e+000	 3.987403871052225e-001	 1.545724514517346e+001
 1.442098437272754e+000	 4.127373222656903e-001	 1.539238092636542e+001
 1.201748697718857e+000	 3.439477685711992e-001	 1.865798472562427e+001
 1.198349861446522e+000	 3.556087872310357e-001	 1.861807509206487e+001
 1.194829057626238e+000	 3.672649221558912e-001	 1.856345810603947e+001
 1.191185922618588e+000	 3.789143673145656e-001	 1.849403298948518e+001
 1.187420126482944e+000	 3.905553011185041e-001	 1.840971048339624e+001
 1.183531373552289e+000	 4.021858871602736e-001	 1.831041319003456e+001
 1.179519402990089e+000	 4.138042749739844e-001	 1.819607590443119e+001
 1.175383989328324e+000	 4.254086008172057e-001	 1.806664593426300e+001
 1.171124942985806e+000	 4.369969884738850e-001	 1.792208340719246e+001
 1.166742110765889e+000	 4.485675500777414e-001	 1.776236156476519e+001
 1.162235376332733e+000	 4.601183869555650e-001	 1.758746704196991e+001
 1.225783671676468e+000	 3.508267239383701e-001	 1.816035746027319e+001
 1.222316858678915e+000	 3.627209629714752e-001	 1.812333751052075e+001
 1.218725638782410e+000	 3.746102205949435e-001	 1.807200334597097e+001
 1.215009641074747e+000	 3.864926546569513e-001	 1.800623944407625e+001
 1.211168529016486e+000	 3.983664071371730e-001	 1.792594145447102e+001
 1.207202001027270e+000	 4.102296049000268e-001	 1.783101655635958e+001
 1.203109791053832e+000	 4.220803604703061e-001	 1.772138380573651e+001
 1.198891669118793e+000	 4.339167728307314e-001	 1.759697447149761e+001
 1.194547441849339e+000	 4.457369282409293e-001	 1.745773235950164e+001
 1.190076952984894e+000	 4.575389010772937e-001	 1.730361412364858e+001
 1.185480083862899e+000	 4.693207546931507e-001	 1.713458956304819e+001
 1.249818645633586e+000	 3.577056793060471e-001	 1.772682785893356e+001
 1.246283855910719e+000	 3.698331387123256e-001	 1.769227002389613e+001
 1.242622219937908e+000	 3.819555190343213e-001	 1.764374777627627e+001
 1.238833359530156e+000	 3.940709419995868e-001	 1.758113059690338e+001
 1.234916931549213e+000	 4.061775131560257e-001	 1.750429882408984e+001
 1.230872628501380e+000	 4.182733226399084e-001	 1.741314402710492e+001
 1.226700179116658e+000	 4.303564459667101e-001	 1.730756936999336e+001
 1.222399348908308e+000	 4.424249448443034e-001	 1.718748996476816e+001
 1.217969940711893e+000	 4.544768680079942e-001	 1.705283321300768e+001
 1.213411795202904e+000	 4.665102520768511e-001	 1.690353913489143e+001
 1.208724791392063e+000	 4.785231224307363e-001	 1.673956068471522e+001
 1.273853619590210e+000	 3.645846346742306e-001	 1.724501123984445e+001
 1.270250853141934e+000	 3.769453144535873e-001	 1.723554836593388e+001
 1.266518801092730e+000	 3.893008174740247e-001	 1.721075621436169e+001
 1.262657077984815e+000	 4.016492293424723e-001	 1.717032794087842e+001
 1.258665334081123e+000	 4.139886191750625e-001	 1.711395702188635e+001
 1.254543255974616e+000	 4.263170403799179e-001	 1.704133712980658e+001
 1.250290567178565e+000	 4.386325314631961e-001	 1.695216200956824e+001
 1.245907028696869e+000	 4.509331168579217e-001	 1.683657039097242e+001
 1.241392439573468e+000	 4.632168077750798e-001	 1.670583559219154e+001
 1.236746637419919e+000	 4.754816030764137e-001	 1.656065895253061e+001
 1.231969498920228e+000	 4.877254901683218e-001	 1.640097654533320e+001
 1.297888593546341e+000	 3.714635900429203e-001	 1.682463092252570e+001
 1.294217850372561e+000	 3.840574901952600e-001	 1.682359025788719e+001
 1.290415382246879e+000	 3.966461159140538e-001	 1.680772921347059e+001
 1.286480796438724e+000	 4.092275166856075e-001	 1.677673907215558e+001
 1.282413736612218e+000	 4.217997251942834e-001	 1.673031050778513e+001
 1.278213883446981e+000	 4.343607581200554e-001	 1.666813342286864e+001
 1.273880955239555e+000	 4.469086169597642e-001	 1.658989678814310e+001
 1.269414708484477e+000	 4.594412888715863e-001	 1.649528848510643e+001
 1.264814938434065e+000	 4.719567475421860e-001	 1.638399515266438e+001
 1.260081479635940e+000	 4.844529540759814e-001	 1.625570203905620e+001
 1.255214206447393e+000	 4.969278579059074e-001	 1.611009286024357e+001
 1.321923567501977e+000	 3.783425454121162e-001	 1.646245869809073e+001
 1.318184847602598e+000	 3.911696659373439e-001	 1.646852788947894e+001
 1.314311963400354e+000	 4.039914143544086e-001	 1.646027665000279e+001
 1.310304514891883e+000	 4.168058040289927e-001	 1.643739573857359e+001
 1.306162139142497e+000	 4.296108312136883e-001	 1.639957437658895e+001
 1.301884510918475e+000	 4.424044758603211e-001	 1.634650004571211e+001
 1.297471343299627e+000	 4.551847024564147e-001	 1.627785828821576e+001
 1.292922388271131e+000	 4.679494608852973e-001	 1.619333251112735e+001
 1.288237437293681e+000	 4.806966873093128e-001	 1.609260379544245e+001
 1.283416321850965e+000	 4.934243050755543e-001	 1.597535071169725e+001
 1.278458913973558e+000	 5.061302256434931e-001	 1.584124914321153e+001
 1.345958541457119e+000	 3.852215007818184e-001	 1.615457428738337e+001
 1.342151844832046e+000	 3.982818416798387e-001	 1.616642382906253e+001
 1.338208544553154e+000	 4.113367127950889e-001	 1.616444600344403e+001
 1.334128233344292e+000	 4.243840913726279e-001	 1.614833243166757e+001
 1.329910541671960e+000	 4.374219372332774e-001	 1.611777226890332e+001
 1.325555138389096e+000	 4.504481936007150e-001	 1.607245195987972e+001
 1.321061731358781e+000	 4.634607879531474e-001	 1.601205499765258e+001
 1.316430068056832e+000	 4.764576328990545e-001	 1.593626168698084e+001
 1.311659936152318e+000	 4.894366270764602e-001	 1.584474891370542e+001
 1.306751164064996e+000	 5.023956560751325e-001	 1.573718992155358e+001
 1.301703621498723e+000	 5.153325933810786e-001	 1.561325409781266e+001
 1.369993515411769e+000	 3.921004561520270e-001	 1.589720392937262e+001
 1.366118842060906e+000	 4.053940174227450e-001	 1.591348441494602e+001
 1.362105125705279e+000	 4.186820112360948e-001	 1.591642568556413e+001
 1.357951951795950e+000	 4.319623787165129e-001	 1.590572164866826e+001
 1.353658944200606e+000	 4.452330432530503e-001	 1.588106281616584e+001
 1.349225765858845e+000	 4.584919113412369e-001	 1.584213601531093e+001
 1.344652119417017e+000	 4.717368734499621e-001	 1.578862410347347e+001
 1.339937747841579e+000	 4.849658049128580e-001	 1.572020568829685e+001
 1.335082435009975e+000	 4.981765668436283e-001	 1.563655485477495e+001
 1.330086006278031e+000	 5.113670070747157e-001	 1.553734090080782e+001
 1.324948329022888e+000	 5.245349611186642e-001	 1.542222808281775e+001
 1.394028489365924e+000	 3.989794115227418e-001	 1.568670775027956e+001
 1.390085839289178e+000	 4.125061931660621e-001	 1.570604736143060e+001
 1.386001706856731e+000	 4.260273096774265e-001	 1.571253289108224e+001
 1.381775670246859e+000	 4.395406660606480e-001	 1.570586199545935e+001
 1.377407346728437e+000	 4.530441492730074e-001	 1.568572800350563e+001
 1.372896393327723e+000	 4.665356290818869e-001	 1.565181958065259e+001
 1.368242507474335e+000	 4.800129589468590e-001	 1.560382039709718e+001
 1.363445427625372e+000	 4.934739769267080e-001	 1.554140880222520e+001
 1.358504933866653e+000	 5.069165066108170e-001	 1.546425750685279e+001
 1.353420848490073e+000	 5.203383580743043e-001	 1.537203327498740e+001
 1.348193036546053e+000	 5.337373288562498e-001	 1.526439662683312e+001
 1.418063463319586e+000	 4.058583668939629e-001	 1.551956841720014e+001
 1.414052836516859e+000	 4.196183689097904e-001	 1.554057062525171e+001
 1.409898288007508e+000	 4.333726081190837e-001	 1.554920268385731e+001
 1.405599388697018e+000	 4.471189534050328e-001	 1.554516749940343e+001
 1.401155749255452e+000	 4.608552552931484e-001	 1.552816271604043e+001
 1.396567020795728e+000	 4.745793468226650e-001	 1.549788032980911e+001
 1.391832895530736e+000	 4.882890444438381e-001	 1.545400630786691e+001
 1.386953107408211e+000	 5.019821489406043e-001	 1.539622021459491e+001
 1.381927432722353e+000	 5.156564463780266e-001	 1.532419484640370e+001
 1.376755690701119e+000	 5.293097090738979e-001	 1.523759587708776e+001
 1.371437744068218e+000	 5.429396965938355e-001	 1.513608151560253e+001
 1.442098437272754e+000	 4.127373222656903e-001	 1.539238092636542e+001
 1.438019833743952e+000	 4.267305446539297e-001	 1.541362238537613e+001
 1.433794869157610e+000	 4.407179065610665e-001	 1.542297817445992e+001
 1.429423107146426e+000	 4.546972407496674e-001	 1.542015799088540e+001
 1.424904151781651e+000	 4.686663613134735e-001	 1.540486533054438e+001
 1.420237648262862e+000	 4.826230645635711e-001	 1.537679704983763e+001
 1.415423283586218e+000	 4.965651299408992e-001	 1.533564293322318e+001
 1.410460787190097e+000	 5.104903209545468e-001	 1.528108526835762e+001
 1.405349931577071e+000	 5.243963861452563e-001	 1.521279843080023e+001
 1.400090532911170e+000	 5.382810600734965e-001	 1.513044848028349e+001
 1.394682451589383e+000	 5.521420643314209e-001	 1.503369277057933e+001
 1.162235376332733e+000	 4.601183869555650e-001	 1.758746704196991e+001
 1.157604660665571e+000	 4.716475904904681e-001	 1.752963634788936e+001
 1.152849922489192e+000	 4.831532430025667e-001	 1.746126271823676e+001
 1.147971158680544e+000	 4.946334186475060e-001	 1.738261663937284e+001
 1.142968404651232e+000	 5.060861843335418e-001	 1.729398148839097e+001
 1.137841734704207e+000	 5.175096006544983e-001	 1.719565344892228e+001
 1.132591262364247e+000	 5.289017228384254e-001	 1.708794140567559e+001
 1.127217140681487e+000	 5.402606017111222e-001	 1.697116681740155e+001
 1.121719562507361e+000	 5.515842846736661e-001	 1.684566356801632e+001
 1.116098760742258e+000	 5.628708166930497e-001	 1.671177779566448e+001
 1.110355008554307e+000	 5.741182413050000e-001	 1.656986769955087e+001
 1.185480083862899e+000	 4.693207546931507e-001	 1.713458956304819e+001
 1.180756753882166e+000	 4.810805422992081e-001	 1.709687663265078e+001
 1.175906920941978e+000	 4.928163078619169e-001	 1.704722361144718e+001
 1.170930581856822e+000	 5.045260870200348e-001	 1.698584111105072e+001
 1.165827772746534e+000	 5.162079080199821e-001	 1.691295348419358e+001
 1.160598569400124e+000	 5.278597926674589e-001	 1.682879881499973e+001
 1.155243087612864e+000	 5.394797572950756e-001	 1.673362888760715e+001
 1.149761483495895e+000	 5.510658137451469e-001	 1.662770913269236e+001
 1.144153953757676e+000	 5.626159703667710e-001	 1.651131855149410e+001
 1.138420735956604e+000	 5.741282330262804e-001	 1.638474961697806e+001
 1.132562108724172e+000	 5.856006061301156e-001	 1.624830815183379e+001
 1.208724791392063e+000	 4.785231224307363e-001	 1.673956068471522e+001
 1.203908847097765e+000	 4.905134941079478e-001	 1.671877558434050e+001
 1.198963919393784e+000	 5.024793727212670e-001	 1.668466766142080e+001
 1.193890005032144e+000	 5.144187553925634e-001	 1.663738913658836e+001
 1.188687140840915e+000	 5.263296317064223e-001	 1.657710683711837e+001
 1.183355404095164e+000	 5.382099846804194e-001	 1.650400226073290e+001
 1.177894912860660e+000	 5.500577917517258e-001	 1.641827161732747e+001
 1.172305826309544e+000	 5.618710257791714e-001	 1.632012584803740e+001
 1.166588345007307e+000	 5.736476560598759e-001	 1.620979062110343e+001
 1.160742711170352e+000	 5.853856493595110e-001	 1.608750630404096e+001
 1.154769208893534e+000	 5.970829709552312e-001	 1.595352791166563e+001
 1.231969498920228e+000	 4.877254901683218e-001	 1.640097654533320e+001
 1.227060940312370e+000	 4.999464459166876e-001	 1.639413556993126e+001
 1.222020917844610e+000	 5.121424375806171e-001	 1.637260113765705e+001
 1.216849428206511e+000	 5.243114237650922e-001	 1.633646845470608e+001
 1.211546508934373e+000	 5.364513553928625e-001	 1.628584821532212e+001
 1.206112238789327e+000	 5.485601766933799e-001	 1.622086673829858e+001
 1.200546738107633e+000	 5.606358262083758e-001	 1.614166608093595e+001
 1.194850169122436e+000	 5.726762378131960e-001	 1.604840412973589e+001
 1.189022736256255e+000	 5.846793417529809e-001	 1.594125466715456e+001
 1.183064686383501e+000	 5.966430656927415e-001	 1.582040741378230e+001
 1.176976309062392e+000	 6.085653357803470e-001	 1.568606804536523e+001
 1.255214206447393e+000	 4.969278579059074e-001	 1.611009286024357e+001
 1.250213033525979e+000	 5.093793977254275e-001	 1.612166561810268e+001
 1.245077916294455e+000	 5.218055024399673e-001	 1.611015380025719e+001
 1.239808851379921e+000	 5.342040921376210e-001	 1.608239606645805e+001
 1.234405877026911e+000	 5.465730790793026e-001	 1.603867947478824e+001
 1.228869073482613e+000	 5.589103687063404e-001	 1.597907647425217e+001
 1.223198563353783e+000	 5.712138606650258e-001	 1.590367629378412e+001
 1.217394511934570e+000	 5.834814498472206e-001	 1.581258510375309e+001
 1.211457127504519e+000	 5.957110274460857e-001	 1.570592615274716e+001
 1.205386661596051e+000	 6.079004820259722e-001	 1.558383987886667e+001
 1.199183409230746e+000	 6.200477006054626e-001	 1.544648399480552e+001
 1.278458913973558e+000	 5.061302256434931e-001	 1.584124914321153e+001
 1.273365126738593e+000	 5.188123495341673e-001	 1.587025020203412e+001
 1.268134914743319e+000	 5.314685672993174e-001	 1.587877050646265e+001
 1.262768274552376e+000	 5.440967605101496e-001	 1.586652006795420e+001
 1.257265245118527e+000	 5.566948027657428e-001	 1.583320903790478e+001
 1.251625908175022e+000	 5.692605607193009e-001	 1.577854757252004e+001
 1.245850388599110e+000	 5.817918951216762e-001	 1.570422766145269e+001
 1.239938854745945e+000	 5.942866618812452e-001	 1.561275895029594e+001
 1.233891518752100e+000	 6.067427131391907e-001	 1.550405742533487e+001
 1.227708636808002e+000	 6.191578983592028e-001	 1.537821551899106e+001
 1.221390509398596e+000	 6.315300654305784e-001	 1.530366588537271e+001
 1.301703621498723e+000	 5.153325933810786e-001	 1.561325409781266e+001
 1.296517219950213e+000	 5.282453013429074e-001	 1.565649598374646e+001
 1.291191913191203e+000	 5.411316321586674e-001	 1.567834571858728e+001
 1.285727697723875e+000	 5.539894288826783e-001	 1.567846685701273e+001
 1.280124613209222e+000	 5.668165264521831e-001	 1.565652270364224e+001
 1.274382742866553e+000	 5.796107527322615e-001	 1.561217619706766e+001
 1.268502213843616e+000	 5.923699295783262e-001	 1.554508980615042e+001
 1.262483197556562e+000	 6.050918739152698e-001	 1.545492543989202e+001
 1.256325909998997e+000	 6.177743988322956e-001	 1.534134437216815e+001
 1.250030612019355e+000	 6.304153146924334e-001	 1.525341406209227e+001
 1.243597609565942e+000	 6.430124302556941e-001	 1.522504727808108e+001
 1.324948329022888e+000	 5.245349611186642e-001	 1.542222808281775e+001
 1.319669313160837e+000	 5.376782531516471e-001	 1.547662213838817e+001
 1.314248911638107e+000	 5.507946970180175e-001	 1.550876599223124e+001
 1.308687120894417e+000	 5.638820972552072e-001	 1.551827908530401e+001
 1.302983981298996e+000	 5.769382501386233e-001	 1.550478017426114e+001
 1.297139577557208e+000	 5.899609447452219e-001	 1.546788723111338e+001
 1.291154039087298e+000	 6.029479640349764e-001	 1.540721735662183e+001
 1.285027540366421e+000	 6.158970859492943e-001	 1.532238670878142e+001
 1.278760301245211e+000	 6.288060845254007e-001	 1.524261732910679e+001
 1.272352587230109e+000	 6.416727310256640e-001	 1.521515239884407e+001
 1.265804709732784e+000	 6.544947950808098e-001	 1.517266426504328e+001
 1.348193036546053e+000	 5.337373288562498e-001	 1.526439662683312e+001
 1.342821406370466e+000	 5.471112049603871e-001	 1.532694299374080e+001
 1.337305910084030e+000	 5.604577618773678e-001	 1.536643437997251e+001
 1.331646544064004e+000	 5.737747656277359e-001	 1.538244842669932e+001
 1.325843349387847e+000	 5.870599738250635e-001	 1.537456161153544e+001
 1.319896412246986e+000	 6.003111367581824e-001	 1.534234916029162e+001
 1.313805864330157e+000	 6.135259984916264e-001	 1.528538497397100e+001
 1.307571883175522e+000	 6.267022979833189e-001	 1.521434141471229e+001
 1.301194692490741e+000	 6.398377702185055e-001	 1.519803042828115e+001
 1.294674562440264e+000	 6.529301473588947e-001	 1.516584509734185e+001
 1.288011809899122e+000	 6.659771599059257e-001	 1.511761192422005e+001
 1.371437744068218e+000	 5.429396965938355e-001	 1.513608151560253e+001
 1.365973499579100e+000	 5.565441567691268e-001	 1.520385996643608e+001
 1.360362908528973e+000	 5.701208267367179e-001	 1.524783194280975e+001
 1.354605967232635e+000	 5.836674340002646e-001	 1.526753557556190e+001
 1.348702717475778e+000	 5.971816975115036e-001	 1.526250730693243e+001
 1.342653246935887e+000	 6.106613287711430e-001	 1.523228181087201e+001
 1.336457689572195e+000	 6.241040329482767e-001	 1.517639193013971e+001
 1.330116225983865e+000	 6.375075100173437e-001	 1.516596979544567e+001
 1.323629083735587e+000	 6.508694559116105e-001	 1.514374777210207e+001
 1.316996537649820e+000	 6.641875636921253e-001	 1.510471288403662e+001
 1.310218910064956e+000	 6.774595247310413e-001	 1.504864966676512e+001
 1.394682451589383e+000	 5.521420643314209e-001	 1.503369277057933e+001
 1.389125592786738e+000	 5.659771085778665e-001	 1.510385430455215e+001
 1.383419906972935e+000	 5.797838915960679e-001	 1.514951124946067e+001
 1.377565390400310e+000	 5.935601023727932e-001	 1.517016449503941e+001
 1.371562085562787e+000	 6.073034211979437e-001	 1.516531267080510e+001
 1.365410081623910e+000	 6.210115207841032e-001	 1.513445207137310e+001
 1.359109514813409e+000	 6.346820674049267e-001	 1.512186721672735e+001
 1.352660568791450e+000	 6.483127220513680e-001	 1.510911118147352e+001
 1.346063474979750e+000	 6.619011416047153e-001	 1.507890666855283e+001
 1.339318512858777e+000	 6.754449800253558e-001	 1.503099233740691e+001
 1.332426010230286e+000	 6.889418895561570e-001	 1.496511202439234e+001
 1.110355008554307e+000	 5.741182413050000e-001	 1.656986769955087e+001
 1.104488619568381e+000	 5.853246016274840e-001	 1.639472739214791e+001
 1.098499948025727e+000	 5.964879413854604e-001	 1.620179513816336e+001
 1.092389388913029e+000	 6.076063059449270e-001	 1.599111146872429e+001
 1.086157378059845e+000	 6.186777433540813e-001	 1.576273548264228e+001
 1.079804392204921e+000	 6.297003053920891e-001	 1.559076609642303e+001
 1.073330949030676e+000	 6.406720486238723e-001	 1.550403785586262e+001
 1.066737607165498e+000	 6.515910354597978e-001	 1.540454388817958e+001
 1.060024966153559e+000	 6.624553352191411e-001	 1.529221160995208e+001
 1.053193666391865e+000	 6.732630251961720e-001	 1.516697262244778e+001
 1.046244389034349e+000	 6.840121917276982e-001	 1.502876291144995e+001
 1.132562108724172e+000	 5.856006061301156e-001	 1.624830815183379e+001
 1.126578391957822e+000	 5.970310936587155e-001	 1.605980223121816e+001
 1.120469946983697e+000	 6.084177002116507e-001	 1.585403537440504e+001
 1.114237176688216e+000	 6.197584320622394e-001	 1.563108643794645e+001
 1.107880525617529e+000	 6.310512982196435e-001	 1.548106144461231e+001
 1.101400480045157e+000	 6.422943114986126e-001	 1.539615330584107e+001
 1.094797568007167e+000	 6.534854895953679e-001	 1.529983651731224e+001
 1.088072359304516e+000	 6.646228561684842e-001	 1.519206274716197e+001
 1.081225465472260e+000	 6.757044419236228e-001	 1.507278635377142e+001
 1.074257539715344e+000	 6.867282857009389e-001	 1.494196454751013e+001
 1.067169276810782e+000	 6.976924355639771e-001	 1.479955755934164e+001
 1.154769208893534e+000	 5.970829709552312e-001	 1.595352791166563e+001
 1.148668164346859e+000	 6.087375856899423e-001	 1.575365098473587e+001
 1.142439945941363e+000	 6.203474590378212e-001	 1.553698602336776e+001
 1.136084964463200e+000	 6.319105581795071e-001	 1.539977687022910e+001
 1.129603673175110e+000	 6.434248530851265e-001	 1.531573814340242e+001
 1.122996567885389e+000	 6.548883176050128e-001	 1.522157176119171e+001
 1.116264186983754e+000	 6.662989305666855e-001	 1.511725511473797e+001
 1.109407111443731e+000	 6.776546768769278e-001	 1.500276685458401e+001
 1.102425964791257e+000	 6.889535486277865e-001	 1.487808701150835e+001
 1.095321413039221e+000	 7.001935462053034e-001	 1.474319712639633e+001
 1.088094164587713e+000	 7.113726793997586e-001	 1.459808038896504e+001
 1.176976309062392e+000	 6.085653357803470e-001	 1.568606804536523e+001
 1.170757936735493e+000	 6.204440777211642e-001	 1.547671154300702e+001
 1.164409944898726e+000	 6.322772178639721e-001	 1.534452943122573e+001
 1.157932752237980e+000	 6.440626842967306e-001	 1.526045376705099e+001
 1.151326820732586e+000	 6.557984079505305e-001	 1.516745812170124e+001
 1.144592655725618e+000	 6.674823237112890e-001	 1.506554705513620e+001
 1.137730805960439e+000	 6.791123715378249e-001	 1.495472501966333e+001
 1.130741863583143e+000	 6.906864975851285e-001	 1.483499643709098e+001
 1.123626464110552e+000	 7.022026553316328e-001	 1.470636578696174e+001
 1.116385286363495e+000	 7.136588067092652e-001	 1.456883770579558e+001
 1.109019052365140e+000	 7.250529232350426e-001	 1.442241709722873e+001
 1.199183409230746e+000	 6.200477006054626e-001	 1.544648399480552e+001
 1.192847709123722e+000	 6.321505697523810e-001	 1.531314797286487e+001
 1.186379943855785e+000	 6.442069766901034e-001	 1.522816737421931e+001
 1.179780540012556e+000	 6.562148104139098e-001	 1.513540361052634e+001
 1.173049968289960e+000	 6.681719628158557e-001	 1.503488983357885e+001
 1.166188743565844e+000	 6.800763298174419e-001	 1.492665778469771e+001
 1.159197424937220e+000	 6.919258125087859e-001	 1.481073782549218e+001
 1.152076615722752e+000	 7.037183182930862e-001	 1.468715898160522e+001
 1.144826963430145e+000	 7.154517620351616e-001	 1.455594899949310e+001
 1.137449159688166e+000	 7.271240672128245e-001	 1.441713441624053e+001
 1.129943940143065e+000	 7.387331670698292e-001	 1.427074064236230e+001
 1.221390509398596e+000	 6.315300654305784e-001	 1.530366588537271e+001
 1.214937481511548e+000	 6.438570617835928e-001	 1.521694527439083e+001
 1.208349942812540e+000	 6.561367355162149e-001	 1.512350963359128e+001
 1.201628327786929e+000	 6.683669365310445e-001	 1.502342210902538e+001
 1.194773115847230e+000	 6.805455176811016e-001	 1.491674319837737e+001
 1.187784831406066e+000	 6.926703359234709e-001	 1.480353073268292e+001
 1.180664043914098e+000	 7.047392534795689e-001	 1.468383987279239e+001
 1.173411367862558e+000	 7.167501390008013e-001	 1.455772312075515e+001
 1.166027462750034e+000	 7.287008687383725e-001	 1.442523034624844e+001
 1.158513033013234e+000	 7.405893277159817e-001	 1.428640882812113e+001
 1.150868827921487e+000	 7.524134109041186e-001	 1.414130331106867e+001
 1.243597609565942e+000	 6.430124302556941e-001	 1.522504727808108e+001
 1.237027253898969e+000	 6.555635538147999e-001	 1.513006591998712e+001
 1.230319941768991e+000	 6.680664943423066e-001	 1.502946541684318e+001
 1.223476115561098e+000	 6.805190626481350e-001	 1.492333647199196e+001
 1.216496263404397e+000	 6.929190725462686e-001	 1.481176589845460e+001
 1.209380919246285e+000	 7.052643420293766e-001	 1.469483656537997e+001
 1.202130662891074e+000	 7.175526944501734e-001	 1.457262736115606e+001
 1.194746120002561e+000	 7.297819597082732e-001	 1.444521317343733e+001
 1.187227962070220e+000	 7.419499754412662e-001	 1.431266488628434e+001
 1.179576906338700e+000	 7.540545882187365e-001	 1.417504939455468e+001
 1.171793715700407e+000	 7.660936547379107e-001	 1.403242963562465e+001
 1.265804709732784e+000	 6.544947950808098e-001	 1.517266426504328e+001
 1.259117026285987e+000	 6.672700458460021e-001	 1.506615762623186e+001
 1.252289940725138e+000	 6.799962531683786e-001	 1.494953533421176e+001
 1.245323903335064e+000	 6.926711887651810e-001	 1.483400264669149e+001
 1.238219410961460e+000	 7.052926274113568e-001	 1.471874006663870e+001
 1.230977007086501e+000	 7.178583481351587e-001	 1.459928598313007e+001
 1.223597281868146e+000	 7.303661354205999e-001	 1.447574197560084e+001
 1.216080872142761e+000	 7.428137804155025e-001	 1.434820426005590e+001
 1.208428461390704e+000	 7.551990821438422e-001	 1.421676365794423e+001
 1.200640779664564e+000	 7.675198487210888e-001	 1.408150558447971e+001
 1.192718603479824e+000	 7.797738985712054e-001	 1.394251005654991e+001
 1.288011809899122e+000	 6.659771599059257e-001	 1.511761192422005e+001
 1.281206798672601e+000	 6.789765378771995e-001	 1.501691853027217e+001
 1.274259939680982e+000	 6.919260119944312e-001	 1.490695646714500e+001
 1.267171691108826e+000	 7.048233148821825e-001	 1.478783846892555e+001
 1.259942558518420e+000	 7.176661822763658e-001	 1.465967851310631e+001
 1.252573094926714e+000	 7.304523542408169e-001	 1.452259162076533e+001
 1.245063900845315e+000	 7.431795763908483e-001	 1.439186696541260e+001
 1.237415624283158e+000	 7.558456011224888e-001	 1.426531792308233e+001
 1.229628960711485e+000	 7.684481888461004e-001	 1.413608885305773e+001
 1.221704652990824e+000	 7.809851092230388e-001	 1.400428262267133e+001
 1.213643491259739e+000	 7.934541424040027e-001	 1.386999524086153e+001
 1.310218910064956e+000	 6.774595247310413e-001	 1.504864966676512e+001
 1.303296571058811e+000	 6.906830299083917e-001	 1.495510993148707e+001
 1.296229938636522e+000	 7.038557708204640e-001	 1.485313544630338e+001
 1.289019478882384e+000	 7.169754409991397e-001	 1.474286685343452e+001
 1.281665706075276e+000	 7.300397371412960e-001	 1.462444523746840e+001
 1.274169182766923e+000	 7.430463603463516e-001	 1.449801188413601e+001
 1.266530519822581e+000	 7.559930173609184e-001	 1.436370804187200e+001
 1.258750376423753e+000	 7.688774218292324e-001	 1.422167468678978e+001
 1.250829460032563e+000	 7.816972955480412e-001	 1.407205229169466e+001
 1.242768526317482e+000	 7.944503697245862e-001	 1.394193676467024e+001
 1.234568379040151e+000	 8.071343862363026e-001	 1.381339097813388e+001
 1.332426010230286e+000	 6.889418895561570e-001	 1.496511202439234e+001
 1.325386343444616e+000	 7.023895219395790e-001	 1.487999394902192e+001
 1.318199937591758e+000	 7.157855296464768e-001	 1.478726355048182e+001
 1.310867266655738e+000	 7.291275671160524e-001	 1.468708884174740e+001
 1.303388853632028e+000	 7.424132920061468e-001	 1.457963747311693e+001
 1.295765270607128e+000	 7.556403664517626e-001	 1.446507644985044e+001
 1.287997138799943e+000	 7.688064583308102e-001	 1.434357185350447e+001
 1.280085128564544e+000	 7.819092425357328e-001	 1.421528856767969e+001
 1.272029959353938e+000	 7.949464022496643e-001	 1.408039000889252e+001
 1.263832399644536e+000	 8.079156302257311e-001	 1.393903786326874e+001
 1.255493266821059e+000	 8.208146300681053e-001	 1.379139182974481e+001
 1.046244389034349e+000	 6.840121917276982e-001	 1.502876291144995e+001
 1.039177855863086e+000	 6.947009312609056e-001	 1.482421064436619e+001
 1.031994829125725e+000	 7.053273514202587e-001	 1.461888177498468e+001
 1.024696111339581e+000	 7.158895720722920e-001	 1.441303646743678e+001
 1.017282545062913e+000	 7.263857263871184e-001	 1.420693007182145e+001
 1.009755012632604e+000	 7.368139618953941e-001	 1.400081296386485e+001
 1.002114435868594e+000	 7.471724415395481e-001	 1.379493039814722e+001
 9.943617757451817e-001	 7.574593447180577e-001	 1.358952237506403e+001
 9.864980320293814e-001	 7.676728683215579e-001	 1.338482352164581e+001
 9.785242428865573e-001	 7.778112277595842e-001	 1.318106298631415e+001
 9.704414844536136e-001	 7.878726579767392e-001	 1.297846434760715e+001
 1.067169276810782e+000	 6.976924355639771e-001	 1.479955755934164e+001
 1.059961412976264e+000	 7.085949498887223e-001	 1.460846650171888e+001
 1.052634725704365e+000	 7.194338984519827e-001	 1.441649738890013e+001
 1.045190033562748e+000	 7.302073635176232e-001	 1.422391258026093e+001
 1.037628195960835e+000	 7.409134409191583e-001	 1.403096940287165e+001
 1.029950112882250e+000	 7.515502411378571e-001	 1.383791999445410e+001
 1.022156724583329e+000	 7.621158903749966e-001	 1.364501116067513e+001
 1.014249011257858e+000	 7.726085316170229e-001	 1.345248424693284e+001
 1.006227992668192e+000	 7.830263256923840e-001	 1.326057502474589e+001
 9.980947277430011e-001	 7.933674523188058e-001	 1.306951359280684e+001
 9.898503141419284e-001	 8.036301111397820e-001	 1.287952429271375e+001
 1.088094164587713e+000	 7.113726793997586e-001	 1.459808038896504e+001
 1.080744970090029e+000	 7.224889685159561e-001	 1.442087246365577e+001
 1.073274622283663e+000	 7.335404454830685e-001	 1.424271362779401e+001
 1.065683955786622e+000	 7.445251549622907e-001	 1.406386777274944e+001
 1.057973846859497e+000	 7.554411554505388e-001	 1.388459350242679e+001
 1.050145213132646e+000	 7.662865203796949e-001	 1.370514398033288e+001
 1.042199013298805e+000	 7.770593392098841e-001	 1.352576679182009e+001
 1.034136246771246e+000	 7.877577185155216e-001	 1.334670382165041e+001
 1.025957953307663e+000	 7.983797830628682e-001	 1.316819114697385e+001
 1.017665212600036e+000	 8.089236768778395e-001	 1.299045894576468e+001
 1.009259143830745e+000	 8.193875643028223e-001	 1.281373142070864e+001
 1.109019052365140e+000	 7.250529232350426e-001	 1.442241709722873e+001
 1.101528527204382e+000	 7.363829871426078e-001	 1.425949452785805e+001
 1.093914518863618e+000	 7.476469925135163e-001	 1.409557676843402e+001
 1.086177878011206e+000	 7.588429464062945e-001	 1.393092857793568e+001
 1.078319497758898e+000	 7.699688699812599e-001	 1.376580913552431e+001
 1.070340313383791e+000	 7.810227996209072e-001	 1.360047189254146e+001
 1.062241302015021e+000	 7.920027880442104e-001	 1.343516444059401e+001
 1.054023482285344e+000	 8.029069054135536e-001	 1.327012839585718e+001
 1.045687913947796e+000	 8.137332404330099e-001	 1.310559929967182e+001
 1.037235697457663e+000	 8.244799014366857e-001	 1.294180653546001e+001
 1.028667973520062e+000	 8.351450174658596e-001	 1.277897326192777e+001
 1.129943940143065e+000	 7.387331670698292e-001	 1.427074064236230e+001
 1.122312084319322e+000	 7.502770057686764e-001	 1.412248788787714e+001
 1.114554415444232e+000	 7.617535395433264e-001	 1.397322426478393e+001
 1.106671800236498e+000	 7.731607378496349e-001	 1.382321473334629e+001
 1.098665148659037e+000	 7.844965845113217e-001	 1.367271834412582e+001
 1.090535413635685e+000	 7.957590788614946e-001	 1.352198809573871e+001
 1.082283590731976e+000	 8.069462368779760e-001	 1.337127080968322e+001
 1.073910717800152e+000	 8.180560923111190e-001	 1.322080702235233e+001
 1.065417874588589e+000	 8.290866978028094e-001	 1.307083089429041e+001
 1.056806182315880e+000	 8.400361259953445e-001	 1.292157013669498e+001
 1.048076803209881e+000	 8.509024706288946e-001	 1.277324595510784e+001
 1.150868827921487e+000	 7.524134109041186e-001	 1.414130331106867e+001
 1.143095641434849e+000	 7.641710243941629e-001	 1.400808882441930e+001
 1.135194312025504e+000	 7.758600865724983e-001	 1.387387645916744e+001
 1.127165722462498e+000	 7.874785292923112e-001	 1.373893070786543e+001
 1.119010799559916e+000	 7.990242990407239e-001	 1.360350978557839e+001
 1.110730513888330e+000	 8.104953581014568e-001	 1.346786549423661e+001
 1.102325879449672e+000	 8.218896857111800e-001	 1.333224310511443e+001
 1.093797953315672e+000	 8.332052792082176e-001	 1.319688125953428e+001
 1.085147835230044e+000	 8.444401551722669e-001	 1.306201188783342e+001
 1.076376667174689e+000	 8.555923505538158e-001	 1.292786014657149e+001
 1.067485632900202e+000	 8.666599237919267e-001	 1.279464437389553e+001
 1.171793715700407e+000	 7.660936547379107e-001	 1.403242963562465e+001
 1.163879198550964e+000	 7.780650430190667e-001	 1.391460746542090e+001
 1.155834208607433e+000	 7.899666336010324e-001	 1.379582918152182e+001
 1.147659644689206e+000	 8.017963207343239e-001	 1.367635813643478e+001
 1.139356450461533e+000	 8.135520135694664e-001	 1.355645099909814e+001
 1.130925614141723e+000	 8.252316373407934e-001	 1.343635762667421e+001
 1.122368168168108e+000	 8.368331345438235e-001	 1.331632095559954e+001
 1.113685188831901e+000	 8.483544661048493e-001	 1.319657691197196e+001
 1.104877795872159e+000	 8.597936125413822e-001	 1.307735434129061e+001
 1.095947152034089e+000	 8.711485751120996e-001	 1.295887495750061e+001
 1.086894462591023e+000	 8.824173769549563e-001	 1.284135331123084e+001
 1.192718603479824e+000	 7.797738985712054e-001	 1.394251005654991e+001
 1.184662755667667e+000	 7.919590616433879e-001	 1.384042130822121e+001
 1.176474105190020e+000	 8.040731806289283e-001	 1.373744712767730e+001
 1.168153566916623e+000	 8.161141121756732e-001	 1.363384905110144e+001
 1.159702101363889e+000	 8.280797280975500e-001	 1.352988148630796e+001
 1.151120714395866e+000	 8.399679165795049e-001	 1.342579159283097e+001
 1.142410456887284e+000	 8.517765833759058e-001	 1.332181918247536e+001
 1.133572424348841e+000	 8.635036530010146e-001	 1.321819664039020e+001
 1.124607756514936e+000	 8.751470699101549e-001	 1.311514886665676e+001
 1.115517636894080e+000	 8.867047996701954e-001	 1.301289323831571e+001
 1.106303292282346e+000	 8.981748301179827e-001	 1.291163959168996e+001
 1.213643491259739e+000	 7.934541424040027e-001	 1.386999524086153e+001
 1.205446312784956e+000	 8.058530802671269e-001	 1.378396941185511e+001
 1.197114001773264e+000	 8.181797276561860e-001	 1.369715792264211e+001
 1.188647489144748e+000	 8.304319036163590e-001	 1.360981981230155e+001
 1.180047752266984e+000	 8.426074426249738e-001	 1.352220650758173e+001
 1.171315814650759e+000	 8.547041958175911e-001	 1.343456171214925e+001
 1.162452745607200e+000	 8.667200322074270e-001	 1.334712131758102e+001
 1.153459659866493e+000	 8.786528398967133e-001	 1.326011333613885e+001
 1.144337717158373e+000	 8.905005272785856e-001	 1.317375785529330e+001
 1.135088121754663e+000	 9.022610242281041e-001	 1.308826701389147e+001
 1.125712121974170e+000	 9.139322832810067e-001	 1.300384499979245e+001
 1.234568379040151e+000	 8.071343862363026e-001	 1.381339097813388e+001
 1.226229869902834e+000	 8.197470988902831e-001	 1.374374717996018e+001
 1.217753898357167e+000	 8.322862746828061e-001	 1.367344678762127e+001
 1.209141411373581e+000	 8.447496950563807e-001	 1.360274565730205e+001
 1.200393403170818e+000	 8.571351571517382e-001	 1.353189150926884e+001
 1.191510914906401e+000	 8.694404750550522e-001	 1.346112382715266e+001
 1.182495034327856e+000	 8.816634810383872e-001	 1.339067378033392e+001
 1.173346895384854e+000	 8.938020267919451e-001	 1.332076416944515e+001
 1.164067677802471e+000	 9.058539846466741e-001	 1.325160939493115e+001
 1.154658606615837e+000	 9.178172487858251e-001	 1.318341544853019e+001
 1.145120951666496e+000	 9.296897364440285e-001	 1.311637992746411e+001
 1.255493266821059e+000	 8.208146300681053e-001	 1.379139182974481e+001
 1.247013427021299e+000	 8.336411175128567e-001	 1.371830166539319e+001
 1.238393794941728e+000	 8.463928217087881e-001	 1.366485174033347e+001
 1.229635333603122e+000	 8.590674864957387e-001	 1.361115579379813e+001
 1.220739054075391e+000	 8.716628716778431e-001	 1.355745710819624e+001
 1.211706015162792e+000	 8.841767542918880e-001	 1.350399017652263e+001
 1.202537323049252e+000	 8.966069298687865e-001	 1.345098063709833e+001
 1.193234130903926e+000	 9.089512136867101e-001	 1.339864523284057e+001
 1.183797638447231e+000	 9.212074420144203e-001	 1.334719179497344e+001
 1.174229091477602e+000	 9.333734733433585e-001	 1.329681925100971e+001
 1.164529781359323e+000	 9.454471896070471e-001	 1.324771765675282e+001
 9.704414844536136e-001	 7.878726579767392e-001	 1.297846434760715e+001
 9.622508703799659e-001	 7.978554144576137e-001	 1.278384972330697e+001
 9.539535513369586e-001	 8.077577742177589e-001	 1.258642599305945e+001
 9.455507144959995e-001	 8.175780367805177e-001	 1.238636796661259e+001
 9.370435829756511e-001	 8.273145251396229e-001	 1.218384890863263e+001
 9.284334152585064e-001	 8.369655867049054e-001	 1.197904055722937e+001
 9.197215045783189e-001	 8.465295942305035e-001	 1.177211315006567e+001
 9.109091782780104e-001	 8.560049467244861e-001	 1.156323545770245e+001
 9.019977971392149e-001	 8.653900703388237e-001	 1.135257482380303e+001
 8.929887546840698e-001	 8.746834192386785e-001	 1.114029721179471e+001
 8.838834764499999e-001	 8.838834764499999e-001	 1.092656725756032e+001
 9.898503141419284e-001	 8.036301111397820e-001	 1.287952429271375e+001
 9.814958877873232e-001	 8.138125227497113e-001	 1.269494721537118e+001
 9.730326223639016e-001	 8.239129297045710e-001	 1.250795458985350e+001
 9.644617287864989e-001	 8.339295975181713e-001	 1.231869270609928e+001
 9.557844546360499e-001	 8.438608156441201e-001	 1.212730568612205e+001
 9.470020835647984e-001	 8.537048984404442e-001	 1.193393554297755e+001
 9.381159346711734e-001	 8.634601861163659e-001	 1.173872224852284e+001
 9.291273618449545e-001	 8.731250456601145e-001	 1.154180380953398e+001
 9.200377530834086e-001	 8.826978717467010e-001	 1.134331635171610e+001
 9.108485297791161e-001	 8.921770876245897e-001	 1.114339421111183e+001
 9.015611459802497e-001	 9.015611459802499e-001	 1.094217003238667e+001
 1.009259143830745e+000	 8.193875643028223e-001	 1.281373142070864e+001
 1.000740905195092e+000	 8.297696310419911e-001	 1.263814893893297e+001
 9.921116933911854e-001	 8.400680851917207e-001	 1.246054507050511e+001
 9.833727430772894e-001	 8.502811582562881e-001	 1.228103740685932e+001
 9.745253262967094e-001	 8.604071061491758e-001	 1.209974073669751e+001
 9.655707518713410e-001	 8.704442101766073e-001	 1.191676714612821e+001
 9.565103647642882e-001	 8.803907780028876e-001	 1.173222612883641e+001
 9.473455454121886e-001	 8.902451445964076e-001	 1.154622470576248e+001
 9.380777090279425e-001	 9.000056731552177e-001	 1.135886755373406e+001
 9.287083048745723e-001	 9.096707560110861e-001	 1.117025714246132e+001
 9.192388155110001e-001	 9.192388155110001e-001	 1.098049387927797e+001
 1.028667973520062e+000	 8.351450174658596e-001	 1.277897326192777e+001
 1.019985922603272e+000	 8.457267393344534e-001	 1.261141959756999e+001
 1.011190764418811e+000	 8.562232406792083e-001	 1.244224038758626e+001
 1.002283757368371e+000	 8.666327189948682e-001	 1.227152429666402e+001
 9.932661979576295e-001	 8.769533966547898e-001	 1.209935653900652e+001
 9.841394201781339e-001	 8.871835219133940e-001	 1.192581902042746e+001
 9.749047948576629e-001	 8.973213698900684e-001	 1.175099049174812e+001
 9.655637289797132e-001	 9.073652435333653e-001	 1.157494671288431e+001
 9.561176649728165e-001	 9.173134745643744e-001	 1.139776062697379e+001
 9.465680799704386e-001	 9.271644243981670e-001	 1.121950254385910e+001
 9.369164850422498e-001	 9.369164850422498e-001	 1.104024033220695e+001
 1.048076803209881e+000	 8.509024706288946e-001	 1.277324595510784e+001
 1.039230940011862e+000	 8.616838476270980e-001	 1.261282766735615e+001
 1.030269835446777e+000	 8.723783961670337e-001	 1.245118238450754e+001
 1.021194771659744e+000	 8.829842797339110e-001	 1.228836956899993e+001
 1.012007069618811e+000	 8.934996871609622e-001	 1.212444457114209e+001
 1.002708088485177e+000	 9.039228336508047e-001	 1.195945881400071e+001
 9.932992249512983e-001	 9.142519617779087e-001	 1.179345999089507e+001
 9.837819125475277e-001	 9.244853424709879e-001	 1.162649227479365e+001
 9.741576209180304e-001	 9.346212759741709e-001	 1.145859653886880e+001
 9.644278550667147e-001	 9.446580927858330e-001	 1.128981058742395e+001
 9.545941545740001e-001	 9.545941545740000e-001	 1.112016939637375e+001
 1.067485632900202e+000	 8.666599237919267e-001	 1.279464437389553e+001
 1.058475957420865e+000	 8.776409559199254e-001	 1.264053596299862e+001
 1.049348906475084e+000	 8.885335516551965e-001	 1.248560280544244e+001
 1.040105785951407e+000	 8.993358404734170e-001	 1.232987484073154e+001
 1.030747941280253e+000	 9.100459776676935e-001	 1.217337721978430e+001
 1.021276756792472e+000	 9.206621453888396e-001	 1.201613053350014e+001
 1.011693655045194e+000	 9.311825536664083e-001	 1.185815105527338e+001
 1.002000096115632e+000	 9.416054414092747e-001	 1.169945099665549e+001
 9.921975768635845e-001	 9.519290773846075e-001	 1.154003877532209e+001
 9.822876301634012e-001	 9.621517611740841e-001	 1.137991929445849e+001
 9.722718241062499e-001	 9.722718241062499e-001	 1.121909423263949e+001
 1.086894462591023e+000	 8.824173769549563e-001	 1.284135331123084e+001
 1.077720974830279e+000	 8.935980642129352e-001	 1.269279321474540e+001
 1.068427977503733e+000	 9.046887071436970e-001	 1.254381526847325e+001
 1.059016800243361e+000	 9.156874012133863e-001	 1.239441952501371e+001
 1.049488812941954e+000	 9.265922681749831e-001	 1.224460055621931e+001
 1.039845425100016e+000	 9.374014571274981e-001	 1.209434772637899e+001
 1.030088085139350e+000	 9.481131455555671e-001	 1.194364548072423e+001
 1.020218279684027e+000	 9.587255403482263e-001	 1.179247364836346e+001
 1.010237532809479e+000	 9.692368787956833e-001	 1.164080775870001e+001
 1.000147405260498e+000	 9.796454295629201e-001	 1.148861937034391e+001
 9.899494936390003e-001	 9.899494936390003e-001	 1.133587641148515e+001
 1.106303292282346e+000	 8.981748301179827e-001	 1.291163959168996e+001
 1.096965992240104e+000	 9.095551725061274e-001	 1.276792653193480e+001
 1.087507048532723e+000	 9.208438626325356e-001	 1.262420808366956e+001
 1.077927814535607e+000	 9.320389619538184e-001	 1.248045400705595e+001
 1.068229684603918e+000	 9.431385586828309e-001	 1.233662787277741e+001
 1.058414093407811e+000	 9.541407688667807e-001	 1.219268738082151e+001
 1.048482515233766e+000	 9.650437374453850e-001	 1.204858469600010e+001
 1.038436463252712e+000	 9.758456392878423e-001	 1.190426679921269e+001
 1.028277488755713e+000	 9.865446802073995e-001	 1.175967585340547e+001
 1.018007180358004e+000	 9.971390979523412e-001	 1.161474958312919e+001
 1.007627163172250e+000	 1.007627163172250e+000	 1.146942166655369e+001
 1.125712121974170e+000	 9.139322832810067e-001	 1.300384499979245e+001
 1.116211009650340e+000	 9.255122807995019e-001	 1.286433464617729e+001
 1.106586119562053e+000	 9.369990181217117e-001	 1.272523781412386e+001
 1.096838828828143e+000	 9.483905226947139e-001	 1.258649352584188e+001
 1.086970556266142e+000	 9.596848491912375e-001	 1.244803388791540e+001
 1.076982761715857e+000	 9.708800806066870e-001	 1.230978445671424e+001
 1.066876945328443e+000	 9.819743293358622e-001	 1.217166462199646e+001
 1.056654646821688e+000	 9.929657382281232e-001	 1.203358800760679e+001
 1.046317444702287e+000	 1.003852481619755e+000	 1.189546288811629e+001
 1.035866955455920e+000	 1.014632766342347e+000	 1.175719262019775e+001
 1.025304832706000e+000	 1.025304832706000e+000	 1.161867608748066e+001
 1.145120951666496e+000	 9.296897364440285e-001	 1.311637992746411e+001
 1.135456027060987e+000	 9.414693890930587e-001	 1.298048184167148e+001
 1.125665190591725e+000	 9.531541736112255e-001	 1.284542349179710e+001
 1.115749843120970e+000	 9.647420834360720e-001	 1.271111267804659e+001
 1.105711427928626e+000	 9.762311397002028e-001	 1.257744954061291e+001
 1.095551430024153e+000	 9.876193923472172e-001	 1.244432697279003e+001
 1.085271375423379e+000	 9.989049212269988e-001	 1.231163105377355e+001
 1.074872830390953e+000	 1.010085837169068e+000	 1.217924149994663e+001
 1.064357400649202e+000	 1.021160283032751e+000	 1.204703213338895e+001
 1.053726730554247e+000	 1.032126434732938e+000	 1.191487136628998e+001
 1.042982502240250e+000	 1.042982502240250e+000	 1.178262269989513e+001
 1.164529781359323e+000	 9.454471896070471e-001	 1.324771765675282e+001
 1.154701044472046e+000	 9.574264973867980e-001	 1.311489249248876e+001
 1.144744261621738e+000	 9.693093291010768e-001	 1.298334141177975e+001
 1.134660857414088e+000	 9.810936441778935e-001	 1.285294047156266e+001
 1.124452299591371e+000	 9.927774302097262e-001	 1.272355730532863e+001
 1.114120098332700e+000	 1.004358704088371e+000	 1.259505158505751e+001
 1.103665805518577e+000	 1.015835513118795e+000	 1.246727550437610e+001
 1.093091013960508e+000	 1.027205936110678e+000	 1.234007428163086e+001
 1.082397356596456e+000	 1.038468084446387e+000	 1.221328668150186e+001
 1.071586505652983e+000	 1.049620103124114e+000	 1.208674555372333e+001
 1.060660171775000e+000	 1.060660171775000e+000	 1.196027838741976e+001
 8.838834764499999e-001	 8.838834764499999e-001	 1.092656725756032e+001
 8.746834192386785e-001	 8.929887546840698e-001	 1.070449909355564e+001
 8.653900703388238e-001	 9.019977971392147e-001	 1.048613520359998e+001
 8.560049467244860e-001	 9.109091782780104e-001	 1.027172598929169e+001
 8.465295942305037e-001	 9.197215045783191e-001	 1.006151616204822e+001
 8.369655867049053e-001	 9.284334152585063e-001	 9.855744731844395e+000
 8.273145251396229e-001	 9.370435829756509e-001	 9.654645005386453e+000
 8.175780367805178e-001	 9.455507144959995e-001	 9.458444593311224e+000
 8.077577742177586e-001	 9.539535513369589e-001	 9.267365425979419e+000
 7.978554144576137e-001	 9.622508703799658e-001	 9.081623777413302e+000
 7.878726579767392e-001	 9.704414844536136e-001	 8.901430296913707e+000
 9.015611459802497e-001	 9.015611459802499e-001	 1.094217003238667e+001
 8.921770876245896e-001	 9.108485297791160e-001	 1.073722617391595e+001
 8.826978717467009e-001	 9.200377530834085e-001	 1.053493292347425e+001
 8.731250456601145e-001	 9.291273618449544e-001	 1.033548383309992e+001
 8.634601861163659e-001	 9.381159346711734e-001	 1.013906766490529e+001
 8.537048984404443e-001	 9.470020835647984e-001	 9.945868451635350e+000
 8.438608156441201e-001	 9.557844546360498e-001	 9.756065565417709e+000
 8.339295975181715e-001	 9.644617287864988e-001	 9.569833794152629e+000
 8.239129297045709e-001	 9.730326223639019e-001	 9.387343424974880e+000
 8.138125227497111e-001	 9.814958877873232e-001	 9.208760334203801e+000
 8.036301111397820e-001	 9.898503141419285e-001	 9.034246083186583e+000
 9.192388155110001e-001	 9.192388155110001e-001	 1.098049387927797e+001
 9.096707560110861e-001	 9.287083048745725e-001	 1.079006965792450e+001
 9.000056731552177e-001	 9.380777090279423e-001	 1.060128434551829e+001
 8.902451445964077e-001	 9.473455454121889e-001	 1.041427510252181e+001
 8.803907780028876e-001	 9.565103647642882e-001	 1.022917516732225e+001
 8.704442101766073e-001	 9.655707518713408e-001	 1.004611398895160e+001
 8.604071061491757e-001	 9.745253262967094e-001	 9.865217366796552e+000
 8.502811582562883e-001	 9.833727430772894e-001	 9.686607596605031e+000
 8.400680851917207e-001	 9.921116933911856e-001	 9.510403622081729e+000
 8.297696310419912e-001	 1.000740905195092e+000	 9.336721191353572e+000
 8.193875643028225e-001	 1.009259143830745e+000	 9.165673017577648e+000
 9.369164850422498e-001	 9.369164850422498e-001	 1.104024033220695e+001
 9.271644243981670e-001	 9.465680799704386e-001	 1.086190488826118e+001
 9.173134745643742e-001	 9.561176649728163e-001	 1.068423669644068e+001
 9.073652435333653e-001	 9.655637289797131e-001	 1.050731688610257e+001
 8.973213698900684e-001	 9.749047948576629e-001	 1.033122350122839e+001
 8.871835219133941e-001	 9.841394201781341e-001	 1.015603170574539e+001
 8.769533966547899e-001	 9.932661979576296e-001	 9.981813994677161e+000
 8.666327189948683e-001	 1.002283757368371e+000	 9.808640410287719e+000
 8.562232406792082e-001	 1.011190764418811e+000	 9.636578762368748e+000
 8.457267393344534e-001	 1.019985922603272e+000	 9.465694851814735e+000
 8.351450174658597e-001	 1.028667973520062e+000	 9.296052696622787e+000
 9.545941545740001e-001	 9.545941545740000e-001	 1.112016939637375e+001
 9.446580927858330e-001	 9.644278550667149e-001	 1.095165395745282e+001
 9.346212759741711e-001	 9.741576209180304e-001	 1.078287239253747e+001
 9.244853424709877e-001	 9.837819125475277e-001	 1.061385006837379e+001
 9.142519617779087e-001	 9.932992249512984e-001	 1.044461007302478e+001
 9.039228336508051e-001	 1.002708088485178e+000	 1.027517349432541e+001
 8.934996871609623e-001	 1.012007069618811e+000	 1.010555970304826e+001
 8.829842797339114e-001	 1.021194771659744e+000	 9.935786639795788e+000
 8.723783961670335e-001	 1.030269835446777e+000	 9.765871104627284e+000
 8.616838476270980e-001	 1.039230940011862e+000	 9.595829048423836e+000
 8.509024706288946e-001	 1.048076803209881e+000	 9.425675864992259e+000
 9.722718241062499e-001	 9.722718241062499e-001	 1.121909423263949e+001
 9.621517611740841e-001	 9.822876301634012e-001	 1.105828145788709e+001
 9.519290773846075e-001	 9.921975768635845e-001	 1.089630584063853e+001
 9.416054414092745e-001	 1.002000096115632e+000	 1.073313716658188e+001
 9.311825536664081e-001	 1.011693655045194e+000	 1.056874372045009e+001
 9.206621453888395e-001	 1.021276756792472e+000	 1.040309263823342e+001
 9.100459776676934e-001	 1.030747941280252e+000	 1.023615026302081e+001
 8.993358404734172e-001	 1.040105785951407e+000	 1.006788250333899e+001
 8.885335516551965e-001	 1.049348906475085e+000	 9.898255192851217e+000
 8.776409559199254e-001	 1.058475957420865e+000	 9.727234450275828e+000
 8.666599237919266e-001	 1.067485632900202e+000	 9.554787038387731e+000
 9.899494936390003e-001	 9.899494936390003e-001	 1.133587641148515e+001
 9.796454295629200e-001	 1.000147405260498e+000	 1.118079068718201e+001
 9.692368787956835e-001	 1.010237532809479e+000	 1.102368058181010e+001
 9.587255403482264e-001	 1.020218279684028e+000	 1.086446039919561e+001
 9.481131455555671e-001	 1.030088085139350e+000	 1.070304369192582e+001
 9.374014571274982e-001	 1.039845425100016e+000	 1.053934368802698e+001
 9.265922681749831e-001	 1.049488812941954e+000	 1.037327372022777e+001
 9.156874012133863e-001	 1.059016800243361e+000	 1.020474765652586e+001
 9.046887071436972e-001	 1.068427977503733e+000	 1.003368033077213e+001
 8.935980642129352e-001	 1.077720974830279e+000	 9.859987971986627e+000
 8.824173769549563e-001	 1.086894462591023e+000	 9.683588631128389e+000
 1.007627163172250e+000	 1.007627163172250e+000	 1.146942166655369e+001
 9.971390979523412e-001	 1.018007180358004e+000	 1.131822025299023e+001
 9.865446802073997e-001	 1.028277488755713e+000	 1.116416673571976e+001
 9.758456392878422e-001	 1.038436463252712e+000	 1.100711995772867e+001
 9.650437374453851e-001	 1.048482515233766e+000	 1.084693873333817e+001
 9.541407688667806e-001	 1.058414093407811e+000	 1.068348235013780e+001
 9.431385586828311e-001	 1.068229684603918e+000	 1.051661107249769e+001
 9.320389619538184e-001	 1.077927814535606e+000	 1.034618664522357e+001
 9.208438626325355e-001	 1.087507048532722e+000	 1.017207279591763e+001
 9.095551725061273e-001	 1.096965992240104e+000	 9.994135734612470e+000
 8.981748301179828e-001	 1.106303292282346e+000	 9.812244649254845e+000
 1.025304832706000e+000	 1.025304832706000e+000	 1.161867608748066e+001
 1.014632766342347e+000	 1.035866955455920e+000	 1.146964102903054e+001
 1.003852481619755e+000	 1.046317444702287e+000	 1.131695870937781e+001
 9.929657382281231e-001	 1.056654646821688e+000	 1.116043245733941e+001
 9.819743293358623e-001	 1.066876945328443e+000	 1.099986626929132e+001
 9.708800806066870e-001	 1.076982761715857e+000	 1.083506538722726e+001
 9.596848491912375e-001	 1.086970556266142e+000	 1.066583687742401e+001
 9.483905226947139e-001	 1.096838828828143e+000	 1.049199020812176e+001
 9.369990181217115e-001	 1.106586119562053e+000	 1.031333782462876e+001
 9.255122807995019e-001	 1.116211009650340e+000	 1.012969572026685e+001
 9.139322832810067e-001	 1.125712121974170e+000	 9.940884001587325e+000
 1.042982502240250e+000	 1.042982502240250e+000	 1.178262269989513e+001
 1.032126434732938e+000	 1.053726730554247e+000	 1.163415342067538e+001
 1.021160283032751e+000	 1.064357400649201e+000	 1.148127313888783e+001
 1.010085837169068e+000	 1.074872830390953e+000	 1.132372954499628e+001
 9.989049212269989e-001	 1.085271375423380e+000	 1.116127166762269e+001
 9.876193923472172e-001	 1.095551430024153e+000	 1.099365052867556e+001
 9.762311397002028e-001	 1.105711427928626e+000	 1.082061979814766e+001
 9.647420834360724e-001	 1.115749843120970e+000	 1.064193644683240e+001
 9.531541736112253e-001	 1.125665190591725e+000	 1.045736139521140e+001
 9.414693890930588e-001	 1.135456027060987e+000	 1.026666015677679e+001
 9.296897364440283e-001	 1.145120951666496e+000	 1.006960347406653e+001
 1.060660171775000e+000	 1.060660171775000e+000	 1.196027838741976e+001
 1.049620103124114e+000	 1.071586505652983e+000	 1.181088490397978e+001
 1.038468084446386e+000	 1.082397356596456e+000	 1.165634703702224e+001
 1.027205936110678e+000	 1.093091013960509e+000	 1.149635664682721e+001
 1.015835513118795e+000	 1.103665805518577e+000	 1.133060757746693e+001
 1.004358704088371e+000	 1.114120098332699e+000	 1.115879639002175e+001
 9.927774302097263e-001	 1.124452299591371e+000	 1.098062309456146e+001
 9.810936441778935e-001	 1.134660857414088e+000	 1.079579187897940e+001
 9.693093291010766e-001	 1.144744261621738e+000	 1.060401183277244e+001
 9.574264973867980e-001	 1.154701044472046e+000	 1.040499766387316e+001
 9.454471896070471e-001	 1.164529781359323e+000	 1.019847040666008e+001
 7.878726579767392e-001	 9.704414844536136e-001	 8.901430296913707e+000
 7.778112277595841e-001	 9.785242428865572e-001	 8.681368080554558e+000
 7.676728683215578e-001	 9.864980320293814e-001	 8.460077599133552e+000
 7.574593447180574e-001	 9.943617757451816e-001	 8.237613272328755e+000
 7.471724415395482e-001	 1.002114435868594e+000	 8.014032030452819e+000
 7.368139618953939e-001	 1.009755012632604e+000	 7.789393486405070e+000
 7.263857263871183e-001	 1.017282545062913e+000	 7.563760100914799e+000
 7.158895720722921e-001	 1.024696111339581e+000	 7.337197340465449e+000
 7.053273514202586e-001	 1.031994829125725e+000	 7.109773827316097e+000
 6.947009312609058e-001	 1.039177855863086e+000	 6.881561481065972e+000
 6.840121917276981e-001	 1.046244389034349e+000	 6.652635651239581e+000
 8.036301111397820e-001	 9.898503141419285e-001	 9.034246083186583e+000
 7.933674523188057e-001	 9.980947277430013e-001	 8.811154607205829e+000
 7.830263256923841e-001	 1.006227992668192e+000	 8.587879681776773e+000
 7.726085316170228e-001	 1.014249011257858e+000	 8.364489210856574e+000
 7.621158903749964e-001	 1.022156724583330e+000	 8.141052475280102e+000
 7.515502411378570e-001	 1.029950112882250e+000	 7.917640310788128e+000
 7.409134409191582e-001	 1.037628195960835e+000	 7.694325280724361e+000
 7.302073635176234e-001	 1.045190033562748e+000	 7.471181842746455e+000
 7.194338984519826e-001	 1.052634725704365e+000	 7.248286508922861e+000
 7.085949498887223e-001	 1.059961412976264e+000	 7.025717998614102e+000
 6.976924355639771e-001	 1.067169276810782e+000	 6.803557383565225e+000
 8.193875643028225e-001	 1.009259143830745e+000	 9.165673017577648e+000
 8.089236768778395e-001	 1.017665212600036e+000	 8.941400050070591e+000
 7.983797830628682e-001	 1.025957953307663e+000	 8.717931471049663e+000
 7.877577185155216e-001	 1.034136246771246e+000	 8.495347135241374e+000
 7.770593392098840e-001	 1.042199013298805e+000	 8.273727184631213e+000
 7.662865203796948e-001	 1.050145213132645e+000	 8.053152234410581e+000
 7.554411554505388e-001	 1.057973846859497e+000	 7.833703554898865e+000
 7.445251549622909e-001	 1.065683955786623e+000	 7.615463248741002e+000
 7.335404454830685e-001	 1.073274622283663e+000	 7.398514422701906e+000
 7.224889685159562e-001	 1.080744970090029e+000	 7.182941353406795e+000
 7.113726793997586e-001	 1.088094164587713e+000	 6.968829646402524e+000
 8.351450174658597e-001	 1.028667973520062e+000	 9.296052696622787e+000
 8.244799014366857e-001	 1.037235697457663e+000	 9.072369031407916e+000
 8.137332404330099e-001	 1.045687913947796e+000	 8.850423563100234e+000
 8.029069054135535e-001	 1.054023482285344e+000	 8.630306578433835e+000
 7.920027880442103e-001	 1.062241302015021e+000	 8.412107604024943e+000
 7.810227996209072e-001	 1.070340313383791e+000	 8.195915602088519e+000
 7.699688699812599e-001	 1.078319497758898e+000	 7.981819163370234e+000
 7.588429464062948e-001	 1.086177878011206e+000	 7.769906696542026e+000
 7.476469925135163e-001	 1.093914518863619e+000	 7.560266613332932e+000
 7.363829871426076e-001	 1.101528527204381e+000	 7.352987508688541e+000
 7.250529232350426e-001	 1.109019052365140e+000	 7.148158335281224e+000
 8.509024706288946e-001	 1.048076803209881e+000	 9.425675864992259e+000
 8.400361259953446e-001	 1.056806182315880e+000	 9.204282284906961e+000
 8.290866978028095e-001	 1.065417874588589e+000	 8.985509411655524e+000
 8.180560923111189e-001	 1.073910717800152e+000	 8.769456457132842e+000
 8.069462368779760e-001	 1.082283590731977e+000	 8.556220866233257e+000
 7.957590788614946e-001	 1.090535413635686e+000	 8.345898524199910e+000
 7.844965845113215e-001	 1.098665148659037e+000	 8.138583962363091e+000
 7.731607378496348e-001	 1.106671800236498e+000	 7.934370561462191e+000
 7.617535395433264e-001	 1.114554415444232e+000	 7.733350751767119e+000
 7.502770057686765e-001	 1.122312084319322e+000	 7.535616209236611e+000
 7.387331670698292e-001	 1.129943940143065e+000	 7.341258046977178e+000
 8.666599237919266e-001	 1.067485632900202e+000	 9.554787038387731e+000
 8.555923505538157e-001	 1.076376667174689e+000	 9.337320645557101e+000
 8.444401551722667e-001	 1.085147835230044e+000	 9.123308704605433e+000
 8.332052792082172e-001	 1.093797953315671e+000	 8.912857855081075e+000
 8.218896857111800e-001	 1.102325879449672e+000	 8.706072001531320e+000
 8.104953581014569e-001	 1.110730513888330e+000	 8.503052534360505e+000
 7.990242990407239e-001	 1.119010799559915e+000	 8.303898550186185e+000
 7.874785292923114e-001	 1.127165722462498e+000	 8.108707070831816e+000
 7.758600865724983e-001	 1.135194312025504e+000	 7.917573260111368e+000
 7.641710243941627e-001	 1.143095641434849e+000	 7.730590637585348e+000
 7.524134109041186e-001	 1.150868827921488e+000	 7.547851288489718e+000
 8.824173769549563e-001	 1.086894462591023e+000	 9.683588631128389e+000
 8.711485751120995e-001	 1.095947152034089e+000	 9.471628612031635e+000
 8.597936125413821e-001	 1.104877795872159e+000	 9.263910378809495e+000
 8.483544661048493e-001	 1.113685188831901e+000	 9.060546508150265e+000
 8.368331345438236e-001	 1.122368168168108e+000	 8.861645911134549e+000
 8.252316373407935e-001	 1.130925614141723e+000	 8.667314069491964e+000
 8.135520135694665e-001	 1.139356450461533e+000	 8.477653272403630e+000
 8.017963207343242e-001	 1.147659644689206e+000	 8.292762852926174e+000
 7.899666336010321e-001	 1.155834208607433e+000	 8.112739423132476e+000
 7.780650430190668e-001	 1.163879198550964e+000	 7.937677107083688e+000
 7.660936547379107e-001	 1.171793715700407e+000	 7.767667770771811e+000
 8.981748301179828e-001	 1.106303292282346e+000	 9.812244649254845e+000
 8.867047996701954e-001	 1.115517636894080e+000	 9.607317534083967e+000
 8.751470699101551e-001	 1.124607756514936e+000	 9.407375317555708e+000
 8.635036530010145e-001	 1.133572424348842e+000	 9.212535027838788e+000
 8.517765833759058e-001	 1.142410456887284e+000	 9.022909132905538e+000
 8.399679165795050e-001	 1.151120714395866e+000	 8.838605794093423e+000
 8.280797280975500e-001	 1.159702101363889e+000	 8.659729121198291e+000
 8.161141121756732e-001	 1.168153566916623e+000	 8.486379428110595e+000
 8.040731806289282e-001	 1.176474105190020e+000	 8.318653488023646e+000
 7.919590616433881e-001	 1.184662755667667e+000	 8.156644787262273e+000
 7.797738985712054e-001	 1.192718603479824e+000	 8.000443776804390e+000
 9.139322832810067e-001	 1.125712121974170e+000	 9.940884001587325e+000
 9.022610242281041e-001	 1.135088121754663e+000	 9.744468470213018e+000
 8.905005272785858e-001	 1.144337717158373e+000	 9.553738768971670e+000
 8.786528398967132e-001	 1.153459659866493e+000	 9.368814894751957e+000
 8.667200322074271e-001	 1.162452745607200e+000	 9.189811424401903e+000
 8.547041958175913e-001	 1.171315814650759e+000	 9.016837787519105e+000
 8.426074426249739e-001	 1.180047752266984e+000	 8.849998541697849e+000
 8.304319036163591e-001	 1.188647489144747e+000	 8.689393649177443e+000
 8.181797276561860e-001	 1.197114001773265e+000	 8.535118753850552e+000
 8.058530802671269e-001	 1.205446312784956e+000	 8.387265457610861e+000
 7.934541424040027e-001	 1.213643491259739e+000	 8.245921595042008e+000
 9.296897364440283e-001	 1.145120951666496e+000	 1.006960347406653e+001
 9.178172487858249e-001	 1.154658606615837e+000	 9.883134754718615e+000
 9.058539846466741e-001	 1.164067677802471e+000	 9.703012518496138e+000
 8.938020267919450e-001	 1.173346895384854e+000	 9.529358249355791e+000
 8.816634810383872e-001	 1.182495034327856e+000	 9.362287184935891e+000
 8.694404750550523e-001	 1.191510914906401e+000	 9.201908610516124e+000
 8.571351571517383e-001	 1.200393403170818e+000	 9.048326156301604e+000
 8.447496950563810e-001	 1.209141411373581e+000	 8.901638096903310e+000
 8.322862746828059e-001	 1.217753898357167e+000	 8.761937651901244e+000
 8.197470988902831e-001	 1.226229869902834e+000	 8.629313286395369e+000
 8.071343862363025e-001	 1.234568379040151e+000	 8.503849010474523e+000
 9.454471896070471e-001	 1.164529781359323e+000	 1.019847040666008e+001
 9.333734733433584e-001	 1.174229091477602e+000	 1.002334430805144e+001
 9.212074420144205e-001	 1.183797638447231e+000	 9.855186844102690e+000
 9.089512136867100e-001	 1.193234130903926e+000	 9.694119503655195e+000
 8.966069298687863e-001	 1.202537323049252e+000	 9.540256735428198e+000
 8.841767542918877e-001	 1.211706015162792e+000	 9.393706265108412e+000
 8.716628716778431e-001	 1.220739054075391e+000	 9.254569416574256e+000
 8.590674864957389e-001	 1.229635333603122e+000	 9.122941436050169e+000
 8.463928217087879e-001	 1.238393794941728e+000	 8.998911818000719e+000
 8.336411175128569e-001	 1.247013427021299e+000	 8.882564631593219e+000
 8.208146300681053e-001	 1.255493266821059e+000	 8.723444813179427e+000
 6.840121917276981e-001	 1.046244389034349e+000	 6.652635651239581e+000
 6.732630251961720e-001	 1.053193666391865e+000	 6.475312289973100e+000
 6.624553352191411e-001	 1.060024966153559e+000	 6.298904332667638e+000
 6.515910354597977e-001	 1.066737607165498e+000	 6.123493162155159e+000
 6.406720486238722e-001	 1.073330949030676e+000	 5.949162237778743e+000
 6.297003053920891e-001	 1.079804392204921e+000	 5.775997194749174e+000
 6.186777433540813e-001	 1.086157378059845e+000	 5.592008573672482e+000
 6.076063059449273e-001	 1.092389388913029e+000	 5.401194397134896e+000
 5.964879413854602e-001	 1.098499948025727e+000	 5.212903377059066e+000
 5.853246016274839e-001	 1.104488619568381e+000	 5.027262099044863e+000
 5.741182413050000e-001	 1.110355008554307e+000	 4.844393745051573e+000
 6.976924355639771e-001	 1.067169276810782e+000	 6.803557383565225e+000
 6.867282857009388e-001	 1.074257539715344e+000	 6.633031265748751e+000
 6.757044419236228e-001	 1.081225465472260e+000	 6.462853910713706e+000
 6.646228561684840e-001	 1.088072359304516e+000	 6.293087945899548e+000
 6.534854895953678e-001	 1.094797568007166e+000	 6.123798814258517e+000
 6.422943114986126e-001	 1.101400480045157e+000	 5.955054898524309e+000
 6.310512982196433e-001	 1.107880525617529e+000	 5.786927634888616e+000
 6.197584320622395e-001	 1.114237176688216e+000	 5.611839852553664e+000
 6.084177002116505e-001	 1.120469946983697e+000	 5.429637832668479e+000
 5.970310936587155e-001	 1.126578391957822e+000	 5.249637234669651e+000
 5.856006061301156e-001	 1.132562108724173e+000	 5.071948957233447e+000
 7.113726793997586e-001	 1.088094164587713e+000	 6.968829646402524e+000
 7.001935462053034e-001	 1.095321413039221e+000	 6.804563399945969e+000
 6.889535486277866e-001	 1.102425964791257e+000	 6.640076027246913e+000
 6.776546768769275e-001	 1.109407111443731e+000	 6.475410949275711e+000
 6.662989305666857e-001	 1.116264186983754e+000	 6.310615154870969e+000
 6.548883176050127e-001	 1.122996567885389e+000	 6.145739350793400e+000
 6.434248530851267e-001	 1.129603673175110e+000	 5.980838099640252e+000
 6.319105581795074e-001	 1.136084964463200e+000	 5.815969945219556e+000
 6.203474590378212e-001	 1.142439945941363e+000	 5.646675552717731e+000
 6.087375856899424e-001	 1.148668164346860e+000	 5.471940499251319e+000
 5.970829709552312e-001	 1.154769208893534e+000	 5.299068293811153e+000
 7.250529232350426e-001	 1.109019052365140e+000	 7.148158335281224e+000
 7.136588067092652e-001	 1.116385286363495e+000	 6.989666705031785e+000
 7.022026553316330e-001	 1.123626464110552e+000	 6.830380038264365e+000
 6.906864975851284e-001	 1.130741863583143e+000	 6.670322062746918e+000
 6.791123715378250e-001	 1.137730805960439e+000	 6.509520840698284e+000
 6.674823237112888e-001	 1.144592655725618e+000	 6.348008945534827e+000
 6.557984079505305e-001	 1.151326820732586e+000	 6.185823624890459e+000
 6.440626842967309e-001	 1.157932752237980e+000	 6.023006949466040e+000
 6.322772178639721e-001	 1.164409944898726e+000	 5.859605947317046e+000
 6.204440777211642e-001	 1.170757936735493e+000	 5.693640907221940e+000
 6.085653357803471e-001	 1.176976309062392e+000	 5.525267249556022e+000
 7.387331670698292e-001	 1.129943940143065e+000	 7.341258046977178e+000
 7.271240672128245e-001	 1.137449159688166e+000	 7.188105231285418e+000
 7.154517620351615e-001	 1.144826963430144e+000	 7.033578715941117e+000
 7.037183182930863e-001	 1.152076615722752e+000	 6.877682014215075e+000
 6.919258125087859e-001	 1.159197424937220e+000	 6.720423755477840e+000
 6.800763298174418e-001	 1.166188743565844e+000	 6.561817889582773e+000
 6.681719628158557e-001	 1.173049968289960e+000	 6.401883875892358e+000
 6.562148104139098e-001	 1.179780540012556e+000	 6.240646856459415e+000
 6.442069766901030e-001	 1.186379943855785e+000	 6.078137812932802e+000
 6.321505697523810e-001	 1.192847709123722e+000	 5.914393706812009e+000
 6.200477006054628e-001	 1.199183409230746e+000	 5.750045391392861e+000
 7.524134109041186e-001	 1.150868827921488e+000	 7.547851288489718e+000
 7.405893277159817e-001	 1.158513033013234e+000	 7.399648517906020e+000
 7.287008687383727e-001	 1.166027462750033e+000	 7.249487938068544e+000
 7.167501390008011e-001	 1.173411367862558e+000	 7.097352292889847e+000
 7.047392534795689e-001	 1.180664043914098e+000	 6.943230239906467e+000
 6.926703359234709e-001	 1.187784831406066e+000	 6.787116583276915e+000
 6.805455176811016e-001	 1.194773115847230e+000	 6.629012489747959e+000
 6.683669365310446e-001	 1.201628327786929e+000	 6.468925687056000e+000
 6.561367355162148e-001	 1.208349942812540e+000	 6.306870644290789e+000
 6.438570617835929e-001	 1.214937481511548e+000	 6.142868733811286e+000
 6.315300654305786e-001	 1.221390509398596e+000	 5.976948374365362e+000
 7.660936547379107e-001	 1.171793715700407e+000	 7.767667770771811e+000
 7.540545882187365e-001	 1.179576906338700e+000	 7.624071102930677e+000
 7.419499754412664e-001	 1.187227962070220e+000	 7.477926410767540e+000
 7.297819597082731e-001	 1.194746120002561e+000	 7.329195081314866e+000
 7.175526944501734e-001	 1.202130662891074e+000	 7.177845229411759e+000
 7.052643420293766e-001	 1.209380919246285e+000	 7.023851960327838e+000
 6.929190725462687e-001	 1.216496263404397e+000	 6.867197613636417e+000
 6.805190626481351e-001	 1.223476115561099e+000	 6.707871987754261e+000
 6.680664943423065e-001	 1.230319941768991e+000	 6.545872544633983e+000
 6.555635538148000e-001	 1.237027253898969e+000	 6.381204594159555e+000
 6.430124302556941e-001	 1.243597609565942e+000	 6.213881457865681e+000
 7.797738985712054e-001	 1.192718603479824e+000	 8.000443776804390e+000
 7.675198487210887e-001	 1.200640779664563e+000	 7.861152084739883e+000
 7.551990821438421e-001	 1.208428461390704e+000	 7.718715420388881e+000
 7.428137804155023e-001	 1.216080872142762e+000	 7.573073194548900e+000
 7.303661354205999e-001	 1.223597281868146e+000	 7.424172377421429e+000
 7.178583481351586e-001	 1.230977007086501e+000	 7.271967791907570e+000
 7.052926274113568e-001	 1.238219410961460e+000	 7.116422386385783e+000
 6.926711887651811e-001	 1.245323903335064e+000	 6.957507486340162e+000
 6.799962531683785e-001	 1.252289940725139e+000	 6.782702589608107e+000
 6.672700458460021e-001	 1.259117026285987e+000	 6.583419270277012e+000
 6.544947950808100e-001	 1.265804709732783e+000	 6.386964391556433e+000
 7.934541424040027e-001	 1.213643491259739e+000	 8.245921595042008e+000
 7.809851092230387e-001	 1.221704652990824e+000	 8.110674728924376e+000
 7.684481888461006e-001	 1.229628960711485e+000	 7.971678611080101e+000
 7.558456011224884e-001	 1.237415624283158e+000	 7.828850025638758e+000
 7.431795763908483e-001	 1.245063900845315e+000	 7.682114165880475e+000
 7.304523542408170e-001	 1.252573094926714e+000	 7.513887990297175e+000
 7.176661822763658e-001	 1.259942558518420e+000	 7.312988263594942e+000
 7.048233148821826e-001	 1.267171691108826e+000	 7.114868574367522e+000
 6.919260119944309e-001	 1.274259939680982e+000	 6.919410532230933e+000
 6.789765378771995e-001	 1.281206798672601e+000	 6.726496768015943e+000
 6.659771599059257e-001	 1.288011809899122e+000	 6.536011339805917e+000
 8.071343862363025e-001	 1.234568379040151e+000	 8.503849010474523e+000
 7.944503697245862e-001	 1.242768526317482e+000	 8.372426115131834e+000
 7.816972955480415e-001	 1.250829460032563e+000	 8.229849832051407e+000
 7.688774218292321e-001	 1.258750376423753e+000	 8.028232947504714e+000
 7.559930173609183e-001	 1.266530519822581e+000	 7.829498818535583e+000
 7.430463603463515e-001	 1.274169182766922e+000	 7.633503910352750e+000
 7.300397371412958e-001	 1.281665706075276e+000	 7.440104806040327e+000
 7.169754409991397e-001	 1.289019478882383e+000	 7.249158672636983e+000
 7.038557708204638e-001	 1.296229938636522e+000	 7.060523719822691e+000
 6.906830299083917e-001	 1.303296571058811e+000	 6.874059650041184e+000
 6.774595247310413e-001	 1.310218910064956e+000	 6.689628098931506e+000
 8.208146300681053e-001	 1.255493266821059e+000	 8.723444813179427e+000
 8.079156302257311e-001	 1.263832399644536e+000	 8.524463259624806e+000
 7.949464022496643e-001	 1.272029959353938e+000	 8.328455750044221e+000
 7.819092425357326e-001	 1.280085128564544e+000	 8.135253976124105e+000
 7.688064583308100e-001	 1.287997138799943e+000	 7.944689078116173e+000
 7.556403664517627e-001	 1.295765270607128e+000	 7.756592162496607e+000
 7.424132920061469e-001	 1.303388853632028e+000	 7.570794813893995e+000
 7.291275671160526e-001	 1.310867266655738e+000	 7.387129599956270e+000
 7.157855296464767e-001	 1.318199937591758e+000	 7.205430567864790e+000
 7.023895219395790e-001	 1.325386343444616e+000	 7.025533731248111e+000
 6.889418895561570e-001	 1.332426010230286e+000	 6.847277546292472e+000
 5.741182413050000e-001	 1.110355008554307e+000	 4.844393745051573e+000
 5.628708166930497e-001	 1.116098760742258e+000	 4.655187377323615e+000
 5.515842846736662e-001	 1.121719562507361e+000	 4.469406419206180e+000
 5.402606017111221e-001	 1.127217140681487e+000	 4.287140139201019e+000
 5.289017228384254e-001	 1.132591262364247e+000	 4.108474479324188e+000
 5.175096006544983e-001	 1.137841734704207e+000	 3.933492157152434e+000
 5.060861843335419e-001	 1.142968404651232e+000	 3.762272769193862e+000
 4.946334186475062e-001	 1.147971158680544e+000	 3.594892895173257e+000
 4.831532430025666e-001	 1.152849922489192e+000	 3.431426202835627e+000
 4.716475904904681e-001	 1.157604660665571e+000	 3.271943552882672e+000
 4.601183869555650e-001	 1.162235376332733e+000	 3.116513103671833e+000
 5.856006061301156e-001	 1.132562108724173e+000	 5.071948957233447e+000
 5.741282330262805e-001	 1.138420735956605e+000	 4.885898310591421e+000
 5.626159703667710e-001	 1.144153953757676e+000	 4.702509263070374e+000
 5.510658137451469e-001	 1.149761483495895e+000	 4.521864556985996e+000
 5.394797572950756e-001	 1.155243087612864e+000	 4.344044263065260e+000
 5.278597926674589e-001	 1.160598569400124e+000	 4.169125890631756e+000
 5.162079080199822e-001	 1.165827772746534e+000	 3.997184498107195e+000
 5.045260870200349e-001	 1.170930581856822e+000	 3.828292803406682e+000
 4.928163078619168e-001	 1.175906920941978e+000	 3.662521293824563e+000
 4.810805422992081e-001	 1.180756753882166e+000	 3.499938335018479e+000
 4.693207546931507e-001	 1.185480083862899e+000	 3.340610278718851e+000
 5.970829709552312e-001	 1.154769208893534e+000	 5.299068293811153e+000
 5.853856493595110e-001	 1.160742711170352e+000	 5.116017944698448e+000
 5.736476560598761e-001	 1.166588345007308e+000	 4.934886424423114e+000
 5.618710257791713e-001	 1.172305826309545e+000	 4.755749463275254e+000
 5.500577917517259e-001	 1.177894912860660e+000	 4.578680765368649e+000
 5.382099846804194e-001	 1.183355404095165e+000	 4.403752127920333e+000
 5.263296317064223e-001	 1.188687140840915e+000	 4.231033559830897e+000
 5.144187553925635e-001	 1.193890005032144e+000	 4.060593399132428e+000
 5.024793727212669e-001	 1.198963919393784e+000	 3.892498428888101e+000
 4.905134941079479e-001	 1.203908847097765e+000	 3.726813991145809e+000
 4.785231224307363e-001	 1.208724791392063e+000	 3.563604098566511e+000
 6.085653357803471e-001	 1.176976309062392e+000	 5.525267249556022e+000
 5.966430656927416e-001	 1.183064686383501e+000	 5.345096535136535e+000
 5.846793417529809e-001	 1.189022736256255e+000	 5.166121769089540e+000
 5.726762378131959e-001	 1.194850169122436e+000	 4.988411165307507e+000
 5.606358262083757e-001	 1.200546738107633e+000	 4.812031548294959e+000
 5.485601766933799e-001	 1.206112238789327e+000	 4.637048482511367e+000
 5.364513553928626e-001	 1.211546508934374e+000	 4.463526399993869e+000
 5.243114237650923e-001	 1.216849428206511e+000	 4.291528725811311e+000
 5.121424375806171e-001	 1.222020917844610e+000	 4.121118000922526e+000
 4.999464459166877e-001	 1.227060940312370e+000	 3.952356002030394e+000
 4.877254901683218e-001	 1.231969498920228e+000	 3.785303858046615e+000
 6.200477006054628e-001	 1.199183409230746e+000	 5.750045391392861e+000
 6.079004820259722e-001	 1.205386661596051e+000	 5.572667038528768e+000
 5.957110274460858e-001	 1.211457127504519e+000	 5.395780588504517e+000
 5.834814498472205e-001	 1.217394511934570e+000	 5.219446216028279e+000
 5.712138606650259e-001	 1.223198563353783e+000	 5.043723335384067e+000
 5.589103687063404e-001	 1.228869073482613e+000	 4.868670740823210e+000
 5.465730790793026e-001	 1.234405877026911e+000	 4.694346744206938e+000
 5.342040921376211e-001	 1.239808851379921e+000	 4.520809309434857e+000
 5.218055024399670e-001	 1.245077916294454e+000	 4.348116183217328e+000
 5.093793977254275e-001	 1.250213033525979e+000	 4.176447801511851e+000
 4.969278579059074e-001	 1.255214206447393e+000	 4.012125079085031e+000
 6.315300654305786e-001	 1.221390509398596e+000	 5.976948374365362e+000
 6.191578983592029e-001	 1.227708636808003e+000	 5.798246685254151e+000
 6.067427131391908e-001	 1.233891518752100e+000	 5.623411288293870e+000
 5.942866618812450e-001	 1.239938854745945e+000	 5.448433209934892e+000
 5.817918951216761e-001	 1.245850388599110e+000	 5.273363906066182e+000
 5.692605607193009e-001	 1.251625908175022e+000	 5.094756665760691e+000
 5.566948027657428e-001	 1.257265245118527e+000	 4.911530745480488e+000
 5.440967605101499e-001	 1.262768274552376e+000	 4.735111308245896e+000
 5.314685672993172e-001	 1.268134914743319e+000	 4.565814642885116e+000
 5.188123495341674e-001	 1.273365126738593e+000	 4.403939532319740e+000
 5.061302256434931e-001	 1.278458913973559e+000	 4.249766529153391e+000
 6.430124302556941e-001	 1.243597609565942e+000	 6.213881457865681e+000
 6.304153146924334e-001	 1.250030612019355e+000	 6.028010389050126e+000
 6.177743988322958e-001	 1.256325909998997e+000	 5.824872216716592e+000
 6.050918739152695e-001	 1.262483197556562e+000	 5.633623867021992e+000
 5.923699295783261e-001	 1.268502213843615e+000	 5.447880170020203e+000
 5.796107527322613e-001	 1.274382742866553e+000	 5.268040526052039e+000
 5.668165264521829e-001	 1.280124613209222e+000	 5.094488997536959e+000
 5.539894288826784e-001	 1.285727697723875e+000	 4.927593378414291e+000
 5.411316321586673e-001	 1.291191913191203e+000	 4.767704308240847e+000
 5.282453013429073e-001	 1.296517219950213e+000	 4.615154432732471e+000
 5.153325933810786e-001	 1.301703621498723e+000	 4.470257612371823e+000
 6.544947950808100e-001	 1.265804709732783e+000	 6.386964391556433e+000
 6.416727310256640e-001	 1.272352587230109e+000	 6.176940178208321e+000
 6.288060845254007e-001	 1.278760301245210e+000	 5.968219833865168e+000
 6.158970859492943e-001	 1.285027540366422e+000	 5.779072760677184e+000
 6.029479640349765e-001	 1.291154039087298e+000	 5.602315061327728e+000
 5.899609447452219e-001	 1.297139577557208e+000	 5.431262718619488e+000
 5.769382501386233e-001	 1.302983981298996e+000	 5.266337154638363e+000
 5.638820972552072e-001	 1.308687120894417e+000	 5.107943134970518e+000
 5.507946970180175e-001	 1.314248911638107e+000	 4.956467808234074e+000
 5.376782531516472e-001	 1.319669313160837e+000	 4.812279794312739e+000
 5.245349611186642e-001	 1.324948329022888e+000	 4.675728323051654e+000
 6.659771599059257e-001	 1.288011809899122e+000	 6.536011339805917e+000
 6.529301473588947e-001	 1.294674562440264e+000	 6.331159347982530e+000
 6.398377702185056e-001	 1.301194692490741e+000	 6.126952374265599e+000
 6.267022979833187e-001	 1.307571883175522e+000	 5.923289494135018e+000
 6.135259984916264e-001	 1.313805864330157e+000	 5.750206157378794e+000
 6.003111367581824e-001	 1.319896412246986e+000	 5.586815566369790e+000
 5.870599738250635e-001	 1.325843349387848e+000	 5.429413390013537e+000
 5.737747656277360e-001	 1.331646544064004e+000	 5.278443631289505e+000
 5.604577618773676e-001	 1.337305910084030e+000	 5.134332169612373e+000
 5.471112049603870e-001	 1.342821406370466e+000	 4.997485773618743e+000
 5.337373288562498e-001	 1.348193036546053e+000	 4.868291166938141e+000
 6.774595247310413e-001	 1.310218910064956e+000	 6.689628098931506e+000
 6.641875636921253e-001	 1.316996537649819e+000	 6.490170768561139e+000
 6.508694559116106e-001	 1.323629083735587e+000	 6.290709632817675e+000
 6.375075100173435e-001	 1.330116225983865e+000	 6.091126603069527e+000
 6.241040329482768e-001	 1.336457689572195e+000	 5.893985733477844e+000
 6.106613287711429e-001	 1.342653246935887e+000	 5.737077604150949e+000
 5.971816975115036e-001	 1.348702717475778e+000	 5.586041524764803e+000
 5.836674340002647e-001	 1.354605967232635e+000	 5.441363064873481e+000
 5.701208267367177e-001	 1.360362908528973e+000	 5.303509119713703e+000
 5.565441567691268e-001	 1.365973499579100e+000	 5.172926844323146e+000
 5.429396965938355e-001	 1.371437744068218e+000	 5.050042643292295e+000
 6.889418895561570e-001	 1.332426010230286e+000	 6.847277546292472e+000
 6.754449800253557e-001	 1.339318512858777e+000	 6.653467293154766e+000
 6.619011416047155e-001	 1.346063474979750e+000	 6.459013688644230e+000
 6.483127220513681e-001	 1.352660568791450e+000	 6.263780645143878e+000
 6.346820674049267e-001	 1.359109514813409e+000	 6.067638005497241e+000
 6.210115207841032e-001	 1.365410081623910e+000	 5.884414727757076e+000
 6.073034211979438e-001	 1.371562085562787e+000	 5.738532223878528e+000
 5.935601023727934e-001	 1.377565390400310e+000	 5.598956015341318e+000
 5.797838915960678e-001	 1.383419906972935e+000	 5.466196361417329e+000
 5.659771085778667e-001	 1.389125592786738e+000	 5.340743104120123e+000
 5.521420643314210e-001	 1.394682451589383e+000	 5.223064578764532e+000
 4.601183869555650e-001	 1.162235376332733e+000	 3.116513103671833e+000
 4.485675500777414e-001	 1.166742110765889e+000	 2.922624906348049e+000
 4.369969884738851e-001	 1.171124942985806e+000	 2.741051329830494e+000
 4.254086008172057e-001	 1.175383989328324e+000	 2.571876803881598e+000
 4.138042749739843e-001	 1.179519402990089e+000	 2.415175889544206e+000
 4.021858871602735e-001	 1.183531373552289e+000	 2.271013470798753e+000
 3.905553011185042e-001	 1.187420126482944e+000	 2.139444951996302e+000
 3.789143673145657e-001	 1.191185922618588e+000	 2.020516460509039e+000
 3.672649221558911e-001	 1.194829057626238e+000	 1.914265054050696e+000
 3.556087872310356e-001	 1.198349861446522e+000	 1.820718932130445e+000
 3.439477685711992e-001	 1.201748697718857e+000	 1.739897651116769e+000
 4.693207546931507e-001	 1.185480083862899e+000	 3.340610278718851e+000
 4.575389010772938e-001	 1.190076952984894e+000	 3.145761555215609e+000
 4.457369282409294e-001	 1.194547441849339e+000	 2.961286988832295e+000
 4.339167728307313e-001	 1.198891669118793e+000	 2.787251652178053e+000
 4.220803604703061e-001	 1.203109791053833e+000	 2.623712655248192e+000
 4.102296049000269e-001	 1.207202001027270e+000	 2.470719336754548e+000
 3.983664071371729e-001	 1.211168529016486e+000	 2.328313458676019e+000
 3.864926546569514e-001	 1.215009641074747e+000	 2.196529403511915e+000
 3.746102205949434e-001	 1.218725638782410e+000	 2.075394373737357e+000
 3.627209629714751e-001	 1.222316858678915e+000	 1.964928592974410e+000
 3.508267239383701e-001	 1.225783671676468e+000	 1.865145508411254e+000
 4.785231224307363e-001	 1.208724791392063e+000	 3.563604098566511e+000
 4.665102520768511e-001	 1.213411795202904e+000	 3.365967218270026e+000
 4.544768680079944e-001	 1.217969940711893e+000	 3.176827083052161e+000
 4.424249448443032e-001	 1.222399348908308e+000	 2.996229378348220e+000
 4.303564459667101e-001	 1.226700179116658e+000	 2.824213698690134e+000
 4.182733226399084e-001	 1.230872628501380e+000	 2.660813739557887e+000
 4.061775131560257e-001	 1.234916931549213e+000	 2.506057489911122e+000
 3.940709419995869e-001	 1.238833359530156e+000	 2.359967424923621e+000
 3.819555190343212e-001	 1.242622219937908e+000	 2.222560698464457e+000
 3.698331387123256e-001	 1.246283855910719e+000	 2.093849334888324e+000
 3.577056793060472e-001	 1.249818645633586e+000	 1.973840419720161e+000
 4.877254901683218e-001	 1.231969498920228e+000	 3.785303858046615e+000
 4.754816030764138e-001	 1.236746637419919e+000	 3.583178991396635e+000
 4.632168077750800e-001	 1.241392439573469e+000	 3.387732543200219e+000
 4.509331168579215e-001	 1.245907028696869e+000	 3.198990743499174e+000
 4.386325314631960e-001	 1.250290567178565e+000	 3.018379396173668e+000
 4.263170403799179e-001	 1.254543255974616e+000	 2.867584234347592e+000
 4.139886191750625e-001	 1.258665334081123e+000	 2.730308439702773e+000
 4.016492293424722e-001	 1.262657077984815e+000	 2.606588795090814e+000
 3.893008174740246e-001	 1.266518801092730e+000	 2.496438008756445e+000
 3.769453144535872e-001	 1.270250853141934e+000	 2.399844633022997e+000
 3.645846346742306e-001	 1.273853619590210e+000	 2.316773031641628e+000
 4.969278579059074e-001	 1.255214206447393e+000	 4.012125079085031e+000
 4.844529540759813e-001	 1.260081479635939e+000	 3.817438726345683e+000
 4.719567475421861e-001	 1.264814938434064e+000	 3.634819728934529e+000
 4.594412888715863e-001	 1.269414708484477e+000	 3.464408850259557e+000
 4.469086169597642e-001	 1.273880955239555e+000	 3.306324037670855e+000
 4.343607581200555e-001	 1.278213883446982e+000	 3.160660096122449e+000
 4.217997251942836e-001	 1.282413736612218e+000	 3.027488412392095e+000
 4.092275166856078e-001	 1.286480796438724e+000	 2.906856729964620e+000
 3.966461159140537e-001	 1.290415382246879e+000	 2.798788974536457e+000
 3.840574901952600e-001	 1.294217850372561e+000	 2.703285129957837e+000
 3.714635900429202e-001	 1.297888593546341e+000	 2.620321164287677e+000
 5.061302256434931e-001	 1.278458913973559e+000	 4.249766529153391e+000
 4.934243050755545e-001	 1.283416321850965e+000	 4.062075617554581e+000
 4.806966873093129e-001	 1.288237437293681e+000	 3.885462340669865e+000
 4.679494608852972e-001	 1.292922388271131e+000	 3.720079141187259e+000
 4.551847024564146e-001	 1.297471343299627e+000	 3.566055998693949e+000
 4.424044758603211e-001	 1.301884510918475e+000	 3.423500053456904e+000
 4.296108312136884e-001	 1.306162139142497e+000	 3.292495282075057e+000
 4.168058040289929e-001	 1.310304514891883e+000	 3.173102225195248e+000
 4.039914143544084e-001	 1.314311963400354e+000	 3.065357767332948e+000
 3.911696659373438e-001	 1.318184847602598e+000	 2.969274968686863e+000
 3.783425454121162e-001	 1.321923567501977e+000	 2.884842948690160e+000
 5.153325933810786e-001	 1.301703621498723e+000	 4.470257612371823e+000
 5.023956560751326e-001	 1.306751164064996e+000	 4.287241190760396e+000
 4.894366270764604e-001	 1.311659936152317e+000	 4.114387523621810e+000
 4.764576328990545e-001	 1.316430068056832e+000	 3.951862972103552e+000
 4.634607879531473e-001	 1.321061731358781e+000	 3.799811700366012e+000
 4.504481936007150e-001	 1.325555138389096e+000	 3.658355247327232e+000
 4.374219372332774e-001	 1.329910541671960e+000	 3.527592151765032e+000
 4.243840913726281e-001	 1.334128233344292e+000	 3.407597631059637e+000
 4.113367127950888e-001	 1.338208544553154e+000	 3.298423313700220e+000
 3.982818416798388e-001	 1.342151844832047e+000	 3.200097025517682e+000
 3.852215007818186e-001	 1.345958541457120e+000	 3.112622629455523e+000
 5.245349611186642e-001	 1.324948329022888e+000	 4.675728323051654e+000
 5.113670070747159e-001	 1.330086006278032e+000	 4.495085399091760e+000
 4.981765668436284e-001	 1.335082435009975e+000	 4.323762489076092e+000
 4.849658049128581e-001	 1.339937747841579e+000	 4.161942152408523e+000
 4.717368734499620e-001	 1.344652119417017e+000	 4.009784931662047e+000
 4.584919113412370e-001	 1.349225765858846e+000	 3.867428870059313e+000
 4.452330432530504e-001	 1.353658944200606e+000	 3.734989083972100e+000
 4.319623787165131e-001	 1.357951951795951e+000	 3.612557390814247e+000
 4.186820112360947e-001	 1.362105125705279e+000	 3.500201992533701e+000
 4.053940174227448e-001	 1.366118842060906e+000	 3.397967214742591e+000
 3.921004561520270e-001	 1.369993515411769e+000	 3.305873301363048e+000
 5.337373288562498e-001	 1.348193036546053e+000	 4.868291166938141e+000
 5.203383580743043e-001	 1.353420848490073e+000	 4.687735036712382e+000
 5.069165066108171e-001	 1.358504933866653e+000	 4.515725820403898e+000
 4.934739769267079e-001	 1.363445427625372e+000	 4.352464597247052e+000
 4.800129589468590e-001	 1.368242507474335e+000	 4.198130524594076e+000
 4.665356290818870e-001	 1.372896393327723e+000	 4.052880298832821e+000
 4.530441492730074e-001	 1.377407346728437e+000	 3.916847673160147e+000
 4.395406660606480e-001	 1.381775670246859e+000	 3.790143032679183e+000
 4.260273096774264e-001	 1.386001706856731e+000	 3.672853027109517e+000
 4.125061931660621e-001	 1.390085839289177e+000	 3.565040261226036e+000
 3.989794115227419e-001	 1.394028489365924e+000	 3.466743042970645e+000
 5.429396965938355e-001	 1.371437744068218e+000	 5.050042643292295e+000
 5.293097090738980e-001	 1.376755690701119e+000	 4.867295701445132e+000
 5.156564463780266e-001	 1.381927432722353e+000	 4.692389899156569e+000
 5.019821489406041e-001	 1.386953107408211e+000	 4.525547199903071e+000
 4.882890444438380e-001	 1.391832895530736e+000	 4.366967655648641e+000
 4.745793468226650e-001	 1.396567020795728e+000	 4.216828808829338e+000
 4.608552552931485e-001	 1.401155749255452e+000	 4.075285153208538e+000
 4.471189534050329e-001	 1.405599388697018e+000	 3.942467654163672e+000
 4.333726081190836e-001	 1.409898288007507e+000	 3.818483328781050e+000
 4.196183689097904e-001	 1.414052836516859e+000	 3.703414885949423e+000
 4.058583668939629e-001	 1.418063463319586e+000	 3.597320426464114e+000
 5.521420643314210e-001	 1.394682451589383e+000	 5.223064578764532e+000
 5.382810600734966e-001	 1.400090532911170e+000	 5.035853561133951e+000
 5.243963861452564e-001	 1.405349931577071e+000	 4.855843088550314e+000
 5.104903209545467e-001	 1.410460787190097e+000	 4.683278416954797e+000
 4.965651299408992e-001	 1.415423283586218e+000	 4.518382817080612e+000
 4.826230645635711e-001	 1.420237648262862e+000	 4.361356915065575e+000
 4.686663613134736e-001	 1.424904151781651e+000	 4.212378094127219e+000
 4.546972407496676e-001	 1.429423107146426e+000	 4.071599957958458e+000
 4.407179065610664e-001	 1.433794869157610e+000	 3.939151856306062e+000
 4.267305446539296e-001	 1.438019833743952e+000	 3.815138473001299e+000
 4.127373222656903e-001	 1.442098437272754e+000	 3.699639476521746e+000
 3.439477685711992e-001	 1.201748697718857e+000	 1.739897651116769e+000
 3.322836559344022e-001	 1.205025963190290e+000	 1.608348169880235e+000
 3.206182221117185e-001	 1.208182087106841e+000	 1.483627796399934e+000
 3.089532222566899e-001	 1.211217530589606e+000	 1.365714400027341e+000
 2.972903932386897e-001	 1.214132785997952e+000	 1.254584163892290e+000
 2.856314530195621e-001	 1.216928376278658e+000	 1.150211717499883e+000
 2.739781000540936e-001	 1.219604854302598e+000	 1.052570264420899e+000
 2.623320127144961e-001	 1.222162802189878e+000	 9.616317049461002e-001
 2.506948487390460e-001	 1.224602830624363e+000	 8.773667535937598e-001
 2.390682447049865e-001	 1.226925578158476e+000	 7.997450513835430e-001
 2.274538155257646e-001	 1.229131710509183e+000	 7.287352728081928e-001
 3.508267239383701e-001	 1.225783671676468e+000	 1.865145508411254e+000
 3.389293290488262e-001	 1.229126482457096e+000	 1.708093731402559e+000
 3.270305865497554e-001	 1.232345728851775e+000	 1.556846128824979e+000
 3.151322866977697e-001	 1.235441881204021e+000	 1.411388482550580e+000
 3.032362010996294e-001	 1.238415441720392e+000	 1.271705709701317e+000
 2.913440820764148e-001	 1.241266943806600e+000	 1.137781980586038e+000
 2.794576620520075e-001	 1.243996951390936e+000	 1.009600830775908e+000
 2.675786529660631e-001	 1.246606058235910e+000	 8.871452672289976e-001
 2.557087457116227e-001	 1.249094887239062e+000	 7.703978683965652e-001
 2.438496095974737e-001	 1.251464089723864e+000	 6.919029421476025e-001
 2.320028918353312e-001	 1.253714344721621e+000	 6.414615233663766e-001
 3.577056793060472e-001	 1.249818645633586e+000	 1.973840419720161e+000
 3.455750021638407e-001	 1.253227001723497e+000	 1.830376718054718e+000
 3.334429509884362e-001	 1.256509370596373e+000	 1.699447941439926e+000
 3.213113511395162e-001	 1.259666231818150e+000	 1.578931155953343e+000
 3.091820089612280e-001	 1.262698097442573e+000	 1.468687716091840e+000
 2.970567111338883e-001	 1.265605511334292e+000	 1.368559317713618e+000
 2.849372240504742e-001	 1.268389048479013e+000	 1.278368194227576e+000
 2.728252932180850e-001	 1.271049314281647e+000	 1.197917350293531e+000
 2.607226426845268e-001	 1.273586943853415e+000	 1.126990831941855e+000
 2.486309744901316e-001	 1.276002601288834e+000	 1.065354031944222e+000
 2.365519681448832e-001	 1.278296978933551e+000	 1.012754029194066e+000
 3.645846346742306e-001	 1.273853619590210e+000	 2.316773031641628e+000
 3.522206752794460e-001	 1.277327520989495e+000	 2.173821113921031e+000
 3.398553154277613e-001	 1.280673012340635e+000	 2.041285875446411e+000
 3.274904155819297e-001	 1.283890582431992e+000	 1.919067336950471e+000
 3.151278168234856e-001	 1.286980753164496e+000	 1.807044907599035e+000
 3.027693401919827e-001	 1.289944078861733e+000	 1.705077517967288e+000
 2.904167860494936e-001	 1.292781145566826e+000	 1.613003794033590e+000
 2.780719334705617e-001	 1.295492570327091e+000	 1.530642271173103e+000
 2.657365396577585e-001	 1.298079000467422e+000	 1.457791647043332e+000
 2.534123393829606e-001	 1.300541112853388e+000	 1.394231072168815e+000
 2.411010444544205e-001	 1.302879613144973e+000	 1.339720476953066e+000
 3.714635900429202e-001	 1.297888593546341e+000	 2.620321164287677e+000
 3.588663483956419e-001	 1.301428040255088e+000	 2.475483308008016e+000
 3.462676798677306e-001	 1.304836654084563e+000	 2.341009011735284e+000
 3.336694800250099e-001	 1.308114933045548e+000	 2.216818183247049e+000
 3.210736246864022e-001	 1.311263408886161e+000	 2.102809246207676e+000
 3.084819692506980e-001	 1.314282646388924e+000	 1.998859247913531e+000
 2.958963480490659e-001	 1.317173242654377e+000	 1.904824010699032e+000
 2.833185737234933e-001	 1.319935826372240e+000	 1.820538325972768e+000
 2.707504366313177e-001	 1.322571057081083e+000	 1.745816189756053e+000
 2.581937042759604e-001	 1.325079624417525e+000	 1.680451078504127e+000
 2.456501207639431e-001	 1.327462247355889e+000	 1.624216263904538e+000
 3.783425454121162e-001	 1.321923567501977e+000	 2.884842948690160e+000
 3.655120215124286e-001	 1.325528559520277e+000	 2.737669201281936e+000
 3.526800443083439e-001	 1.329000295828156e+000	 2.600866213268334e+000
 3.398485444687569e-001	 1.332339283658817e+000	 2.474374872218843e+000
 3.270194325499777e-001	 1.335546064607567e+000	 2.358113630931931e+000
 3.141945983100343e-001	 1.338621213915864e+000	 2.251978589364752e+000
 3.013759100491909e-001	 1.341565339741666e+000	 2.155843623012865e+000
 2.885652139768799e-001	 1.344379082417094e+000	 2.069560556693276e+000
 2.757643336052044e-001	 1.347063113694399e+000	 1.992959382581547e+000
 2.629750691691311e-001	 1.349618135981245e+000	 1.925848521252706e+000
 2.501991970734510e-001	 1.352044881566296e+000	 1.868015124386107e+000
 3.852215007818186e-001	 1.345958541457120e+000	 3.112622629455523e+000
 3.721576946298060e-001	 1.349629078785063e+000	 2.962606612193825e+000
 3.590924087496013e-001	 1.353163937571413e+000	 2.823028272229829e+000
 3.460276089131706e-001	 1.356563634271800e+000	 2.693850624498762e+000
 3.329652404142124e-001	 1.359828720328715e+000	 2.575013219524378e+000
 3.199072273699914e-001	 1.362959781442554e+000	 2.466432198900957e+000
 3.068554720498686e-001	 1.365957436828692e+000	 2.368000400161923e+000
 2.938118542307213e-001	 1.368822338461654e+000	 2.279587509971599e+000
 2.807782305794186e-001	 1.371555170307368e+000	 2.201040264465906e+000
 2.677564340624727e-001	 1.374156647544548e+000	 2.132182695460172e+000
 2.547482733829443e-001	 1.376627515776197e+000	 2.072816421144226e+000
 3.921004561520270e-001	 1.369993515411769e+000	 3.305873301363048e+000
 3.788033677477742e-001	 1.373729598049444e+000	 3.152452126023114e+000
 3.655047731915029e-001	 1.377327579314336e+000	 3.009594758340522e+000
 3.522066733582515e-001	 1.380787984884496e+000	 2.877287542287565e+000
 3.389110482791060e-001	 1.384111376049604e+000	 2.755492247884960e+000
 3.256198564305694e-001	 1.387298348968993e+000	 2.644146099556849e+000
 3.123350340510992e-001	 1.390349533915456e+000	 2.543161856959089e+000
 2.990584944850177e-001	 1.393265594505920e+000	 2.452427947200203e+000
 2.857921275539603e-001	 1.396047226919992e+000	 2.371808647252193e+000
 2.725377989559853e-001	 1.398695159107434e+000	 2.301144315235844e+000
 2.592973496924230e-001	 1.401210149985591e+000	 2.240251669157734e+000
 3.989794115227419e-001	 1.394028489365924e+000	 3.466743042970645e+000
 3.854490408663330e-001	 1.397830117313421e+000	 3.309297235668363e+000
 3.719171376340487e-001	 1.401491221056923e+000	 3.162600158725214e+000
 3.583857378039989e-001	 1.405012335496905e+000	 3.026662740253090e+000
 3.448568561446585e-001	 1.408394031770236e+000	 2.901470144013766e+000
 3.313324854917683e-001	 1.411636916495181e+000	 2.786981769920383e+000
 3.178145960528824e-001	 1.414741631001957e+000	 2.683131310254797e+000
 3.043051347397689e-001	 1.417708850549892e+000	 2.589826860496496e+000
 2.908060245288295e-001	 1.420539283532269e+000	 2.506951083533913e+000
 2.773191638496687e-001	 1.423233670669902e+000	 2.434361425902406e+000
 2.638464260018870e-001	 1.425792784194477e+000	 2.371890384583465e+000
 4.058583668939629e-001	 1.418063463319586e+000	 3.597320426464114e+000
 3.920947139854824e-001	 1.421930636576994e+000	 3.435173857950630e+000
 3.783295020772386e-001	 1.425654862799175e+000	 3.284019393386891e+000
 3.645648022504132e-001	 1.429236686109027e+000	 3.143893852948620e+000
 3.508026640108701e-001	 1.432676687490608e+000	 3.014807020205863e+000
 3.370451145535881e-001	 1.435975484021120e+000	 2.896741614001358e+000
 3.232941580552187e-001	 1.439133728088196e+000	 2.789653319442124e+000
 3.095517749949749e-001	 1.442152106593569e+000	 2.693470876878650e+000
 2.958199215040263e-001	 1.445031340144201e+000	 2.608096227608249e+000
 2.821005287435230e-001	 1.447772182231954e+000	 2.533404714909701e+000
 2.683955023113362e-001	 1.450375418402855e+000	 2.469245338893315e+000
 4.127373222656903e-001	 1.442098437272754e+000	 3.699639476521746e+000
 3.987403871052226e-001	 1.446031155840163e+000	 3.532059298286733e+000
 3.847418665210725e-001	 1.449818504541092e+000	 3.375772779133679e+000
 3.707438666974943e-001	 1.453461036720863e+000	 3.230843991488760e+000
 3.567484718777406e-001	 1.456959343210722e+000	 3.097308616026908e+000
 3.427577436160288e-001	 1.460314051546808e+000	 2.975173884112668e+000
 3.287737200581075e-001	 1.463525825174173e+000	 2.864418582911990e+000
 3.147984152506359e-001	 1.466595362636951e+000	 2.764993122023744e+000
 3.008338184795505e-001	 1.469523396755786e+000	 2.676819660334211e+000
 2.868818936375482e-001	 1.472310693793589e+000	 2.599792291657690e+000
 2.729445786207708e-001	 1.474958052610726e+000	 2.533777287598027e+000
 2.274538155257646e-001	 1.229131710509183e+000	 7.287352728081928e-001
 2.158531539728275e-001	 1.231221919845279e+000	 6.217048669501142e-001
 2.042678302214702e-001	 1.233196924069199e+000	 5.220169613296262e-001
 1.926993914209578e-001	 1.235057466092679e+000	 4.295963416417298e-001
 1.811493612893029e-001	 1.236804313105527e+000	 3.443677099254138e-001
 1.696192397320706e-001	 1.238438255840743e+000	 2.662557926754789e-001
 1.581105024852513e-001	 1.239960107836013e+000	 1.951854422881496e-001
 1.466246007820464e-001	 1.241370704692402e+000	 1.310817318954272e-001
 1.351629610433849e-001	 1.242670903331058e+000	 7.387004365866499e-002
 1.237269845919663e-001	 1.243861581248700e+000	 2.347615060954676e-002
 1.123180473895901e-001	 1.244943635772666e+000	-2.017370785869595e-002
 2.320028918353312e-001	 1.253714344721621e+000	 6.414615233663766e-001
 2.201702170519754e-001	 1.255846358244472e+000	 5.545273036164554e-001
 2.083531868261118e-001	 1.257860862552874e+000	 4.768136936904028e-001
 1.965533792499917e-001	 1.259758615416796e+000	 4.079754930011235e-001
 1.847723485159892e-001	 1.261540399369842e+000	 3.476520864461482e-001
 1.730116245277816e-001	 1.263207020959674e+000	 2.954679544266859e-001
 1.612727125360804e-001	 1.264759309994731e+000	 2.510332052108111e-001
 1.495570927987517e-001	 1.266198118788100e+000	 2.139441281144482e-001
 1.378662202651445e-001	 1.267524321399351e+000	 1.837837659520504e-001
 1.262015242844133e-001	 1.268738812875140e+000	 1.601225051956393e-001
 1.145644083375946e-001	 1.269842508489349e+000	 1.425186822696915e-001
 2.365519681448832e-001	 1.278296978933551e+000	 1.012754029194066e+000
 2.244872801309242e-001	 1.280470796643069e+000	 9.217386042351203e-001
 2.124385434304010e-001	 1.282524801035884e+000	 8.398283094403090e-001
 2.004073670785509e-001	 1.284459764740199e+000	 7.666992240477879e-001
 1.883953357421090e-001	 1.286276485633416e+000	 7.020110232956063e-001
 1.764040093228645e-001	 1.287975786077856e+000	 6.454074785793871e-001
 1.644349225862496e-001	 1.289558512152712e+000	 5.965169823206794e-001
 1.524895848147954e-001	 1.291025532883092e+000	 5.549530959611182e-001
 1.405694794862699e-001	 1.292377739466991e+000	 5.203151194745133e-001
 1.286760639762829e-001	 1.293616044500996e+000	 4.921886807684472e-001
 1.168107692851074e-001	 1.294741381205540e+000	 4.701463433354131e-001
 2.411010444544205e-001	 1.302879613144973e+000	 1.339720476953066e+000
 2.288043432096740e-001	 1.305095235041069e+000	 1.245714525242788e+000
 2.165239000343380e-001	 1.307188739518228e+000	 1.160767579151397e+000
 2.042613549066354e-001	 1.309160914062888e+000	 1.084576879402966e+000
 1.920183229676621e-001	 1.311012571896248e+000	 1.016822201943961e+000
 1.797963941173191e-001	 1.312744551195289e+000	 9.571663492168031e-001
 1.675971326357591e-001	 1.314357714309955e+000	 9.052556686091697e-001
 1.554220768301773e-001	 1.315852946977379e+000	 8.607205964333348e-001
 1.432727387067614e-001	 1.317231157533977e+000	 8.231762257603864e-001
 1.311506036675752e-001	 1.318493276126271e+000	 7.922228964125195e-001
 1.190571302321284e-001	 1.319640253921239e+000	 7.674468053981932e-001
 2.456501207639431e-001	 1.327462247355889e+000	 1.624216263904538e+000
 2.331214062882249e-001	 1.329719673438472e+000	 1.528205461579612e+000
 2.206092566379227e-001	 1.331852677999906e+000	 1.441276538302826e+000
 2.081153427342451e-001	 1.333862063384863e+000	 1.363147843049337e+000
 1.956413101926485e-001	 1.335748658158338e+000	 1.293519126563457e+000
 1.831887789111455e-001	 1.337513316311971e+000	 1.232072024690612e+000
 1.707593426846086e-001	 1.339156916466462e+000	 1.178470571452636e+000
 1.583545688448976e-001	 1.340680361070961e+000	 1.132361740154578e+000
 1.459759979266187e-001	 1.342084575600310e+000	 1.093376010777727e+000
 1.336251433582900e-001	 1.343370507750963e+000	 1.061127961886714e+000
 1.213034911786578e-001	 1.344539126636447e+000	 1.035216885258175e+000
 2.501991970734510e-001	 1.352044881566296e+000	 1.868015124386107e+000
 2.374384693665767e-001	 1.354344111835278e+000	 1.770884261669412e+000
 2.246946132411551e-001	 1.356516616480918e+000	 1.682926899170064e+000
 2.119693305613802e-001	 1.358563212706124e+000	 1.603882503298667e+000
 1.992642974170683e-001	 1.360484744419687e+000	 1.533470734701677e+000
 1.865811637043437e-001	 1.362282081427904e+000	 1.471391924561698e+000
 1.739215527327984e-001	 1.363956118622231e+000	 1.417327583314641e+000
 1.612870608589561e-001	 1.365507775163839e+000	 1.370940940000497e+000
 1.486792571458419e-001	 1.366937993665990e+000	 1.331877510428144e+000
 1.360996830484276e-001	 1.368247739375074e+000	 1.299765692302253e+000
 1.235498521246955e-001	 1.369437999351162e+000	 1.274217385436864e+000
 2.547482733829443e-001	 1.376627515776197e+000	 2.072816421144226e+000
 2.417555324447295e-001	 1.378968550231487e+000	 1.975353151215987e+000
 2.287799698440352e-001	 1.381180554961264e+000	 1.887223597539190e+000
 2.158233183880405e-001	 1.383264362026671e+000	 1.808188413119265e+000
 2.028872846409215e-001	 1.385220830680293e+000	 1.737987162158780e+000
 1.899735484969136e-001	 1.387050846543088e+000	 1.676338790206845e+000
 1.770837627803283e-001	 1.388755320777263e+000	 1.622942129506639e+000
 1.642195528723530e-001	 1.390335189256011e+000	 1.577476437683785e+000
 1.513825163644310e-001	 1.391791411731016e+000	 1.539601967874485e+000
 1.385742227379879e-001	 1.393124970998602e+000	 1.508960568359260e+000
 1.257962130702414e-001	 1.394336872065386e+000	 1.485176309737921e+000
 2.592973496924230e-001	 1.401210149985591e+000	 2.240251669157734e+000
 2.460725955226833e-001	 1.403592988627099e+000	 2.143149928178262e+000
 2.328653264465631e-001	 1.405844493440945e+000	 2.055610650293790e+000
 2.196773062142260e-001	 1.407965511346504e+000	 1.977415802008347e+000
 2.065102718642081e-001	 1.409956916940157e+000	 1.908324901035546e+000
 1.933659332888553e-001	 1.411819611657522e+000	 1.848075481150145e+000
 1.802459728271983e-001	 1.413554522931558e+000	 1.796383595130764e+000
 1.671520448850882e-001	 1.415162603347478e+000	 1.752944353855997e+000
 1.540857755823860e-001	 1.416644829795389e+000	 1.717432499570354e+000
 1.410487624269708e-001	 1.418002202621548e+000	 1.689503011294984e+000
 1.280425740152957e-001	 1.419235744779119e+000	 1.668791740327515e+000
 2.638464260018870e-001	 1.425792784194477e+000	 2.371890384583465e+000
 2.503896586004381e-001	 1.428217427022114e+000	 2.275753516886020e+000
 2.369506830487388e-001	 1.430508431919961e+000	 2.189476407044280e+000
 2.235312940399369e-001	 1.432666660665623e+000	 2.112862517670399e+000
 2.101332590869281e-001	 1.434693003199280e+000	 2.045691424189980e+000
 1.967583180801687e-001	 1.436588376771206e+000	 1.987719275223107e+000
 1.834081828734086e-001	 1.438353725085116e+000	 1.938679294063238e+000
 1.700845368971617e-001	 1.439990017438240e+000	 1.898282319233489e+000
 1.567890347997069e-001	 1.441498247859109e+000	 1.866217382045478e+000
 1.435233021153763e-001	 1.442879434243912e+000	 1.842152319044523e+000
 1.302889349598582e-001	 1.444134617492359e+000	 1.825734417186013e+000
 2.683955023113362e-001	 1.450375418402855e+000	 2.469245338893315e+000
 2.547067216779939e-001	 1.452841865416533e+000	 2.374588957330612e+000
 2.410360396505621e-001	 1.455172370398310e+000	 2.290158267693449e+000
 2.273852818651730e-001	 1.457367809984029e+000	 2.215778465152113e+000
 2.137562463090814e-001	 1.459429089457661e+000	 2.151249339410484e+000
 2.001507028708540e-001	 1.461357141884142e+000	 2.096345731419443e+000
 1.865703929189590e-001	 1.463152927237936e+000	 2.050818034312856e+000
 1.730170289085735e-001	 1.464817431528297e+000	 2.014392736456412e+000
 1.594922940163937e-001	 1.466351665922175e+000	 1.986773004441581e+000
 1.459978418032046e-001	 1.467756665865694e+000	 1.967639303808615e+000
 1.325352959039290e-001	 1.469033490205109e+000	 1.956650055242279e+000
 2.729445786207708e-001	 1.474958052610726e+000	 2.533777287598027e+000
 2.590237847553507e-001	 1.477466303810354e+000	 2.441031895526269e+000
 2.451213962520330e-001	 1.479836308875993e+000	 2.358946928245135e+000
 2.312392696899343e-001	 1.482068959301720e+000	 2.287369602063783e+000
 2.173792335306681e-001	 1.484165175715300e+000	 2.226120128171590e+000
 2.035430876609109e-001	 1.486125906996327e+000	 2.174992166465321e+000
 1.897326029638495e-001	 1.487952129390019e+000	 2.133753326842870e+000
 1.759495209193236e-001	 1.489644845617649e+000	 2.102145715761627e+000
 1.621955532324464e-001	 1.491205083984588e+000	 2.079886525794665e+000
 1.484723814904554e-001	 1.492633897486894e+000	 2.066668665865087e+000
 1.347816568475081e-001	 1.493932362917365e+000	 2.062161429794532e+000
 1.123180473895901e-001	 1.244943635772666e+000	-2.017370785869595e-002
 1.009374997969171e-001	 1.245917983316647e+000	-8.528262704191980e-002
 8.958666635718569e-002	 1.246785558636688e+000	-1.440254266921460e-001
 7.826684560235818e-002	 1.247547314088946e+000	-1.964945820486146e-001
 6.697930988018169e-002	 1.248204218890639e+000	-2.427808453495195e-001
 5.572530520361981e-002	 1.248757258383706e+000	-2.829732073089410e-001
 4.450605112168756e-002	 1.249207433302222e+000	-3.171588650998358e-001
 3.332274061130324e-002	 1.249555759044168e+000	-3.454231966177769e-001
 2.217653998975738e-002	 1.249803264948180e+000	-3.678497407937877e-001
 1.106858884738389e-002	 1.249950993575827e+000	-3.845201837174026e-001
 0.000000000000000e+000	 1.250000000000000e+000	-3.955143503260762e-001
 1.145644083375946e-001	 1.269842508489349e+000	 1.425186822696915e-001
 1.029562497926623e-001	 1.270836342983972e+000	 1.006592108192426e-001
 9.137839968381835e-002	 1.271721269810203e+000	 6.427994050653887e-002
 7.983218251366320e-002	 1.272498260371322e+000	 3.288528403107486e-002
 6.831889607689809e-002	 1.273168303268888e+000	 5.970727646497718e-003
 5.683981130674506e-002	 1.273732403551682e+000	-1.697650131585871e-002
 4.539617214319856e-002	 1.274191581968459e+000	-3.647676097324561e-002
 3.398919542271439e-002	 1.274546874225160e+000	-5.305731695359427e-002
 2.262007078892794e-002	 1.274799330247191e+000	-6.725166145507384e-002
 1.128996062397893e-002	 1.274950013447355e+000	-7.959883073278162e-002
 0.000000000000000e+000	 1.275000000000000e+000	-9.064272241141527e-002
 1.168107692851074e-001	 1.294741381205540e+000	 4.701463433354131e-001
 1.049749997880107e-001	 1.295754702650900e+000	 4.225721923117830e-001
 9.317013301013843e-002	 1.296656980983405e+000	 3.810790390103520e-001
 8.139751942472966e-002	 1.297449206653458e+000	 3.451815448379200e-001
 6.965848227343983e-002	 1.298132387646963e+000	 3.143840197413823e-001
 5.795431740974947e-002	 1.298707548719538e+000	 2.881811115738169e-001
 4.628629316463252e-002	 1.299175730634619e+000	 2.660585032681859e-001
 3.465565023408233e-002	 1.299537989406108e+000	 2.474936162237927e-001
 2.306360158807937e-002	 1.299795395546184e+000	 2.319563183391073e-001
 1.151133240056920e-002	 1.299949033318879e+000	 2.189096351517796e-001
 0.000000000000000e+000	 1.300000000000000e+000	 2.078104625822743e-001
 1.190571302321284e-001	 1.319640253921239e+000	 7.674468053981932e-001
 1.069937497829620e-001	 1.320673062317432e+000	 7.163191935366428e-001
 9.496186633614591e-002	 1.321592692156296e+000	 6.719166826659502e-001
 8.296285633555761e-002	 1.322400152935356e+000	 6.337634826525528e-001
 7.099806846980696e-002	 1.323096472024863e+000	 6.013719800039143e-001
 5.906882351263302e-002	 1.323682693887272e+000	 5.742434505638114e-001
 4.717641418598938e-002	 1.324159879300702e+000	 5.518687819192419e-001
 3.532210504540707e-002	 1.324529104587013e+000	 5.337292038139657e-001
 2.350713238721168e-002	 1.324791460845157e+000	 5.192970248900261e-001
 1.173270417715471e-002	 1.324948053190398e+000	 5.080363741074555e-001
 0.000000000000000e+000	 1.325000000000000e+000	 4.994039452268544e-001
 1.213034911786578e-001	 1.344539126636447e+000	 1.035216885258175e+000
 1.090124997775164e-001	 1.345591421983566e+000	 9.825695125881500e-001
 9.675359966184079e-002	 1.346528403328873e+000	 9.373360897893686e-001
 8.452819324614709e-002	 1.347351099217016e+000	 8.990497207919486e-001
 7.233765466599945e-002	 1.348060556402588e+000	 8.672301651921333e-001
 6.018332961539571e-002	 1.348657839054886e+000	 8.413845757719483e-001
 4.806653520726916e-002	 1.349144027966708e+000	 8.210082476855218e-001
 3.598855985668861e-002	 1.349520219767875e+000	 8.055853774917290e-001
 2.395066318632485e-002	 1.349787526144111e+000	 7.945898302386826e-001
 1.195407595373545e-002	 1.349947073061912e+000	 7.874859128352848e-001
 0.000000000000000e+000	 1.350000000000000e+000	 7.837291519776357e-001
 1.235498521246955e-001	 1.369437999351162e+000	 1.274217385436864e+000
 1.110312497716739e-001	 1.370509781649304e+000	 1.221963074154504e+000
 9.854533298722308e-002	 1.371464114501138e+000	 1.177857737470751e+000
 8.609353015649802e-002	 1.372302045498437e+000	 1.141442762347685e+000
 7.367724086201732e-002	 1.373024640780139e+000	 1.112244619216467e+000
 6.129783571803756e-002	 1.373632984222379e+000	 1.089775625826842e+000
 4.895665622847188e-002	 1.374128176632637e+000	 1.073534724771843e+000
 3.665501466792696e-002	 1.374511334948694e+000	 1.063008272747278e+000
 2.439419398541888e-002	 1.374783591443046e+000	 1.057670839631756e+000
 1.217544773031143e-002	 1.374946092933421e+000	 1.056986015501770e+000
 0.000000000000000e+000	 1.375000000000000e+000	 1.060407223729609e+000
 1.257962130702414e-001	 1.394336872065386e+000	 1.485176309737921e+000
 1.130499997654344e-001	 1.395428141314644e+000	 1.435113052143334e+000
 1.003370663122928e-001	 1.396399825673090e+000	 1.393981392041045e+000
 8.765886706661044e-002	 1.397252991779620e+000	 1.361330429491851e+000
 7.501682705786056e-002	 1.397988725157515e+000	 1.336692722501087e+000
 6.241234182055857e-002	 1.398608129389751e+000	 1.319585078714834e+000
 4.984677724959753e-002	 1.399112325298489e+000	 1.309509362855239e+000
 3.732146947912210e-002	 1.399502450129469e+000	 1.305953317831445e+000
 2.483772478449378e-002	 1.399779656741962e+000	 1.308391397485787e+000
 1.239681950688264e-002	 1.399945112804926e+000	 1.316285608965262e+000
 0.000000000000000e+000	 1.400000000000000e+000	 1.329086362742259e+000
 1.280425740152957e-001	 1.419235744779119e+000	 1.668791740327515e+000
 1.150687497587980e-001	 1.420346500979588e+000	 1.622608216241461e+000
 1.021287996370500e-001	 1.421335536844730e+000	 1.586187925805153e+000
 8.922420397648437e-002	 1.422203938060564e+000	 1.559087151276913e+000
 7.635641325352915e-002	 1.422952809534717e+000	 1.540843951939032e+000
 6.352684792295871e-002	 1.423583274557002e+000	 1.530978985169779e+000
 5.073689827064610e-002	 1.424096473964263e+000	 1.528996345376989e+000
 3.798792429027404e-002	 1.424493565310201e+000	 1.534384418601051e+000
 2.528125558354956e-002	 1.424775722040858e+000	 1.546616750617455e+000
 1.261819128344908e-002	 1.424944132676426e+000	 1.565152926399517e+000
 0.000000000000000e+000	 1.425000000000000e+000	 1.589439458835869e+000
 1.302889349598582e-001	 1.444134617492359e+000	 1.825734417186013e+000
 1.170874997517646e-001	 1.445264860644134e+000	 1.785015035726649e+000
 1.039205329614944e-001	 1.446271248016057e+000	 1.754940945837356e+000
 9.078954088611978e-002	 1.447154884341270e+000	 1.735075118214983e+000
 7.769599944902313e-002	 1.447916893911744e+000	 1.724960562230781e+000
 6.464135402523800e-002	 1.448558419724132e+000	 1.724121177918989e+000
 5.162701929161759e-002	 1.449080622629961e+000	 1.732062628011453e+000
 3.865437910138279e-002	 1.449484680490890e+000	 1.748273227691037e+000
 2.572478638258620e-002	 1.449771787339736e+000	 1.772224849761157e+000
 1.283956306001076e-002	 1.449943152547921e+000	 1.803373842955993e+000
 0.000000000000000e+000	 1.450000000000000e+000	 1.841161961153297e+000
 1.325352959039290e-001	 1.469033490205109e+000	 1.956650055242279e+000
 1.191062497443342e-001	 1.470183220308284e+000	 1.922879569333546e+000
 1.057122662856264e-001	 1.471206959187071e+000	 1.900688257136433e+000
 9.235487779551667e-002	 1.472105830621737e+000	 1.889645319442330e+000
 7.903558564434246e-002	 1.472880978288596e+000	 1.889298197934694e+000
 6.575586012739645e-002	 1.473533564891142e+000	 1.899173459649850e+000
 5.251714031251203e-002	 1.474064771295581e+000	 1.918777703730591e+000
 3.932083391244833e-002	 1.474475795671536e+000	 1.947598488007547e+000
 2.616831718160371e-002	 1.474767852638594e+000	 1.985105272965545e+000
 1.306093483656768e-002	 1.474942172419411e+000	 2.030750380681109e+000
 0.000000000000000e+000	 1.475000000000000e+000	 2.083969966353272e+000
 1.347816568475081e-001	 1.493932362917365e+000	 2.062161429794532e+000
 1.211249997365069e-001	 1.495101579972037e+000	 2.036729166131426e+000
 1.075039996094458e-001	 1.496142670357773e+000	 2.023863179465325e+000
 9.392021470467503e-002	 1.497056776901965e+000	 2.023138476167330e+000
 8.037517183948716e-002	 1.497845062665274e+000	 2.034106444312183e+000
 6.687036622943404e-002	 1.498508710058030e+000	 2.056295772179780e+000
 5.340726133332937e-002	 1.499048919961125e+000	 2.089213391362836e+000
 3.998728872347066e-002	 1.499466910852138e+000	 2.132345441872112e+000
 2.661184798060209e-002	 1.499763917937434e+000	 2.185158256650880e+000
 1.328230661311983e-002	 1.499941192290897e+000	 2.247099362941752e+000
 0.000000000000000e+000	 1.500000000000000e+000	 2.317598497983739e+000
 1.500000000000000e+000	 0.000000000000000e+000	 1.529960583867868e+001
 1.499941192290897e+000	 1.328230661311987e-002	 1.535919657728032e+001
 1.499763917937433e+000	 2.661184798060218e-002	 1.540950515875726e+001
 1.499466910852138e+000	 3.998728872347057e-002	 1.545032914133862e+001
 1.499048919961125e+000	 5.340726133332932e-002	 1.548147340813960e+001
 1.498508710058030e+000	 6.687036622943404e-002	 1.550275014707680e+001
 1.497845062665274e+000	 8.037517183948720e-002	 1.551397880809816e+001
 1.497056776901965e+000	 9.392021470467514e-002	 1.551498603728626e+001
 1.496142670357773e+000	 1.075039996094457e-001	 1.550560558745228e+001
 1.495101579972036e+000	 1.211249997365068e-001	 1.548567820490088e+001
 1.493932362917365e+000	 1.347816568475081e-001	 1.545505149211226e+001
 1.525000000000000e+000	 0.000000000000000e+000	 1.504492088310804e+001
 1.524940212162383e+000	 1.350367838967202e-002	 1.510306861232317e+001
 1.524759983236273e+000	 2.705537877960056e-002	 1.515175108309578e+001
 1.524458026032741e+000	 4.065374353449290e-002	 1.519079161128061e+001
 1.524033068626668e+000	 5.429738235414668e-002	 1.522002158296948e+001
 1.523483855224919e+000	 6.798487233147164e-002	 1.523928040694695e+001
 1.522809147041952e+000	 8.171475803463191e-002	 1.524841544219519e+001
 1.522007723182194e+000	 9.548555161383354e-002	 1.524728189999195e+001
 1.521078381528475e+000	 1.092957329332650e-001	 1.523574272021022e+001
 1.520019939635789e+000	 1.231437497286795e-001	 1.521366842149598e+001
 1.518831235629623e+000	 1.370280177910873e-001	 1.518093692507294e+001
 1.550000000000000e+000	 0.000000000000000e+000	 1.481165579639310e+001
 1.549939232033873e+000	 1.372505016622894e-002	 1.486839457012821e+001
 1.549756048535131e+000	 2.749890957861807e-002	 1.491545198205271e+001
 1.549449141213386e+000	 4.132019834555844e-002	 1.495267762185977e+001
 1.549017217292289e+000	 5.518750337504110e-002	 1.497992993221062e+001
 1.548459000391928e+000	 6.909937843363008e-002	 1.499707613338992e+001
 1.547773231418804e+000	 8.305434422995126e-002	 1.500399212066927e+001
 1.546958669462661e+000	 9.705088852323041e-002	 1.500056233390737e+001
 1.546014092699489e+000	 1.110874662573969e-001	 1.498667959898499e+001
 1.544938299299939e+000	 1.251624997212492e-001	 1.496224494074653e+001
 1.543730108342372e+000	 1.392743787351581e-001	 1.492716736719907e+001
 1.575000000000000e+000	 0.000000000000000e+000	 1.460058344880341e+001
 1.574938251905368e+000	 1.394642194279062e-002	 1.465584340885219e+001
 1.574752113834008e+000	 2.794244037765472e-002	 1.470117300437581e+001
 1.574440256394075e+000	 4.198665315666719e-002	 1.473644866973732e+001
 1.574001365957986e+000	 5.607762439601260e-002	 1.476155651339211e+001
 1.573434145559059e+000	 7.021388453590939e-002	 1.477639221436892e+001
 1.572737315795831e+000	 8.439393042544521e-002	 1.478086088904079e+001
 1.571909615743366e+000	 9.861622543286584e-002	 1.477487692769697e+001
 1.570949803870816e+000	 1.128791995818415e-001	 1.475836380050285e+001
 1.569856658964486e+000	 1.271812497142157e-001	 1.473125383251450e+001
 1.568628981055612e+000	 1.415207396797206e-001	 1.469348794749840e+001
 1.600000000000000e+000	 0.000000000000000e+000	 1.441242840621670e+001
 1.599937271776867e+000	 1.416779371935706e-002	 1.446603856196576e+001
 1.599748179132905e+000	 2.838597117671049e-002	 1.450943651848088e+001
 1.599431371574808e+000	 4.265310796781913e-002	 1.454252617882547e+001
 1.598985514623761e+000	 5.696774541706117e-002	 1.456522198068204e+001
 1.598409290726310e+000	 7.132839063830954e-002	 1.457744876425292e+001
 1.597701400173032e+000	 8.573351662111382e-002	 1.457914160795289e+001
 1.596860562024311e+000	 1.001815623427397e-001	 1.457024563138617e+001
 1.595885515042456e+000	 1.146709329065986e-001	 1.455071576518216e+001
 1.594775018629429e+000	 1.291999997075793e-001	 1.452051648735034e+001
 1.593527853769345e+000	 1.437671006247749e-001	 1.447962152590447e+001
 1.625000000000000e+000	 0.000000000000000e+000	 1.424787064584135e+001
 1.624936291648372e+000	 1.438916549592827e-002	 1.429956144015238e+001
 1.624744244431821e+000	 2.882950197578540e-002	 1.434072540324650e+001
 1.624422486755583e+000	 4.331956277901426e-002	 1.437129458280656e+001
 1.623969663289613e+000	 5.785786643818681e-002	 1.439121246206915e+001
 1.623384435893682e+000	 7.244289674083053e-002	 1.440043379870842e+001
 1.622665484550409e+000	 8.707310281695706e-002	 1.439892442893123e+001
 1.621811508305494e+000	 1.017468992528522e-001	 1.438666103625681e+001
 1.620821226214409e+000	 1.164626662316683e-001	 1.436363088454157e+001
 1.619693378294770e+000	 1.312187497013398e-001	 1.432983151490151e+001
 1.618426726483569e+000	 1.460134615703208e-001	 1.428527040628227e+001
 1.650000000000000e+000	 0.000000000000000e+000	 1.410754893414595e+001
 1.649935311519882e+000	 1.461053727250425e-002	 1.415695461485274e+001
 1.649740309730756e+000	 2.927303277487944e-002	 1.419548603964565e+001
 1.649413601936402e+000	 4.398601759025260e-002	 1.422310412742313e+001
 1.648953811955542e+000	 5.874798745938953e-002	 1.423978217498243e+001
 1.648359581061175e+000	 7.355740284347238e-002	 1.424550566641938e+001
 1.647629568927959e+000	 8.841268901297490e-002	 1.424027204507463e+001
 1.646762454586914e+000	 1.033122361632031e-001	 1.422409044747914e+001
 1.645756937386674e+000	 1.182543995570506e-001	 1.419698139884387e+001
 1.644611737960507e+000	 1.332374996954973e-001	 1.415897646973841e+001
 1.643325599198285e+000	 1.482598225163584e-001	 1.411011789370610e+001
 1.675000000000000e+000	 0.000000000000000e+000	 1.399206390228753e+001
 1.674934331391396e+000	 1.483190904908500e-002	 1.403872471671575e+001
 1.674736375029710e+000	 2.971656357399260e-002	 1.407413103447002e+001
 1.674404717117263e+000	 4.465247240153415e-002	 1.409827342181679e+001
 1.673937960621548e+000	 5.963810848066933e-002	 1.411115580767619e+001
 1.673334726228788e+000	 7.467190894623507e-002	 1.411279526304101e+001
 1.672593653305685e+000	 8.975227520916740e-002	 1.410322174019143e+001
 1.671713400868574e+000	 1.048775730737926e-001	 1.408247777113500e+001
 1.670692648559251e+000	 1.200461328827455e-001	 1.405061812480173e+001
 1.669530097626642e+000	 1.352562496900517e-001	 1.400770942262876e+001
 1.668224471913492e+000	 1.505061834628878e-001	 1.395382971227979e+001
 1.700000000000000e+000	 0.000000000000000e+000	 1.390198085017866e+001
 1.699933351262914e+000	 1.505328082567050e-002	 1.394534507830382e+001
 1.699732440328683e+000	 3.016009437312491e-002	 1.397704170372562e+001
 1.699395832298168e+000	 4.531892721285889e-002	 1.399709176474880e+001
 1.698922109287630e+000	 6.052822950202618e-002	 1.400553069049280e+001
 1.698309871396523e+000	 7.578641504911864e-002	 1.400240804980499e+001
 1.697557737683585e+000	 9.109186140553453e-002	 1.398778725712965e+001
 1.696664347150472e+000	 1.064429099846206e-001	 1.396174523473906e+001
 1.695628359732141e+000	 1.218378662087530e-001	 1.392437203083864e+001
 1.694448457293174e+000	 1.372749996850030e-001	 1.387577039317013e+001
 1.693123344629191e+000	 1.527525444099089e-001	 1.381605529785497e+001
 1.725000000000000e+000	 0.000000000000000e+000	 1.383783230672252e+001
 1.724932371134438e+000	 1.527465260226077e-002	 1.387725814699767e+001
 1.724728505627676e+000	 3.060362517227634e-002	 1.390457034008104e+001
 1.724386947479116e+000	 4.598538202422683e-002	 1.391982126854063e+001
 1.723906257953790e+000	 6.141835052346012e-002	 1.392307877832018e+001
 1.723285016564378e+000	 7.690092115212302e-002	 1.391442589659336e+001
 1.722521822061660e+000	 9.243144760207629e-002	 1.389396050364356e+001
 1.721615293432609e+000	 1.080082468956870e-001	 1.386179495814945e+001
 1.720564070905344e+000	 1.236295995350730e-001	 1.381805567537070e+001
 1.719366816960102e+000	 1.392937496803514e-001	 1.376288265784568e+001
 1.718022217345382e+000	 1.549989053574217e-001	 1.369642897833928e+001
 1.750000000000000e+000	 0.000000000000000e+000	 1.380012037059929e+001
 1.749931391005967e+000	 1.549602437885581e-002	 1.383487769108067e+001
 1.749724570926687e+000	 3.104715597144690e-002	 1.385704228596301e+001
 1.749378062660108e+000	 4.665183683563796e-002	 1.386669880096266e+001
 1.748890406620027e+000	 6.230847154497113e-002	 1.386394846312415e+001
 1.748260161732354e+000	 7.801542725524827e-002	 1.384890876703520e+001
 1.747485906439909e+000	 9.377103379879266e-002	 1.382171311204338e+001
 1.746566239714984e+000	 1.095735838069920e-001	 1.378251038982889e+001
 1.745499782078859e+000	 1.254213328617057e-001	 1.373146452180711e+001
 1.744285176627427e+000	 1.413124996760966e-001	 1.366875394596090e+001
 1.742921090062065e+000	 1.572452663054261e-001	 1.359457105283516e+001
 1.493932362917365e+000	 1.347816568475081e-001	 1.545505149211226e+001
 1.492633897486894e+000	 1.484723814904555e-001	 1.550423105797997e+001
 1.491205083984588e+000	 1.621955532324464e-001	 1.554396181359802e+001
 1.489644845617648e+000	 1.759495209193235e-001	 1.557412735758229e+001
 1.487952129390018e+000	 1.897326029638494e-001	 1.559461654508970e+001
 1.486125906996327e+000	 2.035430876609109e-001	 1.560532319197313e+001
 1.484165175715299e+000	 2.173792335306682e-001	 1.560614575492101e+001
 1.482068959301720e+000	 2.312392696899344e-001	 1.559698698793836e+001
 1.479836308875994e+000	 2.451213962520329e-001	 1.557775357561683e+001
 1.477466303810354e+000	 2.590237847553505e-001	 1.554835574373511e+001
 1.474958052610726e+000	 2.729445786207708e-001	 1.550870684782458e+001
 1.518831235629623e+000	 1.370280177910873e-001	 1.518093692507294e+001
 1.517511129108093e+000	 1.509469211777063e-001	 1.522937871585171e+001
 1.516058502047001e+000	 1.648988124484991e-001	 1.526849239671292e+001
 1.514472259707000e+000	 1.788820129300736e-001	 1.529820195732942e+001
 1.512751331542102e+000	 1.928948130087400e-001	 1.531843715640746e+001
 1.510894672108513e+000	 2.069354724509679e-001	 1.532913317023346e+001
 1.508901261972938e+000	 2.210022207522549e-001	 1.533023021475958e+001
 1.506770108619411e+000	 2.350932575146958e-001	 1.532167314163393e+001
 1.504500247353678e+000	 2.492067528535040e-001	 1.530341100868064e+001
 1.502090742204176e+000	 2.633408478327073e-001	 1.527539662543619e+001
 1.499540686818598e+000	 2.774936549302055e-001	 1.523758607445030e+001
 1.543730108342372e+000	 1.392743787351581e-001	 1.492716736719907e+001
 1.542388360729875e+000	 1.534214608655346e-001	 1.497513289822304e+001
 1.540911920110067e+000	 1.676020716651859e-001	 1.501386624873681e+001
 1.539299673797057e+000	 1.818145049414854e-001	 1.504333246729494e+001
 1.537550533694922e+000	 1.960570230542904e-001	 1.506350291074080e+001
 1.535663437221448e+000	 2.103278572416532e-001	 1.507435483610407e+001
 1.533637348231319e+000	 2.246252079744082e-001	 1.507587096351646e+001
 1.531471257937816e+000	 2.389472453399320e-001	 1.506803901060158e+001
 1.529164185832027e+000	 2.532921094553273e-001	 1.505085119890236e+001
 1.526715180598594e+000	 2.676579109102631e-001	 1.502430373301876e+001
 1.524123321026977e+000	 2.820427312396547e-001	 1.498839625323877e+001
 1.568628981055612e+000	 1.415207396797206e-001	 1.469348794749840e+001
 1.567265592352239e+000	 1.558960005539401e-001	 1.474111318960934e+001
 1.565765338173787e+000	 1.703053308825068e-001	 1.477957803096904e+001
 1.564127087887819e+000	 1.847469969535589e-001	 1.480888931923389e+001
 1.562349735848479e+000	 1.992192331005007e-001	 1.482906077712283e+001
 1.560432202335132e+000	 2.137202420329665e-001	 1.484011253656386e+001
 1.558373434490442e+000	 2.282481951971282e-001	 1.484207064126127e+001
 1.556172407256935e+000	 2.428012331656428e-001	 1.483496651819048e+001
 1.553828124311042e+000	 2.573774660575029e-001	 1.481883641864258e+001
 1.551339618993610e+000	 2.719749739880180e-001	 1.479372082955885e+001
 1.548705955235862e+000	 2.865918075491187e-001	 1.475966385601433e+001
 1.593527853769345e+000	 1.437671006247749e-001	 1.447962152590447e+001
 1.592142823975186e+000	 1.583705402429230e-001	 1.452692084446651e+001
 1.590618756238160e+000	 1.730085901004618e-001	 1.456510796836594e+001
 1.588954501979286e+000	 1.876794889662941e-001	 1.459423235497908e+001
 1.587148938002774e+000	 2.023814431473708e-001	 1.461435093178819e+001
 1.585200967449566e+000	 2.171126268249083e-001	 1.462552757161671e+001
 1.583109520750306e+000	 2.318711824204148e-001	 1.462783253360825e+001
 1.580873556576769e+000	 2.466552209918284e-001	 1.462134187050785e+001
 1.578492062790723e+000	 2.614628226600308e-001	 1.460613680292731e+001
 1.575964057389222e+000	 2.762920370659717e-001	 1.458230306140383e+001
 1.573288589445256e+000	 2.911408838585972e-001	 1.454993019718805e+001
 1.618426726483569e+000	 1.460134615703208e-001	 1.428527040628227e+001
 1.617020055598714e+000	 1.608450799324833e-001	 1.433214019719547e+001
 1.615472174303186e+000	 1.757118493190510e-001	 1.436992296002879e+001
 1.613781916071458e+000	 1.906119809796909e-001	 1.439871164105034e+001
 1.611948140157806e+000	 2.055436531949006e-001	 1.441860728069575e+001
 1.609969732564750e+000	 2.205050116174782e-001	 1.442971842867407e+001
 1.607845607010913e+000	 2.354941696442680e-001	 1.443216052205904e+001
 1.605574705897316e+000	 2.505092088184886e-001	 1.442605522697600e+001
 1.603156001271070e+000	 2.655481792629110e-001	 1.441152974462751e+001
 1.600588495785431e+000	 2.806091001441246e-001	 1.438871608253617e+001
 1.597871223655156e+000	 2.956899601680906e-001	 1.435775029202030e+001
 1.643325599198285e+000	 1.482598225163584e-001	 1.411011789370610e+001
 1.641897287222824e+000	 1.633196196226208e-001	 1.415633994396456e+001
 1.640325592368866e+000	 1.784151085382741e-001	 1.419347758873816e+001
 1.638609330164336e+000	 1.935444729937495e-001	 1.422166820920856e+001
 1.636747342313576e+000	 2.087058632430904e-001	 1.424105793454961e+001
 1.634738497680683e+000	 2.238973964106763e-001	 1.425180099563018e+001
 1.632581693272261e+000	 2.391171568686879e-001	 1.425405903885960e+001
 1.630275855218577e+000	 2.543631966456236e-001	 1.424800040083882e+001
 1.627819939752082e+000	 2.696335358661433e-001	 1.423379934462232e+001
 1.625212934182237e+000	 2.849261632224763e-001	 1.421163525854039e+001
 1.622453857865564e+000	 3.002390364775985e-001	 1.418169181867753e+001
 1.668224471913492e+000	 1.505061834628878e-001	 1.395382971227979e+001
 1.666774518847517e+000	 1.657941593133357e-001	 1.399907430974166e+001
 1.665179010435199e+000	 1.811183677581314e-001	 1.403521504008236e+001
 1.663436744257917e+000	 1.964769650084698e-001	 1.406243473069139e+001
 1.661546544470082e+000	 2.118680732919400e-001	 1.408092564128069e+001
 1.659507262797366e+000	 2.272897812045027e-001	 1.409088875485575e+001
 1.657317779534351e+000	 2.427401440936744e-001	 1.409253302589983e+001
 1.654977004540552e+000	 2.582171844732334e-001	 1.408607458648834e+001
 1.652483878233760e+000	 2.737188924697280e-001	 1.407173591120146e+001
 1.649837372579640e+000	 2.892432263010272e-001	 1.404974494185665e+001
 1.647036492076480e+000	 3.047881127871212e-001	 1.402033417323937e+001
 1.693123344629191e+000	 1.527525444099089e-001	 1.381605529785497e+001
 1.691651750472792e+000	 1.682686990046280e-001	 1.385988411235312e+001
 1.690032428502185e+000	 1.838216269786229e-001	 1.389456794048622e+001
 1.688264158352205e+000	 1.994094570238517e-001	 1.392033613095753e+001
 1.686345746627326e+000	 2.150302833414494e-001	 1.393742818036833e+001
 1.684276027914798e+000	 2.306821659989574e-001	 1.394609296007483e+001
 1.682053865797183e+000	 2.463631313192274e-001	 1.394658789723984e+001
 1.679678153863241e+000	 2.620711723013178e-001	 1.393917811085104e+001
 1.677147816716104e+000	 2.778042490736650e-001	 1.392413550363783e+001
 1.674461810977640e+000	 2.935602893797770e-001	 1.390173781098250e+001
 1.671619126287902e+000	 3.093371890966585e-001	 1.387226760808710e+001
 1.718022217345382e+000	 1.549989053574217e-001	 1.369642897833928e+001
 1.716528982098648e+000	 1.707432386964976e-001	 1.373829773401564e+001
 1.714885846569825e+000	 1.865248861997483e-001	 1.377095912236785e+001
 1.713091572447198e+000	 2.023419490398953e-001	 1.379469015097507e+001
 1.711144948785307e+000	 2.181924933916186e-001	 1.380977872287289e+001
 1.709044793032979e+000	 2.340745507940402e-001	 1.381652279786072e+001
 1.706789952060757e+000	 2.499861185453471e-001	 1.381522950489455e+001
 1.704379303186644e+000	 2.659251601298770e-001	 1.380621420639240e+001
 1.701811755199113e+000	 2.818896056779543e-001	 1.378979951544971e+001
 1.699086249376236e+000	 2.978773524587258e-001	 1.376631426713537e+001
 1.696201760499832e+000	 3.138862654062104e-001	 1.373609244521541e+001
 1.742921090062065e+000	 1.572452663054261e-001	 1.359457105283516e+001
 1.741406213725087e+000	 1.732177783889446e-001	 1.363383200959408e+001
 1.739739264638117e+000	 1.892281454215079e-001	 1.366380232371047e+001
 1.737918986542895e+000	 2.052744410566007e-001	 1.368480786039932e+001
 1.735944150944025e+000	 2.213547034424477e-001	 1.369718616060856e+001
 1.733813558151911e+000	 2.374669355897513e-001	 1.370128553528970e+001
 1.731526038325072e+000	 2.536091057720335e-001	 1.369746410755126e+001
 1.729080452510761e+000	 2.697791479589110e-001	 1.368608880357852e+001
 1.726475693682788e+000	 2.859749622825957e-001	 1.366753429338306e+001
 1.723710687775429e+000	 3.021944155378737e-001	 1.364218188262960e+001
 1.720784394712270e+000	 3.184353417157770e-001	 1.361041835697398e+001
 1.474958052610726e+000	 2.729445786207708e-001	 1.550870684782458e+001
 1.472310693793589e+000	 2.868818936375483e-001	 1.554801993041414e+001
 1.469523396755786e+000	 3.008338184795506e-001	 1.557651530375837e+001
 1.466595362636951e+000	 3.147984152506358e-001	 1.559400486179187e+001
 1.463525825174173e+000	 3.287737200581074e-001	 1.560030060806775e+001
 1.460314051546808e+000	 3.427577436160288e-001	 1.559521422915136e+001
 1.456959343210722e+000	 3.567484718777407e-001	 1.557855665481306e+001
 1.453461036720863e+000	 3.707438666974944e-001	 1.555013760626839e+001
 1.449818504541093e+000	 3.847418665210725e-001	 1.550976513379911e+001
 1.446031155840162e+000	 3.987403871052225e-001	 1.545724514517346e+001
 1.442098437272754e+000	 4.127373222656903e-001	 1.539238092636542e+001
 1.499540686818598e+000	 2.774936549302055e-001	 1.523758607445030e+001
 1.496849205355224e+000	 2.916632585315759e-001	 1.527395641723629e+001
 1.494015453367372e+000	 3.058477154550846e-001	 1.530031390021198e+001
 1.491038618680334e+000	 3.200450555063186e-001	 1.531652212526258e+001
 1.487917922260149e+000	 3.342532820610352e-001	 1.532244456476129e+001
 1.484652619072495e+000	 3.484703726785304e-001	 1.531794404779730e+001
 1.481241998930835e+000	 3.626942797446991e-001	 1.530288223152797e+001
 1.477685387332699e+000	 3.769229311446956e-001	 1.527711905904772e+001
 1.473982146283009e+000	 3.911542309650635e-001	 1.524051220525998e+001
 1.470131675103331e+000	 4.053860602251622e-001	 1.519291651233136e+001
 1.466133411225922e+000	 4.196162776376646e-001	 1.513418341639630e+001
 1.524123321026977e+000	 2.820427312396547e-001	 1.498839625323877e+001
 1.521387716917276e+000	 2.964446234254375e-001	 1.502231928454678e+001
 1.518507509979304e+000	 3.108616124303102e-001	 1.504700960454691e+001
 1.515481874724011e+000	 3.252916957615901e-001	 1.506238315176752e+001
 1.512310019346388e+000	 3.397328440634879e-001	 1.506835551050190e+001
 1.508991186598434e+000	 3.541830017405329e-001	 1.506484130836623e+001
 1.505524654651208e+000	 3.686400876111746e-001	 1.505175359725180e+001
 1.501909737944822e+000	 3.831019955914700e-001	 1.502900321921069e+001
 1.498145788025261e+000	 3.975665954087249e-001	 1.499649815891700e+001
 1.494232194366904e+000	 4.120317333449101e-001	 1.495414288444659e+001
 1.490168385179583e+000	 4.264952330096262e-001	 1.490183767821563e+001
 1.548705955235862e+000	 2.865918075491187e-001	 1.475966385601433e+001
 1.545926228479745e+000	 3.012259883191330e-001	 1.479149764586751e+001
 1.542999566591581e+000	 3.158755094052278e-001	 1.481485590878745e+001
 1.539925130767982e+000	 3.305383360164504e-001	 1.482970763754217e+001
 1.536702116432889e+000	 3.452124060654656e-001	 1.483602126033394e+001
 1.533329754124622e+000	 3.598956308020363e-001	 1.483376394809007e+001
 1.529807310371839e+000	 3.745858954771669e-001	 1.482290090336043e+001
 1.526134088557231e+000	 3.892810600378177e-001	 1.480339463251096e+001
 1.522309429767849e+000	 4.039789598520567e-001	 1.477520420301409e+001
 1.518332713630881e+000	 4.186774064644661e-001	 1.473828448774560e+001
 1.514203359133739e+000	 4.333741883815753e-001	 1.469258539830439e+001
 1.573288589445256e+000	 2.911408838585972e-001	 1.454993019718805e+001
 1.570464740042631e+000	 3.060073532126624e-001	 1.457990018845633e+001
 1.567491623204205e+000	 3.208894063798373e-001	 1.460213052176549e+001
 1.564368386812248e+000	 3.357849762708993e-001	 1.461664404791560e+001
 1.561094213519653e+000	 3.506919680669683e-001	 1.462346285720514e+001
 1.557668321651062e+000	 3.656082598630407e-001	 1.462260749476620e+001
 1.554089966092728e+000	 3.805317033426761e-001	 1.461409615566024e+001
 1.550358439169927e+000	 3.954601244837385e-001	 1.459794386157619e+001
 1.546473071510771e+000	 4.103913242950586e-001	 1.457416162109352e+001
 1.542433232895262e+000	 4.253230795838303e-001	 1.454275557559069e+001
 1.538238333088388e+000	 4.402531437535119e-001	 1.450372613299424e+001
 1.597871223655156e+000	 2.956899601680906e-001	 1.435775029202030e+001
 1.595003251605933e+000	 3.107887181060257e-001	 1.438595366763515e+001
 1.591983679817174e+000	 3.259033033541385e-001	 1.440713350628916e+001
 1.588811642856809e+000	 3.410316165249370e-001	 1.442136740430335e+001
 1.585486310606679e+000	 3.561715300679960e-001	 1.442873201597396e+001
 1.582006889177752e+000	 3.713208889235460e-001	 1.442930217517537e+001
 1.578372621813876e+000	 3.864775112077023e-001	 1.442314999481661e+001
 1.574582789782909e+000	 4.016391889292326e-001	 1.441034394614856e+001
 1.570636713254029e+000	 4.168036887377308e-001	 1.439094792004998e+001
 1.566533752160047e+000	 4.319687527030027e-001	 1.436502027254644e+001
 1.562273307043531e+000	 4.471320991254358e-001	 1.433261285694068e+001
 1.622453857865564e+000	 3.002390364775985e-001	 1.418169181867753e+001
 1.619541763169654e+000	 3.155700829992230e-001	 1.420810153799711e+001
 1.616475736430489e+000	 3.309172003281314e-001	 1.422818558565977e+001
 1.613254898901664e+000	 3.462782567785635e-001	 1.424207727238269e+001
 1.609878407693968e+000	 3.616510920685486e-001	 1.424990879978008e+001
 1.606345456704692e+000	 3.770335179835523e-001	 1.425181028637100e+001
 1.602655277535283e+000	 3.924233190722453e-001	 1.424790876947065e+001
 1.598807140396178e+000	 4.078182533743000e-001	 1.423832718512165e+001
 1.594800354997622e+000	 4.232160531800731e-001	 1.422318332836151e+001
 1.590634271425236e+000	 4.386144258219835e-001	 1.420258879625840e+001
 1.586308280999167e+000	 4.540110544973471e-001	 1.417664791628048e+001
 1.647036492076480e+000	 3.047881127871212e-001	 1.402033417323937e+001
 1.644080274733790e+000	 3.203514478922541e-001	 1.404480270719230e+001
 1.640967793044150e+000	 3.359310973018163e-001	 1.406362660184391e+001
 1.637698154946812e+000	 3.515248970317786e-001	 1.407699593043116e+001
 1.634270504781519e+000	 3.671306540686263e-001	 1.408509950450094e+001
 1.630684024231883e+000	 3.827461470430594e-001	 1.408812380237512e+001
 1.626937933256947e+000	 3.983691269363053e-001	 1.408625187146489e+001
 1.623031491009734e+000	 4.139973178189407e-001	 1.407966220675293e+001
 1.618963996741549e+000	 4.296284176220855e-001	 1.406852760791164e+001
 1.614734790690830e+000	 4.452600989407723e-001	 1.405301401767112e+001
 1.610343254955297e+000	 4.608900098692461e-001	 1.403327934419267e+001
 1.671619126287902e+000	 3.093371890966585e-001	 1.387226760808710e+001
 1.668618786298344e+000	 3.251328127851191e-001	 1.389453039967355e+001
 1.665459849658157e+000	 3.409449942751929e-001	 1.391181410968925e+001
 1.662141410992255e+000	 3.567715372845824e-001	 1.392436669928263e+001
 1.658662601869333e+000	 3.726102160682289e-001	 1.393243472987411e+001
 1.655022591759324e+000	 3.884587761020676e-001	 1.393626219204848e+001
 1.651220588978870e+000	 4.043149347998821e-001	 1.393608930619618e+001
 1.647255841623576e+000	 4.201763822631545e-001	 1.393215129738713e+001
 1.643127638485812e+000	 4.360407820637685e-001	 1.392467714712144e+001
 1.638835309956827e+000	 4.519057720593693e-001	 1.391388832475598e+001
 1.634378228911922e+000	 4.677689652411324e-001	 1.389999750155740e+001
 1.696201760499832e+000	 3.138862654062104e-001	 1.373609244521541e+001
 1.693157297863315e+000	 3.299141776778182e-001	 1.375577111924697e+001
 1.689951906272511e+000	 3.459588912482614e-001	 1.377112209338246e+001
 1.686584667037993e+000	 3.620181775369750e-001	 1.378245241750422e+001
 1.683054698957409e+000	 3.780897780673563e-001	 1.379006761834779e+001
 1.679361159287015e+000	 3.941714051605766e-001	 1.379427042671083e+001
 1.675503244701052e+000	 4.102607426629759e-001	 1.379535947424221e+001
 1.671480192237705e+000	 4.263554467069415e-001	 1.379362796246445e+001
 1.667291280230411e+000	 4.424531465051215e-001	 1.378936230685264e+001
 1.662935829223229e+000	 4.585514451777745e-001	 1.378284075895880e+001
 1.658413202869040e+000	 4.746479206130062e-001	 1.377433200973118e+001
 1.720784394712270e+000	 3.184353417157770e-001	 1.361041835697398e+001
 1.717695809428702e+000	 3.346955425703510e-001	 1.362702370054664e+001
 1.714443962887209e+000	 3.509727882210215e-001	 1.363993979292486e+001
 1.711027923084025e+000	 3.672648177889562e-001	 1.364953404727251e+001
 1.707446796045747e+000	 3.835693400660090e-001	 1.365617224488741e+001
 1.703699726814957e+000	 3.998840342185866e-001	 1.366021715853680e+001
 1.699785900423492e+000	 4.162065505255865e-001	 1.366202714313434e+001
 1.695704542852120e+000	 4.325345111503018e-001	 1.366195469658511e+001
 1.691454921975343e+000	 4.488655109461448e-001	 1.366034499380464e+001
 1.687036348490034e+000	 4.651971182959880e-001	 1.365753439709436e+001
 1.682448176826651e+000	 4.815268759848673e-001	 1.365384894622728e+001
 1.442098437272754e+000	 4.127373222656903e-001	 1.539238092636542e+001
 1.438019833743952e+000	 4.267305446539297e-001	 1.541362238537613e+001
 1.433794869157610e+000	 4.407179065610665e-001	 1.542297817445992e+001
 1.429423107146426e+000	 4.546972407496674e-001	 1.542015799088540e+001
 1.424904151781651e+000	 4.686663613134735e-001	 1.540486533054438e+001
 1.420237648262862e+000	 4.826230645635711e-001	 1.537679704983763e+001
 1.415423283586218e+000	 4.965651299408992e-001	 1.533564293322318e+001
 1.410460787190097e+000	 5.104903209545468e-001	 1.528108526835762e+001
 1.405349931577071e+000	 5.243963861452563e-001	 1.521279843080023e+001
 1.400090532911170e+000	 5.382810600734965e-001	 1.513044848028349e+001
 1.394682451589383e+000	 5.521420643314209e-001	 1.503369277057933e+001
 1.466133411225922e+000	 4.196162776376646e-001	 1.513418341639630e+001
 1.461986830971045e+000	 4.338427203983612e-001	 1.515808392783638e+001
 1.457691450307712e+000	 4.480632050033768e-001	 1.516992614521363e+001
 1.453246825595835e+000	 4.622755280946553e-001	 1.516946523012179e+001
 1.448652554307850e+000	 4.764774673341675e-001	 1.515645031951723e+001
 1.443908275729996e+000	 4.906667823048521e-001	 1.513062401173433e+001
 1.439013671641701e+000	 5.048412154383311e-001	 1.509172185691216e+001
 1.433968466971982e+000	 5.189984929688458e-001	 1.503947185391930e+001
 1.428772430431791e+000	 5.331363259128183e-001	 1.497359395590821e+001
 1.423425375121222e+000	 5.472524110733928e-001	 1.489379958667085e+001
 1.417927159110548e+000	 5.613444320692591e-001	 1.479979116999880e+001
 1.490168385179583e+000	 4.264952330096262e-001	 1.490183767821563e+001
 1.485953828198727e+000	 4.409548961429656e-001	 1.492926378551179e+001
 1.481588031458489e+000	 4.554085034460164e-001	 1.494448970231678e+001
 1.477070544045993e+000	 4.698538154400996e-001	 1.494731683339798e+001
 1.472400956834864e+000	 4.842885733554153e-001	 1.493754070436279e+001
 1.467578903198001e+000	 4.987105000467546e-001	 1.491495036944805e+001
 1.462604059698101e+000	 5.131173009364222e-001	 1.487932782247727e+001
 1.457476146754822e+000	 5.275066649838112e-001	 1.483044741323300e+001
 1.452194929287489e+000	 5.418762656810237e-001	 1.476807527154446e+001
 1.446760217332268e+000	 5.562237620738787e-001	 1.469196874143611e+001
 1.441171866632713e+000	 5.705467998076025e-001	 1.460187582771949e+001
 1.514203359133739e+000	 4.333741883815753e-001	 1.469258539830439e+001
 1.509920825426997e+000	 4.480670718877428e-001	 1.472425961282849e+001
 1.505484612609940e+000	 4.627538018889853e-001	 1.474362276343695e+001
 1.500894262496902e+000	 4.774321027860001e-001	 1.475052335747929e+001
 1.496149359362695e+000	 4.920996793772168e-001	 1.474480413770117e+001
 1.491249530666879e+000	 5.067542177892784e-001	 1.472630140936858e+001
 1.486194447755420e+000	 5.213933864351719e-001	 1.469484436932076e+001
 1.480983826538614e+000	 5.360148369994428e-001	 1.465025443936704e+001
 1.475617428144168e+000	 5.506162054498723e-001	 1.459234460650196e+001
 1.470095059544309e+000	 5.651951130749543e-001	 1.452091877246389e+001
 1.464416574155878e+000	 5.797491675464509e-001	 1.443577111520625e+001
 1.538238333088388e+000	 4.402531437535119e-001	 1.450372613299424e+001
 1.533887822655857e+000	 4.551792476326931e-001	 1.454023241644688e+001
 1.529381193762066e+000	 4.700991003322836e-001	 1.456434811166893e+001
 1.524717980948561e+000	 4.850103901323571e-001	 1.457596976637488e+001
 1.519897761891341e+000	 4.999107853995722e-001	 1.457498824760971e+001
 1.514920158136628e+000	 5.147979355324236e-001	 1.456128798568455e+001
 1.509784835813656e+000	 5.296694719345808e-001	 1.453474621880612e+001
 1.504491506323362e+000	 5.445230090157410e-001	 1.449523224098878e+001
 1.499039927001826e+000	 5.593561452193643e-001	 1.444260665590348e+001
 1.493429901757345e+000	 5.741664640766193e-001	 1.437672063937579e+001
 1.487661281680043e+000	 5.889515352858046e-001	 1.429741521329404e+001
 1.562273307043531e+000	 4.471320991254358e-001	 1.433261285694068e+001
 1.557854819885305e+000	 4.622914233778162e-001	 1.437440168201293e+001
 1.553277774914866e+000	 4.774443987759112e-001	 1.440375209819404e+001
 1.548541699400969e+000	 4.925886774791703e-001	 1.442060970770370e+001
 1.543646164420804e+000	 5.077218914224814e-001	 1.442491448566468e+001
 1.538590785607250e+000	 5.228416532761903e-001	 1.441659993824501e+001
 1.533375223872810e+000	 5.379455574346489e-001	 1.439559226026110e+001
 1.527999186109062e+000	 5.530311810327057e-001	 1.436180949501069e+001
 1.522462425860463e+000	 5.680960849894998e-001	 1.431516069917628e+001
 1.516764743971375e+000	 5.831378150788741e-001	 1.425554511570449e+001
 1.510905989205208e+000	 5.981539030256633e-001	 1.418285135762107e+001
 1.586308280999167e+000	 4.540110544973471e-001	 1.417664791628048e+001
 1.581821817115343e+000	 4.694035991231121e-001	 1.422404094393201e+001
 1.577174356068340e+000	 4.847896972198681e-001	 1.425897982651617e+001
 1.572365417854129e+000	 5.001669648264399e-001	 1.428146030939070e+001
 1.567394566951083e+000	 5.155329974459444e-001	 1.429147253425196e+001
 1.562261413078743e+000	 5.308853710205784e-001	 1.428900010879726e+001
 1.556965611932882e+000	 5.462216429353760e-001	 1.427401917461665e+001
 1.551506865895716e+000	 5.615393530503365e-001	 1.424649747626867e+001
 1.545884924720079e+000	 5.768360247602785e-001	 1.420639343457427e+001
 1.540099586186401e+000	 5.921091660817186e-001	 1.415365522723362e+001
 1.534150696731373e+000	 6.073562707660271e-001	 1.408821987993130e+001
 1.610343254955297e+000	 4.608900098692461e-001	 1.403327934419267e+001
 1.605788814345970e+000	 4.765157748685813e-001	 1.408647375187950e+001
 1.601070937222489e+000	 4.921349956641541e-001	 1.412723076796004e+001
 1.596189136308037e+000	 5.077452521741657e-001	 1.415559744233062e+001
 1.591142969482178e+000	 5.233441034699612e-001	 1.417161521471557e+001
 1.585932040551108e+000	 5.389290887655879e-001	 1.417531889308401e+001
 1.580555999993871e+000	 5.544977284367622e-001	 1.416673562906343e+001
 1.575014545683324e+000	 5.700475250686340e-001	 1.414588389349792e+001
 1.569307423580675e+000	 5.855759645317006e-001	 1.411277245538497e+001
 1.563434428402421e+000	 6.010805170851528e-001	 1.406739936750132e+001
 1.557395404258538e+000	 6.165586385068962e-001	 1.400975096209625e+001
 1.634378228911922e+000	 4.677689652411324e-001	 1.389999750155740e+001
 1.629755811577185e+000	 4.836279506142233e-001	 1.395906999320739e+001
 1.624967518377312e+000	 4.994802941087698e-001	 1.400575476403745e+001
 1.620012854762696e+000	 5.153235395223481e-001	 1.404015140105191e+001
 1.614891372014088e+000	 5.311552094945315e-001	 1.406235384478725e+001
 1.609602668024345e+000	 5.469728065112188e-001	 1.407244927363776e+001
 1.604146388055779e+000	 5.627738139388071e-001	 1.407051698394428e+001
 1.598522225471886e+000	 5.785556970875978e-001	 1.405662726919315e+001
 1.592729922442250e+000	 5.943159043037660e-001	 1.403084030176516e+001
 1.586769270619437e+000	 6.100518680891768e-001	 1.399320502075931e+001
 1.580640111786703e+000	 6.257610062482703e-001	 1.394341297326327e+001
 1.658413202869040e+000	 4.746479206130062e-001	 1.377433200973118e+001
 1.653722808808989e+000	 4.907401263600381e-001	 1.383924253514167e+001
 1.648864099532809e+000	 5.068255925537145e-001	 1.389184837643360e+001
 1.643836573218106e+000	 5.229018268709867e-001	 1.393230295997523e+001
 1.638639774546815e+000	 5.389663155196558e-001	 1.396075399971771e+001
 1.633273295498454e+000	 5.550165242574712e-001	 1.397734228450615e+001
 1.627736776118604e+000	 5.710498994415113e-001	 1.398220045991734e+001
 1.622029905261401e+000	 5.870638691072282e-001	 1.397545180817668e+001
 1.616152421304804e+000	 6.030558440764750e-001	 1.395720902980827e+001
 1.610104112837447e+000	 6.190232190937902e-001	 1.392757303076177e+001
 1.603884819315868e+000	 6.349633739901497e-001	 1.388143424599911e+001
 1.682448176826651e+000	 4.815268759848673e-001	 1.365384894622728e+001
 1.677689806041381e+000	 4.978523021060258e-001	 1.372444415479139e+001
 1.672760680688981e+000	 5.141708909989885e-001	 1.378285154985191e+001
 1.667660291674265e+000	 5.304801142200816e-001	 1.382927976770682e+001
 1.662388177080357e+000	 5.467774215453338e-001	 1.386393163673959e+001
 1.656943922973434e+000	 5.630602420043449e-001	 1.388700286471518e+001
 1.651327164182347e+000	 5.793259849448744e-001	 1.389868071936169e+001
 1.645537585051869e+000	 5.955720411275246e-001	 1.389914270600363e+001
 1.639574920168338e+000	 6.117957838498270e-001	 1.388855524612016e+001
 1.633438955056451e+000	 6.279945700989932e-001	 1.386476425801406e+001
 1.627129526846032e+000	 6.441657417325339e-001	 1.382484191860049e+001
 1.394682451589383e+000	 5.521420643314209e-001	 1.503369277057933e+001
 1.389125592786738e+000	 5.659771085778665e-001	 1.510385430455215e+001
 1.383419906972935e+000	 5.797838915960679e-001	 1.514951124946067e+001
 1.377565390400310e+000	 5.935601023727932e-001	 1.517016449503941e+001
 1.371562085562787e+000	 6.073034211979437e-001	 1.516531267080510e+001
 1.365410081623910e+000	 6.210115207841032e-001	 1.513445207137310e+001
 1.359109514813409e+000	 6.346820674049267e-001	 1.512186721672735e+001
 1.352660568791450e+000	 6.483127220513680e-001	 1.510911118147352e+001
 1.346063474979750e+000	 6.619011416047153e-001	 1.507890666855283e+001
 1.339318512858777e+000	 6.754449800253558e-001	 1.503099233740691e+001
 1.332426010230286e+000	 6.889418895561570e-001	 1.496511202439234e+001
 1.417927159110548e+000	 5.613444320692591e-001	 1.479979116999880e+001
 1.412277685994379e+000	 5.754100603868140e-001	 1.486899490224671e+001
 1.406476905416908e+000	 5.894469564555901e-001	 1.491409050158511e+001
 1.400524813568007e+000	 6.034527707454684e-001	 1.493458730810547e+001
 1.394421453649835e+000	 6.174251448845148e-001	 1.492999136944499e+001
 1.388166916311995e+000	 6.313617127971891e-001	 1.492280676608729e+001
 1.381761340054712e+000	 6.452601018617064e-001	 1.492394577709969e+001
 1.375204911599155e+000	 6.591179340855367e-001	 1.490837935256348e+001
 1.368497866224071e+000	 6.729328272979888e-001	 1.487584209491199e+001
 1.361640488067934e+000	 6.867023963587896e-001	 1.482607314068706e+001
 1.354633110395864e+000	 7.004242543815206e-001	 1.475881634958640e+001
 1.441171866632713e+000	 5.705467998076025e-001	 1.460187582771949e+001
 1.435429779203020e+000	 5.848430121961762e-001	 1.466941686208718e+001
 1.429533903861879e+000	 5.991100213154565e-001	 1.471327481475444e+001
 1.423484236736704e+000	 6.133454391184368e-001	 1.473296865917782e+001
 1.417280821737884e+000	 6.275468685713480e-001	 1.473487253528458e+001
 1.410923751001080e+000	 6.417119048105253e-001	 1.474860001794960e+001
 1.404413165297016e+000	 6.558381363187456e-001	 1.474637346664338e+001
 1.397749254407861e+000	 6.699231461199932e-001	 1.472792470878314e+001
 1.390932257469392e+000	 6.839645129915990e-001	 1.469298947511637e+001
 1.383962463278092e+000	 6.979598126926295e-001	 1.464130757682181e+001
 1.376840210562442e+000	 7.119066192073804e-001	 1.457262308439018e+001
 1.464416574155878e+000	 5.797491675464509e-001	 1.443577111520625e+001
 1.458581872412662e+000	 5.942759640059531e-001	 1.450089805406443e+001
 1.452590902307852e+000	 6.087730861756671e-001	 1.454279705541345e+001
 1.446443659906401e+000	 6.232381074916983e-001	 1.456099795000803e+001
 1.440140189826932e+000	 6.376685922584428e-001	 1.458270549106512e+001
 1.433680585691165e+000	 6.520620968241120e-001	 1.459249330293789e+001
 1.427064990540319e+000	 6.664161707760433e-001	 1.458681555910560e+001
 1.420293597217567e+000	 6.807283581547378e-001	 1.456540588301101e+001
 1.413366648715714e+000	 6.949961986855464e-001	 1.452800134903369e+001
 1.406284438489250e+000	 7.092172290268760e-001	 1.447434264831535e+001
 1.399047310730021e+000	 7.233889840337363e-001	 1.440417425697406e+001
 1.487661281680043e+000	 5.889515352858046e-001	 1.429741521329404e+001
 1.481733965623303e+000	 6.037089158161452e-001	 1.435933016181516e+001
 1.475647900754824e+000	 6.184361510362219e-001	 1.439850389065265e+001
 1.469403083077098e+000	 6.331307758652531e-001	 1.442607434713179e+001
 1.462999557916980e+000	 6.477903159457994e-001	 1.444652481907251e+001
 1.456437420382251e+000	 6.624122888379495e-001	 1.445227273241390e+001
 1.449716815784622e+000	 6.769942052336005e-001	 1.444305090232706e+001
 1.442837940028272e+000	 6.915335701897700e-001	 1.441859498158131e+001
 1.435801039963035e+000	 7.060278843798309e-001	 1.437864361164179e+001
 1.428606413701408e+000	 7.204746453615288e-001	 1.432293857669259e+001
 1.421254410898599e+000	 7.348713488605884e-001	 1.425122496067171e+001
 1.510905989205208e+000	 5.981539030256633e-001	 1.418285135762107e+001
 1.504886058834944e+000	 6.131418676267519e-001	 1.424070992772599e+001
 1.498704899202796e+000	 6.280992158971205e-001	 1.427869124351422e+001
 1.492362506248795e+000	 6.430234442391006e-001	 1.430842778692972e+001
 1.485858926008029e+000	 6.579120396334177e-001	 1.432422938226196e+001
 1.479194255074336e+000	 6.727624808520369e-001	 1.432582933195714e+001
 1.472368641029925e+000	 6.875722396914169e-001	 1.431296318177313e+001
 1.465382282839978e+000	 7.023387822250905e-001	 1.428536885555682e+001
 1.458235431211356e+000	 7.170595700744521e-001	 1.424278679340482e+001
 1.450928388914565e+000	 7.317320616965878e-001	 1.418496009334404e+001
 1.443461511068178e+000	 7.463537136879365e-001	 1.411163465665968e+001
 1.534150696731373e+000	 6.073562707660271e-001	 1.408821987993130e+001
 1.528038152047586e+000	 6.225748194377736e-001	 1.414113119393709e+001
 1.521761897651768e+000	 6.377622807583635e-001	 1.417832822345301e+001
 1.515321929421492e+000	 6.529161126132413e-001	 1.420278635844316e+001
 1.508718294100077e+000	 6.680337633212981e-001	 1.421381506553077e+001
 1.501951089767421e+000	 6.831126728663752e-001	 1.421115109331818e+001
 1.495020466276229e+000	 6.981502741494924e-001	 1.419453297828962e+001
 1.487926625652684e+000	 7.131439942606987e-001	 1.416370116552203e+001
 1.480669822460677e+000	 7.280912557694104e-001	 1.411839813334254e+001
 1.473250364128723e+000	 7.429894780320531e-001	 1.405836852211162e+001
 1.465668611238756e+000	 7.578360785157806e-001	 1.398335926730301e+001
 1.557395404258538e+000	 6.165586385068962e-001	 1.400975096209625e+001
 1.551190245261227e+000	 6.320077712492102e-001	 1.405651105487917e+001
 1.544818896101740e+000	 6.474253456199506e-001	 1.408820505646513e+001
 1.538281352595190e+000	 6.628087809876754e-001	 1.410724413248451e+001
 1.531577662193125e+000	 6.781554870094403e-001	 1.411336753527467e+001
 1.524707924461506e+000	 6.934628648809639e-001	 1.410631573813714e+001
 1.517672291523532e+000	 7.087283086078271e-001	 1.408583053710421e+001
 1.510470968466389e+000	 7.239492062965950e-001	 1.405165515699215e+001
 1.503104213710998e+000	 7.391229414647057e-001	 1.400353436197397e+001
 1.495572339343881e+000	 7.542468943679248e-001	 1.394121457089688e+001
 1.487875711410334e+000	 7.693184433441207e-001	 1.386444397755894e+001
 1.580640111786703e+000	 6.257610062482703e-001	 1.394341297326327e+001
 1.574342338475868e+000	 6.414407230610618e-001	 1.398090044630770e+001
 1.567875894552713e+000	 6.570884104818822e-001	 1.400650790556714e+001
 1.561240775769887e+000	 6.727014493624023e-001	 1.401997839477039e+001
 1.554437030287174e+000	 6.882772106978443e-001	 1.402105563780721e+001
 1.547464759156591e+000	 7.038130568958031e-001	 1.400948412015767e+001
 1.540324116771835e+000	 7.193063430664207e-001	 1.398500917485725e+001
 1.533015311281095e+000	 7.347544183327792e-001	 1.394737707328566e+001
 1.525538604962319e+000	 7.501546271603378e-001	 1.389633512106004e+001
 1.517894314560039e+000	 7.655043107042028e-001	 1.383163175930378e+001
 1.510082811582912e+000	 7.808008081729571e-001	 1.375301667155104e+001
 1.603884819315868e+000	 6.349633739901497e-001	 1.388143424599911e+001
 1.597494431691509e+000	 6.508736748733279e-001	 1.391214644042416e+001
 1.590932893004685e+000	 6.667514753441572e-001	 1.393150013921995e+001
 1.584200198945584e+000	 6.825941177374224e-001	 1.393924361585618e+001
 1.577296398382222e+000	 6.983989343865102e-001	 1.393512537182928e+001
 1.570221593852676e+000	 7.141632489108927e-001	 1.391889420116158e+001
 1.562975942021138e+000	 7.298843775252738e-001	 1.389029925993417e+001
 1.555559654096801e+000	 7.455596303692514e-001	 1.384909014119097e+001
 1.547972996214641e+000	 7.611863128563071e-001	 1.379501695554279e+001
 1.540216289777197e+000	 7.767617270408870e-001	 1.372783041779065e+001
 1.532289911756491e+000	 7.922831730022893e-001	 1.364728193987629e+001
 1.627129526846032e+000	 6.441657417325339e-001	 1.382484191860049e+001
 1.620646524908150e+000	 6.603066266860092e-001	 1.384859341943979e+001
 1.613989891457657e+000	 6.764145402067768e-001	 1.386151681665435e+001
 1.607159622122281e+000	 6.924867861127355e-001	 1.386336593793310e+001
 1.600155766478270e+000	 7.085206580754376e-001	 1.385389437754439e+001
 1.592978428549761e+000	 7.245134409262326e-001	 1.383285554325165e+001
 1.585627767271441e+000	 7.404624119843859e-001	 1.380000270876933e+001
 1.578103996913506e+000	 7.563648424060113e-001	 1.375508907214701e+001
 1.570407387467962e+000	 7.722179985526131e-001	 1.369786782046078e+001
 1.562538264995355e+000	 7.880191433779775e-001	 1.362809220118062e+001
 1.554497011931069e+000	 8.037655378321177e-001	 1.354551560057100e+001
 1.332426010230286e+000	 6.889418895561570e-001	 1.496511202439234e+001
 1.325386343444616e+000	 7.023895219395790e-001	 1.487999394902192e+001
 1.318199937591758e+000	 7.157855296464768e-001	 1.478726355048182e+001
 1.310867266655738e+000	 7.291275671160524e-001	 1.468708884174740e+001
 1.303388853632028e+000	 7.424132920061468e-001	 1.457963747311693e+001
 1.295765270607128e+000	 7.556403664517626e-001	 1.446507644985044e+001
 1.287997138799943e+000	 7.688064583308102e-001	 1.434357185350447e+001
 1.280085128564544e+000	 7.819092425357328e-001	 1.421528856767969e+001
 1.272029959353938e+000	 7.949464022496643e-001	 1.408039000889252e+001
 1.263832399644536e+000	 8.079156302257311e-001	 1.393903786326874e+001
 1.255493266821059e+000	 8.208146300681053e-001	 1.379139182974481e+001
 1.354633110395864e+000	 7.004242543815206e-001	 1.475881634958640e+001
 1.347476115830716e+000	 7.140960139710572e-001	 1.469155765539950e+001
 1.340169936547323e+000	 7.277152884728084e-001	 1.461696482808524e+001
 1.332715054429446e+000	 7.412796932332970e-001	 1.453516795177734e+001
 1.325112001189150e+000	 7.547868468713277e-001	 1.444629607282872e+001
 1.317361358447709e+000	 7.682343725574868e-001	 1.435047694617418e+001
 1.309463757777677e+000	 7.816198993009831e-001	 1.424783678675766e+001
 1.301419880705692e+000	 7.949410632424675e-001	 1.413850002671894e+001
 1.293230458675645e+000	 8.081955089514599e-001	 1.402258907902242e+001
 1.284896272971888e+000	 8.213808907269713e-001	 1.390022410819585e+001
 1.276418154602220e+000	 8.344948738999106e-001	 1.377152280883054e+001
 1.376840210562442e+000	 7.119066192073804e-001	 1.457262308439018e+001
 1.369565888217805e+000	 7.258025060031214e-001	 1.452117003202127e+001
 1.362139935503848e+000	 7.396450472997969e-001	 1.446267245700438e+001
 1.354562842204066e+000	 7.534318193512493e-001	 1.439722362278346e+001
 1.346835148747114e+000	 7.671604017372470e-001	 1.432491507148875e+001
 1.338957446289043e+000	 7.808283786639605e-001	 1.424583639780571e+001
 1.330930376756053e+000	 7.944333402718963e-001	 1.416007502928642e+001
 1.322754632847352e+000	 8.079728839499136e-001	 1.406771601377691e+001
 1.314430957997716e+000	 8.214446156539170e-001	 1.396884181461833e+001
 1.305960146299434e+000	 8.348461512288039e-001	 1.386353211426175e+001
 1.297343042383386e+000	 8.481751177322187e-001	 1.375186362691565e+001
 1.399047310730021e+000	 7.233889840337363e-001	 1.440417425697406e+001
 1.391655660605885e+000	 7.375089980357721e-001	 1.436656440703279e+001
 1.384109934461334e+000	 7.515748061274421e-001	 1.432221145236108e+001
 1.376410629979597e+000	 7.655839454699087e-001	 1.427117290453115e+001
 1.368558296305920e+000	 7.795339566039048e-001	 1.421350386121642e+001
 1.360553534131128e+000	 7.934223847711835e-001	 1.414925680637574e+001
 1.352396995735073e+000	 8.072467812435503e-001	 1.407848141826808e+001
 1.344089384989528e+000	 8.210047046580712e-001	 1.400122438595164e+001
 1.335631457320152e+000	 8.346937223570364e-001	 1.391752923490291e+001
 1.327024019627176e+000	 8.483114117312290e-001	 1.382743616236914e+001
 1.318267930164557e+000	 8.618553615650291e-001	 1.373098188304402e+001
 1.421254410898599e+000	 7.348713488605884e-001	 1.425122496067171e+001
 1.413745432994954e+000	 7.492154900690090e-001	 1.422558102058353e+001
 1.406079933419780e+000	 7.635045649557442e-001	 1.419350758218170e+001
 1.398258417756039e+000	 7.777360715892759e-001	 1.415502743749814e+001
 1.390281443865568e+000	 7.919075114713012e-001	 1.411016026242657e+001
 1.382149621973968e+000	 8.060163908791563e-001	 1.405892244205624e+001
 1.373863614714737e+000	 8.200602222159444e-001	 1.400132690523441e+001
 1.365424137132218e+000	 8.340365253669401e-001	 1.393738296899514e+001
 1.356831956642953e+000	 8.479428290608180e-001	 1.386709619346903e+001
 1.348087892955113e+000	 8.617766722342464e-001	 1.379046824786417e+001
 1.339192817945733e+000	 8.755356053983423e-001	 1.370749678808035e+001
 1.443461511068178e+000	 7.463537136879365e-001	 1.411163465665968e+001
 1.435835205385014e+000	 7.609219821028320e-001	 1.409615880082671e+001
 1.428049932379187e+000	 7.754343237847031e-001	 1.407457961717405e+001
 1.420106205533392e+000	 7.898881977093510e-001	 1.404688617666599e+001
 1.412004591426058e+000	 8.042810663394361e-001	 1.401306372165294e+001
 1.403745709817559e+000	 8.186103969878783e-001	 1.397309351521120e+001
 1.395330233695044e+000	 8.328736631890795e-001	 1.392695270112148e+001
 1.386758889275422e+000	 8.470683460765203e-001	 1.387461417510923e+001
 1.378032455966119e+000	 8.611919357652613e-001	 1.381604646794363e+001
 1.369151766283244e+000	 8.752419327378566e-001	 1.375121364096391e+001
 1.360117705726915e+000	 8.892158492321584e-001	 1.368007519457009e+001
 1.465668611238756e+000	 7.578360785157806e-001	 1.398335926730301e+001
 1.457924977776064e+000	 7.726284741372415e-001	 1.397632788755539e+001
 1.450019931339554e+000	 7.873640826143186e-001	 1.396353228506970e+001
 1.441953993311656e+000	 8.020403238301334e-001	 1.394492877678495e+001
 1.433727738987390e+000	 8.166546212083096e-001	 1.392046912775120e+001
 1.425341797661905e+000	 8.312044030973501e-001	 1.389010042335182e+001
 1.416796852675995e+000	 8.456871041629548e-001	 1.385376495358751e+001
 1.408093641419141e+000	 8.601001667868119e-001	 1.381140011003274e+001
 1.399232955289649e+000	 8.744410424703668e-001	 1.376293829604571e+001
 1.390215639611571e+000	 8.887071932420589e-001	 1.370830685078133e+001
 1.381042593508102e+000	 9.028960930664768e-001	 1.364742798752115e+001
 1.487875711410334e+000	 7.693184433441207e-001	 1.386444397755894e+001
 1.480014750168104e+000	 7.843349661722373e-001	 1.386420282536384e+001
 1.471989930300882e+000	 7.992938414445910e-001	 1.385854985592068e+001
 1.463801781090832e+000	 8.141924499516234e-001	 1.384740957000327e+001
 1.455450886549564e+000	 8.290281760779216e-001	 1.383070118187511e+001
 1.446937885507002e+000	 8.437984092075713e-001	 1.380833851328968e+001
 1.438263471657589e+000	 8.585005451375706e-001	 1.378022990098878e+001
 1.429428393563373e+000	 8.731319874978146e-001	 1.374627811829991e+001
 1.420433454613544e+000	 8.876901491761344e-001	 1.370638031140054e+001
 1.411279512940094e+000	 9.021724537468541e-001	 1.366042795078088e+001
 1.401967481289294e+000	 9.165763369012980e-001	 1.360830679839940e+001
 1.510082811582912e+000	 7.808008081729571e-001	 1.375301667155104e+001
 1.502104522561134e+000	 7.960414582078191e-001	 1.375797635741204e+001
 1.493959929263171e+000	 8.112236002755202e-001	 1.375789029339956e+001
 1.485649568870919e+000	 8.263445760738210e-001	 1.375265207488197e+001
 1.477174034112580e+000	 8.414017309482721e-001	 1.374214926421924e+001
 1.468533973352852e+000	 8.563924153185419e-001	 1.372626330545298e+001
 1.459730090639828e+000	 8.713139861129269e-001	 1.370486945394600e+001
 1.450763145708120e+000	 8.861638082095288e-001	 1.367783672156433e+001
 1.441633953937804e+000	 9.009392558825639e-001	 1.364502783795811e+001
 1.432343386268811e+000	 9.156377142522415e-001	 1.360629922845838e+001
 1.422892369070492e+000	 9.302565807366219e-001	 1.356150100906532e+001
 1.532289911756491e+000	 7.922831730022893e-001	 1.364728193987629e+001
 1.524194294955155e+000	 8.077479502439875e-001	 1.365591375886313e+001
 1.515929928226421e+000	 8.231533591071066e-001	 1.365987991468199e+001
 1.507497356651917e+000	 8.384967021967261e-001	 1.365904398288686e+001
 1.498897181676438e+000	 8.537752858193610e-001	 1.365326274713203e+001
 1.490130061199455e+000	 8.689864214302620e-001	 1.364238613347947e+001
 1.481196709622709e+000	 8.841274270890236e-001	 1.362625716112231e+001
 1.472097897853381e+000	 8.991956289219540e-001	 1.360471191011200e+001
 1.462834453262429e+000	 9.141883625896555e-001	 1.357757950663643e+001
 1.453407259597724e+000	 9.291029747582215e-001	 1.354468212635337e+001
 1.443817256851695e+000	 9.439368245724484e-001	 1.350583501623851e+001
 1.554497011931069e+000	 8.037655378321177e-001	 1.354551560057100e+001
 1.546284067350165e+000	 8.194544422807419e-001	 1.355634765602600e+001
 1.537899927190630e+000	 8.350831179393493e-001	 1.356290850805373e+001
 1.529345144433827e+000	 8.506488283203390e-001	 1.356503257460946e+001
 1.520620329241138e+000	 8.661488406911884e-001	 1.356254670996189e+001
 1.511726149046811e+000	 8.815804275427317e-001	 1.355527015755868e+001
 1.502663328606235e+000	 8.969408680658606e-001	 1.354301452079166e+001
 1.493432649999157e+000	 9.122274496350907e-001	 1.352558375224478e+001
 1.484034952587419e+000	 9.274374692974090e-001	 1.350277416196660e+001
 1.474471132926831e+000	 9.425682352647938e-001	 1.347437444526028e+001
 1.464742144632903e+000	 9.576170684087775e-001	 1.344016573043609e+001
 1.255493266821059e+000	 8.208146300681053e-001	 1.379139182974481e+001
 1.247013427021299e+000	 8.336411175128567e-001	 1.371830166539319e+001
 1.238393794941728e+000	 8.463928217087881e-001	 1.366485174033347e+001
 1.229635333603122e+000	 8.590674864957387e-001	 1.361115579379813e+001
 1.220739054075391e+000	 8.716628716778431e-001	 1.355745710819624e+001
 1.211706015162792e+000	 8.841767542918880e-001	 1.350399017652263e+001
 1.202537323049252e+000	 8.966069298687865e-001	 1.345098063709833e+001
 1.193234130903926e+000	 9.089512136867101e-001	 1.339864523284057e+001
 1.183797638447231e+000	 9.212074420144203e-001	 1.334719179497344e+001
 1.174229091477602e+000	 9.333734733433585e-001	 1.329681925100971e+001
 1.164529781359323e+000	 9.454471896070471e-001	 1.324771765675282e+001
 1.276418154602220e+000	 8.344948738999106e-001	 1.377152280883054e+001
 1.267796984139968e+000	 8.475351361353408e-001	 1.371223711982596e+001
 1.259033691526449e+000	 8.604993687346023e-001	 1.364520686906034e+001
 1.250129255832787e+000	 8.733852779348663e-001	 1.357063671987765e+001
 1.241084704980055e+000	 8.861905862036694e-001	 1.352942449996005e+001
 1.231901115419247e+000	 8.989130335284119e-001	 1.348783640109359e+001
 1.222579611770688e+000	 9.115503786988560e-001	 1.344543518953702e+001
 1.213121366423021e+000	 9.241004005811426e-001	 1.340232444193910e+001
 1.203527599092000e+000	 9.365608993818464e-001	 1.335859917498351e+001
 1.193799576339370e+000	 9.489296979005988e-001	 1.331434598854342e+001
 1.183938611052150e+000	 9.612046427698152e-001	 1.326964323352877e+001
 1.297343042383386e+000	 8.481751177322187e-001	 1.375186362691565e+001
 1.288580541258456e+000	 8.614291547582270e-001	 1.371336538861554e+001
 1.279673588110835e+000	 8.746059157607186e-001	 1.366613426940609e+001
 1.270623178061991e+000	 8.877030693741960e-001	 1.361027306323381e+001
 1.261430355884161e+000	 9.007183007295984e-001	 1.354588316737205e+001
 1.252096215675079e+000	 9.136493127649382e-001	 1.347306441418352e+001
 1.242621900491466e+000	 9.264938275288278e-001	 1.342710575777955e+001
 1.233008601941450e+000	 9.392495874753767e-001	 1.338849484801181e+001
 1.223257559736129e+000	 9.519143567489735e-001	 1.334784091629088e+001
 1.213370061200551e+000	 9.644859224574407e-001	 1.330511985335791e+001
 1.203347440744476e+000	 9.769620959320846e-001	 1.326029986780999e+001
 1.318267930164557e+000	 8.618553615650291e-001	 1.373098188304402e+001
 1.309364098376765e+000	 8.753231733815162e-001	 1.370854323639973e+001
 1.300313484694886e+000	 8.887124627871380e-001	 1.367642993335985e+001
 1.291117100290733e+000	 9.020208608137287e-001	 1.363464528032547e+001
 1.281776006787710e+000	 9.152460152556287e-001	 1.358319136101654e+001
 1.272291315930287e+000	 9.283855920014663e-001	 1.352206897204263e+001
 1.262664189211584e+000	 9.414372763587010e-001	 1.345127756824931e+001
 1.252895837459215e+000	 9.543987743694128e-001	 1.337081521813145e+001
 1.242987520379617e+000	 9.672678141158025e-001	 1.331532178216974e+001
 1.232940546061146e+000	 9.800421470138834e-001	 1.326978422796852e+001
 1.222756270436300e+000	 9.927195490938553e-001	 1.322056751568390e+001
 1.339192817945733e+000	 8.755356053983423e-001	 1.370749678808035e+001
 1.330147655494894e+000	 8.892171920052078e-001	 1.369661447859020e+001
 1.320953381278601e+000	 9.028190098138600e-001	 1.367516112023606e+001
 1.311611022519015e+000	 9.163386522534630e-001	 1.364304280422250e+001
 1.302121657690702e+000	 9.297737297817619e-001	 1.360016454286166e+001
 1.292486416184872e+000	 9.431218712379964e-001	 1.354643030671752e+001
 1.282706477931043e+000	 9.563807251884761e-001	 1.348174307223720e+001
 1.272783072976315e+000	 9.695479612632503e-001	 1.340600487999775e+001
 1.262717481022464e+000	 9.826212714823327e-001	 1.331911690366165e+001
 1.252511030921155e+000	 9.955983715699281e-001	 1.322097952969413e+001
 1.242165100127623e+000	 1.008477002255128e+000	 1.315123074496693e+001
 1.360117705726915e+000	 8.892158492321584e-001	 1.368007519457009e+001
 1.350931212612843e+000	 9.031112106293023e-001	 1.367645650512068e+001
 1.341593277861981e+000	 9.169255568408841e-001	 1.366141468908472e+001
 1.332104944746835e+000	 9.306564436934002e-001	 1.363476079223992e+001
 1.322467308593137e+000	 9.443014443079969e-001	 1.359630489518695e+001
 1.312681516438834e+000	 9.578581504745287e-001	 1.354585624992461e+001
 1.302748766649842e+000	 9.713241740181526e-001	 1.348322342765960e+001
 1.292670308492750e+000	 9.846971481568895e-001	 1.340821447782397e+001
 1.282447441664671e+000	 9.979747288485644e-001	 1.332063709823180e+001
 1.272081515780578e+000	 1.011154596125574e+000	 1.322029881626620e+001
 1.261573929818444e+000	 1.024234455415901e+000	 1.310700718094504e+001
 1.381042593508102e+000	 9.028960930664768e-001	 1.364742798752115e+001
 1.371714769730612e+000	 9.170052292537990e-001	 1.364697773692270e+001
 1.362233174445025e+000	 9.310321038682110e-001	 1.363429561386318e+001
 1.352598866974193e+000	 9.449742351335395e-001	 1.360909969228266e+001
 1.342812959495014e+000	 9.588291588343345e-001	 1.357110716468758e+001
 1.332876616692172e+000	 9.725944297110627e-001	 1.352003457609721e+001
 1.322791055367983e+000	 9.862676228477315e-001	 1.345559807001222e+001
 1.312557544008519e+000	 9.998463350503301e-001	 1.337751364622417e+001
 1.302177402306237e+000	 1.013328186214498e+000	 1.328549743024148e+001
 1.291652000639415e+000	 1.026710820680821e+000	 1.317926595406245e+001
 1.280982759508765e+000	 1.039991908576176e+000	 1.305853644798249e+001
 1.401967481289294e+000	 9.165763369012980e-001	 1.360830679839940e+001
 1.392498326848202e+000	 9.308992478786984e-001	 1.360711531017944e+001
 1.382873071027734e+000	 9.451386508958402e-001	 1.359292563157712e+001
 1.373092789201091e+000	 9.592920265738815e-001	 1.356536484802567e+001
 1.363158610396335e+000	 9.733568733607741e-001	 1.352405921736848e+001
 1.353071716944887e+000	 9.873307089475989e-001	 1.346863449919764e+001
 1.342833344085464e+000	 1.001211071677212e+000	 1.339871629704036e+001
 1.332444779523623e+000	 1.014995521943573e+000	 1.331393041306291e+001
 1.321907362947162e+000	 1.028681643580133e+000	 1.321390321491340e+001
 1.311222485497665e+000	 1.042267045235670e+000	 1.309826201427880e+001
 1.300391589198583e+000	 1.055749361735952e+000	 1.296663545668329e+001
 1.422892369070492e+000	 9.302565807366219e-001	 1.356150100906532e+001
 1.413281883965611e+000	 9.447932665040006e-001	 1.355583296491015e+001
 1.403512967610108e+000	 9.592451979237719e-001	 1.353644200970368e+001
 1.393586711427527e+000	 9.736098180144256e-001	 1.350286613893068e+001
 1.383504261297097e+000	 9.878845878873159e-001	 1.345464254447757e+001
 1.373266817196979e+000	 1.002066988184137e+000	 1.339130803745774e+001
 1.362875632802286e+000	 1.016154520506594e+000	 1.331239948475023e+001
 1.352332015038063e+000	 1.030144708836617e+000	 1.321745425877493e+001
 1.341637323587446e+000	 1.044035100945469e+000	 1.310601069997618e+001
 1.330792970355329e+000	 1.057823269790120e+000	 1.297760859143638e+001
 1.319800418887901e+000	 1.071506814895229e+000	 1.283178964499137e+001
 1.443817256851695e+000	 9.439368245724484e-001	 1.350583501623851e+001
 1.434065441082840e+000	 9.586872851297054e-001	 1.349211911715587e+001
 1.424152864192146e+000	 9.733517449520065e-001	 1.346399642079483e+001
 1.414080633653502e+000	 9.879276094551719e-001	 1.342091765156602e+001
 1.403849912197303e+000	 1.002412302413960e+000	 1.336233272444461e+001
 1.393461917448448e+000	 1.016803267420677e+000	 1.328769125944642e+001
 1.382917921518449e+000	 1.031097969335878e+000	 1.319644311072328e+001
 1.372219250551837e+000	 1.045293895729462e+000	 1.308803890965736e+001
 1.361367284227090e+000	 1.059388558310507e+000	 1.296193062127985e+001
 1.350363455212408e+000	 1.073379494344171e+000	 1.281757211328532e+001
 1.339209248576718e+000	 1.087264268054008e+000	 1.265441973686134e+001
 1.464742144632903e+000	 9.576170684087775e-001	 1.344016573043609e+001
 1.454848998199890e+000	 9.725813037558125e-001	 1.341498509640666e+001
 1.444792760773848e+000	 9.874582919805434e-001	 1.337475391354358e+001
 1.434574555879015e+000	 1.002245400896121e+000	 1.331883737909911e+001
 1.424195563096951e+000	 1.016940016940706e+000	 1.324659984522546e+001
 1.413657017699293e+000	 1.031539546657219e+000	 1.315740542333124e+001
 1.402960210233953e+000	 1.046041418165064e+000	 1.305061860400380e+001
 1.392106486064946e+000	 1.060443082622109e+000	 1.292560489173667e+001
 1.381097244866092e+000	 1.074742015675246e+000	 1.278173145364441e+001
 1.369933940068900e+000	 1.088935718897824e+000	 1.261836778128885e+001
 1.358618078265032e+000	 1.103021721212288e+000	 1.243488636468635e+001
 1.164529781359323e+000	 9.454471896070471e-001	 1.324771765675282e+001
 1.154701044472046e+000	 9.574264973867980e-001	 1.311489249248876e+001
 1.144744261621738e+000	 9.693093291010768e-001	 1.298334141177975e+001
 1.134660857414088e+000	 9.810936441778935e-001	 1.285294047156266e+001
 1.124452299591371e+000	 9.927774302097262e-001	 1.272355730532863e+001
 1.114120098332700e+000	 1.004358704088371e+000	 1.259505158505751e+001
 1.103665805518577e+000	 1.015835513118795e+000	 1.246727550437610e+001
 1.093091013960508e+000	 1.027205936110678e+000	 1.234007428163086e+001
 1.082397356596456e+000	 1.038468084446387e+000	 1.221328668150186e+001
 1.071586505652983e+000	 1.049620103124114e+000	 1.208674555372333e+001
 1.060660171775000e+000	 1.060660171775000e+000	 1.196027838741976e+001
 1.183938611052150e+000	 9.612046427698152e-001	 1.326964323352877e+001
 1.173946061883105e+000	 9.733836056803343e-001	 1.312907430724878e+001
 1.163823332651751e+000	 9.854644845907676e-001	 1.299052795027111e+001
 1.153571871707206e+000	 9.974452049195915e-001	 1.285392660205374e+001
 1.143193171254116e+000	 1.009323720719159e+000	 1.271918315777511e+001
 1.132688766641246e+000	 1.021098015829463e+000	 1.258620139597963e+001
 1.122060235613774e+000	 1.032766105010551e+000	 1.245487642939662e+001
 1.111309197530064e+000	 1.044326035052265e+000	 1.232509517765658e+001
 1.100437312543711e+000	 1.055775885860012e+000	 1.219673686055846e+001
 1.089446280751720e+000	 1.067113771515287e+000	 1.206967351047497e+001
 1.078337841309750e+000	 1.078337841309750e+000	 1.194377050242258e+001
 1.203347440744476e+000	 9.769620959320846e-001	 1.326029986780999e+001
 1.193191079293752e+000	 9.893407139732818e-001	 1.311538383787579e+001
 1.182902403681423e+000	 1.001619640079799e+000	 1.297323141018460e+001
 1.172482886000033e+000	 1.013796765660581e+000	 1.283380895063956e+001
 1.161934042916601e+000	 1.025870011227853e+000	 1.269707214793142e+001
 1.151257434949542e+000	 1.037837327569805e+000	 1.256296640977341e+001
 1.140454665708711e+000	 1.049696696901566e+000	 1.243142728429665e+001
 1.129527381099329e+000	 1.061446133993143e+000	 1.230238090535651e+001
 1.118477268490625e+000	 1.073083687272977e+000	 1.217574446042526e+001
 1.107306055850046e+000	 1.084607439905871e+000	 1.205142667967421e+001
 1.096015510844000e+000	 1.096015510844000e+000	 1.192932834478329e+001
 1.222756270436300e+000	 9.927195490938553e-001	 1.322056751568390e+001
 1.212436096703989e+000	 1.005297822265641e+000	 1.307456210226225e+001
 1.201981474710754e+000	 1.017774795568173e+000	 1.293205545071140e+001
 1.191393900292569e+000	 1.030148326400862e+000	 1.279305545221202e+001
 1.180674914578825e+000	 1.042416301735808e+000	 1.265755817453713e+001
 1.169826103257588e+000	 1.054576639309397e+000	 1.252554822971641e+001
 1.158849095803388e+000	 1.066627288791843e+000	 1.239699916888578e+001
 1.147745564668305e+000	 1.078566232933311e+000	 1.227187390309465e+001
 1.136517224437199e+000	 1.090391488685283e+000	 1.215012514876189e+001
 1.125165830947962e+000	 1.102101108295864e+000	 1.203169589639459e+001
 1.113693180377750e+000	 1.113693180377750e+000	 1.191651990111187e+001
 1.242165100127623e+000	 1.008477002255128e+000	 1.315123074496693e+001
 1.231681114113813e+000	 1.021254930557411e+000	 1.300726415669996e+001
 1.221060545739743e+000	 1.033929951055887e+000	 1.286752712602472e+001
 1.210304914584814e+000	 1.046499887140433e+000	 1.273206671854061e+001
 1.199415786240788e+000	 1.058962592243023e+000	 1.260091701585859e+001
 1.188394771565383e+000	 1.071315951048240e+000	 1.247409945749838e+001
 1.177243525897804e+000	 1.083557880681380e+000	 1.235162321203742e+001
 1.165963748236990e+000	 1.095686331872769e+000	 1.223348557629780e+001
 1.154557180383433e+000	 1.107699290096929e+000	 1.211967240127373e+001
 1.143025606045469e+000	 1.119594776685267e+000	 1.201015854341733e+001
 1.131370849911000e+000	 1.131370849911000e+000	 1.190490833982586e+001
 1.261573929818444e+000	 1.024234455415901e+000	 1.310700718094504e+001
 1.250926131523227e+000	 1.037212038848592e+000	 1.291862061441547e+001
 1.240139616768392e+000	 1.050085106542942e+000	 1.278010277797351e+001
 1.229215928876769e+000	 1.062851447879295e+000	 1.265118121697469e+001
 1.218156657902490e+000	 1.075508882749499e+000	 1.252737080049479e+001
 1.206963439872927e+000	 1.088055262786334e+000	 1.240872746257422e+001
 1.195637955991960e+000	 1.100488472570177e+000	 1.229529364637613e+001
 1.184181931805385e+000	 1.112806430811517e+000	 1.218709868460467e+001
 1.172597136329328e+000	 1.125007091507914e+000	 1.208415920878500e+001
 1.160885381142565e+000	 1.137088445074080e+000	 1.198647958602294e+001
 1.149048519443750e+000	 1.149048519443750e+000	 1.189405238178076e+001
 1.280982759508765e+000	 1.039991908576176e+000	 1.305853644798249e+001
 1.270171148932229e+000	 1.053169147139185e+000	 1.288645810854988e+001
 1.259218687796699e+000	 1.066240262029339e+000	 1.271395950396213e+001
 1.248126943168432e+000	 1.079203008617448e+000	 1.255067997835359e+001
 1.236897529563932e+000	 1.092055173255236e+000	 1.243709207174603e+001
 1.225532108180221e+000	 1.104794574523678e+000	 1.232949780884837e+001
 1.214032386085855e+000	 1.117419064458234e+000	 1.222797060344802e+001
 1.202400115373489e+000	 1.129926529749554e+000	 1.213256951200111e+001
 1.190637092274881e+000	 1.142314892918240e+000	 1.204333962912394e+001
 1.178745156239252e+000	 1.154582113462304e+000	 1.196031251271131e+001
 1.166726188976000e+000	 1.166726188976000e+000	 1.188350663720648e+001
 1.300391589198583e+000	 1.055749361735952e+000	 1.296663545668329e+001
 1.289416166340821e+000	 1.069126255429189e+000	 1.281365476692396e+001
 1.278297758824666e+000	 1.082395417515077e+000	 1.266084587011562e+001
 1.267037957459805e+000	 1.095554569354892e+000	 1.250856912697341e+001
 1.255638401225113e+000	 1.108601463760233e+000	 1.235717287666031e+001
 1.244100776487265e+000	 1.121533886260272e+000	 1.223643737449218e+001
 1.232426816179491e+000	 1.134349656345552e+000	 1.214958265857733e+001
 1.220618298941304e+000	 1.147046628686883e+000	 1.206972984261522e+001
 1.208677048220095e+000	 1.159622694327906e+000	 1.199695020003277e+001
 1.196604931335528e+000	 1.172075781849937e+000	 1.193130019167751e+001
 1.184403858507750e+000	 1.184403858507750e+000	 1.187282191247034e+001
 1.319800418887901e+000	 1.071506814895229e+000	 1.283178964499137e+001
 1.308661183749000e+000	 1.085083363718604e+000	 1.270058521629997e+001
 1.297376829852291e+000	 1.098550573000156e+000	 1.257014210145828e+001
 1.285948971750886e+000	 1.111906130091627e+000	 1.244086804782921e+001
 1.274379272886033e+000	 1.125147754264492e+000	 1.231315775987615e+001
 1.262669444794058e+000	 1.138273197996117e+000	 1.218739247944252e+001
 1.250821246272865e+000	 1.151280248232129e+000	 1.206393959412073e+001
 1.238836482508829e+000	 1.164166727623501e+000	 1.199838876217746e+001
 1.226717004164970e+000	 1.176930495736912e+000	 1.194471122740939e+001
 1.214464706431394e+000	 1.189569450236981e+000	 1.189907565171665e+001
 1.202081528039000e+000	 1.202081528039000e+000	 1.186154548977305e+001
 1.339209248576718e+000	 1.087264268054008e+000	 1.265441973686134e+001
 1.327906201156769e+000	 1.101040472007430e+000	 1.254756576475957e+001
 1.316455900879575e+000	 1.114705728484576e+000	 1.244206121644227e+001
 1.304859986041677e+000	 1.128257690827653e+000	 1.233835989364260e+001
 1.293120144546692e+000	 1.141694044768010e+000	 1.223690152191510e+001
 1.281238113100600e+000	 1.155012509731212e+000	 1.213811127895994e+001
 1.269215676365980e+000	 1.168210840117968e+000	 1.204239935283158e+001
 1.257054666076063e+000	 1.181286826559410e+000	 1.195016053081912e+001
 1.244756960109503e+000	 1.194238297145258e+000	 1.188632796152803e+001
 1.232324481526850e+000	 1.207063118623434e+000	 1.186326279522401e+001
 1.219759197569750e+000	 1.219759197569750e+000	 1.184922138252300e+001
 1.358618078265032e+000	 1.103021721212288e+000	 1.243488636468635e+001
 1.347151218564126e+000	 1.116997580295668e+000	 1.235485856732393e+001
 1.335534971906517e+000	 1.130860883968336e+000	 1.227676797480706e+001
 1.323771000332176e+000	 1.144609251562969e+000	 1.220111315795888e+001
 1.311861016207091e+000	 1.158240335270790e+000	 1.212837756541883e+001
 1.299806781406893e+000	 1.171751821465558e+000	 1.205902900120019e+001
 1.287610106458834e+000	 1.185141432003066e+000	 1.199351913395758e+001
 1.275272849643007e+000	 1.198406925494609e+000	 1.193228303884061e+001
 1.262796916053697e+000	 1.211546098552944e+000	 1.187573877271834e+001
 1.250184256621897e+000	 1.224556787009298e+000	 1.182428698346953e+001
 1.237436867100000e+000	 1.237436867100000e+000	 1.183539056882137e+001
 1.060660171775000e+000	 1.060660171775000e+000	 1.196027838741976e+001
 1.049620103124114e+000	 1.071586505652983e+000	 1.181088490397978e+001
 1.038468084446386e+000	 1.082397356596456e+000	 1.165634703702224e+001
 1.027205936110678e+000	 1.093091013960509e+000	 1.149635664682721e+001
 1.015835513118795e+000	 1.103665805518577e+000	 1.133060757746693e+001
 1.004358704088371e+000	 1.114120098332699e+000	 1.115879639002175e+001
 9.927774302097263e-001	 1.124452299591371e+000	 1.098062309456146e+001
 9.810936441778935e-001	 1.134660857414088e+000	 1.079579187897940e+001
 9.693093291010766e-001	 1.144744261621738e+000	 1.060401183277244e+001
 9.574264973867980e-001	 1.154701044472046e+000	 1.040499766387316e+001
 9.454471896070471e-001	 1.164529781359323e+000	 1.019847040666008e+001
 1.078337841309750e+000	 1.078337841309750e+000	 1.194377050242258e+001
 1.067113771515287e+000	 1.089446280751720e+000	 1.179028511963861e+001
 1.055775885860012e+000	 1.100437312543710e+000	 1.163394357906880e+001
 1.044326035052265e+000	 1.111309197530064e+000	 1.147449152361059e+001
 1.032766105010551e+000	 1.122060235613774e+000	 1.131167414194648e+001
 1.021098015829463e+000	 1.132688766641246e+000	 1.114523686884886e+001
 1.009323720719159e+000	 1.143193171254116e+000	 1.097492608775394e+001
 9.974452049195917e-001	 1.153571871707205e+000	 1.080048983370182e+001
 9.854644845907675e-001	 1.163823332651751e+000	 1.062167849473856e+001
 9.733836056803344e-001	 1.173946061883105e+000	 1.043824550988134e+001
 9.612046427698152e-001	 1.183938611052150e+000	 1.024994806176006e+001
 1.096015510844000e+000	 1.096015510844000e+000	 1.192932834478329e+001
 1.084607439905871e+000	 1.107306055850046e+000	 1.177607156488124e+001
 1.073083687272977e+000	 1.118477268490624e+000	 1.162217833602313e+001
 1.061446133993143e+000	 1.129527381099330e+000	 1.146744513035220e+001
 1.049696696901566e+000	 1.140454665708711e+000	 1.131166556937401e+001
 1.037837327569805e+000	 1.151257434949542e+000	 1.115463109474957e+001
 1.025870011227853e+000	 1.161934042916601e+000	 1.099613164480932e+001
 1.013796765660581e+000	 1.172482886000033e+000	 1.083595633488808e+001
 1.001619640079799e+000	 1.182902403681423e+000	 1.067389413957307e+001
 9.893407139732818e-001	 1.193191079293752e+000	 1.050973457495476e+001
 9.769620959320847e-001	 1.203347440744476e+000	 1.034326837897569e+001
 1.113693180377750e+000	 1.113693180377750e+000	 1.191651990111187e+001
 1.102101108295864e+000	 1.125165830947962e+000	 1.176763856207122e+001
 1.090391488685283e+000	 1.136517224437199e+000	 1.162027576697999e+001
 1.078566232933311e+000	 1.147745564668305e+000	 1.147427592981900e+001
 1.066627288791843e+000	 1.158849095803387e+000	 1.132947825647737e+001
 1.054576639309397e+000	 1.169826103257588e+000	 1.118571738939278e+001
 1.042416301735808e+000	 1.180674914578825e+000	 1.104282406131498e+001
 1.030148326400862e+000	 1.191393900292569e+000	 1.090062575629052e+001
 1.017774795568173e+000	 1.201981474710754e+000	 1.075894737594979e+001
 1.005297822265641e+000	 1.212436096703989e+000	 1.061761190916919e+001
 9.927195490938553e-001	 1.222756270436300e+000	 1.047644110317877e+001
 1.131370849911000e+000	 1.131370849911000e+000	 1.190490833982586e+001
 1.119594776685267e+000	 1.143025606045469e+000	 1.176438744252486e+001
 1.107699290096929e+000	 1.154557180383433e+000	 1.162747894522408e+001
 1.095686331872768e+000	 1.165963748236990e+000	 1.149407237675229e+001
 1.083557880681380e+000	 1.177243525897804e+000	 1.136404973689495e+001
 1.071315951048240e+000	 1.188394771565383e+000	 1.123728611820351e+001
 1.058962592243023e+000	 1.199415786240788e+000	 1.111365034028566e+001
 1.046499887140433e+000	 1.210304914584814e+000	 1.099300559466449e+001
 1.033929951055887e+000	 1.221060545739743e+000	 1.087521009827127e+001
 1.021254930557411e+000	 1.231681114113813e+000	 1.076011775362097e+001
 1.008477002255128e+000	 1.242165100127623e+000	 1.064757881370964e+001
 1.149048519443750e+000	 1.149048519443750e+000	 1.189405238178076e+001
 1.137088445074080e+000	 1.160885381142565e+000	 1.176572600736097e+001
 1.125007091507914e+000	 1.172597136329327e+000	 1.164304812636921e+001
 1.112806430811516e+000	 1.184181931805385e+000	 1.152595061079299e+001
 1.100488472570177e+000	 1.195637955991960e+000	 1.141435551679792e+001
 1.088055262786333e+000	 1.206963439872927e+000	 1.130817568699693e+001
 1.075508882749499e+000	 1.218156657902490e+000	 1.120731536851510e+001
 1.062851447879295e+000	 1.229215928876769e+000	 1.111167084492212e+001
 1.050085106542942e+000	 1.240139616768392e+000	 1.102113108007458e+001
 1.037212038848592e+000	 1.250926131523227e+000	 1.092174333450557e+001
 1.024234455415901e+000	 1.261573929818444e+000	 1.068622620345485e+001
 1.166726188976000e+000	 1.166726188976000e+000	 1.188350663720648e+001
 1.154582113462304e+000	 1.178745156239252e+000	 1.177106803736440e+001
 1.142314892918240e+000	 1.190637092274882e+000	 1.166625944666691e+001
 1.129926529749554e+000	 1.202400115373490e+000	 1.156905235914058e+001
 1.117419064458234e+000	 1.214032386085856e+000	 1.147940619818317e+001
 1.104794574523678e+000	 1.225532108180221e+000	 1.139726890255502e+001
 1.092055173255236e+000	 1.236897529563932e+000	 1.132257753144144e+001
 1.079203008617448e+000	 1.248126943168432e+000	 1.125525888663542e+001
 1.066240262029339e+000	 1.259218687796699e+000	 1.105063017442513e+001
 1.053169147139185e+000	 1.270171148932229e+000	 1.083335541035626e+001
 1.039991908576176e+000	 1.280982759508765e+000	 1.063352637042599e+001
 1.184403858507750e+000	 1.184403858507750e+000	 1.187282191247034e+001
 1.172075781849937e+000	 1.196604931335528e+000	 1.177983284674228e+001
 1.159622694327906e+000	 1.208677048220096e+000	 1.169640373788396e+001
 1.147046628686883e+000	 1.220618298941304e+000	 1.162254302703392e+001
 1.134349656345552e+000	 1.232426816179491e+000	 1.155824485978189e+001
 1.121533886260272e+000	 1.244100776487265e+000	 1.150348965912138e+001
 1.108601463760233e+000	 1.255638401225113e+000	 1.136350834562377e+001
 1.095554569354892e+000	 1.267037957459804e+000	 1.114221647739306e+001
 1.082395417515077e+000	 1.278297758824666e+000	 1.094089132548563e+001
 1.069126255429189e+000	 1.289416166340821e+000	 1.075963266698343e+001
 1.055749361735952e+000	 1.300391589198583e+000	 1.059851487199319e+001
 1.202081528039000e+000	 1.202081528039000e+000	 1.186154548977305e+001
 1.189569450236981e+000	 1.214464706431394e+000	 1.179144487625464e+001
 1.176930495736912e+000	 1.226717004164969e+000	 1.173278544675005e+001
 1.164166727623501e+000	 1.238836482508828e+000	 1.168560995671892e+001
 1.151280248232129e+000	 1.250821246272865e+000	 1.163522964544954e+001
 1.138273197996117e+000	 1.262669444794058e+000	 1.140311127172391e+001
 1.125147754264492e+000	 1.274379272886033e+000	 1.119320226327333e+001
 1.111906130091627e+000	 1.285948971750886e+000	 1.100569039699465e+001
 1.098550573000156e+000	 1.297376829852291e+000	 1.084073440576159e+001
 1.085083363718604e+000	 1.308661183749000e+000	 1.069846428425786e+001
 1.071506814895229e+000	 1.319800418887901e+000	 1.057898164354746e+001
 1.219759197569750e+000	 1.219759197569750e+000	 1.184922138252300e+001
 1.207063118623434e+000	 1.232324481526850e+000	 1.180533332172533e+001
 1.194238297145258e+000	 1.244756960109503e+000	 1.177472164836610e+001
 1.181286826559410e+000	 1.257054666076063e+000	 1.162552473798140e+001
 1.168210840117968e+000	 1.269215676365980e+000	 1.140070913274512e+001
 1.155012509731212e+000	 1.281238113100600e+000	 1.120033165974640e+001
 1.141694044768010e+000	 1.293120144546692e+000	 1.102464639007706e+001
 1.128257690827653e+000	 1.304859986041677e+000	 1.087387517238029e+001
 1.114705728484575e+000	 1.316455900879575e+000	 1.074820787209750e+001
 1.101040472007430e+000	 1.327906201156769e+000	 1.064780266536567e+001
 1.087264268054008e+000	 1.339209248576718e+000	 1.057278638617166e+001
 1.237436867100000e+000	 1.237436867100000e+000	 1.183539056882137e+001
 1.224556787009298e+000	 1.250184256621897e+000	 1.181727990014924e+001
 1.211546098552944e+000	 1.262796916053697e+000	 1.157202995971380e+001
 1.198406925494609e+000	 1.275272849643007e+000	 1.135294803027110e+001
 1.185141432003067e+000	 1.287610106458834e+000	 1.116039384499016e+001
 1.171751821465558e+000	 1.299806781406892e+000	 1.099469173258106e+001
 1.158240335270790e+000	 1.311861016207091e+000	 1.085613072043192e+001
 1.144609251562970e+000	 1.323771000332176e+000	 1.074496469933582e+001
 1.130860883968336e+000	 1.335534971906517e+000	 1.066141264868485e+001
 1.116997580295668e+000	 1.347151218564126e+000	 1.060565892085726e+001
 1.103021721212288e+000	 1.358618078265032e+000	 1.057785358337680e+001
 9.454471896070471e-001	 1.164529781359323e+000	 1.019847040666008e+001
 9.333734733433584e-001	 1.174229091477602e+000	 1.002334430805144e+001
 9.212074420144205e-001	 1.183797638447231e+000	 9.855186844102690e+000
 9.089512136867100e-001	 1.193234130903926e+000	 9.694119503655195e+000
 8.966069298687863e-001	 1.202537323049252e+000	 9.540256735428198e+000
 8.841767542918877e-001	 1.211706015162792e+000	 9.393706265108412e+000
 8.716628716778431e-001	 1.220739054075391e+000	 9.254569416574256e+000
 8.590674864957389e-001	 1.229635333603122e+000	 9.122941436050169e+000
 8.463928217087879e-001	 1.238393794941728e+000	 8.998911818000719e+000
 8.336411175128569e-001	 1.247013427021299e+000	 8.882564631593219e+000
 8.208146300681053e-001	 1.255493266821059e+000	 8.723444813179427e+000
 9.612046427698152e-001	 1.183938611052150e+000	 1.024994806176006e+001
 9.489296979005989e-001	 1.193799576339370e+000	 1.011153639547086e+001
 9.365608993818463e-001	 1.203527599092000e+000	 9.977573796254694e+000
 9.241004005811425e-001	 1.213121366423021e+000	 9.848075825394359e+000
 9.115503786988560e-001	 1.222579611770688e+000	 9.723053862847518e+000
 8.989130335284119e-001	 1.231901115419247e+000	 9.602515538982285e+000
 8.861905862036693e-001	 1.241084704980054e+000	 9.486465165772019e+000
 8.733852779348664e-001	 1.250129255832787e+000	 9.373530614573570e+000
 8.604993687346021e-001	 1.259033691526450e+000	 9.175362319228132e+000
 8.475351361353408e-001	 1.267796984139968e+000	 8.990130865811587e+000
 8.344948738999105e-001	 1.276418154602220e+000	 8.817826416464401e+000
 9.769620959320847e-001	 1.203347440744476e+000	 1.034326837897569e+001
 9.644859224574407e-001	 1.213370061200551e+000	 1.023743345614710e+001
 9.519143567489734e-001	 1.223257559736129e+000	 1.013360374800624e+001
 9.392495874753767e-001	 1.233008601941451e+000	 1.003168976224660e+001
 9.264938275288278e-001	 1.242621900491465e+000	 9.931600635013520e+000
 9.136493127649381e-001	 1.252096215675078e+000	 9.808756846364474e+000
 9.007183007295984e-001	 1.261430355884161e+000	 9.607420062999008e+000
 8.877030693741963e-001	 1.270623178061991e+000	 9.416524413801254e+000
 8.746059157607187e-001	 1.279673588110835e+000	 9.235998475986882e+000
 8.614291547582271e-001	 1.288580541258457e+000	 9.065759774973069e+000
 8.481751177322187e-001	 1.297343042383386e+000	 8.905715308525346e+000
 9.927195490938553e-001	 1.222756270436300e+000	 1.047644110317877e+001
 9.800421470138834e-001	 1.232940546061146e+000	 1.039927631341632e+001
 9.672678141158025e-001	 1.242987520379617e+000	 1.032174477324416e+001
 9.543987743694127e-001	 1.252895837459215e+000	 1.020671676900937e+001
 9.414372763587008e-001	 1.262664189211584e+000	 1.000810490899885e+001
 9.283855920014663e-001	 1.272291315930287e+000	 9.817844904373530e+000
 9.152460152556287e-001	 1.281776006787710e+000	 9.635796090706281e+000
 9.020208608137285e-001	 1.291117100290733e+000	 9.461808145954665e+000
 8.887124627871379e-001	 1.300313484694886e+000	 9.295721684192703e+000
 8.753231733815161e-001	 1.309364098376765e+000	 9.137368860998256e+000
 8.618553615650291e-001	 1.318267930164557e+000	 8.986573988740490e+000
 1.008477002255128e+000	 1.242165100127623e+000	 1.064757881370964e+001
 9.955983715699281e-001	 1.252511030921155e+000	 1.056063845332654e+001
 9.826212714823328e-001	 1.262717481022464e+000	 1.036926994316464e+001
 9.695479612632501e-001	 1.272783072976315e+000	 1.018458728396887e+001
 9.563807251884761e-001	 1.282706477931043e+000	 1.000637430014252e+001
 9.431218712379964e-001	 1.292486416184872e+000	 9.834406135430006e+000
 9.297737297817619e-001	 1.302121657690702e+000	 9.668449924191418e+000
 9.163386522534633e-001	 1.311611022519015e+000	 9.508265474497490e+000
 9.028190098138598e-001	 1.320953381278601e+000	 9.353605961141161e+000
 8.892171920052078e-001	 1.330147655494894e+000	 9.204218626649595e+000
 8.755356053983423e-001	 1.339192817945733e+000	 9.059845488377023e+000
 1.024234455415901e+000	 1.261573929818444e+000	 1.068622620345485e+001
 1.011154596125574e+000	 1.272081515780578e+000	 1.051067149532499e+001
 9.979747288485645e-001	 1.282447441664671e+000	 1.034027654865747e+001
 9.846971481568890e-001	 1.292670308492749e+000	 1.017473672587816e+001
 9.713241740181527e-001	 1.302748766649842e+000	 1.001373999748367e+001
 9.578581504745288e-001	 1.312681516438834e+000	 9.856967709106780e+000
 9.443014443079969e-001	 1.322467308593137e+000	 9.704095359264626e+000
 9.306564436934003e-001	 1.332104944746835e+000	 9.554793385712911e+000
 9.169255568408840e-001	 1.341593277861981e+000	 9.408727958317483e+000
 9.031112106293021e-001	 1.350931212612843e+000	 9.265561776352447e+000
 8.892158492321584e-001	 1.360117705726915e+000	 9.124954868137806e+000
 1.039991908576176e+000	 1.280982759508765e+000	 1.063352637042599e+001
 1.026710820680821e+000	 1.291652000639415e+000	 1.047743058414493e+001
 1.013328186214498e+000	 1.302177402306237e+000	 1.032484344586266e+001
 9.998463350503299e-001	 1.312557544008519e+000	 1.017536318733957e+001
 9.862676228477315e-001	 1.322791055367983e+000	 1.002858252962184e+001
 9.725944297110627e-001	 1.332876616692172e+000	 9.884089560012940e+000
 9.588291588343344e-001	 1.342812959495014e+000	 9.741468616790995e+000
 9.449742351335397e-001	 1.352598866974193e+000	 9.600301179399317e+000
 9.310321038682108e-001	 1.362233174445026e+000	 9.460166761836820e+000
 9.170052292537991e-001	 1.371714769730612e+000	 9.320643806978170e+000
 9.028960930664768e-001	 1.381042593508102e+000	 9.181310579567944e+000
 1.055749361735952e+000	 1.300391589198583e+000	 1.059851487199319e+001
 1.042267045235670e+000	 1.311222485497665e+000	 1.045881084399953e+001
 1.028681643580133e+000	 1.321907362947162e+000	 1.032104360532358e+001
 1.014995521943572e+000	 1.332444779523623e+000	 1.018471483535924e+001
 1.001211071677212e+000	 1.342833344085464e+000	 1.004932252072656e+001
 9.873307089475989e-001	 1.353071716944887e+000	 9.914361942641936e+000
 9.733568733607741e-001	 1.363158610396335e+000	 9.779326669178865e+000
 9.592920265738814e-001	 1.373092789201091e+000	 9.643709549951167e+000
 9.451386508958403e-001	 1.382873071027735e+000	 9.507003710755271e+000
 9.308992478786984e-001	 1.392498326848202e+000	 9.368703545721338e+000
 9.165763369012980e-001	 1.401967481289294e+000	 9.228305704544164e+000
 1.071506814895229e+000	 1.319800418887901e+000	 1.057898164354746e+001
 1.057823269790120e+000	 1.330792970355330e+000	 1.045277283016678e+001
 1.044035100945469e+000	 1.341637323587446e+000	 1.032700581932987e+001
 1.030144708836616e+000	 1.352332015038063e+000	 1.020108622940544e+001
 1.016154520506594e+000	 1.362875632802286e+000	 1.007441774233386e+001
 1.002066988184137e+000	 1.373266817196979e+000	 9.946403201968227e+000
 9.878845878873158e-001	 1.383504261297097e+000	 9.816445714531072e+000
 9.736098180144256e-001	 1.393586711427527e+000	 9.683949748520924e+000
 9.592451979237719e-001	 1.403512967610108e+000	 9.548322231412541e+000
 9.447932665040006e-001	 1.413281883965611e+000	 9.408973640517107e+000
 9.302565807366219e-001	 1.422892369070492e+000	 9.265319085397204e+000
 1.087264268054008e+000	 1.339209248576718e+000	 1.057278638617166e+001
 1.073379494344171e+000	 1.350363455212408e+000	 1.045733778760783e+001
 1.059388558310507e+000	 1.361367284227090e+000	 1.034091065686339e+001
 1.045293895729462e+000	 1.372219250551837e+000	 1.022281495963610e+001
 1.031097969335878e+000	 1.382917921518449e+000	 1.010236042150791e+001
 1.016803267420677e+000	 1.393461917448448e+000	 9.978857737905120e+000
 1.002412302413960e+000	 1.403849912197303e+000	 9.851619783478693e+000
 9.879276094551723e-001	 1.414080633653502e+000	 9.719962818036906e+000
 9.733517449520063e-001	 1.424152864192145e+000	 9.583207686179662e+000
 9.586872851297054e-001	 1.434065441082840e+000	 9.440681007813520e+000
 9.439368245724484e-001	 1.443817256851695e+000	 9.291716356763297e+000
 1.103021721212288e+000	 1.358618078265032e+000	 1.057785358337680e+001
 1.088935718897824e+000	 1.369933940068900e+000	 1.047058331598974e+001
 1.074742015675246e+000	 1.381097244866093e+000	 1.036098676526281e+001
 1.060443082622109e+000	 1.392106486064946e+000	 1.024827857327796e+001
 1.046041418165064e+000	 1.402960210233953e+000	 1.013167477973192e+001
 1.031539546657219e+000	 1.413657017699293e+000	 1.001039414423787e+001
 1.016940016940706e+000	 1.424195563096952e+000	 9.883659465429005e+000
 1.002245400896121e+000	 1.434574555879015e+000	 9.750698893790329e+000
 9.874582919805433e-001	 1.444792760773848e+000	 9.610747235170686e+000
 9.725813037558126e-001	 1.454848998199890e+000	 9.463047241963528e+000
 9.576170684087774e-001	 1.464742144632903e+000	 9.306850888990692e+000
 8.208146300681053e-001	 1.255493266821059e+000	 8.723444813179427e+000
 8.079156302257311e-001	 1.263832399644536e+000	 8.524463259624806e+000
 7.949464022496643e-001	 1.272029959353938e+000	 8.328455750044221e+000
 7.819092425357326e-001	 1.280085128564544e+000	 8.135253976124105e+000
 7.688064583308100e-001	 1.287997138799943e+000	 7.944689078116173e+000
 7.556403664517627e-001	 1.295765270607128e+000	 7.756592162496607e+000
 7.424132920061469e-001	 1.303388853632028e+000	 7.570794813893995e+000
 7.291275671160526e-001	 1.310867266655738e+000	 7.387129599956270e+000
 7.157855296464767e-001	 1.318199937591758e+000	 7.205430567864790e+000
 7.023895219395790e-001	 1.325386343444616e+000	 7.025533731248111e+000
 6.889418895561570e-001	 1.332426010230286e+000	 6.847277546292472e+000
 8.344948738999105e-001	 1.276418154602220e+000	 8.817826416464401e+000
 8.213808907269712e-001	 1.284896272971888e+000	 8.621048515333902e+000
 8.081955089514598e-001	 1.293230458675645e+000	 8.427665582847224e+000
 7.949410632424674e-001	 1.301419880705692e+000	 8.237483174065414e+000
 7.816198993009829e-001	 1.309463757777676e+000	 8.050305960823197e+000
 7.682343725574868e-001	 1.317361358447709e+000	 7.865938296621780e+000
 7.547868468713275e-001	 1.325112001189150e+000	 7.684184775733770e+000
 7.412796932332971e-001	 1.332715054429446e+000	 7.504850785084178e+000
 7.277152884728083e-001	 1.340169936547323e+000	 7.327743047513454e+000
 7.140960139710570e-001	 1.347476115830716e+000	 7.152670155073042e+000
 7.004242543815207e-001	 1.354633110395864e+000	 6.979443091052664e+000
 8.481751177322187e-001	 1.297343042383386e+000	 8.905715308525346e+000
 8.348461512288039e-001	 1.305960146299434e+000	 8.711381417046576e+000
 8.214446156539169e-001	 1.314430957997715e+000	 8.520852240082638e+000
 8.079728839499134e-001	 1.322754632847353e+000	 8.333906416011073e+000
 7.944333402718964e-001	 1.330930376756053e+000	 8.150321377109494e+000
 7.808283786639605e-001	 1.338957446289043e+000	 7.969873962985020e+000
 7.671604017372471e-001	 1.346835148747114e+000	 7.792341028133715e+000
 7.534318193512494e-001	 1.354562842204066e+000	 7.617500042086478e+000
 7.396450472997966e-001	 1.362139935503848e+000	 7.445129680641539e+000
 7.258025060031215e-001	 1.369565888217805e+000	 7.275010406729752e+000
 7.119066192073804e-001	 1.376840210562442e+000	 7.106925039511578e+000
 8.618553615650291e-001	 1.318267930164557e+000	 8.986573988740490e+000
 8.483114117312290e-001	 1.327024019627176e+000	 8.794954489746591e+000
 8.346937223570364e-001	 1.335631457320152e+000	 8.607539229352849e+000
 8.210047046580711e-001	 1.344089384989528e+000	 8.424079119671047e+000
 8.072467812435503e-001	 1.352396995735073e+000	 8.244323552284818e+000
 7.934223847711834e-001	 1.360553534131128e+000	 8.068021061558635e+000
 7.795339566039047e-001	 1.368558296305920e+000	 7.894919981970845e+000
 7.655839454699089e-001	 1.376410629979596e+000	 7.724769097816326e+000
 7.515748061274420e-001	 1.384109934461334e+000	 7.557318283669456e+000
 7.375089980357721e-001	 1.391655660605885e+000	 7.392319134048504e+000
 7.233889840337364e-001	 1.399047310730021e+000	 7.229525580776009e+000
 8.755356053983423e-001	 1.339192817945733e+000	 9.059845488377023e+000
 8.617766722342464e-001	 1.348087892955113e+000	 8.871240006341282e+000
 8.479428290608178e-001	 1.356831956642953e+000	 8.687228976883105e+000
 8.340365253669401e-001	 1.365424137132218e+000	 8.507534747288586e+000
 8.200602222159444e-001	 1.373863614714737e+000	 8.331877837884806e+000
 8.060163908791562e-001	 1.382149621973968e+000	 8.159977656611737e+000
 7.919075114713012e-001	 1.390281443865568e+000	 7.991553207488187e+000
 7.777360715892763e-001	 1.398258417756038e+000	 7.826323791202876e+000
 7.635045649557438e-001	 1.406079933419780e+000	 7.664009696110604e+000
 7.492154900690090e-001	 1.413745432994954e+000	 7.504332877964161e+000
 7.348713488605884e-001	 1.421254410898599e+000	 7.347017626771962e+000
 8.892158492321584e-001	 1.360117705726915e+000	 9.124954868137806e+000
 8.752419327378564e-001	 1.369151766283244e+000	 8.939691545513201e+000
 8.611919357652612e-001	 1.378032455966118e+000	 8.759404449165722e+000
 8.470683460765199e-001	 1.386758889275422e+000	 8.583786494522258e+000
 8.328736631890795e-001	 1.395330233695044e+000	 8.412528471192195e+000
 8.186103969878784e-001	 1.403745709817559e+000	 8.245319810225890e+000
 8.042810663394361e-001	 1.412004591426058e+000	 8.081849345112211e+000
 7.898881977093509e-001	 1.420106205533392e+000	 7.921806064630021e+000
 7.754343237847030e-001	 1.428049932379187e+000	 7.764879855718358e+000
 7.609219821028321e-001	 1.435835205385014e+000	 7.610762234585359e+000
 7.463537136879365e-001	 1.443461511068178e+000	 7.459147064335430e+000
 9.028960930664768e-001	 1.381042593508102e+000	 9.181310579567944e+000
 8.887071932420589e-001	 1.390215639611572e+000	 8.999745407949320e+000
 8.744410424703669e-001	 1.399232955289649e+000	 8.823530627182514e+000
 8.601001667868115e-001	 1.408093641419141e+000	 8.652328825793171e+000
 8.456871041629548e-001	 1.416796852675995e+000	 8.485800174801181e+000
 8.312044030973500e-001	 1.425341797661905e+000	 8.323603249127345e+000
 8.166546212083097e-001	 1.433727738987390e+000	 8.165395842560635e+000
 8.020403238301335e-001	 1.441953993311656e+000	 8.010835774280634e+000
 7.873640826143185e-001	 1.450019931339554e+000	 7.859581684982855e+000
 7.726284741372415e-001	 1.457924977776064e+000	 7.711293820711351e+000
 7.578360785157806e-001	 1.465668611238756e+000	 7.565634802567571e+000
 9.165763369012980e-001	 1.401967481289294e+000	 9.228305704544164e+000
 9.021724537468538e-001	 1.411279512940094e+000	 9.050821905743781e+000
 8.876901491761343e-001	 1.420433454613544e+000	 8.879055848606784e+000
 8.731319874978143e-001	 1.429428393563374e+000	 8.712638872138561e+000
 8.585005451375706e-001	 1.438263471657590e+000	 8.551199612937641e+000
 8.437984092075714e-001	 1.446937885507002e+000	 8.394364882251004e+000
 8.290281760779216e-001	 1.455450886549564e+000	 8.241760536387426e+000
 8.141924499516234e-001	 1.463801781090832e+000	 8.093012338360616e+000
 7.992938414445910e-001	 1.471989930300882e+000	 7.947746808687859e+000
 7.843349661722372e-001	 1.480014750168104e+000	 7.805592063332775e+000
 7.693184433441208e-001	 1.487875711410334e+000	 7.666178636844802e+000
 9.302565807366219e-001	 1.422892369070492e+000	 9.265319085397204e+000
 9.156377142522415e-001	 1.432343386268811e+000	 9.092326538029585e+000
 9.009392558825640e-001	 1.441633953937804e+000	 8.925413031576118e+000
 8.861638082095283e-001	 1.450763145708120e+000	 8.764177705725302e+000
 8.713139861129269e-001	 1.459730090639828e+000	 8.608216719280186e+000
 8.563924153185422e-001	 1.468533973352852e+000	 8.457124184401275e+000
 8.414017309482721e-001	 1.477174034112580e+000	 8.310493093980405e+000
 8.263445760738212e-001	 1.485649568870919e+000	 8.167916239891188e+000
 8.112236002755201e-001	 1.493959929263171e+000	 8.028987119918844e+000
 7.960414582078192e-001	 1.502104522561134e+000	 7.893300831235299e+000
 7.808008081729572e-001	 1.510082811582913e+000	 7.760454948357323e+000
 9.439368245724484e-001	 1.443817256851695e+000	 9.291716356763297e+000
 9.291029747582215e-001	 1.453407259597724e+000	 9.123651064381626e+000
 9.141883625896556e-001	 1.462834453262429e+000	 8.962020792050067e+000
 8.991956289219539e-001	 1.472097897853381e+000	 8.806391503536045e+000
 8.841274270890236e-001	 1.481196709622710e+000	 8.656325909318708e+000
 8.689864214302620e-001	 1.490130061199455e+000	 8.511384459595170e+000
 8.537752858193610e-001	 1.498897181676438e+000	 8.371126330167213e+000
 8.384967021967261e-001	 1.507497356651917e+000	 8.235110398823730e+000
 8.231533591071064e-001	 1.515929928226421e+000	 8.102896209895656e+000
 8.077479502439875e-001	 1.524194294955155e+000	 7.974044924724371e+000
 7.922831730022893e-001	 1.532289911756491e+000	 7.848120255861748e+000
 9.576170684087774e-001	 1.464742144632903e+000	 9.306850888990692e+000
 9.425682352647938e-001	 1.474471132926832e+000	 9.144174486213602e+000
 9.274374692974090e-001	 1.484034952587418e+000	 8.988284465394232e+000
 9.122274496350906e-001	 1.493432649999157e+000	 8.838712611311037e+000
 8.969408680658606e-001	 1.502663328606234e+000	 8.694987188796256e+000
 8.815804275427316e-001	 1.511726149046811e+000	 8.556633996118224e+000
 8.661488406911885e-001	 1.520620329241137e+000	 8.423177410969714e+000
 8.506488283203392e-001	 1.529345144433827e+000	 8.294141426544842e+000
 8.350831179393492e-001	 1.537899927190630e+000	 8.169050675249178e+000
 8.194544422807419e-001	 1.546284067350165e+000	 8.047431437659661e+000
 8.037655378321177e-001	 1.554497011931069e+000	 7.928812634426323e+000
 6.889418895561570e-001	 1.332426010230286e+000	 6.847277546292472e+000
 6.754449800253557e-001	 1.339318512858777e+000	 6.653467293154766e+000
 6.619011416047155e-001	 1.346063474979750e+000	 6.459013688644230e+000
 6.483127220513681e-001	 1.352660568791450e+000	 6.263780645143878e+000
 6.346820674049267e-001	 1.359109514813409e+000	 6.067638005497241e+000
 6.210115207841032e-001	 1.365410081623910e+000	 5.884414727757076e+000
 6.073034211979438e-001	 1.371562085562787e+000	 5.738532223878528e+000
 5.935601023727934e-001	 1.377565390400310e+000	 5.598956015341318e+000
 5.797838915960678e-001	 1.383419906972935e+000	 5.466196361417329e+000
 5.659771085778667e-001	 1.389125592786738e+000	 5.340743104120123e+000
 5.521420643314210e-001	 1.394682451589383e+000	 5.223064578764532e+000
 7.004242543815207e-001	 1.354633110395864e+000	 6.979443091052664e+000
 6.867023963587897e-001	 1.361640488067934e+000	 6.790662191861437e+000
 6.729328272979888e-001	 1.368497866224071e+000	 6.601177117332433e+000
 6.591179340855365e-001	 1.375204911599156e+000	 6.410821279868085e+000
 6.452601018617065e-001	 1.381761340054712e+000	 6.219434400053907e+000
 6.313617127971891e-001	 1.388166916311995e+000	 6.026862919370289e+000
 6.174251448845149e-001	 1.394421453649835e+000	 5.863129511882113e+000
 6.034527707454686e-001	 1.400524813568007e+000	 5.729748257293266e+000
 5.894469564555900e-001	 1.406476905416907e+000	 5.603694704181239e+000
 5.754100603868140e-001	 1.412277685994379e+000	 5.485489728511810e+000
 5.613444320692591e-001	 1.417927159110548e+000	 5.375631561942343e+000
 7.119066192073804e-001	 1.376840210562442e+000	 7.106925039511578e+000
 6.979598126926294e-001	 1.383962463278092e+000	 6.923035878563004e+000
 6.839645129915994e-001	 1.390932257469392e+000	 6.738370438499488e+000
 6.699231461199932e-001	 1.397749254407861e+000	 6.552731064580861e+000
 6.558381363187454e-001	 1.404413165297016e+000	 6.365926803486524e+000
 6.417119048105254e-001	 1.410923751001080e+000	 6.177773859291258e+000
 6.275468685713479e-001	 1.417280821737884e+000	 5.988096028155402e+000
 6.133454391184368e-001	 1.423484236736704e+000	 5.848542211061752e+000
 5.991100213154564e-001	 1.429533903861880e+000	 5.727341213709029e+000
 5.848430121961761e-001	 1.435429779203020e+000	 5.614540933527099e+000
 5.705467998076025e-001	 1.441171866632713e+000	 5.510672240160178e+000
 7.233889840337364e-001	 1.399047310730021e+000	 7.229525580776009e+000
 7.092172290268761e-001	 1.406284438489250e+000	 7.050439828933681e+000
 6.949961986855466e-001	 1.413366648715713e+000	 6.870494719410986e+000
 6.807283581547375e-001	 1.420293597217567e+000	 6.689460927479318e+000
 6.664161707760433e-001	 1.427064990540319e+000	 6.507116238752077e+000
 6.520620968241121e-001	 1.433680585691165e+000	 6.323246049401585e+000
 6.376685922584428e-001	 1.440140189826932e+000	 6.137643843687489e+000
 6.232381074916984e-001	 1.446443659906401e+000	 5.958088568789093e+000
 6.087730861756668e-001	 1.452590902307852e+000	 5.839856076740202e+000
 5.942759640059532e-001	 1.458581872412662e+000	 5.730586614443180e+000
 5.797491675464509e-001	 1.464416574155878e+000	 5.630846475848531e+000
 7.348713488605884e-001	 1.421254410898599e+000	 7.347017626771962e+000
 7.204746453615288e-001	 1.428606413701408e+000	 7.172694339888248e+000
 7.060278843798309e-001	 1.435801039963035e+000	 6.997417929446790e+000
 6.915335701897699e-001	 1.442837940028273e+000	 6.820926763171962e+000
 6.769942052336005e-001	 1.449716815784622e+000	 6.642966743911707e+000
 6.624122888379495e-001	 1.456437420382251e+000	 6.463291855112817e+000
 6.477903159457994e-001	 1.462999557916980e+000	 6.281664682159907e+000
 6.331307758652531e-001	 1.469403083077098e+000	 6.097856908584821e+000
 6.184361510362216e-001	 1.475647900754824e+000	 5.943914553371970e+000
 6.037089158161451e-001	 1.481733965623303e+000	 5.836269725207619e+000
 5.889515352858046e-001	 1.487661281680043e+000	 5.738765165667590e+000
 7.463537136879365e-001	 1.443461511068178e+000	 7.459147064335430e+000
 7.317320616965880e-001	 1.450928388914566e+000	 7.289590927948234e+000
 7.170595700744522e-001	 1.458235431211356e+000	 7.118977486092295e+000
 7.023387822250904e-001	 1.465382282839978e+000	 6.947012127569756e+000
 6.875722396914169e-001	 1.472368641029925e+000	 6.773408217123182e+000
 6.727624808520369e-001	 1.479194255074336e+000	 6.597887687223435e+000
 6.579120396334177e-001	 1.485858926008029e+000	 6.420181604229870e+000
 6.430234442391007e-001	 1.492362506248796e+000	 6.240030707854753e+000
 6.280992158971204e-001	 1.498704899202796e+000	 6.057185922955630e+000
 6.131418676267521e-001	 1.504886058834944e+000	 5.934189889309660e+000
 5.981539030256632e-001	 1.510905989205208e+000	 5.836994007105056e+000
 7.578360785157806e-001	 1.465668611238756e+000	 7.565634802567571e+000
 7.429894780320530e-001	 1.473250364128723e+000	 7.400894509574506e+000
 7.280912557694106e-001	 1.480669822460677e+000	 7.234982569476067e+000
 7.131439942606986e-001	 1.487926625652684e+000	 7.067570687787601e+000
 6.981502741494924e-001	 1.495020466276229e+000	 6.898339002996704e+000
 6.831126728663752e-001	 1.501951089767421e+000	 6.726976725753203e+000
 6.680337633212981e-001	 1.508718294100077e+000	 6.553182750897309e+000
 6.529161126132416e-001	 1.515321929421493e+000	 6.376666241178118e+000
 6.377622807583634e-001	 1.521761897651768e+000	 6.197147181616007e+000
 6.225748194377736e-001	 1.528038152047585e+000	 6.026906682390960e+000
 6.073562707660272e-001	 1.534150696731373e+000	 5.928056922655931e+000
 7.693184433441208e-001	 1.487875711410334e+000	 7.666178636844802e+000
 7.542468943679248e-001	 1.495572339343881e+000	 7.506345386246670e+000
 7.391229414647058e-001	 1.503104213710998e+000	 7.345216229634891e+000
 7.239492062965948e-001	 1.510470968466389e+000	 7.182428452651554e+000
 7.087283086078270e-001	 1.517672291523532e+000	 7.017628247337446e+000
 6.934628648809639e-001	 1.524707924461506e+000	 6.850471399851983e+000
 6.781554870094402e-001	 1.531577662193125e+000	 6.680623949449383e+000
 6.628087809876755e-001	 1.538281352595190e+000	 6.507762817485548e+000
 6.474253456199506e-001	 1.544818896101741e+000	 6.331576405334648e+000
 6.320077712492103e-001	 1.551190245261227e+000	 6.151765160202825e+000
 6.165586385068961e-001	 1.557395404258538e+000	 6.014439177359341e+000
 7.808008081729572e-001	 1.510082811582913e+000	 7.760454948357323e+000
 7.655043107042029e-001	 1.517894314560039e+000	 7.605661054387800e+000
 7.501546271603380e-001	 1.525538604962319e+000	 7.449437307844365e+000
 7.347544183327789e-001	 1.533015311281095e+000	 7.291385806396315e+000
 7.193063430664208e-001	 1.540324116771835e+000	 7.131118044116606e+000
 7.038130568958031e-001	 1.547464759156591e+000	 6.968255648893118e+000
 6.882772106978443e-001	 1.554437030287174e+000	 6.802431089468908e+000
 6.727014493624025e-001	 1.561240775769887e+000	 6.633288350804220e+000
 6.570884104818818e-001	 1.567875894552713e+000	 6.460483576564704e+000
 6.414407230610617e-001	 1.574342338475868e+000	 6.283685677653522e+000
 6.257610062482705e-001	 1.580640111786703e+000	 6.102576905819328e+000
 7.922831730022893e-001	 1.532289911756491e+000	 7.848120255861748e+000
 7.767617270408872e-001	 1.540216289777197e+000	 7.698537857904986e+000
 7.611863128563070e-001	 1.547972996214641e+000	 7.547382190876768e+000
 7.455596303692513e-001	 1.555559654096801e+000	 7.394219365519954e+000
 7.298843775252739e-001	 1.562975942021138e+000	 7.238625395749110e+000
 7.141632489108927e-001	 1.570221593852676e+000	 7.080186986949998e+000
 6.983989343865100e-001	 1.577296398382222e+000	 6.918502292233032e+000
 6.825941177374223e-001	 1.584200198945584e+000	 6.753181635250697e+000
 6.667514753441572e-001	 1.590932893004685e+000	 6.583848198306545e+000
 6.508736748733278e-001	 1.597494431691509e+000	 6.410138674602089e+000
 6.349633739901497e-001	 1.603884819315868e+000	 6.231703883589538e+000
 8.037655378321177e-001	 1.554497011931069e+000	 7.928812634426323e+000
 7.880191433779774e-001	 1.562538264995355e+000	 7.784652499083363e+000
 7.722179985526132e-001	 1.570407387467961e+000	 7.638766414894086e+000
 7.563648424060112e-001	 1.578103996913506e+000	 7.490683676478863e+000
 7.404624119843859e-001	 1.585627767271441e+000	 7.339944005347543e+000
 7.245134409262326e-001	 1.592978428549761e+000	 7.186098390317484e+000
 7.085206580754377e-001	 1.600155766478270e+000	 7.028709894163835e+000
 6.924867861127356e-001	 1.607159622122281e+000	 6.867354425024617e+000
 6.764145402067767e-001	 1.613989891457657e+000	 6.701621471211269e+000
 6.603066266860092e-001	 1.620646524908150e+000	 6.531114798197442e+000
 6.441657417325339e-001	 1.627129526846032e+000	 6.355453106687834e+000
 5.521420643314210e-001	 1.394682451589383e+000	 5.223064578764532e+000
 5.382810600734966e-001	 1.400090532911170e+000	 5.035853561133951e+000
 5.243963861452564e-001	 1.405349931577071e+000	 4.855843088550314e+000
 5.104903209545467e-001	 1.410460787190097e+000	 4.683278416954797e+000
 4.965651299408992e-001	 1.415423283586218e+000	 4.518382817080612e+000
 4.826230645635711e-001	 1.420237648262862e+000	 4.361356915065575e+000
 4.686663613134736e-001	 1.424904151781651e+000	 4.212378094127219e+000
 4.546972407496676e-001	 1.429423107146426e+000	 4.071599957958458e+000
 4.407179065610664e-001	 1.433794869157610e+000	 3.939151856306062e+000
 4.267305446539296e-001	 1.438019833743952e+000	 3.815138473001299e+000
 4.127373222656903e-001	 1.442098437272754e+000	 3.699639476521746e+000
 5.613444320692591e-001	 1.417927159110548e+000	 5.375631561942343e+000
 5.472524110733930e-001	 1.423425375121222e+000	 5.188313952892110e+000
 5.331363259128185e-001	 1.428772430431791e+000	 5.009331821456564e+000
 5.189984929688456e-001	 1.433968466971982e+000	 4.838994125346433e+000
 5.048412154383311e-001	 1.439013671641701e+000	 4.677585537647536e+000
 4.906667823048521e-001	 1.443908275729996e+000	 4.525365717580819e+000
 4.764774673341676e-001	 1.448652554307849e+000	 4.382568647531562e+000
 4.622755280946555e-001	 1.453246825595835e+000	 4.249402037056618e+000
 4.480632050033767e-001	 1.457691450307712e+000	 4.126046794368873e+000
 4.338427203983611e-001	 1.461986830971045e+000	 4.012656565589235e+000
 4.196162776376646e-001	 1.466133411225922e+000	 3.909357341855156e+000
 5.705467998076025e-001	 1.441171866632713e+000	 5.510672240160178e+000
 5.562237620738787e-001	 1.446760217332268e+000	 5.323771032548216e+000
 5.418762656810238e-001	 1.452194929287489e+000	 5.146337991929111e+000
 5.275066649838111e-001	 1.457476146754822e+000	 4.978747459422262e+000
 5.131173009364219e-001	 1.462604059698101e+000	 4.821347155960511e+000
 4.987105000467546e-001	 1.467578903198001e+000	 4.674457380676232e+000
 4.842885733554154e-001	 1.472400956834864e+000	 4.538370280889408e+000
 4.698538154400997e-001	 1.477070544045993e+000	 4.413349194460565e+000
 4.554085034460164e-001	 1.481588031458489e+000	 4.299628065046859e+000
 4.409548961429655e-001	 1.485953828198727e+000	 4.197410930576140e+000
 4.264952330096262e-001	 1.490168385179584e+000	 4.106871485037088e+000
 5.797491675464509e-001	 1.464416574155878e+000	 5.630846475848531e+000
 5.651951130749543e-001	 1.470095059544309e+000	 5.444743575758500e+000
 5.506162054498724e-001	 1.475617428144168e+000	 5.269240599986342e+000
 5.360148369994428e-001	 1.480983826538614e+000	 5.104779039874425e+000
 5.213933864351719e-001	 1.486194447755420e+000	 4.951771392854129e+000
 5.067542177892783e-001	 1.491249530666879e+000	 4.810600285864778e+000
 4.920996793772169e-001	 1.496149359362695e+000	 4.681617675838914e+000
 4.774321027860003e-001	 1.500894262496901e+000	 4.565144128072895e+000
 4.627538018889852e-001	 1.505484612609940e+000	 4.461468173062193e+000
 4.480670718877427e-001	 1.509920825426997e+000	 4.370845742143778e+000
 4.333741883815754e-001	 1.514203359133739e+000	 4.293499682053924e+000
 5.889515352858046e-001	 1.487661281680043e+000	 5.738765165667590e+000
 5.741664640766192e-001	 1.493429901757344e+000	 5.553706318959831e+000
 5.593561452193646e-001	 1.499039927001826e+000	 5.380379464803977e+000
 5.445230090157408e-001	 1.504491506323362e+000	 5.219295095021246e+000
 5.296694719345807e-001	 1.509784835813656e+000	 5.070932293674794e+000
 5.147979355324236e-001	 1.514920158136628e+000	 4.935737782859652e+000
 4.999107853995723e-001	 1.519897761891342e+000	 4.814125051156527e+000
 4.850103901323571e-001	 1.524717980948561e+000	 4.706473565630000e+000
 4.700991003322835e-001	 1.529381193762065e+000	 4.613128067993562e+000
 4.551792476326930e-001	 1.533887822655857e+000	 4.534397955312387e+000
 4.402531437535119e-001	 1.538238333088388e+000	 4.470556745366369e+000
 5.981539030256632e-001	 1.510905989205208e+000	 5.836994007105056e+000
 5.831378150788742e-001	 1.516764743971375e+000	 5.653093347001719e+000
 5.680960849894999e-001	 1.522462425860463e+000	 5.482058238626038e+000
 5.530311810327054e-001	 1.527999186109062e+000	 5.324470106374132e+000
 5.379455574346488e-001	 1.533375223872810e+000	 5.180876511010822e+000
 5.228416532761903e-001	 1.538590785607250e+000	 5.051790115097808e+000
 5.077218914224815e-001	 1.543646164420804e+000	 4.937687736823541e+000
 4.925886774791704e-001	 1.548541699400969e+000	 4.839009493176639e+000
 4.774443987759110e-001	 1.553277774914866e+000	 4.756158033133334e+000
 4.622914233778161e-001	 1.557854819885305e+000	 4.689497861260914e+000
 4.471320991254359e-001	 1.562273307043531e+000	 4.639354751873022e+000
 6.073562707660272e-001	 1.534150696731373e+000	 5.928056922655931e+000
 5.921091660817187e-001	 1.540099586186401e+000	 5.745301172812330e+000
 5.768360247602784e-001	 1.545884924720079e+000	 5.576547146684099e+000
 5.615393530503365e-001	 1.551506865895716e+000	 5.422449213699167e+000
 5.462216429353760e-001	 1.556965611932881e+000	 5.283625379900987e+000
 5.308853710205784e-001	 1.562261413078743e+000	 5.160656170215094e+000
 5.155329974459445e-001	 1.567394566951083e+000	 5.054083604995332e+000
 5.001669648264401e-001	 1.572365417854128e+000	 4.964410271860330e+000
 4.847896972198679e-001	 1.577174356068340e+000	 4.892098493539671e+000
 4.694035991231121e-001	 1.581821817115343e+000	 4.837569592163363e+000
 4.540110544973472e-001	 1.586308280999167e+000	 4.801203250149918e+000
 6.165586385068961e-001	 1.557395404258538e+000	 6.014439177359341e+000
 6.010805170851529e-001	 1.563434428402422e+000	 5.832691541273178e+000
 5.855759645317007e-001	 1.569307423580675e+000	 5.666085481750579e+000
 5.700475250686339e-001	 1.575014545683324e+000	 5.515350404699205e+000
 5.544977284367619e-001	 1.580555999993871e+000	 5.381176807204395e+000
 5.389290887655879e-001	 1.585932040551108e+000	 5.264215073763065e+000
 5.233441034699612e-001	 1.591142969482178e+000	 5.165074372824234e+000
 5.077452521741660e-001	 1.596189136308038e+000	 5.084321654715288e+000
 4.921349956641541e-001	 1.601070937222489e+000	 5.022480751725421e+000
 4.765157748685812e-001	 1.605788814345970e+000	 4.980031580816044e+000
 4.608900098692462e-001	 1.610343254955298e+000	 4.957409449131387e+000
 6.257610062482705e-001	 1.580640111786703e+000	 6.102576905819328e+000
 6.100518680891768e-001	 1.586769270619437e+000	 5.917593985693125e+000
 5.943159043037662e-001	 1.592729922442250e+000	 5.752883878583988e+000
 5.785556970875977e-001	 1.598522225471885e+000	 5.605266511489690e+000
 5.627738139388071e-001	 1.604146388055779e+000	 5.475506994260585e+000
 5.469728065112188e-001	 1.609602668024345e+000	 5.364327642303176e+000
 5.311552094945315e-001	 1.614891372014088e+000	 5.272406790327425e+000
 5.153235395223481e-001	 1.620012854762696e+000	 5.200377713729130e+000
 4.994802941087695e-001	 1.624967518377312e+000	 5.148827658433808e+000
 4.836279506142232e-001	 1.629755811577185e+000	 5.118296979709514e+000
 4.677689652411324e-001	 1.634378228911922e+000	 5.109278390142364e+000
 6.349633739901497e-001	 1.603884819315868e+000	 6.231703883589538e+000
 6.190232190937902e-001	 1.610104112837447e+000	 6.002308161980530e+000
 6.030558440764752e-001	 1.616152421304804e+000	 5.839126390596990e+000
 5.870638691072279e-001	 1.622029905261401e+000	 5.694267033466851e+000
 5.710498994415113e-001	 1.627736776118604e+000	 5.568572009753284e+000
 5.550165242574712e-001	 1.633273295498454e+000	 5.462837710145458e+000
 5.389663155196559e-001	 1.638639774546815e+000	 5.377813724962107e+000
 5.229018268709867e-001	 1.643836573218105e+000	 5.314201686295925e+000
 5.068255925537144e-001	 1.648864099532809e+000	 5.272654225085362e+000
 4.907401263600380e-001	 1.653722808808989e+000	 5.253774043659437e+000
 4.746479206130062e-001	 1.658413202869040e+000	 5.258113103971611e+000
 6.441657417325339e-001	 1.627129526846032e+000	 6.355453106687834e+000
 6.279945700989932e-001	 1.633438955056451e+000	 6.104445673589161e+000
 6.117957838498271e-001	 1.639574920168338e+000	 5.926972388523900e+000
 5.955720411275246e-001	 1.645537585051869e+000	 5.784399803930849e+000
 5.793259849448744e-001	 1.651327164182347e+000	 5.662309227757328e+000
 5.630602420043449e-001	 1.656943922973434e+000	 5.561573342366557e+000
 5.467774215453342e-001	 1.662388177080358e+000	 5.483015153236678e+000
 5.304801142200817e-001	 1.667660291674265e+000	 5.427406749115328e+000
 5.141708909989884e-001	 1.672760680688981e+000	 5.395468183729614e+000
 4.978523021060256e-001	 1.677689806041381e+000	 5.387866479640397e+000
 4.815268759848673e-001	 1.682448176826651e+000	 5.405214754481643e+000
 4.127373222656903e-001	 1.442098437272754e+000	 3.699639476521746e+000
 3.987403871052226e-001	 1.446031155840163e+000	 3.532059298286733e+000
 3.847418665210725e-001	 1.449818504541092e+000	 3.375772779133679e+000
 3.707438666974943e-001	 1.453461036720863e+000	 3.230843991488760e+000
 3.567484718777406e-001	 1.456959343210722e+000	 3.097308616026908e+000
 3.427577436160288e-001	 1.460314051546808e+000	 2.975173884112668e+000
 3.287737200581075e-001	 1.463525825174173e+000	 2.864418582911990e+000
 3.147984152506359e-001	 1.466595362636951e+000	 2.764993122023744e+000
 3.008338184795505e-001	 1.469523396755786e+000	 2.676819660334211e+000
 2.868818936375482e-001	 1.472310693793589e+000	 2.599792291657690e+000
 2.729445786207708e-001	 1.474958052610726e+000	 2.533777287598027e+000
 4.196162776376646e-001	 1.466133411225922e+000	 3.909357341855156e+000
 4.053860602251623e-001	 1.470131675103331e+000	 3.757105579027471e+000
 3.911542309650638e-001	 1.473982146283010e+000	 3.613988549710733e+000
 3.769229311446954e-001	 1.477685387332699e+000	 3.480108265582263e+000
 3.626942797446991e-001	 1.481241998930835e+000	 3.355539004156163e+000
 3.484703726785304e-001	 1.484652619072495e+000	 3.240327172123599e+000
 3.342532820610353e-001	 1.487917922260149e+000	 3.134491233527049e+000
 3.200450555063187e-001	 1.491038618680334e+000	 3.038021701703884e+000
 3.058477154550844e-001	 1.494015453367372e+000	 2.950881193777974e+000
 2.916632585315760e-001	 1.496849205355224e+000	 2.873004546331185e+000
 2.774936549302054e-001	 1.499540686818598e+000	 2.804298990746479e+000
 4.264952330096262e-001	 1.490168385179584e+000	 4.106871485037088e+000
 4.120317333449102e-001	 1.494232194366904e+000	 3.968602396410872e+000
 3.975665954087251e-001	 1.498145788025262e+000	 3.837449457619889e+000
 3.831019955914699e-001	 1.501909737944822e+000	 3.713553625990419e+000
 3.686400876111745e-001	 1.505524654651208e+000	 3.597028654368712e+000
 3.541830017405329e-001	 1.508991186598434e+000	 3.487960875521083e+000
 3.397328440634880e-001	 1.512310019346387e+000	 3.386409053724106e+000
 3.252916957615902e-001	 1.515481874724011e+000	 3.292404302561468e+000
 3.108616124303101e-001	 1.518507509979303e+000	 3.205950067778985e+000
 2.964446234254375e-001	 1.521387716917276e+000	 3.127022173890501e+000
 2.820427312396547e-001	 1.524123321026976e+000	 3.055568933081103e+000
 4.333741883815754e-001	 1.514203359133739e+000	 4.293499682053924e+000
 4.186774064644662e-001	 1.518332713630881e+000	 4.167834420305952e+000
 4.039789598520567e-001	 1.522309429767849e+000	 4.047403051498248e+000
 3.892810600378176e-001	 1.526134088557231e+000	 3.932386557600347e+000
 3.745858954771669e-001	 1.529807310371839e+000	 3.822939118797000e+000
 3.598956308020363e-001	 1.533329754124623e+000	 3.719187819017487e+000
 3.452124060654657e-001	 1.536702116432889e+000	 3.621232421204797e+000
 3.305383360164506e-001	 1.539925130767982e+000	 3.529145211419746e+000
 3.158755094052277e-001	 1.542999566591581e+000	 3.442970910697333e+000
 3.012259883191330e-001	 1.545926228479745e+000	 3.362726653407837e+000
 2.865918075491187e-001	 1.548705955235862e+000	 3.288402030715812e+000
 4.402531437535119e-001	 1.538238333088388e+000	 4.470556745366369e+000
 4.253230795838304e-001	 1.542433232895262e+000	 4.356081825324819e+000
 4.103913242950587e-001	 1.546473071510771e+000	 4.245091150198105e+000
 3.954601244837385e-001	 1.550358439169927e+000	 4.137806876429520e+000
 3.805317033426760e-001	 1.554089966092728e+000	 4.034424635149426e+000
 3.656082598630407e-001	 1.557668321651062e+000	 3.935113158814984e+000
 3.506919680669683e-001	 1.561094213519653e+000	 3.840013980336335e+000
 3.357849762708995e-001	 1.564368386812248e+000	 3.749241203856152e+000
 3.208894063798372e-001	 1.567491623204204e+000	 3.662881346164919e+000
 3.060073532126624e-001	 1.570464740042631e+000	 3.580993247556391e+000
 2.911408838585973e-001	 1.573288589445256e+000	 3.503608050759833e+000
 4.471320991254359e-001	 1.562273307043531e+000	 4.639354751873022e+000
 4.319687527030028e-001	 1.566533752160047e+000	 4.534620636611697e+000
 4.168036887377308e-001	 1.570636713254029e+000	 4.431750283539362e+000
 4.016391889292326e-001	 1.574582789782909e+000	 4.331008242615522e+000
 3.864775112077022e-001	 1.578372621813877e+000	 4.232632689357956e+000
 3.713208889235461e-001	 1.582006889177752e+000	 4.136834972490982e+000
 3.561715300679961e-001	 1.585486310606679e+000	 4.043799237022922e+000
 3.410316165249372e-001	 1.588811642856808e+000	 3.953682121990450e+000
 3.259033033541383e-001	 1.591983679817173e+000	 3.866612531910707e+000
 3.107887181060257e-001	 1.595003251605934e+000	 3.782691480794507e+000
 2.956899601680905e-001	 1.597871223655156e+000	 3.701992007394918e+000
 4.540110544973472e-001	 1.586308280999167e+000	 4.801203250149918e+000
 4.386144258219834e-001	 1.590634271425237e+000	 4.704723044196568e+000
 4.232160531800732e-001	 1.594800354997621e+000	 4.608612092994109e+000
 4.078182533742999e-001	 1.598807140396178e+000	 4.513178626770780e+000
 3.924233190722452e-001	 1.602655277535282e+000	 4.418704527076792e+000
 3.770335179835524e-001	 1.606345456704692e+000	 4.325444795257492e+000
 3.616510920685486e-001	 1.609878407693968e+000	 4.233627099498557e+000
 3.462782567785636e-001	 1.613254898901663e+000	 4.143451399746643e+000
 3.309172003281313e-001	 1.616475736430489e+000	 4.055089649601904e+000
 3.155700829992229e-001	 1.619541763169653e+000	 3.968685574079101e+000
 3.002390364775985e-001	 1.622453857865564e+000	 3.884354521945694e+000
 4.608900098692462e-001	 1.610343254955298e+000	 4.957409449131387e+000
 4.452600989407723e-001	 1.614734790690830e+000	 4.867657689197691e+000
 4.296284176220858e-001	 1.618963996741549e+000	 4.776903696488395e+000
 4.139973178189405e-001	 1.623031491009734e+000	 4.685500734573907e+000
 3.983691269363052e-001	 1.626937933256947e+000	 4.593775619374438e+000
 3.827461470430595e-001	 1.630684024231883e+000	 4.502028108197457e+000
 3.671306540686263e-001	 1.634270504781519e+000	 4.410530370690522e+000
 3.515248970317787e-001	 1.637698154946812e+000	 4.319526541076578e+000
 3.359310973018162e-001	 1.640967793044150e+000	 4.229232350818564e+000
 3.203514478922541e-001	 1.644080274733791e+000	 4.139834840649436e+000
 3.047881127871212e-001	 1.647036492076480e+000	 4.051492150704715e+000
 4.677689652411324e-001	 1.634378228911922e+000	 5.109278390142364e+000
 4.519057720593694e-001	 1.638835309956827e+000	 5.024689924770956e+000
 4.360407820637686e-001	 1.643127638485812e+000	 4.937848021016094e+000
 4.201763822631544e-001	 1.647255841623576e+000	 4.849152393897047e+000
 4.043149347998820e-001	 1.651220588978870e+000	 4.758976087335605e+000
 3.884587761020676e-001	 1.655022591759324e+000	 4.667664783421052e+000
 3.726102160682288e-001	 1.658662601869332e+000	 4.575536197138773e+000
 3.567715372845826e-001	 1.662141410992255e+000	 4.482879555987223e+000
 3.409449942751927e-001	 1.665459849658157e+000	 4.389955163677874e+000
 3.251328127851191e-001	 1.668618786298344e+000	 4.296994046888669e+000
 3.093371890966585e-001	 1.671619126287902e+000	 4.204197683832120e+000
 4.746479206130062e-001	 1.658413202869040e+000	 5.258113103971611e+000
 4.585514451777746e-001	 1.662935829223229e+000	 5.177082054368118e+000
 4.424531465051217e-001	 1.667291280230410e+000	 5.092664106329456e+000
 4.263554467069414e-001	 1.671480192237705e+000	 5.005306908270425e+000
 4.102607426629757e-001	 1.675503244701052e+000	 4.915431089741260e+000
 3.941714051605766e-001	 1.679361159287015e+000	 4.823429490513227e+000
 3.780897780673564e-001	 1.683054698957408e+000	 4.729666478879242e+000
 3.620181775369751e-001	 1.686584667037993e+000	 4.634477358652767e+000
 3.459588912482612e-001	 1.689951906272510e+000	 4.538167864099367e+000
 3.299141776778181e-001	 1.693157297863315e+000	 4.441013741805871e+000
 3.138862654062104e-001	 1.696201760499832e+000	 4.343260418263522e+000
 4.815268759848673e-001	 1.682448176826651e+000	 5.405214754481643e+000
 4.651971182959880e-001	 1.687036348490034e+000	 5.326093549572584e+000
 4.488655109461449e-001	 1.691454921975343e+000	 5.242567382599363e+000
 4.325345111503017e-001	 1.695704542852121e+000	 5.155133380049088e+000
 4.162065505255864e-001	 1.699785900423492e+000	 5.064261177518869e+000
 3.998840342185866e-001	 1.703699726814957e+000	 4.970392068142510e+000
 3.835693400660090e-001	 1.707446796045747e+000	 4.873938244194290e+000
 3.672648177889564e-001	 1.711027923084024e+000	 4.775282131402356e+000
 3.509727882210215e-001	 1.714443962887209e+000	 4.674775815247760e+000
 3.346955425703510e-001	 1.717695809428702e+000	 4.572740558277634e+000
 3.184353417157770e-001	 1.720784394712270e+000	 4.469466407226172e+000
 2.729445786207708e-001	 1.474958052610726e+000	 2.533777287598027e+000
 2.590237847553507e-001	 1.477466303810354e+000	 2.441031895526269e+000
 2.451213962520330e-001	 1.479836308875993e+000	 2.358946928245135e+000
 2.312392696899343e-001	 1.482068959301720e+000	 2.287369602063783e+000
 2.173792335306681e-001	 1.484165175715300e+000	 2.226120128171590e+000
 2.035430876609109e-001	 1.486125906996327e+000	 2.174992166465321e+000
 1.897326029638495e-001	 1.487952129390019e+000	 2.133753326842870e+000
 1.759495209193236e-001	 1.489644845617649e+000	 2.102145715761627e+000
 1.621955532324464e-001	 1.491205083984588e+000	 2.079886525794665e+000
 1.484723814904554e-001	 1.492633897486894e+000	 2.066668665865087e+000
 1.347816568475081e-001	 1.493932362917365e+000	 2.062161429794532e+000
 2.774936549302054e-001	 1.499540686818598e+000	 2.804298990746479e+000
 2.633408478327074e-001	 1.502090742204176e+000	 2.710577822170994e+000
 2.492067528535041e-001	 1.504500247353678e+000	 2.626134718449357e+000
 2.350932575146957e-001	 1.506770108619411e+000	 2.550847051364964e+000
 2.210022207522548e-001	 1.508901261972938e+000	 2.484565034508628e+000
 2.069354724509679e-001	 1.510894672108512e+000	 2.427112135467552e+000
 1.928948130087401e-001	 1.512751331542102e+000	 2.378285537948041e+000
 1.788820129300737e-001	 1.514472259707000e+000	 2.337856651614631e+000
 1.648988124484991e-001	 1.516058502047001e+000	 2.305571667357310e+000
 1.509469211777063e-001	 1.517511129108093e+000	 2.281152155642784e+000
 1.370280177910873e-001	 1.518831235629623e+000	 2.264295705551925e+000
 2.820427312396547e-001	 1.524123321026976e+000	 3.055568933081103e+000
 2.676579109102633e-001	 1.526715180598594e+000	 2.960480519834085e+000
 2.532921094553274e-001	 1.529164185832027e+000	 2.873421391498183e+000
 2.389472453399318e-001	 1.531471257937816e+000	 2.794299132262524e+000
 2.246252079744082e-001	 1.533637348231319e+000	 2.722993898844107e+000
 2.103278572416531e-001	 1.535663437221448e+000	 2.659358792625889e+000
 1.960570230542905e-001	 1.537550533694922e+000	 2.603220284335960e+000
 1.818145049414855e-001	 1.539299673797057e+000	 2.554378689030034e+000
 1.676020716651859e-001	 1.540911920110067e+000	 2.512608689063247e+000
 1.534214608655345e-001	 1.542388360729875e+000	 2.477659902671551e+000
 1.392743787351581e-001	 1.543730108342372e+000	 2.449257495728859e+000
 2.865918075491187e-001	 1.548705955235862e+000	 3.288402030715812e+000
 2.719749739880180e-001	 1.551339618993610e+000	 3.191507822921131e+000
 2.573774660575030e-001	 1.553828124311042e+000	 3.101524971529724e+000
 2.428012331656426e-001	 1.556172407256935e+000	 3.018391393633977e+000
 2.282481951971282e-001	 1.558373434490442e+000	 2.942017193358701e+000
 2.137202420329666e-001	 1.560432202335132e+000	 2.872284995475552e+000
 1.992192331005008e-001	 1.562349735848480e+000	 2.809050334310648e+000
 1.847469969535590e-001	 1.564127087887819e+000	 2.752142095679518e+000
 1.703053308825067e-001	 1.565765338173787e+000	 2.701363009502937e+000
 1.558960005539401e-001	 1.567265592352239e+000	 2.656490190684013e+000
 1.415207396797206e-001	 1.568628981055612e+000	 2.617275725766457e+000
 2.911408838585973e-001	 1.573288589445256e+000	 3.503608050759833e+000
 2.762920370659718e-001	 1.575964057389222e+000	 3.404422334332537e+000
 2.614628226600309e-001	 1.578492062790723e+000	 3.311158408761592e+000
 2.466552209918282e-001	 1.580873556576769e+000	 3.223784705895478e+000
 2.318711824204148e-001	 1.583109520750306e+000	 3.142241342788936e+000
 2.171126268249082e-001	 1.585200967449566e+000	 3.066440418266662e+000
 2.023814431473708e-001	 1.587148938002775e+000	 2.996266367677691e+000
 1.876794889662942e-001	 1.588954501979286e+000	 2.931576373542081e+000
 1.730085901004617e-001	 1.590618756238160e+000	 2.872200829702269e+000
 1.583705402429229e-001	 1.592142823975185e+000	 2.817943856514210e+000
 1.437671006247749e-001	 1.593527853769345e+000	 2.768583864545174e+000
 2.956899601680905e-001	 1.597871223655156e+000	 3.701992007394918e+000
 2.806091001441247e-001	 1.600588495785431e+000	 3.599981827886934e+000
 2.655481792629111e-001	 1.603156001271070e+000	 3.503029969792531e+000
 2.505092088184885e-001	 1.605574705897316e+000	 3.411135620883337e+000
 2.354941696442679e-001	 1.607845607010913e+000	 3.324269035769221e+000
 2.205050116174781e-001	 1.609969732564750e+000	 3.242371796832237e+000
 2.055436531949007e-001	 1.611948140157806e+000	 3.165357136397650e+000
 1.906119809796910e-001	 1.613781916071458e+000	 3.093110317803559e+000
 1.757118493190508e-001	 1.615472174303186e+000	 3.025489072935053e+000
 1.608450799324832e-001	 1.617020055598714e+000	 2.962324093705020e+000
 1.460134615703208e-001	 1.618426726483569e+000	 2.903419574889556e+000
 3.002390364775985e-001	 1.622453857865564e+000	 3.884354521945694e+000
 2.849261632224765e-001	 1.625212934182237e+000	 3.778939614160869e+000
 2.696335358661434e-001	 1.627819939752082e+000	 3.677843592422034e+000
 2.543631966456235e-001	 1.630275855218577e+000	 3.581096699019180e+000
 2.391171568686878e-001	 1.632581693272261e+000	 3.488699507869785e+000
 2.238973964106763e-001	 1.634738497680683e+000	 3.400623151195900e+000
 2.087058632430904e-001	 1.636747342313575e+000	 3.316809610635242e+000
 1.935444729937496e-001	 1.638609330164335e+000	 3.237172070401742e+000
 1.784151085382740e-001	 1.640325592368866e+000	 3.161595330007520e+000
 1.633196196226208e-001	 1.641897287222824e+000	 3.089936273969893e+000
 1.482598225163585e-001	 1.643325599198285e+000	 3.022024395845128e+000
 3.047881127871212e-001	 1.647036492076480e+000	 4.051492150704715e+000
 2.892432263010272e-001	 1.649837372579640e+000	 3.942044873566577e+000
 2.737188924697281e-001	 1.652483878233760e+000	 3.836299208695103e+000
 2.582171844732333e-001	 1.654977004540552e+000	 3.734316807176778e+000
 2.427401440936743e-001	 1.657317779534351e+000	 3.636128799288037e+000
 2.272897812045027e-001	 1.659507262797366e+000	 3.541735988243800e+000
 2.118680732919400e-001	 1.661546544470082e+000	 3.451109111729001e+000
 1.964769650084698e-001	 1.663436744257918e+000	 3.364189168776048e+000
 1.811183677581314e-001	 1.665179010435199e+000	 3.280887809442338e+000
 1.657941593133357e-001	 1.666774518847517e+000	 3.201087784642738e+000
 1.505061834628878e-001	 1.668224471913492e+000	 3.124643453408238e+000
 3.093371890966585e-001	 1.671619126287902e+000	 4.204197683832120e+000
 2.935602893797771e-001	 1.674461810977640e+000	 4.090042960040312e+000
 2.778042490736651e-001	 1.677147816716104e+000	 3.979093039443141e+000
 2.620711723013177e-001	 1.679678153863241e+000	 3.871441390266463e+000
 2.463631313192274e-001	 1.682053865797183e+000	 3.767149989802583e+000
 2.306821659989573e-001	 1.684276027914798e+000	 3.666249486514713e+000
 2.150302833414495e-001	 1.686345746627326e+000	 3.568739433428477e+000
 1.994094570238518e-001	 1.688264158352205e+000	 3.474588590316018e+000
 1.838216269786228e-001	 1.690032428502185e+000	 3.383735292058295e+000
 1.682686990046280e-001	 1.691651750472792e+000	 3.296087880470501e+000
 1.527525444099089e-001	 1.693123344629191e+000	 3.211525196779803e+000
 3.138862654062104e-001	 1.696201760499832e+000	 4.343260418263522e+000
 2.978773524587259e-001	 1.699086249376236e+000	 4.223675678323567e+000
 2.818896056779544e-001	 1.701811755199113e+000	 4.106917863212352e+000
 2.659251601298770e-001	 1.704379303186644e+000	 3.993112719203534e+000
 2.499861185453471e-001	 1.706789952060757e+000	 3.882353413296308e+000
 2.340745507940402e-001	 1.709044793032979e+000	 3.774700664920204e+000
 2.181924933916187e-001	 1.711144948785307e+000	 3.670182952589352e+000
 2.023419490398955e-001	 1.713091572447198e+000	 3.568796792944634e+000
 1.865248861997483e-001	 1.714885846569825e+000	 3.470507089499747e+000
 1.707432386964976e-001	 1.716528982098648e+000	 3.375247548293380e+000
 1.549989053574216e-001	 1.718022217345382e+000	 3.282921157553207e+000
 3.184353417157770e-001	 1.720784394712270e+000	 4.469466407226172e+000
 3.021944155378737e-001	 1.723710687775430e+000	 4.343681537476801e+000
 2.859749622825958e-001	 1.726475693682788e+000	 4.220463262141271e+000
 2.697791479589108e-001	 1.729080452510761e+000	 4.099970117622107e+000
 2.536091057720334e-001	 1.731526038325072e+000	 3.982326853891625e+000
 2.374669355897513e-001	 1.733813558151911e+000	 3.867624537004446e+000
 2.213547034424477e-001	 1.735944150944025e+000	 3.755920730379936e+000
 2.052744410566008e-001	 1.737918986542895e+000	 3.647239752223260e+000
 1.892281454215078e-001	 1.739739264638117e+000	 3.541573006320306e+000
 1.732177783889445e-001	 1.741406213725087e+000	 3.438879383324102e+000
 1.572452663054261e-001	 1.742921090062064e+000	 3.339085729543494e+000
 1.347816568475081e-001	 1.493932362917365e+000	 2.062161429794532e+000
 1.211249997365069e-001	 1.495101579972037e+000	 2.036729166131426e+000
 1.075039996094458e-001	 1.496142670357773e+000	 2.023863179465325e+000
 9.392021470467503e-002	 1.497056776901965e+000	 2.023138476167330e+000
 8.037517183948716e-002	 1.497845062665274e+000	 2.034106444312183e+000
 6.687036622943404e-002	 1.498508710058030e+000	 2.056295772179780e+000
 5.340726133332937e-002	 1.499048919961125e+000	 2.089213391362836e+000
 3.998728872347066e-002	 1.499466910852138e+000	 2.132345441872112e+000
 2.661184798060209e-002	 1.499763917937434e+000	 2.185158256650880e+000
 1.328230661311983e-002	 1.499941192290897e+000	 2.247099362941752e+000
 0.000000000000000e+000	 1.500000000000000e+000	 2.317598497983739e+000
 1.370280177910873e-001	 1.518831235629623e+000	 2.264295705551925e+000
 1.231437497286795e-001	 1.520019939635790e+000	 2.226311231956954e+000
 1.092957329332651e-001	 1.521078381528475e+000	 2.199636272149265e+000
 9.548555161383344e-002	 1.522007723182194e+000	 2.183868408158138e+000
 8.171475803463187e-002	 1.522809147041951e+000	 2.178581337538476e+000
 6.798487233147164e-002	 1.523483855224919e+000	 2.183325773535640e+000
 5.429738235414672e-002	 1.524033068626668e+000	 2.197630371716596e+000
 4.065374353449300e-002	 1.524458026032741e+000	 2.221002680405286e+000
 2.705537877960047e-002	 1.524759983236272e+000	 2.252930112275684e+000
 1.350367838967197e-002	 1.524940212162383e+000	 2.292880934487434e+000
 0.000000000000000e+000	 1.525000000000000e+000	 2.340305274778246e+000
 1.392743787351581e-001	 1.543730108342372e+000	 2.449257495728859e+000
 1.251624997212492e-001	 1.544938299299939e+000	 2.399242796973704e+000
 1.110874662573970e-001	 1.546014092699489e+000	 2.359416511394632e+000
 9.705088852323032e-002	 1.546958669462661e+000	 2.329397870102797e+000
 8.305434422995120e-002	 1.547773231418804e+000	 2.308781853750412e+000
 6.909937843363008e-002	 1.548459000391928e+000	 2.297140077095176e+000
 5.518750337504116e-002	 1.549017217292289e+000	 2.294021701971801e+000
 4.132019834555854e-002	 1.549449141213387e+000	 2.298954375943572e+000
 2.749890957861798e-002	 1.549756048535131e+000	 2.311445193927392e+000
 1.372505016622889e-002	 1.549939232033873e+000	 2.330981680106454e+000
 0.000000000000000e+000	 1.550000000000000e+000	 2.357032787480097e+000
 1.415207396797206e-001	 1.568628981055612e+000	 2.617275725766457e+000
 1.271812497142158e-001	 1.569856658964486e+000	 2.555700854088620e+000
 1.128791995818416e-001	 1.570949803870817e+000	 2.503326546989204e+000
 9.861622543286573e-002	 1.571909615743366e+000	 2.459792814818435e+000
 8.439393042544517e-002	 1.572737315795831e+000	 2.424714951419163e+000
 7.021388453590939e-002	 1.573434145559059e+000	 2.397684405789531e+000
 5.607762439601265e-002	 1.574001365957986e+000	 2.378269684172798e+000
 4.198665315666728e-002	 1.574440256394075e+000	 2.366017279779601e+000
 2.794244037765462e-002	 1.574752113834009e+000	 2.360452627362652e+000
 1.394642194279057e-002	 1.574938251905368e+000	 2.361081079885967e+000
 0.000000000000000e+000	 1.575000000000000e+000	 2.367388904562570e+000
 1.437671006247749e-001	 1.593527853769345e+000	 2.768583864545174e+000
 1.291999997075793e-001	 1.594775018629429e+000	 2.695867922511961e+000
 1.146709329065987e-001	 1.595885515042456e+000	 2.631495771012590e+000
 1.001815623427396e-001	 1.596860562024310e+000	 2.575127383709608e+000
 8.573351662111377e-002	 1.597701400173032e+000	 2.526397451305553e+000
 7.132839063830955e-002	 1.598409290726310e+000	 2.484916242968532e+000
 5.696774541706121e-002	 1.598985514623761e+000	 2.450270500287000e+000
 4.265310796781922e-002	 1.599431371574808e+000	 2.422024360883662e+000
 2.838597117671039e-002	 1.599748179132905e+000	 2.399720308829876e+000
 1.416779371935701e-002	 1.599937271776868e+000	 2.382880149023288e+000
 0.000000000000000e+000	 1.600000000000000e+000	 2.371006002719422e+000
 1.460134615703208e-001	 1.618426726483569e+000	 2.903419574889556e+000
 1.312187497013398e-001	 1.619693378294770e+000	 2.819931622657049e+000
 1.164626662316684e-001	 1.620821226214409e+000	 2.744059799198741e+000
 1.017468992528521e-001	 1.621811508305493e+000	 2.675483276876819e+000
 8.707310281695702e-002	 1.622665484550409e+000	 2.613855277821852e+000
 7.244289674083054e-002	 1.623384435893682e+000	 2.558803927753741e+000
 5.785786643818686e-002	 1.623969663289613e+000	 2.509933144518931e+000
 4.331956277901437e-002	 1.624422486755583e+000	 2.466823558389964e+000
 2.882950197578529e-002	 1.624744244431821e+000	 2.429033461184649e+000
 1.438916549592822e-002	 1.624936291648372e+000	 2.396099781279149e+000
 0.000000000000000e+000	 1.625000000000000e+000	 2.367539081616961e+000
 1.482598225163585e-001	 1.643325599198285e+000	 3.022024395845128e+000
 1.332374996954973e-001	 1.644611737960508e+000	 2.928084289685368e+000
 1.182543995570507e-001	 1.645756937386673e+000	 2.841159999446747e+000
 1.033122361632030e-001	 1.646762454586915e+000	 2.760949180488398e+000
 8.841268901297489e-002	 1.647629568927960e+000	 2.687122769361614e+000
 7.355740284347240e-002	 1.648359581061175e+000	 2.619325832631158e+000
 5.874798745938958e-002	 1.648953811955542e+000	 2.557178452685619e+000
 4.398601759025272e-002	 1.649413601936402e+000	 2.500276647493442e+000
 2.927303277487933e-002	 1.649740309730756e+000	 2.448193321268527e+000
 1.461053727250419e-002	 1.649935311519882e+000	 2.400479243025714e+000
 0.000000000000000e+000	 1.650000000000000e+000	 2.356664050032671e+000
 1.505061834628878e-001	 1.668224471913492e+000	 3.124643453408238e+000
 1.352562496900517e-001	 1.669530097626642e+000	 3.020522621659966e+000
 1.200461328827456e-001	 1.670692648559252e+000	 2.922943062554717e+000
 1.048775730737925e-001	 1.671713400868574e+000	 2.831620245431753e+000
 8.975227520916734e-002	 1.672593653305685e+000	 2.746242050390504e+000
 7.467190894623507e-002	 1.673334726228788e+000	 2.666469614692676e+000
 5.963810848066937e-002	 1.673937960621547e+000	 2.591938218514586e+000
 4.465247240153425e-002	 1.674404717117263e+000	 2.522258206907959e+000
 2.971656357399250e-002	 1.674736375029710e+000	 2.457015944835179e+000
 1.483190904908494e-002	 1.674934331391396e+000	 2.395774802156473e+000
 0.000000000000000e+000	 1.675000000000000e+000	 2.338076165473700e+000
 1.527525444099089e-001	 1.693123344629191e+000	 3.211525196779803e+000
 1.372749996850031e-001	 1.694448457293173e+000	 3.097447358743545e+000
 1.218378662087531e-001	 1.695628359732141e+000	 2.989560610830443e+000
 1.064429099846205e-001	 1.696664347150472e+000	 2.887597611966795e+000
 9.109186140553449e-002	 1.697557737683585e+000	 2.791262458941032e+000
 7.578641504911862e-002	 1.698309871396523e+000	 2.700231532944796e+000
 6.052822950202623e-002	 1.698922109287630e+000	 2.614154387915070e+000
 4.531892721285900e-002	 1.699395832298168e+000	 2.532654677430907e+000
 3.016009437312479e-002	 1.699732440328683e+000	 2.455331116924341e+000
 1.505328082567045e-002	 1.699933351262915e+000	 2.381758477973953e+000
 0.000000000000000e+000	 1.700000000000000e+000	 2.311488611476162e+000
 1.549989053574216e-001	 1.718022217345382e+000	 3.282921157553207e+000
 1.392937496803514e-001	 1.719366816960102e+000	 3.159062990293090e+000
 1.236295995350731e-001	 1.720564070905344e+000	 3.041168840735422e+000
 1.080082468956869e-001	 1.721615293432609e+000	 2.928987975713158e+000
 9.243144760207625e-002	 1.722521822061660e+000	 2.822240023890168e+000
 7.690092115212303e-002	 1.723285016564378e+000	 2.720615824981056e+000
 6.141835052346017e-002	 1.723906257953791e+000	 2.623778323312517e+000
 4.598538202422694e-002	 1.724386947479117e+000	 2.531363502372179e+000
 3.060362517227623e-002	 1.724728505627676e+000	 2.442981356986465e+000
 1.527465260226072e-002	 1.724932371134438e+000	 2.358216899783688e+000
 0.000000000000000e+000	 1.725000000000000e+000	 2.276631198617532e+000
 1.572452663054261e-001	 1.742921090062064e+000	 3.339085729543494e+000
 1.413124996760967e-001	 1.744285176627427e+000	 3.205577487059861e+000
 1.254213328617058e-001	 1.745499782078859e+000	 3.077928196159670e+000
 1.095735838069919e-001	 1.746566239714984e+000	 2.955903190838762e+000
 9.377103379879261e-002	 1.747485906439909e+000	 2.839236987042258e+000
 7.801542725524828e-002	 1.748260161732354e+000	 2.727634137083175e+000
 6.230847154497118e-002	 1.748890406620027e+000	 2.620770131040494e+000
 4.665183683563808e-002	 1.749378062660108e+000	 2.518292341660118e+000
 3.104715597144679e-002	 1.749724570926687e+000	 2.419821009281575e+000
 1.549602437885576e-002	 1.749931391005967e+000	 2.324950263322316e+000
 0.000000000000000e+000	 1.750000000000000e+000	 2.233249176870840e+000
 1.750000000000000e+000	 0.000000000000000e+000	 1.380012037059929e+001
 1.749931391005967e+000	 1.549602437885581e-002	 1.383487769108067e+001
 1.749724570926687e+000	 3.104715597144690e-002	 1.385704228596301e+001
 1.749378062660108e+000	 4.665183683563796e-002	 1.386669880096266e+001
 1.748890406620027e+000	 6.230847154497113e-002	 1.386394846312415e+001
 1.748260161732354e+000	 7.801542725524827e-002	 1.384890876703520e+001
 1.747485906439909e+000	 9.377103379879266e-002	 1.382171311204338e+001
 1.746566239714984e+000	 1.095735838069920e-001	 1.378251038982889e+001
 1.745499782078859e+000	 1.254213328617057e-001	 1.373146452180711e+001
 1.744285176627427e+000	 1.413124996760966e-001	 1.366875394596090e+001
 1.742921090062065e+000	 1.572452663054261e-001	 1.359457105283516e+001
 1.775000000000000e+000	 0.000000000000000e+000	 1.342374318591599e+001
 1.774930410877498e+000	 1.571739615545324e-002	 1.347182953995741e+001
 1.774720636225708e+000	 3.149068677062703e-002	 1.350650375232818e+001
 1.774369177841122e+000	 4.731829164707072e-002	 1.352791219851235e+001
 1.773874555286303e+000	 6.319859256652068e-002	 1.353621989254630e+001
 1.773235306900391e+000	 7.912993335843395e-002	 1.353161013436582e+001
 1.772449990818246e+000	 9.511061999559638e-002	 1.351428410379744e+001
 1.771517185997479e+000	 1.111389207184163e-001	 1.348446040049498e+001
 1.770435493252530e+000	 1.272130661884946e-001	 1.344237452924938e+001
 1.769203536294951e+000	 1.433312496720404e-001	 1.338827833023534e+001
 1.767819962778993e+000	 1.594916272536765e-001	 1.332243935390035e+001
 1.800000000000000e+000	 0.000000000000000e+000	 1.306141957921872e+001
 1.799929430749029e+000	 1.593876793205066e-002	 1.312390878754638e+001
 1.799716701524729e+000	 3.193421756980716e-002	 1.317214970330789e+001
 1.799360293022134e+000	 4.798474645850345e-002	 1.320635087069191e+001
 1.798858703952579e+000	 6.408871358807022e-002	 1.322674155876190e+001
 1.798210452068427e+000	 8.024443946161963e-002	 1.323357136937119e+001
 1.797414075196582e+000	 9.645020619240008e-002	 1.322710978728888e+001
 1.796468132279973e+000	 1.127042576298405e-001	 1.320764567178219e+001
 1.795371204426202e+000	 1.290047995152836e-001	 1.317548668903775e+001
 1.794121895962475e+000	 1.453499996679842e-001	 1.313095868494760e+001
 1.792718835495921e+000	 1.617379882019268e-001	 1.307440499793870e+001
 1.825000000000000e+000	 0.000000000000000e+000	 1.271411927241941e+001
 1.824928450620559e+000	 1.616013970864808e-002	 1.279192017991618e+001
 1.824712766823750e+000	 3.237774836898728e-002	 1.285461907559122e+001
 1.824351408203147e+000	 4.865120126993620e-002	 1.290248717906789e+001
 1.823842852618854e+000	 6.497883460961976e-002	 1.293581855200110e+001
 1.823185597236464e+000	 8.135894556480529e-002	 1.295492966596777e+001
 1.822378159574919e+000	 9.778979238920375e-002	 1.296015890805550e+001
 1.821419078562467e+000	 1.142695945412647e-001	 1.295186602333873e+001
 1.820306915599873e+000	 1.307965328420725e-001	 1.293043149357765e+001
 1.819040255629999e+000	 1.473687496639279e-001	 1.289625585162862e+001
 1.817617708212850e+000	 1.639843491501772e-001	 1.284975893121617e+001
 1.850000000000000e+000	 0.000000000000000e+000	 1.238275957002943e+001
 1.849927470492090e+000	 1.638151148524551e-002	 1.247662175054680e+001
 1.849708832122770e+000	 3.282127916816741e-002	 1.255450981812376e+001
 1.849342523384160e+000	 4.931765608136893e-002	 1.261675824040184e+001
 1.848827001285130e+000	 6.586895563116930e-002	 1.266372647673834e+001
 1.848160742404501e+000	 8.247345166799097e-002	 1.269579850545217e+001
 1.847342243953256e+000	 9.912937858600747e-002	 1.271338228417254e+001
 1.846370024844962e+000	 1.158349314526890e-001	 1.271690914242297e+001
 1.845242626773545e+000	 1.325882661688614e-001	 1.270683310572803e+001
 1.843958615297522e+000	 1.493874996598717e-001	 1.268363015069279e+001
 1.842516580929779e+000	 1.662307100984275e-001	 1.264779739067716e+001
 1.875000000000000e+000	 0.000000000000000e+000	 1.206820885365290e+001
 1.874926490363621e+000	 1.660288326184293e-002	 1.217872793450197e+001
 1.874704897421792e+000	 3.326480996734755e-002	 1.227238162462380e+001
 1.874333638565173e+000	 4.998411089280167e-002	 1.234956827630392e+001
 1.873811149951405e+000	 6.675907665271885e-002	 1.241071341740944e+001
 1.873135887572538e+000	 8.358795777117666e-002	 1.245626923734260e+001
 1.872306328331592e+000	 1.004689647828112e-001	 1.248671400141676e+001
 1.871320971127457e+000	 1.174002683641133e-001	 1.250255139272953e+001
 1.870178337947217e+000	 1.343799994956504e-001	 1.250430978077108e+001
 1.868876974965046e+000	 1.514062496558155e-001	 1.249254141617898e+001
 1.867415453646707e+000	 1.684770710466778e-001	 1.246782155123262e+001
 1.900000000000000e+000	 0.000000000000000e+000	 1.226877923257069e+001
 1.899925510235152e+000	 1.682425503844034e-002	 1.236181630675956e+001
 1.899700962720813e+000	 3.370834076652769e-002	 1.243573887507269e+001
 1.899324753746186e+000	 5.065056570423442e-002	 1.249153433834672e+001
 1.898795298617681e+000	 6.764919767426841e-002	 1.253018850159373e+001
 1.898111032740575e+000	 8.470246387436235e-002	 1.255268430831698e+001
 1.897270412709929e+000	 1.018085509796149e-001	 1.256000056709342e+001
 1.896271917409951e+000	 1.189656052755375e-001	 1.255311067298782e+001
 1.895114049120888e+000	 1.361717328224394e-001	 1.253298132644356e+001
 1.893795334632570e+000	 1.534249996517592e-001	 1.250057125237166e+001
 1.892314326363635e+000	 1.707234319949282e-001	 1.245682992222847e+001
 1.925000000000000e+000	 0.000000000000000e+000	 1.243862421392102e+001
 1.924924530106683e+000	 1.704562681503777e-002	 1.251678906767773e+001
 1.924697028019834e+000	 3.415187156570781e-002	 1.257614329549880e+001
 1.924315868927199e+000	 5.131702051566717e-002	 1.261773859576207e+001
 1.923779447283957e+000	 6.853931869581796e-002	 1.264262496698801e+001
 1.923086177908611e+000	 8.581696997754799e-002	 1.265184937255611e+001
 1.922234497088266e+000	 1.031481371764186e-001	 1.264645439693670e+001
 1.921222863692445e+000	 1.205309421869617e-001	 1.262747689611803e+001
 1.920049760294560e+000	 1.379634661492283e-001	 1.259594664499462e+001
 1.918713694300094e+000	 1.554437496477030e-001	 1.255288498456139e+001
 1.917213199080564e+000	 1.729697929431785e-001	 1.249930347183267e+001
 1.950000000000000e+000	 0.000000000000000e+000	 1.257848374156419e+001
 1.949923549978213e+000	 1.726699859163519e-002	 1.264287789277626e+001
 1.949693093318855e+000	 3.459540236488794e-002	 1.268881021413660e+001
 1.949306984108212e+000	 5.198347532709990e-002	 1.271739656555024e+001
 1.948763595950232e+000	 6.942943971736749e-002	 1.272975094554876e+001
 1.948061323076648e+000	 8.693147608073369e-002	 1.272698408508513e+001
 1.947198581466602e+000	 1.044877233732223e-001	 1.271020203214750e+001
 1.946173809974940e+000	 1.220962790983860e-001	 1.268050472999267e+001
 1.944985471468231e+000	 1.397551994760172e-001	 1.263898459188839e+001
 1.943632053967617e+000	 1.574624996436468e-001	 1.258672507533807e+001
 1.942112071797492e+000	 1.752161538914288e-001	 1.252479925883928e+001
 1.975000000000000e+000	 0.000000000000000e+000	 1.268906029384867e+001
 1.974922569849744e+000	 1.748837036823261e-002	 1.274071728231305e+001
 1.974689158617876e+000	 3.503893316406807e-002	 1.277430672253286e+001
 1.974298099289225e+000	 5.264993013853264e-002	 1.279100852903467e+001
 1.973747744616508e+000	 7.031956073891704e-002	 1.279200053573504e+001
 1.973036468244684e+000	 8.804598218391936e-002	 1.277845701746052e+001
 1.972162665844939e+000	 1.058273095700260e-001	 1.275154720164650e+001
 1.971124756257434e+000	 1.236616160098102e-001	 1.271243377313836e+001
 1.969921182641903e+000	 1.415469328028062e-001	 1.266227137511393e+001
 1.968550413635141e+000	 1.594812496395905e-001	 1.260220510923342e+001
 1.967010944514421e+000	 1.774625148396792e-001	 1.253336903820482e+001
 2.000000000000000e+000	 0.000000000000000e+000	 1.277102122520550e+001
 1.999921589721275e+000	 1.770974214483003e-002	 1.281091043531602e+001
 1.999685223916896e+000	 3.548246396324820e-002	 1.283317244711583e+001
 1.999289214470237e+000	 5.331638494996539e-002	 1.283905115065581e+001
 1.998731893282784e+000	 7.120968176046658e-002	 1.282978807815370e+001
 1.998011613412721e+000	 8.916048828710503e-002	 1.280662085185691e+001
 1.997126750223276e+000	 1.071668957668297e-001	 1.277078162149786e+001
 1.996075702539929e+000	 1.252269529212345e-001	 1.272349549439472e+001
 1.994856893815574e+000	 1.433386661295951e-001	 1.266597896134983e+001
 1.993468773302665e+000	 1.614999996355343e-001	 1.259943832158876e+001
 1.991909817231349e+000	 1.797088757879295e-001	 1.252506811007025e+001
 1.742921090062065e+000	 1.572452663054261e-001	 1.359457105283516e+001
 1.741406213725087e+000	 1.732177783889446e-001	 1.363383200959408e+001
 1.739739264638117e+000	 1.892281454215079e-001	 1.366380232371047e+001
 1.737918986542895e+000	 2.052744410566007e-001	 1.368480786039932e+001
 1.735944150944025e+000	 2.213547034424477e-001	 1.369718616060856e+001
 1.733813558151911e+000	 2.374669355897513e-001	 1.370128553528970e+001
 1.731526038325072e+000	 2.536091057720335e-001	 1.369746410755126e+001
 1.729080452510761e+000	 2.697791479589110e-001	 1.368608880357852e+001
 1.726475693682788e+000	 2.859749622825957e-001	 1.366753429338306e+001
 1.723710687775429e+000	 3.021944155378737e-001	 1.364218188262960e+001
 1.720784394712270e+000	 3.184353417157770e-001	 1.361041835697398e+001
 1.767819962778993e+000	 1.594916272536765e-001	 1.332243935390035e+001
 1.766283445351817e+000	 1.756923180816826e-001	 1.337418528936835e+001
 1.764592682706737e+000	 1.919314046435942e-001	 1.341591383092734e+001
 1.762746400638945e+000	 2.082069330736586e-001	 1.344799689125467e+001
 1.760743353103111e+000	 2.245169134936453e-001	 1.347081940876097e+001
 1.758582323271217e+000	 2.408593203858371e-001	 1.348477838811662e+001
 1.756262124589759e+000	 2.572320929990908e-001	 1.349028188503617e+001
 1.753781601835235e+000	 2.736331357883018e-001	 1.348774793622951e+001
 1.751139632166796e+000	 2.900603188875701e-001	 1.347760343561996e+001
 1.748335126174922e+000	 3.065114786173200e-001	 1.346028295812285e+001
 1.745367028924961e+000	 3.229844180255974e-001	 1.343622753247549e+001
 1.792718835495921e+000	 1.617379882019268e-001	 1.307440499793870e+001
 1.791160676978547e+000	 1.781668577744254e-001	 1.313799624195539e+001
 1.789446100775357e+000	 1.946346638656997e-001	 1.319084420641242e+001
 1.787573814734996e+000	 2.111394250907598e-001	 1.323336828528874e+001
 1.785542555262198e+000	 2.276791235449204e-001	 1.326600227224543e+001
 1.783351088390523e+000	 2.442517051820443e-001	 1.328919334554207e+001
 1.780998210854445e+000	 2.608550802263231e-001	 1.330340099349296e+001
 1.778482751159709e+000	 2.774871236179320e-001	 1.330909588140007e+001
 1.775803570650804e+000	 2.941456754928579e-001	 1.330675866109978e+001
 1.772959564574414e+000	 3.108285416971641e-001	 1.329687872446650e+001
 1.769949663137651e+000	 3.275334943359103e-001	 1.327995290242258e+001
 1.817617708212850e+000	 1.639843491501772e-001	 1.284975893121617e+001
 1.816037908605277e+000	 1.806413974671730e-001	 1.292445024435548e+001
 1.814299518843977e+000	 1.973379230878244e-001	 1.298767268380404e+001
 1.812401228831046e+000	 2.140719171079046e-001	 1.303989461183546e+001
 1.810341757421285e+000	 2.308413335962729e-001	 1.308160018945279e+001
 1.808119853509829e+000	 2.476440899783728e-001	 1.311328830379063e+001
 1.805734297119132e+000	 2.644780674537310e-001	 1.313547143224449e+001
 1.803183900484183e+000	 2.813411114478014e-001	 1.314867444429222e+001
 1.800467509134813e+000	 2.982310320984592e-001	 1.315343334218540e+001
 1.797584002973906e+000	 3.151456047774062e-001	 1.315029394190312e+001
 1.794532297350343e+000	 3.320825706467159e-001	 1.313981049598028e+001
 1.842516580929779e+000	 1.662307100984275e-001	 1.264779739067716e+001
 1.840915140232007e+000	 1.831159371599254e-001	 1.273274029122089e+001
 1.839152936912596e+000	 2.000411823099683e-001	 1.280548846680398e+001
 1.837228642927095e+000	 2.170044091250926e-001	 1.286656078745402e+001
 1.835140959580371e+000	 2.340035436477027e-001	 1.291649334719908e+001
 1.832888618629136e+000	 2.510364747748227e-001	 1.295583833201418e+001
 1.830470383383819e+000	 2.681010546813139e-001	 1.298516282058428e+001
 1.827885049808657e+000	 2.851950992779101e-001	 1.300504751887936e+001
 1.825131447618820e+000	 3.023163887043739e-001	 1.301608542976044e+001
 1.822208441373398e+000	 3.194626678580461e-001	 1.301888045906226e+001
 1.819114931563034e+000	 3.366316469580142e-001	 1.301404595982851e+001
 1.867415453646707e+000	 1.684770710466778e-001	 1.246782155123262e+001
 1.865792371858737e+000	 1.855904768526825e-001	 1.256206648701251e+001
 1.864006354981215e+000	 2.027444415321315e-001	 1.264339006450662e+001
 1.862056057023146e+000	 2.199369011423241e-001	 1.271236325278037e+001
 1.859940161739458e+000	 2.371657536992100e-001	 1.276957569749711e+001
 1.857657383748442e+000	 2.544288595713938e-001	 1.281563452742984e+001
 1.855206469648505e+000	 2.717240419090722e-001	 1.285116308977859e+001
 1.852586199133131e+000	 2.890490871082580e-001	 1.287679961532147e+001
 1.849795386102828e+000	 3.064017453106019e-001	 1.289319581466125e+001
 1.846832879772890e+000	 3.237797309390840e-001	 1.290101540706812e+001
 1.843697565775724e+000	 3.411807232698052e-001	 1.290093258366114e+001
 1.892314326363635e+000	 1.707234319949282e-001	 1.245682992222847e+001
 1.890669603485467e+000	 1.880650165454445e-001	 1.253111489049611e+001
 1.888859773049835e+000	 2.054477007543139e-001	 1.259419287146017e+001
 1.886883471119196e+000	 2.228693931595989e-001	 1.264688014716807e+001
 1.884739363898545e+000	 2.403279637507947e-001	 1.268997855974763e+001
 1.882426148867748e+000	 2.578212443680862e-001	 1.272427437635343e+001
 1.879942555913192e+000	 2.753470291370056e-001	 1.275053717691588e+001
 1.877287348457605e+000	 2.929030749388451e-001	 1.276951876768856e+001
 1.874459324586836e+000	 3.104871019171435e-001	 1.278326681846951e+001
 1.871457318172382e+000	 3.280967940205197e-001	 1.279509953621739e+001
 1.868280199988416e+000	 3.457297995820888e-001	 1.279876948156664e+001
 1.917213199080564e+000	 1.729697929431785e-001	 1.249930347183267e+001
 1.915546835112197e+000	 1.905395562382112e-001	 1.256044132569481e+001
 1.913713191118454e+000	 2.081509599765155e-001	 1.261075930115915e+001
 1.911710885215246e+000	 2.258018851769172e-001	 1.265110377479076e+001
 1.909538566057632e+000	 2.434901738024567e-001	 1.268230576796423e+001
 1.907194913987054e+000	 2.612136291649000e-001	 1.270517976757731e+001
 1.904678642177879e+000	 2.789700163651143e-001	 1.272052257089172e+001
 1.901988497782079e+000	 2.967570627696715e-001	 1.272911215762145e+001
 1.899123263070844e+000	 3.145724585239985e-001	 1.273170659238765e+001
 1.896081756571874e+000	 3.324138571023532e-001	 1.272904296064784e+001
 1.892862834201107e+000	 3.502788758948651e-001	 1.272183634118633e+001
 1.942112071797492e+000	 1.752161538914288e-001	 1.252479925883928e+001
 1.940424066738927e+000	 1.930140959309828e-001	 1.257309717911300e+001
 1.938566609187074e+000	 2.108542191987363e-001	 1.261101254933186e+001
 1.936538299311297e+000	 2.287343771942789e-001	 1.263942165683918e+001
 1.934337768216718e+000	 2.466523838541962e-001	 1.265918445396798e+001
 1.931963679106360e+000	 2.646060139618350e-001	 1.267114333354469e+001
 1.929414728442565e+000	 2.825930035933981e-001	 1.267612192993042e+001
 1.926689647106553e+000	 3.006110506007372e-001	 1.267492394884985e+001
 1.923787201554853e+000	 3.186578151311669e-001	 1.266833202925529e+001
 1.920706194971366e+000	 3.367309201845847e-001	 1.265710664046175e+001
 1.917445468413798e+000	 3.548279522081341e-001	 1.264198501776494e+001
 1.967010944514421e+000	 1.774625148396792e-001	 1.253336903820482e+001
 1.965301298365657e+000	 1.954886356237591e-001	 1.256911991346840e+001
 1.963420027255694e+000	 2.135574784209764e-001	 1.259497627573979e+001
 1.961365713407346e+000	 2.316668692116840e-001	 1.261184414276498e+001
 1.959136970375805e+000	 2.498145939060130e-001	 1.262061215224897e+001
 1.956732444225666e+000	 2.679983987588914e-001	 1.262215029115775e+001
 1.954150814707252e+000	 2.862159908218573e-001	 1.261730865205577e+001
 1.951390796431027e+000	 3.044650384320420e-001	 1.260691621986258e+001
 1.948451140038860e+000	 3.227431717386488e-001	 1.259177969240926e+001
 1.945330633370858e+000	 3.410479832672140e-001	 1.257268233816179e+001
 1.942028102626488e+000	 3.593770285218957e-001	 1.255038289445352e+001
 1.991909817231349e+000	 1.797088757879295e-001	 1.252506811007025e+001
 1.990178529992387e+000	 1.979631753165402e-001	 1.254855209592455e+001
 1.988273445324313e+000	 2.162607376432357e-001	 1.256268082089698e+001
 1.986193127503396e+000	 2.345993612291324e-001	 1.256838985566399e+001
 1.983936172534892e+000	 2.529768039579072e-001	 1.256659627994062e+001
 1.981501209344972e+000	 2.713907835560691e-001	 1.255819736457534e+001
 1.978886900971938e+000	 2.898389780504918e-001	 1.254406928226618e+001
 1.976091945755501e+000	 3.083190262635862e-001	 1.252506585042027e+001
 1.973115078522868e+000	 3.268285283464439e-001	 1.250201730967439e+001
 1.969955071770350e+000	 3.453650463502412e-001	 1.247572914157956e+001
 1.966610736839180e+000	 3.639261048361500e-001	 1.244698092892562e+001
 1.720784394712270e+000	 3.184353417157770e-001	 1.361041835697398e+001
 1.717695809428702e+000	 3.346955425703510e-001	 1.362702370054664e+001
 1.714443962887209e+000	 3.509727882210215e-001	 1.363993979292486e+001
 1.711027923084025e+000	 3.672648177889562e-001	 1.364953404727251e+001
 1.707446796045747e+000	 3.835693400660090e-001	 1.365617224488741e+001
 1.703699726814957e+000	 3.998840342185866e-001	 1.366021715853680e+001
 1.699785900423492e+000	 4.162065505255865e-001	 1.366202714313434e+001
 1.695704542852120e+000	 4.325345111503018e-001	 1.366195469658511e+001
 1.691454921975343e+000	 4.488655109461448e-001	 1.366034499380464e+001
 1.687036348490034e+000	 4.651971182959880e-001	 1.365753439709436e+001
 1.682448176826651e+000	 4.815268759848673e-001	 1.365384894622728e+001
 1.745367028924961e+000	 3.229844180255974e-001	 1.343622753247549e+001
 1.742234320994296e+000	 3.394769074630900e-001	 1.345856842620975e+001
 1.738936019502071e+000	 3.559866851939452e-001	 1.347716266078824e+001
 1.735471179130182e+000	 3.725114580410630e-001	 1.349243830570563e+001
 1.731838893134178e+000	 3.890489020647538e-001	 1.350482236237029e+001
 1.728038294342964e+000	 4.055966632766609e-001	 1.351473929423853e+001
 1.724068556145973e+000	 4.221523583882385e-001	 1.352260952140590e+001
 1.719928893466559e+000	 4.387135755936855e-001	 1.352884788262423e+001
 1.715618563720287e+000	 4.552778753871785e-001	 1.353386206790515e+001
 1.711136867756843e+000	 4.718427914142040e-001	 1.353805102505766e+001
 1.706483150784262e+000	 4.884058313567285e-001	 1.354180334368948e+001
 1.769949663137651e+000	 3.275334943359103e-001	 1.327995290242258e+001
 1.766772832559885e+000	 3.442582723564071e-001	 1.330761723373780e+001
 1.763428076116914e+000	 3.610005821675034e-001	 1.333148954313851e+001
 1.759914435176295e+000	 3.777580982938316e-001	 1.335206003851153e+001
 1.756230990222532e+000	 3.945284640641585e-001	 1.336981842589805e+001
 1.752376861870848e+000	 4.113092923353629e-001	 1.338525234383302e+001
 1.748351211868279e+000	 4.280981662514561e-001	 1.339884575919235e+001
 1.744153244080758e+000	 4.448926400375424e-001	 1.341107732766503e+001
 1.739782205464916e+000	 4.616902398285626e-001	 1.342241872216866e+001
 1.735237387023252e+000	 4.784884645326170e-001	 1.343333293272685e+001
 1.730518124741380e+000	 4.952847867286022e-001	 1.344427254151931e+001
 1.794532297350343e+000	 3.320825706467159e-001	 1.313981049598028e+001
 1.791311344125469e+000	 3.490396372503026e-001	 1.317227112013814e+001
 1.787920132731737e+000	 3.660144791416965e-001	 1.320090657308263e+001
 1.784357691222366e+000	 3.830047385472624e-001	 1.322627074978394e+001
 1.780623087310808e+000	 4.000080260642229e-001	 1.324891761268757e+001
 1.776715429398611e+000	 4.170219213946925e-001	 1.326939952759977e+001
 1.772633867590407e+000	 4.340439741152393e-001	 1.328826555806622e+001
 1.768377594694717e+000	 4.510717044818725e-001	 1.330605972151217e+001
 1.763945847209231e+000	 4.681026042702974e-001	 1.332331921062720e+001
 1.759337906289263e+000	 4.851341376512272e-001	 1.334057258368727e+001
 1.754553098698004e+000	 5.021637421004885e-001	 1.335833792771209e+001
 1.819114931563034e+000	 3.366316469580142e-001	 1.301404595982851e+001
 1.815849855691049e+000	 3.538210021447762e-001	 1.305066358491914e+001
 1.812412189346542e+000	 3.710283761165244e-001	 1.308343527982590e+001
 1.808800947268392e+000	 3.882513788013551e-001	 1.311298024078541e+001
 1.805015184399005e+000	 4.054875880649471e-001	 1.313991830451065e+001
 1.801053996926252e+000	 4.227345504546500e-001	 1.316486818289904e+001
 1.796916523312362e+000	 4.399897819795882e-001	 1.318844565315105e+001
 1.792601945308435e+000	 4.572507689266762e-001	 1.321126170672413e+001
 1.788109488953231e+000	 4.745149687123825e-001	 1.323392066077282e+001
 1.783438425554874e+000	 4.917798107700342e-001	 1.325701823594867e+001
 1.778588072654134e+000	 5.090426974723874e-001	 1.328113960464967e+001
 1.843697565775724e+000	 3.411807232698052e-001	 1.290093258366114e+001
 1.840388367256623e+000	 3.586023670398280e-001	 1.294095846325686e+001
 1.836904245961327e+000	 3.760422730919869e-001	 1.297713022893194e+001
 1.833244203314375e+000	 3.934980190561098e-001	 1.301013405680263e+001
 1.829407281487125e+000	 4.109671500663311e-001	 1.304065734072387e+001
 1.825392564453771e+000	 4.284471795152351e-001	 1.306938682303292e+001
 1.821199179034139e+000	 4.459355898445028e-001	 1.309700667755128e+001
 1.816826295921914e+000	 4.634298333719529e-001	 1.312419654842953e+001
 1.812273130696917e+000	 4.809273331548182e-001	 1.315162954866016e+001
 1.807538944820087e+000	 4.984254838890382e-001	 1.317997022231682e+001
 1.802623046609771e+000	 5.159216528442988e-001	 1.320987247480790e+001
 1.868280199988416e+000	 3.457297995820888e-001	 1.279876948156664e+001
 1.864926878822192e+000	 3.633837319354581e-001	 1.284134793022739e+001
 1.861396302576093e+000	 3.810561700680843e-001	 1.288007684887821e+001
 1.857687459360314e+000	 3.987446593115266e-001	 1.291571113556601e+001
 1.853799378575168e+000	 4.164467120683748e-001	 1.294900748816414e+001
 1.849731131981168e+000	 4.341598085764479e-001	 1.298072242830191e+001
 1.845481834755741e+000	 4.518813977099830e-001	 1.301161027432716e+001
 1.841050646535152e+000	 4.696088978177032e-001	 1.304242106705285e+001
 1.836436772440289e+000	 4.873396975976045e-001	 1.307389845229048e+001
 1.831639464084901e+000	 5.050711570082392e-001	 1.310677752442004e+001
 1.826658020564913e+000	 5.228006082162227e-001	 1.314178263548713e+001
 1.892862834201107e+000	 3.502788758948651e-001	 1.272183634118633e+001
 1.889465390387757e+000	 3.681650968316664e-001	 1.275622387890828e+001
 1.885888359190838e+000	 3.860700670448166e-001	 1.279037418568189e+001
 1.882130715406210e+000	 4.039912995676054e-001	 1.282492792169207e+001
 1.878191475663132e+000	 4.219262740710784e-001	 1.286049739191232e+001
 1.874069699508443e+000	 4.398724376382885e-001	 1.289667794814776e+001
 1.869764490477167e+000	 4.578272055760289e-001	 1.292995643351056e+001
 1.865274997148151e+000	 4.757879622639268e-001	 1.296353281004825e+001
 1.860600414183345e+000	 4.937520620407412e-001	 1.299822305797862e+001
 1.855739983349315e+000	 5.117168301276374e-001	 1.303483461369465e+001
 1.850692994519563e+000	 5.296795635881593e-001	 1.307416405447302e+001
 1.917445468413798e+000	 3.548279522081341e-001	 1.264198501776494e+001
 1.914003901953317e+000	 3.729464617284529e-001	 1.266836473137881e+001
 1.910380415805565e+000	 3.910839640221834e-001	 1.269532498332748e+001
 1.906573971452062e+000	 4.092379398243463e-001	 1.272352806287718e+001
 1.902583572751019e+000	 4.274058360744416e-001	 1.275360646682937e+001
 1.898408267035597e+000	 4.455850667007569e-001	 1.278616201990775e+001
 1.894047146198417e+000	 4.637730134426403e-001	 1.282176505406333e+001
 1.889499347760909e+000	 4.819670267106236e-001	 1.286095364956069e+001
 1.884764055926089e+000	 5.001644264842287e-001	 1.290423294059129e+001
 1.879840502613331e+000	 5.183625032472324e-001	 1.295207448802904e+001
 1.874727968473718e+000	 5.365585189601085e-001	 1.300435550141545e+001
 1.942028102626488e+000	 3.593770285218957e-001	 1.255038289445352e+001
 1.938542413518873e+000	 3.777278266258178e-001	 1.256965320734325e+001
 1.934872472420273e+000	 3.960978610001851e-001	 1.259036468687168e+001
 1.931017227497870e+000	 4.144845800817491e-001	 1.261320031281138e+001
 1.926975669838828e+000	 4.328853980784645e-001	 1.263881176534321e+001
 1.922746834562629e+000	 4.512976957638528e-001	 1.266781851508475e+001
 1.918329801919492e+000	 4.697188213098174e-001	 1.270080697478444e+001
 1.913723698373428e+000	 4.881460911577938e-001	 1.273832971565702e+001
 1.908927697668517e+000	 5.065767909280664e-001	 1.278090475121220e+001
 1.903941021876948e+000	 5.250081763670245e-001	 1.282901489129228e+001
 1.898762942427380e+000	 5.434374743320701e-001	 1.288310716888572e+001
 1.966610736839180e+000	 3.639261048361500e-001	 1.244698092892562e+001
 1.963080925084422e+000	 3.825091915237607e-001	 1.246002834471675e+001
 1.959364529034961e+000	 4.011117579788214e-001	 1.247542103076274e+001
 1.955460483543635e+000	 4.197312203398140e-001	 1.249386171710555e+001
 1.951367766926559e+000	 4.383649600831472e-001	 1.251602025639239e+001
 1.947085402089539e+000	 4.570103248275765e-001	 1.254253268367342e+001
 1.942612457640390e+000	 4.756646291775601e-001	 1.257400034073931e+001
 1.937948048985706e+000	 4.943251556054372e-001	 1.261098906808870e+001
 1.933091339410632e+000	 5.129891553722545e-001	 1.265402846748606e+001
 1.928041541140166e+000	 5.316538494870133e-001	 1.270361123792858e+001
 1.922797916380548e+000	 5.503164297040443e-001	 1.276019258768464e+001
 1.682448176826651e+000	 4.815268759848673e-001	 1.365384894622728e+001
 1.677689806041381e+000	 4.978523021060258e-001	 1.372444415479139e+001
 1.672760680688981e+000	 5.141708909989885e-001	 1.378285154985191e+001
 1.667660291674265e+000	 5.304801142200816e-001	 1.382927976770682e+001
 1.662388177080357e+000	 5.467774215453338e-001	 1.386393163673959e+001
 1.656943922973434e+000	 5.630602420043449e-001	 1.388700286471518e+001
 1.651327164182347e+000	 5.793259849448744e-001	 1.389868071936169e+001
 1.645537585051869e+000	 5.955720411275246e-001	 1.389914270600363e+001
 1.639574920168338e+000	 6.117957838498270e-001	 1.388855524612016e+001
 1.633438955056451e+000	 6.279945700989932e-001	 1.386476425801406e+001
 1.627129526846032e+000	 6.441657417325339e-001	 1.382484191860049e+001
 1.706483150784262e+000	 4.884058313567285e-001	 1.354180334368948e+001
 1.701656803273777e+000	 5.049644778520136e-001	 1.361920137868585e+001
 1.696657261845163e+000	 5.215161894442626e-001	 1.368413439538382e+001
 1.691484010130446e+000	 5.380584015691765e-001	 1.373682067475501e+001
 1.686136579613939e+000	 5.545885275710122e-001	 1.377747235464046e+001
 1.680614550448477e+000	 5.711039597512186e-001	 1.380629405894798e+001
 1.674917552246178e+000	 5.876020704482375e-001	 1.382348151990427e+001
 1.669045264842459e+000	 6.040802131478213e-001	 1.382922019729322e+001
 1.662997419032029e+000	 6.205357236231791e-001	 1.382368389872404e+001
 1.656773797275656e+000	 6.369659211041964e-001	 1.379874534360442e+001
 1.650374234376445e+000	 6.533681094749184e-001	 1.376657690275588e+001
 1.730518124741380e+000	 4.952847867286022e-001	 1.344427254151931e+001
 1.725623800505588e+000	 5.120766535978284e-001	 1.352598419497565e+001
 1.720553843000689e+000	 5.288614878892073e-001	 1.359499750816410e+001
 1.715307728585921e+000	 5.456366889178151e-001	 1.365154289993058e+001
 1.709884982146783e+000	 5.623996335961364e-001	 1.369584428652845e+001
 1.704285177922769e+000	 5.791476774974711e-001	 1.372811764879608e+001
 1.698507940309269e+000	 5.958781559509419e-001	 1.374856959213411e+001
 1.692552944632335e+000	 6.125883851674518e-001	 1.375739590338715e+001
 1.686419917895057e+000	 6.292756633958879e-001	 1.375146652258269e+001
 1.680108639494266e+000	 6.459372721088098e-001	 1.372946808360688e+001
 1.673618941906352e+000	 6.625704772167977e-001	 1.370404341732647e+001
 1.754553098698004e+000	 5.021637421004885e-001	 1.335833792771209e+001
 1.749590797736816e+000	 5.191888293434703e-001	 1.344185674067737e+001
 1.744450424155561e+000	 5.362067863338228e-001	 1.351248792036861e+001
 1.739131447040690e+000	 5.532149762659974e-001	 1.357047654076114e+001
 1.733633384678889e+000	 5.702107396207068e-001	 1.361606078935430e+001
 1.727955805396312e+000	 5.871913952431019e-001	 1.364947046836437e+001
 1.722098328371618e+000	 6.041542414529869e-001	 1.367092548843740e+001
 1.716060624421499e+000	 6.210965571864153e-001	 1.368063435916882e+001
 1.709842416757420e+000	 6.380156031679536e-001	 1.367164017748909e+001
 1.703443481712282e+000	 6.549086231128335e-001	 1.365571989915855e+001
 1.696863649435754e+000	 6.717728449581719e-001	 1.363605152408167e+001
 1.778588072654134e+000	 5.090426974723874e-001	 1.328113960464967e+001
 1.773557794967459e+000	 5.263010050889394e-001	 1.336393975568380e+001
 1.768347005309778e+000	 5.435520847781091e-001	 1.343370719024748e+001
 1.762955165494752e+000	 5.607932636137233e-001	 1.349070417991937e+001
 1.757381787210257e+000	 5.780218456447235e-001	 1.353518570131330e+001
 1.751626432869105e+000	 5.952351129881115e-001	 1.356739786727662e+001
 1.745688716433225e+000	 6.124303269543728e-001	 1.358757635030435e+001
 1.739568304209950e+000	 6.296047292047129e-001	 1.359380398921999e+001
 1.733264915619120e+000	 6.467555429393755e-001	 1.358716905379012e+001
 1.726778323929701e+000	 6.638799741162677e-001	 1.357632926829347e+001
 1.720108356964651e+000	 6.809752126990409e-001	 1.356145058362141e+001
 1.802623046609771e+000	 5.159216528442988e-001	 1.320987247480790e+001
 1.797524792197518e+000	 5.334131808342354e-001	 1.328940680923868e+001
 1.792243586463340e+000	 5.508973832220659e-001	 1.335580776705339e+001
 1.786778883948108e+000	 5.683715509609929e-001	 1.340935738621337e+001
 1.781130189740887e+000	 5.858329516681863e-001	 1.345032997642896e+001
 1.775297060341149e+000	 6.032788307324996e-001	 1.347899047630765e+001
 1.769279104494092e+000	 6.207064124550999e-001	 1.349559280238894e+001
 1.763075983997688e+000	 6.381129012223440e-001	 1.349918166817294e+001
 1.756687414480155e+000	 6.554954827101543e-001	 1.349690018306495e+001
 1.750113166146527e+000	 6.728513251191122e-001	 1.349016298881641e+001
 1.743353064493043e+000	 6.901775804394048e-001	 1.347912663545406e+001
 1.826658020564913e+000	 5.228006082162227e-001	 1.314178263548713e+001
 1.821491789426993e+000	 5.405253565793585e-001	 1.321548082432162e+001
 1.816140167616247e+000	 5.582426816656935e-001	 1.327598964294935e+001
 1.810602602400759e+000	 5.759498383078062e-001	 1.332361349181459e+001
 1.804878592270780e+000	 5.936440576910959e-001	 1.335864858482750e+001
 1.798967687812444e+000	 6.113225484762662e-001	 1.338138122836023e+001
 1.792869492554218e+000	 6.289824979551683e-001	 1.339272437653379e+001
 1.786583663784714e+000	 6.466210732393084e-001	 1.339863492054160e+001
 1.780109913340527e+000	 6.642354224802897e-001	 1.339971796666167e+001
 1.773448008362758e+000	 6.818226761213670e-001	 1.339612365726516e+001
 1.766597772020930e+000	 6.993799481792635e-001	 1.338799998491039e+001
 1.850692994519563e+000	 5.296795635881593e-001	 1.307416405447302e+001
 1.845458786655884e+000	 5.476375323243089e-001	 1.313943087285978e+001
 1.840036748768498e+000	 5.655879801089916e-001	 1.319149726580664e+001
 1.834426320852702e+000	 5.835281256541628e-001	 1.323069262061076e+001
 1.828626994799934e+000	 6.014551637134510e-001	 1.325733765454930e+001
 1.822638315282989e+000	 6.193662662194115e-001	 1.327174261157364e+001
 1.816459880613602e+000	 6.372585834545771e-001	 1.328257744505013e+001
 1.810091343571026e+000	 6.551292452556065e-001	 1.329106592126140e+001
 1.803532412200234e+000	 6.729753622497818e-001	 1.329454174908888e+001
 1.796782850578393e+000	 6.907940271230321e-001	 1.329314734431760e+001
 1.789842479548311e+000	 7.085823159186171e-001	 1.328702297809020e+001
 1.874727968473718e+000	 5.365585189601085e-001	 1.300435550141545e+001
 1.869425783884192e+000	 5.547497080690862e-001	 1.305856921746218e+001
 1.863933329920095e+000	 5.729332785519605e-001	 1.309961668947997e+001
 1.858250039303940e+000	 5.911064130000635e-001	 1.312785494514723e+001
 1.852375397328351e+000	 6.092662697352526e-001	 1.314363183322123e+001
 1.846308942752784e+000	 6.274099839619353e-001	 1.314993763041816e+001
 1.840050268672245e+000	 6.455346689533268e-001	 1.316532804877408e+001
 1.833599023356627e+000	 6.636374172712384e-001	 1.317541095587328e+001
 1.826954911059277e+000	 6.817153020186303e-001	 1.318032357806960e+001
 1.820117692793435e+000	 6.997653781241078e-001	 1.318020144901345e+001
 1.813087187075188e+000	 7.177846836574655e-001	 1.317517794796692e+001
 1.898762942427380e+000	 5.434374743320701e-001	 1.288310716888572e+001
 1.893392781111915e+000	 5.618618838136904e-001	 1.293393225659555e+001
 1.887829911071037e+000	 5.802785769946003e-001	 1.297260185523560e+001
 1.882073757754471e+000	 5.986847003455079e-001	 1.299894290256939e+001
 1.876123799856030e+000	 6.170773757565005e-001	 1.301275706482135e+001
 1.869979570221829e+000	 6.354537017038378e-001	 1.302378896585872e+001
 1.863640656730146e+000	 6.538107544514179e-001	 1.303992960654046e+001
 1.857106703141514e+000	 6.721455892862038e-001	 1.305063826162451e+001
 1.850377409917658e+000	 6.904552417868358e-001	 1.305604613471755e+001
 1.843452535007881e+000	 7.087367291245936e-001	 1.305628271594664e+001
 1.836331894601559e+000	 7.269870513958089e-001	 1.305147531648419e+001
 1.922797916380548e+000	 5.503164297040443e-001	 1.276019258768464e+001
 1.917359778339054e+000	 5.689740595581219e-001	 1.279598438890953e+001
 1.911726492221324e+000	 5.876238754369104e-001	 1.281994082601656e+001
 1.905897476204296e+000	 6.062629876904956e-001	 1.283184820925799e+001
 1.899872202382971e+000	 6.248884817771944e-001	 1.283146599408170e+001
 1.893650197690125e+000	 6.434974194451185e-001	 1.286415245731931e+001
 1.887231044787306e+000	 6.620868399488497e-001	 1.289008561575253e+001
 1.880614382925689e+000	 6.806537613005026e-001	 1.290927400961880e+001
 1.873799908775373e+000	 6.991951815543976e-001	 1.292072081895022e+001
 1.866787377221732e+000	 7.177080801244898e-001	 1.292041540116815e+001
 1.859576602127425e+000	 7.361894191336469e-001	 1.291495183899527e+001
 1.627129526846032e+000	 6.441657417325339e-001	 1.382484191860049e+001
 1.620646524908150e+000	 6.603066266860092e-001	 1.384859341943979e+001
 1.613989891457657e+000	 6.764145402067768e-001	 1.386151681665435e+001
 1.607159622122281e+000	 6.924867861127355e-001	 1.386336593793310e+001
 1.600155766478270e+000	 7.085206580754376e-001	 1.385389437754439e+001
 1.592978428549761e+000	 7.245134409262326e-001	 1.383285554325165e+001
 1.585627767271441e+000	 7.404624119843859e-001	 1.380000270876933e+001
 1.578103996913506e+000	 7.563648424060113e-001	 1.375508907214701e+001
 1.570407387467962e+000	 7.722179985526131e-001	 1.369786782046078e+001
 1.562538264995355e+000	 7.880191433779775e-001	 1.362809220118062e+001
 1.554497011931069e+000	 8.037655378321177e-001	 1.354551560057100e+001
 1.650374234376445e+000	 6.533681094749184e-001	 1.376657690275588e+001
 1.643798618125084e+000	 6.697395784986904e-001	 1.378090573767674e+001
 1.637046889910957e+000	 6.860776050693965e-001	 1.378601502044105e+001
 1.630119045299332e+000	 7.023794544880486e-001	 1.378170316377972e+001
 1.623015134574688e+000	 7.186423817643655e-001	 1.376776727791779e+001
 1.615735263247221e+000	 7.348636329415729e-001	 1.374400315174425e+001
 1.608279592522115e+000	 7.510404464434979e-001	 1.371020524019392e+001
 1.600648339730568e+000	 7.671700544427713e-001	 1.366616665836063e+001
 1.592841778721614e+000	 7.832496842489193e-001	 1.361167918285533e+001
 1.584860240213809e+000	 7.992765597150682e-001	 1.354653326091039e+001
 1.576704112105899e+000	 8.152479026619461e-001	 1.347051802772036e+001
 1.673618941906352e+000	 6.625704772167977e-001	 1.370404341732647e+001
 1.666950711341602e+000	 6.791725303109569e-001	 1.371025704493415e+001
 1.660103888363913e+000	 6.957406699316719e-001	 1.370884153159352e+001
 1.653078468476089e+000	 7.122721228630686e-001	 1.369963937883861e+001
 1.645874502670843e+000	 7.287641054530314e-001	 1.368249071678331e+001
 1.638492097944430e+000	 7.452138249566624e-001	 1.365723321969276e+001
 1.630931417772530e+000	 7.616184809023511e-001	 1.362370202844483e+001
 1.623192682547341e+000	 7.779752664792435e-001	 1.358172968053447e+001
 1.615276169974930e+000	 7.942813699448884e-001	 1.353114604826768e+001
 1.607182215431857e+000	 8.105339760517526e-001	 1.347177828578004e+001
 1.598911212280233e+000	 8.267302674912782e-001	 1.340345078550391e+001
 1.696863649435754e+000	 6.717728449581719e-001	 1.363605152408167e+001
 1.690102804557706e+000	 6.886054821228079e-001	 1.363538554089931e+001
 1.683160886816524e+000	 7.054037347936031e-001	 1.362866419753141e+001
 1.676037891652553e+000	 7.221647912377959e-001	 1.361577363178001e+001
 1.668733870766737e+000	 7.388858291414352e-001	 1.359659654062872e+001
 1.661248932641389e+000	 7.555640169715016e-001	 1.357101203031413e+001
 1.653583243022685e+000	 7.721965153609446e-001	 1.353889547397297e+001
 1.645737025363827e+000	 7.887804785154277e-001	 1.350011837765115e+001
 1.637710561227908e+000	 8.053130556405206e-001	 1.345454825545521e+001
 1.629504190649500e+000	 8.217913923880303e-001	 1.340204851461554e+001
 1.621118312454071e+000	 8.382126323201146e-001	 1.334247835121941e+001
 1.720108356964651e+000	 6.809752126990409e-001	 1.356145058362141e+001
 1.713254897773396e+000	 6.980384339342446e-001	 1.355507208554817e+001
 1.706217885268792e+000	 7.150667996551905e-001	 1.354419681753950e+001
 1.698997314828725e+000	 7.320574596122298e-001	 1.352875414292345e+001
 1.691593238862369e+000	 7.490075528295773e-001	 1.350866891369907e+001
 1.684005767338098e+000	 7.659142089860902e-001	 1.348386125515990e+001
 1.676235068272581e+000	 7.827745498192793e-001	 1.345424635878621e+001
 1.668281368180025e+000	 7.995856905513239e-001	 1.341973428432612e+001
 1.660144952480551e+000	 8.163447413358161e-001	 1.338022977198052e+001
 1.651826165866736e+000	 8.330488087239021e-001	 1.333563206559638e+001
 1.643325412627414e+000	 8.496949971484549e-001	 1.328583474776041e+001
 1.743353064493043e+000	 6.901775804394048e-001	 1.347912663545406e+001
 1.736406990988670e+000	 7.074713857452664e-001	 1.346813735512630e+001
 1.729274883720716e+000	 7.247298645164334e-001	 1.345419607931021e+001
 1.721956738004603e+000	 7.419501279863703e-001	 1.343727502612778e+001
 1.714452606957739e+000	 7.591292765174578e-001	 1.341734083014624e+001
 1.706762602034556e+000	 7.762644010004286e-001	 1.339435426156055e+001
 1.698886893522218e+000	 7.933525842773548e-001	 1.336826995434548e+001
 1.690825710995935e+000	 8.103909025869324e-001	 1.333903614443194e+001
 1.682579343732855e+000	 8.273764270307743e-001	 1.330659441895771e+001
 1.674148141083565e+000	 8.443062250593675e-001	 1.327087947763222e+001
 1.665532512800260e+000	 8.611773619762990e-001	 1.323181890724302e+001
 1.766597772020930e+000	 6.993799481792635e-001	 1.338799998491039e+001
 1.759559084203529e+000	 7.169043375558731e-001	 1.337343922265744e+001
 1.752331882172295e+000	 7.343929293773324e-001	 1.335745873733766e+001
 1.744916161180188e+000	 7.518427963602180e-001	 1.334007326947932e+001
 1.737311975052847e+000	 7.692510002050763e-001	 1.332129090153508e+001
 1.729519436730763e+000	 7.866145930145163e-001	 1.330111271158740e+001
 1.721538718771596e+000	 8.039306187351714e-001	 1.327953243673234e+001
 1.713370053811557e+000	 8.211961146222525e-001	 1.325653614733161e+001
 1.705013734984823e+000	 8.384081127253954e-001	 1.323210193331880e+001
 1.696470116299988e+000	 8.555636413944264e-001	 1.320619960373581e+001
 1.687739612972610e+000	 8.726597268036471e-001	 1.317879040066261e+001
 1.789842479548311e+000	 7.085823159186171e-001	 1.328702297809020e+001
 1.782711177417973e+000	 7.263372893660650e-001	 1.326987034256835e+001
 1.775388880623530e+000	 7.440559942378869e-001	 1.325281901117752e+001
 1.767875584355480e+000	 7.617354647337727e-001	 1.323592595125128e+001
 1.760171343147694e+000	 7.793727238924330e-001	 1.321924039467374e+001
 1.752276271426720e+000	 7.969647850283536e-001	 1.320280342603048e+001
 1.744190544020715e+000	 8.145086531927284e-001	 1.318664758115420e+001
 1.735914396626891e+000	 8.320013266572851e-001	 1.317079645739200e+001
 1.727448126236454e+000	 8.494397984196800e-001	 1.315526433691639e+001
 1.718792091516004e+000	 8.668210577290790e-001	 1.314005582439283e+001
 1.709946713144463e+000	 8.841420916304991e-001	 1.312516550030394e+001
 1.813087187075188e+000	 7.177846836574655e-001	 1.317517794796692e+001
 1.805863270632003e+000	 7.357702411758422e-001	 1.315635592111161e+001
 1.798445879074421e+000	 7.537190590980976e-001	 1.313914618384037e+001
 1.790835007530479e+000	 7.716281331070343e-001	 1.312364767001981e+001
 1.783030711242278e+000	 7.894944475795277e-001	 1.310995049730323e+001
 1.775033106122427e+000	 8.073149770419402e-001	 1.309813548960887e+001
 1.766842369269574e+000	 8.250866876500262e-001	 1.308827371071816e+001
 1.758458739441937e+000	 8.428065386920296e-001	 1.308042601045798e+001
 1.749882517487748e+000	 8.604714841136272e-001	 1.307464258492613e+001
 1.741114066731615e+000	 8.780784740633254e-001	 1.307096255221112e+001
 1.732153813315821e+000	 8.956244564568551e-001	 1.306941354504318e+001
 1.836331894601559e+000	 7.269870513958089e-001	 1.305147531648419e+001
 1.829015363845618e+000	 7.452031929852042e-001	 1.303185165612362e+001
 1.821502877524968e+000	 7.633821239579639e-001	 1.301534238258571e+001
 1.813794430705185e+000	 7.815208014800026e-001	 1.300208816996141e+001
 1.805890079336601e+000	 7.996161712663606e-001	 1.299221979145608e+001
 1.797789940817883e+000	 8.176651690552764e-001	 1.298585757603849e+001
 1.789494194518175e+000	 8.356647221070653e-001	 1.298311087694387e+001
 1.781003082256695e+000	 8.536117507264862e-001	 1.298407755363232e+001
 1.772316908738705e+000	 8.715031698072376e-001	 1.298884346880107e+001
 1.763436041946819e+000	 8.893358903971655e-001	 1.299748200203953e+001
 1.754360913486683e+000	 9.071068212827148e-001	 1.301005358170300e+001
 1.859576602127425e+000	 7.361894191336469e-001	 1.291495183899527e+001
 1.852167457058817e+000	 7.546361447941515e-001	 1.289534183130053e+001
 1.844559875975171e+000	 7.730451888174859e-001	 1.288034052615656e+001
 1.836753853879596e+000	 7.914134698526777e-001	 1.287013014425298e+001
 1.828749447430661e+000	 8.097378949529318e-001	 1.286488191631313e+001
 1.820546775513088e+000	 8.280153610683620e-001	 1.286475547371980e+001
 1.812146019766516e+000	 8.462427565638450e-001	 1.286989825173758e+001
 1.803547425071165e+000	 8.644169627606547e-001	 1.288044490707208e+001
 1.794751299989325e+000	 8.825348555005110e-001	 1.289651675150420e+001
 1.785758017161617e+000	 9.005933067305992e-001	 1.291822120332778e+001
 1.776568013657048e+000	 9.185891861080785e-001	 1.294565125830563e+001
 1.554497011931069e+000	 8.037655378321177e-001	 1.354551560057100e+001
 1.546284067350165e+000	 8.194544422807419e-001	 1.355634765602600e+001
 1.537899927190630e+000	 8.350831179393493e-001	 1.356290850805373e+001
 1.529345144433827e+000	 8.506488283203390e-001	 1.356503257460946e+001
 1.520620329241138e+000	 8.661488406911884e-001	 1.356254670996189e+001
 1.511726149046811e+000	 8.815804275427317e-001	 1.355527015755868e+001
 1.502663328606235e+000	 8.969408680658606e-001	 1.354301452079166e+001
 1.493432649999157e+000	 9.122274496350907e-001	 1.352558375224478e+001
 1.484034952587419e+000	 9.274374692974090e-001	 1.350277416196660e+001
 1.474471132926831e+000	 9.425682352647938e-001	 1.347437444526028e+001
 1.464742144632903e+000	 9.576170684087775e-001	 1.344016573043609e+001
 1.576704112105899e+000	 8.152479026619461e-001	 1.347051802772036e+001
 1.568373839745379e+000	 8.311609343174989e-001	 1.348988790344815e+001
 1.559869926154992e+000	 8.470128767716022e-001	 1.350457353736304e+001
 1.551192932215838e+000	 8.628009544439740e-001	 1.351435094850709e+001
 1.542343476805889e+000	 8.785223955630552e-001	 1.351898838317370e+001
 1.533322236894168e+000	 8.941744336552632e-001	 1.351824632165520e+001
 1.524129947589711e+000	 9.097543090427868e-001	 1.351187750396018e+001
 1.514767402144833e+000	 9.252592703483490e-001	 1.349962697501950e+001
 1.505235451912260e+000	 9.406865760053215e-001	 1.348123214985214e+001
 1.495535006255741e+000	 9.560334957715677e-001	 1.345642289911193e+001
 1.485667032413862e+000	 9.712973122453554e-001	 1.342492165538411e+001
 1.598911212280233e+000	 8.267302674912782e-001	 1.340345078550391e+001
 1.590463612140005e+000	 8.428674263536746e-001	 1.342883757043243e+001
 1.581839925118697e+000	 8.589426356032174e-001	 1.344916473971415e+001
 1.573040719997142e+000	 8.749530805669458e-001	 1.346415136238459e+001
 1.564066624369902e+000	 8.908959504342628e-001	 1.347350850149650e+001
 1.554918324740777e+000	 9.067684397671688e-001	 1.347693927308355e+001
 1.545596566572447e+000	 9.225677500191508e-001	 1.347413892518955e+001
 1.536102154289799e+000	 9.382910910611387e-001	 1.346479493741960e+001
 1.526435951236438e+000	 9.539356827128893e-001	 1.344858714141789e+001
 1.516598879584058e+000	 9.694987562781512e-001	 1.342518786262462e+001
 1.506591920194319e+000	 9.849775560819279e-001	 1.339426208360723e+001
 1.621118312454071e+000	 8.382126323201146e-001	 1.334247835121941e+001
 1.612553384534045e+000	 8.545739183892687e-001	 1.337145520812370e+001
 1.603809924081746e+000	 8.708723944341963e-001	 1.339503415553945e+001
 1.594888507777738e+000	 8.871052066892542e-001	 1.341287871685943e+001
 1.585789771933177e+000	 9.032695053048107e-001	 1.342464415204398e+001
 1.576514412586634e+000	 9.193624458784484e-001	 1.342997756717062e+001
 1.567063185554443e+000	 9.353811909949529e-001	 1.342851804517091e+001
 1.557436906434053e+000	 9.513229117734602e-001	 1.341989679815083e+001
 1.547636450559955e+000	 9.671847894201127e-001	 1.340373734163667e+001
 1.537662752911782e+000	 9.829640167845446e-001	 1.337965569103251e+001
 1.527516807974274e+000	 9.986577999184951e-001	 1.334726058051512e+001
 1.643325412627414e+000	 8.496949971484549e-001	 1.328583474776041e+001
 1.634643156927498e+000	 8.662804104242817e-001	 1.331606344167203e+001
 1.625779923044137e+000	 8.828021532645378e-001	 1.334059247506531e+001
 1.616736295557627e+000	 8.992573328108996e-001	 1.335903118825544e+001
 1.607512919495713e+000	 9.156430601746993e-001	 1.337098037640284e+001
 1.598110500431744e+000	 9.319564519891023e-001	 1.337603244805297e+001
 1.588529804535698e+000	 9.481946319701923e-001	 1.337377160600998e+001
 1.578771658577596e+000	 9.643547324853129e-001	 1.336377405088462e+001
 1.568836949882811e+000	 9.804338961269921e-001	 1.334560820759905e+001
 1.558726626238913e+000	 9.964292772907482e-001	 1.331883497507067e+001
 1.548441695753725e+000	 1.012338043755057e+000	 1.328300799923478e+001
 1.665532512800260e+000	 8.611773619762990e-001	 1.323181890724302e+001
 1.656732929320366e+000	 8.779869024587131e-001	 1.326104469863225e+001
 1.647749922005872e+000	 8.947319120942419e-001	 1.328430512832612e+001
 1.638584083336808e+000	 9.114094589318817e-001	 1.330115667688907e+001
 1.629236067057511e+000	 9.280166150439282e-001	 1.331114697366789e+001
 1.619706588276103e+000	 9.445504580991300e-001	 1.331381500275627e+001
 1.609996423516213e+000	 9.610080729448697e-001	 1.330869133246613e+001
 1.600106410720428e+000	 9.773865531966974e-001	 1.329529836859365e+001
 1.590037449205004e+000	 9.936830028335265e-001	 1.327315063170563e+001
 1.579790499565453e+000	 1.009894537796761e+000	 1.324175505860849e+001
 1.569366583532674e+000	 1.026018287591614e+000	 1.320061132809594e+001
 1.687739612972610e+000	 8.726597268036471e-001	 1.317879040066261e+001
 1.678822701712647e+000	 8.896933944925635e-001	 1.320483727459535e+001
 1.669719920966950e+000	 9.066616709233090e-001	 1.322468868386100e+001
 1.660431871115281e+000	 9.235615850522007e-001	 1.323784953575417e+001
 1.650959214618570e+000	 9.403901699124976e-001	 1.324381555586920e+001
 1.641302676119713e+000	 9.571444642085322e-001	 1.324207353995254e+001
 1.631463042495988e+000	 9.738215139189845e-001	 1.323210163046215e+001
 1.621441162862548e+000	 9.904183739076136e-001	 1.321336961807164e+001
 1.611237948526535e+000	 1.006932109539717e+000	 1.318533926829140e+001
 1.600854372891399e+000	 1.023359798302585e+000	 1.314746467331195e+001
 1.590291471311120e+000	 1.039698531428165e+000	 1.309919262910468e+001
 1.709946713144463e+000	 8.841420916304991e-001	 1.312516550030394e+001
 1.700912474104342e+000	 9.013998865258321e-001	 1.314593170539384e+001
 1.691689919927371e+000	 9.185914297517391e-001	 1.316030752803165e+001
 1.682279658893047e+000	 9.357137111718564e-001	 1.316774755411436e+001
 1.672682362178891e+000	 9.527637247804074e-001	 1.316769683284645e+001
 1.662898763962574e+000	 9.697384703173081e-001	 1.315959117297021e+001
 1.652929661475022e+000	 9.866349548925372e-001	 1.314285746493068e+001
 1.642775915003957e+000	 1.003450194618061e+000	 1.311691402916568e+001
 1.632438447847403e+000	 1.020181216245563e+000	 1.308117099064298e+001
 1.621918246216753e+000	 1.036825058808218e+000	 1.303503067969571e+001
 1.611216359089064e+000	 1.053378775264711e+000	 1.297788805913321e+001
 1.732153813315821e+000	 8.956244564568551e-001	 1.306941354504318e+001
 1.723002246495451e+000	 9.131063785585198e-001	 1.308286741836832e+001
 1.713659918887135e+000	 9.305211885795319e-001	 1.308977079977733e+001
 1.704127446670105e+000	 9.478658372908487e-001	 1.308952917312675e+001
 1.694405509738473e+000	 9.651372796476579e-001	 1.308153810597911e+001
 1.684494851804685e+000	 9.823324764254584e-001	 1.306518358872643e+001
 1.674396280453315e+000	 9.994483958655278e-001	 1.303984240090338e+001
 1.664110667144655e+000	 1.016482015328040e+000	 1.300488250483689e+001
 1.653638947167610e+000	 1.033430322951064e+000	 1.295966346670687e+001
 1.642982119541515e+000	 1.050290319313661e+000	 1.290353690501756e+001
 1.632141246866505e+000	 1.067059019101252e+000	 1.283584696640285e+001
 1.754360913486683e+000	 9.071068212827148e-001	 1.301005358170300e+001
 1.745092018885974e+000	 9.248128705906259e-001	 1.301422963796818e+001
 1.735629917846243e+000	 9.424509474066879e-001	 1.301172955817333e+001
 1.725975234446456e+000	 9.600179634091781e-001	 1.300191091293730e+001
 1.716128657297317e+000	 9.775108345142488e-001	 1.298412095226617e+001
 1.706090939646046e+000	 9.949264825329823e-001	 1.295769698610748e+001
 1.695862899430868e+000	 1.012261836837956e+000	 1.292196679337815e+001
 1.685445419284641e+000	 1.029513836037550e+000	 1.287624905957122e+001
 1.674839446487155e+000	 1.046679429656221e+000	 1.281985384297181e+001
 1.664045992865684e+000	 1.063755579818914e+000	 1.275208306943383e+001
 1.653066134643443e+000	 1.080739262937787e+000	 1.267223105558862e+001
 1.776568013657048e+000	 9.185891861080785e-001	 1.294565125830563e+001
 1.767181791275910e+000	 9.365193626221506e-001	 1.293864652343239e+001
 1.757599916804693e+000	 9.543807062332065e-001	 1.292487416242230e+001
 1.747823022222099e+000	 9.721700895268440e-001	 1.290364499274406e+001
 1.737851804855421e+000	 9.898843893801800e-001	 1.287425908209996e+001
 1.727687027486658e+000	 1.007520488639881e+000	 1.283600616897073e+001
 1.717329518407680e+000	 1.025075277809822e+000	 1.278816611294619e+001
 1.706780171423915e+000	 1.042545656746593e+000	 1.273000937490879e+001
 1.696039945806038e+000	 1.059928536361033e+000	 1.266079752705978e+001
 1.685109866189261e+000	 1.077220840323977e+000	 1.257978379269330e+001
 1.673991022419878e+000	 1.094419506774317e+000	 1.248621361554078e+001
 1.464742144632903e+000	 9.576170684087775e-001	 1.344016573043609e+001
 1.454848998199890e+000	 9.725813037558125e-001	 1.341498509640666e+001
 1.444792760773848e+000	 9.874582919805434e-001	 1.337475391354358e+001
 1.434574555879015e+000	 1.002245400896121e+000	 1.331883737909911e+001
 1.424195563096951e+000	 1.016940016940706e+000	 1.324659984522546e+001
 1.413657017699293e+000	 1.031539546657219e+000	 1.315740542333124e+001
 1.402960210233953e+000	 1.046041418165064e+000	 1.305061860400380e+001
 1.392106486064946e+000	 1.060443082622109e+000	 1.292560489173667e+001
 1.381097244866092e+000	 1.074742015675246e+000	 1.278173145364441e+001
 1.369933940068900e+000	 1.088935718897824e+000	 1.261836778128885e+001
 1.358618078265032e+000	 1.103021721212288e+000	 1.243488636468635e+001
 1.485667032413862e+000	 9.712973122453554e-001	 1.342492165538411e+001
 1.475632555316646e+000	 9.864753223822117e-001	 1.338878860513274e+001
 1.465432657355221e+000	 1.001564839009399e+000	 1.333940554956385e+001
 1.455068478104174e+000	 1.016563192337401e+000	 1.327620812067802e+001
 1.444541213996230e+000	 1.031467731467781e+000	 1.319862951160959e+001
 1.433852117949764e+000	 1.046275825894074e+000	 1.310610099612627e+001
 1.423002498949086e+000	 1.060984866994530e+000	 1.299805246575343e+001
 1.411993721577700e+000	 1.075592269514990e+000	 1.287391298392213e+001
 1.400827205504765e+000	 1.090095473040156e+000	 1.273311135648016e+001
 1.389504424925096e+000	 1.104491943451570e+000	 1.257507671784186e+001
 1.378026907953097e+000	 1.118779174370570e+000	 1.239923913199286e+001
 1.506591920194319e+000	 9.849775560819279e-001	 1.339426208360723e+001
 1.496416112432994e+000	 1.000369341008790e+000	 1.335056216835449e+001
 1.486072553936271e+000	 1.015671386038590e+000	 1.329539210381218e+001
 1.475562400329086e+000	 1.030880983779144e+000	 1.322825631310775e+001
 1.464886864895328e+000	 1.045995445995415e+000	 1.314865518242502e+001
 1.454047218200109e+000	 1.061012105131552e+000	 1.305608549699896e+001
 1.443044787664139e+000	 1.075928315824656e+000	 1.295004089681926e+001
 1.431880957090408e+000	 1.090741456408535e+000	 1.283001235160162e+001
 1.420557166143417e+000	 1.105448930405707e+000	 1.269548865451966e+001
 1.409074909781287e+000	 1.120048168005903e+000	 1.254595693412385e+001
 1.397435737641161e+000	 1.134536627529352e+000	 1.238090318380779e+001
 1.527516807974274e+000	 9.986577999184951e-001	 1.334726058051512e+001
 1.517199669548935e+000	 1.014263359635549e+000	 1.329924087115264e+001
 1.506712450517001e+000	 1.029777933068117e+000	 1.324151209428341e+001
 1.496056322553752e+000	 1.045198775221347e+000	 1.317364589145076e+001
 1.485232515794244e+000	 1.060523160523605e+000	 1.309520826375867e+001
 1.474242318450327e+000	 1.075748384369653e+000	 1.300575992564409e+001
 1.463087076379111e+000	 1.090871764655441e+000	 1.290485668046961e+001
 1.451768192603071e+000	 1.105890643302746e+000	 1.279204981765341e+001
 1.440287126782049e+000	 1.120802387771899e+000	 1.266688653098159e+001
 1.428645394637474e+000	 1.135604392560822e+000	 1.252891035767797e+001
 1.416844567329225e+000	 1.150294080688636e+000	 1.237766163773390e+001
 1.548441695753725e+000	 1.012338043755057e+000	 1.328300799923478e+001
 1.537983226664468e+000	 1.028157378262487e+000	 1.323378435624634e+001
 1.527352347097408e+000	 1.043884480097980e+000	 1.317659578151384e+001
 1.516550244778170e+000	 1.059516566664012e+000	 1.311107962952532e+001
 1.505578166692977e+000	 1.075050875052352e+000	 1.303686600434849e+001
 1.494437418700419e+000	 1.090484663608378e+000	 1.295357803239689e+001
 1.483129365094002e+000	 1.105815213486885e+000	 1.286083215915718e+001
 1.471655428115688e+000	 1.121039830197622e+000	 1.275823846974948e+001
 1.460017087420660e+000	 1.136155845138731e+000	 1.264540103311793e+001
 1.448215879493655e+000	 1.151160617116327e+000	 1.252191826957196e+001
 1.436253397017289e+000	 1.166051533848422e+000	 1.238738334132271e+001
 1.569366583532674e+000	 1.026018287591614e+000	 1.320061132809594e+001
 1.558766783779593e+000	 1.042051396889605e+000	 1.315317518681744e+001
 1.547992243677491e+000	 1.057991027128178e+000	 1.309950305241197e+001
 1.537044167002341e+000	 1.073834358107138e+000	 1.303929655065517e+001
 1.525923817591530e+000	 1.089578589581657e+000	 1.297224843940648e+001
 1.514632518950385e+000	 1.105220942847726e+000	 1.289804280152347e+001
 1.503171653808812e+000	 1.120758662318988e+000	 1.281635526390671e+001
 1.491542663628261e+000	 1.136189017093163e+000	 1.272685324270297e+001
 1.479747048059252e+000	 1.151509302506205e+000	 1.262919621461182e+001
 1.467786364349831e+000	 1.166716841672418e+000	 1.252303601416275e+001
 1.455662226705354e+000	 1.181808987008709e+000	 1.240801715674482e+001
 1.590291471311120e+000	 1.039698531428165e+000	 1.309919262910468e+001
 1.579550340894311e+000	 1.055945415516904e+000	 1.305641733858534e+001
 1.568632140257253e+000	 1.072097574158711e+000	 1.300912147115495e+001
 1.557538089226265e+000	 1.088152149550725e+000	 1.295706954283342e+001
 1.546269468489901e+000	 1.104106304111520e+000	 1.290001557571937e+001
 1.534827619200224e+000	 1.119957222087697e+000	 1.283770321214656e+001
 1.523213942523541e+000	 1.135702111151751e+000	 1.276986585717226e+001
 1.511429899140787e+000	 1.151338203989368e+000	 1.269622684957689e+001
 1.499477008697823e+000	 1.166862759874319e+000	 1.261649966147016e+001
 1.487356849206002e+000	 1.182273066229095e+000	 1.253038812651199e+001
 1.475071056393418e+000	 1.197566440169497e+000	 1.243758669667004e+001
 1.611216359089064e+000	 1.053378775264711e+000	 1.297788805913321e+001
 1.600333898008621e+000	 1.069839434144381e+000	 1.294253480938232e+001
 1.589272036836692e+000	 1.086204121189579e+000	 1.290436448196344e+001
 1.578032011449942e+000	 1.102469940994773e+000	 1.286320315971839e+001
 1.566615119388090e+000	 1.118634018641939e+000	 1.281886479609158e+001
 1.555022719449937e+000	 1.134693501328291e+000	 1.277115125156647e+001
 1.543256231238189e+000	 1.150645559985172e+000	 1.271985236066618e+001
 1.531317134653268e+000	 1.166487390886239e+000	 1.266474602985006e+001
 1.519206969336373e+000	 1.182216217243073e+000	 1.260559836654800e+001
 1.506927334062168e+000	 1.197829290786359e+000	 1.254216383948292e+001
 1.494479886081482e+000	 1.213323893330786e+000	 1.247418547033893e+001
 1.632141246866505e+000	 1.067059019101252e+000	 1.283584696640285e+001
 1.621117455122524e+000	 1.083733452772039e+000	 1.281057033568508e+001
 1.609911933415809e+000	 1.100310668220784e+000	 1.278416975012447e+001
 1.598525933673372e+000	 1.116787732439283e+000	 1.275653159078294e+001
 1.586960770286098e+000	 1.133161733172916e+000	 1.272752846344683e+001
 1.575217819699524e+000	 1.149429780569508e+000	 1.269701915832661e+001
 1.563298519952757e+000	 1.165589008819253e+000	 1.266484864258634e+001
 1.551204370165703e+000	 1.181636577783775e+000	 1.263084808618499e+001
 1.538936929974904e+000	 1.197569674612469e+000	 1.259483492141736e+001
 1.526497818918329e+000	 1.213385515344209e+000	 1.255661293644553e+001
 1.513888715769546e+000	 1.229081346492577e+000	 1.251597240301328e+001
 1.653066134643443e+000	 1.080739262937787e+000	 1.267223105558862e+001
 1.641901012236020e+000	 1.097627471399877e+000	 1.265958420662419e+001
 1.630551829994604e+000	 1.114417215252323e+000	 1.264749762901250e+001
 1.619019855896556e+000	 1.131105523884254e+000	 1.263591678563032e+001
 1.607306421183923e+000	 1.147689447704449e+000	 1.262477170689650e+001
 1.595412919948984e+000	 1.164166059811349e+000	 1.261397687466654e+001
 1.583340808667244e+000	 1.180532457653993e+000	 1.260343114125630e+001
 1.571091605678093e+000	 1.196785764681977e+000	 1.259301768422663e+001
 1.558666890613415e+000	 1.212923131982505e+000	 1.258260399746084e+001
 1.546068303774484e+000	 1.228941739902645e+000	 1.257204191896565e+001
 1.533297545457611e+000	 1.244838799654869e+000	 1.256116769572149e+001
 1.673991022419878e+000	 1.094419506774317e+000	 1.248621361554078e+001
 1.662684569349107e+000	 1.111521490027895e+000	 1.248865316694370e+001
 1.651191726573076e+000	 1.128523762284198e+000	 1.249332974208403e+001
 1.639513778119492e+000	 1.145423315329686e+000	 1.250024671898581e+001
 1.627652072081567e+000	 1.162217162236540e+000	 1.250939037385287e+001
 1.615608020198319e+000	 1.178902339053813e+000	 1.252072969004080e+001
 1.603383097381649e+000	 1.195475906489392e+000	 1.253421620449236e+001
 1.590978841190437e+000	 1.211934951580843e+000	 1.254978389241586e+001
 1.578396851251905e+000	 1.228276589353182e+000	 1.256734909088361e+001
 1.565638788630636e+000	 1.244497964461667e+000	 1.258681046191803e+001
 1.552706375145675e+000	 1.260596252817663e+000	 1.235015204841304e+001
 1.358618078265032e+000	 1.103021721212288e+000	 1.243488636468635e+001
 1.347151218564126e+000	 1.116997580295668e+000	 1.235485856732393e+001
 1.335534971906517e+000	 1.130860883968336e+000	 1.227676797480706e+001
 1.323771000332176e+000	 1.144609251562969e+000	 1.220111315795888e+001
 1.311861016207091e+000	 1.158240335270790e+000	 1.212837756541883e+001
 1.299806781406893e+000	 1.171751821465558e+000	 1.205902900120019e+001
 1.287610106458834e+000	 1.185141432003066e+000	 1.199351913395758e+001
 1.275272849643007e+000	 1.198406925494609e+000	 1.193228303884061e+001
 1.262796916053697e+000	 1.211546098552944e+000	 1.187573877271834e+001
 1.250184256621897e+000	 1.224556787009298e+000	 1.182428698346953e+001
 1.237436867100000e+000	 1.237436867100000e+000	 1.183539056882137e+001
 1.378026907953097e+000	 1.118779174370570e+000	 1.239923913199286e+001
 1.366396235971277e+000	 1.132954688583815e+000	 1.237406429269882e+001
 1.354614042933289e+000	 1.147016039451929e+000	 1.234971367507035e+001
 1.342682014622530e+000	 1.160960812298055e+000	 1.232657906884028e+001
 1.330601887867360e+000	 1.174786625773290e+000	 1.230503771665045e+001
 1.318375449713059e+000	 1.188491133199592e+000	 1.228545190412746e+001
 1.306004536551559e+000	 1.202072023887835e+000	 1.226816858151998e+001
 1.293491033209806e+000	 1.215527024429475e+000	 1.225351901758314e+001
 1.280836871997721e+000	 1.228853899960310e+000	 1.224181848630449e+001
 1.268044031716738e+000	 1.242050455394869e+000	 1.223336598697496e+001
 1.255114536630000e+000	 1.255114536630000e+000	 1.212298999710568e+001
 1.397435737641161e+000	 1.134536627529352e+000	 1.238090318380779e+001
 1.385641253378430e+000	 1.148911796872367e+000	 1.240662160979012e+001
 1.373693113960062e+000	 1.163171194935842e+000	 1.243210832778265e+001
 1.361593028912884e+000	 1.177312373033386e+000	 1.245765020640033e+001
 1.349342759527628e+000	 1.191332916275971e+000	 1.248352009660082e+001
 1.336944118019226e+000	 1.205230444933752e+000	 1.250997653261163e+001
 1.324398966644283e+000	 1.219002615772685e+000	 1.253726346433814e+001
 1.311709216776605e+000	 1.232647123364387e+000	 1.256561002175010e+001
 1.298876827941744e+000	 1.246161701367696e+000	 1.259523031165399e+001
 1.285903806811579e+000	 1.259544123780445e+000	 1.242238812411794e+001
 1.272792206160000e+000	 1.272792206160000e+000	 1.217843961431234e+001
 1.416844567329225e+000	 1.150294080688636e+000	 1.237766163773390e+001
 1.404886270785581e+000	 1.164868905161327e+000	 1.245048764090509e+001
 1.392772184986834e+000	 1.179326350420076e+000	 1.252208175304699e+001
 1.380504043203239e+000	 1.193663933768963e+000	 1.259262769537376e+001
 1.368083631187897e+000	 1.207879206778833e+000	 1.266229565577783e+001
 1.355512786325393e+000	 1.221969756668037e+000	 1.273124209902015e+001
 1.342793396737007e+000	 1.235933207657614e+000	 1.279960960838798e+001
 1.329927400343404e+000	 1.249767222299344e+000	 1.286752675913316e+001
 1.316916783885768e+000	 1.263469502775102e+000	 1.263827328673647e+001
 1.303763581906420e+000	 1.277037792166026e+000	 1.241324573032687e+001
 1.290469875690000e+000	 1.290469875690000e+000	 1.219838946493723e+001
 1.436253397017289e+000	 1.166051533848422e+000	 1.238738334132271e+001
 1.424131288192732e+000	 1.180826013450692e+000	 1.250369580603950e+001
 1.411851256013606e+000	 1.195481505904632e+000	 1.261783072614961e+001
 1.399415057493593e+000	 1.210015494504787e+000	 1.272987036754754e+001
 1.386824502848165e+000	 1.224425497281876e+000	 1.283988390255260e+001
 1.374081454631560e+000	 1.238709068402448e+000	 1.294792732784841e+001
 1.361187826829731e+000	 1.252863799542624e+000	 1.298869227531288e+001
 1.348145583910203e+000	 1.266887321234346e+000	 1.277616245239479e+001
 1.334956739829792e+000	 1.280777304182529e+000	 1.257069749093993e+001
 1.321623357001262e+000	 1.294531460551612e+000	 1.237300286246443e+001
 1.308147545220000e+000	 1.308147545220000e+000	 1.218377913240058e+001
 1.455662226705354e+000	 1.181808987008709e+000	 1.240801715674482e+001
 1.443376305599884e+000	 1.196783121740464e+000	 1.256435073636513e+001
 1.430930327040378e+000	 1.211636661389509e+000	 1.271761451388142e+001
 1.418326071783947e+000	 1.226367055240856e+000	 1.286779091462457e+001
 1.405565374508434e+000	 1.240971787785099e+000	 1.301484966596891e+001
 1.392650122937726e+000	 1.255448380136984e+000	 1.303185238545305e+001
 1.379582256922456e+000	 1.269794391427715e+000	 1.284153871107749e+001
 1.366363767477001e+000	 1.284007420169394e+000	 1.265610625024688e+001
 1.352996695773816e+000	 1.298085105589976e+000	 1.247620082305488e+001
 1.339483132096103e+000	 1.312025128937203e+000	 1.230246651120604e+001
 1.325825214750000e+000	 1.325825214750000e+000	 1.213554445629984e+001
 1.475071056393418e+000	 1.197566440169497e+000	 1.243758669667004e+001
 1.462621323007036e+000	 1.212740230030642e+000	 1.263062358928359e+001
 1.450009398067151e+000	 1.227791816874707e+000	 1.281975076325434e+001
 1.437237086074301e+000	 1.242718615977171e+000	 1.300485234480768e+001
 1.424306246168702e+000	 1.257518078288504e+000	 1.300780029898205e+001
 1.411218791243893e+000	 1.272187691871646e+000	 1.283985102177963e+001
 1.397976687015180e+000	 1.286724983312886e+000	 1.267475697501379e+001
 1.384581951043800e+000	 1.301127519104486e+000	 1.251310174535998e+001
 1.371036651717839e+000	 1.315392906997442e+000	 1.235547024061848e+001
 1.357342907190944e+000	 1.329518797322799e+000	 1.220244754886977e+001
 1.343502884280000e+000	 1.343502884280000e+000	 1.205461777871376e+001
 1.494479886081482e+000	 1.213323893330786e+000	 1.247418547033893e+001
 1.481866340414187e+000	 1.228697338321226e+000	 1.270074772854157e+001
 1.469088469093923e+000	 1.243946972360227e+000	 1.292261171057815e+001
 1.456148100364656e+000	 1.259070176713732e+000	 1.292210372316750e+001
 1.443047117828970e+000	 1.274064368792089e+000	 1.277651320385907e+001
 1.429787459550060e+000	 1.288927003606433e+000	 1.263190699911597e+001
 1.416371117107903e+000	 1.303655575198137e+000	 1.248880398738361e+001
 1.402800134610599e+000	 1.318247618039624e+000	 1.234772731698556e+001
 1.389076607661863e+000	 1.332700708404929e+000	 1.220920333269392e+001
 1.375202682285786e+000	 1.347012465708400e+000	 1.207376047736150e+001
 1.361180553810000e+000	 1.361180553810000e+000	 1.194192817131408e+001
 1.513888715769546e+000	 1.229081346492577e+000	 1.251597240301328e+001
 1.501111357821339e+000	 1.244654446612217e+000	 1.277301473664444e+001
 1.488167540120696e+000	 1.260102127846067e+000	 1.278028638457709e+001
 1.475059114655010e+000	 1.275421737450539e+000	 1.265690227328249e+001
 1.461787989489239e+000	 1.290610659295855e+000	 1.253278412169246e+001
 1.448356127856227e+000	 1.305666315341346e+000	 1.240838372862518e+001
 1.434765547200628e+000	 1.320586167083469e+000	 1.228415999808989e+001
 1.421018318177398e+000	 1.335367716974808e+000	 1.216057793971361e+001
 1.407116563605887e+000	 1.350008509812436e+000	 1.203810763836251e+001
 1.393062457380627e+000	 1.364506134094006e+000	 1.191722319550912e+001
 1.378858223340000e+000	 1.378858223340000e+000	 1.179840164500697e+001
 1.533297545457611e+000	 1.244838799654869e+000	 1.256116769572149e+001
 1.520356375228491e+000	 1.260611554903613e+000	 1.258782604553342e+001
 1.507246611147468e+000	 1.276257283332229e+000	 1.248635621674240e+001
 1.493970128945364e+000	 1.291773298187593e+000	 1.238258414077042e+001
 1.480528861149507e+000	 1.307156949799801e+000	 1.227689226544999e+001
 1.466924796162393e+000	 1.322405627076385e+000	 1.216967286289563e+001
 1.453159977293352e+000	 1.337516758968881e+000	 1.206132711011720e+001
 1.439236501744197e+000	 1.352487815910036e+000	 1.195226413313462e+001
 1.425156519549911e+000	 1.367316311219963e+000	 1.184290001697564e+001
 1.410922232475468e+000	 1.381999802479618e+000	 1.173365678406747e+001
 1.396535892870000e+000	 1.396535892870000e+000	 1.162496134365249e+001
 1.552706375145675e+000	 1.260596252817663e+000	 1.235015204841304e+001
 1.539601392635642e+000	 1.276568663195416e+000	 1.227017129020241e+001
 1.526325682174240e+000	 1.292412438818711e+000	 1.218646790794906e+001
 1.512881143235718e+000	 1.308124858924892e+000	 1.209935282421185e+001
 1.499269732809776e+000	 1.323703240303929e+000	 1.200914938581318e+001
 1.485493464468560e+000	 1.339144938811550e+000	 1.191619253085177e+001
 1.471554407386076e+000	 1.354447350854373e+000	 1.182082791371419e+001
 1.457454685310996e+000	 1.369607914845310e+000	 1.172341099027709e+001
 1.443196475493934e+000	 1.384624112627510e+000	 1.162430606563781e+001
 1.428782007570309e+000	 1.399493470865234e+000	 1.152388530684790e+001
 1.414213562400000e+000	 1.414213562400000e+000	 1.142252772325463e+001
 1.237436867100000e+000	 1.237436867100000e+000	 1.183539056882137e+001
 1.224556787009298e+000	 1.250184256621897e+000	 1.181727990014924e+001
 1.211546098552944e+000	 1.262796916053697e+000	 1.157202995971380e+001
 1.198406925494609e+000	 1.275272849643007e+000	 1.135294803027110e+001
 1.185141432003067e+000	 1.287610106458834e+000	 1.116039384499016e+001
 1.171751821465558e+000	 1.299806781406892e+000	 1.099469173258106e+001
 1.158240335270790e+000	 1.311861016207091e+000	 1.085613072043192e+001
 1.144609251562970e+000	 1.323771000332176e+000	 1.074496469933582e+001
 1.130860883968336e+000	 1.335534971906517e+000	 1.066141264868485e+001
 1.116997580295668e+000	 1.347151218564126e+000	 1.060565892085726e+001
 1.103021721212288e+000	 1.358618078265032e+000	 1.057785358337680e+001
 1.255114536630000e+000	 1.255114536630000e+000	 1.212298999710568e+001
 1.242050455394869e+000	 1.268044031716738e+000	 1.186092490345531e+001
 1.228853899960310e+000	 1.280836871997720e+000	 1.164399084411129e+001
 1.215527024429475e+000	 1.293491033209806e+000	 1.145159817423594e+001
 1.202072023887835e+000	 1.306004536551558e+000	 1.128401886003166e+001
 1.188491133199592e+000	 1.318375449713059e+000	 1.114149053586692e+001
 1.174786625773290e+000	 1.330601887867360e+000	 1.102421671388544e+001
 1.160960812298055e+000	 1.342682014622530e+000	 1.093236705416296e+001
 1.147016039451929e+000	 1.354614042933290e+000	 1.086607769408426e+001
 1.132954688583815e+000	 1.366396235971277e+000	 1.082545163546213e+001
 1.118779174370570e+000	 1.378026907953097e+000	 1.081055918777579e+001
 1.272792206160000e+000	 1.272792206160000e+000	 1.217843961431234e+001
 1.259544123780445e+000	 1.285903806811580e+000	 1.191706151674161e+001
 1.246161701367696e+000	 1.298876827941744e+000	 1.168947071269320e+001
 1.232647123364387e+000	 1.311709216776605e+000	 1.152103122688318e+001
 1.219002615772685e+000	 1.324398966644282e+000	 1.137577519495394e+001
 1.205230444933752e+000	 1.336944118019226e+000	 1.125385413847305e+001
 1.191332916275971e+000	 1.349342759527628e+000	 1.115538656374089e+001
 1.177312373033386e+000	 1.361593028912884e+000	 1.108045833765242e+001
 1.163171194935842e+000	 1.373693113960062e+000	 1.102912312163800e+001
 1.148911796872367e+000	 1.385641253378430e+000	 1.100140286199994e+001
 1.134536627529353e+000	 1.397435737641161e+000	 1.099728833481845e+001
 1.290469875690000e+000	 1.290469875690000e+000	 1.219838946493723e+001
 1.277037792166026e+000	 1.303763581906420e+000	 1.196817502838983e+001
 1.263469502775103e+000	 1.316916783885768e+000	 1.175502966107808e+001
 1.249767222299344e+000	 1.329927400343403e+000	 1.156062046048120e+001
 1.235933207657614e+000	 1.342793396737007e+000	 1.143517211606752e+001
 1.221969756668037e+000	 1.355512786325393e+000	 1.133142585578892e+001
 1.207879206778833e+000	 1.368083631187897e+000	 1.124941561693411e+001
 1.193663933768963e+000	 1.380504043203239e+000	 1.118914383934186e+001
 1.179326350420076e+000	 1.392772184986834e+000	 1.115058200435766e+001
 1.164868905161327e+000	 1.404886270785581e+000	 1.113367122894325e+001
 1.150294080688636e+000	 1.416844567329225e+000	 1.113832291290649e+001
 1.308147545220000e+000	 1.308147545220000e+000	 1.218377913240058e+001
 1.294531460551612e+000	 1.321623357001262e+000	 1.198180003211575e+001
 1.280777304182529e+000	 1.334956739829792e+000	 1.179519986988154e+001
 1.266887321234346e+000	 1.348145583910202e+000	 1.162476098809607e+001
 1.252863799542624e+000	 1.361187826829731e+000	 1.147125032742333e+001
 1.238709068402448e+000	 1.374081454631560e+000	 1.137381045395095e+001
 1.224425497281876e+000	 1.386824502848165e+000	 1.130603416408138e+001
 1.210015494504787e+000	 1.399415057493593e+000	 1.125827742613562e+001
 1.195481505904632e+000	 1.411851256013606e+000	 1.123042976997823e+001
 1.180826013450691e+000	 1.424131288192732e+000	 1.122235164333535e+001
 1.166051533848422e+000	 1.436253397017289e+000	 1.123387516207034e+001
 1.325825214750000e+000	 1.325825214750000e+000	 1.213554445629984e+001
 1.312025128937203e+000	 1.339483132096103e+000	 1.195897922719644e+001
 1.298085105589976e+000	 1.352996695773815e+000	 1.179614608554017e+001
 1.284007420169393e+000	 1.366363767477001e+000	 1.164778556189904e+001
 1.269794391427715e+000	 1.379582256922455e+000	 1.151462471476221e+001
 1.255448380136984e+000	 1.392650122937726e+000	 1.139737578264227e+001
 1.240971787785100e+000	 1.405565374508434e+000	 1.132493044323399e+001
 1.226367055240856e+000	 1.418326071783947e+000	 1.128766497048046e+001
 1.211636661389509e+000	 1.430930327040379e+000	 1.126858804397670e+001
 1.196783121740463e+000	 1.443376305599884e+000	 1.126747953888533e+001
 1.181808987008709e+000	 1.455662226705354e+000	 1.128409231719425e+001
 1.343502884280000e+000	 1.343502884280000e+000	 1.205461777871376e+001
 1.329518797322799e+000	 1.357342907190944e+000	 1.190074556902638e+001
 1.315392906997442e+000	 1.371036651717839e+000	 1.175899946908631e+001
 1.301127519104486e+000	 1.384581951043800e+000	 1.163008034196711e+001
 1.286724983312886e+000	 1.397976687015179e+000	 1.151467749377908e+001
 1.272187691871646e+000	 1.411218791243893e+000	 1.141346733865583e+001
 1.257518078288504e+000	 1.424306246168702e+000	 1.132711207080874e+001
 1.242718615977171e+000	 1.437237086074301e+000	 1.127706750789552e+001
 1.227791816874707e+000	 1.450009398067151e+000	 1.126492818919403e+001
 1.212740230030642e+000	 1.462621323007036e+000	 1.126903478868757e+001
 1.197566440169497e+000	 1.475071056393418e+000	 1.128906088467023e+001
 1.361180553810000e+000	 1.361180553810000e+000	 1.194192817131408e+001
 1.347012465708400e+000	 1.375202682285786e+000	 1.180812290183722e+001
 1.332700708404929e+000	 1.389076607661863e+000	 1.168487633137973e+001
 1.318247618039624e+000	 1.402800134610599e+000	 1.157285176729175e+001
 1.303655575198137e+000	 1.416371117107904e+000	 1.147270286224577e+001
 1.288927003606433e+000	 1.429787459550060e+000	 1.138507228943471e+001
 1.274064368792089e+000	 1.443047117828970e+000	 1.131059042172494e+001
 1.259070176713732e+000	 1.456148100364655e+000	 1.124987401811204e+001
 1.243946972360226e+000	 1.469088469093923e+000	 1.121927456964312e+001
 1.228697338321226e+000	 1.481866340414187e+000	 1.122694531305394e+001
 1.213323893330786e+000	 1.494479886081482e+000	 1.124881058580707e+001
 1.378858223340000e+000	 1.378858223340000e+000	 1.179840164500697e+001
 1.364506134094007e+000	 1.393062457380627e+000	 1.168212654274666e+001
 1.350008509812436e+000	 1.407116563605887e+000	 1.157487908504159e+001
 1.335367716974807e+000	 1.421018318177398e+000	 1.147728710529371e+001
 1.320586167083468e+000	 1.434765547200628e+000	 1.138997067332688e+001
 1.305666315341347e+000	 1.448356127856227e+000	 1.131354077813927e+001
 1.290610659295855e+000	 1.461787989489239e+000	 1.124859801149789e+001
 1.275421737450539e+000	 1.475059114655010e+000	 1.119573125576729e+001
 1.260102127846067e+000	 1.488167540120696e+000	 1.115551637937433e+001
 1.244654446612217e+000	 1.501111357821339e+000	 1.114109040982036e+001
 1.229081346492577e+000	 1.513888715769546e+000	 1.116331799689947e+001
 1.396535892870000e+000	 1.396535892870000e+000	 1.162496134365249e+001
 1.381999802479617e+000	 1.410922232475468e+000	 1.152376382144915e+001
 1.367316311219963e+000	 1.425156519549910e+000	 1.143009712409026e+001
 1.352487815910036e+000	 1.439236501744197e+000	 1.134455566521339e+001
 1.337516758968881e+000	 1.453159977293352e+000	 1.126772797637768e+001
 1.322405627076385e+000	 1.466924796162393e+000	 1.120019539472274e+001
 1.307156949799802e+000	 1.480528861149507e+000	 1.114253074835821e+001
 1.291773298187593e+000	 1.493970128945364e+000	 1.109529704292356e+001
 1.276257283332228e+000	 1.507246611147467e+000	 1.105904615277589e+001
 1.260611554903613e+000	 1.520356375228491e+000	 1.103431752026957e+001
 1.244838799654869e+000	 1.533297545457611e+000	 1.103250991283681e+001
 1.414213562400000e+000	 1.414213562400000e+000	 1.142252772325463e+001
 1.399493470865234e+000	 1.428782007570309e+000	 1.133403457942993e+001
 1.384624112627510e+000	 1.443196475493934e+000	 1.125160763760358e+001
 1.369607914845309e+000	 1.457454685310996e+000	 1.117580992049733e+001
 1.354447350854374e+000	 1.471554407386076e+000	 1.110720044218204e+001
 1.339144938811549e+000	 1.485493464468560e+000	 1.104633289800651e+001
 1.323703240303929e+000	 1.499269732809775e+000	 1.099375434914162e+001
 1.308124858924892e+000	 1.512881143235718e+000	 1.095000390523499e+001
 1.292412438818710e+000	 1.526325682174240e+000	 1.091561140869473e+001
 1.276568663195416e+000	 1.539601392635642e+000	 1.089109612413447e+001
 1.260596252817662e+000	 1.552706375145675e+000	 1.087696543651104e+001
 1.103021721212288e+000	 1.358618078265032e+000	 1.057785358337680e+001
 1.088935718897824e+000	 1.369933940068900e+000	 1.047058331598974e+001
 1.074742015675246e+000	 1.381097244866093e+000	 1.036098676526281e+001
 1.060443082622109e+000	 1.392106486064946e+000	 1.024827857327796e+001
 1.046041418165064e+000	 1.402960210233953e+000	 1.013167477973192e+001
 1.031539546657219e+000	 1.413657017699293e+000	 1.001039414423787e+001
 1.016940016940706e+000	 1.424195563096952e+000	 9.883659465429005e+000
 1.002245400896121e+000	 1.434574555879015e+000	 9.750698893790329e+000
 9.874582919805433e-001	 1.444792760773848e+000	 9.610747235170686e+000
 9.725813037558126e-001	 1.454848998199890e+000	 9.463047241963528e+000
 9.576170684087774e-001	 1.464742144632903e+000	 9.306850888990692e+000
 1.118779174370570e+000	 1.378026907953097e+000	 1.081055918777579e+001
 1.104491943451570e+000	 1.389504424925096e+000	 1.067702798899382e+001
 1.090095473040156e+000	 1.400827205504764e+000	 1.054371731635844e+001
 1.075592269514990e+000	 1.411993721577700e+000	 1.040987934853063e+001
 1.060984866994530e+000	 1.423002498949086e+000	 1.027476471660885e+001
 1.046275825894074e+000	 1.433852117949764e+000	 1.013762382574114e+001
 1.031467731467781e+000	 1.444541213996230e+000	 9.997708177802531e+000
 1.016563192337402e+000	 1.455068478104174e+000	 9.854271691992020e+000
 1.001564839009399e+000	 1.465432657355221e+000	 9.706572020223476e+000
 9.864753223822116e-001	 1.475632555316646e+000	 9.553871854209707e+000
 9.712973122453553e-001	 1.485667032413862e+000	 9.395440221178355e+000
 1.134536627529353e+000	 1.397435737641161e+000	 1.099728833481845e+001
 1.120048168005903e+000	 1.409074909781287e+000	 1.084115768902565e+001
 1.105448930405707e+000	 1.420557166143416e+000	 1.068774319078391e+001
 1.090741456408535e+000	 1.431880957090409e+000	 1.053633215817802e+001
 1.075928315824656e+000	 1.443044787664139e+000	 1.038620744668242e+001
 1.061012105131552e+000	 1.454047218200108e+000	 1.023664877282509e+001
 1.045995445995415e+000	 1.464886864895328e+000	 1.008693404313723e+001
 1.030880983779144e+000	 1.475562400329086e+000	 9.936340685169519e+000
 1.015671386038590e+000	 1.486072553936272e+000	 9.784146977362042e+000
 1.000369341008790e+000	 1.496416112432994e+000	 9.629633374576237e+000
 9.849775560819279e-001	 1.506591920194319e+000	 9.472083826125518e+000
 1.150294080688636e+000	 1.416844567329225e+000	 1.113832291290649e+001
 1.135604392560822e+000	 1.428645394637474e+000	 1.096314057001105e+001
 1.120802387771899e+000	 1.440287126782048e+000	 1.079312206657263e+001
 1.105890643302746e+000	 1.451768192603071e+000	 1.062758749916547e+001
 1.090871764655441e+000	 1.463087076379111e+000	 1.046584961446128e+001
 1.075748384369653e+000	 1.474242318450326e+000	 1.030721513767499e+001
 1.060523160523605e+000	 1.485232515794244e+000	 1.015098611048000e+001
 1.045198775221347e+000	 1.496056322553752e+000	 9.996461235091608e+000
 1.029777933068117e+000	 1.506712450517001e+000	 9.842937221216717e+000
 1.014263359635548e+000	 1.517199669548935e+000	 9.689710132578966e+000
 9.986577999184951e-001	 1.527516807974274e+000	 9.536076729752288e+000
 1.166051533848422e+000	 1.436253397017289e+000	 1.123387516207034e+001
 1.151160617116327e+000	 1.448215879493655e+000	 1.104308204524632e+001
 1.136155845138731e+000	 1.460017087420660e+000	 1.085985563592939e+001
 1.121039830197621e+000	 1.471655428115688e+000	 1.068354648151414e+001
 1.105815213486885e+000	 1.483129365094002e+000	 1.051349491769059e+001
 1.090484663608378e+000	 1.494437418700419e+000	 1.034903240439400e+001
 1.075050875052352e+000	 1.505578166692977e+000	 1.018948287537317e+001
 1.059516566664012e+000	 1.516550244778170e+000	 1.003416409798749e+001
 1.043884480097980e+000	 1.527352347097408e+000	 9.882389039836722e+000
 1.028157378262487e+000	 1.537983226664468e+000	 9.733467238829560e+000
 1.012338043755057e+000	 1.548441695753725e+000	 9.586706173313043e+000
 1.181808987008709e+000	 1.455662226705354e+000	 1.128409231719425e+001
 1.166716841672418e+000	 1.467786364349831e+000	 1.108102897010715e+001
 1.151509302506204e+000	 1.479747048059251e+000	 1.088789333761890e+001
 1.136189017093162e+000	 1.491542663628260e+000	 1.070406412078253e+001
 1.120758662318988e+000	 1.503171653808812e+000	 1.052890697046970e+001
 1.105220942847726e+000	 1.514632518950385e+000	 1.036177583354189e+001
 1.089578589581657e+000	 1.525923817591530e+000	 1.020201431675482e+001
 1.073834358107138e+000	 1.537044167002341e+000	 1.004895706491574e+001
 1.057991027128178e+000	 1.547992243677491e+000	 9.901931149795621e+000
 1.042051396889605e+000	 1.558766783779593e+000	 9.760257466295721e+000
 1.026018287591614e+000	 1.569366583532674e+000	 9.623252132374020e+000
 1.197566440169497e+000	 1.475071056393418e+000	 1.128906088467023e+001
 1.182273066229095e+000	 1.487356849206002e+000	 1.107697349454322e+001
 1.166862759874319e+000	 1.499477008697823e+000	 1.087713579469235e+001
 1.151338203989368e+000	 1.511429899140787e+000	 1.068895237059686e+001
 1.135702111151751e+000	 1.523213942523541e+000	 1.051181194033423e+001
 1.119957222087697e+000	 1.534827619200224e+000	 1.034508871368388e+001
 1.104106304111520e+000	 1.546269468489901e+000	 1.018814377305119e+001
 1.088152149550725e+000	 1.557538089226265e+000	 1.004032647263100e+001
 1.072097574158711e+000	 1.568632140257253e+000	 9.900975852209420e+000
 1.055945415516903e+000	 1.579550340894311e+000	 9.769422061988353e+000
 1.039698531428165e+000	 1.590291471311120e+000	 9.644987794819157e+000
 1.213323893330786e+000	 1.494479886081482e+000	 1.124881058580707e+001
 1.197829290786359e+000	 1.506927334062168e+000	 1.103085661537872e+001
 1.182216217243073e+000	 1.519206969336373e+000	 1.082743798433865e+001
 1.166487390886239e+000	 1.531317134653268e+000	 1.063798291888070e+001
 1.150645559985172e+000	 1.543256231238189e+000	 1.046190097985085e+001
 1.134693501328291e+000	 1.555022719449937e+000	 1.029858443749429e+001
 1.118634018641939e+000	 1.566615119388090e+000	 1.014740967207995e+001
 1.102469940994773e+000	 1.578032011449942e+000	 1.000773859672064e+001
 1.086204121189579e+000	 1.589272036836692e+000	 9.878920098675327e+000
 1.069839434144381e+000	 1.600333898008621e+000	 9.760291495400248e+000
 1.053378775264711e+000	 1.611216359089064e+000	 9.651180001608722e+000
 1.229081346492577e+000	 1.513888715769546e+000	 1.116331799689947e+001
 1.213385515344209e+000	 1.526497818918328e+000	 1.094257145535888e+001
 1.197569674612469e+000	 1.538936929974904e+000	 1.073861216390141e+001
 1.181636577783775e+000	 1.551204370165703e+000	 1.055088976898928e+001
 1.165589008819253e+000	 1.563298519952757e+000	 1.037883247116680e+001
 1.149429780569508e+000	 1.575217819699524e+000	 1.022184841815962e+001
 1.133161733172916e+000	 1.586960770286098e+000	 1.007932712788397e+001
 1.116787732439283e+000	 1.598525933673372e+000	 9.950640937576640e+000
 1.100310668220784e+000	 1.609911933415809e+000	 9.835146475215334e+000
 1.083733452772039e+000	 1.621117455122524e+000	 9.732186149372705e+000
 1.067059019101252e+000	 1.632141246866505e+000	 9.641089653633241e+000
 1.244838799654869e+000	 1.533297545457611e+000	 1.103250991283681e+001
 1.228941739902645e+000	 1.546068303774485e+000	 1.081196629315482e+001
 1.212923131982505e+000	 1.558666890613415e+000	 1.061043057466673e+001
 1.196785764681976e+000	 1.571091605678093e+000	 1.042737162480926e+001
 1.180532457653993e+000	 1.583340808667244e+000	 1.026223410008696e+001
 1.164166059811349e+000	 1.595412919948985e+000	 1.011443986023239e+001
 1.147689447704450e+000	 1.607306421183923e+000	 9.983389416287062e+000
 1.131105523884254e+000	 1.619019855896555e+000	 9.868463408699673e+000
 1.114417215252323e+000	 1.630551829994604e+000	 9.769024111489857e+000
 1.097627471399877e+000	 1.641901012236019e+000	 9.684416958491095e+000
 1.080739262937787e+000	 1.653066134643443e+000	 9.613972087667442e+000
 1.260596252817662e+000	 1.552706375145675e+000	 1.087696543651104e+001
 1.244497964461667e+000	 1.565638788630635e+000	 1.063884736611835e+001
 1.228276589353182e+000	 1.578396851251904e+000	 1.044262794286651e+001
 1.211934951580842e+000	 1.590978841190437e+000	 1.026709409697518e+001
 1.195475906489392e+000	 1.603383097381649e+000	 1.011170477459520e+001
 1.178902339053813e+000	 1.615608020198319e+000	 9.975893397670564e+000
 1.162217162236540e+000	 1.627652072081567e+000	 9.859069339782122e+000
 1.145423315329686e+000	 1.639513778119491e+000	 9.760619435879221e+000
 1.128523762284198e+000	 1.651191726573076e+000	 9.679909521819972e+000
 1.111521490027895e+000	 1.662684569349107e+000	 9.616285999600869e+000
 1.094419506774317e+000	 1.673991022419878e+000	 9.569077424127384e+000
 9.576170684087774e-001	 1.464742144632903e+000	 9.306850888990692e+000
 9.425682352647938e-001	 1.474471132926832e+000	 9.144174486213602e+000
 9.274374692974090e-001	 1.484034952587418e+000	 8.988284465394232e+000
 9.122274496350906e-001	 1.493432649999157e+000	 8.838712611311037e+000
 8.969408680658606e-001	 1.502663328606234e+000	 8.694987188796256e+000
 8.815804275427316e-001	 1.511726149046811e+000	 8.556633996118224e+000
 8.661488406911885e-001	 1.520620329241137e+000	 8.423177410969714e+000
 8.506488283203392e-001	 1.529345144433827e+000	 8.294141426544842e+000
 8.350831179393492e-001	 1.537899927190630e+000	 8.169050675249178e+000
 8.194544422807419e-001	 1.546284067350165e+000	 8.047431437659661e+000
 8.037655378321177e-001	 1.554497011931069e+000	 7.928812634426323e+000
 9.712973122453553e-001	 1.485667032413862e+000	 9.395440221178355e+000
 9.560334957715676e-001	 1.495535006255741e+000	 9.243510487207210e+000
 9.406865760053216e-001	 1.505235451912260e+000	 9.096473771985242e+000
 9.252592703483489e-001	 1.514767402144833e+000	 8.953801205074093e+000
 9.097543090427869e-001	 1.524129947589711e+000	 8.814962454562119e+000
 8.941744336552631e-001	 1.533322236894168e+000	 8.679426848520556e+000
 8.785223955630551e-001	 1.542343476805889e+000	 8.546664485656404e+000
 8.628009544439742e-001	 1.551192932215838e+000	 8.416147332534525e+000
 8.470128767716021e-001	 1.559869926154992e+000	 8.287350304813536e+000
 8.311609343174988e-001	 1.568373839745379e+000	 8.159752330020757e+000
 8.152479026619462e-001	 1.576704112105899e+000	 8.032837389476516e+000
 9.849775560819279e-001	 1.506591920194319e+000	 9.472083826125518e+000
 9.694987562781512e-001	 1.516598879584058e+000	 9.329910993321331e+000
 9.539356827128893e-001	 1.526435951236438e+000	 9.190797845959647e+000
 9.382910910611386e-001	 1.536102154289799e+000	 9.054154266024506e+000
 9.225677500191511e-001	 1.545596566572448e+000	 8.919390694810712e+000
 9.067684397671688e-001	 1.554918324740777e+000	 8.785919324067688e+000
 8.908959504342630e-001	 1.564066624369903e+000	 8.653155272957866e+000
 8.749530805669459e-001	 1.573040719997142e+000	 8.520517748088274e+000
 8.589426356032175e-001	 1.581839925118697e+000	 8.387431183956256e+000
 8.428674263536745e-001	 1.590463612140005e+000	 8.253326361238301e+000
 8.267302674912782e-001	 1.598911212280233e+000	 8.117641500447435e+000
 9.986577999184951e-001	 1.527516807974274e+000	 9.536076729752288e+000
 9.829640167845446e-001	 1.537662752911782e+000	 9.402757075326990e+000
 9.671847894201128e-001	 1.547636450559955e+000	 9.270721829402969e+000
 9.513229117734601e-001	 1.557436906434053e+000	 9.139318989441602e+000
 9.353811909949530e-001	 1.567063185554444e+000	 9.007899096780246e+000
 9.193624458784483e-001	 1.576514412586634e+000	 8.875816499116453e+000
 9.032695053048108e-001	 1.585789771933177e+000	 8.742430595449465e+000
 8.871052066892545e-001	 1.594888507777738e+000	 8.607107060620820e+000
 8.708723944341962e-001	 1.603809924081746e+000	 8.469219046685273e+000
 8.545739183892688e-001	 1.612553384534045e+000	 8.328148358442929e+000
 8.382126323201147e-001	 1.621118312454072e+000	 8.183286600568531e+000
 1.012338043755057e+000	 1.548441695753725e+000	 9.586706173313043e+000
 9.964292772907482e-001	 1.558726626238913e+000	 9.461418313238152e+000
 9.804338961269921e-001	 1.568836949882811e+000	 9.335695786751598e+000
 9.643547324853131e-001	 1.578771658577597e+000	 9.208824026549026e+000
 9.481946319701924e-001	 1.588529804535698e+000	 9.080092958935600e+000
 9.319564519891022e-001	 1.598110500431744e+000	 8.948798339340941e+000
 9.156430601746993e-001	 1.607512919495713e+000	 8.814243066958678e+000
 8.992573328108996e-001	 1.616736295557627e+000	 8.675738475528503e+000
 8.828021532645374e-001	 1.625779923044137e+000	 8.532605597381515e+000
 8.662804104242817e-001	 1.634643156927498e+000	 8.384176397974574e+000
 8.496949971484549e-001	 1.643325412627414e+000	 8.229794978257189e+000
 1.026018287591614e+000	 1.569366583532674e+000	 9.623252132374020e+000
 1.009894537796761e+000	 1.579790499565452e+000	 9.505253562361938e+000
 9.936830028335265e-001	 1.590037449205004e+000	 9.385155709969034e+000
 9.773865531966974e-001	 1.600106410720428e+000	 9.262180720785180e+000
 9.610080729448697e-001	 1.609996423516213e+000	 9.135557150219908e+000
 9.445504580991300e-001	 1.619706588276103e+000	 9.004521373778308e+000
 9.280166150439282e-001	 1.629236067057511e+000	 8.868318973147851e+000
 9.114094589318817e-001	 1.638584083336808e+000	 8.726206094990307e+000
 8.947319120942419e-001	 1.647749922005872e+000	 8.577450779441017e+000
 8.779869024587131e-001	 1.656732929320366e+000	 8.421334255435294e+000
 8.611773619762990e-001	 1.665532512800259e+000	 8.257152200106352e+000
 1.039698531428165e+000	 1.590291471311120e+000	 9.644987794819157e+000
 1.023359798302585e+000	 1.600854372891399e+000	 9.533611658871488e+000
 1.006932109539717e+000	 1.611237948526535e+000	 9.418524444366968e+000
 9.904183739076133e-001	 1.621441162862548e+000	 9.298884246473195e+000
 9.738215139189845e-001	 1.631463042495988e+000	 9.173857454102125e+000
 9.571444642085322e-001	 1.641302676119713e+000	 9.042620236712420e+000
 9.403901699124976e-001	 1.650959214618570e+000	 8.904360003630625e+000
 9.235615850522009e-001	 1.660431871115281e+000	 8.758276832653358e+000
 9.066616709233090e-001	 1.669719920966950e+000	 8.603584864813477e+000
 8.896933944925634e-001	 1.678822701712647e+000	 8.439513662316884e+000
 8.726597268036471e-001	 1.687739612972610e+000	 8.265309526793800e+000
 1.053378775264711e+000	 1.611216359089064e+000	 9.651180001608722e+000
 1.036825058808218e+000	 1.621918246216753e+000	 9.545832070399253e+000
 1.020181216245563e+000	 1.632438447847403e+000	 9.435212542283576e+000
 1.003450194618061e+000	 1.642775915003957e+000	 9.318414658763679e+000
 9.866349548925373e-001	 1.652929661475022e+000	 9.194541807893373e+000
 9.697384703173082e-001	 1.662898763962574e+000	 9.062709089411442e+000
 9.527637247804074e-001	 1.672682362178891e+000	 8.922044849117826e+000
 9.357137111718565e-001	 1.682279658893047e+000	 8.771692179122045e+000
 9.185914297517390e-001	 1.691689919927371e+000	 8.610810380719180e+000
 9.013998865258323e-001	 1.700912474104342e+000	 8.438576386786966e+000
 8.841420916304991e-001	 1.709946713144463e+000	 8.254186140739348e+000
 1.067059019101252e+000	 1.632141246866505e+000	 9.641089653633241e+000
 1.050290319313661e+000	 1.642982119541515e+000	 9.541245496584116e+000
 1.033430322951064e+000	 1.653638947167610e+000	 9.434619051094755e+000
 1.016482015328040e+000	 1.664110667144655e+000	 9.320237862812276e+000
 9.994483958655278e-001	 1.674396280453315e+000	 9.197141446731646e+000
 9.823324764254584e-001	 1.684494851804685e+000	 9.064382932500262e+000
 9.651372796476581e-001	 1.694405509738473e+000	 8.921030675706206e+000
 9.478658372908492e-001	 1.704127446670105e+000	 8.766169831640108e+000
 9.305211885795318e-001	 1.713659918887135e+000	 8.598903888157874e+000
 9.131063785585197e-001	 1.723002246495451e+000	 8.418356154415392e+000
 8.956244564568551e-001	 1.732153813315821e+000	 8.223671202403235e+000
 1.080739262937787e+000	 1.653066134643443e+000	 9.613972087667442e+000
 1.063755579818914e+000	 1.664045992865685e+000	 9.519174424008144e+000
 1.046679429656221e+000	 1.674839446487155e+000	 9.416132241376372e+000
 1.029513836037550e+000	 1.685445419284641e+000	 9.303806509348961e+000
 1.012261836837956e+000	 1.695862899430868e+000	 9.181171960681141e+000
 9.949264825329823e-001	 1.706090939646046e+000	 9.047218818659925e+000
 9.775108345142487e-001	 1.716128657297317e+000	 8.900954487195694e+000
 9.600179634091781e-001	 1.725975234446456e+000	 8.741405199999749e+000
 9.424509474066878e-001	 1.735629917846243e+000	 8.567617625339819e+000
 9.248128705906260e-001	 1.745092018885973e+000	 8.378660423021829e+000
 9.071068212827147e-001	 1.754360913486683e+000	 8.173625750410141e+000
 1.094419506774317e+000	 1.673991022419878e+000	 9.569077424127384e+000
 1.077220840323977e+000	 1.685109866189261e+000	 9.478933639512187e+000
 1.059928536361034e+000	 1.696039945806038e+000	 9.379130280454220e+000
 1.042545656746592e+000	 1.706780171423916e+000	 9.268560823079755e+000
 1.025075277809822e+000	 1.717329518407680e+000	 9.146134272549478e+000
 1.007520488639881e+000	 1.727687027486658e+000	 9.010776974373577e+000
 9.898843893801798e-001	 1.737851804855421e+000	 8.861434385233039e+000
 9.721700895268441e-001	 1.747823022222099e+000	 8.697072799507200e+000
 9.543807062332064e-001	 1.757599916804693e+000	 8.516681027860656e+000
 9.365193626221506e-001	 1.767181791275909e+000	 8.319272024410228e+000
 9.185891861080785e-001	 1.776568013657048e+000	 8.103884459164167e+000
 8.037655378321177e-001	 1.554497011931069e+000	 7.928812634426323e+000
 7.880191433779774e-001	 1.562538264995355e+000	 7.784652499083363e+000
 7.722179985526132e-001	 1.570407387467961e+000	 7.638766414894086e+000
 7.563648424060112e-001	 1.578103996913506e+000	 7.490683676478863e+000
 7.404624119843859e-001	 1.585627767271441e+000	 7.339944005347543e+000
 7.245134409262326e-001	 1.592978428549761e+000	 7.186098390317484e+000
 7.085206580754377e-001	 1.600155766478270e+000	 7.028709894163835e+000
 6.924867861127356e-001	 1.607159622122281e+000	 6.867354425024617e+000
 6.764145402067767e-001	 1.613989891457657e+000	 6.701621471211269e+000
 6.603066266860092e-001	 1.620646524908150e+000	 6.531114798197442e+000
 6.441657417325339e-001	 1.627129526846032e+000	 6.355453106687834e+000
 8.152479026619462e-001	 1.576704112105899e+000	 8.032837389476516e+000
 7.992765597150681e-001	 1.584860240213809e+000	 7.880052163122874e+000
 7.832496842489194e-001	 1.592841778721614e+000	 7.727760072509589e+000
 7.671700544427713e-001	 1.600648339730568e+000	 7.575495582987371e+000
 7.510404464434980e-001	 1.608279592522115e+000	 7.422801411113602e+000
 7.348636329415730e-001	 1.615735263247221e+000	 7.269229408248160e+000
 7.186423817643655e-001	 1.623015134574688e+000	 7.114341412265467e+000
 7.023794544880488e-001	 1.630119045299332e+000	 6.957710065777117e+000
 6.860776050693965e-001	 1.637046889910957e+000	 6.798919599383881e+000
 6.697395784986904e-001	 1.643798618125084e+000	 6.637566578600824e+000
 6.533681094749184e-001	 1.650374234376445e+000	 6.473260613227627e+000
 8.267302674912782e-001	 1.598911212280233e+000	 8.117641500447435e+000
 8.105339760517525e-001	 1.607182215431857e+000	 7.958974497028159e+000
 7.942813699448886e-001	 1.615276169974930e+000	 7.802939438380911e+000
 7.779752664792434e-001	 1.623192682547341e+000	 7.649074324155875e+000
 7.616184809023511e-001	 1.630931417772530e+000	 7.496923297447352e+000
 7.452138249566627e-001	 1.638492097944431e+000	 7.346037572970126e+000
 7.287641054530313e-001	 1.645874502670843e+000	 7.195976335126574e+000
 7.122721228630689e-001	 1.653078468476088e+000	 7.046307604227409e+000
 6.957406699316717e-001	 1.660103888363913e+000	 6.896609069254729e+000
 6.791725303109568e-001	 1.666950711341602e+000	 6.746468885678811e+000
 6.625704772167977e-001	 1.673618941906352e+000	 6.595486436971545e+000
 8.382126323201147e-001	 1.621118312454072e+000	 8.183286600568531e+000
 8.217913923880305e-001	 1.629504190649500e+000	 8.021415609605716e+000
 8.053130556405208e-001	 1.637710561227909e+000	 7.864238208867321e+000
 7.887804785154277e-001	 1.645737025363827e+000	 7.711294297975909e+000
 7.721965153609446e-001	 1.653583243022685e+000	 7.562127878268433e+000
 7.555640169715016e-001	 1.661248932641390e+000	 7.416288026983564e+000
 7.388858291414354e-001	 1.668733870766737e+000	 7.273329843006994e+000
 7.221647912377959e-001	 1.676037891652553e+000	 7.132815362303728e+000
 7.054037347936031e-001	 1.683160886816524e+000	 6.994314441293586e+000
 6.886054821228080e-001	 1.690102804557706e+000	 6.857405606550376e+000
 6.717728449581719e-001	 1.696863649435754e+000	 6.721676869335947e+000
 8.496949971484549e-001	 1.643325412627414e+000	 8.229794978257189e+000
 8.330488087239021e-001	 1.651826165866735e+000	 8.067336826241165e+000
 8.163447413358160e-001	 1.660144952480551e+000	 7.911559691394629e+000
 7.995856905513239e-001	 1.668281368180025e+000	 7.762003739886768e+000
 7.827745498192792e-001	 1.676235068272581e+000	 7.618211262129232e+000
 7.659142089860902e-001	 1.684005767338098e+000	 7.479727694434437e+000
 7.490075528295773e-001	 1.691593238862369e+000	 7.346102613791170e+000
 7.320574596122299e-001	 1.698997314828725e+000	 7.216890703752973e+000
 7.150667996551902e-001	 1.706217885268792e+000	 7.091652689560866e+000
 6.980384339342446e-001	 1.713254897773396e+000	 6.969956240748898e+000
 6.809752126990409e-001	 1.720108356964651e+000	 6.851376839611398e+000
 8.611773619762990e-001	 1.665532512800259e+000	 8.257152200106352e+000
 8.443062250593676e-001	 1.674148141083565e+000	 8.096667007793819e+000
 8.273764270307743e-001	 1.682579343732855e+000	 7.944778830384172e+000
 8.103909025869323e-001	 1.690825710995935e+000	 7.801026466945537e+000
 7.933525842773548e-001	 1.698886893522218e+000	 7.664948925906231e+000
 7.762644010004286e-001	 1.706762602034556e+000	 7.536086495671871e+000
 7.591292765174578e-001	 1.714452606957738e+000	 7.413981789813243e+000
 7.419501279863707e-001	 1.721956738004602e+000	 7.298180764686248e+000
 7.247298645164333e-001	 1.729274883720716e+000	 7.188233707468359e+000
 7.074713857452664e-001	 1.736406990988670e+000	 7.083696192727651e+000
 6.901775804394048e-001	 1.743353064493043e+000	 6.984130005770940e+000
 8.726597268036471e-001	 1.687739612972610e+000	 8.265309526793800e+000
 8.555636413944262e-001	 1.696470116299987e+000	 8.109304686420932e+000
 8.384081127253956e-001	 1.705013734984823e+000	 7.963744073240163e+000
 8.211961146222525e-001	 1.713370053811557e+000	 7.828163484299792e+000
 8.039306187351712e-001	 1.721538718771596e+000	 7.702097072146999e+000
 7.866145930145163e-001	 1.729519436730763e+000	 7.585078465918643e+000
 7.692510002050763e-001	 1.737311975052847e+000	 7.476641868353803e+000
 7.518427963602182e-001	 1.744916161180188e+000	 7.376323126449739e+000
 7.343929293773319e-001	 1.752331882172295e+000	 7.283660773611299e+000
 7.169043375558730e-001	 1.759559084203529e+000	 7.198197041273192e+000
 6.993799481792635e-001	 1.766597772020930e+000	 7.119478838109471e+000
 8.841420916304991e-001	 1.709946713144463e+000	 8.254186140739348e+000
 8.668210577290790e-001	 1.718792091516004e+000	 8.105120034973982e+000
 8.494397984196800e-001	 1.727448126236454e+000	 7.968279090934874e+000
 8.320013266572851e-001	 1.735914396626891e+000	 7.843194466480287e+000
 8.145086531927284e-001	 1.744190544020715e+000	 7.729393880649826e+000
 7.969647850283536e-001	 1.752276271426720e+000	 7.626402786773198e+000
 7.793727238924330e-001	 1.760171343147694e+000	 7.533745522747118e+000
 7.617354647337727e-001	 1.767875584355480e+000	 7.450946436063713e+000
 7.440559942378868e-001	 1.775388880623530e+000	 7.377530981301946e+000
 7.263372893660650e-001	 1.782711177417973e+000	 7.313026787925167e+000
 7.085823159186171e-001	 1.789842479548311e+000	 7.256964696365666e+000
 8.956244564568551e-001	 1.732153813315821e+000	 8.223671202403235e+000
 8.780784740633255e-001	 1.741114066731615e+000	 8.083956684902665e+000
 8.604714841136274e-001	 1.749882517487748e+000	 7.958184366241817e+000
 8.428065386920294e-001	 1.758458739441937e+000	 7.845879124748270e+000
 8.250866876500261e-001	 1.766842369269574e+000	 7.746560663768489e+000
 8.073149770419402e-001	 1.775033106122427e+000	 7.659744738364823e+000
 7.894944475795276e-001	 1.783030711242278e+000	 7.584944360326605e+000
 7.716281331070344e-001	 1.790835007530478e+000	 7.521670978936099e+000
 7.537190590980973e-001	 1.798445879074421e+000	 7.469435635062168e+000
 7.357702411758421e-001	 1.805863270632003e+000	 7.427750086287000e+000
 7.177846836574655e-001	 1.813087187075188e+000	 7.396127900911469e+000
 9.071068212827147e-001	 1.754360913486683e+000	 8.173625750410141e+000
 8.893358903971655e-001	 1.763436041946819e+000	 8.045633406090799e+000
 8.715031698072377e-001	 1.772316908738705e+000	 7.933238661343117e+000
 8.536117507264860e-001	 1.781003082256695e+000	 7.835958470593738e+000
 8.356647221070652e-001	 1.789494194518175e+000	 7.753302933971843e+000
 8.176651690552765e-001	 1.797789940817883e+000	 7.684776579193626e+000
 7.996161712663608e-001	 1.805890079336600e+000	 7.629879622804508e+000
 7.815208014800027e-001	 1.813794430705184e+000	 7.588109208078140e+000
 7.633821239579636e-001	 1.821502877524968e+000	 7.558960617002495e+000
 7.452031929852043e-001	 1.829015363845618e+000	 7.541928453920662e+000
 7.269870513958089e-001	 1.836331894601559e+000	 7.536507798534868e+000
 9.185891861080785e-001	 1.776568013657048e+000	 8.103884459164167e+000
 9.005933067305993e-001	 1.785758017161617e+000	 7.989945660704103e+000
 8.825348555005111e-001	 1.794751299989325e+000	 7.893200375366364e+000
 8.644169627606544e-001	 1.803547425071165e+000	 7.813155984470576e+000
 8.462427565638450e-001	 1.812146019766516e+000	 7.749311391336588e+000
 8.280153610683619e-001	 1.820546775513088e+000	 7.701158359982190e+000
 8.097378949529317e-001	 1.828749447430662e+000	 7.668182834123293e+000
 7.914134698526779e-001	 1.836753853879597e+000	 7.649866233629308e+000
 7.730451888174857e-001	 1.844559875975171e+000	 7.645686725722830e+000
 7.546361447941516e-001	 1.852167457058818e+000	 7.655120468349248e+000
 7.361894191336470e-001	 1.859576602127425e+000	 7.677642823288812e+000
 6.441657417325339e-001	 1.627129526846032e+000	 6.355453106687834e+000
 6.279945700989932e-001	 1.633438955056451e+000	 6.104445673589161e+000
 6.117957838498271e-001	 1.639574920168338e+000	 5.926972388523900e+000
 5.955720411275246e-001	 1.645537585051869e+000	 5.784399803930849e+000
 5.793259849448744e-001	 1.651327164182347e+000	 5.662309227757328e+000
 5.630602420043449e-001	 1.656943922973434e+000	 5.561573342366557e+000
 5.467774215453342e-001	 1.662388177080358e+000	 5.483015153236678e+000
 5.304801142200817e-001	 1.667660291674265e+000	 5.427406749115328e+000
 5.141708909989884e-001	 1.672760680688981e+000	 5.395468183729614e+000
 4.978523021060256e-001	 1.677689806041381e+000	 5.387866479640397e+000
 4.815268759848673e-001	 1.682448176826651e+000	 5.405214754481643e+000
 6.533681094749184e-001	 1.650374234376445e+000	 6.473260613227627e+000
 6.369659211041965e-001	 1.656773797275656e+000	 6.241595918635588e+000
 6.205357236231793e-001	 1.662997419032029e+000	 6.027851200456341e+000
 6.040802131478212e-001	 1.669045264842459e+000	 5.887686294744555e+000
 5.876020704482374e-001	 1.674917552246178e+000	 5.766480453046444e+000
 5.711039597512188e-001	 1.680614550448476e+000	 5.665163127468839e+000
 5.545885275710121e-001	 1.686136579613939e+000	 5.584614093832614e+000
 5.380584015691767e-001	 1.691484010130446e+000	 5.525662102299814e+000
 5.215161894442625e-001	 1.696657261845163e+000	 5.489083653095439e+000
 5.049644778520135e-001	 1.701656803273777e+000	 5.475601898065503e+000
 4.884058313567285e-001	 1.706483150784262e+000	 5.485885668447805e+000
 6.625704772167977e-001	 1.673618941906352e+000	 6.595486436971545e+000
 6.459372721088099e-001	 1.680108639494266e+000	 6.382603540531221e+000
 6.292756633958880e-001	 1.686419917895057e+000	 6.160785758720472e+000
 6.125883851674517e-001	 1.692552944632335e+000	 5.999606146826004e+000
 5.958781559509419e-001	 1.698507940309268e+000	 5.876661833303254e+000
 5.791476774974711e-001	 1.704285177922769e+000	 5.772240079089943e+000
 5.623996335961363e-001	 1.709884982146782e+000	 5.687279977695727e+000
 5.456366889178153e-001	 1.715307728585921e+000	 5.622669371093719e+000
 5.288614878892073e-001	 1.720553843000689e+000	 5.579243517309062e+000
 5.120766535978284e-001	 1.725623800505588e+000	 5.557783887759754e+000
 4.952847867286022e-001	 1.730518124741380e+000	 5.559017094863997e+000
 6.717728449581719e-001	 1.696863649435754e+000	 6.721676869335947e+000
 6.549086231128336e-001	 1.703443481712282e+000	 6.527080421471110e+000
 6.380156031679536e-001	 1.709842416757420e+000	 6.320686338705364e+000
 6.210965571864152e-001	 1.716060624421499e+000	 6.122008478047199e+000
 6.041542414529868e-001	 1.722098328371618e+000	 5.994679904986503e+000
 5.871913952431019e-001	 1.727955805396312e+000	 5.884605704436805e+000
 5.702107396207070e-001	 1.733633384678889e+000	 5.792786892324481e+000
 5.532149762659975e-001	 1.739131447040689e+000	 5.720172890646981e+000
 5.362067863338227e-001	 1.744450424155561e+000	 5.667660084703529e+000
 5.191888293434702e-001	 1.749590797736816e+000	 5.636090514222618e+000
 5.021637421004885e-001	 1.754553098698004e+000	 5.626250699036314e+000
 6.809752126990409e-001	 1.720108356964651e+000	 6.851376839611398e+000
 6.638799741162675e-001	 1.726778323929701e+000	 6.674634521371692e+000
 6.467555429393755e-001	 1.733264915619120e+000	 6.483279831172468e+000
 6.296047292047127e-001	 1.739568304209950e+000	 6.277051080480741e+000
 6.124303269543728e-001	 1.745688716433225e+000	 6.122350522206062e+000
 5.952351129881115e-001	 1.751626432869106e+000	 6.004048881823762e+000
 5.780218456447236e-001	 1.757381787210257e+000	 5.902894502965180e+000
 5.607932636137233e-001	 1.762955165494752e+000	 5.819900933410860e+000
 5.435520847781089e-001	 1.768347005309777e+000	 5.756028113021398e+000
 5.263010050889393e-001	 1.773557794967459e+000	 5.712180956579651e+000
 5.090426974723873e-001	 1.778588072654134e+000	 5.689208075690119e+000
 6.901775804394048e-001	 1.743353064493043e+000	 6.984130005770940e+000
 6.728513251191122e-001	 1.750113166146527e+000	 6.824870139355936e+000
 6.554954827101545e-001	 1.756687414480155e+000	 6.648228471199391e+000
 6.381129012223437e-001	 1.763075983997688e+000	 6.453912241687667e+000
 6.207064124550999e-001	 1.769279104494092e+000	 6.261479568879549e+000
 6.032788307324996e-001	 1.775297060341149e+000	 6.132346702599282e+000
 5.858329516681865e-001	 1.781130189740887e+000	 6.019349014095448e+000
 5.683715509609929e-001	 1.786778883948108e+000	 5.923566779984682e+000
 5.508973832220657e-001	 1.792243586463340e+000	 5.846025979454138e+000
 5.334131808342354e-001	 1.797524792197518e+000	 5.787696766674191e+000
 5.159216528442988e-001	 1.802623046609771e+000	 5.749492087008828e+000
 6.993799481792635e-001	 1.766597772020930e+000	 7.119478838109471e+000
 6.818226761213673e-001	 1.773448008362758e+000	 6.977388154595028e+000
 6.642354224802897e-001	 1.780109913340527e+000	 6.815188975347081e+000
 6.466210732393083e-001	 1.786583663784714e+000	 6.632556572146818e+000
 6.289824979551680e-001	 1.792869492554218e+000	 6.429197130433544e+000
 6.113225484762662e-001	 1.798967687812444e+000	 6.271265246603830e+000
 5.936440576910957e-001	 1.804878592270780e+000	 6.143884055000992e+000
 5.759498383078062e-001	 1.810602602400758e+000	 6.032869705421495e+000
 5.582426816656934e-001	 1.816140167616246e+000	 5.939316758309778e+000
 5.405253565793585e-001	 1.821491789426993e+000	 5.864263028756767e+000
 5.228006082162227e-001	 1.826658020564913e+000	 5.808688095038090e+000
 7.085823159186171e-001	 1.789842479548311e+000	 7.256964696365666e+000
 6.907940271230324e-001	 1.796782850578394e+000	 7.131786248383265e+000
 6.729753622497819e-001	 1.803532412200234e+000	 6.983812900005193e+000
 6.551292452556067e-001	 1.810091343571027e+000	 6.812687038448550e+000
 6.372585834545769e-001	 1.816459880613602e+000	 6.618085113843919e+000
 6.193662662194115e-001	 1.822638315282988e+000	 6.422560297203034e+000
 6.014551637134511e-001	 1.828626994799934e+000	 6.278221496346593e+000
 5.835281256541632e-001	 1.834426320852702e+000	 6.149495888679591e+000
 5.655879801089915e-001	 1.840036748768498e+000	 6.037549214706925e+000
 5.476375323243088e-001	 1.845458786655884e+000	 5.943489428809553e+000
 5.296795635881594e-001	 1.850692994519563e+000	 5.868365098058293e+000
 7.177846836574655e-001	 1.813087187075188e+000	 7.396127900911469e+000
 6.997653781241079e-001	 1.820117692793435e+000	 7.287659109130006e+000
 6.817153020186306e-001	 1.826954911059278e+000	 7.153746972172062e+000
 6.636374172712383e-001	 1.833599023356627e+000	 6.994000058373120e+000
 6.455346689533268e-001	 1.840050268672245e+000	 6.808064146622618e+000
 6.274099839619352e-001	 1.846308942752784e+000	 6.595622575289990e+000
 6.092662697352527e-001	 1.852375397328350e+000	 6.424072203933740e+000
 5.911064130000636e-001	 1.858250039303940e+000	 6.275119252115347e+000
 5.729332785519605e-001	 1.863933329920095e+000	 6.142358721830147e+000
 5.547497080690861e-001	 1.869425783884191e+000	 6.026971241614796e+000
 5.365585189601084e-001	 1.874727968473718e+000	 5.930076779543885e+000
 7.269870513958089e-001	 1.836331894601559e+000	 7.536507798534868e+000
 7.087367291245936e-001	 1.843452535007881e+000	 7.444598621782959e+000
 6.904552417868359e-001	 1.850377409917658e+000	 7.324633395112657e+000
 6.721455892862036e-001	 1.857106703141514e+000	 7.176185915372003e+000
 6.538107544514177e-001	 1.863640656730146e+000	 6.998870337677888e+000
 6.354537017038378e-001	 1.869979570221829e+000	 6.792341530648917e+000
 6.170773757565004e-001	 1.876123799856030e+000	 6.597503662830989e+000
 5.986847003455080e-001	 1.882073757754471e+000	 6.511936330302129e+000
 5.802785769946002e-001	 1.887829911071037e+000	 6.453355401109667e+000
 5.618618838136904e-001	 1.893392781111915e+000	 6.418692425557937e+000
 5.434374743320700e-001	 1.898762942427380e+000	 6.405039654429060e+000
 7.361894191336470e-001	 1.859576602127425e+000	 7.677642823288812e+000
 7.177080801244898e-001	 1.866787377221733e+000	 7.602194043044411e+000
 6.991951815543979e-001	 1.873799908775373e+000	 7.496110131091738e+000
 6.806537613005025e-001	 1.880614382925689e+000	 7.399435468250910e+000
 6.620868399488495e-001	 1.887231044787307e+000	 7.296845311715356e+000
 6.434974194451185e-001	 1.893650197690125e+000	 7.181290859800273e+000
 6.248884817771946e-001	 1.899872202382971e+000	 7.052895281114886e+000
 6.062629876904958e-001	 1.905897476204296e+000	 6.975684167337596e+000
 5.876238754369104e-001	 1.911726492221324e+000	 6.921792564326246e+000
 5.689740595581216e-001	 1.917359778339053e+000	 6.887978562354492e+000
 5.503164297040443e-001	 1.922797916380548e+000	 6.871171019237920e+000
 4.815268759848673e-001	 1.682448176826651e+000	 5.405214754481643e+000
 4.651971182959880e-001	 1.687036348490034e+000	 5.326093549572584e+000
 4.488655109461449e-001	 1.691454921975343e+000	 5.242567382599363e+000
 4.325345111503017e-001	 1.695704542852121e+000	 5.155133380049088e+000
 4.162065505255864e-001	 1.699785900423492e+000	 5.064261177518869e+000
 3.998840342185866e-001	 1.703699726814957e+000	 4.970392068142510e+000
 3.835693400660090e-001	 1.707446796045747e+000	 4.873938244194290e+000
 3.672648177889564e-001	 1.711027923084024e+000	 4.775282131402356e+000
 3.509727882210215e-001	 1.714443962887209e+000	 4.674775815247760e+000
 3.346955425703510e-001	 1.717695809428702e+000	 4.572740558277634e+000
 3.184353417157770e-001	 1.720784394712270e+000	 4.469466407226172e+000
 4.884058313567285e-001	 1.706483150784262e+000	 5.485885668447805e+000
 4.718427914142042e-001	 1.711136867756843e+000	 5.389160474893643e+000
 4.552778753871787e-001	 1.715618563720287e+000	 5.291090390133182e+000
 4.387135755936854e-001	 1.719928893466560e+000	 5.192214182130749e+000
 4.221523583882384e-001	 1.724068556145973e+000	 5.093039137723138e+000
 4.055966632766609e-001	 1.728038294342964e+000	 4.994040202159941e+000
 3.890489020647540e-001	 1.731838893134178e+000	 4.895659218665985e+000
 3.725114580410631e-001	 1.735471179130182e+000	 4.798304267431671e+000
 3.559866851939451e-001	 1.738936019502071e+000	 4.702349103165593e+000
 3.394769074630900e-001	 1.742234320994296e+000	 4.608132690084977e+000
 3.229844180255973e-001	 1.745367028924961e+000	 4.515958832970810e+000
 4.952847867286022e-001	 1.730518124741380e+000	 5.559017094863997e+000
 4.784884645326171e-001	 1.735237387023252e+000	 5.444006448270842e+000
 4.616902398285628e-001	 1.739782205464916e+000	 5.330709440618263e+000
 4.448926400375421e-001	 1.744153244080758e+000	 5.219708614120944e+000
 4.280981662514560e-001	 1.748351211868278e+000	 5.111550975788214e+000
 4.113092923353628e-001	 1.752376861870848e+000	 5.006747126117054e+000
 3.945284640641586e-001	 1.756230990222532e+000	 4.905770494823636e+000
 3.777580982938318e-001	 1.759914435176296e+000	 4.809056682891378e+000
 3.610005821675032e-001	 1.763428076116914e+000	 4.717002909927829e+000
 3.442582723564071e-001	 1.766772832559885e+000	 4.629967565549940e+000
 3.275334943359103e-001	 1.769949663137652e+000	 4.548269863258311e+000
 5.021637421004885e-001	 1.754553098698004e+000	 5.626250699036314e+000
 4.851341376512272e-001	 1.759337906289263e+000	 5.492185695712796e+000
 4.681026042702975e-001	 1.763945847209230e+000	 5.362894092013051e+000
 4.510717044818723e-001	 1.768377594694717e+000	 5.239004377886989e+000
 4.340439741152393e-001	 1.772633867590408e+000	 5.121105387481065e+000
 4.170219213946925e-001	 1.776715429398611e+000	 5.009745415015871e+000
 4.000080260642230e-001	 1.780623087310807e+000	 4.905431444893321e+000
 3.830047385472624e-001	 1.784357691222366e+000	 4.808628495183299e+000
 3.660144791416964e-001	 1.787920132731738e+000	 4.719759073338256e+000
 3.490396372503025e-001	 1.791311344125469e+000	 4.639202742699930e+000
 3.320825706467159e-001	 1.794532297350343e+000	 4.567295798088006e+000
 5.090426974723873e-001	 1.778588072654134e+000	 5.689208075690119e+000
 4.917798107700342e-001	 1.783438425554874e+000	 5.535233984835611e+000
 4.745149687123827e-001	 1.788109488953231e+000	 5.389096946282423e+000
 4.572507689266760e-001	 1.792601945308436e+000	 5.251473612112736e+000
 4.399897819795881e-001	 1.796916523312362e+000	 5.122996788870361e+000
 4.227345504546500e-001	 1.801053996926252e+000	 5.004254538644989e+000
 4.054875880649472e-001	 1.805015184399005e+000	 4.895789401756776e+000
 3.882513788013552e-001	 1.808800947268393e+000	 4.798097740060409e+000
 3.710283761165242e-001	 1.812412189346542e+000	 4.711629199574502e+000
 3.538210021447761e-001	 1.815849855691048e+000	 4.636786290841705e+000
 3.366316469580142e-001	 1.819114931563034e+000	 4.573924085137435e+000
 5.159216528442988e-001	 1.802623046609771e+000	 5.749492087008828e+000
 4.984254838890382e-001	 1.807538944820087e+000	 5.574669855422812e+000
 4.809273331548185e-001	 1.812273130696917e+000	 5.410754779797028e+000
 4.634298333719529e-001	 1.816826295921914e+000	 5.258473929843946e+000
 4.459355898445027e-001	 1.821199179034140e+000	 5.118506268306299e+000
 4.284471795152351e-001	 1.825392564453770e+000	 4.991481735260658e+000
 4.109671500663312e-001	 1.829407281487125e+000	 4.877980461574191e+000
 3.934980190561099e-001	 1.833244203314375e+000	 4.778532110403368e+000
 3.760422730919868e-001	 1.836904245961326e+000	 4.693615345296201e+000
 3.586023670398280e-001	 1.840388367256623e+000	 4.623657423142448e+000
 3.411807232698052e-001	 1.843697565775724e+000	 4.569033909917210e+000
 5.228006082162227e-001	 1.826658020564913e+000	 5.808688095038090e+000
 5.050711570082394e-001	 1.831639464084900e+000	 5.611995752835185e+000
 4.873396975976047e-001	 1.836436772440289e+000	 5.429289584491104e+000
 4.696088978177030e-001	 1.841050646535153e+000	 5.261349374122666e+000
 4.518813977099829e-001	 1.845481834755742e+000	 5.108902463244415e+000
 4.341598085764480e-001	 1.849731131981168e+000	 4.972622816292675e+000
 4.164467120683749e-001	 1.853799378575167e+000	 4.853130223042182e+000
 3.987446593115267e-001	 1.857687459360314e+000	 4.750989636672879e+000
 3.810561700680842e-001	 1.861396302576092e+000	 4.666710645903067e+000
 3.633837319354580e-001	 1.864926878822192e+000	 4.600747079270828e+000
 3.457297995820888e-001	 1.868280199988415e+000	 4.553496739334517e+000
 5.296795635881594e-001	 1.850692994519563e+000	 5.868365098058293e+000
 5.117168301276374e-001	 1.855739983349315e+000	 5.648699073103232e+000
 4.937520620407415e-001	 1.860600414183346e+000	 5.446109527890617e+000
 4.757879622639266e-001	 1.865274997148151e+000	 5.261431299156197e+000
 4.578272055760287e-001	 1.869764490477167e+000	 5.095442368745140e+000
 4.398724376382885e-001	 1.874069699508443e+000	 4.948862908346390e+000
 4.219262740710783e-001	 1.878191475663132e+000	 4.876779589266553e+000
 4.039912995676055e-001	 1.882130715406210e+000	 4.832071147899509e+000
 3.860700670448163e-001	 1.885888359190838e+000	 4.796887218646161e+000
 3.681650968316665e-001	 1.889465390387757e+000	 4.770002961758316e+000
 3.502788758948651e-001	 1.892862834201107e+000	 4.750354033304760e+000
 5.365585189601084e-001	 1.874727968473718e+000	 5.930076779543885e+000
 5.183625032472324e-001	 1.879840502613331e+000	 5.773664446049484e+000
 5.001644264842287e-001	 1.884764055926089e+000	 5.641568693801110e+000
 4.819670267106234e-001	 1.889499347760910e+000	 5.526688975604468e+000
 4.637730134426401e-001	 1.894047146198417e+000	 5.426872739187206e+000
 4.455850667007568e-001	 1.898408267035597e+000	 5.340134229448785e+000
 4.274058360744414e-001	 1.902583572751019e+000	 5.264655481999021e+000
 4.092379398243464e-001	 1.906573971452062e+000	 5.198786920048343e+000
 3.910839640221832e-001	 1.910380415805565e+000	 5.141047563115729e+000
 3.729464617284529e-001	 1.914003901953317e+000	 5.090124856854612e+000
 3.548279522081341e-001	 1.917445468413798e+000	 5.044874134085421e+000
 5.434374743320700e-001	 1.898762942427380e+000	 6.405039654429060e+000
 5.250081763670245e-001	 1.903941021876948e+000	 6.242056373703847e+000
 5.065767909280665e-001	 1.908927697668517e+000	 6.097717298368526e+000
 4.881460911577936e-001	 1.913723698373428e+000	 5.969568173247225e+000
 4.697188213098173e-001	 1.918329801919491e+000	 5.855327531464439e+000
 4.512976957638528e-001	 1.922746834562629e+000	 5.752888186674955e+000
 4.328853980784645e-001	 1.926975669838828e+000	 5.660318303502146e+000
 4.144845800817492e-001	 1.931017227497871e+000	 5.575862054024378e+000
 3.960978610001849e-001	 1.934872472420273e+000	 5.497939869077874e+000
 3.777278266258177e-001	 1.938542413518872e+000	 5.425148294022735e+000
 3.593770285218957e-001	 1.942028102626488e+000	 5.356259459436473e+000
 5.503164297040443e-001	 1.922797916380548e+000	 6.871171019237920e+000
 5.316538494870134e-001	 1.928041541140166e+000	 6.700623548272095e+000
 5.129891553722548e-001	 1.933091339410632e+000	 6.547654910659345e+000
 4.943251556054371e-001	 1.937948048985706e+000	 6.409669428528529e+000
 4.756646291775600e-001	 1.942612457640390e+000	 6.284251908324915e+000
 4.570103248275765e-001	 1.947085402089539e+000	 6.169169229504125e+000
 4.383649600831473e-001	 1.951367766926559e+000	 6.062371493285738e+000
 4.197312203398141e-001	 1.955460483543635e+000	 5.961992739581334e+000
 4.011117579788213e-001	 1.959364529034961e+000	 5.866351241185444e+000
 3.825091915237606e-001	 1.963080925084422e+000	 5.773949385229690e+000
 3.639261048361499e-001	 1.966610736839179e+000	 5.683473152757705e+000
 3.184353417157770e-001	 1.720784394712270e+000	 4.469466407226172e+000
 3.021944155378737e-001	 1.723710687775430e+000	 4.343681537476801e+000
 2.859749622825958e-001	 1.726475693682788e+000	 4.220463262141271e+000
 2.697791479589108e-001	 1.729080452510761e+000	 4.099970117622107e+000
 2.536091057720334e-001	 1.731526038325072e+000	 3.982326853891625e+000
 2.374669355897513e-001	 1.733813558151911e+000	 3.867624537004446e+000
 2.213547034424477e-001	 1.735944150944025e+000	 3.755920730379936e+000
 2.052744410566008e-001	 1.737918986542895e+000	 3.647239752223260e+000
 1.892281454215078e-001	 1.739739264638117e+000	 3.541573006320306e+000
 1.732177783889445e-001	 1.741406213725087e+000	 3.438879383324102e+000
 1.572452663054261e-001	 1.742921090062064e+000	 3.339085729543494e+000
 3.229844180255973e-001	 1.745367028924961e+000	 4.515958832970810e+000
 3.065114786173200e-001	 1.748335126174922e+000	 4.404432703954133e+000
 2.900603188875702e-001	 1.751139632166796e+000	 4.298823362274574e+000
 2.736331357883017e-001	 1.753781601835235e+000	 4.199299550844340e+000
 2.572320929990906e-001	 1.756262124589759e+000	 4.105992222339649e+000
 2.408593203858371e-001	 1.758582323271217e+000	 4.018994690989186e+000
 2.245169134936454e-001	 1.760743353103111e+000	 3.938362868518018e+000
 2.082069330736587e-001	 1.762746400638945e+000	 3.864115581383814e+000
 1.919314046435941e-001	 1.764592682706737e+000	 3.796234966301367e+000
 1.756923180816825e-001	 1.766283445351817e+000	 3.734666940931340e+000
 1.594916272536765e-001	 1.767819962778993e+000	 3.679321746496533e+000
 3.275334943359103e-001	 1.769949663137652e+000	 4.548269863258311e+000
 3.108285416971643e-001	 1.772959564574414e+000	 4.450849246138542e+000
 2.941456754928580e-001	 1.775803570650804e+000	 4.362709590739510e+000
 2.774871236179319e-001	 1.778482751159709e+000	 4.284031111930048e+000
 2.608550802263231e-001	 1.780998210854445e+000	 4.214952158519902e+000
 2.442517051820443e-001	 1.783351088390523e+000	 4.155569414059276e+000
 2.276791235449205e-001	 1.785542555262198e+000	 4.105938187322715e+000
 2.111394250907600e-001	 1.787573814734995e+000	 4.066072789376698e+000
 1.946346638656996e-001	 1.789446100775357e+000	 4.035946993987434e+000
 1.781668577744253e-001	 1.791160676978547e+000	 4.015494577994739e+000
 1.617379882019268e-001	 1.792718835495921e+000	 4.004609938166324e+000
 3.320825706467159e-001	 1.794532297350343e+000	 4.567295798088006e+000
 3.151456047774062e-001	 1.797584002973905e+000	 4.483750519727293e+000
 2.982310320984593e-001	 1.800467509134812e+000	 4.412867528911170e+000
 2.813411114478012e-001	 1.803183900484183e+000	 4.354839798552168e+000
 2.644780674537309e-001	 1.805734297119132e+000	 4.309814284915196e+000
 2.476440899783729e-001	 1.808119853509829e+000	 4.277892177188869e+000
 2.308413335962730e-001	 1.810341757421285e+000	 4.259129242416128e+000
 2.140719171079047e-001	 1.812401228831045e+000	 4.253536262443132e+000
 1.973379230878242e-001	 1.814299518843976e+000	 4.261079559397152e+000
 1.806413974671729e-001	 1.816037908605277e+000	 4.281681606068106e+000
 1.639843491501772e-001	 1.817617708212850e+000	 4.315221717449854e+000
 3.366316469580142e-001	 1.819114931563034e+000	 4.573924085137435e+000
 3.194626678580462e-001	 1.822208441373398e+000	 4.503948570938309e+000
 3.023163887043739e-001	 1.825131447618820e+000	 4.450036880328911e+000
 2.851950992779099e-001	 1.827885049808657e+000	 4.412396051401109e+000
 2.681010546813138e-001	 1.830470383383818e+000	 4.391182877554015e+000
 2.510364747748227e-001	 1.832888618629135e+000	 4.386504205622495e+000
 2.340035436477028e-001	 1.835140959580371e+000	 4.398417335188448e+000
 2.170044091250927e-001	 1.837228642927095e+000	 4.426930515491962e+000
 2.000411823099683e-001	 1.839152936912596e+000	 4.472003536200178e+000
 1.831159371599253e-001	 1.840915140232007e+000	 4.533548408153851e+000
 1.662307100984275e-001	 1.842516580929779e+000	 4.611430130085969e+000
 3.411807232698052e-001	 1.843697565775724e+000	 4.569033909917210e+000
 3.237797309390840e-001	 1.846832879772890e+000	 4.512248623808614e+000
 3.064017453106021e-001	 1.849795386102829e+000	 4.474951862552270e+000
 2.890490871082579e-001	 1.852586199133131e+000	 4.457366057983763e+000
 2.717240419090721e-001	 1.855206469648505e+000	 4.459659089107603e+000
 2.544288595713937e-001	 1.857657383748441e+000	 4.481944628590111e+000
 2.371657536992101e-001	 1.859940161739458e+000	 4.524282596412987e+000
 2.199369011423242e-001	 1.862056057023146e+000	 4.586679716855096e+000
 2.027444415321314e-001	 1.864006354981216e+000	 4.669090174806666e+000
 1.855904768526824e-001	 1.865792371858737e+000	 4.771416367273333e+000
 1.684770710466778e-001	 1.867415453646707e+000	 4.893509745799507e+000
 3.457297995820888e-001	 1.868280199988415e+000	 4.553496739334517e+000
 3.280967940205198e-001	 1.871457318172382e+000	 4.509449529022266e+000
 3.104871019171435e-001	 1.874459324586836e+000	 4.488341568080401e+000
 2.929030749388450e-001	 1.877287348457605e+000	 4.504451278433129e+000
 2.753470291370055e-001	 1.879942555913192e+000	 4.534793399334549e+000
 2.578212443680862e-001	 1.882426148867748e+000	 4.574674239644136e+000
 2.403279637507948e-001	 1.884739363898545e+000	 4.623998712712635e+000
 2.228693931595991e-001	 1.886883471119196e+000	 4.682809740240207e+000
 2.054477007543138e-001	 1.888859773049835e+000	 4.751285456293876e+000
 1.880650165454444e-001	 1.890669603485467e+000	 4.829736183455106e+000
 1.707234319949282e-001	 1.892314326363635e+000	 4.918601194612743e+000
 3.502788758948651e-001	 1.892862834201107e+000	 4.750354033304760e+000
 3.324138571023533e-001	 1.896081756571874e+000	 4.723523650939502e+000
 3.145724585239986e-001	 1.899123263070844e+000	 4.705914523529216e+000
 2.967570627696715e-001	 1.901988497782079e+000	 4.696954116627160e+000
 2.789700163651142e-001	 1.904678642177878e+000	 4.696221588504708e+000
 2.612136291649000e-001	 1.907194913987054e+000	 4.703445695213747e+000
 2.434901738024568e-001	 1.909538566057631e+000	 4.718502416343210e+000
 2.258018851769174e-001	 1.911710885215246e+000	 4.741412314762747e+000
 2.081509599765154e-001	 1.913713191118455e+000	 4.772337643957089e+000
 1.905395562382111e-001	 1.915546835112197e+000	 4.811579216813905e+000
 1.729697929431785e-001	 1.917213199080564e+000	 4.859573049934327e+000
 3.548279522081341e-001	 1.917445468413798e+000	 5.044874134085421e+000
 3.367309201845848e-001	 1.920706194971366e+000	 4.993502614123723e+000
 3.186578151311670e-001	 1.923787201554852e+000	 4.949686456635484e+000
 3.006110506007370e-001	 1.926689647106553e+000	 4.912801965421084e+000
 2.825930035933981e-001	 1.929414728442565e+000	 4.882384230299270e+000
 2.646060139618350e-001	 1.931963679106360e+000	 4.858124967606344e+000
 2.466523838541962e-001	 1.934337768216718e+000	 4.839870068701886e+000
 2.287343771942790e-001	 1.936538299311296e+000	 4.827616870308107e+000
 2.108542191987363e-001	 1.938566609187074e+000	 4.821511160834487e+000
 1.930140959309827e-001	 1.940424066738927e+000	 4.821843937113703e+000
 1.752161538914289e-001	 1.942112071797492e+000	 4.829047926189607e+000
 3.593770285218957e-001	 1.942028102626488e+000	 5.356259459436473e+000
 3.410479832672141e-001	 1.945330633370858e+000	 5.282445691826434e+000
 3.227431717386489e-001	 1.948451140038860e+000	 5.214308591244032e+000
 3.044650384320420e-001	 1.951390796431027e+000	 5.151171209652061e+000
 2.862159908218573e-001	 1.954150814707252e+000	 5.092522779860077e+000
 2.679983987588914e-001	 1.956732444225666e+000	 5.038016488328345e+000
 2.498145939060131e-001	 1.959136970375806e+000	 4.987466942863197e+000
 2.316668692116841e-001	 1.961365713407346e+000	 4.940847349581183e+000
 2.135574784209763e-001	 1.963420027255694e+000	 4.898286413863452e+000
 1.954886356237590e-001	 1.965301298365657e+000	 4.860064980305121e+000
 1.774625148396792e-001	 1.967010944514421e+000	 4.826612426895539e+000
 3.639261048361499e-001	 1.966610736839179e+000	 5.683473152757705e+000
 3.453650463502414e-001	 1.969955071770350e+000	 5.589388130688935e+000
 3.268285283464441e-001	 1.973115078522868e+000	 5.498886253921578e+000
 3.083190262635861e-001	 1.976091945755501e+000	 5.411235180608538e+000
 2.898389780504916e-001	 1.978886900971938e+000	 5.325876449932594e+000
 2.713907835560691e-001	 1.981501209344972e+000	 5.242423184064927e+000
 2.529768039579073e-001	 1.983936172534892e+000	 5.160657471464060e+000
 2.345993612291326e-001	 1.986193127503396e+000	 5.080527446464165e+000
 2.162607376432356e-001	 1.988273445324313e+000	 5.002144080460209e+000
 1.979631753165401e-001	 1.990178529992387e+000	 4.925777700296605e+000
 1.797088757879294e-001	 1.991909817231349e+000	 4.851854249705741e+000
 1.572452663054261e-001	 1.742921090062064e+000	 3.339085729543494e+000
 1.413124996760967e-001	 1.744285176627427e+000	 3.205577487059861e+000
 1.254213328617058e-001	 1.745499782078859e+000	 3.077928196159670e+000
 1.095735838069919e-001	 1.746566239714984e+000	 2.955903190838762e+000
 9.377103379879261e-002	 1.747485906439909e+000	 2.839236987042258e+000
 7.801542725524828e-002	 1.748260161732354e+000	 2.727634137083175e+000
 6.230847154497118e-002	 1.748890406620027e+000	 2.620770131040494e+000
 4.665183683563808e-002	 1.749378062660108e+000	 2.518292341660118e+000
 3.104715597144679e-002	 1.749724570926687e+000	 2.419821009281575e+000
 1.549602437885576e-002	 1.749931391005967e+000	 2.324950263322316e+000
 0.000000000000000e+000	 1.750000000000000e+000	 2.233249176870840e+000
 1.594916272536765e-001	 1.767819962778993e+000	 3.679321746496533e+000
 1.433312496720404e-001	 1.769203536294951e+000	 3.590954687454703e+000
 1.272130661884947e-001	 1.770435493252530e+000	 3.510483661315058e+000
 1.111389207184162e-001	 1.771517185997479e+000	 3.437669863418584e+000
 9.511061999559632e-002	 1.772449990818246e+000	 3.372240931779851e+000
 7.912993335843395e-002	 1.773235306900391e+000	 3.313891859692459e+000
 6.319859256652072e-002	 1.773874555286303e+000	 3.262285958460942e+000
 4.731829164707083e-002	 1.774369177841121e+000	 3.217055866571151e+000
 3.149068677062692e-002	 1.774720636225708e+000	 3.177804601607805e+000
 1.571739615545318e-002	 1.774930410877498e+000	 3.144106651240654e+000
 0.000000000000000e+000	 1.775000000000000e+000	 3.115509099617708e+000
 1.617379882019268e-001	 1.792718835495921e+000	 4.004609938166324e+000
 1.453499996679842e-001	 1.794121895962475e+000	 3.961966973019668e+000
 1.290047995152837e-001	 1.795371204426202e+000	 3.929313505837368e+000
 1.127042576298404e-001	 1.796468132279973e+000	 3.906406585371454e+000
 9.645020619240004e-002	 1.797414075196582e+000	 3.892966885957501e+000
 8.024443946161963e-002	 1.798210452068428e+000	 3.888679679888301e+000
 6.408871358807028e-002	 1.798858703952579e+000	 3.893195863152667e+000
 4.798474645850356e-002	 1.799360293022134e+000	 3.906133030631141e+000
 3.193421756980704e-002	 1.799716701524729e+000	 3.927076596842360e+000
 1.593876793205060e-002	 1.799929430749029e+000	 3.955580958338002e+000
 0.000000000000000e+000	 1.800000000000000e+000	 3.991170693872710e+000
 1.639843491501772e-001	 1.817617708212850e+000	 4.315221717449854e+000
 1.473687496639280e-001	 1.819040255629999e+000	 4.318818595072654e+000
 1.307965328420726e-001	 1.820306915599874e+000	 4.334556720098131e+000
 1.142695945412646e-001	 1.821419078562468e+000	 4.362189004345280e+000
 9.778979238920371e-002	 1.822378159574918e+000	 4.401429088324933e+000
 8.135894556480529e-002	 1.823185597236464e+000	 4.451952374988963e+000
 6.497883460961983e-002	 1.823842852618854e+000	 4.513397120177333e+000
 4.865120126993631e-002	 1.824351408203147e+000	 4.585365575628760e+000
 3.237774836898717e-002	 1.824712766823750e+000	 4.667425180422502e+000
 1.616013970864802e-002	 1.824928450620559e+000	 4.759109796727448e+000
 0.000000000000000e+000	 1.825000000000000e+000	 4.859920985759309e+000
 1.662307100984275e-001	 1.842516580929779e+000	 4.611430130085969e+000
 1.493874996598718e-001	 1.843958615297522e+000	 4.661717111009772e+000
 1.325882661688616e-001	 1.845242626773545e+000	 4.726357242365480e+000
 1.158349314526889e-001	 1.846370024844962e+000	 4.805099325964979e+000
 9.912937858600741e-002	 1.847342243953256e+000	 4.897649913651147e+000
 8.247345166799099e-002	 1.848160742404501e+000	 5.003674404059373e+000
 6.586895563116936e-002	 1.848827001285130e+000	 5.122798199502480e+000
 4.931765608136905e-002	 1.849342523384160e+000	 5.254607918614560e+000
 3.282127916816730e-002	 1.849708832122771e+000	 5.398652660390161e+000
 1.638151148524544e-002	 1.849927470492090e+000	 5.554445315264795e+000
 0.000000000000000e+000	 1.850000000000000e+000	 5.721463918907714e+000
 1.684770710466778e-001	 1.867415453646707e+000	 4.893509745799507e+000
 1.514062496558155e-001	 1.868876974965046e+000	 4.990873163899878e+000
 1.343799994956505e-001	 1.870178337947216e+000	 5.104863628944760e+000
 1.174002683641131e-001	 1.871320971127456e+000	 5.235225876633494e+000
 1.004689647828111e-001	 1.872306328331592e+000	 5.381659330322806e+000
 8.358795777117667e-002	 1.873135887572538e+000	 5.543819262462025e+000
 6.675907665271889e-002	 1.873811149951406e+000	 5.721318019674387e+000
 4.998411089280181e-002	 1.874333638565173e+000	 5.913726306883756e+000
 3.326480996734743e-002	 1.874704897421792e+000	 6.120574525884623e+000
 1.660288326184286e-002	 1.874926490363621e+000	 6.341354163765749e+000
 0.000000000000000e+000	 1.875000000000000e+000	 6.575519226621148e+000
 1.707234319949282e-001	 1.892314326363635e+000	 4.918601194612743e+000
 1.534249996517593e-001	 1.893795334632570e+000	 4.974063476437574e+000
 1.361717328224395e-001	 1.895114049120888e+000	 5.037407610336489e+000
 1.189656052755374e-001	 1.896271917409951e+000	 5.109498884390627e+000
 1.018085509796148e-001	 1.897270412709929e+000	 5.191318674726297e+000
 8.470246387436235e-002	 1.898111032740575e+000	 5.283960242439862e+000
 6.764919767426847e-002	 1.898795298617682e+000	 5.388624399075777e+000
 5.065056570423454e-002	 1.899324753746186e+000	 5.506615054407468e+000
 3.370834076652756e-002	 1.899700962720813e+000	 5.639334660115201e+000
 1.682425503844029e-002	 1.899925510235152e+000	 5.788279562768900e+000
 0.000000000000000e+000	 1.900000000000000e+000	 5.955035279301278e+000
 1.729697929431785e-001	 1.917213199080564e+000	 4.859573049934327e+000
 1.554437496477031e-001	 1.918713694300094e+000	 4.872868608689871e+000
 1.379634661492284e-001	 1.920049760294560e+000	 4.891332742100076e+000
 1.205309421869616e-001	 1.921222863692445e+000	 4.915865298380388e+000
 1.031481371764185e-001	 1.922234497088266e+000	 4.947488416399076e+000
 8.581696997754799e-002	 1.923086177908611e+000	 4.987342132394855e+000
 6.853931869581802e-002	 1.923779447283957e+000	 5.036679848775154e+000
 5.131702051566729e-002	 1.924315868927198e+000	 5.096863679355293e+000
 3.415187156570769e-002	 1.924697028019834e+000	 5.169359685239414e+000
 1.704562681503771e-002	 1.924924530106683e+000	 5.255733015348574e+000
 0.000000000000000e+000	 1.925000000000000e+000	 5.357642965370650e+000
 1.752161538914289e-001	 1.942112071797492e+000	 4.829047926189607e+000
 1.574624996436468e-001	 1.943632053967618e+000	 4.800468945745442e+000
 1.397551994760174e-001	 1.944985471468231e+000	 4.774152833424908e+000
 1.220962790983859e-001	 1.946173809974940e+000	 4.751034313034658e+000
 1.044877233732222e-001	 1.947198581466602e+000	 4.732176844374004e+000
 8.693147608073368e-002	 1.948061323076648e+000	 4.718768033744566e+000
 6.942943971736756e-002	 1.948763595950233e+000	 4.712114899835555e+000
 5.198347532710004e-002	 1.949306984108212e+000	 4.713639009974584e+000
 3.459540236488781e-002	 1.949693093318855e+000	 4.724871501570294e+000
 1.726699859163513e-002	 1.949923549978213e+000	 4.747448003367810e+000
 0.000000000000000e+000	 1.950000000000000e+000	 4.783103470901700e+000
 1.774625148396792e-001	 1.967010944514421e+000	 4.826612426895539e+000
 1.594812496395906e-001	 1.968550413635142e+000	 4.756484459145204e+000
 1.415469328028063e-001	 1.969921182641903e+000	 4.685517938383510e+000
 1.236616160098101e-001	 1.971124756257434e+000	 4.614682780298340e+000
 1.058273095700259e-001	 1.972162665844939e+000	 4.545084328277175e+000
 8.804598218391936e-002	 1.973036468244684e+000	 4.477958561624498e+000
 7.031956073891711e-002	 1.973747744616509e+000	 4.414667152211526e+000
 5.264993013853277e-002	 1.974298099289225e+000	 4.356692385200602e+000
 3.503893316406794e-002	 1.974689158617876e+000	 4.305631959312567e+000
 1.748837036823255e-002	 1.974922569849744e+000	 4.263193681896726e+000
 0.000000000000000e+000	 1.975000000000000e+000	 4.231190073811296e+000
 1.797088757879294e-001	 1.991909817231349e+000	 4.851854249705741e+000
 1.614999996355343e-001	 1.993468773302665e+000	 4.740537335770767e+000
 1.433386661295952e-001	 1.994856893815574e+000	 4.625081426541451e+000
 1.252269529212343e-001	 1.996075702539928e+000	 4.506491946493443e+000
 1.071668957668296e-001	 1.997126750223276e+000	 4.385916689528463e+000
 8.916048828710503e-002	 1.998011613412721e+000	 4.264640818727351e+000
 7.120968176046663e-002	 1.998731893282784e+000	 4.144081707354243e+000
 5.331638494996551e-002	 1.999289214470238e+000	 4.025783637423786e+000
 3.548246396324807e-002	 1.999685223916897e+000	 3.911412371963555e+000
 1.770974214482997e-002	 1.999921589721275e+000	 3.802749616885156e+000
 0.000000000000000e+000	 2.000000000000000e+000	 3.701687388120496e+000
 2.000000000000000e+000	 0.000000000000000e+000	 1.277102122520550e+001
 1.999921589721275e+000	 1.770974214483003e-002	 1.281091043531602e+001
 1.999685223916896e+000	 3.548246396324820e-002	 1.283317244711583e+001
 1.999289214470237e+000	 5.331638494996539e-002	 1.283905115065581e+001
 1.998731893282784e+000	 7.120968176046658e-002	 1.282978807815370e+001
 1.998011613412721e+000	 8.916048828710503e-002	 1.280662085185691e+001
 1.997126750223276e+000	 1.071668957668297e-001	 1.277078162149786e+001
 1.996075702539929e+000	 1.252269529212345e-001	 1.272349549439472e+001
 1.994856893815574e+000	 1.433386661295951e-001	 1.266597896134983e+001
 1.993468773302665e+000	 1.614999996355343e-001	 1.259943832158876e+001
 1.991909817231349e+000	 1.797088757879295e-001	 1.252506811007025e+001
 2.025000000000000e+000	 0.000000000000000e+000	 1.254914077643987e+001
 2.024920609592803e+000	 1.793111392142746e-002	 1.260336772285812e+001
 2.024681289215908e+000	 3.592599476242833e-002	 1.263966880256764e+001
 2.024280329651229e+000	 5.398283976139813e-002	 1.265927944384119e+001
 2.023716041949021e+000	 7.209980278201615e-002	 1.266343174330387e+001
 2.022986758580697e+000	 9.027499439029070e-002	 1.265335289260183e+001
 2.022090834601524e+000	 1.085064819636334e-001	 1.263026359624403e+001
 2.021026648822303e+000	 1.267922898326587e-001	 1.259537648378252e+001
 2.019792604989089e+000	 1.451303994563841e-001	 1.254989451959587e+001
 2.018387132969990e+000	 1.635187496314781e-001	 1.249500941363243e+001
 2.016808689948031e+000	 1.819552367361798e-001	 1.243190003655417e+001
 2.050000000000000e+000	 0.000000000000000e+000	 1.235082349778712e+001
 2.049919629464327e+000	 1.815248569802488e-002	 1.241714668889728e+001
 2.049677354514900e+000	 3.636952556160845e-002	 1.246531093679222e+001
 2.049271444832177e+000	 5.464929457283087e-002	 1.249654453971195e+001
 2.048700190615181e+000	 7.298992380356566e-002	 1.251207144396416e+001
 2.047961903748552e+000	 9.138950049347636e-002	 1.251310964715719e+001
 2.047054918979599e+000	 1.098460681604371e-001	 1.250086959420881e+001
 2.045977595104440e+000	 1.283576267440829e-001	 1.247655256941484e+001
 2.044728316162292e+000	 1.469221327831730e-001	 1.244134908796018e+001
 2.043305492636919e+000	 1.655374996274218e-001	 1.239643729034585e+001
 2.041707562664222e+000	 1.842015976844301e-001	 1.234298134329003e+001
 2.075000000000000e+000	 0.000000000000000e+000	 1.217480252079228e+001
 2.074918649335845e+000	 1.837385747462230e-002	 1.225103822847060e+001
 2.074673419813873e+000	 3.681305636078857e-002	 1.230894746445735e+001
 2.074262560013082e+000	 5.531574938426360e-002	 1.234975270395792e+001
 2.073684339281264e+000	 7.388004482511520e-002	 1.237467100271216e+001
 2.072937048916287e+000	 9.250400659666205e-002	 1.238491237454847e+001
 2.072019003357499e+000	 1.111856543572408e-001	 1.238167816334187e+001
 2.070928541386338e+000	 1.299229636555072e-001	 1.236615941278238e+001
 2.069664027335182e+000	 1.487138661099619e-001	 1.233953523745866e+001
 2.068223852303450e+000	 1.675562496233655e-001	 1.230297119885399e+001
 2.066606435379921e+000	 1.864479586326804e-001	 1.225761768993352e+001
 2.100000000000000e+000	 0.000000000000000e+000	 1.201987130406968e+001
 2.099917669207360e+000	 1.859522925121972e-002	 1.210389121664501e+001
 2.099669485112827e+000	 3.725658715996871e-002	 1.216948267520749e+001
 2.099253675193943e+000	 5.598220419569634e-002	 1.221786361550586e+001
 2.098668487947270e+000	 7.477016584666477e-002	 1.225024543826066e+001
 2.097912194083901e+000	 9.361851269984771e-002	 1.226783135879587e+001
 2.096983087735225e+000	 1.125252405540445e-001	 1.227181475272815e+001
 2.095879487667998e+000	 1.314883005669314e-001	 1.226337750124710e+001
 2.094599738507759e+000	 1.505055994367509e-001	 1.224368833961982e+001
 2.093142211969584e+000	 1.695749996193093e-001	 1.221390121264366e+001
 2.091505308095129e+000	 1.886943195809308e-001	 1.217515364085424e+001
 2.125000000000000e+000	 0.000000000000000e+000	 1.188488008465174e+001
 2.124916689078869e+000	 1.881660102781714e-002	 1.197460909792688e+001
 2.124665550411762e+000	 3.770011795914884e-002	 1.204587325866499e+001
 2.124244790374762e+000	 5.664865900712907e-002	 1.209988722456410e+001
 2.123652636613198e+000	 7.566028686821431e-002	 1.213785795392029e+001
 2.122887339251394e+000	 9.473301880303341e-002	 1.216098302509134e+001
 2.121947172112776e+000	 1.138648267508482e-001	 1.217044895369753e+001
 2.120830433949419e+000	 1.330536374783557e-001	 1.216742951122648e+001
 2.119535449680023e+000	 1.522973327635398e-001	 1.215308404880757e+001
 2.118060571635321e+000	 1.715937496152530e-001	 1.212855583001277e+001
 2.116404180809845e+000	 1.909406805291811e-001	 1.209497037662291e+001
 2.150000000000000e+000	 0.000000000000000e+000	 1.176873257691810e+001
 2.149915708950374e+000	 1.903797280441457e-002	 1.186214671362033e+001
 2.149661615710677e+000	 3.814364875832895e-002	 1.193712525791983e+001
 2.149235905555537e+000	 5.731511381856181e-002	 1.199488082987366e+001
 2.148636785279050e+000	 7.655040788976383e-002	 1.203661713616955e+001
 2.147862484418765e+000	 9.584752490621906e-002	 1.206352725717224e+001
 2.146911256490152e+000	 1.152044129476518e-001	 1.207679193341520e+001
 2.145781380230602e+000	 1.346189743897799e-001	 1.207757785534119e+001
 2.144471160851976e+000	 1.540890660903287e-001	 1.206703596019593e+001
 2.142978931300662e+000	 1.736124996111968e-001	 1.204629974006973e+001
 2.141303053524069e+000	 1.931870414774315e-001	 1.201648356516265e+001
 2.175000000000000e+000	 0.000000000000000e+000	 1.167038289918497e+001
 2.174914728821873e+000	 1.925934458101199e-002	 1.176550734798842e+001
 2.174657681009575e+000	 3.858717955750909e-002	 1.184229123312364e+001
 2.174227020736269e+000	 5.798156862999455e-002	 1.190194635752839e+001
 2.173620933944825e+000	 7.744052891131339e-002	 1.194567434642656e+001
 2.172837629586016e+000	 9.696203100940473e-002	 1.197466489970380e+001
 2.171875340867353e+000	 1.165439991444556e-001	 1.199009404546599e+001
 2.170732326511546e+000	 1.361843113012042e-001	 1.199312239872541e+001
 2.169406872023615e+000	 1.558807994171177e-001	 1.198489342926265e+001
 2.167897290965605e+000	 1.756312496071406e-001	 1.196653174280176e+001
 2.166201926237801e+000	 1.954334024256818e-001	 1.193914137971714e+001
 2.199999999999999e+000	 0.000000000000000e+000	 1.158883270984498e+001
 2.199913748693369e+000	 1.948071635760941e-002	 1.168373997581217e+001
 2.199653746308452e+000	 3.903071035668922e-002	 1.176046761847438e+001
 2.199218135916958e+000	 5.864802344142729e-002	 1.182022782532972e+001
 2.198605082610522e+000	 7.833064993286293e-002	 1.186422129065492e+001
 2.197812774753146e+000	 9.807653711259042e-002	 1.189363543095365e+001
 2.196839425244380e+000	 1.178835853412592e-001	 1.190964260335305e+001
 2.195683272792251e+000	 1.377496482126284e-001	 1.191339833104308e+001
 2.194342583194943e+000	 1.576725327439066e-001	 1.190603953995381e+001
 2.192815650630152e+000	 1.776499996030843e-001	 1.188868281095682e+001
 2.191100798951041e+000	 1.976797633739321e-001	 1.186242265195747e+001
 2.224999999999999e+000	 0.000000000000000e+000	 1.152312853657650e+001
 2.224912768564859e+000	 1.970208813420683e-002	 1.161593669550741e+001
 2.224649811607310e+000	 3.947424115586935e-002	 1.169079225738276e+001
 2.224209251097604e+000	 5.931447825286004e-002	 1.174890897808401e+001
 2.223589231276143e+000	 7.922077095441249e-002	 1.179148775281621e+001
 2.222787919920156e+000	 9.919104321577608e-002	 1.181971479236473e+001
 2.221803509621232e+000	 1.192231715380629e-001	 1.183475980409807e+001
 2.220634219072718e+000	 1.393149851240526e-001	 1.183777418196376e+001
 2.219278294365958e+000	 1.594642660706956e-001	 1.182988920982603e+001
 2.217734010294301e+000	 1.796687495990280e-001	 1.181221428258510e+001
 2.215999671663790e+000	 1.999261243221825e-001	 1.178583514959854e+001
 2.250000000000000e+000	 0.000000000000000e+000	 1.147235928360548e+001
 2.249911788436345e+000	 1.992345991080426e-002	 1.156123033336762e+001
 2.249645876906150e+000	 3.991777195504948e-002	 1.163244210196010e+001
 2.249200366278207e+000	 5.998093306429280e-002	 1.168721108054686e+001
 2.248573379941687e+000	 8.011089197596205e-002	 1.172673947942553e+001
 2.247763065087045e+000	 1.003055493189618e-001	 1.175221336282328e+001
 2.246767593997911e+000	 1.205627577348667e-001	 1.176480079026797e+001
 2.245585165352948e+000	 1.408803220354769e-001	 1.176564996894006e+001
 2.244214005536660e+000	 1.612559993974846e-001	 1.175588742151251e+001
 2.242652369958055e+000	 1.816874995949719e-001	 1.173661617407785e+001
 2.240898544376048e+000	 2.021724852704328e-001	 1.170891396884098e+001
 1.991909817231349e+000	 1.797088757879295e-001	 1.252506811007025e+001
 1.990178529992387e+000	 1.979631753165402e-001	 1.254855209592455e+001
 1.988273445324313e+000	 2.162607376432357e-001	 1.256268082089698e+001
 1.986193127503396e+000	 2.345993612291324e-001	 1.256838985566399e+001
 1.983936172534892e+000	 2.529768039579072e-001	 1.256659627994062e+001
 1.981501209344972e+000	 2.713907835560691e-001	 1.255819736457534e+001
 1.978886900971938e+000	 2.898389780504918e-001	 1.254406928226618e+001
 1.976091945755501e+000	 3.083190262635862e-001	 1.252506585042027e+001
 1.973115078522868e+000	 3.268285283464439e-001	 1.250201730967439e+001
 1.969955071770350e+000	 3.453650463502412e-001	 1.247572914157956e+001
 1.966610736839180e+000	 3.639261048361500e-001	 1.244698092892562e+001
 2.016808689948031e+000	 1.819552367361798e-001	 1.243190003655417e+001
 2.015055761618825e+000	 2.004377150093213e-001	 1.245888833474440e+001
 2.013126863392606e+000	 2.189639968654950e-001	 1.247690901819217e+001
 2.011020541599093e+000	 2.375318532465808e-001	 1.248689708627119e+001
 2.008735374693610e+000	 2.561390140098015e-001	 1.248976759374537e+001
 2.006269974463903e+000	 2.747831683532467e-001	 1.248641430794235e+001
 2.003622987236254e+000	 2.934619652791260e-001	 1.247770839707335e+001
 2.000793095079618e+000	 3.121730140951303e-001	 1.246449715334843e+001
 1.997779017006543e+000	 3.309138849542393e-001	 1.244760275453074e+001
 1.994579510169543e+000	 3.496821094332685e-001	 1.242782106755384e+001
 1.991193371051617e+000	 3.684751811504042e-001	 1.240592049779593e+001
 2.041707562664222e+000	 1.842015976844301e-001	 1.234298134329003e+001
 2.039932993244682e+000	 2.029122547020977e-001	 1.237250354336653e+001
 2.037980281460246e+000	 2.216672560877351e-001	 1.239350372245967e+001
 2.035847955694086e+000	 2.404643452639859e-001	 1.240691667929731e+001
 2.033534576851590e+000	 2.593012240616183e-001	 1.241365575178603e+001
 2.031038739582086e+000	 2.781755531503031e-001	 1.241461144788286e+001
 2.028359073499827e+000	 2.970849525075852e-001	 1.241065011021478e+001
 2.025494244403021e+000	 3.160270019264352e-001	 1.240261261822886e+001
 2.022442955489552e+000	 3.349992415617211e-001	 1.239131313164526e+001
 2.019203948568140e+000	 3.539991725158979e-001	 1.237753787896439e+001
 2.015776005263546e+000	 3.730242574641658e-001	 1.236204399474261e+001
 2.066606435379921e+000	 1.864479586326804e-001	 1.225761768993352e+001
 2.064810224869957e+000	 2.053867943948692e-001	 1.228873921246593e+001
 2.062833699527232e+000	 2.243705153099559e-001	 1.231184260180160e+001
 2.060675369788373e+000	 2.433968372813475e-001	 1.232786280871491e+001
 2.058333779008834e+000	 2.624634341133577e-001	 1.233771174349185e+001
 2.055807504699517e+000	 2.815679379472381e-001	 1.234227687911755e+001
 2.053095159762659e+000	 3.007079397358691e-001	 1.234241989089220e+001
 2.050195393725710e+000	 3.198809897575008e-001	 1.233897533639614e+001
 2.047106893971896e+000	 3.390845981688895e-001	 1.233274937971046e+001
 2.043828386966140e+000	 3.583162355981293e-001	 1.232451856377505e+001
 2.040358639474969e+000	 3.775733337774347e-001	 1.231502863472505e+001
 2.091505308095129e+000	 1.886943195809308e-001	 1.217515364085424e+001
 2.089687456494649e+000	 2.078613340876359e-001	 1.220697483562052e+001
 2.087687117593565e+000	 2.270737745321575e-001	 1.223134044844932e+001
 2.085502783881955e+000	 2.463293292986658e-001	 1.224918591746639e+001
 2.083132981165341e+000	 2.656256441650198e-001	 1.226142199628890e+001
 2.080576269816200e+000	 2.849603227440519e-001	 1.226893332814446e+001
 2.077831246024749e+000	 3.043309269639778e-001	 1.227257705918007e+001
 2.074896543047684e+000	 3.237349775883271e-001	 1.227318149502306e+001
 2.071770832453574e+000	 3.431699547757445e-001	 1.227154480464088e+001
 2.068452825363542e+000	 3.626332986799628e-001	 1.226843377551530e+001
 2.064941273685884e+000	 3.821224100902110e-001	 1.226458262410407e+001
 2.116404180809845e+000	 1.909406805291811e-001	 1.209497037662291e+001
 2.114564688118759e+000	 2.103358737803979e-001	 1.212662567384627e+001
 2.112540535659244e+000	 2.297770337543398e-001	 1.215144699499123e+001
 2.110330197974833e+000	 2.492618213159407e-001	 1.217037058399525e+001
 2.107932183321109e+000	 2.687878542166045e-001	 1.218430629101195e+001
 2.105345034932133e+000	 2.883527075407443e-001	 1.219413611607558e+001
 2.102567332286097e+000	 3.079539141919111e-001	 1.220071279479771e+001
 2.099597692368946e+000	 3.275889654189144e-001	 1.220485843030670e+001
 2.096434770934586e+000	 3.472553113822861e-001	 1.220736317561910e+001
 2.093077263760348e+000	 3.669503617613985e-001	 1.220898397059983e+001
 2.089523907896292e+000	 3.866714864024947e-001	 1.221044333761826e+001
 2.141303053524069e+000	 1.931870414774315e-001	 1.201648356516265e+001
 2.139441919742287e+000	 2.128104134731551e-001	 1.204714067609496e+001
 2.137393953724270e+000	 2.324802929765030e-001	 1.207164488295660e+001
 2.135157612067005e+000	 2.521943133331721e-001	 1.209093353762376e+001
 2.132731385476141e+000	 2.719500642681118e-001	 1.210591582275291e+001
 2.130113800047317e+000	 2.917450923373155e-001	 1.211747126360101e+001
 2.127303418546704e+000	 3.115769014196694e-001	 1.212644828480442e+001
 2.124298841689493e+000	 3.314429532492622e-001	 1.213366281647838e+001
 2.121098709414933e+000	 3.513406679885141e-001	 1.213989695397529e+001
 2.117701702156558e+000	 3.712674248424363e-001	 1.214589767560264e+001
 2.114106542106193e+000	 3.912205627142856e-001	 1.215237562254803e+001
 2.166201926237801e+000	 1.954334024256818e-001	 1.193914137971714e+001
 2.164319151365234e+000	 2.152849531659074e-001	 1.196800054316591e+001
 2.162247371788644e+000	 2.351835521986470e-001	 1.199144777149711e+001
 2.159985026158471e+000	 2.551268053503602e-001	 1.201042181080150e+001
 2.157530587630436e+000	 2.751122743195416e-001	 1.202583139544365e+001
 2.154882565161751e+000	 2.951374771337652e-001	 1.203855372664552e+001
 2.152039504806568e+000	 3.151998886472523e-001	 1.204943299903959e+001
 2.148999991009326e+000	 3.352969410793709e-001	 1.205927897970995e+001
 2.145762647894614e+000	 3.554260245944288e-001	 1.206886564421330e+001
 2.142326140552170e+000	 3.755844879230763e-001	 1.207892987402942e+001
 2.138689176315586e+000	 3.957696390255839e-001	 1.209017021983390e+001
 2.191100798951041e+000	 1.976797633739321e-001	 1.186242265195747e+001
 2.189196382987598e+000	 2.177594928586550e-001	 1.188871592362373e+001
 2.187100789852363e+000	 2.378868114207716e-001	 1.191039857502192e+001
 2.184812440249233e+000	 2.580592973675048e-001	 1.192841101733656e+001
 2.182329789783993e+000	 2.782744843708940e-001	 1.194366173953555e+001
 2.179651330275434e+000	 2.985298619300937e-001	 1.195702575232107e+001
 2.176775591065690e+000	 3.188228758746600e-001	 1.196934308314662e+001
 2.173701140328445e+000	 3.391509289092403e-001	 1.198141732698070e+001
 2.170426586373628e+000	 3.595113812000300e-001	 1.199401425746653e+001
 2.166950578947184e+000	 3.799015510033183e-001	 1.200786050308278e+001
 2.163271810524472e+000	 4.003187153363895e-001	 1.202364229284564e+001
 2.215999671663790e+000	 1.999261243221825e-001	 1.178583514959854e+001
 2.214073614609379e+000	 2.202340325513978e-001	 1.180882573133956e+001
 2.211954207915429e+000	 2.405900706428771e-001	 1.182806781964394e+001
 2.209639854339290e+000	 2.609917893846062e-001	 1.184450374670138e+001
 2.207128991936814e+000	 2.814366944221691e-001	 1.185904194309393e+001
 2.204420095388370e+000	 3.019222467263009e-001	 1.187255534571395e+001
 2.201511677324071e+000	 3.224458631018926e-001	 1.188587985993223e+001
 2.198402289646850e+000	 3.430049167388704e-001	 1.189981288086333e+001
 2.195090524851978e+000	 3.635967378053179e-001	 1.191511187854139e+001
 2.191575017341604e+000	 3.842186140831624e-001	 1.193249305176919e+001
 2.187854444732851e+000	 4.048677916467026e-001	 1.195263005533582e+001
 2.240898544376048e+000	 2.021724852704328e-001	 1.170891396884098e+001
 2.238950846230580e+000	 2.227085722441359e-001	 1.172789557519640e+001
 2.236807625977843e+000	 2.432933298649635e-001	 1.174405210919624e+001
 2.234467268428642e+000	 2.639242814016641e-001	 1.175832806538455e+001
 2.231928194088898e+000	 2.845989044733669e-001	 1.177163198748604e+001
 2.229188860500556e+000	 3.053146315223868e-001	 1.178483483888630e+001
 2.226247763581711e+000	 3.260688503289499e-001	 1.179876843063506e+001
 2.223103438964543e+000	 3.468589045682615e-001	 1.181422391199114e+001
 2.219754463329662e+000	 3.676820944102923e-001	 1.183195032849077e+001
 2.216199455735425e+000	 3.885356771626088e-001	 1.185265325246533e+001
 2.212437078940723e+000	 4.094168679565229e-001	 1.187699349086282e+001
 1.966610736839180e+000	 3.639261048361500e-001	 1.244698092892562e+001
 1.963080925084422e+000	 3.825091915237607e-001	 1.246002834471675e+001
 1.959364529034961e+000	 4.011117579788214e-001	 1.247542103076274e+001
 1.955460483543635e+000	 4.197312203398140e-001	 1.249386171710555e+001
 1.951367766926559e+000	 4.383649600831472e-001	 1.251602025639239e+001
 1.947085402089539e+000	 4.570103248275765e-001	 1.254253268367342e+001
 1.942612457640390e+000	 4.756646291775601e-001	 1.257400034073931e+001
 1.937948048985706e+000	 4.943251556054372e-001	 1.261098906808870e+001
 1.933091339410632e+000	 5.129891553722545e-001	 1.265402846748606e+001
 1.928041541140166e+000	 5.316538494870133e-001	 1.270361123792858e+001
 1.922797916380548e+000	 5.503164297040443e-001	 1.276019258768464e+001
 1.991193371051617e+000	 3.684751811504042e-001	 1.240592049779593e+001
 1.987619436649766e+000	 3.872905564217012e-001	 1.242483324997525e+001
 1.983856585649486e+000	 4.061256549574481e-001	 1.244547161819603e+001
 1.979903739589275e+000	 4.249778605978571e-001	 1.246850173417267e+001
 1.975759864014198e+000	 4.438445220877911e-001	 1.249455574023048e+001
 1.971423969616384e+000	 4.627229538912393e-001	 1.252423088356111e+001
 1.966895113361246e+000	 4.816104370452149e-001	 1.255808867863415e+001
 1.962172399597961e+000	 5.005042200529607e-001	 1.259665414088405e+001
 1.957254981152735e+000	 5.194015198162856e-001	 1.264041509465300e+001
 1.952142060403382e+000	 5.382995226068029e-001	 1.268982155821778e+001
 1.946832890333715e+000	 5.571953850757715e-001	 1.274528520856391e+001
 2.015776005263546e+000	 3.730242574641658e-001	 1.236204399474261e+001
 2.012157948214703e+000	 3.920719213190587e-001	 1.238584842166086e+001
 2.008348642263703e+000	 4.111395519354208e-001	 1.241083835942770e+001
 2.004346995634707e+000	 4.302245008551945e-001	 1.243764345426835e+001
 2.000151961101730e+000	 4.493240840916974e-001	 1.246685817182550e+001
 1.995762537143223e+000	 4.684355829541524e-001	 1.249904092501135e+001
 1.991177769082197e+000	 4.875562449121281e-001	 1.253471327375094e+001
 1.986396750210409e+000	 5.066832844997706e-001	 1.257435919976842e+001
 1.981418622895133e+000	 5.258138842596519e-001	 1.261842445942081e+001
 1.976242579666991e+000	 5.449451957259967e-001	 1.266731601742072e+001
 1.970867864287377e+000	 5.640743404469928e-001	 1.272140156411472e+001
 2.040358639474969e+000	 3.775733337774347e-001	 1.231502863472505e+001
 2.036696459779233e+000	 3.968532862158332e-001	 1.234281083860805e+001
 2.032840698877614e+000	 4.161534489127393e-001	 1.237131736999083e+001
 2.028790251679932e+000	 4.354711411118263e-001	 1.240114146050822e+001
 2.024544058189155e+000	 4.548036460948662e-001	 1.243283989023124e+001
 2.020101104670055e+000	 4.741482120163162e-001	 1.246693214828624e+001
 2.015460424803240e+000	 4.935020527782997e-001	 1.250389966922014e+001
 2.010621100823052e+000	 5.128623489458674e-001	 1.254418514830086e+001
 2.005582264637823e+000	 5.322262487023532e-001	 1.258819193878446e+001
 2.000343098930994e+000	 5.515908688445943e-001	 1.263628353400804e+001
 1.994902838241532e+000	 5.709532958177074e-001	 1.268878313698044e+001
 2.064941273685884e+000	 3.821224100902110e-001	 1.226458262410407e+001
 2.061234971343355e+000	 4.016346511120246e-001	 1.229548680660936e+001
 2.057332755491217e+000	 4.211673458894039e-001	 1.232673249236662e+001
 2.053233507724950e+000	 4.407177813677524e-001	 1.235887652860739e+001
 2.048936155276472e+000	 4.602832080972975e-001	 1.239243795962004e+001
 2.044439672196880e+000	 4.798608410777303e-001	 1.242789721933566e+001
 2.039743080524377e+000	 4.994478606437299e-001	 1.246569540363724e+001
 2.034845451435887e+000	 5.190414133912505e-001	 1.250623362562251e+001
 2.029745906380808e+000	 5.386386131443897e-001	 1.254987245688239e+001
 2.024443618195390e+000	 5.582365419625962e-001	 1.259693145767455e+001
 2.018937812196181e+000	 5.778322511879159e-001	 1.264768879867432e+001
 2.089523907896292e+000	 3.866714864024947e-001	 1.221044333761826e+001
 2.085773482907070e+000	 4.064160160076331e-001	 1.224367023330019e+001
 2.081824812104512e+000	 4.261812428654142e-001	 1.227693366498729e+001
 2.077676763769761e+000	 4.459644216229730e-001	 1.231075408613943e+001
 2.073328252363683e+000	 4.657627700989913e-001	 1.234561271486419e+001
 2.068778239723698e+000	 4.855734701383949e-001	 1.238195075769798e+001
 2.064025736245607e+000	 5.053936685084186e-001	 1.242016871721184e+001
 2.059069802048916e+000	 5.252204778359205e-001	 1.246062578671660e+001
 2.053909548124086e+000	 5.450509775857613e-001	 1.250363933516433e+001
 2.048544137460181e+000	 5.648822150800023e-001	 1.254948448514949e+001
 2.042972786151324e+000	 5.847112065576181e-001	 1.259839378670465e+001
 2.114106542106193e+000	 3.912205627142856e-001	 1.215237562254803e+001
 2.110311994470377e+000	 4.111973809026583e-001	 1.218718102340051e+001
 2.106316868717501e+000	 4.311951398407705e-001	 1.222179540502978e+001
 2.102120019814365e+000	 4.512110618774877e-001	 1.225670277928867e+001
 2.097720349450787e+000	 4.712423320999476e-001	 1.229234640858795e+001
 2.093116807250509e+000	 4.912860991983100e-001	 1.232912806012857e+001
 2.088308391966931e+000	 5.113394763723657e-001	 1.236740734818547e+001
 2.083294152662138e+000	 5.313995422798771e-001	 1.240750116776628e+001
 2.078073189867658e+000	 5.514633420264679e-001	 1.244968322278024e+001
 2.072644656725364e+000	 5.715278881968122e-001	 1.249418365164811e+001
 2.067007760106961e+000	 5.915901619268141e-001	 1.254118875306345e+001
 2.138689176315586e+000	 3.957696390255839e-001	 1.209017021983390e+001
 2.134850506033278e+000	 4.159787457971007e-001	 1.212586358462941e+001
 2.130808925330182e+000	 4.362090368154726e-001	 1.216121539584406e+001
 2.126563275858760e+000	 4.564577021312969e-001	 1.219667313844733e+001
 2.122112446537785e+000	 4.767218941001664e-001	 1.223264195152691e+001
 2.117455374777315e+000	 4.969987282574756e-001	 1.226948391225410e+001
 2.112591047688348e+000	 5.172852842355712e-001	 1.230751741225505e+001
 2.107518503275554e+000	 5.375786067231203e-001	 1.234701662976400e+001
 2.102236831611524e+000	 5.578757064665098e-001	 1.238821110073562e+001
 2.096745175990942e+000	 5.781735613130266e-001	 1.243128539187814e+001
 2.091042734063091e+000	 5.984691172955039e-001	 1.247637887833673e+001
 2.163271810524472e+000	 4.003187153363895e-001	 1.202364229284564e+001
 2.159389017595771e+000	 4.207601106909599e-001	 1.205958543548931e+001
 2.155300981942557e+000	 4.412229337895208e-001	 1.209511317069332e+001
 2.151006531902950e+000	 4.617043423844006e-001	 1.213063633479452e+001
 2.146504543624674e+000	 4.822014560996477e-001	 1.216652173877147e+001
 2.141793942304112e+000	 5.027113573158916e-001	 1.220309148125018e+001
 2.136873703409858e+000	 5.232310920980352e-001	 1.224062235839924e+001
 2.131742853889163e+000	 5.437576711656499e-001	 1.227934537414720e+001
 2.126400473355683e+000	 5.642880709058865e-001	 1.231944535394495e+001
 2.120845695256914e+000	 5.848192344286448e-001	 1.236106066506872e+001
 2.115077708019714e+000	 6.053480726636871e-001	 1.240428304621602e+001
 2.187854444732851e+000	 4.048677916467026e-001	 1.195263005533582e+001
 2.183927529157856e+000	 4.255414755842361e-001	 1.198823590690724e+001
 2.179793038554623e+000	 4.462368307629148e-001	 1.202342888523076e+001
 2.175449787946933e+000	 4.669509826367985e-001	 1.205858302070154e+001
 2.170896640711457e+000	 4.876810180983915e-001	 1.209402655514020e+001
 2.166132509830903e+000	 5.084239863735580e-001	 1.213004128317008e+001
 2.161156359131462e+000	 5.291768999597576e-001	 1.216686199509853e+001
 2.155967204502966e+000	 5.499367356074664e-001	 1.220467602479585e+001
 2.150564115100135e+000	 5.707004353445986e-001	 1.224362290584363e+001
 2.144946214523278e+000	 5.914649075436670e-001	 1.228379413898596e+001
 2.139112681976832e+000	 6.122270280313643e-001	 1.232523307366111e+001
 2.212437078940723e+000	 4.094168679565229e-001	 1.187699349086282e+001
 2.208466040719535e+000	 4.303228404769294e-001	 1.191172493043349e+001
 2.204285095166384e+000	 4.512507277356548e-001	 1.194612217181114e+001
 2.199893043990709e+000	 4.721976228884910e-001	 1.198052224744330e+001
 2.195288737798134e+000	 4.931605800963979e-001	 1.201521455352826e+001
 2.190471077357688e+000	 5.141366154304753e-001	 1.205044021911822e+001
 2.185439014853160e+000	 5.351227078207387e-001	 1.208639158147408e+001
 2.180191555116963e+000	 5.561158000485696e-001	 1.212321177123004e+001
 2.174727756844883e+000	 5.771127997826460e-001	 1.216099441069240e+001
 2.169046733790038e+000	 5.981105806580939e-001	 1.219978342834758e+001
 2.163147655934445e+000	 6.191059833985354e-001	 1.223957299238510e+001
 1.922797916380548e+000	 5.503164297040443e-001	 1.276019258768464e+001
 1.917359778339054e+000	 5.689740595581219e-001	 1.279598438890953e+001
 1.911726492221324e+000	 5.876238754369104e-001	 1.281994082601656e+001
 1.905897476204296e+000	 6.062629876904956e-001	 1.283184820925799e+001
 1.899872202382971e+000	 6.248884817771944e-001	 1.283146599408170e+001
 1.893650197690125e+000	 6.434974194451185e-001	 1.286415245731931e+001
 1.887231044787306e+000	 6.620868399488497e-001	 1.289008561575253e+001
 1.880614382925689e+000	 6.806537613005026e-001	 1.290927400961880e+001
 1.873799908775373e+000	 6.991951815543976e-001	 1.292072081895022e+001
 1.866787377221732e+000	 7.177080801244898e-001	 1.292041540116815e+001
 1.859576602127425e+000	 7.361894191336469e-001	 1.291495183899527e+001
 1.946832890333715e+000	 5.571953850757715e-001	 1.274528520856391e+001
 1.941326775566192e+000	 5.760862353022611e-001	 1.276143642687659e+001
 1.935623073371612e+000	 5.949691738788934e-001	 1.276659208655603e+001
 1.929721194654121e+000	 6.138412750351303e-001	 1.276052744474045e+001
 1.923620604909912e+000	 6.326995877975195e-001	 1.276609299564824e+001
 1.917320825158422e+000	 6.515411371860248e-001	 1.279666436740831e+001
 1.910821432844467e+000	 6.703629254459109e-001	 1.282031786503455e+001
 1.904122062709863e+000	 6.891619333144453e-001	 1.283734416916524e+001
 1.897222407633088e+000	 7.079351213216275e-001	 1.284805132373386e+001
 1.890122219435584e+000	 7.266794311240884e-001	 1.285276456514868e+001
 1.882821309653291e+000	 7.453917868712325e-001	 1.285182611592404e+001
 1.970867864287377e+000	 5.640743404469928e-001	 1.272140156411472e+001
 1.965293772793916e+000	 5.831984110459895e-001	 1.271877997122548e+001
 1.959519654522553e+000	 6.023144723205506e-001	 1.270603568895187e+001
 1.953544913104652e+000	 6.214195623795151e-001	 1.268293145415878e+001
 1.947369007437591e+000	 6.405106938176605e-001	 1.270584939269114e+001
 1.940991452627468e+000	 6.595848549268030e-001	 1.273438822392206e+001
 1.934411820902369e+000	 6.786390109428899e-001	 1.275609497708936e+001
 1.927629742494750e+000	 6.976701053283412e-001	 1.277128393916452e+001
 1.920644906491468e+000	 7.166750610888371e-001	 1.278028737473652e+001
 1.913457061650030e+000	 7.356507821236820e-001	 1.278345533632484e+001
 1.906066017179662e+000	 7.545941546088181e-001	 1.278115543764658e+001
 1.994902838241532e+000	 5.709532958177074e-001	 1.268878313698044e+001
 1.989260770022222e+000	 5.903105867893066e-001	 1.266827007521091e+001
 1.983416235674150e+000	 6.096597707618821e-001	 1.263854077748328e+001
 1.977368631555889e+000	 6.289978497236500e-001	 1.261616021032682e+001
 1.971117409966007e+000	 6.483217998376174e-001	 1.265006103358723e+001
 1.964662080097262e+000	 6.676285726674528e-001	 1.267688808297805e+001
 1.958002208961012e+000	 6.869150964397868e-001	 1.269696050921354e+001
 1.951137422280350e+000	 7.061782773421911e-001	 1.271061623964358e+001
 1.944067405350511e+000	 7.254150008560256e-001	 1.271821180791113e+001
 1.936791903865071e+000	 7.446221331232703e-001	 1.272012214543119e+001
 1.929310724706539e+000	 7.637965223464036e-001	 1.271674033429828e+001
 2.018937812196181e+000	 5.778322511879159e-001	 1.264768879867432e+001
 2.013227767251113e+000	 5.974227625322126e-001	 1.261018002130487e+001
 2.007312816826402e+000	 6.170050692028881e-001	 1.256439556586990e+001
 2.001192350007833e+000	 6.365761370675350e-001	 1.256588872216153e+001
 1.994865812495162e+000	 6.561329058573907e-001	 1.259833307197260e+001
 1.988332707567807e+000	 6.756722904079746e-001	 1.262374958635566e+001
 1.981592597020396e+000	 6.951911819366016e-001	 1.264248044036971e+001
 1.974645102066663e+000	 7.146864493559948e-001	 1.265488724629672e+001
 1.967489904210219e+000	 7.341549406231938e-001	 1.266135086604509e+001
 1.960126746080707e+000	 7.535934841228537e-001	 1.266227118382086e+001
 1.952555432233920e+000	 7.729988900839893e-001	 1.265806683867313e+001
 2.042972786151324e+000	 5.847112065576181e-001	 1.259839378670465e+001
 2.037194764480589e+000	 6.045349382747075e-001	 1.254480024888949e+001
 2.031209397979309e+000	 6.243503676435684e-001	 1.248390621554004e+001
 2.025016068460483e+000	 6.441544244111701e-001	 1.251901110496087e+001
 2.018614215025054e+000	 6.639440118769794e-001	 1.255029018904752e+001
 2.012003335039101e+000	 6.837160081483684e-001	 1.257457869175110e+001
 2.005182985080521e+000	 7.034672674333340e-001	 1.259224185226505e+001
 1.998152781853688e+000	 7.231946213697519e-001	 1.260366502250517e+001
 1.990912403070590e+000	 7.428948803903411e-001	 1.260925346230740e+001
 1.983461588296937e+000	 7.625648351224317e-001	 1.260943209331071e+001
 1.975800139761806e+000	 7.822012578215748e-001	 1.260464521113094e+001
 2.067007760106961e+000	 5.915901619268141e-001	 1.254118875306345e+001
 2.061161761710647e+000	 6.116471140167914e-001	 1.247243735676243e+001
 2.055105979132871e+000	 6.316956660839231e-001	 1.243747149639057e+001
 2.048839786913839e+000	 6.517327117545553e-001	 1.247518824972629e+001
 2.042362617555685e+000	 6.717551178963842e-001	 1.250557545825321e+001
 2.035673962511146e+000	 6.917597258886344e-001	 1.252900049161966e+001
 2.028773373141388e+000	 7.117433529299845e-001	 1.254585170244741e+001
 2.021660461641427e+000	 7.317027933834631e-001	 1.255653824679715e+001
 2.014334901931626e+000	 7.516348201574681e-001	 1.256148986220335e+001
 2.006796430513763e+000	 7.715361861220047e-001	 1.256115660278221e+001
 1.999044847290198e+000	 7.914036255591603e-001	 1.255600853101808e+001
 2.091042734063091e+000	 5.984691172955039e-001	 1.247637887833673e+001
 2.085128758941291e+000	 6.187592897584642e-001	 1.239341317443479e+001
 2.079002560287087e+000	 6.390409645239521e-001	 1.239701347428704e+001
 2.072663505367901e+000	 6.593109990976906e-001	 1.243409768179314e+001
 2.066111020087052e+000	 6.795662239156050e-001	 1.246384928824626e+001
 2.059344589983939e+000	 6.998034436287718e-001	 1.248665811347688e+001
 2.052363761202996e+000	 7.200194384265526e-001	 1.250293568201581e+001
 2.045168141429878e+000	 7.402109653971277e-001	 1.251311502806940e+001
 2.037757400793325e+000	 7.603747599245742e-001	 1.251765045642861e+001
 2.030131272731183e+000	 7.805075371215725e-001	 1.251701725880990e+001
 2.022289554819095e+000	 8.006059932967460e-001	 1.251171138523143e+001
 2.115077708019714e+000	 6.053480726636871e-001	 1.240428304621602e+001
 2.109095756172518e+000	 6.258714654997258e-001	 1.231429659720625e+001
 2.102899141441959e+000	 6.463862629636555e-001	 1.235873190681995e+001
 2.096487223822670e+000	 6.668892864405760e-001	 1.239543261569791e+001
 2.089859422619158e+000	 6.873773299346419e-001	 1.242478843794332e+001
 2.083015217457481e+000	 7.078471613687812e-001	 1.244721169517918e+001
 2.075954149265344e+000	 7.282955239230385e-001	 1.246313715121402e+001
 2.068675821219042e+000	 7.487191374107457e-001	 1.247302180158888e+001
 2.061179899655688e+000	 7.691146996916595e-001	 1.247734461739264e+001
 2.053466114949198e+000	 7.894788881211350e-001	 1.247660624283795e+001
 2.045534262348497e+000	 8.098083610343312e-001	 1.247132864619860e+001
 2.139112681976832e+000	 6.122270280313643e-001	 1.232523307366111e+001
 2.133062753404329e+000	 6.329836412405763e-001	 1.227802178813280e+001
 2.126795722597485e+000	 6.537315614030334e-001	 1.232235047334341e+001
 2.120310942278145e+000	 6.744675737832115e-001	 1.235890107376259e+001
 2.113607825152002e+000	 6.951884359534946e-001	 1.238808509796722e+001
 2.106685844931774e+000	 7.158908791086626e-001	 1.241033742928671e+001
 2.099544537328435e+000	 7.365716094194423e-001	 1.242611614678198e+001
 2.092183501008918e+000	 7.572273094243178e-001	 1.243590229942145e+001
 2.084602398518716e+000	 7.778546394587245e-001	 1.244019963283023e+001
 2.076800957167808e+000	 7.984502391206924e-001	 1.243953426809769e+001
 2.068778969878404e+000	 8.190107287719171e-001	 1.243445433224114e+001
 2.163147655934445e+000	 6.191059833985354e-001	 1.223957299238510e+001
 2.157029750636725e+000	 6.400958169810158e-001	 1.224315623371222e+001
 2.150692303753667e+000	 6.610768598420859e-001	 1.228760624847613e+001
 2.144134660734327e+000	 6.820458611255974e-001	 1.232422506343981e+001
 2.137356227685584e+000	 7.029995419721637e-001	 1.235344603332989e+001
 2.130356472406817e+000	 7.239345968484161e-001	 1.237572667113553e+001
 2.123134925392267e+000	 7.448476949157644e-001	 1.239154845548389e+001
 2.115691180799508e+000	 7.657354814378435e-001	 1.240141658949864e+001
 2.108024897382408e+000	 7.865945792257689e-001	 1.240585971050565e+001
 2.100135799387014e+000	 8.074215901202450e-001	 1.240542955006368e+001
 2.092023677408817e+000	 8.282130965095027e-001	 1.240070054391400e+001
 1.859576602127425e+000	 7.361894191336469e-001	 1.291495183899527e+001
 1.852167457058817e+000	 7.546361447941515e-001	 1.289534183130053e+001
 1.844559875975171e+000	 7.730451888174859e-001	 1.288034052615656e+001
 1.836753853879596e+000	 7.914134698526777e-001	 1.287013014425298e+001
 1.828749447430661e+000	 8.097378949529318e-001	 1.286488191631313e+001
 1.820546775513088e+000	 8.280153610683620e-001	 1.286475547371980e+001
 1.812146019766516e+000	 8.462427565638450e-001	 1.286989825173758e+001
 1.803547425071165e+000	 8.644169627606547e-001	 1.288044490707208e+001
 1.794751299989325e+000	 8.825348555005110e-001	 1.289651675150420e+001
 1.785758017161617e+000	 9.005933067305992e-001	 1.291822120332778e+001
 1.776568013657048e+000	 9.185891861080785e-001	 1.294565125830563e+001
 1.882821309653291e+000	 7.453917868712325e-001	 1.285182611592404e+001
 1.875319550272018e+000	 7.640690966028914e-001	 1.283716705722453e+001
 1.867616874425373e+000	 7.827082536768358e-001	 1.282468238450941e+001
 1.859713277054009e+000	 8.013061382252066e-001	 1.281830138470505e+001
 1.851608815524723e+000	 8.198596186393719e-001	 1.281834953017618e+001
 1.843303610208294e+000	 8.383655530813226e-001	 1.282498535686116e+001
 1.834797845014858e+000	 8.568207910204950e-001	 1.283835363753190e+001
 1.826091767885635e+000	 8.752221747946792e-001	 1.285858477271290e+001
 1.817185691239944e+000	 8.935665411936157e-001	 1.288579419963105e+001
 1.808079992376415e+000	 9.118507230638301e-001	 1.292008182101566e+001
 1.798775113827414e+000	 9.300715509331942e-001	 1.296153145555105e+001
 1.906066017179662e+000	 7.545941546088181e-001	 1.278115543764658e+001
 1.898471643485632e+000	 7.735020484116312e-001	 1.276497331229326e+001
 1.890673872875920e+000	 7.923713185361859e-001	 1.275519143161995e+001
 1.882672700228714e+000	 8.111988065977350e-001	 1.275225477957116e+001
 1.874468183619045e+000	 8.299813423258119e-001	 1.275663310375815e+001
 1.866060444903750e+000	 8.487157450942829e-001	 1.276912557802058e+001
 1.857449670263458e+000	 8.673988254771451e-001	 1.278980779404963e+001
 1.848636110700393e+000	 8.860273868287037e-001	 1.281880647698356e+001
 1.839620082490902e+000	 9.045982268867205e-001	 1.285623176936081e+001
 1.830401967591619e+000	 9.231081393970605e-001	 1.290217663647145e+001
 1.820982213998275e+000	 9.415539157583098e-001	 1.295671629549602e+001
 1.929310724706539e+000	 7.637965223464036e-001	 1.271674033429828e+001
 1.921623736699662e+000	 7.829350002203711e-001	 1.269829346646151e+001
 1.913730871326810e+000	 8.020343833955359e-001	 1.268721877706239e+001
 1.905632123403714e+000	 8.210914749702638e-001	 1.268396726518742e+001
 1.897327551713629e+000	 8.401030660122524e-001	 1.268899674214763e+001
 1.888817279599456e+000	 8.590659371072436e-001	 1.270277126994566e+001
 1.880101495512317e+000	 8.779768599337953e-001	 1.272576057203532e+001
 1.871180453515440e+000	 8.968325988627283e-001	 1.276020660500451e+001
 1.862054473742195e+000	 9.156299125798255e-001	 1.280694468044435e+001
 1.852723942807229e+000	 9.343655557302910e-001	 1.286364058958255e+001
 1.843189314169633e+000	 9.530362805834256e-001	 1.293036152197987e+001
 1.952555432233920e+000	 7.729988900839893e-001	 1.265806683867313e+001
 1.944775829914107e+000	 7.923679520291109e-001	 1.263662948372349e+001
 1.936787869778046e+000	 8.116974482548862e-001	 1.262350829566602e+001
 1.928591546579006e+000	 8.309841433427924e-001	 1.261916075414193e+001
 1.920186919808475e+000	 8.502247896986922e-001	 1.262405066732758e+001
 1.911574114295413e+000	 8.694161291202041e-001	 1.263864759162771e+001
 1.902753320761436e+000	 8.885548943904453e-001	 1.266342622362426e+001
 1.893724796330773e+000	 9.076378108967529e-001	 1.269886576498129e+001
 1.884488864993826e+000	 9.266615982729306e-001	 1.274544926110029e+001
 1.875045918023246e+000	 9.456229720635218e-001	 1.280366291441394e+001
 1.865396414341487e+000	 9.645186454085410e-001	 1.288163694203073e+001
 1.975800139761806e+000	 7.822012578215748e-001	 1.260464521113094e+001
 1.967927923128965e+000	 8.018009038378509e-001	 1.257950662656014e+001
 1.959844868229625e+000	 8.213605131142362e-001	 1.256360086861541e+001
 1.951550969754590e+000	 8.408768117153210e-001	 1.255739236300324e+001
 1.943046287903584e+000	 8.603465133851326e-001	 1.256135140955211e+001
 1.934330948991620e+000	 8.797663211331644e-001	 1.257595358284700e+001
 1.925405146010814e+000	 8.991329288470956e-001	 1.260167910503323e+001
 1.916269139146394e+000	 9.184430229307773e-001	 1.263901219152561e+001
 1.906923256245794e+000	 9.376932839660355e-001	 1.268844037045383e+001
 1.897367893239668e+000	 9.568803883967523e-001	 1.275045377677108e+001
 1.887603514513837e+000	 9.760010102336569e-001	 1.282554442204648e+001
 1.999044847290198e+000	 7.914036255591603e-001	 1.255600853101808e+001
 1.991080016344239e+000	 8.112338556465905e-001	 1.252647210137611e+001
 1.982901866681548e+000	 8.310235779735863e-001	 1.250705840971910e+001
 1.974510392930468e+000	 8.507694800878497e-001	 1.249823929362461e+001
 1.965905655998953e+000	 8.704682370715726e-001	 1.250049203939858e+001
 1.957087783688078e+000	 8.901165131461248e-001	 1.251429876336138e+001
 1.948056971260451e+000	 9.097109633037456e-001	 1.254014576516764e+001
 1.938813481962304e+000	 9.292482349648019e-001	 1.257852285393034e+001
 1.929357647498099e+000	 9.487249696591404e-001	 1.262992264801829e+001
 1.919689868456498e+000	 9.681378047299827e-001	 1.269483984949145e+001
 1.909810614686682e+000	 9.874833750587725e-001	 1.277377049423629e+001
 2.022289554819095e+000	 8.006059932967460e-001	 1.251171138523143e+001
 2.014232109559929e+000	 8.206668074553304e-001	 1.247709379735451e+001
 2.005958865133816e+000	 8.406866428329364e-001	 1.245346265663826e+001
 1.997469816106639e+000	 8.606621484603785e-001	 1.244129767881738e+001
 1.988765024094585e+000	 8.805899607580128e-001	 1.244108363174759e+001
 1.979844618384786e+000	 9.004667051590853e-001	 1.245330969704824e+001
 1.970708796510346e+000	 9.202889977603954e-001	 1.247846880359338e+001
 1.961357824778502e+000	 9.400534469988263e-001	 1.251705693365752e+001
 1.951792038750740e+000	 9.597566553522452e-001	 1.256957240262141e+001
 1.942011843673734e+000	 9.793952210632133e-001	 1.263651511324187e+001
 1.932017714860024e+000	 9.989657398838882e-001	 1.271838578558837e+001
 2.045534262348497e+000	 8.098083610343312e-001	 1.247132864619860e+001
 2.037384202776032e+000	 8.300997592640702e-001	 1.243095911129925e+001
 2.029015863586428e+000	 8.503497076922865e-001	 1.240241404453127e+001
 2.020429239283104e+000	 8.705548168329071e-001	 1.238618150672825e+001
 2.011624392190479e+000	 8.907116844444528e-001	 1.238275424281136e+001
 2.002601453081745e+000	 9.108168971720461e-001	 1.239262902348853e+001
 1.993360621760502e+000	 9.308670322170456e-001	 1.241630595856752e+001
 1.983902167594988e+000	 9.508586590328508e-001	 1.245428778272428e+001
 1.974226430003719e+000	 9.707883410453503e-001	 1.250707911466909e+001
 1.964333818891376e+000	 9.906526373964438e-001	 1.257518569075359e+001
 1.954224815033862e+000	 1.010448104709004e+000	 1.265911357416216e+001
 2.068778969878404e+000	 8.190107287719171e-001	 1.243445433224114e+001
 2.060536295992551e+000	 8.395327110728100e-001	 1.238767385170114e+001
 2.052072862039382e+000	 8.600127725516363e-001	 1.235353065563263e+001
 2.043388662459861e+000	 8.804474852054359e-001	 1.233252161773057e+001
 2.034483760286634e+000	 9.008334081308931e-001	 1.232514795612620e+001
 2.025358287778955e+000	 9.211670891850063e-001	 1.233191455483745e+001
 2.016012447010916e+000	 9.414450666736958e-001	 1.235332925654996e+001
 2.006446510411762e+000	 9.616638710668756e-001	 1.238990212760429e+001
 1.996660821257034e+000	 9.818200267384549e-001	 1.244214469616928e+001
 1.986655794109423e+000	 1.001910053729674e+000	 1.251056916468409e+001
 1.976431915208197e+000	 1.021930469534119e+000	 1.259568759775354e+001
 2.092023677408817e+000	 8.282130965095027e-001	 1.240070054391400e+001
 2.083688389209485e+000	 8.489656628815500e-001	 1.234686121586651e+001
 2.075129860492684e+000	 8.696758374109872e-001	 1.230644723885980e+001
 2.066348085636912e+000	 8.903401535779647e-001	 1.227996476818966e+001
 2.057343128383052e+000	 9.109551318173336e-001	 1.226792399214567e+001
 2.048115122476415e+000	 9.315172811979672e-001	 1.227083843290357e+001
 2.038664272261591e+000	 9.520231011303464e-001	 1.228922421841448e+001
 2.028990853228824e+000	 9.724690831009004e-001	 1.232359932620243e+001
 2.019095212510688e+000	 9.928517124315603e-001	 1.237448280008722e+001
 2.008977769327879e+000	 1.013167470062905e+000	 1.244239394095428e+001
 1.998639015383027e+000	 1.033412834359236e+000	 1.252785147279826e+001
 1.776568013657048e+000	 9.185891861080785e-001	 1.294565125830563e+001
 1.767181791275910e+000	 9.365193626221506e-001	 1.293864652343239e+001
 1.757599916804693e+000	 9.543807062332065e-001	 1.292487416242230e+001
 1.747823022222099e+000	 9.721700895268440e-001	 1.290364499274406e+001
 1.737851804855421e+000	 9.898843893801800e-001	 1.287425908209996e+001
 1.727687027486658e+000	 1.007520488639881e+000	 1.283600616897073e+001
 1.717329518407680e+000	 1.025075277809822e+000	 1.278816611294619e+001
 1.706780171423915e+000	 1.042545656746593e+000	 1.273000937490879e+001
 1.696039945806038e+000	 1.059928536361033e+000	 1.266079752705978e+001
 1.685109866189261e+000	 1.077220840323977e+000	 1.257978379269330e+001
 1.673991022419878e+000	 1.094419506774317e+000	 1.248621361554078e+001
 1.798775113827414e+000	 9.300715509331942e-001	 1.296153145555105e+001
 1.789271563665848e+000	 9.482258546533824e-001	 1.294353624192813e+001
 1.779569915763154e+000	 9.663104650593969e-001	 1.292037881703596e+001
 1.769670809997764e+000	 9.843222156441563e-001	 1.289143687622479e+001
 1.759574952413566e+000	 1.002257944245742e+000	 1.285607619117600e+001
 1.749283115327332e+000	 1.020114494746404e+000	 1.281365094347711e+001
 1.738796137384582e+000	 1.037888718781318e+000	 1.276350408909495e+001
 1.728114923563311e+000	 1.055577477455279e+000	 1.270496775398800e+001
 1.717240445125080e+000	 1.073177643065515e+000	 1.263736366101770e+001
 1.706173739513039e+000	 1.090686100828744e+000	 1.256000358823420e+001
 1.694915910196563e+000	 1.108099750610596e+000	 1.247218985852707e+001
 1.820982213998275e+000	 9.415539157583098e-001	 1.295671629549602e+001
 1.811361336056378e+000	 9.599323466846091e-001	 1.293012340992680e+001
 1.801539914722290e+000	 9.782402238855674e-001	 1.289997117415984e+001
 1.791518597774181e+000	 9.964743417614238e-001	 1.286570317276311e+001
 1.781298099972527e+000	 1.014631499111225e+000	 1.282674987733414e+001
 1.770879203168879e+000	 1.032708500852804e+000	 1.278252889361703e+001
 1.760262756362402e+000	 1.050702159752635e+000	 1.273244524066528e+001
 1.749449675703662e+000	 1.068609298163722e+000	 1.267589166246419e+001
 1.738440944445101e+000	 1.086426749769679e+000	 1.261224897234327e+001
 1.727237612837812e+000	 1.104151361333108e+000	 1.254088643042510e+001
 1.715840797974247e+000	 1.121779994446377e+000	 1.246116215426680e+001
 1.843189314169633e+000	 9.530362805834256e-001	 1.293036152197987e+001
 1.833451108447498e+000	 9.716388387158305e-001	 1.289746546059360e+001
 1.823509913682104e+000	 9.901699827117182e-001	 1.286261143653401e+001
 1.813366385551350e+000	 1.008626467878648e+000	 1.282530798684765e+001
 1.803021247532308e+000	 1.027005053976629e+000	 1.278504933042008e+001
 1.792475291011298e+000	 1.045302506959080e+000	 1.274131552909451e+001
 1.781729375341141e+000	 1.063515600723774e+000	 1.269357268201920e+001
 1.770784427844967e+000	 1.081641118871923e+000	 1.264127315380953e+001
 1.759641443766101e+000	 1.099675856473525e+000	 1.258385583702701e+001
 1.748301486163579e+000	 1.117616621837070e+000	 1.252074644939092e+001
 1.736765685752931e+000	 1.135460238281661e+000	 1.245135786604599e+001
 1.865396414341487e+000	 9.645186454085410e-001	 1.288163694203073e+001
 1.855540880839211e+000	 9.833453307470476e-001	 1.284463823123973e+001
 1.845479912642593e+000	 1.002099741537849e+000	 1.280728251446414e+001
 1.835214173329270e+000	 1.020778593995827e+000	 1.276914239423820e+001
 1.824744395092904e+000	 1.039378608841954e+000	 1.272977493337566e+001
 1.814071378854591e+000	 1.057896513065233e+000	 1.268872173049958e+001
 1.803195994320799e+000	 1.076329041694735e+000	 1.264550903001896e+001
 1.792119179987226e+000	 1.094672939579881e+000	 1.259964786731092e+001
 1.780841943088082e+000	 1.112924963177054e+000	 1.255063424978206e+001
 1.769365359490342e+000	 1.131081882340630e+000	 1.249794937439430e+001
 1.757690573532616e+000	 1.149140482116448e+000	 1.244105988214629e+001
 1.887603514513837e+000	 9.760010102336569e-001	 1.282554442204648e+001
 1.877630653231514e+000	 9.950518227782595e-001	 1.277386945644762e+001
 1.867449911603760e+000	 1.014029500363961e+000	 1.273298869008238e+001
 1.857061961107944e+000	 1.032930720112961e+000	 1.269612285542039e+001
 1.846467542654319e+000	 1.051752163707200e+000	 1.265975642735090e+001
 1.835667466698757e+000	 1.070490519171262e+000	 1.262349166866788e+001
 1.824662613301375e+000	 1.089142482665518e+000	 1.258691408035066e+001
 1.813453932130439e+000	 1.107704760287595e+000	 1.254959246419840e+001
 1.802042442411042e+000	 1.126174069880265e+000	 1.251107902294268e+001
 1.790429232818099e+000	 1.144547142843787e+000	 1.247090949859224e+001
 1.778615461313300e+000	 1.162820725950737e+000	 1.242860334966881e+001
 1.909810614686682e+000	 9.874833750587725e-001	 1.277377049423629e+001
 1.899720425624409e+000	 1.006758314809467e+000	 1.271592030424770e+001
 1.889419910565603e+000	 1.025959259190053e+000	 1.266159615982547e+001
 1.878909748887369e+000	 1.045082846230052e+000	 1.261102206296291e+001
 1.868190690216551e+000	 1.064125718572367e+000	 1.257385120483129e+001
 1.857263554543797e+000	 1.083084525277168e+000	 1.254440086920127e+001
 1.846129232282870e+000	 1.101955923636123e+000	 1.251648264596459e+001
 1.834788684274606e+000	 1.120736580995068e+000	 1.248972224264844e+001
 1.823242941734981e+000	 1.139423176583158e+000	 1.246372718078871e+001
 1.811493106146852e+000	 1.158012403346542e+000	 1.243808685555362e+001
 1.799540349094984e+000	 1.176500969784529e+000	 1.241237263623062e+001
 1.932017714860024e+000	 9.989657398838882e-001	 1.271838578558837e+001
 1.921810198017894e+000	 1.018464806840669e+000	 1.265621782513368e+001
 1.911389909528122e+000	 1.037889018016125e+000	 1.259869023620563e+001
 1.900757536667546e+000	 1.057234972347098e+000	 1.254610265409858e+001
 1.889913837779600e+000	 1.076499273437455e+000	 1.249876142898756e+001
 1.878859642389709e+000	 1.095678531382949e+000	 1.245697905850323e+001
 1.867595851265284e+000	 1.114769364606549e+000	 1.243294254458883e+001
 1.856123436419727e+000	 1.133768401702297e+000	 1.241868891726968e+001
 1.844443441059901e+000	 1.152672283285734e+000	 1.240715553357155e+001
 1.832556979476599e+000	 1.171477663848894e+000	 1.239798459050007e+001
 1.820465236877668e+000	 1.190181213617824e+000	 1.239079850119927e+001
 1.954224815033862e+000	 1.010448104709004e+000	 1.265911357416216e+001
 1.943899970411971e+000	 1.030171298871866e+000	 1.259440824524556e+001
 1.933359908491318e+000	 1.049818776842177e+000	 1.253543778378853e+001
 1.922605324448474e+000	 1.069387098464099e+000	 1.248257693934516e+001
 1.911636985343467e+000	 1.088872828302464e+000	 1.243620708879222e+001
 1.900455730236494e+000	 1.108272537488608e+000	 1.239671557821546e+001
 1.889062470248617e+000	 1.127582805576798e+000	 1.236449503872009e+001
 1.877458188565803e+000	 1.146800222409283e+000	 1.233994267744614e+001
 1.865643940385800e+000	 1.165921389987992e+000	 1.233997841694763e+001
 1.853620852807341e+000	 1.184942924350843e+000	 1.234914651078011e+001
 1.841390124661353e+000	 1.203861457450621e+000	 1.236235545979802e+001
 1.976431915208197e+000	 1.021930469534119e+000	 1.259568759775354e+001
 1.965989742806639e+000	 1.041877790903058e+000	 1.253015147912051e+001
 1.955329907455190e+000	 1.061748535668210e+000	 1.247142537811545e+001
 1.944453112230155e+000	 1.081539224581056e+000	 1.241995868040561e+001
 1.933360132908152e+000	 1.101246383167394e+000	 1.237620732702501e+001
 1.922051818084153e+000	 1.120866543594143e+000	 1.234063306579211e+001
 1.910529089232867e+000	 1.140396246546868e+000	 1.231370267549814e+001
 1.898792940712833e+000	 1.159832043116027e+000	 1.229588716430153e+001
 1.886844439712678e+000	 1.179170496689933e+000	 1.228766094386386e+001
 1.874684726139078e+000	 1.198408184852391e+000	 1.229015480147997e+001
 1.862315012446037e+000	 1.217541701282921e+000	 1.232555932491151e+001
 1.998639015383027e+000	 1.033412834359236e+000	 1.252785147279826e+001
 1.988079515201900e+000	 1.053584282934246e+000	 1.246312036922640e+001
 1.977299906419740e+000	 1.073678294494223e+000	 1.240625554558110e+001
 1.966300900012589e+000	 1.093691350697970e+000	 1.235778058486187e+001
 1.955083280473655e+000	 1.113619938032245e+000	 1.231822556911170e+001
 1.943647905932685e+000	 1.133460549699554e+000	 1.228812624054756e+001
 1.931995708218038e+000	 1.153209687516760e+000	 1.226802313428133e+001
 1.920127692860818e+000	 1.172863863822527e+000	 1.225846068422077e+001
 1.908044939040537e+000	 1.192419603391557e+000	 1.225998630384545e+001
 1.895748599471811e+000	 1.211873445353536e+000	 1.227314944365428e+001
 1.883239900231722e+000	 1.231221945114724e+000	 1.229850062717796e+001
 1.673991022419878e+000	 1.094419506774317e+000	 1.248621361554078e+001
 1.662684569349107e+000	 1.111521490027895e+000	 1.248865316694370e+001
 1.651191726573076e+000	 1.128523762284198e+000	 1.249332974208403e+001
 1.639513778119492e+000	 1.145423315329686e+000	 1.250024671898581e+001
 1.627652072081567e+000	 1.162217162236540e+000	 1.250939037385287e+001
 1.615608020198319e+000	 1.178902339053813e+000	 1.252072969004080e+001
 1.603383097381649e+000	 1.195475906489392e+000	 1.253421620449236e+001
 1.590978841190437e+000	 1.211934951580843e+000	 1.254978389241586e+001
 1.578396851251905e+000	 1.228276589353182e+000	 1.256734909088361e+001
 1.565638788630636e+000	 1.244497964461667e+000	 1.258681046191803e+001
 1.552706375145675e+000	 1.260596252817663e+000	 1.235015204841304e+001
 1.694915910196563e+000	 1.108099750610596e+000	 1.247218985852707e+001
 1.683468126462488e+000	 1.125415508655709e+000	 1.251001607378746e+001
 1.671831623151878e+000	 1.142630309315913e+000	 1.255031152106634e+001
 1.660007700342781e+000	 1.159741106774995e+000	 1.259304279812450e+001
 1.647997722979581e+000	 1.176744876768540e+000	 1.263815876895638e+001
 1.635803120448028e+000	 1.193638618296214e+000	 1.268559040296963e+001
 1.623425386096425e+000	 1.210419355324751e+000	 1.273525065313744e+001
 1.610866076703136e+000	 1.227084138479686e+000	 1.278703437387083e+001
 1.598126811890725e+000	 1.243630046723849e+000	 1.284081827925087e+001
 1.585209273487081e+000	 1.260054189020686e+000	 1.265237583938148e+001
 1.572115204833990e+000	 1.276353705980456e+000	 1.231245390771774e+001
 1.715840797974247e+000	 1.121779994446377e+000	 1.246116215426680e+001
 1.704251683576865e+000	 1.139309527282935e+000	 1.253329357871377e+001
 1.692471519731658e+000	 1.156736856346968e+000	 1.260815832060851e+001
 1.680501622567026e+000	 1.174058898219595e+000	 1.268568681262222e+001
 1.668343373878515e+000	 1.191272591299802e+000	 1.276579109093340e+001
 1.655998220698613e+000	 1.208374897537865e+000	 1.284836466382817e+001
 1.643467674812022e+000	 1.225362804159370e+000	 1.293328242083100e+001
 1.630753312216592e+000	 1.242233325377819e+000	 1.302040058308361e+001
 1.617856772530227e+000	 1.258983504093854e+000	 1.289285578547482e+001
 1.604779758344124e+000	 1.275610413579115e+000	 1.258033645486779e+001
 1.591524034522806e+000	 1.292111159142748e+000	 1.226992837321803e+001
 1.736765685752931e+000	 1.135460238281661e+000	 1.245135786604599e+001
 1.725035240692236e+000	 1.153203545909574e+000	 1.255675078576202e+001
 1.713111416312420e+000	 1.170843403377367e+000	 1.266517293235866e+001
 1.700995544792228e+000	 1.188376689663487e+000	 1.277651917076379e+001
 1.688689024778370e+000	 1.205800305830324e+000	 1.289066527571390e+001
 1.676193320950074e+000	 1.223111176778767e+000	 1.300746782900125e+001
 1.663509963528440e+000	 1.240306252993249e+000	 1.312676415885955e+001
 1.650640547730804e+000	 1.257382512275241e+000	 1.307213083525796e+001
 1.637586733170410e+000	 1.274336961463199e+000	 1.278787285609876e+001
 1.624350243201763e+000	 1.291166638136952e+000	 1.250456016580945e+001
 1.610932864212123e+000	 1.307868612304539e+000	 1.222276595160112e+001
 1.757690573532616e+000	 1.149140482116448e+000	 1.244105988214629e+001
 1.745818797808603e+000	 1.167097564535626e+000	 1.257870633694131e+001
 1.733751312894162e+000	 1.184949950407107e+000	 1.271970971764934e+001
 1.721489467018384e+000	 1.202694481106671e+000	 1.286392990196576e+001
 1.709034675679145e+000	 1.220328020360107e+000	 1.301120695252297e+001
 1.696388421202410e+000	 1.237847456018919e+000	 1.316136104202368e+001
 1.683552252245678e+000	 1.255249701826387e+000	 1.319067642070386e+001
 1.670527783245771e+000	 1.272531699171952e+000	 1.293554116947899e+001
 1.657316693811274e+000	 1.289690418831883e+000	 1.268021467998434e+001
 1.643920728059998e+000	 1.306722862694198e+000	 1.242524430626092e+001
 1.630341693901942e+000	 1.323626065465828e+000	 1.217119376471795e+001
 1.778615461313300e+000	 1.162820725950737e+000	 1.242860334966881e+001
 1.766602354925964e+000	 1.180991583161090e+000	 1.259752926293838e+001
 1.754391209476883e+000	 1.199056497436190e+000	 1.277017157398675e+001
 1.741983389245496e+000	 1.217012272549147e+000	 1.294635573788618e+001
 1.729380326580841e+000	 1.234855734889153e+000	 1.312588663839306e+001
 1.716583521455622e+000	 1.252583735258322e+000	 1.324889712896533e+001
 1.703594540963738e+000	 1.270193150658786e+000	 1.302375098158712e+001
 1.690415018761495e+000	 1.287680886067954e+000	 1.279730754066195e+001
 1.677046654452819e+000	 1.305043876199906e+000	 1.257008550381449e+001
 1.663491212918830e+000	 1.322279087250852e+000	 1.234262235014585e+001
 1.649750523592262e+000	 1.339383518626616e+000	 1.211547339575022e+001
 1.799540349094984e+000	 1.176500969784529e+000	 1.241237263623062e+001
 1.787385912044321e+000	 1.194885601785967e+000	 1.261163605354304e+001
 1.775031106060586e+000	 1.213163044464615e+000	 1.281500711318015e+001
 1.762477311473562e+000	 1.231330063990914e+000	 1.302227739717801e+001
 1.749725977483457e+000	 1.249383449417458e+000	 1.323321712840758e+001
 1.736778621709710e+000	 1.267320014496975e+000	 1.305283622323897e+001
 1.723636829682618e+000	 1.285136599490444e+000	 1.285618091003282e+001
 1.710302254277975e+000	 1.302830072963244e+000	 1.265764112820019e+001
 1.696776615095046e+000	 1.320397333567267e+000	 1.245772521733570e+001
 1.683061697778257e+000	 1.337835311806915e+000	 1.225696181010190e+001
 1.669159353283084e+000	 1.355140971786903e+000	 1.205589888564467e+001
 1.820465236877668e+000	 1.190181213617824e+000	 1.239079850119927e+001
 1.808169469163672e+000	 1.208779620410255e+000	 1.261948793011371e+001
 1.795671002645268e+000	 1.227269591492382e+000	 1.285270803408299e+001
 1.782971233702584e+000	 1.245647855431973e+000	 1.309021705750092e+001
 1.770071628386993e+000	 1.263911163945025e+000	 1.302304852312914e+001
 1.756973721964674e+000	 1.282056293734879e+000	 1.285709645377282e+001
 1.743679118402319e+000	 1.300080048321363e+000	 1.268818427771459e+001
 1.730189489795211e+000	 1.317979259857824e+000	 1.251678823953445e+001
 1.716506575737954e+000	 1.335750790933969e+000	 1.234340730490594e+001
 1.702632182638282e+000	 1.353391536362387e+000	 1.216856228123285e+001
 1.688568182974407e+000	 1.370898424946689e+000	 1.199279486772437e+001
 1.841390124661353e+000	 1.203861457450621e+000	 1.236235545979802e+001
 1.828953026284019e+000	 1.222673639033957e+000	 1.261958830401081e+001
 1.816310899230930e+000	 1.241376138519491e+000	 1.288180667446548e+001
 1.803465155932562e+000	 1.259965646872324e+000	 1.293455111334305e+001
 1.790417279291451e+000	 1.278438878471852e+000	 1.280022885634332e+001
 1.777168822220513e+000	 1.296792572972034e+000	 1.266190268796260e+001
 1.763721407122842e+000	 1.315023497151540e+000	 1.252001375409847e+001
 1.750076725313204e+000	 1.333128446751693e+000	 1.237502831424088e+001
 1.736236536381543e+000	 1.351104248300008e+000	 1.222743693671006e+001
 1.722202667498902e+000	 1.368947760917268e+000	 1.207775361824127e+001
 1.707977012666231e+000	 1.386655878105973e+000	 1.192651482948556e+001
 1.862315012446037e+000	 1.217541701282921e+000	 1.232555932491151e+001
 1.849736583405360e+000	 1.236567657657071e+000	 1.261048040637195e+001
 1.836950795817573e+000	 1.255482685545942e+000	 1.278741329927535e+001
 1.823959078163495e+000	 1.274283438311965e+000	 1.268565989905167e+001
 1.810762930196829e+000	 1.292966592997942e+000	 1.257889241494686e+001
 1.797363922477228e+000	 1.311528852208439e+000	 1.246751384817725e+001
 1.783763695844185e+000	 1.329966945980979e+000	 1.235195466274670e+001
 1.769963960831952e+000	 1.348277633644852e+000	 1.223267206267534e+001
 1.755966497025814e+000	 1.366457705665388e+000	 1.211014918865714e+001
 1.741773152360119e+000	 1.384503985471558e+000	 1.198489423545114e+001
 1.727385842358557e+000	 1.402413331264755e+000	 1.185743949157662e+001
 1.883239900231722e+000	 1.231221945114724e+000	 1.229850062717796e+001
 1.870520140527698e+000	 1.250461676279598e+000	 1.258160550495863e+001
 1.857590692405196e+000	 1.269589232571736e+000	 1.251337311306712e+001
 1.844453000395384e+000	 1.288601229750900e+000	 1.243915209168052e+001
 1.831108581103128e+000	 1.307494307523293e+000	 1.235930421548950e+001
 1.817559022734820e+000	 1.326265131444095e+000	 1.227422101981593e+001
 1.803805984566350e+000	 1.344910394809678e+000	 1.218432316720126e+001
 1.789851196351457e+000	 1.363426820537300e+000	 1.209005972870779e+001
 1.775696457670766e+000	 1.381811163030106e+000	 1.199190738095141e+001
 1.761343637221933e+000	 1.400060210025257e+000	 1.189036952016212e+001
 1.746794672051384e+000	 1.418170784423037e+000	 1.178597529484532e+001
 1.552706375145675e+000	 1.260596252817663e+000	 1.235015204841304e+001
 1.539601392635642e+000	 1.276568663195416e+000	 1.227017129020241e+001
 1.526325682174240e+000	 1.292412438818711e+000	 1.218646790794906e+001
 1.512881143235718e+000	 1.308124858924892e+000	 1.209935282421185e+001
 1.499269732809776e+000	 1.323703240303929e+000	 1.200914938581318e+001
 1.485493464468560e+000	 1.339144938811550e+000	 1.191619253085177e+001
 1.471554407386076e+000	 1.354447350854373e+000	 1.182082791371419e+001
 1.457454685310996e+000	 1.369607914845310e+000	 1.172341099027709e+001
 1.443196475493934e+000	 1.384624112627510e+000	 1.162430606563781e+001
 1.428782007570309e+000	 1.399493470865234e+000	 1.152388530684790e+001
 1.414213562400000e+000	 1.414213562400000e+000	 1.142252772325463e+001
 1.572115204833990e+000	 1.276353705980456e+000	 1.231245390771774e+001
 1.558846410042997e+000	 1.292525771487219e+000	 1.225115624804515e+001
 1.545404753201173e+000	 1.308567594305194e+000	 1.218539940564807e+001
 1.531792157526195e+000	 1.324476419662191e+000	 1.211545963229724e+001
 1.518010604470134e+000	 1.340249530808056e+000	 1.204162705217325e+001
 1.504062132774790e+000	 1.355884250546714e+000	 1.196420484750695e+001
 1.489948837478840e+000	 1.371377942739865e+000	 1.188350839926343e+001
 1.475672868877818e+000	 1.386728013780583e+000	 1.179986438505735e+001
 1.461236431437968e+000	 1.401931914035057e+000	 1.171360983664332e+001
 1.446641782665152e+000	 1.416987139250850e+000	 1.162509115946997e+001
 1.431891231930000e+000	 1.431891231930000e+000	 1.153466311692435e+001
 1.591524034522806e+000	 1.292111159142748e+000	 1.226992837321803e+001
 1.578091427450757e+000	 1.308482879778616e+000	 1.222546043556083e+001
 1.564483824228427e+000	 1.324722749791355e+000	 1.217579783760006e+001
 1.550703171816918e+000	 1.340827980399244e+000	 1.212118378607011e+001
 1.536751476130674e+000	 1.356795821312003e+000	 1.206187683240520e+001
 1.522630801081145e+000	 1.372623562281752e+000	 1.199815007498303e+001
 1.508343267571685e+000	 1.388308534625278e+000	 1.193029031339341e+001
 1.493891052444684e+000	 1.403848112715812e+000	 1.185859715692188e+001
 1.479276387382022e+000	 1.419239715442584e+000	 1.178338208960114e+001
 1.464501557760002e+000	 1.434480807636461e+000	 1.170496749433728e+001
 1.449568901460000e+000	 1.449568901460000e+000	 1.162368563876416e+001
 1.610932864212123e+000	 1.307868612304539e+000	 1.222276595160112e+001
 1.597336444858925e+000	 1.324439988069607e+000	 1.219333798373720e+001
 1.583562895256001e+000	 1.340877905277195e+000	 1.215797968825445e+001
 1.569614186107887e+000	 1.357179541136051e+000	 1.211690282990477e+001
 1.555492347791394e+000	 1.373342111815769e+000	 1.207033601563948e+001
 1.541199469387625e+000	 1.389362874016665e+000	 1.201852391144479e+001
 1.526737697664610e+000	 1.405239126510609e+000	 1.196172640812124e+001
 1.512109236011596e+000	 1.420968211650994e+000	 1.190021773820106e+001
 1.497316343326096e+000	 1.436547516850091e+000	 1.183428554637144e+001
 1.482361332854855e+000	 1.451974476022067e+000	 1.176422991593231e+001
 1.467246570990000e+000	 1.467246570990000e+000	 1.169036235397391e+001
 1.630341693901942e+000	 1.323626065465828e+000	 1.217119376471795e+001
 1.616581462267498e+000	 1.340397096360191e+000	 1.215507630015117e+001
 1.602641966283898e+000	 1.357033060762714e+000	 1.213229141232077e+001
 1.588525200399102e+000	 1.373531101872612e+000	 1.210302100598785e+001
 1.574233219452295e+000	 1.389888402319353e+000	 1.206746535186853e+001
 1.559768137694231e+000	 1.406102185751452e+000	 1.202584231606363e+001
 1.545132127757616e+000	 1.422169718395860e+000	 1.197838653528507e+001
 1.530327419578553e+000	 1.438088310586132e+000	 1.192534854008326e+001
 1.515356299270190e+000	 1.453855318257577e+000	 1.186699382845981e+001
 1.500221107949714e+000	 1.469468144407668e+000	 1.180360189242339e+001
 1.484924240520000e+000	 1.484924240520000e+000	 1.173546520020782e+001
 1.649750523592262e+000	 1.339383518626616e+000	 1.211547339575022e+001
 1.635826479676479e+000	 1.356354204650368e+000	 1.211099411152238e+001
 1.621721037312116e+000	 1.373188216247912e+000	 1.209910767181226e+001
 1.607436214690563e+000	 1.389882662608927e+000	 1.207996768385856e+001
 1.592974091113377e+000	 1.406434692822758e+000	 1.205374767189620e+001
 1.578336806000964e+000	 1.422841497486115e+000	 1.202064031719348e+001
 1.563526557850701e+000	 1.439100310281031e+000	 1.198085664067242e+001
 1.548545603145556e+000	 1.455208409521225e+000	 1.193462513032904e+001
 1.533396255214304e+000	 1.471163119665044e+000	 1.188219081586167e+001
 1.518080883044578e+000	 1.486961812793264e+000	 1.182381429309482e+001
 1.502601910049999e+000	 1.502601910049999e+000	 1.175977070095957e+001
 1.669159353283084e+000	 1.355140971786903e+000	 1.205589888564467e+001
 1.655071497085865e+000	 1.372311312940140e+000	 1.206143964283288e+001
 1.640800108340654e+000	 1.389343371732789e+000	 1.205882969608637e+001
 1.626347228982270e+000	 1.406234223344997e+000	 1.204819589951625e+001
 1.611714962774640e+000	 1.422980983325981e+000	 1.202968660356963e+001
 1.596905474307821e+000	 1.439580809220651e+000	 1.200347090369776e+001
 1.581920987943868e+000	 1.456030902166122e+000	 1.196973782832519e+001
 1.566763786712603e+000	 1.472328508456272e+000	 1.192869546835416e+001
 1.551436211158438e+000	 1.488470921072491e+000	 1.188057005063837e+001
 1.535940658139447e+000	 1.504455481178855e+000	 1.182560495804966e+001
 1.520279579580000e+000	 1.520279579580000e+000	 1.176405969894382e+001
 1.688568182974407e+000	 1.370898424946689e+000	 1.199279486772437e+001
 1.674316514495657e+000	 1.388268421229506e+000	 1.200678892202467e+001
 1.659879179369514e+000	 1.405498527217345e+000	 1.201188375498590e+001
 1.645258243274223e+000	 1.422585784080820e+000	 1.200818099527902e+001
 1.630455834436084e+000	 1.439527273829024e+000	 1.199580537654690e+001
 1.615474142614804e+000	 1.456320120955061e+000	 1.197490399273581e+001
 1.600315418037114e+000	 1.472961494051132e+000	 1.194564548937585e+001
 1.584981970279697e+000	 1.489448607391275e+000	 1.190821919306564e+001
 1.569476167102593e+000	 1.505778722479917e+000	 1.186283418162614e+001
 1.553800433234320e+000	 1.521949149564441e+000	 1.180971829758762e+001
 1.537957249110000e+000	 1.537957249110000e+000	 1.174911710786502e+001
 1.707977012666231e+000	 1.386655878105973e+000	 1.192651482948556e+001
 1.693561531905856e+000	 1.404225529518465e+000	 1.194744420028620e+001
 1.678958250398694e+000	 1.421653682701579e+000	 1.195871973608419e+001
 1.664169257566422e+000	 1.438937344816397e+000	 1.196041935237920e+001
 1.649196706097708e+000	 1.456073564331886e+000	 1.195264570855775e+001
 1.634042810921913e+000	 1.473059432689346e+000	 1.193552546792821e+001
 1.618709848130441e+000	 1.489892085936062e+000	 1.190920849028086e+001
 1.603200153846835e+000	 1.506568706326231e+000	 1.187386695925405e+001
 1.587516123046767e+000	 1.523086523887323e+000	 1.182969444700564e+001
 1.571660208329199e+000	 1.539442817950022e+000	 1.177690491889875e+001
 1.555634918639999e+000	 1.555634918639999e+000	 1.171573168111122e+001
 1.727385842358557e+000	 1.402413331264755e+000	 1.185743949157662e+001
 1.712806549316460e+000	 1.420182637807017e+000	 1.188383247883624e+001
 1.698037321428197e+000	 1.437808838185493e+000	 1.189980981784640e+001
 1.683080271858867e+000	 1.455288905551728e+000	 1.190542720900200e+001
 1.667937577759513e+000	 1.472619854834567e+000	 1.190076676674794e+001
 1.652611479229147e+000	 1.489798744423506e+000	 1.188593628236439e+001
 1.637104278223849e+000	 1.506822677820911e+000	 1.186106841578000e+001
 1.621418337414018e+000	 1.523688805261143e+000	 1.182631981872390e+001
 1.605556078990962e+000	 1.540394325294709e+000	 1.178187019175454e+001
 1.589519983424083e+000	 1.556936486335598e+000	 1.172792127792335e+001
 1.573312588170000e+000	 1.573312588170000e+000	 1.166469579604153e+001
 1.746794672051384e+000	 1.418170784423037e+000	 1.178597529484532e+001
 1.732051566727472e+000	 1.436139746095164e+000	 1.181640413392223e+001
 1.717116392458020e+000	 1.453963993669085e+000	 1.183564723124660e+001
 1.701991286151559e+000	 1.471640466286814e+000	 1.184373955712138e+001
 1.686678449421499e+000	 1.489166145337068e+000	 1.184074419826725e+001
 1.671180147536507e+000	 1.506538056157541e+000	 1.182675162141003e+001
 1.655498708317337e+000	 1.523753269705680e+000	 1.180187886232504e+001
 1.639636520981247e+000	 1.540808904196010e+000	 1.176626864268160e+001
 1.623596034935177e+000	 1.557702126702076e+000	 1.172008841726994e+001
 1.607379758518973e+000	 1.574430154721170e+000	 1.166352935442151e+001
 1.590990257700000e+000	 1.590990257700000e+000	 1.159680525265430e+001
 1.414213562400000e+000	 1.414213562400000e+000	 1.142252772325463e+001
 1.399493470865234e+000	 1.428782007570309e+000	 1.133403457942993e+001
 1.384624112627510e+000	 1.443196475493934e+000	 1.125160763760358e+001
 1.369607914845309e+000	 1.457454685310996e+000	 1.117580992049733e+001
 1.354447350854374e+000	 1.471554407386076e+000	 1.110720044218204e+001
 1.339144938811549e+000	 1.485493464468560e+000	 1.104633289800651e+001
 1.323703240303929e+000	 1.499269732809775e+000	 1.099375434914162e+001
 1.308124858924892e+000	 1.512881143235718e+000	 1.095000390523499e+001
 1.292412438818710e+000	 1.526325682174240e+000	 1.091561140869473e+001
 1.276568663195416e+000	 1.539601392635642e+000	 1.089109612413447e+001
 1.260596252817662e+000	 1.552706375145675e+000	 1.087696543651104e+001
 1.431891231930000e+000	 1.431891231930000e+000	 1.153466311692435e+001
 1.416987139250849e+000	 1.446641782665152e+000	 1.146202471115531e+001
 1.401931914035057e+000	 1.461236431437968e+000	 1.139333780646649e+001
 1.386728013780583e+000	 1.475672868877818e+000	 1.132911881382079e+001
 1.371377942739865e+000	 1.489948837478840e+000	 1.126988268021463e+001
 1.355884250546714e+000	 1.504062132774790e+000	 1.121614159502384e+001
 1.340249530808056e+000	 1.518010604470134e+000	 1.116840368689995e+001
 1.324476419662191e+000	 1.531792157526195e+000	 1.112717171474531e+001
 1.308567594305193e+000	 1.545404753201172e+000	 1.109294175633056e+001
 1.292525771487219e+000	 1.558846410042997e+000	 1.106620189813849e+001
 1.276353705980456e+000	 1.572115204833990e+000	 1.104743093002938e+001
 1.449568901460000e+000	 1.449568901460000e+000	 1.162368563876416e+001
 1.434480807636461e+000	 1.464501557760002e+000	 1.156403136360435e+001
 1.419239715442584e+000	 1.479276387382022e+000	 1.150625869447988e+001
 1.403848112715811e+000	 1.493891052444684e+000	 1.145083971323721e+001
 1.388308534625277e+000	 1.508343267571685e+000	 1.139824756634852e+001
 1.372623562281752e+000	 1.522630801081145e+000	 1.134895518480349e+001
 1.356795821312003e+000	 1.536751476130674e+000	 1.130343399049296e+001
 1.340827980399244e+000	 1.550703171816917e+000	 1.126215259265416e+001
 1.324722749791355e+000	 1.564483824228426e+000	 1.122557547798949e+001
 1.308482879778616e+000	 1.578091427450757e+000	 1.119416169810386e+001
 1.292111159142748e+000	 1.591524034522806e+000	 1.116836355792242e+001
 1.467246570990000e+000	 1.467246570990000e+000	 1.169036235397391e+001
 1.451974476022067e+000	 1.482361332854855e+000	 1.164091151817691e+001
 1.436547516850091e+000	 1.497316343326095e+000	 1.159131478800055e+001
 1.420968211650994e+000	 1.512109236011596e+000	 1.154200216867120e+001
 1.405239126510609e+000	 1.526737697664610e+000	 1.149340724431597e+001
 1.389362874016665e+000	 1.541199469387626e+000	 1.144596590854158e+001
 1.373342111815768e+000	 1.555492347791394e+000	 1.140011507745214e+001
 1.357179541136051e+000	 1.569614186107887e+000	 1.135629138872137e+001
 1.340877905277195e+000	 1.583562895256002e+000	 1.131492989038827e+001
 1.324439988069607e+000	 1.597336444858925e+000	 1.127646272308522e+001
 1.307868612304539e+000	 1.610932864212123e+000	 1.124131779943421e+001
 1.484924240520000e+000	 1.484924240520000e+000	 1.173546520020782e+001
 1.469468144407668e+000	 1.500221107949714e+000	 1.169352218408769e+001
 1.453855318257577e+000	 1.515356299270189e+000	 1.164944584999746e+001
 1.438088310586132e+000	 1.530327419578554e+000	 1.160362635116346e+001
 1.422169718395860e+000	 1.545132127757616e+000	 1.155645992138266e+001
 1.406102185751452e+000	 1.559768137694231e+000	 1.150834761344055e+001
 1.389888402319353e+000	 1.574233219452295e+000	 1.145969401591886e+001
 1.373531101872612e+000	 1.588525200399102e+000	 1.141090595205933e+001
 1.357033060762714e+000	 1.602641966283898e+000	 1.136239116441528e+001
 1.340397096360191e+000	 1.616581462267498e+000	 1.131455698907012e+001
 1.323626065465828e+000	 1.630341693901942e+000	 1.126780902323884e+001
 1.502601910049999e+000	 1.502601910049999e+000	 1.175977070095957e+001
 1.486961812793264e+000	 1.518080883044577e+000	 1.172272039673002e+001
 1.471163119665044e+000	 1.533396255214303e+000	 1.168158719789791e+001
 1.455208409521225e+000	 1.548545603145556e+000	 1.163672360456993e+001
 1.439100310281031e+000	 1.563526557850701e+000	 1.158849068813983e+001
 1.422841497486115e+000	 1.578336806000964e+000	 1.153725683470854e+001
 1.406434692822758e+000	 1.592974091113377e+000	 1.148339646284400e+001
 1.389882662608928e+000	 1.607436214690563e+000	 1.142728871940648e+001
 1.373188216247912e+000	 1.621721037312115e+000	 1.136931615723780e+001
 1.356354204650369e+000	 1.635826479676478e+000	 1.130986339857095e+001
 1.339383518626616e+000	 1.649750523592262e+000	 1.124931578806179e+001
 1.520279579580000e+000	 1.520279579580000e+000	 1.176405969894382e+001
 1.504455481178855e+000	 1.535940658139447e+000	 1.172936321615371e+001
 1.488470921072491e+000	 1.551436211158438e+000	 1.168866996204954e+001
 1.472328508456272e+000	 1.566763786712603e+000	 1.164229695877001e+001
 1.456030902166122e+000	 1.581920987943868e+000	 1.159057228110165e+001
 1.439580809220651e+000	 1.596905474307821e+000	 1.153383380207074e+001
 1.422980983325981e+000	 1.611714962774640e+000	 1.147242790882449e+001
 1.406234223344997e+000	 1.626347228982270e+000	 1.140670819259074e+001
 1.389343371732789e+000	 1.640800108340654e+000	 1.133703411658819e+001
 1.372311312940140e+000	 1.655071497085865e+000	 1.126376966582717e+001
 1.355140971786903e+000	 1.669159353283084e+000	 1.118728198279341e+001
 1.537957249110000e+000	 1.537957249110000e+000	 1.174911710786502e+001
 1.521949149564441e+000	 1.553800433234320e+000	 1.171430772564816e+001
 1.505778722479917e+000	 1.569476167102593e+000	 1.167162132635697e+001
 1.489448607391274e+000	 1.584981970279696e+000	 1.162134160748161e+001
 1.472961494051132e+000	 1.600315418037114e+000	 1.156376579270957e+001
 1.456320120955061e+000	 1.615474142614804e+000	 1.149920337686611e+001
 1.439527273829024e+000	 1.630455834436083e+000	 1.142797483708927e+001
 1.422585784080820e+000	 1.645258243274223e+000	 1.135041031409918e+001
 1.405498527217345e+000	 1.659879179369514e+000	 1.126684826751306e+001
 1.388268421229505e+000	 1.674316514495657e+000	 1.117763410923458e+001
 1.370898424946689e+000	 1.688568182974407e+000	 1.108311881900789e+001
 1.555634918639999e+000	 1.555634918639999e+000	 1.171573168111122e+001
 1.539442817950022e+000	 1.571660208329199e+000	 1.167841103042184e+001
 1.523086523887323e+000	 1.587516123046767e+000	 1.163136475251148e+001
 1.506568706326231e+000	 1.603200153846835e+000	 1.157484535349729e+001
 1.489892085936062e+000	 1.618709848130441e+000	 1.150912133292746e+001
 1.473059432689346e+000	 1.634042810921913e+000	 1.143447592525115e+001
 1.456073564331886e+000	 1.649196706097708e+000	 1.135120580346322e+001
 1.438937344816397e+000	 1.664169257566422e+000	 1.125961974885867e+001
 1.421653682701579e+000	 1.678958250398695e+000	 1.116003729093482e+001
 1.404225529518465e+000	 1.693561531905856e+000	 1.105278732156373e+001
 1.386655878105973e+000	 1.707977012666231e+000	 1.093820668762913e+001
 1.573312588170000e+000	 1.573312588170000e+000	 1.166469579604153e+001
 1.556936486335598e+000	 1.589519983424083e+000	 1.162253025637094e+001
 1.540394325294709e+000	 1.605556078990961e+000	 1.156882018910417e+001
 1.523688805261142e+000	 1.621418337414017e+000	 1.150378902390495e+001
 1.506822677820910e+000	 1.637104278223849e+000	 1.142767864623457e+001
 1.489798744423506e+000	 1.652611479229147e+000	 1.134074813253597e+001
 1.472619854834567e+000	 1.667937577759513e+000	 1.124327244352470e+001
 1.455288905551728e+000	 1.683080271858867e+000	 1.113554107960439e+001
 1.437808838185492e+000	 1.698037321428197e+000	 1.101785670253512e+001
 1.420182637807018e+000	 1.712806549316460e+000	 1.089053372757928e+001
 1.402413331264755e+000	 1.727385842358557e+000	 1.075389689042785e+001
 1.590990257700000e+000	 1.590990257700000e+000	 1.159680525265430e+001
 1.574430154721170e+000	 1.607379758518973e+000	 1.154752254893001e+001
 1.557702126702076e+000	 1.623596034935176e+000	 1.148490426679818e+001
 1.540808904196010e+000	 1.639636520981247e+000	 1.140914685762696e+001
 1.523753269705680e+000	 1.655498708317338e+000	 1.132046768748598e+001
 1.506538056157540e+000	 1.671180147536507e+000	 1.121910376323123e+001
 1.489166145337068e+000	 1.686678449421500e+000	 1.110531041261937e+001
 1.471640466286814e+000	 1.701991286151559e+000	 1.097935992255719e+001
 1.453963993669085e+000	 1.717116392458020e+000	 1.084154013971256e+001
 1.436139746095164e+000	 1.732051566727472e+000	 1.069215303781798e+001
 1.418170784423037e+000	 1.746794672051384e+000	 1.053151325608547e+001
 1.260596252817662e+000	 1.552706375145675e+000	 1.087696543651104e+001
 1.244497964461667e+000	 1.565638788630635e+000	 1.063884736611835e+001
 1.228276589353182e+000	 1.578396851251904e+000	 1.044262794286651e+001
 1.211934951580842e+000	 1.590978841190437e+000	 1.026709409697518e+001
 1.195475906489392e+000	 1.603383097381649e+000	 1.011170477459520e+001
 1.178902339053813e+000	 1.615608020198319e+000	 9.975893397670564e+000
 1.162217162236540e+000	 1.627652072081567e+000	 9.859069339782122e+000
 1.145423315329686e+000	 1.639513778119491e+000	 9.760619435879221e+000
 1.128523762284198e+000	 1.651191726573076e+000	 9.679909521819972e+000
 1.111521490027895e+000	 1.662684569349107e+000	 9.616285999600869e+000
 1.094419506774317e+000	 1.673991022419878e+000	 9.569077424127384e+000
 1.276353705980456e+000	 1.572115204833990e+000	 1.104743093002938e+001
 1.260054189020686e+000	 1.585209273487081e+000	 1.080210197525948e+001
 1.243630046723849e+000	 1.598126811890726e+000	 1.059207687310693e+001
 1.227084138479686e+000	 1.610866076703136e+000	 1.042082055202599e+001
 1.210419355324751e+000	 1.623425386096425e+000	 1.027029935146948e+001
 1.193638618296214e+000	 1.635803120448028e+000	 1.013992331721594e+001
 1.176744876768540e+000	 1.647997722979581e+000	 1.002907742304004e+001
 1.159741106774995e+000	 1.660007700342782e+000	 9.937123140276308e+000
 1.142630309315912e+000	 1.671831623151877e+000	 9.863400038529241e+000
 1.125415508655709e+000	 1.683468126462488e+000	 9.807227413247475e+000
 1.108099750610596e+000	 1.694915910196563e+000	 9.767905935849177e+000
 1.292111159142748e+000	 1.591524034522806e+000	 1.116836355792242e+001
 1.275610413579115e+000	 1.604779758344124e+000	 1.092651557989187e+001
 1.258983504093854e+000	 1.617856772530227e+000	 1.071025964416871e+001
 1.242233325377819e+000	 1.630753312216592e+000	 1.053091114960891e+001
 1.225362804159370e+000	 1.643467674812022e+000	 1.038653742702745e+001
 1.208374897537865e+000	 1.655998220698613e+000	 1.026288382086513e+001
 1.191272591299802e+000	 1.668343373878515e+000	 1.015930937142819e+001
 1.174058898219595e+000	 1.680501622567027e+000	 1.007514864430687e+001
 1.156736856346968e+000	 1.692471519731658e+000	 1.000971339455549e+001
 1.139309527282935e+000	 1.704251683576865e+000	 9.962294258912616e+000
 1.121779994446377e+000	 1.715840797974247e+000	 9.932162471581030e+000
 1.307868612304539e+000	 1.610932864212123e+000	 1.124131779943421e+001
 1.291166638136952e+000	 1.624350243201763e+000	 1.100336468795351e+001
 1.274336961463199e+000	 1.637586733170410e+000	 1.079156550180083e+001
 1.257382512275241e+000	 1.650640547730804e+000	 1.060670681135521e+001
 1.240306252993249e+000	 1.663509963528440e+000	 1.046021440017030e+001
 1.223111176778767e+000	 1.676193320950074e+000	 1.034456737682464e+001
 1.205800305830324e+000	 1.688689024778370e+000	 1.024955545980138e+001
 1.188376689663488e+000	 1.700995544792227e+000	 1.017448475480183e+001
 1.170843403377367e+000	 1.713111416312420e+000	 1.011863764148853e+001
 1.153203545909574e+000	 1.725035240692236e+000	 1.008127453267924e+001
 1.135460238281661e+000	 1.736765685752931e+000	 1.006163565810494e+001
 1.323626065465828e+000	 1.630341693901942e+000	 1.126780902323884e+001
 1.306722862694197e+000	 1.643920728059998e+000	 1.103413010053174e+001
 1.289690418831883e+000	 1.657316693811274e+000	 1.082715831782559e+001
 1.272531699171953e+000	 1.670527783245771e+000	 1.064772740126240e+001
 1.255249701826387e+000	 1.683552252245678e+000	 1.049663959216638e+001
 1.237847456018919e+000	 1.696388421202410e+000	 1.038473194494222e+001
 1.220328020360108e+000	 1.709034675679145e+000	 1.029957232179355e+001
 1.202694481106672e+000	 1.721489467018384e+000	 1.023488748585155e+001
 1.184949950407107e+000	 1.733751312894162e+000	 1.018992886764630e+001
 1.167097564535626e+000	 1.745818797808602e+000	 1.016392507747305e+001
 1.149140482116448e+000	 1.757690573532615e+000	 1.015608375947946e+001
 1.339383518626616e+000	 1.649750523592262e+000	 1.124931578806179e+001
 1.322279087250852e+000	 1.663491212918830e+000	 1.102025670725453e+001
 1.305043876199906e+000	 1.677046654452820e+000	 1.081844937413033e+001
 1.287680886067953e+000	 1.690415018761495e+000	 1.064477559946818e+001
 1.270193150658786e+000	 1.703594540963738e+000	 1.050008496911562e+001
 1.252583735258322e+000	 1.716583521455622e+000	 1.038519312701315e+001
 1.234855734889152e+000	 1.729380326580841e+000	 1.030908492871302e+001
 1.217012272549147e+000	 1.741983389245496e+000	 1.025608198779084e+001
 1.199056497436190e+000	 1.754391209476884e+000	 1.022331307826690e+001
 1.180991583161090e+000	 1.766602354925964e+000	 1.020997341560115e+001
 1.162820725950737e+000	 1.778615461313300e+000	 1.021523646308216e+001
 1.355140971786903e+000	 1.669159353283084e+000	 1.118728198279341e+001
 1.337835311806915e+000	 1.683061697778258e+000	 1.096315557416567e+001
 1.320397333567268e+000	 1.696776615095046e+000	 1.076681696047606e+001
 1.302830072963244e+000	 1.710302254277975e+000	 1.059919699442778e+001
 1.285136599490444e+000	 1.723636829682618e+000	 1.046119357201295e+001
 1.267320014496975e+000	 1.736778621709710e+000	 1.035366983198353e+001
 1.249383449417458e+000	 1.749725977483457e+000	 1.027778843037562e+001
 1.231330063990914e+000	 1.762477311473562e+000	 1.023776434160325e+001
 1.213163044464615e+000	 1.775031106060586e+000	 1.021848794452522e+001
 1.194885601785966e+000	 1.787385912044321e+000	 1.021911945343916e+001
 1.176500969784529e+000	 1.799540349094984e+000	 1.023879654104507e+001
 1.370898424946689e+000	 1.688568182974407e+000	 1.108311881900789e+001
 1.353391536362387e+000	 1.702632182638281e+000	 1.086420588760924e+001
 1.335750790933969e+000	 1.716506575737954e+000	 1.067360827059648e+001
 1.317979259857824e+000	 1.730189489795212e+000	 1.051230684794874e+001
 1.300080048321363e+000	 1.743679118402319e+000	 1.038124881943905e+001
 1.282056293734879e+000	 1.756973721964673e+000	 1.028134581860620e+001
 1.263911163945025e+000	 1.770071628386993e+000	 1.021347208141193e+001
 1.245647855431973e+000	 1.782971233702584e+000	 1.017960322957348e+001
 1.227269591492381e+000	 1.795671002645267e+000	 1.017512443192736e+001
 1.208779620410255e+000	 1.808169469163672e+000	 1.019103706855383e+001
 1.190181213617824e+000	 1.820465236877668e+000	 1.022644139710747e+001
 1.386655878105973e+000	 1.707977012666231e+000	 1.093820668762913e+001
 1.368947760917268e+000	 1.722202667498902e+000	 1.072475676557584e+001
 1.351104248300009e+000	 1.736236536381543e+000	 1.054014116901789e+001
 1.333128446751693e+000	 1.750076725313204e+000	 1.038539181829555e+001
 1.315023497151541e+000	 1.763721407122842e+000	 1.026150623829499e+001
 1.296792572972033e+000	 1.777168822220513e+000	 1.016944558493699e+001
 1.278438878471853e+000	 1.790417279291451e+000	 1.011013272776806e+001
 1.259965646872324e+000	 1.803465155932562e+000	 1.008445039337726e+001
 1.241376138519491e+000	 1.816310899230930e+000	 1.009286831767785e+001
 1.222673639033957e+000	 1.828953026284019e+000	 1.012537558861248e+001
 1.203861457450621e+000	 1.841390124661353e+000	 1.017782450800194e+001
 1.402413331264755e+000	 1.727385842358557e+000	 1.075389689042785e+001
 1.384503985471558e+000	 1.741773152360119e+000	 1.054612894693610e+001
 1.366457705665388e+000	 1.755966497025814e+000	 1.036770583876730e+001
 1.348277633644851e+000	 1.769963960831952e+000	 1.021971156713057e+001
 1.329966945980979e+000	 1.783763695844185e+000	 1.010319503075017e+001
 1.311528852208438e+000	 1.797363922477228e+000	 1.001916796285167e+001
 1.292966592997942e+000	 1.810762930196829e+000	 9.968602925665744e+000
 1.274283438311966e+000	 1.823959078163495e+000	 9.952431367376871e+000
 1.255482685545942e+000	 1.836950795817573e+000	 9.971541746271145e+000
 1.236567657657071e+000	 1.849736583405361e+000	 1.002176117059122e+001
 1.217541701282921e+000	 1.862315012446037e+000	 1.009257676766846e+001
 1.418170784423037e+000	 1.746794672051384e+000	 1.053151325608547e+001
 1.400060210025256e+000	 1.761343637221932e+000	 1.032961636805813e+001
 1.381811163030106e+000	 1.775696457670766e+000	 1.015756631923344e+001
 1.363426820537300e+000	 1.789851196351457e+000	 1.001650025932512e+001
 1.344910394809678e+000	 1.803805984566350e+000	 9.907519536727714e+000
 1.326265131444094e+000	 1.817559022734820e+000	 9.831687543944835e+000
 1.307494307523293e+000	 1.831108581103128e+000	 9.790027621948676e+000
 1.288601229750900e+000	 1.844453000395384e+000	 9.783521028607801e+000
 1.269589232571736e+000	 1.857590692405196e+000	 9.813104976139627e+000
 1.250461676279598e+000	 1.870520140527698e+000	 9.879670742353383e+000
 1.231221945114724e+000	 1.883239900231722e+000	 9.849540383779056e+000
 1.094419506774317e+000	 1.673991022419878e+000	 9.569077424127384e+000
 1.077220840323977e+000	 1.685109866189261e+000	 9.478933639512187e+000
 1.059928536361034e+000	 1.696039945806038e+000	 9.379130280454220e+000
 1.042545656746592e+000	 1.706780171423916e+000	 9.268560823079755e+000
 1.025075277809822e+000	 1.717329518407680e+000	 9.146134272549478e+000
 1.007520488639881e+000	 1.727687027486658e+000	 9.010776974373577e+000
 9.898843893801798e-001	 1.737851804855421e+000	 8.861434385233039e+000
 9.721700895268441e-001	 1.747823022222099e+000	 8.697072799507200e+000
 9.543807062332064e-001	 1.757599916804693e+000	 8.516681027860656e+000
 9.365193626221506e-001	 1.767181791275909e+000	 8.319272024410228e+000
 9.185891861080785e-001	 1.776568013657048e+000	 8.103884459164167e+000
 1.108099750610596e+000	 1.694915910196563e+000	 9.767905935849177e+000
 1.090686100828744e+000	 1.706173739513039e+000	 9.667773293311070e+000
 1.073177643065515e+000	 1.717240445125080e+000	 9.560390562391802e+000
 1.055577477455279e+000	 1.728114923563312e+000	 9.444669078756855e+000
 1.037888718781318e+000	 1.738796137384582e+000	 9.319533113094924e+000
 1.020114494746404e+000	 1.749283115327332e+000	 9.183921716991740e+000
 1.002257944245742e+000	 1.759574952413566e+000	 9.036790531331880e+000
 9.843222156441563e-001	 1.769670809997763e+000	 8.877113553283992e+000
 9.663104650593967e-001	 1.779569915763154e+000	 8.703884858079260e+000
 9.482258546533824e-001	 1.789271563665848e+000	 8.516120271950564e+000
 9.300715509331942e-001	 1.798775113827414e+000	 8.312858992777182e+000
 1.121779994446377e+000	 1.715840797974247e+000	 9.932162471581030e+000
 1.104151361333108e+000	 1.727237612837812e+000	 9.825642275387329e+000
 1.086426749769679e+000	 1.738440944445100e+000	 9.714227153165433e+000
 1.068609298163722e+000	 1.749449675703662e+000	 9.596843868694634e+000
 1.050702159752635e+000	 1.760262756362402e+000	 9.472429571998392e+000
 1.032708500852804e+000	 1.770879203168879e+000	 9.339933682471678e+000
 1.014631499111225e+000	 1.781298099972527e+000	 9.198319737475288e+000
 9.964743417614242e-001	 1.791518597774181e+000	 9.046567202306804e+000
 9.782402238855672e-001	 1.801539914722290e+000	 8.883673237605288e+000
 9.599323466846091e-001	 1.811361336056378e+000	 8.708654420406571e+000
 9.415539157583097e-001	 1.820982213998275e+000	 8.520548415235627e+000
 1.135460238281661e+000	 1.736765685752931e+000	 1.006163565810494e+001
 1.117616621837070e+000	 1.748301486163579e+000	 9.952247373301814e+000
 1.099675856473525e+000	 1.759641443766101e+000	 9.840267510256881e+000
 1.081641118871923e+000	 1.770784427844967e+000	 9.724635846678593e+000
 1.063515600723775e+000	 1.781729375341141e+000	 9.604300041236135e+000
 1.045302506959080e+000	 1.792475291011298e+000	 9.478217556643930e+000
 1.027005053976629e+000	 1.803021247532308e+000	 9.345357551073136e+000
 1.008626467878648e+000	 1.813366385551350e+000	 9.204702733648187e+000
 9.901699827117181e-001	 1.823509913682104e+000	 9.055251179930098e+000
 9.716388387158305e-001	 1.833451108447498e+000	 8.896018103446442e+000
 9.530362805834256e-001	 1.843189314169633e+000	 8.726037579494191e+000
 1.149140482116448e+000	 1.757690573532615e+000	 1.015608375947946e+001
 1.131081882340630e+000	 1.769365359490342e+000	 1.004726974148165e+001
 1.112924963177054e+000	 1.780841943088082e+000	 9.938118079151895e+000
 1.094672939579880e+000	 1.792119179987226e+000	 9.827579165373068e+000
 1.076329041694736e+000	 1.803195994320799e+000	 9.714608810543785e+000
 1.057896513065233e+000	 1.814071378854591e+000	 9.598170208333878e+000
 1.039378608841954e+000	 1.824744395092904e+000	 9.477235872550372e+000
 1.020778593995827e+000	 1.835214173329271e+000	 9.350789540713929e+000
 1.002099741537849e+000	 1.845479912642594e+000	 9.217828040088882e+000
 9.833453307470476e-001	 1.855540880839211e+000	 9.077363112064118e+000
 9.645186454085410e-001	 1.865396414341487e+000	 8.928423190948497e+000
 1.162820725950737e+000	 1.778615461313300e+000	 1.021523646308216e+001
 1.144547142843787e+000	 1.790429232818099e+000	 1.011036640905136e+001
 1.126174069880265e+000	 1.802042442411042e+000	 1.000736552933959e+001
 1.107704760287596e+000	 1.813453932130439e+000	 9.905192446975210e+000
 1.089142482665518e+000	 1.824662613301375e+000	 9.802808779312686e+000
 1.070490519171262e+000	 1.835667466698757e+000	 9.699181149185369e+000
 1.051752163707200e+000	 1.846467542654319e+000	 9.593283169875607e+000
 1.032930720112961e+000	 1.857061961107944e+000	 9.484097399341033e+000
 1.014029500363961e+000	 1.867449911603760e+000	 9.370617259275537e+000
 9.950518227782594e-001	 1.877630653231514e+000	 9.222899044324624e+000
 9.760010102336569e-001	 1.887603514513837e+000	 8.995450376254478e+000
 1.176500969784529e+000	 1.799540349094984e+000	 1.023879654104507e+001
 1.158012403346542e+000	 1.811493106146852e+000	 1.014117168246714e+001
 1.139423176583158e+000	 1.823242941734981e+000	 1.004757790408015e+001
 1.120736580995067e+000	 1.834788684274606e+000	 9.956979686149277e+000
 1.101955923636123e+000	 1.846129232282870e+000	 9.868342118819511e+000
 1.083084525277168e+000	 1.857263554543797e+000	 9.780632961403915e+000
 1.064125718572367e+000	 1.868190690216551e+000	 9.692824678122452e+000
 1.045082846230052e+000	 1.878909748887369e+000	 9.555014297690804e+000
 1.025959259190052e+000	 1.889419910565603e+000	 9.338766583177039e+000
 1.006758314809466e+000	 1.899720425624409e+000	 9.132405089619244e+000
 9.874833750587725e-001	 1.909810614686682e+000	 8.936554115294477e+000
 1.190181213617824e+000	 1.820465236877668e+000	 1.022644139710747e+001
 1.171477663848894e+000	 1.832556979476599e+000	 1.013929845141699e+001
 1.152672283285734e+000	 1.844443441059900e+000	 1.005830569087745e+001
 1.133768401702297e+000	 1.856123436419727e+000	 9.982431090689401e+000
 1.114769364606549e+000	 1.867595851265284e+000	 9.910640888784313e+000
 1.095678531382950e+000	 1.878859642389709e+000	 9.789371489211485e+000
 1.076499273437455e+000	 1.889913837779600e+000	 9.576333381577513e+000
 1.057234972347098e+000	 1.900757536667546e+000	 9.374737842861473e+000
 1.037889018016124e+000	 1.911389909528122e+000	 9.185379794921715e+000
 1.018464806840669e+000	 1.921810198017894e+000	 9.009009224313342e+000
 9.989657398838883e-001	 1.932017714860024e+000	 8.846329390697717e+000
 1.203861457450621e+000	 1.841390124661353e+000	 1.017782450800194e+001
 1.184942924350843e+000	 1.853620852807342e+000	 1.010433940568279e+001
 1.165921389987992e+000	 1.865643940385799e+000	 1.003908281896544e+001
 1.146800222409283e+000	 1.877458188565803e+000	 9.945839124008231e+000
 1.127582805576798e+000	 1.889062470248617e+000	 9.729533696320621e+000
 1.108272537488608e+000	 1.900455730236494e+000	 9.525658995852790e+000
 1.088872828302464e+000	 1.911636985343468e+000	 9.335190048236020e+000
 1.069387098464099e+000	 1.922605324448475e+000	 9.159057037398362e+000
 1.049818776842177e+000	 1.933359908491318e+000	 8.998143180177314e+000
 1.030171298871866e+000	 1.943899970411971e+000	 8.853282713411735e+000
 1.010448104709004e+000	 1.954224815033862e+000	 8.725258997820284e+000
 1.217541701282921e+000	 1.862315012446037e+000	 1.009257676766846e+001
 1.198408184852391e+000	 1.874684726139078e+000	 1.003586816996645e+001
 1.179170496689933e+000	 1.886844439712678e+000	 9.816042231649693e+000
 1.159832043116026e+000	 1.898792940712833e+000	 9.604430412299806e+000
 1.140396246546868e+000	 1.910529089232867e+000	 9.406797804931452e+000
 1.120866543594143e+000	 1.922051818084153e+000	 9.224262946289780e+000
 1.101246383167394e+000	 1.933360132908152e+000	 9.057898086029043e+000
 1.081539224581056e+000	 1.944453112230155e+000	 8.908726824527427e+000
 1.061748535668210e+000	 1.955329907455190e+000	 8.777721865609957e+000
 1.041877790903058e+000	 1.965989742806639e+000	 8.665802889069131e+000
 1.021930469534119e+000	 1.976431915208196e+000	 8.573834547473172e+000
 1.231221945114724e+000	 1.883239900231722e+000	 9.849540383779056e+000
 1.211873445353537e+000	 1.895748599471812e+000	 9.626421692432919e+000
 1.192419603391557e+000	 1.908044939040537e+000	 9.417230074643584e+000
 1.172863863822527e+000	 1.920127692860818e+000	 9.223278177626717e+000
 1.153209687516760e+000	 1.931995708218037e+000	 9.045834021590164e+000
 1.133460549699554e+000	 1.943647905932685e+000	 8.886118278592530e+000
 1.113619938032245e+000	 1.955083280473655e+000	 8.745301662066611e+000
 1.093691350697970e+000	 1.966300900012589e+000	 8.624502432901817e+000
 1.073678294494223e+000	 1.977299906419740e+000	 8.524784027588778e+000
 1.053584282934246e+000	 1.988079515201899e+000	 8.447152813526342e+000
 1.033412834359236e+000	 1.998639015383027e+000	 8.392555976174501e+000
 9.185891861080785e-001	 1.776568013657048e+000	 8.103884459164167e+000
 9.005933067305993e-001	 1.785758017161617e+000	 7.989945660704103e+000
 8.825348555005111e-001	 1.794751299989325e+000	 7.893200375366364e+000
 8.644169627606544e-001	 1.803547425071165e+000	 7.813155984470576e+000
 8.462427565638450e-001	 1.812146019766516e+000	 7.749311391336588e+000
 8.280153610683619e-001	 1.820546775513088e+000	 7.701158359982190e+000
 8.097378949529317e-001	 1.828749447430662e+000	 7.668182834123293e+000
 7.914134698526779e-001	 1.836753853879597e+000	 7.649866233629308e+000
 7.730451888174857e-001	 1.844559875975171e+000	 7.645686725722830e+000
 7.546361447941516e-001	 1.852167457058818e+000	 7.655120468349248e+000
 7.361894191336470e-001	 1.859576602127425e+000	 7.677642823288812e+000
 9.300715509331942e-001	 1.798775113827414e+000	 8.312858992777182e+000
 9.118507230638300e-001	 1.808079992376415e+000	 8.231170979112733e+000
 8.935665411936159e-001	 1.817185691239944e+000	 8.158999791300005e+000
 8.752221747946789e-001	 1.826091767885635e+000	 8.095764083709428e+000
 8.568207910204949e-001	 1.834797845014857e+000	 8.040881978085210e+000
 8.383655530813224e-001	 1.843303610208294e+000	 7.993772424237545e+000
 8.198596186393719e-001	 1.851608815524722e+000	 7.953856530071582e+000
 8.013061382252067e-001	 1.859713277054009e+000	 7.920558858210511e+000
 7.827082536768359e-001	 1.867616874425373e+000	 7.893308686625672e+000
 7.640690966028914e-001	 1.875319550272018e+000	 7.871835855540256e+000
 7.453917868712325e-001	 1.882821309653291e+000	 7.871774486187641e+000
 9.415539157583097e-001	 1.820982213998275e+000	 8.520548415235627e+000
 9.231081393970605e-001	 1.830401967591619e+000	 8.468289134252490e+000
 9.045982268867207e-001	 1.839620082490901e+000	 8.418048930960273e+000
 8.860273868287035e-001	 1.848636110700393e+000	 8.369157151762382e+000
 8.673988254771451e-001	 1.857449670263458e+000	 8.320950454574184e+000
 8.487157450942829e-001	 1.866060444903749e+000	 8.272774193910101e+000
 8.299813423258120e-001	 1.874468183619045e+000	 8.223983764415365e+000
 8.111988065977354e-001	 1.882672700228715e+000	 8.156731398666274e+000
 7.923713185361858e-001	 1.890673872875920e+000	 8.104582617909198e+000
 7.735020484116313e-001	 1.898471643485632e+000	 8.069439842071983e+000
 7.545941546088181e-001	 1.906066017179662e+000	 8.051389269149265e+000
 9.530362805834256e-001	 1.843189314169633e+000	 8.726037579494191e+000
 9.343655557302909e-001	 1.852723942807229e+000	 8.700537596762310e+000
 9.156299125798257e-001	 1.862054473742195e+000	 8.669731262196750e+000
 8.968325988627280e-001	 1.871180453515439e+000	 8.632857987206943e+000
 8.779768599337953e-001	 1.880101495512317e+000	 8.558425414677895e+000
 8.590659371072434e-001	 1.888817279599456e+000	 8.467553102850015e+000
 8.401030660122520e-001	 1.897327551713629e+000	 8.386890358550645e+000
 8.210914749702639e-001	 1.905632123403714e+000	 8.316686543084449e+000
 8.020343833955359e-001	 1.913730871326810e+000	 8.257142759104385e+000
 7.829350002203710e-001	 1.921623736699662e+000	 8.208411310824859e+000
 7.637965223464035e-001	 1.929310724706538e+000	 8.170595275405914e+000
 9.645186454085410e-001	 1.865396414341487e+000	 8.928423190948497e+000
 9.456229720635219e-001	 1.875045918023246e+000	 8.926740009268508e+000
 9.266615982729306e-001	 1.884488864993826e+000	 8.833700279415714e+000
 9.076378108967527e-001	 1.893724796330773e+000	 8.743844391443842e+000
 8.885548943904454e-001	 1.902753320761436e+000	 8.657551333143102e+000
 8.694161291202039e-001	 1.911574114295413e+000	 8.575159147203994e+000
 8.502247896986922e-001	 1.920186919808475e+000	 8.496963965316240e+000
 8.309841433427926e-001	 1.928591546579006e+000	 8.423219148092354e+000
 8.116974482548860e-001	 1.936787869778045e+000	 8.354134531913267e+000
 7.923679520291109e-001	 1.944775829914106e+000	 8.289875783461206e+000
 7.729988900839893e-001	 1.952555432233920e+000	 8.230563862375918e+000
 9.760010102336569e-001	 1.887603514513837e+000	 8.995450376254478e+000
 9.568803883967524e-001	 1.897367893239669e+000	 8.928657609952857e+000
 9.376932839660355e-001	 1.906923256245794e+000	 8.858840436579312e+000
 9.184430229307771e-001	 1.916269139146395e+000	 8.786403932244150e+000
 8.991329288470956e-001	 1.925405146010814e+000	 8.711718264670505e+000
 8.797663211331644e-001	 1.934330948991620e+000	 8.635117530619517e+000
 8.603465133851326e-001	 1.943046287903584e+000	 8.556898693833425e+000
 8.408768117153213e-001	 1.951550969754591e+000	 8.477320625194578e+000
 8.213605131142361e-001	 1.959844868229625e+000	 8.396603246463046e+000
 8.018009038378509e-001	 1.967927923128965e+000	 8.314926778623097e+000
 7.822012578215748e-001	 1.975800139761806e+000	 8.232431095536732e+000
 9.874833750587725e-001	 1.909810614686682e+000	 8.936554115294477e+000
 9.681378047299829e-001	 1.919689868456498e+000	 8.895401679464460e+000
 9.487249696591404e-001	 1.929357647498098e+000	 8.845619765809481e+000
 9.292482349648017e-001	 1.938813481962305e+000	 8.787601809953159e+000
 9.097109633037455e-001	 1.948056971260451e+000	 8.721711153746433e+000
 8.901165131461248e-001	 1.957087783688078e+000	 8.648279788911752e+000
 8.704682370715724e-001	 1.965905655998953e+000	 8.567607197563245e+000
 8.507694800878499e-001	 1.974510392930469e+000	 8.479959291566170e+000
 8.310235779735861e-001	 1.982901866681548e+000	 8.385567452365075e+000
 8.112338556465903e-001	 1.991080016344239e+000	 8.284627672573009e+000
 7.914036255591603e-001	 1.999044847290198e+000	 8.177299800281999e+000
 9.989657398838883e-001	 1.932017714860024e+000	 8.846329390697717e+000
 9.793952210632133e-001	 1.942011843673734e+000	 8.827528974703926e+000
 9.597566553522451e-001	 1.951792038750740e+000	 8.794673067652248e+000
 9.400534469988262e-001	 1.961357824778502e+000	 8.748145619249618e+000
 9.202889977603954e-001	 1.970708796510346e+000	 8.688305151205009e+000
 9.004667051590855e-001	 1.979844618384786e+000	 8.615483405538782e+000
 8.805899607580128e-001	 1.988765024094585e+000	 8.529984086355793e+000
 8.606621484603786e-001	 1.997469816106639e+000	 8.432081697313192e+000
 8.406866428329360e-001	 2.005958865133815e+000	 8.322020476675595e+000
 8.206668074553302e-001	 2.014232109559928e+000	 8.200013431514469e+000
 8.006059932967459e-001	 2.022289554819095e+000	 8.066241472270885e+000
 1.010448104709004e+000	 1.954224815033862e+000	 8.725258997820284e+000
 9.906526373964438e-001	 1.964333818891375e+000	 8.725600573459889e+000
 9.707883410453504e-001	 1.974226430003719e+000	 8.706634693593365e+000
 9.508586590328508e-001	 1.983902167594988e+000	 8.668737986122048e+000
 9.308670322170456e-001	 1.993360621760502e+000	 8.612266170685896e+000
 9.108168971720461e-001	 2.002601453081745e+000	 8.537552610030616e+000
 8.907116844444528e-001	 2.011624392190479e+000	 8.444906951655385e+000
 8.705548168329073e-001	 2.020429239283104e+000	 8.334613862237818e+000
 8.503497076922864e-001	 2.029015863586428e+000	 8.206931856995341e+000
 8.300997592640701e-001	 2.037384202776032e+000	 8.062092225800237e+000
 8.098083610343312e-001	 2.045534262348497e+000	 7.900298057526985e+000
 1.021930469534119e+000	 1.976431915208196e+000	 8.573834547473172e+000
 1.001910053729674e+000	 1.986655794109423e+000	 8.590181631662153e+000
 9.818200267384550e-001	 1.996660821257034e+000	 8.582138571286123e+000
 9.616638710668755e-001	 2.006446510411762e+000	 8.550076847008468e+000
 9.414450666736958e-001	 2.016012447010916e+000	 8.494351407577531e+000
 9.211670891850065e-001	 2.025358287778955e+000	 8.415299122592247e+000
 9.008334081308931e-001	 2.034483760286634e+000	 8.313237322590608e+000
 8.804474852054359e-001	 2.043388662459861e+000	 8.188462429226325e+000
 8.600127725516362e-001	 2.052072862039383e+000	 8.041248677955897e+000
 8.395327110728100e-001	 2.060536295992551e+000	 7.871846935316557e+000
 8.190107287719169e-001	 2.068778969878404e+000	 7.680483612530015e+000
 1.033412834359236e+000	 1.998639015383027e+000	 8.392555976174501e+000
 1.013167470062905e+000	 2.008977769327879e+000	 8.421841156818701e+000
 9.928517124315605e-001	 2.019095212510688e+000	 8.421818228097814e+000
 9.724690831009004e-001	 2.028990853228825e+000	 8.392855709326934e+000
 9.520231011303464e-001	 2.038664272261591e+000	 8.335309823364685e+000
 9.315172811979672e-001	 2.048115122476415e+000	 8.249522849065889e+000
 9.109551318173336e-001	 2.057343128383053e+000	 8.135821558325450e+000
 8.903401535779651e-001	 2.066348085636912e+000	 7.994515740744295e+000
 8.696758374109869e-001	 2.075129860492684e+000	 7.825896818606811e+000
 8.489656628815501e-001	 2.083688389209486e+000	 7.630236554509844e+000
 8.282130965095028e-001	 2.092023677408817e+000	 7.407785853634961e+000
 7.361894191336470e-001	 1.859576602127425e+000	 7.677642823288812e+000
 7.177080801244898e-001	 1.866787377221733e+000	 7.602194043044411e+000
 6.991951815543979e-001	 1.873799908775373e+000	 7.496110131091738e+000
 6.806537613005025e-001	 1.880614382925689e+000	 7.399435468250910e+000
 6.620868399488495e-001	 1.887231044787307e+000	 7.296845311715356e+000
 6.434974194451185e-001	 1.893650197690125e+000	 7.181290859800273e+000
 6.248884817771946e-001	 1.899872202382971e+000	 7.052895281114886e+000
 6.062629876904958e-001	 1.905897476204296e+000	 6.975684167337596e+000
 5.876238754369104e-001	 1.911726492221324e+000	 6.921792564326246e+000
 5.689740595581216e-001	 1.917359778339053e+000	 6.887978562354492e+000
 5.503164297040443e-001	 1.922797916380548e+000	 6.871171019237920e+000
 7.453917868712325e-001	 1.882821309653291e+000	 7.871774486187641e+000
 7.266794311240886e-001	 1.890122219435584e+000	 7.781041612155094e+000
 7.079351213216277e-001	 1.897222407633088e+000	 7.683179521508445e+000
 6.891619333144451e-001	 1.904122062709863e+000	 7.578149523314804e+000
 6.703629254459107e-001	 1.910821432844467e+000	 7.465883363924592e+000
 6.515411371860247e-001	 1.917320825158422e+000	 7.346283076000662e+000
 6.326995877975195e-001	 1.923620604909912e+000	 7.219220908887881e+000
 6.138412750351305e-001	 1.929721194654120e+000	 7.112923516094724e+000
 5.949691738788933e-001	 1.935623073371612e+000	 7.045072727709613e+000
 5.760862353022610e-001	 1.941326775566192e+000	 6.999947416325092e+000
 5.571953850757716e-001	 1.946832890333715e+000	 6.974300114423354e+000
 7.545941546088181e-001	 1.906066017179662e+000	 8.051389269149265e+000
 7.356507821236820e-001	 1.913457061650030e+000	 7.936711342406399e+000
 7.166750610888373e-001	 1.920644906491468e+000	 7.820356774825710e+000
 6.976701053283412e-001	 1.927629742494750e+000	 7.702326159027784e+000
 6.786390109428899e-001	 1.934411820902370e+000	 7.582584176340281e+000
 6.595848549268030e-001	 1.940991452627468e+000	 7.461059476185129e+000
 6.405106938176606e-001	 1.947369007437590e+000	 7.337644645751388e+000
 6.214195623795155e-001	 1.953544913104652e+000	 7.218444501206197e+000
 6.023144723205504e-001	 1.959519654522554e+000	 7.141922759397925e+000
 5.831984110459895e-001	 1.965293772793916e+000	 7.090530251316137e+000
 5.640743404469928e-001	 1.970867864287377e+000	 7.060837251774792e+000
 7.637965223464035e-001	 1.929310724706538e+000	 8.170595275405914e+000
 7.446221331232706e-001	 1.936791903865071e+000	 8.034309884467923e+000
 7.254150008560258e-001	 1.944067405350511e+000	 7.901724274718240e+000
 7.061782773421910e-001	 1.951137422280350e+000	 7.772879046070547e+000
 6.869150964397867e-001	 1.958002208961012e+000	 7.647772548511568e+000
 6.676285726674527e-001	 1.964662080097262e+000	 7.526360790297987e+000
 6.483217998376176e-001	 1.971117409966008e+000	 7.408557445441922e+000
 6.289978497236503e-001	 1.977368631555889e+000	 7.294233959034974e+000
 6.096597707618819e-001	 1.983416235674151e+000	 7.210116893440332e+000
 5.903105867893064e-001	 1.989260770022222e+000	 7.157583327569210e+000
 5.709532958177076e-001	 1.994902838241532e+000	 7.128722409819649e+000
 7.729988900839893e-001	 1.952555432233920e+000	 8.230563862375918e+000
 7.535934841228538e-001	 1.960126746080707e+000	 8.074909254407176e+000
 7.341549406231938e-001	 1.967489904210219e+000	 7.928259219302857e+000
 7.146864493559947e-001	 1.974645102066663e+000	 7.790695116777218e+000
 6.951911819366015e-001	 1.981592597020396e+000	 7.662249724530060e+000
 6.756722904079747e-001	 1.988332707567807e+000	 7.542907173716317e+000
 6.561329058573906e-001	 1.994865812495162e+000	 7.432602992768820e+000
 6.365761370675354e-001	 2.001192350007833e+000	 7.331224257916319e+000
 6.170050692028878e-001	 2.007312816826402e+000	 7.247416521125884e+000
 5.974227625322126e-001	 2.013227767251113e+000	 7.198952237188829e+000
 5.778322511879159e-001	 2.018937812196181e+000	 7.175886873026403e+000
 7.822012578215748e-001	 1.975800139761806e+000	 8.232431095536732e+000
 7.625648351224317e-001	 1.983461588296937e+000	 8.059549741498215e+000
 7.428948803903412e-001	 1.990912403070590e+000	 7.900910455482445e+000
 7.231946213697519e-001	 1.998152781853689e+000	 7.756636137979153e+000
 7.034672674333340e-001	 2.005182985080521e+000	 7.626794778644811e+000
 6.837160081483685e-001	 2.012003335039102e+000	 7.511399417518288e+000
 6.639440118769794e-001	 2.018614215025054e+000	 7.410408223719216e+000
 6.441544244111706e-001	 2.025016068460483e+000	 7.323724689767095e+000
 6.243503676435681e-001	 2.031209397979309e+000	 7.251570946440465e+000
 6.045349382747075e-001	 2.037194764480589e+000	 7.212472531679588e+000
 5.847112065576183e-001	 2.042972786151324e+000	 7.200253743220129e+000
 7.914036255591603e-001	 1.999044847290198e+000	 8.177299800281999e+000
 7.715361861220045e-001	 2.006796430513762e+000	 7.989241752802668e+000
 7.516348201574682e-001	 2.014334901931625e+000	 7.820600127272300e+000
 7.317027933834626e-001	 2.021660461641427e+000	 7.671540174115511e+000
 7.117433529299844e-001	 2.028773373141388e+000	 7.542165904206838e+000
 6.917597258886344e-001	 2.035673962511146e+000	 7.432520074314479e+000
 6.717551178963843e-001	 2.042362617555685e+000	 7.342584299227003e+000
 6.517327117545556e-001	 2.048839786913839e+000	 7.272279288495160e+000
 6.316956660839228e-001	 2.055105979132870e+000	 7.221465205413606e+000
 6.116471140167912e-001	 2.061161761710648e+000	 7.195970305702184e+000
 5.915901619268141e-001	 2.067007760106961e+000	 7.199738415317539e+000
 8.006059932967459e-001	 2.022289554819095e+000	 8.066241472270885e+000
 7.805075371215724e-001	 2.030131272731183e+000	 7.864967530537965e+000
 7.603747599245743e-001	 2.037757400793325e+000	 7.688225210448898e+000
 7.402109653971273e-001	 2.045168141429878e+000	 7.536222949439784e+000
 7.200194384265524e-001	 2.052363761202996e+000	 7.409101613720475e+000
 6.998034436287717e-001	 2.059344589983939e+000	 7.306934506435950e+000
 6.795662239156052e-001	 2.066111020087053e+000	 7.229727511784732e+000
 6.593109990976909e-001	 2.072663505367901e+000	 7.177419372822625e+000
 6.390409645239520e-001	 2.079002560287087e+000	 7.149882100355042e+000
 6.187592897584640e-001	 2.085128758941291e+000	 7.147262740570103e+000
 5.984691172955038e-001	 2.091042734063091e+000	 7.172249020252620e+000
 8.098083610343312e-001	 2.045534262348497e+000	 7.900298057526985e+000
 7.894788881211350e-001	 2.053466114949198e+000	 7.687682752352781e+000
 7.691146996916598e-001	 2.061179899655689e+000	 7.504658942563260e+000
 7.487191374107456e-001	 2.068675821219042e+000	 7.351479117348472e+000
 7.282955239230385e-001	 2.075954149265344e+000	 7.228321857073544e+000
 7.078471613687812e-001	 2.083015217457482e+000	 7.135291862654299e+000
 6.873773299346420e-001	 2.089859422619159e+000	 7.072420130241722e+000
 6.668892864405763e-001	 2.096487223822670e+000	 7.039664268739571e+000
 6.463862629636555e-001	 2.102899141441959e+000	 7.036908957340109e+000
 6.258714654997256e-001	 2.109095756172518e+000	 7.063966539934544e+000
 6.053480726636872e-001	 2.115077708019714e+000	 7.115686837703111e+000
 8.190107287719169e-001	 2.068778969878404e+000	 7.680483612530015e+000
 7.984502391206926e-001	 2.076800957167808e+000	 7.458318023718462e+000
 7.778546394587247e-001	 2.084602398518716e+000	 7.270752156549394e+000
 7.572273094243175e-001	 2.092183501008918e+000	 7.118083444137198e+000
 7.365716094194423e-001	 2.099544537328435e+000	 7.000529064380772e+000
 7.158908791086626e-001	 2.106685844931774e+000	 6.918225989056190e+000
 6.951884359534948e-001	 2.113607825152002e+000	 6.871231187649099e+000
 6.744675737832118e-001	 2.120310942278145e+000	 6.859521983253161e+000
 6.537315614030331e-001	 2.126795722597485e+000	 6.882996557497033e+000
 6.329836412405760e-001	 2.133062753404329e+000	 6.941474601122314e+000
 6.122270280313643e-001	 2.139112681976832e+000	 7.027946680992573e+000
 8.282130965095028e-001	 2.092023677408817e+000	 7.407785853634961e+000
 8.074215901202451e-001	 2.100135799387014e+000	 7.177780270827793e+000
 7.865945792257691e-001	 2.108024897382408e+000	 6.987334525425016e+000
 7.657354814378435e-001	 2.115691180799508e+000	 6.836791913839328e+000
 7.448476949157643e-001	 2.123134925392267e+000	 6.726409119304778e+000
 7.239345968484162e-001	 2.130356472406817e+000	 6.656356279192007e+000
 7.029995419721640e-001	 2.137356227685585e+000	 6.626717216581797e+000
 6.820458611255976e-001	 2.144134660734327e+000	 6.637489833219902e+000
 6.610768598420856e-001	 2.150692303753668e+000	 6.688586660600102e+000
 6.400958169810156e-001	 2.157029750636725e+000	 6.779835565560690e+000
 6.191059833985354e-001	 2.163147655934445e+000	 6.906917256332124e+000
 5.503164297040443e-001	 1.922797916380548e+000	 6.871171019237920e+000
 5.316538494870134e-001	 1.928041541140166e+000	 6.700623548272095e+000
 5.129891553722548e-001	 1.933091339410632e+000	 6.547654910659345e+000
 4.943251556054371e-001	 1.937948048985706e+000	 6.409669428528529e+000
 4.756646291775600e-001	 1.942612457640390e+000	 6.284251908324915e+000
 4.570103248275765e-001	 1.947085402089539e+000	 6.169169229504125e+000
 4.383649600831473e-001	 1.951367766926559e+000	 6.062371493285738e+000
 4.197312203398141e-001	 1.955460483543635e+000	 5.961992739581334e+000
 4.011117579788213e-001	 1.959364529034961e+000	 5.866351241185444e+000
 3.825091915237606e-001	 1.963080925084422e+000	 5.773949385229690e+000
 3.639261048361499e-001	 1.966610736839179e+000	 5.683473152757705e+000
 5.571953850757716e-001	 1.946832890333715e+000	 6.974300114423354e+000
 5.382995226068030e-001	 1.952142060403382e+000	 6.795043207287771e+000
 5.194015198162859e-001	 1.957254981152735e+000	 6.634240742269837e+000
 5.005042200529605e-001	 1.962172399597961e+000	 6.489141285902791e+000
 4.816104370452148e-001	 1.966895113361246e+000	 6.357180176952609e+000
 4.627229538912394e-001	 1.971423969616384e+000	 6.235981253997605e+000
 4.438445220877912e-001	 1.975759864014198e+000	 6.123358125609754e+000
 4.249778605978571e-001	 1.979903739589275e+000	 6.017314991447264e+000
 4.061256549574479e-001	 1.983856585649486e+000	 5.916047023584064e+000
 3.872905564217011e-001	 1.987619436649766e+000	 5.817940318352298e+000
 3.684751811504043e-001	 1.991193371051617e+000	 5.721571429868669e+000
 5.640743404469928e-001	 1.970867864287377e+000	 7.060837251774792e+000
 5.449451957259967e-001	 1.976242579666991e+000	 6.877211750101060e+000
 5.258138842596520e-001	 1.981418622895133e+000	 6.712686706470163e+000
 5.066832844997705e-001	 1.986396750210409e+000	 6.564349890626063e+000
 4.875562449121281e-001	 1.991177769082196e+000	 6.429482473949488e+000
 4.684355829541524e-001	 1.995762537143223e+000	 6.305560897369706e+000
 4.493240840916975e-001	 2.000151961101730e+000	 6.190258263809636e+000
 4.302245008551946e-001	 2.004346995634707e+000	 6.081445263682222e+000
 4.111395519354207e-001	 2.008348642263703e+000	 5.977190643011643e+000
 3.920719213190586e-001	 2.012157948214703e+000	 5.875761224747765e+000
 3.730242574641658e-001	 2.015776005263546e+000	 5.775621494771052e+000
 5.709532958177076e-001	 1.994902838241532e+000	 7.128722409819649e+000
 5.515908688445944e-001	 2.000343098930994e+000	 6.945161592206612e+000
 5.322262487023534e-001	 2.005582264637824e+000	 6.781117989566629e+000
 5.128623489458671e-001	 2.010621100823051e+000	 6.633513428997480e+000
 4.935020527782997e-001	 2.015460424803240e+000	 6.499470113009961e+000
 4.741482120163162e-001	 2.020101104670055e+000	 6.376312629291548e+000
 4.548036460948663e-001	 2.024544058189155e+000	 6.261569466318785e+000
 4.354711411118264e-001	 2.028790251679932e+000	 6.152974043555392e+000
 4.161534489127392e-001	 2.032840698877613e+000	 6.048465266072968e+000
 3.968532862158330e-001	 2.036696459779233e+000	 5.946187614465127e+000
 3.775733337774348e-001	 2.040358639474969e+000	 5.844490781898123e+000
 5.778322511879159e-001	 2.018937812196181e+000	 7.175886873026403e+000
 5.582365419625962e-001	 2.024443618195390e+000	 6.996917889133883e+000
 5.386386131443897e-001	 2.029745906380808e+000	 6.837653806655429e+000
 5.190414133912504e-001	 2.034845451435887e+000	 6.694845260090288e+000
 4.994478606437299e-001	 2.039743080524377e+000	 6.565450580461042e+000
 4.798608410777303e-001	 2.044439672196880e+000	 6.446637948521591e+000
 4.602832080972976e-001	 2.048936155276472e+000	 6.335787034505785e+000
 4.407177813677526e-001	 2.053233507724950e+000	 6.230490133383428e+000
 4.211673458894036e-001	 2.057332755491216e+000	 6.128552805737370e+000
 4.016346511120245e-001	 2.061234971343355e+000	 6.027994035451377e+000
 3.821224100902110e-001	 2.064941273685884e+000	 5.927045916408869e+000
 5.847112065576183e-001	 2.042972786151324e+000	 7.200253743220129e+000
 5.648822150800023e-001	 2.048544137460180e+000	 7.030498963503420e+000
 5.450509775857614e-001	 2.053909548124086e+000	 6.880407752870219e+000
 5.252204778359204e-001	 2.059069802048916e+000	 6.746554199706186e+000
 5.053936685084186e-001	 2.064025736245608e+000	 6.625727760401243e+000
 4.855734701383949e-001	 2.068778239723698e+000	 6.514935557665073e+000
 4.657627700989915e-001	 2.073328252363683e+000	 6.411404145443281e+000
 4.459644216229731e-001	 2.077676763769761e+000	 6.312580749644898e+000
 4.261812428654140e-001	 2.081824812104512e+000	 6.216133995081831e+000
 4.064160160076329e-001	 2.085773482907070e+000	 6.119954130145353e+000
 3.866714864024947e-001	 2.089523907896292e+000	 6.022152761792873e+000
 5.915901619268141e-001	 2.067007760106961e+000	 7.199738415317539e+000
 5.715278881968123e-001	 2.072644656725364e+000	 7.043916702289395e+000
 5.514633420264680e-001	 2.078073189867658e+000	 6.907488130124216e+000
 5.313995422798770e-001	 2.083294152662138e+000	 6.786844784519173e+000
 5.113394763723655e-001	 2.088308391966931e+000	 6.678602144132864e+000
 4.912860991983100e-001	 2.093116807250509e+000	 6.579601525741000e+000
 4.712423320999477e-001	 2.097720349450787e+000	 6.486911975413586e+000
 4.512110618774879e-001	 2.102120019814364e+000	 6.397831615180758e+000
 4.311951398407702e-001	 2.106316868717501e+000	 6.309888455889548e+000
 4.111973809026582e-001	 2.110311994470378e+000	 6.220840688124072e+000
 3.912205627142856e-001	 2.114106542106192e+000	 6.128676464152719e+000
 5.984691172955038e-001	 2.091042734063091e+000	 7.172249020252620e+000
 5.781735613130264e-001	 2.096745175990942e+000	 7.035176926684127e+000
 5.578757064665099e-001	 2.102236831611523e+000	 6.916998251318244e+000
 5.375786067231200e-001	 2.107518503275554e+000	 6.813917518002230e+000
 5.172852842355711e-001	 2.112591047688348e+000	 6.722371025150244e+000
 4.969987282574755e-001	 2.117455374777314e+000	 6.639029439538029e+000
 4.767218941001665e-001	 2.122112446537784e+000	 6.560799814896412e+000
 4.564577021312972e-001	 2.126563275858761e+000	 6.484827045035192e+000
 4.362090368154725e-001	 2.130808925330182e+000	 6.408494762517405e+000
 4.159787457971005e-001	 2.134850506033278e+000	 6.329425695117614e+000
 3.957696390255839e-001	 2.138689176315586e+000	 6.245481493433958e+000
 6.053480726636872e-001	 2.115077708019714e+000	 7.115686837703111e+000
 5.848192344286449e-001	 2.120845695256914e+000	 7.002279736745073e+000
 5.642880709058868e-001	 2.126400473355683e+000	 6.907036723807537e+000
 5.437576711656498e-001	 2.131742853889163e+000	 6.825969099587023e+000
 5.232310920980349e-001	 2.136873703409858e+000	 6.755328680833295e+000
 5.027113573158917e-001	 2.141793942304112e+000	 6.691610544650116e+000
 4.822014560996478e-001	 2.146504543624674e+000	 6.631555175717073e+000
 4.617043423844007e-001	 2.151006531902950e+000	 6.572150026444327e+000
 4.412229337895206e-001	 2.155300981942556e+000	 6.510630501408772e+000
 4.207601106909599e-001	 2.159389017595771e+000	 6.444480378682190e+000
 4.003187153363895e-001	 2.163271810524472e+000	 6.371431681842522e+000
 6.122270280313643e-001	 2.139112681976832e+000	 7.027946680992573e+000
 5.914649075436671e-001	 2.144946214523278e+000	 6.943219832806555e+000
 5.707004353445987e-001	 2.150564115100135e+000	 6.875697713757966e+000
 5.499367356074661e-001	 2.155967204502966e+000	 6.821192638373473e+000
 5.291768999597574e-001	 2.161156359131462e+000	 6.775766541892325e+000
 5.084239863735580e-001	 2.166132509830903e+000	 6.735733877004134e+000
 4.876810180983916e-001	 2.170896640711457e+000	 6.697663890970559e+000
 4.669509826367987e-001	 2.175449787946933e+000	 6.658382293432218e+000
 4.462368307629146e-001	 2.179793038554623e+000	 6.614972326594604e+000
 4.255414755842360e-001	 2.183927529157856e+000	 6.564775250794356e+000
 4.048677916467025e-001	 2.187854444732851e+000	 6.505390259673104e+000
 6.191059833985354e-001	 2.163147655934445e+000	 6.906917256332124e+000
 5.981105806580939e-001	 2.169046733790038e+000	 6.855986815464918e+000
 5.771127997826462e-001	 2.174727756844882e+000	 6.821071192879231e+000
 5.561158000485695e-001	 2.180191555116964e+000	 6.797777852593180e+000
 5.351227078207386e-001	 2.185439014853160e+000	 6.781973350516266e+000
 5.141366154304752e-001	 2.190471077357688e+000	 6.769786385619846e+000
 4.931605800963980e-001	 2.195288737798134e+000	 6.757610208284987e+000
 4.721976228884912e-001	 2.199893043990708e+000	 6.742104396433565e+000
 4.512507277356547e-001	 2.204285095166384e+000	 6.720196011493809e+000
 4.303228404769293e-001	 2.208466040719535e+000	 6.689080147605409e+000
 4.094168679565230e-001	 2.212437078940723e+000	 6.646219888748727e+000
 3.639261048361499e-001	 1.966610736839179e+000	 5.683473152757705e+000
 3.453650463502414e-001	 1.969955071770350e+000	 5.589388130688935e+000
 3.268285283464441e-001	 1.973115078522868e+000	 5.498886253921578e+000
 3.083190262635861e-001	 1.976091945755501e+000	 5.411235180608538e+000
 2.898389780504916e-001	 1.978886900971938e+000	 5.325876449932594e+000
 2.713907835560691e-001	 1.981501209344972e+000	 5.242423184064927e+000
 2.529768039579073e-001	 1.983936172534892e+000	 5.160657471464060e+000
 2.345993612291326e-001	 1.986193127503396e+000	 5.080527446464165e+000
 2.162607376432356e-001	 1.988273445324313e+000	 5.002144080460209e+000
 1.979631753165401e-001	 1.990178529992387e+000	 4.925777700296605e+000
 1.797088757879294e-001	 1.991909817231349e+000	 4.851854249705741e+000
 3.684751811504043e-001	 1.991193371051617e+000	 5.721571429868669e+000
 3.496821094332686e-001	 1.994579510169543e+000	 5.625551149138664e+000
 3.309138849542394e-001	 1.997779017006543e+000	 5.534538579285209e+000
 3.121730140951302e-001	 2.000793095079617e+000	 5.447687237428807e+000
 2.934619652791259e-001	 2.003622987236254e+000	 5.364330304143839e+000
 2.747831683532466e-001	 2.006269974463903e+000	 5.283978351396031e+000
 2.561390140098016e-001	 2.008735374693610e+000	 5.206316738144322e+000
 2.375318532465809e-001	 2.011020541599093e+000	 5.131202688985991e+000
 2.189639968654948e-001	 2.013126863392606e+000	 5.058662071605068e+000
 2.004377150093212e-001	 2.015055761618825e+000	 4.988885889100216e+000
 1.819552367361798e-001	 2.016808689948031e+000	 4.922226503525281e+000
 3.730242574641658e-001	 2.015776005263546e+000	 5.775621494771052e+000
 3.539991725158979e-001	 2.019203948568140e+000	 5.679141871175506e+000
 3.349992415617213e-001	 2.022442955489553e+000	 5.588786550100847e+000
 3.160270019264351e-001	 2.025494244403021e+000	 5.503593838544374e+000
 2.970849525075851e-001	 2.028359073499827e+000	 5.422787836114438e+000
 2.781755531503031e-001	 2.031038739582085e+000	 5.345776184203383e+000
 2.593012240616184e-001	 2.033534576851590e+000	 5.272147468699882e+000
 2.404643452639860e-001	 2.035847955694086e+000	 5.201668292072283e+000
 2.216672560877349e-001	 2.037980281460246e+000	 5.134280031054919e+000
 2.029122547020976e-001	 2.039932993244682e+000	 5.070095296507309e+000
 1.842015976844301e-001	 2.041707562664222e+000	 5.009394112287127e+000
 3.775733337774348e-001	 2.040358639474969e+000	 5.844490781898123e+000
 3.583162355981294e-001	 2.043828386966140e+000	 5.749133009953861e+000
 3.390845981688897e-001	 2.047106893971896e+000	 5.660709150763045e+000
 3.198809897575006e-001	 2.050195393725709e+000	 5.578141138442527e+000
 3.007079397358689e-001	 2.053095159762659e+000	 5.500543178324418e+000
 2.815679379472381e-001	 2.055807504699517e+000	 5.427219512655248e+000
 2.624634341133578e-001	 2.058333779008834e+000	 5.357661825255273e+000
 2.433968372813476e-001	 2.060675369788373e+000	 5.291546301442883e+000
 2.243705153099558e-001	 2.062833699527232e+000	 5.228730359951429e+000
 2.053867943948690e-001	 2.064810224869957e+000	 5.169249073922459e+000
 1.864479586326805e-001	 2.066606435379921e+000	 5.113311298348353e+000
 3.821224100902110e-001	 2.064941273685884e+000	 5.927045916408869e+000
 3.626332986799630e-001	 2.068452825363543e+000	 5.834495824939113e+000
 3.431699547757446e-001	 2.071770832453574e+000	 5.749383056535543e+000
 3.237349775883270e-001	 2.074896543047685e+000	 5.670511918247686e+000
 3.043309269639776e-001	 2.077831246024749e+000	 5.596885819193394e+000
 2.849603227440518e-001	 2.080576269816199e+000	 5.527705048105931e+000
 2.656256441650199e-001	 2.083132981165341e+000	 5.462364174801482e+000
 2.463293292986659e-001	 2.085502783881956e+000	 5.400449092366575e+000
 2.270737745321574e-001	 2.087687117593565e+000	 5.341733717311093e+000
 2.078613340876359e-001	 2.089687456494650e+000	 5.286176365307436e+000
 1.886943195809308e-001	 2.091505308095129e+000	 5.233915820442007e+000
 3.866714864024947e-001	 2.089523907896292e+000	 6.022152761792873e+000
 3.669503617613986e-001	 2.093077263760348e+000	 5.934200207418673e+000
 3.472553113822862e-001	 2.096434770934586e+000	 5.853882769382182e+000
 3.275889654189143e-001	 2.099597692368946e+000	 5.779885784154262e+000
 3.079539141919111e-001	 2.102567332286097e+000	 5.711100876260548e+000
 2.883527075407443e-001	 2.105345034932133e+000	 5.646623743026285e+000
 2.687878542166046e-001	 2.107932183321109e+000	 5.585751547733507e+000
 2.492618213159407e-001	 2.110330197974833e+000	 5.527979938510861e+000
 2.297770337543397e-001	 2.112540535659244e+000	 5.472999710738373e+000
 2.103358737803978e-001	 2.114564688118759e+000	 5.420693131148394e+000
 1.909406805291811e-001	 2.116404180809844e+000	 5.371129942125736e+000
 3.912205627142856e-001	 2.114106542106192e+000	 6.128676464152719e+000
 3.712674248424364e-001	 2.117701702156558e+000	 6.047214760047273e+000
 3.513406679885142e-001	 2.121098709414933e+000	 5.973280744321811e+000
 3.314429532492620e-001	 2.124298841689493e+000	 5.905439352015772e+000
 3.115769014196693e-001	 2.127303418546704e+000	 5.842469350306120e+000
 2.917450923373154e-001	 2.130113800047317e+000	 5.783361125822344e+000
 2.719500642681118e-001	 2.132731385476141e+000	 5.727314064396487e+000
 2.521943133331722e-001	 2.135157612067004e+000	 5.673733541105180e+000
 2.324802929765029e-001	 2.137393953724271e+000	 5.622227538949824e+000
 2.128104134731550e-001	 2.139441919742288e+000	 5.572602914936959e+000
 1.931870414774315e-001	 2.141303053524068e+000	 5.524861332663646e+000
 3.957696390255839e-001	 2.138689176315586e+000	 6.245481493433958e+000
 3.755844879230763e-001	 2.142326140552169e+000	 6.172506870906285e+000
 3.554260245944290e-001	 2.145762647894614e+000	 6.106647507068657e+000
 3.352969410793707e-001	 2.148999991009326e+000	 6.046346419203722e+000
 3.151998886472523e-001	 2.152039504806568e+000	 5.990268361946070e+000
 2.951374771337652e-001	 2.154882565161751e+000	 5.937297612563307e+000
 2.751122743195417e-001	 2.157530587630436e+000	 5.886535332215133e+000
 2.551268053503603e-001	 2.159985026158472e+000	 5.837296521609563e+000
 2.351835521986468e-001	 2.162247371788644e+000	 5.789106589985759e+000
 2.152849531659073e-001	 2.164319151365234e+000	 5.741697556790890e+000
 1.954334024256818e-001	 2.166201926237801e+000	 5.695003905779313e+000
 4.003187153363895e-001	 2.163271810524472e+000	 6.371431681842522e+000
 3.799015510033184e-001	 2.166950578947185e+000	 6.309042782513613e+000
 3.595113812000301e-001	 2.170426586373628e+000	 6.253051763651950e+000
 3.391509289092402e-001	 2.173701140328445e+000	 6.201778124748303e+000
 3.188228758746600e-001	 2.176775591065690e+000	 6.153771372096502e+000
 2.985298619300936e-001	 2.179651330275434e+000	 6.107808797454944e+000
 2.782744843708941e-001	 2.182329789783993e+000	 6.062892815745739e+000
 2.580592973675050e-001	 2.184812440249233e+000	 6.018247880792528e+000
 2.378868114207716e-001	 2.187100789852363e+000	 5.973316998635389e+000
 2.177594928586549e-001	 2.189196382987598e+000	 5.927757858417924e+000
 1.976797633739321e-001	 2.191100798951041e+000	 5.881438601220261e+000
 4.048677916467025e-001	 2.187854444732851e+000	 6.505390259673104e+000
 3.842186140831626e-001	 2.191575017341604e+000	 6.455787656181477e+000
 3.635967378053180e-001	 2.195090524851978e+000	 6.411560502645687e+000
 3.430049167388702e-001	 2.198402289646850e+000	 6.370903098683712e+000
 3.224458631018924e-001	 2.201511677324071e+000	 6.332248387574502e+000
 3.019222467263009e-001	 2.204420095388370e+000	 6.294265723731301e+000
 2.814366944221692e-001	 2.207128991936814e+000	 6.255858181781633e+000
 2.609917893846063e-001	 2.209639854339290e+000	 6.216159426859789e+000
 2.405900706428770e-001	 2.211954207915429e+000	 6.174530166282330e+000
 2.202340325513977e-001	 2.214073614609379e+000	 6.130554203251744e+000
 1.999261243221825e-001	 2.215999671663790e+000	 6.084034113633028e+000
 4.094168679565230e-001	 2.212437078940723e+000	 6.646219888748727e+000
 3.885356771626090e-001	 2.216199455735425e+000	 6.611705632082670e+000
 3.676820944102924e-001	 2.219754463329662e+000	 6.581239090582275e+000
 3.468589045682614e-001	 2.223103438964542e+000	 6.552887601436501e+000
 3.260688503289498e-001	 2.226247763581711e+000	 6.524966152992614e+000
 3.053146315223869e-001	 2.229188860500556e+000	 6.496035136486248e+000
 2.845989044733670e-001	 2.231928194088898e+000	 6.464897621450749e+000
 2.639242814016642e-001	 2.234467268428643e+000	 6.430596175040939e+000
 2.432933298649634e-001	 2.236807625977843e+000	 6.392409246093444e+000
 2.227085722441358e-001	 2.238950846230580e+000	 6.349847135244922e+000
 2.021724852704328e-001	 2.240898544376048e+000	 6.302647572846770e+000
 1.797088757879294e-001	 1.991909817231349e+000	 4.851854249705741e+000
 1.614999996355343e-001	 1.993468773302665e+000	 4.740537335770767e+000
 1.433386661295952e-001	 1.994856893815574e+000	 4.625081426541451e+000
 1.252269529212343e-001	 1.996075702539928e+000	 4.506491946493443e+000
 1.071668957668296e-001	 1.997126750223276e+000	 4.385916689528463e+000
 8.916048828710503e-002	 1.998011613412721e+000	 4.264640818727351e+000
 7.120968176046663e-002	 1.998731893282784e+000	 4.144081707354243e+000
 5.331638494996551e-002	 1.999289214470238e+000	 4.025783637423786e+000
 3.548246396324807e-002	 1.999685223916897e+000	 3.911412371963555e+000
 1.770974214482997e-002	 1.999921589721275e+000	 3.802749616885156e+000
 0.000000000000000e+000	 2.000000000000000e+000	 3.701687388120496e+000
 1.819552367361798e-001	 2.016808689948031e+000	 4.922226503525281e+000
 1.635187496314781e-001	 2.018387132969990e+000	 4.822189738855926e+000
 1.451303994563842e-001	 2.019792604989089e+000	 4.720527835911745e+000
 1.267922898326586e-001	 2.021026648822303e+000	 4.618173151821710e+000
 1.085064819636333e-001	 2.022090834601524e+000	 4.516204615064670e+000
 9.027499439029070e-002	 2.022986758580697e+000	 4.415842680243050e+000
 7.209980278201619e-002	 2.023716041949021e+000	 4.318444115732530e+000
 5.398283976139826e-002	 2.024280329651229e+000	 4.225496640987422e+000
 3.592599476242820e-002	 2.024681289215908e+000	 4.138613430108267e+000
 1.793111392142740e-002	 2.024920609592803e+000	 4.059527498059563e+000
 0.000000000000000e+000	 2.025000000000000e+000	 3.990085985667534e+000
 1.842015976844301e-001	 2.041707562664222e+000	 5.009394112287127e+000
 1.655374996274219e-001	 2.043305492636919e+000	 4.919249730585078e+000
 1.469221327831731e-001	 2.044728316162292e+000	 4.829641313023033e+000
 1.283576267440828e-001	 2.045977595104440e+000	 4.741430710522138e+000
 1.098460681604370e-001	 2.047054918979600e+000	 4.655630849017834e+000
 9.138950049347637e-002	 2.047961903748552e+000	 4.573400630285446e+000
 7.298992380356573e-002	 2.048700190615181e+000	 4.496039657035140e+000
 5.464929457283099e-002	 2.049271444832177e+000	 4.424982799552534e+000
 3.636952556160832e-002	 2.049677354514901e+000	 4.361794620984916e+000
 1.815248569802481e-002	 2.049919629464327e+000	 4.308163678160732e+000
 0.000000000000000e+000	 2.050000000000000e+000	 4.265896714565402e+000
 1.864479586326805e-001	 2.066606435379921e+000	 5.113311298348353e+000
 1.675562496233656e-001	 2.068223852303450e+000	 5.031774769437419e+000
 1.487138661099620e-001	 2.069664027335182e+000	 4.952584505706033e+000
 1.299229636555070e-001	 2.070928541386338e+000	 4.876534331959380e+000
 1.111856543572407e-001	 2.072019003357500e+000	 4.804573955509746e+000
 9.250400659666205e-002	 2.072937048916287e+000	 4.737803804092001e+000
 7.388004482511527e-002	 2.073684339281264e+000	 4.677469679211608e+000
 5.531574938426372e-002	 2.074262560013082e+000	 4.624957242716189e+000
 3.681305636078845e-002	 2.074673419813873e+000	 4.581786354213253e+000
 1.837385747462224e-002	 2.074918649335846e+000	 4.549605276739081e+000
 0.000000000000000e+000	 2.075000000000000e+000	 4.530184767822000e+000
 1.886943195809308e-001	 2.091505308095129e+000	 5.233915820442007e+000
 1.695749996193094e-001	 2.093142211969584e+000	 5.159803591029359e+000
 1.505055994367510e-001	 2.094599738507759e+000	 5.089498810177052e+000
 1.314883005669313e-001	 2.095879487667999e+000	 5.023729679313727e+000
 1.125252405540444e-001	 2.096983087735225e+000	 4.963385395870605e+000
 9.361851269984771e-002	 2.097912194083901e+000	 4.909510919330973e+000
 7.477016584666481e-002	 2.098668487947270e+000	 4.863301543636942e+000
 5.598220419569647e-002	 2.099253675193944e+000	 4.826097294287250e+000
 3.725658715996857e-002	 2.099669485112828e+000	 4.799377168290636e+000
 1.859522925121965e-002	 2.099917669207359e+000	 4.784753234922294e+000
 0.000000000000000e+000	 2.100000000000000e+000	 4.783964614968626e+000
 1.909406805291811e-001	 2.116404180809844e+000	 5.371129942125736e+000
 1.715937496152531e-001	 2.118060571635321e+000	 5.303357309459084e+000
 1.522973327635400e-001	 2.119535449680024e+000	 5.240505621132876e+000
 1.330536374783555e-001	 2.120830433949419e+000	 5.183239784062300e+000
 1.138648267508481e-001	 2.121947172112775e+000	 5.132391122921463e+000
 9.473301880303341e-002	 2.122887339251393e+000	 5.088952065369813e+000
 7.566028686821437e-002	 2.123652636613199e+000	 5.054070624321693e+000
 5.664865900712922e-002	 2.124244790374762e+000	 5.029044696156320e+000
 3.770011795914870e-002	 2.124665550411762e+000	 5.015316193599793e+000
 1.881660102781707e-002	 2.124916689078869e+000	 5.014465031792819e+000
 0.000000000000000e+000	 2.125000000000000e+000	 5.028202985793988e+000
 1.931870414774315e-001	 2.141303053524068e+000	 5.524861332663646e+000
 1.736124996111969e-001	 2.142978931300661e+000	 5.462440441813968e+000
 1.540890660903289e-001	 2.144471160851976e+000	 5.405707494630170e+000
 1.346189743897798e-001	 2.145781380230602e+000	 5.355266361775965e+000
 1.152044129476518e-001	 2.146911256490151e+000	 5.311893064026313e+000
 9.584752490621905e-002	 2.147862484418765e+000	 5.276530367711287e+000
 7.655040788976392e-002	 2.148636785279050e+000	 5.250282167642761e+000
 5.731511381856196e-002	 2.149235905555537e+000	 5.234407677011859e+000
 3.814364875832882e-002	 2.149661615710678e+000	 5.230315443577731e+000
 1.903797280441450e-002	 2.149915708950374e+000	 5.239557211251421e+000
 0.000000000000000e+000	 2.150000000000000e+000	 5.263821645910666e+000
 1.954334024256818e-001	 2.166201926237801e+000	 5.695003905779313e+000
 1.756312496071406e-001	 2.167897290965605e+000	 5.637041862021161e+000
 1.558807994171179e-001	 2.169406872023616e+000	 5.585189230765524e+000
 1.361843113012040e-001	 2.170732326511546e+000	 5.539991037171149e+000
 1.165439991444555e-001	 2.171875340867353e+000	 5.502170501866245e+000
 9.696203100940475e-002	 2.172837629586016e+000	 5.472623537641098e+000
 7.744052891131344e-002	 2.173620933944824e+000	 5.452413023816184e+000
 5.798156862999471e-002	 2.174227020736269e+000	 5.442762878386146e+000
 3.858717955750896e-002	 2.174657681009574e+000	 5.445051947873992e+000
 1.925934458101192e-002	 2.174914728821873e+000	 5.460807734613132e+000
 0.000000000000000e+000	 2.175000000000000e+000	 5.491699980903092e+000
 1.976797633739321e-001	 2.191100798951041e+000	 5.881438601220261e+000
 1.776499996030844e-001	 2.192815650630152e+000	 5.827135689663862e+000
 1.576725327439068e-001	 2.194342583194942e+000	 5.779018882537037e+000
 1.377496482126283e-001	 2.195683272792251e+000	 5.737576485635866e+000
 1.178835853412592e-001	 2.196839425244380e+000	 5.703481361068505e+000
 9.807653711259042e-002	 2.197812774753146e+000	 5.677585316217148e+000
 7.833064993286298e-002	 2.198605082610522e+000	 5.660913260315842e+000
 5.864802344142745e-002	 2.199218135916958e+000	 5.654657149380504e+000
 3.903071035668908e-002	 2.199653746308452e+000	 5.660169740065651e+000
 1.948071635760934e-002	 2.199913748693368e+000	 5.678958172800300e+000
 0.000000000000000e+000	 2.199999999999999e+000	 5.712677404283721e+000
 1.999261243221825e-001	 2.215999671663790e+000	 6.084034113633028e+000
 1.796687495990281e-001	 2.217734010294301e+000	 6.032682118877090e+000
 1.594642660706957e-001	 2.219278294365957e+000	 5.987248696692566e+000
 1.393149851240525e-001	 2.220634219072718e+000	 5.948167497798720e+000
 1.192231715380629e-001	 2.221803509621232e+000	 5.916063408097610e+000
 9.919104321577608e-002	 2.222787919920156e+000	 5.891746820911994e+000
 7.922077095441255e-002	 2.223589231276142e+000	 5.876207666521370e+000
 5.931447825286017e-002	 2.224209251097604e+000	 5.870609220396779e+000
 3.947424115586921e-002	 2.224649811607310e+000	 5.876281711369187e+000
 1.970208813420676e-002	 2.224912768564858e+000	 5.894715750746243e+000
 0.000000000000000e+000	 2.224999999999999e+000	 5.927555603115053e+000
 2.021724852704328e-001	 2.240898544376048e+000	 6.302647572846770e+000
 1.816874995949720e-001	 2.242652369958055e+000	 6.253628191983329e+000
 1.612559993974847e-001	 2.244214005536660e+000	 6.209915991854726e+000
 1.408803220354768e-001	 2.245585165352947e+000	 6.171891973126574e+000
 1.205627577348666e-001	 2.246767593997911e+000	 6.140135371153125e+000
 1.003055493189618e-001	 2.247763065087045e+000	 6.115417802478283e+000
 8.011089197596211e-002	 2.248573379941687e+000	 6.098697158057215e+000
 5.998093306429295e-002	 2.249200366278207e+000	 6.091111265287808e+000
 3.991777195504935e-002	 2.249645876906150e+000	 6.093971340771656e+000
 1.992345991080419e-002	 2.249911788436346e+000	 6.108755255505912e+000
 0.000000000000000e+000	 2.250000000000000e+000	 6.137100633923496e+000
 2.250000000000000e+000	 0.000000000000000e+000	 1.147235928360548e+001
 2.249911788436345e+000	 1.992345991080426e-002	 1.156123033336762e+001
 2.249645876906150e+000	 3.991777195504948e-002	 1.163244210196010e+001
 2.249200366278207e+000	 5.998093306429280e-002	 1.168721108054686e+001
 2.248573379941687e+000	 8.011089197596205e-002	 1.172673947942553e+001
 2.247763065087045e+000	 1.003055493189618e-001	 1.175221336282328e+001
 2.246767593997911e+000	 1.205627577348667e-001	 1.176480079026797e+001
 2.245585165352948e+000	 1.408803220354769e-001	 1.176564996894006e+001
 2.244214005536660e+000	 1.612559993974846e-001	 1.175588742151251e+001
 2.242652369958055e+000	 1.816874995949719e-001	 1.173661617407785e+001
 2.240898544376048e+000	 2.021724852704328e-001	 1.170891396884098e+001
 2.275000000000000e+000	 0.000000000000000e+000	 1.147876945088301e+001
 2.274910808307830e+000	 2.014483168749044e-002	 1.156702111982036e+001
 2.274641942204990e+000	 4.036130275438817e-002	 1.163756900161721e+001
 2.274191481458810e+000	 6.064738787593468e-002	 1.169165306889574e+001
 2.273557528607231e+000	 8.100101299775192e-002	 1.173049824682422e+001
 2.272738210253934e+000	 1.014200554223994e-001	 1.175531250149353e+001
 2.271731678374588e+000	 1.219023439319140e-001	 1.176728493583072e+001
 2.270536111633176e+000	 1.424456589471165e-001	 1.176758389759672e+001
 2.269149716707362e+000	 1.630477327244404e-001	 1.175735510411897e+001
 2.267570729621808e+000	 1.837062495910136e-001	 1.173771978850276e+001
 2.265797417088305e+000	 2.044188462186914e-001	 1.170977287214626e+001
 2.300000000000000e+000	 0.000000000000000e+000	 1.148104633288734e+001
 2.299909828179320e+000	 2.036620346435412e-002	 1.156803204973991e+001
 2.299638007503847e+000	 4.080483355404389e-002	 1.163734678706130e+001
 2.299182596639455e+000	 6.131384268799480e-002	 1.169025482758205e+001
 2.298541677272850e+000	 8.189113402002239e-002	 1.172800457496803e+001
 2.297713355420944e+000	 1.025345615263407e-001	 1.175182659351270e+001
 2.296695762751440e+000	 1.232419301294487e-001	 1.176293165637357e+001
 2.295487057913643e+000	 1.440109958591868e-001	 1.176250880704784e+001
 2.294085427878376e+000	 1.648394660517298e-001	 1.175172343888611e+001
 2.292489089285958e+000	 1.857249995872509e-001	 1.173171539753975e+001
 2.290696289801054e+000	 2.066652071669667e-001	 1.170359711131745e+001
 2.325000000000000e+000	 0.000000000000000e+000	 1.147895271764133e+001
 2.324908848050816e+000	 2.058757524139532e-002	 1.156402965990811e+001
 2.324634072802724e+000	 4.124836435401671e-002	 1.163154568693897e+001
 2.324173711820144e+000	 6.198029750047319e-002	 1.168279021570284e+001
 2.323525825938548e+000	 8.278125504277356e-002	 1.171903588702670e+001
 2.322688500588074e+000	 1.036490676307858e-001	 1.174153655432955e+001
 2.321659847128467e+000	 1.245815163274705e-001	 1.175152528195437e+001
 2.320438004194349e+000	 1.455763327716879e-001	 1.175021235794543e+001
 2.319021139049703e+000	 1.666311993793530e-001	 1.173878332622527e+001
 2.317407448950504e+000	 1.877437495836841e-001	 1.171839704322277e+001
 2.315595162514295e+000	 2.089115681152584e-001	 1.169018376408578e+001
 2.350000000000000e+000	 0.000000000000000e+000	 1.147226148729416e+001
 2.349907867922315e+000	 2.080894701861403e-002	 1.155479078237776e+001
 2.349630138101621e+000	 4.169189515430661e-002	 1.161994646438716e+001
 2.349164827000877e+000	 6.264675231336984e-002	 1.166904390446411e+001
 2.348509974604323e+000	 8.367137606600532e-002	 1.170338073460578e+001
 2.347663645755325e+000	 1.047635737357348e-001	 1.172423478315737e+001
 2.346623931505669e+000	 1.259211025259797e-001	 1.173286202100241e+001
 2.345388950475293e+000	 1.471416696846196e-001	 1.173049452345803e+001
 2.343956850221343e+000	 1.684229327073098e-001	 1.171833845298926e+001
 2.342325808615447e+000	 1.897624995803131e-001	 1.169757206795605e+001
 2.340494035228027e+000	 2.111579290635668e-001	 1.166934376269015e+001
 2.375000000000000e+000	 0.000000000000000e+000	 1.146075508685143e+001
 2.374906887793820e+000	 2.103031879601026e-002	 1.154010200261643e+001
 2.374626203400537e+000	 4.213542595491358e-002	 1.160233986258631e+001
 2.374155942181652e+000	 6.331320712668474e-002	 1.164881080812226e+001
 2.373494123270174e+000	 8.456149708971776e-002	 1.168083821203966e+001
 2.372638790922697e+000	 1.058780798411875e-001	 1.169972455856544e+001
 2.371588015883045e+000	 1.272606887249762e-001	 1.170674933514125e+001
 2.370339896756476e+000	 1.487070065979821e-001	 1.170316694124366e+001
 2.368892561393295e+000	 1.702146660356002e-001	 1.169020461950172e+001
 2.367244168280787e+000	 1.917812495771377e-001	 1.166906041449426e+001
 2.365392907942251e+000	 2.134042900118918e-001	 1.164090116469221e+001
 2.400000000000000e+000	 0.000000000000000e+000	 1.144422502610994e+001
 2.399905907665330e+000	 2.125169057358399e-002	 1.151975915151597e+001
 2.399622268699472e+000	 4.257895675583762e-002	 1.157852608496642e+001
 2.399147057362470e+000	 6.397966194041792e-002	 1.162189555049222e+001
 2.398478271936103e+000	 8.545161811391080e-002	 1.165121740729103e+001
 2.397613936090189e+000	 1.069925859471440e-001	 1.166781947184574e+001
 2.396552100260595e+000	 1.286002749244599e-001	 1.167300535308466e+001
 2.395290843037896e+000	 1.502723435117752e-001	 1.166805230592408e+001
 2.393828272565559e+000	 1.720063993642244e-001	 1.165420910864727e+001
 2.392162527946526e+000	 1.937999995741583e-001	 1.163269396967453e+001
 2.390291780656967e+000	 2.156506509602334e-001	 1.160469246936597e+001
 2.425000000000000e+000	 0.000000000000000e+000	 1.142247141240026e+001
 2.424904927536844e+000	 2.147306235133523e-002	 1.149356682882433e+001
 2.424618333998425e+000	 4.302248755707874e-002	 1.154831430756545e+001
 2.424138172543332e+000	 6.464611675456937e-002	 1.158811196445449e+001
 2.423462420602109e+000	 8.634173913858451e-002	 1.161433688681538e+001
 2.422589081257803e+000	 1.081070920536042e-001	 1.162834289542953e+001
 2.421516184638321e+000	 1.299398611244310e-001	 1.163145832078669e+001
 2.420241789319556e+000	 1.518376804259992e-001	 1.162498379913849e+001
 2.418763983738137e+000	 1.737981326931822e-001	 1.161019009398681e+001
 2.417080887612659e+000	 1.958187495713745e-001	 1.158831594874190e+001
 2.415190653372174e+000	 2.178970119085915e-001	 1.156056597637224e+001
 2.449999999999999e+000	 0.000000000000000e+000	 1.139530251193708e+001
 2.449903947408363e+000	 2.169443412926399e-002	 1.146133795575492e+001
 2.449614399297399e+000	 4.346601835863694e-002	 1.151152222124308e+001
 2.449129287724237e+000	 6.531257156913906e-002	 1.154728262210503e+001
 2.448446569268191e+000	 8.723186016373882e-002	 1.157002421196450e+001
 2.447564226425537e+000	 1.092215981605683e-001	 1.158112748384936e+001
 2.446480269016221e+000	 1.312794473248893e-001	 1.158194608525589e+001
 2.445192735601454e+000	 1.534030173406537e-001	 1.157380455449131e+001
 2.443699694911027e+000	 1.755898660224738e-001	 1.155799608411081e+001
 2.441999247279191e+000	 1.978374995687865e-001	 1.153578031736937e+001
 2.440089526087873e+000	 2.201433728569663e-001	 1.150838118369824e+001
 2.474999999999999e+000	 0.000000000000000e+000	 1.136253433775450e+001
 2.474902967279886e+000	 2.191580590737025e-002	 1.142289335471065e+001
 2.474610464596390e+000	 4.390954916051220e-002	 1.146797560163919e+001
 2.474120402905185e+000	 6.597902638412702e-002	 1.149923839338063e+001
 2.473430717934352e+000	 8.812198118937382e-002	 1.151811548469883e+001
 2.472539371593392e+000	 1.103361042680361e-001	 1.152601470494633e+001
 2.471444353394296e+000	 1.326190335258349e-001	 1.152431560965362e+001
 2.470143681883590e+000	 1.549683542557390e-001	 1.151436715492794e+001
 2.468635406084229e+000	 1.773815993520990e-001	 1.149748540066810e+001
 2.466917606946119e+000	 1.998562495663942e-001	 1.147495124870699e+001
 2.464988398804064e+000	 2.223897338053576e-001	 1.144800822208542e+001
 2.500000000000000e+000	 0.000000000000000e+000	 1.132399026236491e+001
 2.499901987151415e+000	 2.213717768565403e-002	 1.137806135422448e+001
 2.499606529895403e+000	 4.435307996270457e-002	 1.141750790493505e+001
 2.499111518086177e+000	 6.664548119953326e-002	 1.144381803116692e+001
 2.498414866600589e+000	 8.901210221548944e-002	 1.145845492055685e+001
 2.497514516761369e+000	 1.114506103760078e-001	 1.146285439920449e+001
 2.496408437772546e+000	 1.339586197272678e-001	 1.145842251748634e+001
 2.495094628165966e+000	 1.565336911712552e-001	 1.144653316026756e+001
 2.493571117257746e+000	 1.791733326820579e-001	 1.142852568771294e+001
 2.491835966613445e+000	 2.018749995641979e-001	 1.140570261300799e+001
 2.489887271520747e+000	 2.246360947537655e-001	 1.137932732339165e+001
 2.240898544376048e+000	 2.021724852704328e-001	 1.170891396884098e+001
 2.238950846230580e+000	 2.227085722441359e-001	 1.172789557519640e+001
 2.236807625977843e+000	 2.432933298649635e-001	 1.174405210919624e+001
 2.234467268428642e+000	 2.639242814016641e-001	 1.175832806538455e+001
 2.231928194088898e+000	 2.845989044733669e-001	 1.177163198748604e+001
 2.229188860500556e+000	 3.053146315223868e-001	 1.178483483888630e+001
 2.226247763581711e+000	 3.260688503289499e-001	 1.179876843063506e+001
 2.223103438964543e+000	 3.468589045682615e-001	 1.181422391199114e+001
 2.219754463329662e+000	 3.676820944102923e-001	 1.183195032849077e+001
 2.216199455735425e+000	 3.885356771626088e-001	 1.185265325246533e+001
 2.212437078940723e+000	 4.094168679565229e-001	 1.187699349086282e+001
 2.265797417088305e+000	 2.044188462186914e-001	 1.170977287214626e+001
 2.263828077851779e+000	 2.251831119367893e-001	 1.172594919190966e+001
 2.261661044040257e+000	 2.459965890868868e-001	 1.173916785166542e+001
 2.259294682517994e+000	 2.668567734184952e-001	 1.175040848775251e+001
 2.256727396240981e+000	 2.877611145242887e-001	 1.176061424131844e+001
 2.253957625612741e+000	 3.087070163181624e-001	 1.177069009099092e+001
 2.250983849839349e+000	 3.296918375556777e-001	 1.178150124455372e+001
 2.247804588282233e+000	 3.507128923973187e-001	 1.179387159477195e+001
 2.244418401807346e+000	 3.717674510149442e-001	 1.180858224447359e+001
 2.240823894129246e+000	 3.928527402417593e-001	 1.182637010593765e+001
 2.237019713148594e+000	 4.139659442660895e-001	 1.184792657956330e+001
 2.290696289801054e+000	 2.066652071669667e-001	 1.170359711131745e+001
 2.288705309473562e+000	 2.276576516292786e-001	 1.171815012020048e+001
 2.286514462103322e+000	 2.486998483085035e-001	 1.172970479292478e+001
 2.284122096608051e+000	 2.697892654349161e-001	 1.173927567126506e+001
 2.281526598393801e+000	 2.909233245747359e-001	 1.174784016246112e+001
 2.278726390725677e+000	 3.120994011134391e-001	 1.175633683260277e+001
 2.275719936097731e+000	 3.333148247819217e-001	 1.176566376061464e+001
 2.272505737600639e+000	 3.545668802259481e-001	 1.177667695811943e+001
 2.269082340285696e+000	 3.758528076192647e-001	 1.179018886041788e+001
 2.265448332523665e+000	 3.971698033207161e-001	 1.180696689376433e+001
 2.261602347356972e+000	 4.185150205756415e-001	 1.182773212403857e+001
 2.315595162514295e+000	 2.089115681152584e-001	 1.169018376408578e+001
 2.313582541095926e+000	 2.301321913216035e-001	 1.170426525001682e+001
 2.311367880167042e+000	 2.514031075298135e-001	 1.171539920576035e+001
 2.308949510698812e+000	 2.727217574509268e-001	 1.172463484319971e+001
 2.306325800547358e+000	 2.940855346247087e-001	 1.173298350519189e+001
 2.303495155839361e+000	 3.154917859082165e-001	 1.174141691818344e+001
 2.300456022356852e+000	 3.369378120076821e-001	 1.175086550713796e+001
 2.297206886919757e+000	 3.584208680541495e-001	 1.176221677819335e+001
 2.293746278764711e+000	 3.799381642232538e-001	 1.177631377442302e+001
 2.290072770918681e+000	 4.014868663994788e-001	 1.179395361001532e+001
 2.286184981565858e+000	 4.230640968851787e-001	 1.181588608810350e+001
 2.340494035228027e+000	 2.111579290635668e-001	 1.166934376269015e+001
 2.338459772718871e+000	 2.326067310137641e-001	 1.168407732925127e+001
 2.336221298231414e+000	 2.541063667508168e-001	 1.169600527793850e+001
 2.333776924790280e+000	 2.756542494665273e-001	 1.170621125615593e+001
 2.331125002701654e+000	 2.972477446742071e-001	 1.171574021243037e+001
 2.328263920953794e+000	 3.188841707024949e-001	 1.172559660677201e+001
 2.325192108616717e+000	 3.405607992329587e-001	 1.173674268517555e+001
 2.321908036239590e+000	 3.622748558819228e-001	 1.175009682382395e+001
 2.318410217244391e+000	 3.840235208269115e-001	 1.176653194851288e+001
 2.314697209314292e+000	 4.058039294780479e-001	 1.178687403474914e+001
 2.310767615775252e+000	 4.276131731947014e-001	 1.181190069389312e+001
 2.365392907942251e+000	 2.134042900118918e-001	 1.164090116469221e+001
 2.363337004342399e+000	 2.350812707057606e-001	 1.165738412911230e+001
 2.361074716296441e+000	 2.568096259715135e-001	 1.167129416931213e+001
 2.358604338882452e+000	 2.785867414817178e-001	 1.168374913409069e+001
 2.355924204856684e+000	 3.004099547232310e-001	 1.169582724791467e+001
 2.353032686068978e+000	 3.222765554962742e-001	 1.170856527753392e+001
 2.349928194877323e+000	 3.441837864577516e-001	 1.172295676468289e+001
 2.346609185560137e+000	 3.661288437092684e-001	 1.173995033058188e+001
 2.343074155724738e+000	 3.881088774302378e-001	 1.176044805790320e+001
 2.339321647710501e+000	 4.101209925564233e-001	 1.178530395580298e+001
 2.335350249985152e+000	 4.321622495042093e-001	 1.181532251353009e+001
 2.390291780656967e+000	 2.156506509602334e-001	 1.160469246936597e+001
 2.388214235966510e+000	 2.375558103975928e-001	 1.162399766165990e+001
 2.385928134362120e+000	 2.595128851919036e-001	 1.164105312785800e+001
 2.383431752975329e+000	 2.815192334964979e-001	 1.165701068422702e+001
 2.380723407012454e+000	 3.035721647717806e-001	 1.167298150136718e+001
 2.377801451184912e+000	 3.256689402895543e-001	 1.169003422558735e+001
 2.374664281138672e+000	 3.478067736820609e-001	 1.170919316843048e+001
 2.371310334881398e+000	 3.699828315361859e-001	 1.173143657021880e+001
 2.367738094205750e+000	 3.921942340332325e-001	 1.175769494343937e+001
 2.363946086107307e+000	 4.144380556346049e-001	 1.178884950172094e+001
 2.359932884195560e+000	 4.367113258137025e-001	 1.182573068006287e+001
 2.415190653372174e+000	 2.178970119085915e-001	 1.156056597637224e+001
 2.413091467591202e+000	 2.400303500892606e-001	 1.158374344574098e+001
 2.410781552428453e+000	 2.622161444119870e-001	 1.160508466039178e+001
 2.408259167068910e+000	 2.844517255108678e-001	 1.162577517008143e+001
 2.405522609168961e+000	 3.067343748198555e-001	 1.164695876138187e+001
 2.402570216301593e+000	 3.290613250823354e-001	 1.166973553231522e+001
 2.399400367400762e+000	 3.514297609058863e-001	 1.169516003732247e+001
 2.396011484203374e+000	 3.738368193626756e-001	 1.172423950859631e+001
 2.392402032687428e+000	 3.962795906358960e-001	 1.175793215976004e+001
 2.388570524504710e+000	 4.187551187125926e-001	 1.179714557780016e+001
 2.384515518406475e+000	 4.412604021231812e-001	 1.184273520906759e+001
 2.440089526087873e+000	 2.201433728569663e-001	 1.150838118369824e+001
 2.437968699216476e+000	 2.425048897807643e-001	 1.153645981786766e+001
 2.435634970495439e+000	 2.649194036317638e-001	 1.156320575405593e+001
 2.433086581163198e+000	 2.873842175248277e-001	 1.158983804124492e+001
 2.430321811326203e+000	 3.098965848674560e-001	 1.161753275119611e+001
 2.427338981419026e+000	 3.324537098746174e-001	 1.164742100484136e+001
 2.424136453663594e+000	 3.550527481292280e-001	 1.168058707130845e+001
 2.420712633526063e+000	 3.776908071887373e-001	 1.171806654578232e+001
 2.417065971169772e+000	 4.003649472382279e-001	 1.176084461234833e+001
 2.413194962902710e+000	 4.230721817903866e-001	 1.180985439788913e+001
 2.409098152617898e+000	 4.458094784326451e-001	 1.186597542300896e+001
 2.464988398804064e+000	 2.223897338053576e-001	 1.144800822208542e+001
 2.462845930842334e+000	 2.449794294721036e-001	 1.148199728486034e+001
 2.460488388563079e+000	 2.676226628512339e-001	 1.151524714499004e+001
 2.457913995258191e+000	 2.903167095383774e-001	 1.154901011590429e+001
 2.455121013484185e+000	 3.130587949145821e-001	 1.158449422290081e+001
 2.452107746537208e+000	 3.358460946664003e-001	 1.162286117978095e+001
 2.448872539927168e+000	 3.586757353520861e-001	 1.166522444054259e+001
 2.445413782849465e+000	 3.815447950143708e-001	 1.171264733250533e+001
 2.441729909652781e+000	 4.044503038402285e-001	 1.176614127718641e+001
 2.437819401301307e+000	 4.273892448679869e-001	 1.182666410516800e+001
 2.433680786829828e+000	 4.503585547420945e-001	 1.189511847109439e+001
 2.489887271520747e+000	 2.246360947537655e-001	 1.137932732339165e+001
 2.487723162468774e+000	 2.474539691632789e-001	 1.142021791533233e+001
 2.485341806631373e+000	 2.703259220703974e-001	 1.146105263088097e+001
 2.482741409353889e+000	 2.932492015515169e-001	 1.150311681241254e+001
 2.479920215642903e+000	 3.162210049612338e-001	 1.154765010599741e+001
 2.476876511656140e+000	 3.392384794576842e-001	 1.159584438676595e+001
 2.473608626191484e+000	 3.622987225744604e-001	 1.164884176187348e+001
 2.470114932173583e+000	 3.853987828395769e-001	 1.170773265762135e+001
 2.466393848136456e+000	 4.085356604418977e-001	 1.177355399723034e+001
 2.462443839700501e+000	 4.317063079453934e-001	 1.184728747568205e+001
 2.458263421042266e+000	 4.549076310515292e-001	 1.192985793793697e+001
 2.212437078940723e+000	 4.094168679565229e-001	 1.187699349086282e+001
 2.208466040719535e+000	 4.303228404769294e-001	 1.191172493043349e+001
 2.204285095166384e+000	 4.512507277356548e-001	 1.194612217181114e+001
 2.199893043990709e+000	 4.721976228884910e-001	 1.198052224744330e+001
 2.195288737798134e+000	 4.931605800963979e-001	 1.201521455352826e+001
 2.190471077357688e+000	 5.141366154304753e-001	 1.205044021911822e+001
 2.185439014853160e+000	 5.351227078207387e-001	 1.208639158147408e+001
 2.180191555116963e+000	 5.561158000485696e-001	 1.212321177123004e+001
 2.174727756844883e+000	 5.771127997826460e-001	 1.216099441069240e+001
 2.169046733790038e+000	 5.981105806580939e-001	 1.219978342834758e+001
 2.163147655934445e+000	 6.191059833985354e-001	 1.223957299238510e+001
 2.237019713148594e+000	 4.139659442660895e-001	 1.184792657956330e+001
 2.233004552281214e+000	 4.351042053694189e-001	 1.187303549151488e+001
 2.228777151778144e+000	 4.562646247082412e-001	 1.189779575692726e+001
 2.224336300034484e+000	 4.774442631400798e-001	 1.192251481846819e+001
 2.219680834884810e+000	 4.986401420943507e-001	 1.194745087021586e+001
 2.214809644884473e+000	 5.198492444873888e-001	 1.197281225312816e+001
 2.209721670574856e+000	 5.410685156817662e-001	 1.199875696123405e+001
 2.204415905730960e+000	 5.622948644897695e-001	 1.202539226216469e+001
 2.198891398589630e+000	 5.835251642208400e-001	 1.205277443539791e+001
 2.193147253056797e+000	 6.047562537727171e-001	 1.208090863132762e+001
 2.187182629892056e+000	 6.259849387659531e-001	 1.211844522443418e+001
 2.261602347356972e+000	 4.185150205756415e-001	 1.182773212403857e+001
 2.257543063843300e+000	 4.398855702620842e-001	 1.184308457229081e+001
 2.253269208390209e+000	 4.612785216811742e-001	 1.185815621891928e+001
 2.248779556078466e+000	 4.826909033921670e-001	 1.187322458307682e+001
 2.244072931971593e+000	 5.041197040929338e-001	 1.188851623227708e+001
 2.239148212411263e+000	 5.255618735450450e-001	 1.190420620361414e+001
 2.234004326296460e+000	 5.470143235436286e-001	 1.192041754031621e+001
 2.228640256344763e+000	 5.684739289318761e-001	 1.193722094731462e+001
 2.223055040334082e+000	 5.899375286599926e-001	 1.195463456925455e+001
 2.217247772323163e+000	 6.114019268883302e-001	 1.197262389409992e+001
 2.211217603849173e+000	 6.328638941343707e-001	 1.206422853545218e+001
 2.286184981565858e+000	 4.230640968851787e-001	 1.181588608810350e+001
 2.282081575405792e+000	 4.446669351549252e-001	 1.182138505751523e+001
 2.277761265002584e+000	 4.662924186544543e-001	 1.182675302744410e+001
 2.273222812122656e+000	 4.879375436447528e-001	 1.183223722982251e+001
 2.268465029058483e+000	 5.095992660921478e-001	 1.183803215057846e+001
 2.263486779938061e+000	 5.312745026034440e-001	 1.184427897601090e+001
 2.258286982017970e+000	 5.529601314063258e-001	 1.185106515925387e+001
 2.252864606958372e+000	 5.746529933748896e-001	 1.185842411057918e+001
 2.247218682078240e+000	 5.963498931001033e-001	 1.186633501502025e+001
 2.241348291589134e+000	 6.180476000049325e-001	 1.187472278051351e+001
 2.235252577805797e+000	 6.397428495037884e-001	 1.202706485482399e+001
 2.310767615775252e+000	 4.276131731947014e-001	 1.181190069389312e+001
 2.306620086968692e+000	 4.494483000479418e-001	 1.180748557492746e+001
 2.302253321615266e+000	 4.713063156280811e-001	 1.180317092499897e+001
 2.297666068167052e+000	 4.931841838978370e-001	 1.179917329573182e+001
 2.292857126145480e+000	 5.150788280919920e-001	 1.179565460643989e+001
 2.287825347464866e+000	 5.369871316625857e-001	 1.179272161508304e+001
 2.282569637739387e+000	 5.589059392698582e-001	 1.179042551421219e+001
 2.277088957571788e+000	 5.808320578188099e-001	 1.178876165572486e+001
 2.271382323822107e+000	 6.027622575411730e-001	 1.178766940797400e+001
 2.265448810854711e+000	 6.246932731225248e-001	 1.178703214847403e+001
 2.259287551761927e+000	 6.466218048742060e-001	 1.200623634169796e+001
 2.335350249985152e+000	 4.321622495042093e-001	 1.181532251353009e+001
 2.331158598532001e+000	 4.542296649411343e-001	 1.180096861404255e+001
 2.326745378228254e+000	 4.763202126020547e-001	 1.178702807045633e+001
 2.322109324211656e+000	 4.984308241514198e-001	 1.177368633217462e+001
 2.317249223232583e+000	 5.205583900924671e-001	 1.176107223740030e+001
 2.312163914991677e+000	 5.426997607224701e-001	 1.174925750811829e+001
 2.306852293460711e+000	 5.648517471342254e-001	 1.173825637511298e+001
 2.301313308185010e+000	 5.870111222636373e-001	 1.172802533691866e+001
 2.295545965565678e+000	 6.091746219832008e-001	 1.171846305630950e+001
 2.289549330119896e+000	 6.313389462411065e-001	 1.177834796513659e+001
 2.283322525717564e+000	 6.535007602456238e-001	 1.200105661250816e+001
 2.359932884195560e+000	 4.367113258137025e-001	 1.182573068006287e+001
 2.355697110095715e+000	 4.590110298345022e-001	 1.180144876251719e+001
 2.351237434841551e+000	 4.813341095763753e-001	 1.177797429862774e+001
 2.346552580256467e+000	 5.036774644055011e-001	 1.175546118536698e+001
 2.341641320319795e+000	 5.260379520935724e-001	 1.173400463637293e+001
 2.336502482518495e+000	 5.484123897830971e-001	 1.171364070042116e+001
 2.331134949181941e+000	 5.707975549994273e-001	 1.169434591512662e+001
 2.325537658798040e+000	 5.931901867093714e-001	 1.167603709985298e+001
 2.319709607308956e+000	 6.155869864261873e-001	 1.165857129150428e+001
 2.313649849384685e+000	 6.379846193606776e-001	 1.178805156193381e+001
 2.307357499672707e+000	 6.603797156180414e-001	 1.201086910257430e+001
 2.384515518406475e+000	 4.412604021231812e-001	 1.184273520906759e+001
 2.380235621659837e+000	 4.637923947280462e-001	 1.180857105160635e+001
 2.375729491455153e+000	 4.863480065510425e-001	 1.177568948748341e+001
 2.370995836301484e+000	 5.089241046600809e-001	 1.174421238323488e+001
 2.366033417407113e+000	 5.315175140953082e-001	 1.171420075600756e+001
 2.360841050045321e+000	 5.541250188444671e-001	 1.168565431500278e+001
 2.355417604903078e+000	 5.767433628654642e-001	 1.165851114349419e+001
 2.349762009410875e+000	 5.993692511560124e-001	 1.163264752548164e+001
 2.343873249051941e+000	 6.219993508701321e-001	 1.160787792072778e+001
 2.337750368649083e+000	 6.446302924812387e-001	 1.181230770620017e+001
 2.331392473627356e+000	 6.672586709914591e-001	 1.203504552904573e+001
 2.409098152617898e+000	 4.458094784326451e-001	 1.186597542300896e+001
 2.404774133224367e+000	 4.685737596217657e-001	 1.182200940291862e+001
 2.400221548069064e+000	 4.913619035260567e-001	 1.177988202533824e+001
 2.395439092346710e+000	 5.141707449151590e-001	 1.173968262104127e+001
 2.390425514494538e+000	 5.369970760976746e-001	 1.170143741074481e+001
 2.385179617572153e+000	 5.598376479065795e-001	 1.166510906902459e+001
 2.379700260624122e+000	 5.826891707323360e-001	 1.163059643429960e+001
 2.373986360023517e+000	 6.055483156035603e-001	 1.159773436903706e+001
 2.368036890794632e+000	 6.284117153150356e-001	 1.160868600502403e+001
 2.361850887913085e+000	 6.512759656027892e-001	 1.185051506907034e+001
 2.355427447581511e+000	 6.741376263658767e-001	 1.207298444795085e+001
 2.433680786829828e+000	 4.503585547420945e-001	 1.189511847109439e+001
 2.429312644789304e+000	 4.733551245156609e-001	 1.184146516930741e+001
 2.424713604683281e+000	 4.963758005014177e-001	 1.179028737093528e+001
 2.419882348392142e+000	 5.194173851707360e-001	 1.174164133879334e+001
 2.414817611582069e+000	 5.424766381006717e-001	 1.169551786965503e+001
 2.409518185098991e+000	 5.655502769694349e-001	 1.165184188015432e+001
 2.403982916345072e+000	 5.886349786000428e-001	 1.161047214440669e+001
 2.398210710635965e+000	 6.117273800520151e-001	 1.157120118759206e+001
 2.392200532537029e+000	 6.348240797608977e-001	 1.165923747903408e+001
 2.385951407176694e+000	 6.579216387253293e-001	 1.190209787347311e+001
 2.379462421535173e+000	 6.810165817412944e-001	 1.212410989869833e+001
 2.458263421042266e+000	 4.549076310515292e-001	 1.192985793793697e+001
 2.453851156354649e+000	 4.781364894097321e-001	 1.186666576330878e+001
 2.449205661297807e+000	 5.013896974771258e-001	 1.180666669992446e+001
 2.444325604437782e+000	 5.246640254268113e-001	 1.174988338400542e+001
 2.439209708669709e+000	 5.479562001042994e-001	 1.169627053370688e+001
 2.433856752625838e+000	 5.712629060330331e-001	 1.164571455654075e+001
 2.428265572065930e+000	 5.945807864685845e-001	 1.159803331432039e+001
 2.422435061248221e+000	 6.179064445013770e-001	 1.155297604996776e+001
 2.416364174279133e+000	 6.412364442077183e-001	 1.172281804864701e+001
 2.410051926439911e+000	 6.645673118488592e-001	 1.196650461654169e+001
 2.403497395488342e+000	 6.878955371177123e-001	 1.218787012990794e+001
 2.163147655934445e+000	 6.191059833985354e-001	 1.223957299238510e+001
 2.157029750636725e+000	 6.400958169810158e-001	 1.224315623371222e+001
 2.150692303753667e+000	 6.610768598420859e-001	 1.228760624847613e+001
 2.144134660734327e+000	 6.820458611255974e-001	 1.232422506343981e+001
 2.137356227685584e+000	 7.029995419721637e-001	 1.235344603332989e+001
 2.130356472406817e+000	 7.239345968484161e-001	 1.237572667113553e+001
 2.123134925392267e+000	 7.448476949157644e-001	 1.239154845548389e+001
 2.115691180799508e+000	 7.657354814378435e-001	 1.240141658949864e+001
 2.108024897382408e+000	 7.865945792257689e-001	 1.240585971050565e+001
 2.100135799387014e+000	 8.074215901202450e-001	 1.240542955006368e+001
 2.092023677408817e+000	 8.282130965095027e-001	 1.240070054391400e+001
 2.187182629892056e+000	 6.259849387659531e-001	 1.211844522443418e+001
 2.180996747869119e+000	 6.472079927217472e-001	 1.216236266522409e+001
 2.174588884909840e+000	 6.684221582814655e-001	 1.220010454097412e+001
 2.167958379190486e+000	 6.896241484683361e-001	 1.223208719405911e+001
 2.161104630219127e+000	 7.108106479912013e-001	 1.225874998462420e+001
 2.154027099881797e+000	 7.319783145885442e-001	 1.228055511715430e+001
 2.146725313456010e+000	 7.531237804124568e-001	 1.229798741993115e+001
 2.139198860589977e+000	 7.742436534517255e-001	 1.231155407668910e+001
 2.131447396245942e+000	 7.953345189931451e-001	 1.232178430988841e+001
 2.123470641606019e+000	 8.163929411200948e-001	 1.232922901513849e+001
 2.115268384938982e+000	 8.374154642473412e-001	 1.233446034642157e+001
 2.211217603849173e+000	 6.328638941343707e-001	 1.206422853545218e+001
 2.204963745100923e+000	 6.543201684634740e-001	 1.209846836813164e+001
 2.198485466065337e+000	 6.757674567218257e-001	 1.212854048442702e+001
 2.191782097645896e+000	 6.972024358120310e-001	 1.215486873071198e+001
 2.184853032751853e+000	 7.186217540111608e-001	 1.217789873253705e+001
 2.177697727355906e+000	 7.400220323295500e-001	 1.219809769298463e+001
 2.170315701518835e+000	 7.613998659099726e-001	 1.221595414451288e+001
 2.162706540379492e+000	 7.827518254663665e-001	 1.223197765365149e+001
 2.154869895108496e+000	 8.040744587612061e-001	 1.224669847802126e+001
 2.146805483824029e+000	 8.253642921205442e-001	 1.226066717526379e+001
 2.138513092468148e+000	 8.466178319856844e-001	 1.227445416358544e+001
 2.235252577805797e+000	 6.397428495037884e-001	 1.202706485482399e+001
 2.228930742332137e+000	 6.614323442061955e-001	 1.205074514429122e+001
 2.222382047220159e+000	 6.831127551631664e-001	 1.207221004699720e+001
 2.215605816100554e+000	 7.047807231566821e-001	 1.209189112800937e+001
 2.208601435283763e+000	 7.264328600320422e-001	 1.211024053906008e+001
 2.201368354829143e+000	 7.480657500714333e-001	 1.212773078904185e+001
 2.193906089580742e+000	 7.696759514083115e-001	 1.214485446853271e+001
 2.186214220168053e+000	 7.912599974817667e-001	 1.216212392776466e+001
 2.178292393970071e+000	 8.128143985299516e-001	 1.218007090755929e+001
 2.170140326041044e+000	 8.343356431215937e-001	 1.219924612286800e+001
 2.161757799996312e+000	 8.558201997245328e-001	 1.222021879867514e+001
 2.259287551761927e+000	 6.466218048742060e-001	 1.200623634169796e+001
 2.252897739562764e+000	 6.685445199499122e-001	 1.201849694302937e+001
 2.246278628374308e+000	 6.904580536054878e-001	 1.203044022257665e+001
 2.239429534554463e+000	 7.123590105022891e-001	 1.204250568027087e+001
 2.232349837814859e+000	 7.342439660538456e-001	 1.205515225564836e+001
 2.225038982301508e+000	 7.561094678141940e-001	 1.206885807083093e+001
 2.217496477641732e+000	 7.779520369074738e-001	 1.208412012801706e+001
 2.209721899955661e+000	 7.997681694979260e-001	 1.210145396094674e+001
 2.201714892830666e+000	 8.215543382993816e-001	 1.212139323991288e+001
 2.193475168257064e+000	 8.433069941232433e-001	 1.214448933000880e+001
 2.185002507523477e+000	 8.650225674638863e-001	 1.217131080242034e+001
 2.283322525717564e+000	 6.535007602456238e-001	 1.200105661250816e+001
 2.276864736792801e+000	 6.756566956946243e-001	 1.200105816917068e+001
 2.270175209527782e+000	 6.978033520487897e-001	 1.200258739785405e+001
 2.263253253007622e+000	 7.199372978488524e-001	 1.200609195101385e+001
 2.256098240345136e+000	 7.420550720765704e-001	 1.201203781851184e+001
 2.248709609773001e+000	 7.641531855578325e-001	 1.202090904341542e+001
 2.241086865701803e+000	 7.862281224074595e-001	 1.203320739272996e+001
 2.233229579742315e+000	 8.082763415148443e-001	 1.204945198257403e+001
 2.225137391690283e+000	 8.302942780694964e-001	 1.207017885741863e+001
 2.216810010472089e+000	 8.522783451254928e-001	 1.209594052312946e+001
 2.208247215049642e+000	 8.742249352037450e-001	 1.212730543367068e+001
 2.307357499672707e+000	 6.603797156180414e-001	 1.201086910257430e+001
 2.300831734022249e+000	 6.827688714403316e-001	 1.199779209681398e+001
 2.294071790680583e+000	 7.051486504930723e-001	 1.198803582143973e+001
 2.287076971460031e+000	 7.275155851963721e-001	 1.198205630059933e+001
 2.279846642874599e+000	 7.498661781002173e-001	 1.198032683795098e+001
 2.272380237243623e+000	 7.721969033023488e-001	 1.198333770560710e+001
 2.264677253760957e+000	 7.945042079082688e-001	 1.199159578837396e+001
 2.256737259528015e+000	 8.167845135325214e-001	 1.200562418284258e+001
 2.248559890548920e+000	 8.390342178402960e-001	 1.202596175099944e+001
 2.240144852686120e+000	 8.612496961283428e-001	 1.205316262814301e+001
 2.231491922574806e+000	 8.834273029441089e-001	 1.208779568501461e+001
 2.331392473627356e+000	 6.672586709914591e-001	 1.203504552904573e+001
 2.324798731251109e+000	 6.898810471870337e-001	 1.200808938122536e+001
 2.317968371832708e+000	 7.124939489383351e-001	 1.198619616768431e+001
 2.310900689911690e+000	 7.350938725448476e-001	 1.196983050495145e+001
 2.303595045403246e+000	 7.576772841247863e-001	 1.195947327495006e+001
 2.296050864713372e+000	 7.802406210477424e-001	 1.195562128740166e+001
 2.288267641819193e+000	 8.027802934099013e-001	 1.195878689783047e+001
 2.280244939312762e+000	 8.252926855509580e-001	 1.196949758076716e+001
 2.271982389406578e+000	 8.477741576117798e-001	 1.198829545786605e+001
 2.263479694899156e+000	 8.702210471317924e-001	 1.201573678076865e+001
 2.254736630098972e+000	 8.926296706849779e-001	 1.205239136866901e+001
 2.355427447581511e+000	 6.741376263658767e-001	 1.207298444795085e+001
 2.348765728479379e+000	 6.969932229347312e-001	 1.203136666183988e+001
 2.341864952984159e+000	 7.198392473845788e-001	 1.199650418842647e+001
 2.334724408362598e+000	 7.426721598942792e-001	 1.196887045884501e+001
 2.327343447931077e+000	 7.654883901502769e-001	 1.194895419879528e+001
 2.319721492182249e+000	 7.882843387940137e-001	 1.193725906471419e+001
 2.311858029876512e+000	 8.110563789123574e-001	 1.193430323579363e+001
 2.303752619096555e+000	 8.338008575701533e-001	 1.194061896148638e+001
 2.295404888263255e+000	 8.565140973839485e-001	 1.195675206425769e+001
 2.286814537111197e+000	 8.791923981358417e-001	 1.198326139746015e+001
 2.277981337622136e+000	 9.018320384263519e-001	 1.202071825833506e+001
 2.379462421535173e+000	 6.810165817412944e-001	 1.212410989869833e+001
 2.372732725707062e+000	 7.041053986834239e-001	 1.206706524992982e+001
 2.365761534134936e+000	 7.271845458318029e-001	 1.201841944645335e+001
 2.358548126812757e+000	 7.502504472446673e-001	 1.197865495778168e+001
 2.351091850458091e+000	 7.732994961766895e-001	 1.194826861998889e+001
 2.343392119650255e+000	 7.963280565411630e-001	 1.192777124594883e+001
 2.335448417932912e+000	 8.193324644156368e-001	 1.191768719160777e+001
 2.327260298879394e+000	 8.423090295901077e-001	 1.191855387797365e+001
 2.318827387118954e+000	 8.652540371568016e-001	 1.193092126862219e+001
 2.310149379322243e+000	 8.881637491404915e-001	 1.195535130264141e+001
 2.301226045144301e+000	 9.110344061682311e-001	 1.199241728306240e+001
 2.403497395488342e+000	 6.878955371177123e-001	 1.218787012990794e+001
 2.396699722934155e+000	 7.112175744331118e-001	 1.211464989501281e+001
 2.389658115285039e+000	 7.345298442800079e-001	 1.205142412495294e+001
 2.382371845262166e+000	 7.578287345960115e-001	 1.199868455295369e+001
 2.374840252984291e+000	 7.811106022040242e-001	 1.195693639318828e+001
 2.367062747117390e+000	 8.043717742891897e-001	 1.192669792537444e+001
 2.359038805988395e+000	 8.276085499197395e-001	 1.190850003553516e+001
 2.350767978661280e+000	 8.508172016108215e-001	 1.190288571264537e+001
 2.342249885973674e+000	 8.739939769303398e-001	 1.191040950100579e+001
 2.333484221532295e+000	 8.971351001457415e-001	 1.193163690830787e+001
 2.324470752665467e+000	 9.202367739106158e-001	 1.196714376948196e+001
 2.092023677408817e+000	 8.282130965095027e-001	 1.240070054391400e+001
 2.083688389209485e+000	 8.489656628815500e-001	 1.234686121586651e+001
 2.075129860492684e+000	 8.696758374109872e-001	 1.230644723885980e+001
 2.066348085636912e+000	 8.903401535779647e-001	 1.227996476818966e+001
 2.057343128383052e+000	 9.109551318173336e-001	 1.226792399214567e+001
 2.048115122476415e+000	 9.315172811979672e-001	 1.227083843290357e+001
 2.038664272261591e+000	 9.520231011303464e-001	 1.228922421841448e+001
 2.028990853228824e+000	 9.724690831009004e-001	 1.232359932620243e+001
 2.019095212510688e+000	 9.928517124315603e-001	 1.237448280008722e+001
 2.008977769327879e+000	 1.013167470062905e+000	 1.244239394095428e+001
 1.998639015383027e+000	 1.033412834359236e+000	 1.252785147279826e+001
 2.115268384938982e+000	 8.374154642473412e-001	 1.233446034642157e+001
 2.106840482426126e+000	 8.583986146904973e-001	 1.228366860668635e+001
 2.098186858945656e+000	 8.793389022705094e-001	 1.224598148753604e+001
 2.089307508813610e+000	 9.002328219506403e-001	 1.222191019156457e+001
 2.080202496479101e+000	 9.210768555039048e-001	 1.221197067669973e+001
 2.070871957173500e+000	 9.418674732110530e-001	 1.221668295272658e+001
 2.061316097511894e+000	 9.626011355871261e-001	 1.223657034731854e+001
 2.051535196045530e+000	 9.832742951350688e-001	 1.227215874248024e+001
 2.041529603764009e+000	 1.003883398124834e+000	 1.232397578241428e+001
 2.031299744546037e+000	 1.024424886396339e+000	 1.239255005393456e+001
 2.020846115557606e+000	 1.044895199184599e+000	 1.247841024065650e+001
 2.138513092468148e+000	 8.466178319856844e-001	 1.227445416358544e+001
 2.129992575641768e+000	 8.678315664998595e-001	 1.222617580523610e+001
 2.121243857397628e+000	 8.890019671303757e-001	 1.219068249590615e+001
 2.112266931989306e+000	 9.101254903236083e-001	 1.216849105265986e+001
 2.103061864574149e+000	 9.311985791907376e-001	 1.216012378347017e+001
 2.093628791869585e+000	 9.522176652243891e-001	 1.216610777881624e+001
 2.083967922761197e+000	 9.731791700441648e-001	 1.218697417126518e+001
 2.074079538861235e+000	 9.940795071695255e-001	 1.222325736393361e+001
 2.063963995016330e+000	 1.014915083818444e+000	 1.227549422883864e+001
 2.053621719763194e+000	 1.035682302730179e+000	 1.234422327626107e+001
 2.043053215731184e+000	 1.056377564010459e+000	 1.242998379635657e+001
 2.161757799996312e+000	 8.558201997245328e-001	 1.222021879867514e+001
 2.153144668856409e+000	 8.772645183096366e-001	 1.217392583620234e+001
 2.144300855848600e+000	 8.986650319905861e-001	 1.214009907885594e+001
 2.135226355164004e+000	 9.200181586968700e-001	 1.211926152364045e+001
 2.125921232668198e+000	 9.413203028778325e-001	 1.211194240763012e+001
 2.116385626564670e+000	 9.625678572379758e-001	 1.211867649408748e+001
 2.106619748009500e+000	 9.837572045014627e-001	 1.214000332500609e+001
 2.096623881675941e+000	 1.004884719204270e+000	 1.217646644096684e+001
 2.086398386267651e+000	 1.025946769512391e+000	 1.222861256931398e+001
 2.075943694979352e+000	 1.046939719064425e+000	 1.229699078177606e+001
 2.065260315903762e+000	 1.067859928836815e+000	 1.238215162277238e+001
 2.185002507523477e+000	 8.650225674638863e-001	 1.217131080242034e+001
 2.176296762070050e+000	 8.866974701198287e-001	 1.212648104478906e+001
 2.167357854298572e+000	 9.083280968511407e-001	 1.209379895628076e+001
 2.158185778337701e+000	 9.299108270704242e-001	 1.207379427786401e+001
 2.148780600761245e+000	 9.514420265651888e-001	 1.206700375367209e+001
 2.139142461258755e+000	 9.729180492518131e-001	 1.207397041109106e+001
 2.129271573256803e+000	 9.943352389590200e-001	 1.209524280567677e+001
 2.119168224489647e+000	 1.015689931239302e+000	 1.213137423178282e+001
 2.108832777517973e+000	 1.036978455206676e+000	 1.218292189990426e+001
 2.098265670194510e+000	 1.058197135399078e+000	 1.225044608186388e+001
 2.087467416075340e+000	 1.079342293663667e+000	 1.233450922508901e+001
 2.208247215049642e+000	 8.742249352037450e-001	 1.212730543367068e+001
 2.199448855282691e+000	 8.961304219304351e-001	 1.208342207984843e+001
 2.190414852747545e+000	 9.179911617120395e-001	 1.205136775808480e+001
 2.181145201510397e+000	 9.398034954442720e-001	 1.203167951613396e+001
 2.171639968853294e+000	 9.615637502528075e-001	 1.202490218228573e+001
 2.161899295951840e+000	 9.832682412659006e-001	 1.203158763887488e+001
 2.151923398503107e+000	 1.004913273416836e+000	 1.205229405898673e+001
 2.141712567302352e+000	 1.026495143274622e+000	 1.208758510723577e+001
 2.131267168767293e+000	 1.048010140901297e+000	 1.213802910561989e+001
 2.120587645408667e+000	 1.069454551734137e+000	 1.220419816558034e+001
 2.109674516245919e+000	 1.090824658491015e+000	 1.228666728752312e+001
 2.231491922574806e+000	 8.834273029441089e-001	 1.208779568501461e+001
 2.222600948494332e+000	 9.055633737414569e-001	 1.204434694056562e+001
 2.213471851195517e+000	 9.276542265732823e-001	 1.201240809136822e+001
 2.204104624682095e+000	 9.496961638184127e-001	 1.199252405381165e+001
 2.194499336944342e+000	 9.716854739406875e-001	 1.198524831680607e+001
 2.184656130643925e+000	 9.936184332802385e-001	 1.199114220816636e+001
 2.174575223748410e+000	 1.015491307874912e+000	 1.201077412252301e+001
 2.164256910114057e+000	 1.037300355310231e+000	 1.204471871163068e+001
 2.153701560015615e+000	 1.059041826596255e+000	 1.209355603807690e+001
 2.142909620621825e+000	 1.080711968069603e+000	 1.215787069352396e+001
 2.131881616415496e+000	 1.102307023318859e+000	 1.223825088274852e+001
 2.254736630098972e+000	 8.926296706849779e-001	 1.205239136866901e+001
 2.245753041704973e+000	 9.149963255528933e-001	 1.200887008211186e+001
 2.236528849642489e+000	 9.373172914348695e-001	 1.197653866531391e+001
 2.227064047852791e+000	 9.595888321928466e-001	 1.195595046439584e+001
 2.217358705034390e+000	 9.818071976288297e-001	 1.194766820493261e+001
 2.207412965335010e+000	 1.003968625294827e+000	 1.195226325066736e+001
 2.197227048992712e+000	 1.026069342333246e+000	 1.197031482204508e+001
 2.186801252924763e+000	 1.048105567346127e+000	 1.200240917543200e+001
 2.176135951262936e+000	 1.070073512291550e+000	 1.204913874402241e+001
 2.165231595833983e+000	 1.091969384405474e+000	 1.211110124157088e+001
 2.154088716584075e+000	 1.113789388147199e+000	 1.218889873022305e+001
 2.277981337622136e+000	 9.018320384263519e-001	 1.202071825833506e+001
 2.268905134914614e+000	 9.244292773647448e-001	 1.197662157605324e+001
 2.259585848088461e+000	 9.469803562968008e-001	 1.194339346965270e+001
 2.250023471022489e+000	 9.694815005675737e-001	 1.192159627553611e+001
 2.240218073123438e+000	 9.919289213172337e-001	 1.191180253177214e+001
 2.230169800025096e+000	 1.014318817309666e+000	 1.191459422859627e+001
 2.219878874236016e+000	 1.036647376791840e+000	 1.193056201698637e+001
 2.209345595734469e+000	 1.058910779382311e+000	 1.196030437617388e+001
 2.198570342509257e+000	 1.081105197987183e+000	 1.200442674109324e+001
 2.187553571045141e+000	 1.103226800741752e+000	 1.206354059091175e+001
 2.176295816751653e+000	 1.125271752976035e+000	 1.213826249992407e+001
 2.301226045144301e+000	 9.110344061682311e-001	 1.199241728306240e+001
 2.292057228123256e+000	 9.338622291770110e-001	 1.194724632164388e+001
 2.282642846533432e+000	 9.566434211590759e-001	 1.191262100291842e+001
 2.272982894191186e+000	 9.793741689425937e-001	 1.188911321377271e+001
 2.263077441211487e+000	 1.002050645005900e+000	 1.187730588057561e+001
 2.252926634714180e+000	 1.024669009324756e+000	 1.187779221092458e+001
 2.242530699478319e+000	 1.047225411250693e+000	 1.189117489168270e+001
 2.231889938543174e+000	 1.069715991418783e+000	 1.191806524416379e+001
 2.221004733754577e+000	 1.092136883683151e+000	 1.195908233746793e+001
 2.209875546255298e+000	 1.114484217078436e+000	 1.201485206111674e+001
 2.198502916918232e+000	 1.136754117805368e+000	 1.208600615828196e+001
 2.324470752665467e+000	 9.202367739106158e-001	 1.196714376948196e+001
 2.315209321330897e+000	 9.432951809896923e-001	 1.192040330444156e+001
 2.305699844977406e+000	 9.663064860216960e-001	 1.188388354700780e+001
 2.295942317358884e+000	 9.892668373179072e-001	 1.185816649459200e+001
 2.285936809298535e+000	 1.012172368694827e+000	 1.184384603783104e+001
 2.275683469402266e+000	 1.035019201340097e+000	 1.184152719303915e+001
 2.265182524719623e+000	 1.057803445709805e+000	 1.185182528912731e+001
 2.254434281350881e+000	 1.080521203455544e+000	 1.187536510984369e+001
 2.243439124998900e+000	 1.103168569379458e+000	 1.191277999233970e+001
 2.232197521464457e+000	 1.125741633415527e+000	 1.196471088321637e+001
 2.220710017083810e+000	 1.148236482635196e+000	 1.203180535335730e+001
 1.998639015383027e+000	 1.033412834359236e+000	 1.252785147279826e+001
 1.988079515201900e+000	 1.053584282934246e+000	 1.246312036922640e+001
 1.977299906419740e+000	 1.073678294494223e+000	 1.240625554558110e+001
 1.966300900012589e+000	 1.093691350697970e+000	 1.235778058486187e+001
 1.955083280473655e+000	 1.113619938032245e+000	 1.231822556911170e+001
 1.943647905932685e+000	 1.133460549699554e+000	 1.228812624054756e+001
 1.931995708218038e+000	 1.153209687516760e+000	 1.226802313428133e+001
 1.920127692860818e+000	 1.172863863822527e+000	 1.225846068422077e+001
 1.908044939040537e+000	 1.192419603391557e+000	 1.225998630384545e+001
 1.895748599471811e+000	 1.211873445353536e+000	 1.227314944365428e+001
 1.883239900231722e+000	 1.231221945114724e+000	 1.229850062717796e+001
 2.020846115557606e+000	 1.044895199184599e+000	 1.247841024065650e+001
 2.010169287596954e+000	 1.065290774965724e+000	 1.241663022837179e+001
 1.999269905384127e+000	 1.085608053320555e+000	 1.236452342231393e+001
 1.988148687794898e+000	 1.105843476815214e+000	 1.232269035745716e+001
 1.976806428039066e+000	 1.125993492897426e+000	 1.229173735564599e+001
 1.965243993781153e+000	 1.146054555805278e+000	 1.227227558744944e+001
 1.953462327203166e+000	 1.166023128486933e+000	 1.226492010518936e+001
 1.941462445008779e+000	 1.185895684529262e+000	 1.227028884891102e+001
 1.929245438368386e+000	 1.205668710093352e+000	 1.228900162717155e+001
 1.916812472804541e+000	 1.225338705854776e+000	 1.232167907462732e+001
 1.904164788017406e+000	 1.244902188946530e+000	 1.236894158850184e+001
 2.043053215731184e+000	 1.056377564010459e+000	 1.242998379635657e+001
 2.032259059991009e+000	 1.076997266997788e+000	 1.237266997551309e+001
 2.021239904347514e+000	 1.097537812147543e+000	 1.232680274248710e+001
 2.009996475576207e+000	 1.117995602933166e+000	 1.229305915170293e+001
 1.998529575603476e+000	 1.138367047763346e+000	 1.227212135733352e+001
 1.986840081628621e+000	 1.158648561911752e+000	 1.226467557611820e+001
 1.974928946187295e+000	 1.178836569457846e+000	 1.227141102090144e+001
 1.962797197155740e+000	 1.198927505236708e+000	 1.229301880683678e+001
 1.950445937695233e+000	 1.218917816795809e+000	 1.233019083231347e+001
 1.937876346136270e+000	 1.238803966356609e+000	 1.238361863677086e+001
 1.925089675802090e+000	 1.258582432778837e+000	 1.229779022750850e+001
 2.065260315903762e+000	 1.067859928836815e+000	 1.238215162277238e+001
 2.054348832384064e+000	 1.088703759030439e+000	 1.233075610651400e+001
 2.043209903309902e+000	 1.109467570975188e+000	 1.229254790204139e+001
 2.031844263356515e+000	 1.130147729051826e+000	 1.226828018816678e+001
 2.020252723166887e+000	 1.150740602630004e+000	 1.225871058112822e+001
 2.008436169475090e+000	 1.171242568018975e+000	 1.226459999857342e+001
 1.996395565170424e+000	 1.191650010429500e+000	 1.228671149377237e+001
 1.984131949301701e+000	 1.211959325944866e+000	 1.232580906218037e+001
 1.971646437021081e+000	 1.232166923498929e+000	 1.238265642258953e+001
 1.958940219467000e+000	 1.252269226859034e+000	 1.241913021624781e+001
 1.946014563585775e+000	 1.272262676611648e+000	 1.216163549935903e+001
 2.087467416075340e+000	 1.079342293663667e+000	 1.233450922508901e+001
 2.076438604776118e+000	 1.100410251063676e+000	 1.229042359796611e+001
 2.065179902271289e+000	 1.121397329803490e+000	 1.226123419367481e+001
 2.053692051135824e+000	 1.142299855171193e+000	 1.224776995649730e+001
 2.041975870729298e+000	 1.163114157497399e+000	 1.225086363038440e+001
 2.030032257320558e+000	 1.183836574126948e+000	 1.227135052427012e+001
 2.017862184152553e+000	 1.204463451401894e+000	 1.231006724708483e+001
 2.005466701446662e+000	 1.224991146653735e+000	 1.236785041476546e+001
 1.992846936345929e+000	 1.245416030202710e+000	 1.244553533168152e+001
 1.980004092796729e+000	 1.265734487362052e+000	 1.228489936742127e+001
 1.966939451368459e+000	 1.285942920444961e+000	 1.205623469569395e+001
 2.109674516245919e+000	 1.090824658491015e+000	 1.228666728752312e+001
 2.098528377167173e+000	 1.112116743097499e+000	 1.225122493451898e+001
 2.087149901231675e+000	 1.133327088632449e+000	 1.223235670701314e+001
 2.075539838914133e+000	 1.154451981291268e+000	 1.223096699073574e+001
 2.063699018290710e+000	 1.175487712365535e+000	 1.224796335767780e+001
 2.051628345165026e+000	 1.196430580235669e+000	 1.228425523286535e+001
 2.039328803133683e+000	 1.217276892375029e+000	 1.234075253026362e+001
 2.026801453590623e+000	 1.238022967363314e+000	 1.241836426028647e+001
 2.014047435669777e+000	 1.258665136907154e+000	 1.238529478961167e+001
 2.001067966125458e+000	 1.279199747865661e+000	 1.217999669451372e+001
 1.987864339150143e+000	 1.299623164278777e+000	 1.198145375312109e+001
 2.131881616415496e+000	 1.102307023318859e+000	 1.223825088274852e+001
 2.120618149557228e+000	 1.123823235131908e+000	 1.221272919700222e+001
 2.109119900191063e+000	 1.145256847462065e+000	 1.220542929751999e+001
 2.097387626691442e+000	 1.166604107412050e+000	 1.221733072117052e+001
 2.085422165851120e+000	 1.187861267234408e+000	 1.224941560182531e+001
 2.073224433008494e+000	 1.209024586345141e+000	 1.230266723868676e+001
 2.060795422113812e+000	 1.230090333348904e+000	 1.237806863313911e+001
 2.048136205733585e+000	 1.251054788073606e+000	 1.246171297889073e+001
 2.035247934992624e+000	 1.271914243612259e+000	 1.227957395070330e+001
 2.022131839453188e+000	 1.292665008369864e+000	 1.210436773134864e+001
 2.008789226930828e+000	 1.313303408113096e+000	 1.193719322276963e+001
 2.154088716584075e+000	 1.113789388147199e+000	 1.218889873022305e+001
 2.142707921946283e+000	 1.135529727166903e+000	 1.217452120695227e+001
 2.131089899149450e+000	 1.157186606292337e+000	 1.217998361918566e+001
 2.119235414467751e+000	 1.178756233533540e+000	 1.220634039721104e+001
 2.107145313410531e+000	 1.200234822104020e+000	 1.225464800302710e+001
 2.094820520850962e+000	 1.221618592455362e+000	 1.232596340028582e+001
 2.082262041092940e+000	 1.242903774323520e+000	 1.242134249211196e+001
 2.069470957875546e+000	 1.264086608784609e+000	 1.235376289689097e+001
 2.056448434314472e+000	 1.285163350318026e+000	 1.220183705630215e+001
 2.043195712779917e+000	 1.306130268874659e+000	 1.205798911196876e+001
 2.029714114710512e+000	 1.326983651947917e+000	 1.192338648603617e+001
 2.176295816751653e+000	 1.125271752976035e+000	 1.213826249992407e+001
 2.164797694334338e+000	 1.147236219202485e+000	 1.213620072351513e+001
 2.153059898106836e+000	 1.169116365123266e+000	 1.215556821643896e+001
 2.141083202243059e+000	 1.190908359655738e+000	 1.219749407620816e+001
 2.128868460968942e+000	 1.212608376974370e+000	 1.226310889055124e+001
 2.116416608692430e+000	 1.234212598566333e+000	 1.235354310899764e+001
 2.103728660071070e+000	 1.255717215298876e+000	 1.240094551227868e+001
 2.090805710016507e+000	 1.277118429496323e+000	 1.227255827182755e+001
 2.077648933635321e+000	 1.298412457024456e+000	 1.215213231190086e+001
 2.064259586105647e+000	 1.319595529380046e+000	 1.204086698389003e+001
 2.050639002489196e+000	 1.340663895783240e+000	 1.193999807957125e+001
 2.198502916918232e+000	 1.136754117805368e+000	 1.208600615828196e+001
 2.186887466721392e+000	 1.158942711238653e+000	 1.209738168902163e+001
 2.175029897063224e+000	 1.181046123954852e+000	 1.213174767109479e+001
 2.162930990017368e+000	 1.203060485778642e+000	 1.219030767355802e+001
 2.150591608526352e+000	 1.224981931845459e+000	 1.227426623783127e+001
 2.138012696532898e+000	 1.246806604678053e+000	 1.238482715092172e+001
 2.125195279048199e+000	 1.268530656274973e+000	 1.231480922853814e+001
 2.112140462156468e+000	 1.290150250208748e+000	 1.221821457186000e+001
 2.098849432955169e+000	 1.311661563731547e+000	 1.213053434685401e+001
 2.085323459430376e+000	 1.333060789886026e+000	 1.205303551752222e+001
 2.071563890266881e+000	 1.354344139619067e+000	 1.198702212178147e+001
 2.220710017083810e+000	 1.148236482635196e+000	 1.203180535335730e+001
 2.208977239107448e+000	 1.170649203275409e+000	 1.205769151982812e+001
 2.196999896018612e+000	 1.192975882787096e+000	 1.210810180048484e+001
 2.184778777790678e+000	 1.215212611902256e+000	 1.218431406979992e+001
 2.172314756082765e+000	 1.237355486717287e+000	 1.228760668025783e+001
 2.159608784372368e+000	 1.259400610790523e+000	 1.232644990950523e+001
 2.146661898024328e+000	 1.281344097251810e+000	 1.225440484704823e+001
 2.133475214295430e+000	 1.303182070921886e+000	 1.219087081142249e+001
 2.120049932274017e+000	 1.324910670439301e+000	 1.213714289318505e+001
 2.106387332754106e+000	 1.346526050392599e+000	 1.209455550502421e+001
 2.092488778043565e+000	 1.368024383455396e+000	 1.206448083374184e+001
 1.883239900231722e+000	 1.231221945114724e+000	 1.229850062717796e+001
 1.870520140527698e+000	 1.250461676279598e+000	 1.258160550495863e+001
 1.857590692405196e+000	 1.269589232571736e+000	 1.251337311306712e+001
 1.844453000395384e+000	 1.288601229750900e+000	 1.243915209168052e+001
 1.831108581103128e+000	 1.307494307523293e+000	 1.235930421548950e+001
 1.817559022734820e+000	 1.326265131444095e+000	 1.227422101981593e+001
 1.803805984566350e+000	 1.344910394809678e+000	 1.218432316720126e+001
 1.789851196351457e+000	 1.363426820537300e+000	 1.209005972870779e+001
 1.775696457670766e+000	 1.381811163030106e+000	 1.199190738095141e+001
 1.761343637221933e+000	 1.400060210025257e+000	 1.189036952016212e+001
 1.746794672051384e+000	 1.418170784423037e+000	 1.178597529484532e+001
 1.904164788017406e+000	 1.244902188946530e+000	 1.236894158850184e+001
 1.891303697650032e+000	 1.264355694902035e+000	 1.239729605331724e+001
 1.878230588992809e+000	 1.283695779597362e+000	 1.232825814432613e+001
 1.864946922627249e+000	 1.302919021189603e+000	 1.228013291759874e+001
 1.851454232009386e+000	 1.322022022048363e+000	 1.223333741879845e+001
 1.837754122992348e+000	 1.341001410679438e+000	 1.218042819143886e+001
 1.823848273288425e+000	 1.359853843638046e+000	 1.212176803446315e+001
 1.809738431870839e+000	 1.378576007429416e+000	 1.205774988753073e+001
 1.795426418315558e+000	 1.397164620394503e+000	 1.198879607918146e+001
 1.780914122083544e+000	 1.415616434578662e+000	 1.191535748842751e+001
 1.766203501743962e+000	 1.433928237581068e+000	 1.183791262126423e+001
 1.925089675802090e+000	 1.258582432778837e+000	 1.229779022750850e+001
 1.912087254771367e+000	 1.278249713524880e+000	 1.225122619381649e+001
 1.898870485579421e+000	 1.297802326623310e+000	 1.220246597023551e+001
 1.885440844858115e+000	 1.317236812628554e+000	 1.215216050621458e+001
 1.871799882914645e+000	 1.336549736573617e+000	 1.210861230493881e+001
 1.857949223248877e+000	 1.355737689914908e+000	 1.208566487750210e+001
 1.843890562009499e+000	 1.374797292466495e+000	 1.205601633361092e+001
 1.829625667389222e+000	 1.393725194321577e+000	 1.202000516913401e+001
 1.815156378959350e+000	 1.412518077758921e+000	 1.197800109453896e+001
 1.800484606944155e+000	 1.431172659132072e+000	 1.193040424219099e+001
 1.785612331435539e+000	 1.449685690739098e+000	 1.187764428479306e+001
 1.946014563585775e+000	 1.272262676611648e+000	 1.216163549935903e+001
 1.932870811891701e+000	 1.292143732148131e+000	 1.213365522714424e+001
 1.919510382165034e+000	 1.311908873649581e+000	 1.210272847267662e+001
 1.905934767087982e+000	 1.331554604067751e+000	 1.206946146451621e+001
 1.892145533818904e+000	 1.351077451099052e+000	 1.203449563996597e+001
 1.878144323504406e+000	 1.370473969150504e+000	 1.199850661882989e+001
 1.863932850729574e+000	 1.389740741295026e+000	 1.198760709042500e+001
 1.849512902906604e+000	 1.408874381213783e+000	 1.197743675819055e+001
 1.834886339602143e+000	 1.427871535123359e+000	 1.196020462700638e+001
 1.820055091803766e+000	 1.446728883685488e+000	 1.193626182464353e+001
 1.805021161126117e+000	 1.465443143897129e+000	 1.190599097218344e+001
 1.966939451368459e+000	 1.285942920444961e+000	 1.205623469569395e+001
 1.953654369011035e+000	 1.306037750771791e+000	 1.204448410347926e+001
 1.940150278749647e+000	 1.326015420676173e+000	 1.202901732718172e+001
 1.926428689316847e+000	 1.345872395507195e+000	 1.201039764403869e+001
 1.912491184722163e+000	 1.365605165624668e+000	 1.198922516000344e+001
 1.898339423758935e+000	 1.385210248386226e+000	 1.196613581840642e+001
 1.883975139448649e+000	 1.404684190123637e+000	 1.194180031106038e+001
 1.869400138422987e+000	 1.424023568106036e+000	 1.193067133000129e+001
 1.854616300243935e+000	 1.443224992487817e+000	 1.193610114773967e+001
 1.839625576662378e+000	 1.462285108238908e+000	 1.193369135400151e+001
 1.824429990815695e+000	 1.481200597055160e+000	 1.192377927394836e+001
 1.987864339150143e+000	 1.299623164278777e+000	 1.198145375312109e+001
 1.974437926129370e+000	 1.319931769395858e+000	 1.198364712733291e+001
 1.960790175333260e+000	 1.340121967703088e+000	 1.198133441295535e+001
 1.946922611544713e+000	 1.360190186946887e+000	 1.197503767846461e+001
 1.932836835624422e+000	 1.380132880150467e+000	 1.196531748607733e+001
 1.918534524012464e+000	 1.399946527622075e+000	 1.195277193348095e+001
 1.904017428166724e+000	 1.419627638952329e+000	 1.193803559454944e+001
 1.889287373938369e+000	 1.439172754998333e+000	 1.192177836083476e+001
 1.874346260884727e+000	 1.458578449852296e+000	 1.190639675321694e+001
 1.859196061519989e+000	 1.477841332792333e+000	 1.192346254587380e+001
 1.843838820504272e+000	 1.496958050213191e+000	 1.193184137363790e+001
 2.008789226930828e+000	 1.313303408113096e+000	 1.193719322276963e+001
 1.995221483246704e+000	 1.333825788020332e+000	 1.195111022034428e+001
 1.981430071915873e+000	 1.354228514730326e+000	 1.195971023976631e+001
 1.967416533771579e+000	 1.374507978386825e+000	 1.196347585776096e+001
 1.953182486525680e+000	 1.394660594676446e+000	 1.196292985554216e+001
 1.938729624264992e+000	 1.414682806858050e+000	 1.195863429179885e+001
 1.924059716883799e+000	 1.434571087781102e+000	 1.195118947110914e+001
 1.909174609452752e+000	 1.454321941890676e+000	 1.194123280952396e+001
 1.894076221524519e+000	 1.473931907216794e+000	 1.192943759939163e+001
 1.878766546376600e+000	 1.493397557345764e+000	 1.191651167582053e+001
 1.863247650191850e+000	 1.512715503371221e+000	 1.193101475653524e+001
 2.029714114710512e+000	 1.326983651947917e+000	 1.192338648603617e+001
 2.016005040363038e+000	 1.347719806645214e+000	 1.194686929153124e+001
 2.002069968497485e+000	 1.368335061757886e+000	 1.196420247214537e+001
 1.987910455997445e+000	 1.388825769827011e+000	 1.197583080569004e+001
 1.973528137425939e+000	 1.409188309202607e+000	 1.198224103160867e+001
 1.958924724516521e+000	 1.429419086094151e+000	 1.198396095342479e+001
 1.944102005599874e+000	 1.449514536609956e+000	 1.198155843296071e+001
 1.929061844966134e+000	 1.469471128783065e+000	 1.197564027802253e+001
 1.913806182163312e+000	 1.489285364581314e+000	 1.196685102558752e+001
 1.898337031232211e+000	 1.508953781899199e+000	 1.195587162286713e+001
 1.882656479878427e+000	 1.528472956529252e+000	 1.194341800894894e+001
 2.050639002489196e+000	 1.340663895783240e+000	 1.193999807957125e+001
 2.036788597478372e+000	 1.361613825270504e+000	 1.197094870732221e+001
 2.022709865078098e+000	 1.382441608785768e+000	 1.199489454393823e+001
 2.008404378222311e+000	 1.403143561267443e+000	 1.201224423828939e+001
 1.993873788325197e+000	 1.423716023728950e+000	 1.202345020508587e+001
 1.979119824767050e+000	 1.444155365330379e+000	 1.202900775501201e+001
 1.964144294314947e+000	 1.464457985438890e+000	 1.202945411287271e+001
 1.948949080478517e+000	 1.484620315675500e+000	 1.202536732540455e+001
 1.933536142801104e+000	 1.504638821945853e+000	 1.201736506075623e+001
 1.917907516086823e+000	 1.524510006452640e+000	 1.200610330198972e+001
 1.902065309564005e+000	 1.544230409687283e+000	 1.199227493729641e+001
 2.071563890266881e+000	 1.354344139619067e+000	 1.198702212178147e+001
 2.057572154592707e+000	 1.375507843896201e+000	 1.202339985431306e+001
 2.043349761657711e+000	 1.396548155813973e+000	 1.205189435682492e+001
 2.028898300446177e+000	 1.417461352708123e+000	 1.207287979759525e+001
 2.014219439223457e+000	 1.438243738255475e+000	 1.208677596268412e+001
 1.999314925016579e+000	 1.458891644566733e+000	 1.209404741199486e+001
 1.984186583029022e+000	 1.479401434267905e+000	 1.209520251948677e+001
 1.968836315989899e+000	 1.499769502567979e+000	 1.209079239915248e+001
 1.953266103437896e+000	 1.519992279310412e+000	 1.208140971873475e+001
 1.937478000940434e+000	 1.540066231006086e+000	 1.206768740351680e+001
 1.921474139248582e+000	 1.559987862845314e+000	 1.205029723287422e+001
 2.092488778043565e+000	 1.368024383455396e+000	 1.206448083374184e+001
 2.078355711706041e+000	 1.389401862522306e+000	 1.210429978825884e+001
 2.063989658236324e+000	 1.410654702842501e+000	 1.213533305692808e+001
 2.049392222669044e+000	 1.431779144149050e+000	 1.215792195534249e+001
 2.034565090120716e+000	 1.452771452782182e+000	 1.217245531722017e+001
 2.019510025265108e+000	 1.473627923803213e+000	 1.217936867464979e+001
 2.004228871742098e+000	 1.494344883097002e+000	 1.217914331852411e+001
 1.988723551500282e+000	 1.514918689460505e+000	 1.217230524073663e+001
 1.972996064073689e+000	 1.535345736674993e+000	 1.215942396009115e+001
 1.957048485793046e+000	 1.555622455559538e+000	 1.214111123424364e+001
 1.940882968932161e+000	 1.575745316003345e+000	 1.211801966036182e+001
 1.746794672051384e+000	 1.418170784423037e+000	 1.178597529484532e+001
 1.732051566727472e+000	 1.436139746095164e+000	 1.181640413392223e+001
 1.717116392458020e+000	 1.453963993669085e+000	 1.183564723124660e+001
 1.701991286151559e+000	 1.471640466286814e+000	 1.184373955712138e+001
 1.686678449421499e+000	 1.489166145337068e+000	 1.184074419826725e+001
 1.671180147536507e+000	 1.506538056157541e+000	 1.182675162141003e+001
 1.655498708317337e+000	 1.523753269705680e+000	 1.180187886232504e+001
 1.639636520981247e+000	 1.540808904196010e+000	 1.176626864268160e+001
 1.623596034935177e+000	 1.557702126702076e+000	 1.172008841726994e+001
 1.607379758518973e+000	 1.574430154721170e+000	 1.166352935442151e+001
 1.590990257700000e+000	 1.590990257700000e+000	 1.159680525265430e+001
 1.766203501743962e+000	 1.433928237581068e+000	 1.183791262126423e+001
 1.751296584138190e+000	 1.452096854383105e+000	 1.187583094379245e+001
 1.736195463487515e+000	 1.470119149152507e+000	 1.190058052874761e+001
 1.720902300443896e+000	 1.487992027021754e+000	 1.191219363667976e+001
 1.705419321083115e+000	 1.505712435839437e+000	 1.191073350279683e+001
 1.689748815843492e+000	 1.523277367891449e+000	 1.189629358318362e+001
 1.673893138410455e+000	 1.540683861590319e+000	 1.186899672131808e+001
 1.657854704548121e+000	 1.557929003130732e+000	 1.182899423729057e+001
 1.641635990879061e+000	 1.575009928109272e+000	 1.177646494238488e+001
 1.625239533613567e+000	 1.591923823106536e+000	 1.171161408192163e+001
 1.608667927229750e+000	 1.608667927229750e+000	 1.163467220949946e+001
 1.785612331435539e+000	 1.449685690739098e+000	 1.187764428479306e+001
 1.770541601547911e+000	 1.468053962671041e+000	 1.192231458647041e+001
 1.755274534516028e+000	 1.486274304635909e+000	 1.195184679145391e+001
 1.739813314735277e+000	 1.504343587756648e+000	 1.196627164081549e+001
 1.724160192743812e+000	 1.522258726341727e+000	 1.196565372680315e+001
 1.708317484149602e+000	 1.540016679625232e+000	 1.195009071997196e+001
 1.692287568502753e+000	 1.557614453474778e+000	 1.191971251139388e+001
 1.676072888114239e+000	 1.575049102065208e+000	 1.187468027241935e+001
 1.659675946822266e+000	 1.592317729516148e+000	 1.181518543472893e+001
 1.643099308707566e+000	 1.609417491491496e+000	 1.174144859367024e+001
 1.626345596759000e+000	 1.626345596759000e+000	 1.165371833812190e+001
 1.805021161126117e+000	 1.465443143897129e+000	 1.190599097218344e+001
 1.789786618956639e+000	 1.484011070958972e+000	 1.195669374622895e+001
 1.774353605543562e+000	 1.502429460119290e+000	 1.199030090660515e+001
 1.758724329025703e+000	 1.520695148491498e+000	 1.200684286397914e+001
 1.742901064403588e+000	 1.538805016843938e+000	 1.200638677642167e+001
 1.726886152454837e+000	 1.556755991358891e+000	 1.198903575572553e+001
 1.710681998594231e+000	 1.574545045359056e+000	 1.195492798352481e+001
 1.694291071679603e+000	 1.592169200999440e+000	 1.190423573975729e+001
 1.677715902764791e+000	 1.609625530922704e+000	 1.183716434629301e+001
 1.660959083800970e+000	 1.626911159876052e+000	 1.175395102882195e+001
 1.644023266287750e+000	 1.644023266287750e+000	 1.165486370035410e+001
 1.824429990815695e+000	 1.481200597055160e+000	 1.192377927394836e+001
 1.809031636364370e+000	 1.499968179246898e+000	 1.197981196926003e+001
 1.793432676570115e+000	 1.518584615602651e+000	 1.201680163261891e+001
 1.777635343315174e+000	 1.537046709226303e+000	 1.203477953270592e+001
 1.761641936062444e+000	 1.555351307346068e+000	 1.203381660294117e+001
 1.745454820759197e+000	 1.573495303092425e+000	 1.201402262526102e+001
 1.729076428684889e+000	 1.591475637243156e+000	 1.197554531835502e+001
 1.712509255244211e+000	 1.609289299933426e+000	 1.191856933297916e+001
 1.695755858706635e+000	 1.626933332328940e+000	 1.184331515725610e+001
 1.678818858893778e+000	 1.644404828260203e+000	 1.175003793515827e+001
 1.661700935816000e+000	 1.661700935816000e+000	 1.163902620164168e+001
 1.843838820504272e+000	 1.496958050213191e+000	 1.193184137363790e+001
 1.828276653771107e+000	 1.515925287534819e+000	 1.199251740778419e+001
 1.812511747595690e+000	 1.534739771085994e+000	 1.203221139534457e+001
 1.796546357603691e+000	 1.553398269961063e+000	 1.205095665129525e+001
 1.780382807720380e+000	 1.571897597848118e+000	 1.204882909516403e+001
 1.764023489062681e+000	 1.590234614825835e+000	 1.202594641053139e+001
 1.747470858774727e+000	 1.608406229127074e+000	 1.198246710358621e+001
 1.730727438808065e+000	 1.626409398867167e+000	 1.191858946343008e+001
 1.713795814647800e+000	 1.644241133734857e+000	 1.183455042713329e+001
 1.696678633985992e+000	 1.661898496643949e+000	 1.173062435284370e+001
 1.679378605343750e+000	 1.679378605343750e+000	 1.160712170453733e+001
 1.863247650191850e+000	 1.512715503371221e+000	 1.193101475653524e+001
 1.847521671176849e+000	 1.531882395822735e+000	 1.199566258015337e+001
 1.831590818620283e+000	 1.550894926569315e+000	 1.203739609705120e+001
 1.815457371891252e+000	 1.569749830695778e+000	 1.205625185713565e+001
 1.799123679377395e+000	 1.588443888350088e+000	 1.205231197849419e+001
 1.782592157365291e+000	 1.606973926559119e+000	 1.202570328087934e+001
 1.765865288863745e+000	 1.625336821010814e+000	 1.197659631277659e+001
 1.748945622371163e+000	 1.643529497800664e+000	 1.190520427483031e+001
 1.731835770588284e+000	 1.661548935140453e+000	 1.181178184272705e+001
 1.714538409077612e+000	 1.679392165027290e+000	 1.169662389294768e+001
 1.697056274871000e+000	 1.697056274871000e+000	 1.156006413510158e+001
 1.882656479878427e+000	 1.528472956529252e+000	 1.194341800894894e+001
 1.866766688581596e+000	 1.547839504110645e+000	 1.199010414579242e+001
 1.850669889643896e+000	 1.567050082052617e+000	 1.203322493723061e+001
 1.834368386177858e+000	 1.586101391430449e+000	 1.205154528497848e+001
 1.817864551033491e+000	 1.604990178851979e+000	 1.204515472026681e+001
 1.801160825667026e+000	 1.623713238292278e+000	 1.201419043698614e+001
 1.784259718951942e+000	 1.642267412894373e+000	 1.195883628545147e+001
 1.767163805933506e+000	 1.660649596733916e+000	 1.187932165707021e+001
 1.749875726528089e+000	 1.678856736545729e+000	 1.177592026311235e+001
 1.732398184168636e+000	 1.696885833410226e+000	 1.164894881110916e+001
 1.714733944397750e+000	 1.714733944397750e+000	 1.149876558272187e+001
 1.902065309564005e+000	 1.544230409687283e+000	 1.199227493729641e+001
 1.886011705985348e+000	 1.563796612398551e+000	 1.200791405248748e+001
 1.869748960666530e+000	 1.583205237535899e+000	 1.202057024437173e+001
 1.853279400463509e+000	 1.602452952165073e+000	 1.203771943952136e+001
 1.836605422688667e+000	 1.621536469353789e+000	 1.202824844087432e+001
 1.819729493967885e+000	 1.640452550025312e+000	 1.199230605825243e+001
 1.802654149039319e+000	 1.659198004777752e+000	 1.193009070843146e+001
 1.785381989495094e+000	 1.677769695666923e+000	 1.184184925916079e+001
 1.767915682467214e+000	 1.696164537950685e+000	 1.172787576186770e+001
 1.750257959259064e+000	 1.714379501792757e+000	 1.158851007669125e+001
 1.732411613923999e+000	 1.732411613923999e+000	 1.142413639382046e+001
 1.921474139248582e+000	 1.559987862845314e+000	 1.205029723287422e+001
 1.905256723388105e+000	 1.579753720686452e+000	 1.205397565688375e+001
 1.888828031688184e+000	 1.599360393019160e+000	 1.203990427959773e+001
 1.872190414748205e+000	 1.618804512899654e+000	 1.201565907571397e+001
 1.855346294342923e+000	 1.638082759855520e+000	 1.200248583027862e+001
 1.838298162267870e+000	 1.657191861758221e+000	 1.196094925336782e+001
 1.821048579125877e+000	 1.676128596660951e+000	 1.189126359829218e+001
 1.803600173055928e+000	 1.694889794599684e+000	 1.179369450139931e+001
 1.785955638405658e+000	 1.713472339355322e+000	 1.166855766674664e+001
 1.768117734348898e+000	 1.731873170174883e+000	 1.151621743774462e+001
 1.750089283449750e+000	 1.750089283449750e+000	 1.133708525988292e+001
 1.940882968932161e+000	 1.575745316003345e+000	 1.211801966036182e+001
 1.924501740789867e+000	 1.595710828974349e+000	 1.210877981219833e+001
 1.907907102708858e+000	 1.615515548502403e+000	 1.208004287857725e+001
 1.891101429031947e+000	 1.635156073634189e+000	 1.203240059188014e+001
 1.874087165996259e+000	 1.654629050357171e+000	 1.196876106953261e+001
 1.856866830566979e+000	 1.673931173491006e+000	 1.192102001384657e+001
 1.839443009211615e+000	 1.693059188543971e+000	 1.184325928487661e+001
 1.821818356616007e+000	 1.712009893532202e+000	 1.173576458680494e+001
 1.803995594343423e+000	 1.730780140759638e+000	 1.159887459696898e+001
 1.785977509438138e+000	 1.749366838556605e+000	 1.143297948207315e+001
 1.767766952975000e+000	 1.767766952975000e+000	 1.123851930020495e+001
 1.590990257700000e+000	 1.590990257700000e+000	 1.159680525265430e+001
 1.574430154721170e+000	 1.607379758518973e+000	 1.154752254893001e+001
 1.557702126702076e+000	 1.623596034935176e+000	 1.148490426679818e+001
 1.540808904196010e+000	 1.639636520981247e+000	 1.140914685762696e+001
 1.523753269705680e+000	 1.655498708317338e+000	 1.132046768748598e+001
 1.506538056157540e+000	 1.671180147536507e+000	 1.121910376323123e+001
 1.489166145337068e+000	 1.686678449421500e+000	 1.110531041261937e+001
 1.471640466286814e+000	 1.701991286151559e+000	 1.097935992255719e+001
 1.453963993669085e+000	 1.717116392458020e+000	 1.084154013971256e+001
 1.436139746095164e+000	 1.732051566727472e+000	 1.069215303781798e+001
 1.418170784423037e+000	 1.746794672051384e+000	 1.053151325608547e+001
 1.608667927229750e+000	 1.608667927229750e+000	 1.163467220949946e+001
 1.591923823106535e+000	 1.625239533613567e+000	 1.157466932338957e+001
 1.575009928109272e+000	 1.641635990879061e+000	 1.150471476650686e+001
 1.557929003130731e+000	 1.657854704548121e+000	 1.142510823256493e+001
 1.540683861590319e+000	 1.673893138410455e+000	 1.133616762056369e+001
 1.523277367891449e+000	 1.689748815843492e+000	 1.123822762103212e+001
 1.505712435839437e+000	 1.705419321083115e+000	 1.113163825944628e+001
 1.487992027021754e+000	 1.720902300443896e+000	 1.101676340121535e+001
 1.470119149152507e+000	 1.736195463487515e+000	 1.089397922274307e+001
 1.452096854383105e+000	 1.751296584138189e+000	 1.076367265316823e+001
 1.433928237581068e+000	 1.766203501743962e+000	 1.062623979146958e+001
 1.626345596759000e+000	 1.626345596759000e+000	 1.165371833812190e+001
 1.609417491491496e+000	 1.643099308707566e+000	 1.158531763119043e+001
 1.592317729516148e+000	 1.659675946822266e+000	 1.151026121712242e+001
 1.575049102065208e+000	 1.676072888114239e+000	 1.142895202045033e+001
 1.557614453474778e+000	 1.692287568502753e+000	 1.134180853536815e+001
 1.540016679625233e+000	 1.708317484149602e+000	 1.124926327105150e+001
 1.522258726341728e+000	 1.724160192743811e+000	 1.115176115719209e+001
 1.504343587756648e+000	 1.739813314735276e+000	 1.104975791442967e+001
 1.486274304635908e+000	 1.755274534516028e+000	 1.094371839447280e+001
 1.468053962671041e+000	 1.770541601547911e+000	 1.083411489479058e+001
 1.449685690739099e+000	 1.785612331435539e+000	 1.072142545282999e+001
 1.644023266287750e+000	 1.644023266287750e+000	 1.165486370035410e+001
 1.626911159876052e+000	 1.660959083800970e+000	 1.158029518242509e+001
 1.609625530922704e+000	 1.677715902764791e+000	 1.150228091413575e+001
 1.592169200999439e+000	 1.694291071679603e+000	 1.142132709394441e+001
 1.574545045359056e+000	 1.710681998594231e+000	 1.133795292701742e+001
 1.556755991358892e+000	 1.726886152454837e+000	 1.125268892848920e+001
 1.538805016843937e+000	 1.742901064403588e+000	 1.116607518986900e+001
 1.520695148491499e+000	 1.758724329025703e+000	 1.107865961357302e+001
 1.502429460119290e+000	 1.774353605543562e+000	 1.099099612066052e+001
 1.484011070958972e+000	 1.789786618956639e+000	 1.090364283693887e+001
 1.465443143897129e+000	 1.805021161126117e+000	 1.081716026266524e+001
 1.661700935816000e+000	 1.661700935816000e+000	 1.163902620164168e+001
 1.644404828260203e+000	 1.678818858893778e+000	 1.156043095762935e+001
 1.626933332328940e+000	 1.695755858706635e+000	 1.148151574877060e+001
 1.609289299933426e+000	 1.712509255244212e+000	 1.140289014361048e+001
 1.591475637243155e+000	 1.729076428684889e+000	 1.132517422606855e+001
 1.573495303092426e+000	 1.745454820759197e+000	 1.124899675544393e+001
 1.555351307346068e+000	 1.761641936062443e+000	 1.117499329239669e+001
 1.537046709226303e+000	 1.777635343315174e+000	 1.110380429617933e+001
 1.518584615602652e+000	 1.793432676570116e+000	 1.103607319849274e+001
 1.499968179246898e+000	 1.809031636364370e+000	 1.097244445941490e+001
 1.481200597055160e+000	 1.824429990815695e+000	 1.091356161091034e+001
 1.679378605343750e+000	 1.679378605343750e+000	 1.160712170453733e+001
 1.661898496643949e+000	 1.696678633985992e+000	 1.152655514091673e+001
 1.644241133734857e+000	 1.713795814647799e+000	 1.144871196610278e+001
 1.626409398867167e+000	 1.730727438808065e+000	 1.137430526644575e+001
 1.608406229127074e+000	 1.747470858774727e+000	 1.130405622296808e+001
 1.590234614825835e+000	 1.764023489062681e+000	 1.123869212686619e+001
 1.571897597848118e+000	 1.780382807720380e+000	 1.117894436371246e+001
 1.553398269961063e+000	 1.796546357603691e+000	 1.112554637193514e+001
 1.534739771085993e+000	 1.812511747595689e+000	 1.107923158124515e+001
 1.515925287534819e+000	 1.828276653771107e+000	 1.104073133675002e+001
 1.496958050213191e+000	 1.843838820504272e+000	 1.101077281454509e+001
 1.697056274871000e+000	 1.697056274871000e+000	 1.156006413510158e+001
 1.679392165027290e+000	 1.714538409077612e+000	 1.147949905729220e+001
 1.661548935140453e+000	 1.731835770588284e+000	 1.140461993829712e+001
 1.643529497800664e+000	 1.748945622371163e+000	 1.133624358012914e+001
 1.625336821010814e+000	 1.765865288863745e+000	 1.127519252847457e+001
 1.606973926559118e+000	 1.782592157365291e+000	 1.122229294238842e+001
 1.588443888350088e+000	 1.799123679377395e+000	 1.117837243531201e+001
 1.569749830695779e+000	 1.815457371891252e+000	 1.114425789329665e+001
 1.550894926569315e+000	 1.831590818620283e+000	 1.112077327640327e+001
 1.531882395822735e+000	 1.847521671176849e+000	 1.110873740931302e+001
 1.512715503371221e+000	 1.863247650191850e+000	 1.110896176722726e+001
 1.714733944397750e+000	 1.714733944397750e+000	 1.149876558272187e+001
 1.696885833410226e+000	 1.732398184168635e+000	 1.142009511384337e+001
 1.678856736545729e+000	 1.749875726528089e+000	 1.134999395187094e+001
 1.660649596733915e+000	 1.767163805933506e+000	 1.128938286113080e+001
 1.642267412894373e+000	 1.784259718951942e+000	 1.123918606745685e+001
 1.623713238292277e+000	 1.801160825667026e+000	 1.120032898072328e+001
 1.604990178851979e+000	 1.817864551033491e+000	 1.117373589122070e+001
 1.586101391430448e+000	 1.834368386177858e+000	 1.116032764606864e+001
 1.567050082052617e+000	 1.850669889643897e+000	 1.116101931194000e+001
 1.547839504110645e+000	 1.866766688581596e+000	 1.117671783043194e+001
 1.528472956529252e+000	 1.882656479878427e+000	 1.113321384728673e+001
 1.732411613923999e+000	 1.732411613923999e+000	 1.142413639382046e+001
 1.714379501792757e+000	 1.750257959259064e+000	 1.134917674453208e+001
 1.696164537950685e+000	 1.767915682467214e+000	 1.128559200798199e+001
 1.677769695666923e+000	 1.785381989495095e+000	 1.123440720497770e+001
 1.659198004777752e+000	 1.802654149039319e+000	 1.119664860368429e+001
 1.640452550025312e+000	 1.819729493967885e+000	 1.117334129358786e+001
 1.621536469353789e+000	 1.836605422688667e+000	 1.116550673572146e+001
 1.602452952165073e+000	 1.853279400463509e+000	 1.117416029566203e+001
 1.583205237535899e+000	 1.869748960666530e+000	 1.120030876588282e+001
 1.563796612398551e+000	 1.886011705985348e+000	 1.114819265234781e+001
 1.544230409687283e+000	 1.902065309564005e+000	 1.105296958749383e+001
 1.750089283449750e+000	 1.750089283449750e+000	 1.133708525988292e+001
 1.731873170174883e+000	 1.768117734348898e+000	 1.126757835833213e+001
 1.713472339355322e+000	 1.785955638405657e+000	 1.121217563482063e+001
 1.694889794599684e+000	 1.803600173055928e+000	 1.117200670710930e+001
 1.676128596660951e+000	 1.821048579125876e+000	 1.114820029341773e+001
 1.657191861758222e+000	 1.838298162267869e+000	 1.114188163636009e+001
 1.638082759855519e+000	 1.855346294342923e+000	 1.115416990546314e+001
 1.618804512899654e+000	 1.872190414748205e+000	 1.118617558509376e+001
 1.599360393019160e+000	 1.888828031688184e+000	 1.113318628032507e+001
 1.579753720686452e+000	 1.905256723388104e+000	 1.106019129608030e+001
 1.559987862845314e+000	 1.921474139248582e+000	 1.098907242769145e+001
 1.767766952975000e+000	 1.767766952975000e+000	 1.123851930020495e+001
 1.749366838556605e+000	 1.785977509438138e+000	 1.117613529047863e+001
 1.730780140759639e+000	 1.803995594343423e+000	 1.113050971125795e+001
 1.712009893532202e+000	 1.821818356616006e+000	 1.110287716288202e+001
 1.693059188543972e+000	 1.839443009211615e+000	 1.109446926578485e+001
 1.673931173491006e+000	 1.856866830566979e+000	 1.110651193289569e+001
 1.654629050357171e+000	 1.874087165996259e+000	 1.114022262284211e+001
 1.635156073634190e+000	 1.891101429031947e+000	 1.109368590891166e+001
 1.615515548502402e+000	 1.907907102708858e+000	 1.104106302365571e+001
 1.595710828974349e+000	 1.924501740789867e+000	 1.099007012641988e+001
 1.575745316003345e+000	 1.940882968932160e+000	 1.094333151202964e+001
 1.418170784423037e+000	 1.746794672051384e+000	 1.053151325608547e+001
 1.400060210025256e+000	 1.761343637221932e+000	 1.032961636805813e+001
 1.381811163030106e+000	 1.775696457670766e+000	 1.015756631923344e+001
 1.363426820537300e+000	 1.789851196351457e+000	 1.001650025932512e+001
 1.344910394809678e+000	 1.803805984566350e+000	 9.907519536727714e+000
 1.326265131444094e+000	 1.817559022734820e+000	 9.831687543944835e+000
 1.307494307523293e+000	 1.831108581103128e+000	 9.790027621948676e+000
 1.288601229750900e+000	 1.844453000395384e+000	 9.783521028607801e+000
 1.269589232571736e+000	 1.857590692405196e+000	 9.813104976139627e+000
 1.250461676279598e+000	 1.870520140527698e+000	 9.879670742353383e+000
 1.231221945114724e+000	 1.883239900231722e+000	 9.849540383779056e+000
 1.433928237581068e+000	 1.766203501743962e+000	 1.062623979146958e+001
 1.415616434578662e+000	 1.780914122083543e+000	 1.047703037183083e+001
 1.397164620394504e+000	 1.795426418315558e+000	 1.035423524016639e+001
 1.378576007429416e+000	 1.809738431870839e+000	 1.025894260622153e+001
 1.359853843638046e+000	 1.823848273288425e+000	 1.019220859235406e+001
 1.341001410679438e+000	 1.837754122992348e+000	 1.015505506739402e+001
 1.322022022048364e+000	 1.851454232009386e+000	 1.014846753443116e+001
 1.302919021189604e+000	 1.864946922627249e+000	 1.017339307779416e+001
 1.283695779597362e+000	 1.878230588992809e+000	 1.018461190399062e+001
 1.264355694902035e+000	 1.891303697650033e+000	 1.008423528155371e+001
 1.244902188946530e+000	 1.904164788017406e+000	 1.001178412702708e+001
 1.449685690739099e+000	 1.785612331435539e+000	 1.072142545282999e+001
 1.431172659132072e+000	 1.800484606944155e+000	 1.062143331597928e+001
 1.412518077758921e+000	 1.815156378959350e+000	 1.054450732021766e+001
 1.393725194321577e+000	 1.829625667389222e+000	 1.049168936655251e+001
 1.374797292466496e+000	 1.843890562009499e+000	 1.046399292580064e+001
 1.355737689914908e+000	 1.857949223248877e+000	 1.046240085772091e+001
 1.336549736573617e+000	 1.871799882914645e+000	 1.048786327915551e+001
 1.317236812628554e+000	 1.885440844858115e+000	 1.039512990514801e+001
 1.297802326623310e+000	 1.898870485579421e+000	 1.028180787815007e+001
 1.278249713524879e+000	 1.912087254771366e+000	 1.019364984434040e+001
 1.258582432778837e+000	 1.925089675802090e+000	 1.013266797249339e+001
 1.465443143897129e+000	 1.805021161126117e+000	 1.081716026266524e+001
 1.446728883685487e+000	 1.820055091803766e+000	 1.076300330321681e+001
 1.427871535123359e+000	 1.834886339602142e+000	 1.072864570772030e+001
 1.408874381213783e+000	 1.849512902906605e+000	 1.071508567730019e+001
 1.389740741295026e+000	 1.863932850729574e+000	 1.072329658544735e+001
 1.370473969150504e+000	 1.878144323504406e+000	 1.071264178533469e+001
 1.351077451099052e+000	 1.892145533818904e+000	 1.057529347760278e+001
 1.331554604067751e+000	 1.905934767087982e+000	 1.045513749889363e+001
 1.311908873649580e+000	 1.919510382165034e+000	 1.035428387406410e+001
 1.292143732148131e+000	 1.932870811891701e+000	 1.027481635873923e+001
 1.272262676611648e+000	 1.946014563585775e+000	 1.021878758295630e+001
 1.481200597055160e+000	 1.824429990815695e+000	 1.091356161091034e+001
 1.462285108238908e+000	 1.839625576662378e+000	 1.090194139710115e+001
 1.443224992487817e+000	 1.854616300243934e+000	 1.090693222346829e+001
 1.424023568106035e+000	 1.869400138422987e+000	 1.092949117956898e+001
 1.404684190123637e+000	 1.883975139448649e+000	 1.085668132941785e+001
 1.385210248386226e+000	 1.898339423758935e+000	 1.072451393301723e+001
 1.365605165624668e+000	 1.912491184722163e+000	 1.060359431036109e+001
 1.345872395507196e+000	 1.926428689316847e+000	 1.049608606598551e+001
 1.326015420676173e+000	 1.940150278749647e+000	 1.040413568428788e+001
 1.306037750771791e+000	 1.953654369011035e+000	 1.032986746311813e+001
 1.285942920444961e+000	 1.966939451368459e+000	 1.027537849473944e+001
 1.496958050213191e+000	 1.843838820504272e+000	 1.101077281454509e+001
 1.477841332792333e+000	 1.859196061519989e+000	 1.103847041356914e+001
 1.458578449852296e+000	 1.874346260884727e+000	 1.107966637795508e+001
 1.439172754998333e+000	 1.889287373938369e+000	 1.096319954762308e+001
 1.419627638952329e+000	 1.904017428166724e+000	 1.084227370990261e+001
 1.399946527622075e+000	 1.918534524012464e+000	 1.072663305704197e+001
 1.380132880150467e+000	 1.932836835624422e+000	 1.061848520716663e+001
 1.360190186946887e+000	 1.946922611544713e+000	 1.052003012410412e+001
 1.340121967703088e+000	 1.960790175333260e+000	 1.043345485868143e+001
 1.319931769395857e+000	 1.974437926129369e+000	 1.036092831867702e+001
 1.299623164278777e+000	 1.987864339150143e+000	 1.030459608121235e+001
 1.512715503371221e+000	 1.863247650191850e+000	 1.110896176722726e+001
 1.493397557345764e+000	 1.878766546376600e+000	 1.113244982604766e+001
 1.473931907216795e+000	 1.894076221524520e+000	 1.103173552854880e+001
 1.454321941890676e+000	 1.909174609452752e+000	 1.092809430405646e+001
 1.434571087781102e+000	 1.924059716883799e+000	 1.082376028326365e+001
 1.414682806858050e+000	 1.938729624264992e+000	 1.072097514114481e+001
 1.394660594676446e+000	 1.953182486525680e+000	 1.062198267074930e+001
 1.374507978386825e+000	 1.967416533771579e+000	 1.052902335133702e+001
 1.354228514730326e+000	 1.981430071915873e+000	 1.044432892538353e+001
 1.333825788020332e+000	 1.995221483246704e+000	 1.037011699888376e+001
 1.313303408113096e+000	 2.008789226930828e+000	 1.030858567923278e+001
 1.528472956529252e+000	 1.882656479878427e+000	 1.113321384728673e+001
 1.508953781899199e+000	 1.898337031232211e+000	 1.106182475118272e+001
 1.489285364581314e+000	 1.913806182163311e+000	 1.098150504071255e+001
 1.469471128783065e+000	 1.929061844966134e+000	 1.089450235146953e+001
 1.449514536609955e+000	 1.944102005599874e+000	 1.080308206169162e+001
 1.429419086094151e+000	 1.958924724516521e+000	 1.070952173474906e+001
 1.409188309202607e+000	 1.973528137425939e+000	 1.061610553462688e+001
 1.388825769827011e+000	 1.987910455997445e+000	 1.052511862945704e+001
 1.368335061757886e+000	 2.002069968497485e+000	 1.043884159811693e+001
 1.347719806645214e+000	 2.016005040363038e+000	 1.035954485482114e+001
 1.326983651947916e+000	 2.029714114710512e+000	 1.028948310649217e+001
 1.544230409687283e+000	 1.902065309564005e+000	 1.105296958749383e+001
 1.524510006452640e+000	 1.917907516086823e+000	 1.100201275229284e+001
 1.504638821945853e+000	 1.933536142801104e+000	 1.093837432087610e+001
 1.484620315675499e+000	 1.948949080478517e+000	 1.086433262006925e+001
 1.464457985438890e+000	 1.964144294314948e+000	 1.078218851003748e+001
 1.444155365330379e+000	 1.979119824767049e+000	 1.069425966900176e+001
 1.423716023728950e+000	 1.993873788325197e+000	 1.060287484418736e+001
 1.403143561267443e+000	 2.008404378222311e+000	 1.051036808455028e+001
 1.382441608785768e+000	 2.022709865078098e+000	 1.041907297080107e+001
 1.361613825270504e+000	 2.036788597478373e+000	 1.033131685816570e+001
 1.340663895783240e+000	 2.050639002489196e+000	 1.024941514718777e+001
 1.559987862845314e+000	 1.921474139248582e+000	 1.098907242769145e+001
 1.540066231006086e+000	 1.937478000940434e+000	 1.095484975296691e+001
 1.519992279310412e+000	 1.953266103437896e+000	 1.090422291256318e+001
 1.499769502567978e+000	 1.968836315989899e+000	 1.083950517136899e+001
 1.479401434267905e+000	 1.984186583029022e+000	 1.076303711891038e+001
 1.458891644566733e+000	 1.999314925016578e+000	 1.067718079001989e+001
 1.438243738255475e+000	 2.014219439223457e+000	 1.058431374497844e+001
 1.417461352708123e+000	 2.028898300446177e+000	 1.048682312518238e+001
 1.396548155813973e+000	 2.043349761657711e+000	 1.038709970037092e+001
 1.375507843896201e+000	 2.057572154592706e+000	 1.028753192338010e+001
 1.354344139619067e+000	 2.071563890266881e+000	 1.019050000825959e+001
 1.575745316003345e+000	 1.940882968932160e+000	 1.094333151202964e+001
 1.555622455559537e+000	 1.957048485793046e+000	 1.092218841720582e+001
 1.535345736674993e+000	 1.972996064073689e+000	 1.088094397311255e+001
 1.514918689460505e+000	 1.988723551500282e+000	 1.082195064162318e+001
 1.494344883097002e+000	 2.004228871742098e+000	 1.074759300338993e+001
 1.473627923803213e+000	 2.019510025265108e+000	 1.066028170814195e+001
 1.452771452782182e+000	 2.034565090120716e+000	 1.056244737769938e+001
 1.431779144149050e+000	 2.049392222669044e+000	 1.045653447827436e+001
 1.410654702842500e+000	 2.063989658236325e+000	 1.034499517862590e+001
 1.389401862522307e+000	 2.078355711706042e+000	 1.023028321057343e+001
 1.368024383455396e+000	 2.092488778043565e+000	 1.011484774825330e+001
 1.231221945114724e+000	 1.883239900231722e+000	 9.849540383779056e+000
 1.211873445353537e+000	 1.895748599471812e+000	 9.626421692432919e+000
 1.192419603391557e+000	 1.908044939040537e+000	 9.417230074643584e+000
 1.172863863822527e+000	 1.920127692860818e+000	 9.223278177626717e+000
 1.153209687516760e+000	 1.931995708218037e+000	 9.045834021590164e+000
 1.133460549699554e+000	 1.943647905932685e+000	 8.886118278592530e+000
 1.113619938032245e+000	 1.955083280473655e+000	 8.745301662066611e+000
 1.093691350697970e+000	 1.966300900012589e+000	 8.624502432901817e+000
 1.073678294494223e+000	 1.977299906419740e+000	 8.524784027588778e+000
 1.053584282934246e+000	 1.988079515201899e+000	 8.447152813526342e+000
 1.033412834359236e+000	 1.998639015383027e+000	 8.392555976174501e+000
 1.244902188946530e+000	 1.904164788017406e+000	 1.001178412702708e+001
 1.225338705854776e+000	 1.916812472804541e+000	 9.806495325076952e+000
 1.205668710093352e+000	 1.929245438368385e+000	 9.613142435536377e+000
 1.185895684529262e+000	 1.941462445008779e+000	 9.433080207754758e+000
 1.166023128486933e+000	 1.953462327203166e+000	 9.267619944932303e+000
 1.146054555805278e+000	 1.965243993781153e+000	 9.118026666451547e+000
 1.125993492897426e+000	 1.976806428039066e+000	 8.985516381259135e+000
 1.105843476815214e+000	 1.988148687794897e+000	 8.871253478473630e+000
 1.085608053320554e+000	 1.999269905384127e+000	 8.776348240997933e+000
 1.065290774965724e+000	 2.010169287596954e+000	 8.701854487501450e+000
 1.044895199184599e+000	 2.020846115557606e+000	 8.648767347714870e+000
 1.258582432778837e+000	 1.925089675802090e+000	 1.013266797249339e+001
 1.238803966356609e+000	 1.937876346136270e+000	 9.947603604938175e+000
 1.218917816795809e+000	 1.950445937695232e+000	 9.768634823723398e+000
 1.198927505236708e+000	 1.962797197155740e+000	 9.601067642937078e+000
 1.178836569457846e+000	 1.974928946187295e+000	 9.446258948638473e+000
 1.158648561911752e+000	 1.986840081628621e+000	 9.305520347932387e+000
 1.138367047763346e+000	 1.998529575603476e+000	 9.180115323019432e+000
 1.117995602933166e+000	 2.009996475576207e+000	 9.071256503263028e+000
 1.097537812147543e+000	 2.021239904347514e+000	 8.980103061331510e+000
 1.076997266997788e+000	 2.032259059991009e+000	 8.907758239054527e+000
 1.056377564010459e+000	 2.043053215731184e+000	 8.855267008196238e+000
 1.272262676611648e+000	 1.946014563585775e+000	 1.021878758295630e+001
 1.252269226859034e+000	 1.958940219467000e+000	 1.004926479499084e+001
 1.232166923498929e+000	 1.971646437021081e+000	 9.884934255119115e+000
 1.211959325944866e+000	 1.984131949301702e+000	 9.728469261808616e+000
 1.191650010429500e+000	 1.996395565170425e+000	 9.582979902768873e+000
 1.171242568018975e+000	 2.008436169475090e+000	 9.449826639679499e+000
 1.150740602630003e+000	 2.020252723166887e+000	 9.330322632973042e+000
 1.130147729051826e+000	 2.031844263356515e+000	 9.225730892246938e+000
 1.109467570975188e+000	 2.043209903309902e+000	 9.137261551951097e+000
 1.088703759030439e+000	 2.054348832384064e+000	 9.066069278267282e+000
 1.067859928836815e+000	 2.065260315903762e+000	 9.013250812651377e+000
 1.285942920444961e+000	 1.966939451368459e+000	 1.027537849473944e+001
 1.265734487362051e+000	 1.980004092796729e+000	 1.010897910254774e+001
 1.245416030202710e+000	 1.992846936345929e+000	 9.963253844929470e+000
 1.224991146653734e+000	 2.005466701446662e+000	 9.816498684119026e+000
 1.204463451401894e+000	 2.017862184152554e+000	 9.678995330185593e+000
 1.183836574126947e+000	 2.030032257320558e+000	 9.552155392988752e+000
 1.163114157497400e+000	 2.041975870729298e+000	 9.437343943661469e+000
 1.142299855171193e+000	 2.053692051135825e+000	 9.335876540205579e+000
 1.121397329803490e+000	 2.065179902271288e+000	 9.249016379691803e+000
 1.100410251063676e+000	 2.076438604776118e+000	 9.177971583264814e+000
 1.079342293663667e+000	 2.087467416075340e+000	 9.123892619696242e+000
 1.299623164278777e+000	 1.987864339150143e+000	 1.030459608121235e+001
 1.279199747865662e+000	 2.001067966125458e+000	 1.013917554925547e+001
 1.258665136907154e+000	 2.014047435669777e+000	 9.997614958541044e+000
 1.238022967363315e+000	 2.026801453590624e+000	 9.866355168568791e+000
 1.217276892375029e+000	 2.039328803133683e+000	 9.735502266931286e+000
 1.196430580235670e+000	 2.051628345165026e+000	 9.613699913036047e+000
 1.175487712365535e+000	 2.063699018290709e+000	 9.502367348915213e+000
 1.154451981291268e+000	 2.075539838914133e+000	 9.402874877521951e+000
 1.133327088632449e+000	 2.087149901231676e+000	 9.316540888363662e+000
 1.112116743097499e+000	 2.098528377167173e+000	 9.244629017686897e+000
 1.090824658491015e+000	 2.109674516245919e+000	 9.188345449235992e+000
 1.313303408113096e+000	 2.008789226930828e+000	 1.030858567923278e+001
 1.292665008369864e+000	 2.022131839453188e+000	 1.014198722732423e+001
 1.271914243612259e+000	 2.035247934992624e+000	 9.997710850745195e+000
 1.251054788073606e+000	 2.048136205733585e+000	 9.878076380249315e+000
 1.230090333348904e+000	 2.060795422113812e+000	 9.753683068834455e+000
 1.209024586345141e+000	 2.073224433008494e+000	 9.635637820654713e+000
 1.187861267234408e+000	 2.085422165851120e+000	 9.526564317328145e+000
 1.166604107412051e+000	 2.097387626691442e+000	 9.427889831869317e+000
 1.145256847462064e+000	 2.109119900191063e+000	 9.340990105159216e+000
 1.123823235131908e+000	 2.120618149557228e+000	 9.267186378317485e+000
 1.102307023318859e+000	 2.131881616415496e+000	 9.207742567814517e+000
 1.326983651947916e+000	 2.029714114710512e+000	 1.028948310649217e+001
 1.306130268874659e+000	 2.043195712779917e+000	 1.011953652007265e+001
 1.285163350318026e+000	 2.056448434314472e+000	 9.970410739639673e+000
 1.264086608784608e+000	 2.069470957875546e+000	 9.844518198728011e+000
 1.242903774323520e+000	 2.082262041092940e+000	 9.734706168221564e+000
 1.221618592455362e+000	 2.094820520850962e+000	 9.619131860806515e+000
 1.200234822104020e+000	 2.107145313410531e+000	 9.511090549228589e+000
 1.178756233533540e+000	 2.119235414467751e+000	 9.412068730412777e+000
 1.157186606292337e+000	 2.131089899149450e+000	 9.323501684808930e+000
 1.135529727166903e+000	 2.142707921946283e+000	 9.246770377912251e+000
 1.113789388147199e+000	 2.154088716584075e+000	 9.183198506829012e+000
 1.340663895783240e+000	 2.050639002489196e+000	 1.024941514718777e+001
 1.319595529380046e+000	 2.064259586105647e+000	 1.007393564829976e+001
 1.298412457024456e+000	 2.077648933635320e+000	 9.917810481550122e+000
 1.277118429496323e+000	 2.090805710016507e+000	 9.783548276091832e+000
 1.255717215298876e+000	 2.103728660071070e+000	 9.673614865366684e+000
 1.234212598566333e+000	 2.116416608692430e+000	 9.565330661554887e+000
 1.212608376974370e+000	 2.128868460968942e+000	 9.457086781182735e+000
 1.190908359655738e+000	 2.141083202243059e+000	 9.356543146773850e+000
 1.169116365123266e+000	 2.153059898106837e+000	 9.265196795931486e+000
 1.147236219202485e+000	 2.164797694334338e+000	 9.184490567853096e+000
 1.125271752976035e+000	 2.176295816751653e+000	 9.115810018404694e+000
 1.354344139619067e+000	 2.071563890266881e+000	 1.019050000825959e+001
 1.333060789886026e+000	 2.085323459430376e+000	 1.000728718354388e+001
 1.311661563731547e+000	 2.098849432955168e+000	 9.841995264590491e+000
 1.290150250208748e+000	 2.112140462156468e+000	 9.697232710974692e+000
 1.268530656274973e+000	 2.125195279048199e+000	 9.575566197700384e+000
 1.246806604678053e+000	 2.138012696532898e+000	 9.475369447039457e+000
 1.224981931845459e+000	 2.150591608526352e+000	 9.365679541739951e+000
 1.203060485778643e+000	 2.162930990017368e+000	 9.262429696664171e+000
 1.181046123954852e+000	 2.175029897063225e+000	 9.167180953665520e+000
 1.158942711238653e+000	 2.186887466721392e+000	 9.081440204884324e+000
 1.136754117805368e+000	 2.198502916918232e+000	 9.006656973337927e+000
 1.368024383455396e+000	 2.092488778043565e+000	 1.011484774825330e+001
 1.346526050392599e+000	 2.106387332754106e+000	 9.921684530545253e+000
 1.324910670439301e+000	 2.120049932274017e+000	 9.745040142073711e+000
 1.303182070921885e+000	 2.133475214295430e+000	 9.587626549891295e+000
 1.281344097251810e+000	 2.146661898024328e+000	 9.452114913699438e+000
 1.259400610790523e+000	 2.159608784372367e+000	 9.341129573612781e+000
 1.237355486717287e+000	 2.172314756082764e+000	 9.237981861833937e+000
 1.215212611902256e+000	 2.184778777790678e+000	 9.130830785780727e+000
 1.192975882787095e+000	 2.196999896018612e+000	 9.030544802343691e+000
 1.170649203275408e+000	 2.208977239107448e+000	 8.938697065844293e+000
 1.148236482635196e+000	 2.220710017083810e+000	 8.856803205162480e+000
 1.033412834359236e+000	 1.998639015383027e+000	 8.392555976174501e+000
 1.013167470062905e+000	 2.008977769327879e+000	 8.421841156818701e+000
 9.928517124315605e-001	 2.019095212510688e+000	 8.421818228097814e+000
 9.724690831009004e-001	 2.028990853228825e+000	 8.392855709326934e+000
 9.520231011303464e-001	 2.038664272261591e+000	 8.335309823364685e+000
 9.315172811979672e-001	 2.048115122476415e+000	 8.249522849065889e+000
 9.109551318173336e-001	 2.057343128383053e+000	 8.135821558325450e+000
 8.903401535779651e-001	 2.066348085636912e+000	 7.994515740744295e+000
 8.696758374109869e-001	 2.075129860492684e+000	 7.825896818606811e+000
 8.489656628815501e-001	 2.083688389209486e+000	 7.630236554509844e+000
 8.282130965095028e-001	 2.092023677408817e+000	 7.407785853634961e+000
 1.044895199184599e+000	 2.020846115557606e+000	 8.648767347714870e+000
 1.024424886396339e+000	 2.031299744546037e+000	 8.655929764558831e+000
 1.003883398124834e+000	 2.041529603764009e+000	 8.637219045673609e+000
 9.832742951350687e-001	 2.051535196045530e+000	 8.593084704633487e+000
 9.626011355871260e-001	 2.061316097511893e+000	 8.523959414052374e+000
 9.418674732110530e-001	 2.070871957173500e+000	 8.430257278978521e+000
 9.210768555039048e-001	 2.080202496479101e+000	 8.312372203233993e+000
 9.002328219506405e-001	 2.089307508813609e+000	 8.170676351786462e+000
 8.793389022705090e-001	 2.098186858945657e+000	 8.005518711877063e+000
 8.583986146904973e-001	 2.106840482426127e+000	 7.817223755253472e+000
 8.374154642473412e-001	 2.115268384938982e+000	 7.606090203493801e+000
 1.056377564010459e+000	 2.043053215731184e+000	 8.855267008196238e+000
 1.035682302730179e+000	 2.053621719763194e+000	 8.841755463405667e+000
 1.014915083818444e+000	 2.063963995016330e+000	 8.805773536214829e+000
 9.940795071695253e-001	 2.074079538861235e+000	 8.747852937056724e+000
 9.731791700441648e-001	 2.083967922761197e+000	 8.668503980064340e+000
 9.522176652243890e-001	 2.093628791869585e+000	 8.568213775123931e+000
 9.311985791907377e-001	 2.103061864574149e+000	 8.447444521308711e+000
 9.101254903236087e-001	 2.112266931989306e+000	 8.306631904841584e+000
 8.890019671303754e-001	 2.121243857397628e+000	 8.146183604343721e+000
 8.678315664998596e-001	 2.129992575641768e+000	 7.966477905737555e+000
 8.466178319856844e-001	 2.138513092468148e+000	 7.767862428779336e+000
 1.067859928836815e+000	 2.065260315903762e+000	 9.013250812651377e+000
 1.046939719064425e+000	 2.075943694979352e+000	 8.980429539143248e+000
 1.025946769512391e+000	 2.086398386267651e+000	 8.928510541162497e+000
 1.004884719204270e+000	 2.096623881675941e+000	 8.858108974771202e+000
 9.837572045014625e-001	 2.106619748009500e+000	 8.769814031621229e+000
 9.625678572379757e-001	 2.116385626564670e+000	 8.664187047349348e+000
 9.413203028778324e-001	 2.125921232668197e+000	 8.541759719873495e+000
 9.200181586968702e-001	 2.135226355164004e+000	 8.403032440801042e+000
 8.986650319905858e-001	 2.144300855848600e+000	 8.248472742747433e+000
 8.772645183096365e-001	 2.153144668856409e+000	 8.078513864950176e+000
 8.558201997245326e-001	 2.161757799996312e+000	 7.893553439150312e+000
 1.079342293663667e+000	 2.087467416075340e+000	 9.123892619696242e+000
 1.058197135399078e+000	 2.098265670194510e+000	 9.073043725668615e+000
 1.036978455206676e+000	 2.108832777517972e+000	 9.006441713863387e+000
 1.015689931239302e+000	 2.119168224489647e+000	 8.924786480220579e+000
 9.943352389590202e-001	 2.129271573256804e+000	 8.828747373511295e+000
 9.729180492518130e-001	 2.139142461258755e+000	 8.718961217723676e+000
 9.514420265651888e-001	 2.148780600761245e+000	 8.596030452958409e+000
 9.299108270704248e-001	 2.158185778337701e+000	 8.460521398110842e+000
 9.083280968511405e-001	 2.167357854298573e+000	 8.312962638181890e+000
 8.866974701198286e-001	 2.176296762070050e+000	 8.153843538623674e+000
 8.650225674638863e-001	 2.185002507523477e+000	 7.983612888691504e+000
 1.090824658491015e+000	 2.109674516245919e+000	 9.188345449235992e+000
 1.069454551734137e+000	 2.120587645408667e+000	 9.120671234038694e+000
 1.048010140901297e+000	 2.131267168767293e+000	 9.040562424206437e+000
 1.026495143274622e+000	 2.141712567302352e+000	 8.948804994629578e+000
 1.004913273416837e+000	 2.151923398503107e+000	 8.846149773797098e+000
 9.832682412659006e-001	 2.161899295951840e+000	 8.733310377788355e+000
 9.615637502528075e-001	 2.171639968853294e+000	 8.610961271473308e+000
 9.398034954442724e-001	 2.181145201510398e+000	 8.479735960268647e+000
 9.179911617120392e-001	 2.190414852747545e+000	 8.340225315338202e+000
 8.961304219304351e-001	 2.199448855282691e+000	 8.192976034669309e+000
 8.742249352037450e-001	 2.208247215049642e+000	 8.038489241996741e+000
 1.102307023318859e+000	 2.131881616415496e+000	 9.207742567814517e+000
 1.080711968069602e+000	 2.142909620621825e+000	 9.124367717201398e+000
 1.059041826596255e+000	 2.153701560015614e+000	 9.031852606719578e+000
 1.037300355310231e+000	 2.164256910114058e+000	 8.931070673484291e+000
 1.015491307874912e+000	 2.174575223748410e+000	 8.822855590728526e+000
 9.936184332802385e-001	 2.184656130643925e+000	 8.707999110980866e+000
 9.716854739406875e-001	 2.194499336944342e+000	 8.587249045245260e+000
 9.496961638184130e-001	 2.204104624682095e+000	 8.461307381602273e+000
 9.276542265732820e-001	 2.213471851195517e+000	 8.330828546172022e+000
 9.055633737414567e-001	 2.222600948494331e+000	 8.196417808897017e+000
 8.834273029441089e-001	 2.231491922574806e+000	 8.058629836121458e+000
 1.113789388147199e+000	 2.154088716584075e+000	 9.183198506829012e+000
 1.091969384405474e+000	 2.165231595833983e+000	 9.085172175052813e+000
 1.070073512291550e+000	 2.176135951262935e+000	 8.981277556206543e+000
 1.048105567346127e+000	 2.186801252924763e+000	 8.872476976518582e+000
 1.026069342333246e+000	 2.197227048992712e+000	 8.759688360877391e+000
 1.003968625294827e+000	 2.207412965335011e+000	 8.643782982743380e+000
 9.818071976288297e-001	 2.217358705034390e+000	 8.525583358950676e+000
 9.595888321928467e-001	 2.227064047852791e+000	 8.405861292897130e+000
 9.373172914348692e-001	 2.236528849642488e+000	 8.285336069116504e+000
 9.149963255528931e-001	 2.245753041704973e+000	 8.164672801721739e+000
 8.926296706849778e-001	 2.254736630098971e+000	 8.044480938703140e+000
 1.125271752976035e+000	 2.176295816751653e+000	 9.115810018404694e+000
 1.103226800741752e+000	 2.187553571045140e+000	 9.004107804082761e+000
 1.081105197987183e+000	 2.198570342509257e+000	 8.889788674672179e+000
 1.058910779382311e+000	 2.209345595734469e+000	 8.773905315456570e+000
 1.036647376791840e+000	 2.219878874236016e+000	 8.657461351263811e+000
 1.014318817309667e+000	 2.230169800025096e+000	 8.541409000624272e+000
 9.919289213172337e-001	 2.240218073123438e+000	 8.426646883806706e+000
 9.694815005675739e-001	 2.250023471022488e+000	 8.314017988311557e+000
 9.469803562968006e-001	 2.259585848088461e+000	 8.204307794874280e+000
 9.244292773647449e-001	 2.268905134914614e+000	 8.098242566499968e+000
 9.018320384263519e-001	 2.277981337622136e+000	 7.996487802523688e+000
 1.136754117805368e+000	 2.198502916918232e+000	 9.006656973337927e+000
 1.114484217078436e+000	 2.209875546255298e+000	 8.882182795526452e+000
 1.092136883683152e+000	 2.221004733754577e+000	 8.758324172978439e+000
 1.069715991418783e+000	 2.231889938543174e+000	 8.636225662498028e+000
 1.047225411250693e+000	 2.242530699478319e+000	 8.516978078020539e+000
 1.024669009324756e+000	 2.252926634714180e+000	 8.401616046495226e+000
 1.002050645005900e+000	 2.263077441211487e+000	 8.291115726735733e+000
 9.793741689425939e-001	 2.272982894191185e+000	 8.186392694903512e+000
 9.566434211590758e-001	 2.282642846533433e+000	 8.088299999737362e+000
 9.338622291770110e-001	 2.292057228123256e+000	 7.997626390088048e+000
 9.110344061682311e-001	 2.301226045144301e+000	 7.915094716764536e+000
 1.148236482635196e+000	 2.220710017083810e+000	 8.856803205162480e+000
 1.125741633415527e+000	 2.232197521464456e+000	 8.720391085627483e+000
 1.103168569379458e+000	 2.243439124998900e+000	 8.587809730401718e+000
 1.080521203455544e+000	 2.254434281350881e+000	 8.460297122294548e+000
 1.057803445709805e+000	 2.265182524719623e+000	 8.339032793937223e+000
 1.035019201340097e+000	 2.275683469402266e+000	 8.225135282834790e+000
 1.012172368694828e+000	 2.285936809298536e+000	 8.119659758580239e+000
 9.892668373179073e-001	 2.295942317358883e+000	 8.023595825985460e+000
 9.663064860216958e-001	 2.305699844977406e+000	 7.937865507307389e+000
 9.432951809896925e-001	 2.315209321330897e+000	 7.863321406167443e+000
 9.202367739106159e-001	 2.324470752665467e+000	 7.800745055186858e+000
 8.282130965095028e-001	 2.092023677408817e+000	 7.407785853634961e+000
 8.074215901202451e-001	 2.100135799387014e+000	 7.177780270827793e+000
 7.865945792257691e-001	 2.108024897382408e+000	 6.987334525425016e+000
 7.657354814378435e-001	 2.115691180799508e+000	 6.836791913839328e+000
 7.448476949157643e-001	 2.123134925392267e+000	 6.726409119304778e+000
 7.239345968484162e-001	 2.130356472406817e+000	 6.656356279192007e+000
 7.029995419721640e-001	 2.137356227685585e+000	 6.626717216581797e+000
 6.820458611255976e-001	 2.144134660734327e+000	 6.637489833219902e+000
 6.610768598420856e-001	 2.150692303753668e+000	 6.688586660600102e+000
 6.400958169810156e-001	 2.157029750636725e+000	 6.779835565560690e+000
 6.191059833985354e-001	 2.163147655934445e+000	 6.906917256332124e+000
 8.374154642473412e-001	 2.115268384938982e+000	 7.606090203493801e+000
 8.163929411200946e-001	 2.123470641606018e+000	 7.407893935239017e+000
 7.953345189931456e-001	 2.131447396245942e+000	 7.241852667253697e+000
 7.742436534517254e-001	 2.139198860589977e+000	 7.108297127354845e+000
 7.531237804124565e-001	 2.146725313456010e+000	 7.007477144442703e+000
 7.319783145885441e-001	 2.154027099881797e+000	 6.939561605751728e+000
 7.108106479912013e-001	 2.161104630219127e+000	 6.904638574899111e+000
 6.896241484683363e-001	 2.167958379190486e+000	 6.902715568119261e+000
 6.684221582814655e-001	 2.174588884909840e+000	 6.933719985691787e+000
 6.472079927217471e-001	 2.180996747869119e+000	 6.997499695206225e+000
 6.259849387659531e-001	 2.187182629892056e+000	 7.093823762963216e+000
 8.466178319856844e-001	 2.138513092468148e+000	 7.767862428779336e+000
 8.253642921205442e-001	 2.146805483824028e+000	 7.597817514601134e+000
 8.040744587612064e-001	 2.154869895108496e+000	 7.452759037113419e+000
 7.827518254663666e-001	 2.162706540379492e+000	 7.333006565290310e+000
 7.613998659099723e-001	 2.170315701518835e+000	 7.238804293531919e+000
 7.400220323295501e-001	 2.177697727355906e+000	 7.170320889318671e+000
 7.186217540111608e-001	 2.184853032751853e+000	 7.127649498459615e+000
 6.972024358120313e-001	 2.191782097645895e+000	 7.110807905583280e+000
 6.757674567218255e-001	 2.198485466065336e+000	 7.119738847134011e+000
 6.543201684634735e-001	 2.204963745100923e+000	 7.154310473769332e+000
 6.328638941343707e-001	 2.211217603849173e+000	 7.214316958704035e+000
 8.558201997245326e-001	 2.161757799996312e+000	 7.893553439150312e+000
 8.343356431215939e-001	 2.170140326041044e+000	 7.748096467201430e+000
 8.128143985299519e-001	 2.178292393970071e+000	 7.620687840917050e+000
 7.912599974817666e-001	 2.186214220168053e+000	 7.511637392698855e+000
 7.696759514083115e-001	 2.193906089580742e+000	 7.421184917835249e+000
 7.480657500714332e-001	 2.201368354829143e+000	 7.349499912965275e+000
 7.264328600320423e-001	 2.208601435283764e+000	 7.296681469188764e+000
 7.047807231566823e-001	 2.215605816100554e+000	 7.262758317725333e+000
 6.831127551631663e-001	 2.222382047220160e+000	 7.247689025635833e+000
 6.614323442061953e-001	 2.228930742332137e+000	 7.251362338748189e+000
 6.397428495037884e-001	 2.235252577805797e+000	 7.273597668573624e+000
 8.650225674638863e-001	 2.185002507523477e+000	 7.983612888691504e+000
 8.433069941232435e-001	 2.193475168257064e+000	 7.859269968919168e+000
 8.215543382993820e-001	 2.201714892830667e+000	 7.746262243254147e+000
 7.997681694979255e-001	 2.209721899955661e+000	 7.644891242733352e+000
 7.779520369074738e-001	 2.217496477641732e+000	 7.555393614729175e+000
 7.561094678141941e-001	 2.225038982301508e+000	 7.477940752570466e+000
 7.342439660538457e-001	 2.232349837814859e+000	 7.412638577114797e+000
 7.123590105022895e-001	 2.239429534554463e+000	 7.359527468424882e+000
 6.904580536054876e-001	 2.246278628374308e+000	 7.318582345308513e+000
 6.685445199499123e-001	 2.252897739562764e+000	 7.289712890102369e+000
 6.466218048742060e-001	 2.259287551761928e+000	 7.272763915721623e+000
 8.742249352037450e-001	 2.208247215049642e+000	 8.038489241996741e+000
 8.522783451254931e-001	 2.216810010472089e+000	 7.931871243878798e+000
 8.302942780694966e-001	 2.225137391690283e+000	 7.830094948513286e+000
 8.082763415148440e-001	 2.233229579742315e+000	 7.733455034114710e+000
 7.862281224074597e-001	 2.241086865701804e+000	 7.642186267382168e+000
 7.641531855578327e-001	 2.248709609773001e+000	 7.556463024566582e+000
 7.420550720765707e-001	 2.256098240345137e+000	 7.476398962046956e+000
 7.199372978488527e-001	 2.263253253007622e+000	 7.402046834813473e+000
 6.978033520487897e-001	 2.270175209527783e+000	 7.333398460855242e+000
 6.756566956946242e-001	 2.276864736792801e+000	 7.270384829070094e+000
 6.535007602456237e-001	 2.283322525717564e+000	 7.212876347944853e+000
 8.834273029441089e-001	 2.231491922574806e+000	 8.058629836121458e+000
 8.612496961283427e-001	 2.240144852686119e+000	 7.966427874437169e+000
 8.390342178402960e-001	 2.248559890548920e+000	 7.872788745684193e+000
 8.167845135325212e-001	 2.256737259528015e+000	 7.778001737508753e+000
 7.945042079082687e-001	 2.264677253760957e+000	 7.682301019452839e+000
 7.721969033023489e-001	 2.272380237243623e+000	 7.585865055702053e+000
 7.498661781002176e-001	 2.279846642874599e+000	 7.488816165150065e+000
 7.275155851963721e-001	 2.287076971460030e+000	 7.391220227417682e+000
 7.051486504930720e-001	 2.294071790680583e+000	 7.293086533060787e+000
 6.827688714403313e-001	 2.300831734022249e+000	 7.194367775810574e+000
 6.603797156180413e-001	 2.307357499672706e+000	 7.094960184320168e+000
 8.926296706849778e-001	 2.254736630098971e+000	 8.044480938703140e+000
 8.702210471317924e-001	 2.263479694899155e+000	 7.963462091996203e+000
 8.477741576117799e-001	 2.271982389406577e+000	 7.874937019460824e+000
 8.252926855509575e-001	 2.280244939312762e+000	 7.779191094497920e+000
 8.027802934099011e-001	 2.288267641819194e+000	 7.676459189497836e+000
 7.802406210477425e-001	 2.296050864713372e+000	 7.566924980448159e+000
 7.576772841247863e-001	 2.303595045403246e+000	 7.450720396915240e+000
 7.350938725448477e-001	 2.310900689911689e+000	 7.327925216273123e+000
 7.124939489383351e-001	 2.317968371832708e+000	 7.198566800643204e+000
 6.898810471870336e-001	 2.324798731251109e+000	 7.062619974613808e+000
 6.672586709914591e-001	 2.331392473627356e+000	 6.920007041427083e+000
 9.018320384263519e-001	 2.277981337622136e+000	 7.996487802523688e+000
 8.791923981358421e-001	 2.286814537111197e+000	 7.923491050010978e+000
 8.565140973839484e-001	 2.295404888263255e+000	 7.837124230052320e+000
 8.338008575701530e-001	 2.303752619096555e+000	 7.737670292534611e+000
 8.110563789123574e-001	 2.311858029876512e+000	 7.625366129395345e+000
 7.882843387940139e-001	 2.319721492182250e+000	 7.500401771216975e+000
 7.654883901502770e-001	 2.327343447931077e+000	 7.362919727500972e+000
 7.426721598942795e-001	 2.334724408362598e+000	 7.213014469724521e+000
 7.198392473845785e-001	 2.341864952984159e+000	 7.050732055869584e+000
 6.969932229347310e-001	 2.348765728479380e+000	 6.876069894710524e+000
 6.741376263658767e-001	 2.355427447581511e+000	 6.688976647760803e+000
 9.110344061682311e-001	 2.301226045144301e+000	 7.915094716764536e+000
 8.881637491404917e-001	 2.310149379322243e+000	 7.847027080451497e+000
 8.652540371568017e-001	 2.318827387118954e+000	 7.759926363914559e+000
 8.423090295901076e-001	 2.327260298879394e+000	 7.654074598988385e+000
 8.193324644156366e-001	 2.335448417932912e+000	 7.529712030743063e+000
 7.963280565411631e-001	 2.343392119650255e+000	 7.387036206142330e+000
 7.732994961766895e-001	 2.351091850458091e+000	 7.226201204931447e+000
 7.502504472446673e-001	 2.358548126812756e+000	 7.047317012087392e+000
 7.271845458318026e-001	 2.365761534134935e+000	 6.850449030740014e+000
 7.041053986834237e-001	 2.372732725707061e+000	 6.635617734063093e+000
 6.810165817412944e-001	 2.379462421535173e+000	 6.402798454242003e+000
 9.202367739106159e-001	 2.324470752665467e+000	 7.800745055186858e+000
 8.971351001457416e-001	 2.333484221532295e+000	 7.734577934877150e+000
 8.739939769303398e-001	 2.342249885973674e+000	 7.643911357438018e+000
 8.508172016108214e-001	 2.350767978661281e+000	 7.529027957149675e+000
 8.276085499197395e-001	 2.359038805988396e+000	 7.390172682872314e+000
 8.043717742891899e-001	 2.367062747117389e+000	 7.227551778793633e+000
 7.811106022040244e-001	 2.374840252984292e+000	 7.041331906203210e+000
 7.578287345960116e-001	 2.382371845262165e+000	 6.831639405849160e+000
 7.345298442800076e-001	 2.389658115285039e+000	 6.598559700001297e+000
 7.112175744331116e-001	 2.396699722934155e+000	 6.342136832928490e+000
 6.878955371177123e-001	 2.403497395488342e+000	 6.062373148094822e+000
 6.191059833985354e-001	 2.163147655934445e+000	 6.906917256332124e+000
 5.981105806580939e-001	 2.169046733790038e+000	 6.855986815464918e+000
 5.771127997826462e-001	 2.174727756844882e+000	 6.821071192879231e+000
 5.561158000485695e-001	 2.180191555116964e+000	 6.797777852593180e+000
 5.351227078207386e-001	 2.185439014853160e+000	 6.781973350516266e+000
 5.141366154304752e-001	 2.190471077357688e+000	 6.769786385619846e+000
 4.931605800963980e-001	 2.195288737798134e+000	 6.757610208284987e+000
 4.721976228884912e-001	 2.199893043990708e+000	 6.742104396433565e+000
 4.512507277356547e-001	 2.204285095166384e+000	 6.720196011493809e+000
 4.303228404769293e-001	 2.208466040719535e+000	 6.689080147605409e+000
 4.094168679565230e-001	 2.212437078940723e+000	 6.646219888748727e+000
 6.259849387659531e-001	 2.187182629892056e+000	 7.093823762963216e+000
 6.047562537727171e-001	 2.193147253056797e+000	 7.006919411365705e+000
 5.835251642208401e-001	 2.198891398589630e+000	 6.938381646995476e+000
 5.622948644897693e-001	 2.204415905730961e+000	 6.884348231307477e+000
 5.410685156817661e-001	 2.209721670574856e+000	 6.840501175847671e+000
 5.198492444873888e-001	 2.214809644884473e+000	 6.802790369065121e+000
 4.986401420943507e-001	 2.219680834884810e+000	 6.767436184624207e+000
 4.774442631400799e-001	 2.224336300034484e+000	 6.730931437700732e+000
 4.562646247082410e-001	 2.228777151778144e+000	 6.690042701483238e+000
 4.351042053694189e-001	 2.233004552281214e+000	 6.641810997511538e+000
 4.139659442660896e-001	 2.237019713148595e+000	 6.583551874806924e+000
 6.328638941343707e-001	 2.211217603849173e+000	 7.214316958704035e+000
 6.114019268883301e-001	 2.217247772323162e+000	 7.102299200609787e+000
 5.899375286599927e-001	 2.223055040334081e+000	 7.006958741478087e+000
 5.684739289318760e-001	 2.228640256344763e+000	 6.928663652022070e+000
 5.470143235436286e-001	 2.234004326296461e+000	 6.862905819400997e+000
 5.255618735450450e-001	 2.239148212411264e+000	 6.805451176115902e+000
 5.041197040929339e-001	 2.244072931971593e+000	 6.752342508673899e+000
 4.826909033921672e-001	 2.248779556078466e+000	 6.699901593717660e+000
 4.612785216811740e-001	 2.253269208390210e+000	 6.644730674035531e+000
 4.398855702620841e-001	 2.257543063843300e+000	 6.583713288324080e+000
 4.185150205756415e-001	 2.261602347356972e+000	 6.514014469945842e+000
 6.397428495037884e-001	 2.235252577805797e+000	 7.273597668573624e+000
 6.180476000049326e-001	 2.241348291589134e+000	 7.140855148828607e+000
 5.963498931001037e-001	 2.247218682078241e+000	 7.025578417978890e+000
 5.746529933748895e-001	 2.252864606958372e+000	 6.929549460534347e+000
 5.529601314063259e-001	 2.258286982017971e+000	 6.848064358860002e+000
 5.312745026034441e-001	 2.263486779938062e+000	 6.776699845347642e+000
 5.095992660921479e-001	 2.268465029058483e+000	 6.711316311904672e+000
 4.879375436447530e-001	 2.273222812122655e+000	 6.648060125670062e+000
 4.662924186544541e-001	 2.277761265002585e+000	 6.583365263579155e+000
 4.446669351549250e-001	 2.282081575405792e+000	 6.513954279908336e+000
 4.230640968851787e-001	 2.286184981565858e+000	 6.436838622353349e+000
 6.466218048742060e-001	 2.259287551761928e+000	 7.272763915721623e+000
 6.246932731225249e-001	 2.265448810854711e+000	 7.121280093592348e+000
 6.027622575411730e-001	 2.271382323822106e+000	 6.992983590456306e+000
 5.808320578188099e-001	 2.277088957571788e+000	 6.885800852374977e+000
 5.589059392698581e-001	 2.282569637739387e+000	 6.794826376643776e+000
 5.369871316625857e-001	 2.287825347464866e+000	 6.715442353289134e+000
 5.150788280919921e-001	 2.292857126145480e+000	 6.643321875940043e+000
 4.931841838978373e-001	 2.297666068167052e+000	 6.574431436959701e+000
 4.713063156280809e-001	 2.302253321615265e+000	 6.505032719683721e+000
 4.494483000479417e-001	 2.306620086968693e+000	 6.431683702173981e+000
 4.276131731947014e-001	 2.310767615775252e+000	 6.351239088366095e+000
 6.535007602456237e-001	 2.283322525717564e+000	 7.212876347944853e+000
 6.313389462411063e-001	 2.289549330119895e+000	 7.037388113731614e+000
 6.091746219832009e-001	 2.295545965565678e+000	 6.907885883475242e+000
 5.870111222636369e-001	 2.301313308185011e+000	 6.796184459663774e+000
 5.648517471342254e-001	 2.306852293460712e+000	 6.702015407025057e+000
 5.426997607224701e-001	 2.312163914991678e+000	 6.620560933477835e+000
 5.205583900924672e-001	 2.317249223232584e+000	 6.547301835179900e+000
 4.984308241514200e-001	 2.322109324211656e+000	 6.478020170981771e+000
 4.763202126020544e-001	 2.326745378228254e+000	 6.408801211527065e+000
 4.542296649411342e-001	 2.331158598532000e+000	 6.336034677703945e+000
 4.321622495042093e-001	 2.335350249985153e+000	 6.256415284672390e+000
 6.603797156180413e-001	 2.307357499672706e+000	 7.094960184320168e+000
 6.379846193606776e-001	 2.313649849384685e+000	 6.897658424865757e+000
 6.155869864261875e-001	 2.319709607308956e+000	 6.768967261862676e+000
 5.931901867093712e-001	 2.325537658798039e+000	 6.659439838787277e+000
 5.707975549994272e-001	 2.331134949181941e+000	 6.568430292804747e+000
 5.484123897830971e-001	 2.336502482518495e+000	 6.490915313073788e+000
 5.260379520935724e-001	 2.341641320319795e+000	 6.422178304260068e+000
 5.036774644055012e-001	 2.346552580256466e+000	 6.357812240292374e+000
 4.813341095763750e-001	 2.351237434841550e+000	 6.293721769581634e+000
 4.590110298345023e-001	 2.355697110095716e+000	 6.226124586720066e+000
 4.367113258137025e-001	 2.359932884195560e+000	 6.151552087251995e+000
 6.672586709914591e-001	 2.331392473627356e+000	 6.920007041427083e+000
 6.446302924812386e-001	 2.337750368649082e+000	 6.703321777340053e+000
 6.219993508701324e-001	 2.343873249051940e+000	 6.574881559560271e+000
 5.993692511560121e-001	 2.349762009410875e+000	 6.474280866054921e+000
 5.767433628654640e-001	 2.355417604903078e+000	 6.392846458068418e+000
 5.541250188444671e-001	 2.360841050045321e+000	 6.325343872982139e+000
 5.315175140953082e-001	 2.366033417407112e+000	 6.266853935771674e+000
 5.089241046600811e-001	 2.370995836301485e+000	 6.212775792115374e+000
 4.863480065510423e-001	 2.375729491455153e+000	 6.158829169053185e+000
 4.637923947280460e-001	 2.380235621659838e+000	 6.101055878544297e+000
 4.412604021231812e-001	 2.384515518406475e+000	 6.035820580897394e+000
 6.741376263658767e-001	 2.355427447581511e+000	 6.688976647760803e+000
 6.512759656027893e-001	 2.361850887913085e+000	 6.455257033936725e+000
 6.284117153150359e-001	 2.368036890794632e+000	 6.321536750817954e+000
 6.055483156035602e-001	 2.373986360023517e+000	 6.239397047907406e+000
 5.826891707323358e-001	 2.379700260624121e+000	 6.174017103018041e+000
 5.598376479065796e-001	 2.385179617572153e+000	 6.122664736947906e+000
 5.369970760976748e-001	 2.390425514494537e+000	 6.080212913223327e+000
 5.141707449151594e-001	 2.395439092346710e+000	 6.041862114736786e+000
 4.913619035260565e-001	 2.400221548069064e+000	 6.003142759230908e+000
 4.685737596217657e-001	 2.404774133224367e+000	 5.959916833379423e+000
 4.458094784326451e-001	 2.409098152617898e+000	 5.908378762845552e+000
 6.810165817412944e-001	 2.379462421535173e+000	 6.402798454242003e+000
 6.579216387253294e-001	 2.385951407176694e+000	 6.154315330664001e+000
 6.348240797608978e-001	 2.392200532537029e+000	 6.013680123656243e+000
 6.117273800520149e-001	 2.398210710635965e+000	 5.953454751717646e+000
 5.886349786000426e-001	 2.403982916345072e+000	 5.910674326390838e+000
 5.655502769694349e-001	 2.409518185098991e+000	 5.881676794644201e+000
 5.424766381006718e-001	 2.414817611582069e+000	 5.861121883821898e+000
 5.194173851707361e-001	 2.419882348392142e+000	 5.844006488966584e+000
 4.963758005014176e-001	 2.424713604683281e+000	 5.825667242574231e+000
 4.733551245156609e-001	 2.429312644789304e+000	 5.801782277921394e+000
 4.503585547420944e-001	 2.433680786829828e+000	 5.768372203765371e+000
 6.878955371177123e-001	 2.403497395488342e+000	 6.062373148094822e+000
 6.645673118488593e-001	 2.410051926439911e+000	 5.801321463095600e+000
 6.412364442077186e-001	 2.416364174279133e+000	 5.655894326016193e+000
 6.179064445013768e-001	 2.422435061248221e+000	 5.615098362744305e+000
 5.945807864685845e-001	 2.428265572065930e+000	 5.601530180531977e+000
 5.712629060330331e-001	 2.433856752625838e+000	 5.601160663376763e+000
 5.479562001042996e-001	 2.439209708669709e+000	 5.608430835288792e+000
 5.246640254268117e-001	 2.444325604437782e+000	 5.618128988511993e+000
 5.013896974771256e-001	 2.449205661297807e+000	 5.625393407054472e+000
 4.781364894097321e-001	 2.453851156354649e+000	 5.625714258034302e+000
 4.549076310515292e-001	 2.458263421042266e+000	 5.614934669086637e+000
 4.094168679565230e-001	 2.212437078940723e+000	 6.646219888748727e+000
 3.885356771626090e-001	 2.216199455735425e+000	 6.611705632082670e+000
 3.676820944102924e-001	 2.219754463329662e+000	 6.581239090582275e+000
 3.468589045682614e-001	 2.223103438964542e+000	 6.552887601436501e+000
 3.260688503289498e-001	 2.226247763581711e+000	 6.524966152992614e+000
 3.053146315223869e-001	 2.229188860500556e+000	 6.496035136486248e+000
 2.845989044733670e-001	 2.231928194088898e+000	 6.464897621450749e+000
 2.639242814016642e-001	 2.234467268428643e+000	 6.430596175040939e+000
 2.432933298649634e-001	 2.236807625977843e+000	 6.392409246093444e+000
 2.227085722441358e-001	 2.238950846230580e+000	 6.349847135244922e+000
 2.021724852704328e-001	 2.240898544376048e+000	 6.302647572846770e+000
 4.139659442660896e-001	 2.237019713148595e+000	 6.583551874806924e+000
 3.928527402417594e-001	 2.240823894129246e+000	 6.536690260789837e+000
 3.717674510149444e-001	 2.244418401807346e+000	 6.496359190693596e+000
 3.507128923973185e-001	 2.247804588282233e+000	 6.460516121716754e+000
 3.296918375556776e-001	 2.250983849839349e+000	 6.427371647014461e+000
 3.087070163181624e-001	 2.253957625612741e+000	 6.395387291931573e+000
 2.877611145242888e-001	 2.256727396240981e+000	 6.363272818586508e+000
 2.668567734184953e-001	 2.259294682517994e+000	 6.329983059510483e+000
 2.459965890868866e-001	 2.261661044040255e+000	 6.294714301659556e+000
 2.251831119367892e-001	 2.263828077851780e+000	 6.256900242638108e+000
 2.044188462186914e-001	 2.265797417088305e+000	 6.216207541408979e+000
 4.185150205756415e-001	 2.261602347356972e+000	 6.514014469945842e+000
 3.971698033207161e-001	 2.265448332523665e+000	 6.459533239596367e+000
 3.758528076192648e-001	 2.269082340285696e+000	 6.413663793540350e+000
 3.545668802259480e-001	 2.272505737600639e+000	 6.374251771106763e+000
 3.333148247819216e-001	 2.275719936097731e+000	 6.339401864241131e+000
 3.120994011134391e-001	 2.278726390725677e+000	 6.307475652725636e+000
 2.909233245747360e-001	 2.281526598393801e+000	 6.277088931875333e+000
 2.697892654349163e-001	 2.284122096608050e+000	 6.247108553911296e+000
 2.486998483085034e-001	 2.286514462103323e+000	 6.216648804847770e+000
 2.276576516292784e-001	 2.288705309473562e+000	 6.185067339276358e+000
 2.066652071669667e-001	 2.290696289801054e+000	 6.151960695886620e+000
 4.230640968851787e-001	 2.286184981565858e+000	 6.436838622353349e+000
 4.014868663994790e-001	 2.290072770918680e+000	 6.379494038180221e+000
 3.799381642232539e-001	 2.293746278764711e+000	 6.332443316747578e+000
 3.584208680541493e-001	 2.297206886919757e+000	 6.293418265983481e+000
 3.369378120076820e-001	 2.300456022356852e+000	 6.260416096591390e+000
 3.154917859082165e-001	 2.303495155839361e+000	 6.231697290780083e+000
 2.940855346247088e-001	 2.306325800547358e+000	 6.205782947045203e+000
 2.727217574509270e-001	 2.308949510698813e+000	 6.181451622723899e+000
 2.514031075298134e-001	 2.311367880167042e+000	 6.157735696706687e+000
 2.301321913216034e-001	 2.313582541095925e+000	 6.133917275258701e+000
 2.089115681152584e-001	 2.315595162514295e+000	 6.109523664380677e+000
 4.276131731947014e-001	 2.310767615775252e+000	 6.351239088366095e+000
 4.058039294780481e-001	 2.314697209314293e+000	 6.295818624773477e+000
 3.840235208269116e-001	 2.318410217244391e+000	 6.251977117303381e+000
 3.622748558819228e-001	 2.321908036239591e+000	 6.217330454532320e+000
 3.405607992329587e-001	 2.325192108616718e+000	 6.189766713230955e+000
 3.188841707024949e-001	 2.328263920953794e+000	 6.167444055162799e+000
 2.972477446742072e-001	 2.331125002701653e+000	 6.148788082955859e+000
 2.756542494665275e-001	 2.333776924790280e+000	 6.132488677312550e+000
 2.541063667508167e-001	 2.336221298231415e+000	 6.117496338517722e+000
 2.326067310137641e-001	 2.338459772718871e+000	 6.103018055790824e+000
 2.111579290635668e-001	 2.340494035228026e+000	 6.088512728530394e+000
 4.321622495042093e-001	 2.335350249985153e+000	 6.256415284672390e+000
 4.101209925564234e-001	 2.339321647710502e+000	 6.207740176764338e+000
 3.881088774302378e-001	 2.343074155724738e+000	 6.171534073697278e+000
 3.661288437092683e-001	 2.346609185560138e+000	 6.145294783493832e+000
 3.441837864577516e-001	 2.349928194877323e+000	 6.126799524927692e+000
 3.222765554962742e-001	 2.353032686068978e+000	 6.114102846984704e+000
 3.004099547232311e-001	 2.355924204856685e+000	 6.105533989855414e+000
 2.785867414817179e-001	 2.358604338882451e+000	 6.099693710299919e+000
 2.568096259715134e-001	 2.361074716296441e+000	 6.095450594940635e+000
 2.350812707057604e-001	 2.363337004342399e+000	 6.091936885653224e+000
 2.134042900118918e-001	 2.365392907942251e+000	 6.088543841748527e+000
 4.367113258137025e-001	 2.359932884195560e+000	 6.151552087251995e+000
 4.144380556346050e-001	 2.363946086107308e+000	 6.114479746887068e+000
 3.921942340332327e-001	 2.367738094205750e+000	 6.090373131675850e+000
 3.699828315361858e-001	 2.371310334881399e+000	 6.076609735739224e+000
 3.478067736820607e-001	 2.374664281138672e+000	 6.070854125635390e+000
 3.256689402895543e-001	 2.377801451184912e+000	 6.071055877105421e+000
 3.035721647717806e-001	 2.380723407012454e+000	 6.075446935245266e+000
 2.815192334964980e-001	 2.383431752975329e+000	 6.082538421543245e+000
 2.595128851919035e-001	 2.385928134362120e+000	 6.091116911962299e+000
 2.375558103975927e-001	 2.388214235966510e+000	 6.100240210889856e+000
 2.156506509602334e-001	 2.390291780656967e+000	 6.109232646315732e+000
 4.412604021231812e-001	 2.384515518406475e+000	 6.035820580897394e+000
 4.187551187125927e-001	 2.388570524504710e+000	 6.015246888203992e+000
 3.962795906358961e-001	 2.392402032687428e+000	 6.007743816239340e+000
 3.738368193626754e-001	 2.396011484203374e+000	 6.010566240778916e+000
 3.514297609058862e-001	 2.399400367400761e+000	 6.021264212947484e+000
 3.290613250823354e-001	 2.402570216301594e+000	 6.037680907899181e+000
 3.067343748198556e-001	 2.405522609168960e+000	 6.057949978248842e+000
 2.844517255108681e-001	 2.408259167068911e+000	 6.080492336317793e+000
 2.622161444119869e-001	 2.410781552428453e+000	 6.104012390024533e+000
 2.400303500892606e-001	 2.413091467591202e+000	 6.127493757918756e+000
 2.178970119085915e-001	 2.415190653372174e+000	 6.150194489419070e+000
 4.458094784326451e-001	 2.409098152617898e+000	 5.908378762845552e+000
 4.230721817903867e-001	 2.413194962902710e+000	 5.909240240823594e+000
 4.003649472382280e-001	 2.417065971169771e+000	 5.922886712292197e+000
 3.776908071887371e-001	 2.420712633526063e+000	 5.946448060138214e+000
 3.550527481292279e-001	 2.424136453663593e+000	 5.977357888932303e+000
 3.324537098746174e-001	 2.427338981419025e+000	 6.013351480218103e+000
 3.098965848674561e-001	 2.430321811326204e+000	 6.052463133303857e+000
 2.873842175248279e-001	 2.433086581163198e+000	 6.093022916265563e+000
 2.649194036317636e-001	 2.435634970495439e+000	 6.133652852674251e+000
 2.425048897807642e-001	 2.437968699216476e+000	 6.173262570246953e+000
 2.201433728569663e-001	 2.440089526087873e+000	 6.211044438207479e+000
 4.503585547420944e-001	 2.433680786829828e+000	 5.768372203765371e+000
 4.273892448679870e-001	 2.437819401301307e+000	 5.795648083059960e+000
 4.044503038402286e-001	 2.441729909652781e+000	 5.835033916163180e+000
 3.815447950143708e-001	 2.445413782849466e+000	 5.883532149376793e+000
 3.586757353520860e-001	 2.448872539927167e+000	 5.938457942734811e+000
 3.358460946664003e-001	 2.452107746537208e+000	 5.997437126600739e+000
 3.130587949145822e-001	 2.455121013484185e+000	 6.058403523934835e+000
 2.903167095383775e-001	 2.457913995258191e+000	 6.119595663618667e+000
 2.676226628512337e-001	 2.460488388563079e+000	 6.179552911053084e+000
 2.449794294721036e-001	 2.462845930842334e+000	 6.237111042961451e+000
 2.223897338053576e-001	 2.464988398804064e+000	 6.291397293934815e+000
 4.549076310515292e-001	 2.458263421042266e+000	 5.614934669086637e+000
 4.317063079453936e-001	 2.462443839700501e+000	 5.673648849521706e+000
 4.085356604418978e-001	 2.466393848136456e+000	 5.743409460033690e+000
 3.853987828395767e-001	 2.470114932173584e+000	 5.821088998386673e+000
 3.622987225744604e-001	 2.473608626191484e+000	 5.903882116223410e+000
 3.392384794576842e-001	 2.476876511656140e+000	 5.989303571687614e+000
 3.162210049612340e-001	 2.479920215642903e+000	 6.075185527298535e+000
 2.932492015515172e-001	 2.482741409353889e+000	 6.159674219169779e+000
 2.703259220703973e-001	 2.485341806631373e+000	 6.241226024517740e+000
 2.474539691632788e-001	 2.487723162468773e+000	 6.318602955150233e+000
 2.246360947537655e-001	 2.489887271520747e+000	 6.390867605255161e+000
 2.021724852704328e-001	 2.240898544376048e+000	 6.302647572846770e+000
 1.816874995949720e-001	 2.242652369958055e+000	 6.253628191983329e+000
 1.612559993974847e-001	 2.244214005536660e+000	 6.209915991854726e+000
 1.408803220354768e-001	 2.245585165352947e+000	 6.171891973126574e+000
 1.205627577348666e-001	 2.246767593997911e+000	 6.140135371153125e+000
 1.003055493189618e-001	 2.247763065087045e+000	 6.115417802478283e+000
 8.011089197596211e-002	 2.248573379941687e+000	 6.098697158057215e+000
 5.998093306429295e-002	 2.249200366278207e+000	 6.091111265287808e+000
 3.991777195504935e-002	 2.249645876906150e+000	 6.093971340771656e+000
 1.992345991080419e-002	 2.249911788436346e+000	 6.108755255505912e+000
 0.000000000000000e+000	 2.250000000000000e+000	 6.137100633923496e+000
 2.044188462186914e-001	 2.265797417088305e+000	 6.216207541408979e+000
 1.837062495910136e-001	 2.267570729621807e+000	 6.178229567472174e+000
 1.630477327244405e-001	 2.269149716707362e+000	 6.145535307367304e+000
 1.424456589471164e-001	 2.270536111633176e+000	 6.118434405234039e+000
 1.219023439319140e-001	 2.271731678374588e+000	 6.097441718001958e+000
 1.014200554223994e-001	 2.272738210253934e+000	 6.083271353634416e+000
 8.100101299775198e-002	 2.273557528607231e+000	 6.076830444961881e+000
 6.064738787593482e-002	 2.274191481458810e+000	 6.079212681871858e+000
 4.036130275438802e-002	 2.274641942204989e+000	 6.091691624462468e+000
 2.014483168749037e-002	 2.274910808307830e+000	 6.115713819540547e+000
 0.000000000000000e+000	 2.275000000000000e+000	 6.152891742564272e+000
 2.066652071669667e-001	 2.290696289801054e+000	 6.151960695886620e+000
 1.857249995872511e-001	 2.292489089285958e+000	 6.124169112127050e+000
 1.648394660517300e-001	 2.294085427878376e+000	 6.101276160951179e+000
 1.440109958591867e-001	 2.295487057913643e+000	 6.083522371364889e+000
 1.232419301294486e-001	 2.296695762751441e+000	 6.071360793511948e+000
 1.025345615263407e-001	 2.297713355420943e+000	 6.065450919250725e+000
 8.189113402002246e-002	 2.298541677272851e+000	 6.066652326923065e+000
 6.131384268799495e-002	 2.299182596639456e+000	 6.076018073791148e+000
 4.080483355404375e-002	 2.299638007503848e+000	 6.094787859456074e+000
 2.036620346435405e-002	 2.299909828179321e+000	 6.124380983349095e+000
 0.000000000000000e+000	 2.300000000000000e+000	 6.166389119097673e+000
 2.089115681152584e-001	 2.315595162514295e+000	 6.109523664380677e+000
 1.877437495836842e-001	 2.317407448950504e+000	 6.091162400650686e+000
 1.666311993793531e-001	 2.319021139049704e+000	 6.076953508704587e+000
 1.455763327716877e-001	 2.320438004194348e+000	 6.067070580294586e+000
 1.245815163274705e-001	 2.321659847128467e+000	 6.061907369541514e+000
 1.036490676307859e-001	 2.322688500588074e+000	 6.062071586418182e+000
 8.278125504277363e-002	 2.323525825938548e+000	 6.068378402759466e+000
 6.198029750047333e-002	 2.324173711820144e+000	 6.081843695009352e+000
 4.124836435401658e-002	 2.324634072802725e+000	 6.103677047752333e+000
 2.058757524139525e-002	 2.324908848050816e+000	 6.135274541852221e+000
 0.000000000000000e+000	 2.325000000000000e+000	 6.178211350730424e+000
 2.111579290635668e-001	 2.340494035228026e+000	 6.088512728530394e+000
 1.897624995803131e-001	 2.342325808615447e+000	 6.078922824922620e+000
 1.684229327073099e-001	 2.343956850221343e+000	 6.072378111314193e+000
 1.471416696846195e-001	 2.345388950475293e+000	 6.068987359126763e+000
 1.259211025259797e-001	 2.346623931505669e+000	 6.069087478955236e+000
 1.047635737357348e-001	 2.347663645755325e+000	 6.073237177512590e+000
 8.367137606600540e-002	 2.348509974604322e+000	 6.082210315164989e+000
 6.264675231337000e-002	 2.349164827000876e+000	 6.096988989025946e+000
 4.169189515430646e-002	 2.349630138101622e+000	 6.118756366417808e+000
 2.080894701861396e-002	 2.349907867922315e+000	 6.148889293279746e+000
 0.000000000000000e+000	 2.350000000000000e+000	 6.188950701810405e+000
 2.134042900118918e-001	 2.365392907942251e+000	 6.088543841748527e+000
 1.917812495771378e-001	 2.367244168280787e+000	 6.087161708884361e+000
 1.702146660356004e-001	 2.368892561393295e+000	 6.087356754866220e+000
 1.487070065979819e-001	 2.370339896756475e+000	 6.089174989170825e+000
 1.272606887249762e-001	 2.371588015883045e+000	 6.092898875570833e+000
 1.058780798411875e-001	 2.372638790922696e+000	 6.099040843074029e+000
 8.456149708971783e-002	 2.373494123270175e+000	 6.108336485241670e+000
 6.331320712668491e-002	 2.374155942181651e+000	 6.121737473637532e+000
 4.213542595491342e-002	 2.374626203400537e+000	 6.140404211003402e+000
 2.103031879601018e-002	 2.374906887793820e+000	 6.165698249522802e+000
 0.000000000000000e+000	 2.375000000000000e+000	 6.199174499240317e+000
 2.156506509602334e-001	 2.390291780656967e+000	 6.109232646315732e+000
 1.937999995741583e-001	 2.392162527946525e+000	 6.115588416245216e+000
 1.720063993642245e-001	 2.393828272565560e+000	 6.121692457857058e+000
 1.502723435117751e-001	 2.395290843037896e+000	 6.127530020826961e+000
 1.286002749244599e-001	 2.396552100260596e+000	 6.133331465359436e+000
 1.069925859471440e-001	 2.397613936090189e+000	 6.139565617631800e+000
 8.545161811391089e-002	 2.398478271936103e+000	 6.146932801124355e+000
 6.397966194041810e-002	 2.399147057362470e+000	 6.156357570401152e+000
 4.257895675583746e-002	 2.399622268699472e+000	 6.168981173748092e+000
 2.125169057358391e-002	 2.399905907665330e+000	 6.186153770839158e+000
 0.000000000000000e+000	 2.400000000000000e+000	 6.209426431302732e+000
 2.178970119085915e-001	 2.415190653372174e+000	 6.150194489419070e+000
 1.958187495713746e-001	 2.417080887612659e+000	 6.163910451524266e+000
 1.737981326931824e-001	 2.418763983738137e+000	 6.175184665398735e+000
 1.518376804259990e-001	 2.420241789319556e+000	 6.183943568993787e+000
 1.299398611244309e-001	 2.421516184638321e+000	 6.190367710974108e+000
 1.081070920536042e-001	 2.422589081257802e+000	 6.194884941148263e+000
 8.634173913858456e-002	 2.423462420602109e+000	 6.198163264009697e+000
 6.464611675456952e-002	 2.424138172543332e+000	 6.201103382791259e+000
 4.302248755707858e-002	 2.424618333998426e+000	 6.204830961275597e+000
 2.147306235133515e-002	 2.424904927536844e+000	 6.210688630370028e+000
 0.000000000000000e+000	 2.425000000000000e+000	 6.220227766145761e+000
 2.201433728569663e-001	 2.440089526087873e+000	 6.211044438207479e+000
 1.978374995687866e-001	 2.441999247279191e+000	 6.231833554907661e+000
 1.755898660224739e-001	 2.443699694911027e+000	 6.247629431534342e+000
 1.534030173406536e-001	 2.445192735601454e+000	 6.258301590389817e+000
 1.312794473248892e-001	 2.446480269016221e+000	 6.263983011510543e+000
 1.092215981605683e-001	 2.447564226425537e+000	 6.265063148537307e+000
 8.723186016373889e-002	 2.448446569268192e+000	 6.262180594633040e+000
 6.531257156913924e-002	 2.449129287724237e+000	 6.256215426714233e+000
 4.346601835863679e-002	 2.449614399297399e+000	 6.248281256105226e+000
 2.169443412926390e-002	 2.449903947408363e+000	 6.239717013482864e+000
 0.000000000000000e+000	 2.449999999999999e+000	 6.232078495667378e+000
 2.223897338053576e-001	 2.464988398804064e+000	 6.291397293934815e+000
 1.998562495663943e-001	 2.466917606946119e+000	 6.319061791356226e+000
 1.773815993520991e-001	 2.468635406084229e+000	 6.338819590504604e+000
 1.549683542557389e-001	 2.470143681883590e+000	 6.350485144067855e+000
 1.326190335258348e-001	 2.471444353394296e+000	 6.354146059252604e+000
 1.103361042680361e-001	 2.472539371593392e+000	 6.350155929515728e+000
 8.812198118937387e-002	 2.473430717934352e+000	 6.339126802987876e+000
 6.597902638412719e-002	 2.474120402905185e+000	 6.321921316748608e+000
 4.390954916051204e-002	 2.474610464596391e+000	 6.299644525950162e+000
 2.191580590737017e-002	 2.474902967279886e+000	 6.273635456547894e+000
 0.000000000000000e+000	 2.474999999999999e+000	 6.245458410073415e+000
 2.246360947537655e-001	 2.489887271520747e+000	 6.390867605255161e+000
 2.018749995641979e-001	 2.491835966613445e+000	 6.425297634366215e+000
 1.791733326820581e-001	 2.493571117257746e+000	 6.448544917737361e+000
 1.565336911712550e-001	 2.495094628165966e+000	 6.460370636297985e+000
 1.339586197272678e-001	 2.496408437772546e+000	 6.460819175012939e+000
 1.114506103760078e-001	 2.497514516761370e+000	 6.450210760862580e+000
 8.901210221548951e-002	 2.498414866600589e+000	 6.429133723863886e+000
 6.664548119953342e-002	 2.499111518086177e+000	 6.398436411212087e+000
 4.435307996270441e-002	 2.499606529895403e+000	 6.359218784457444e+000
 2.213717768565395e-002	 2.499901987151415e+000	 6.312823729387781e+000
 0.000000000000000e+000	 2.500000000000000e+000	 6.260828107962269e+000
 2.500000000000000e+000	 0.000000000000000e+000	 1.132399026236491e+001
 2.499901987151415e+000	 2.213717768565403e-002	 1.137806135422448e+001
 2.499606529895403e+000	 4.435307996270457e-002	 1.141750790493505e+001
 2.499111518086177e+000	 6.664548119953326e-002	 1.144381803116692e+001
 2.498414866600589e+000	 8.901210221548944e-002	 1.145845492055685e+001
 2.497514516761369e+000	 1.114506103760078e-001	 1.146285439920449e+001
 2.496408437772546e+000	 1.339586197272678e-001	 1.145842251748634e+001
 2.495094628165966e+000	 1.565336911712552e-001	 1.144653316026756e+001
 2.493571117257746e+000	 1.791733326820579e-001	 1.142852568771294e+001
 2.491835966613445e+000	 2.018749995641979e-001	 1.140570261300799e+001
 2.489887271520747e+000	 2.246360947537655e-001	 1.137932732339165e+001
 2.525000000000000e+000	 0.000000000000000e+000	 1.128315958425441e+001
 2.524901007022946e+000	 2.235854946393780e-002	 1.133273765892557e+001
 2.524602595194425e+000	 4.479661076489691e-002	 1.136727731187428e+001
 2.524102633267189e+000	 6.731193601493948e-002	 1.138750366330973e+001
 2.523399015266865e+000	 8.990222324160507e-002	 1.139420563582481e+001
 2.522489661929406e+000	 1.125651164839795e-001	 1.138823681690649e+001
 2.521372522150882e+000	 1.352982059287007e-001	 1.137051623400473e+001
 2.520045574448461e+000	 1.580990280867712e-001	 1.134202903735445e+001
 2.518506828431417e+000	 1.809650660120168e-001	 1.130382708578742e+001
 2.516754326280969e+000	 2.038937495620014e-001	 1.125702943082995e+001
 2.514786144237676e+000	 2.268824557021734e-001	 1.120282269445728e+001
 2.550000000000000e+000	 0.000000000000000e+000	 1.124637374015302e+001
 2.549900026894477e+000	 2.257992124204407e-002	 1.129267226647858e+001
 2.549598660493445e+000	 4.524014156677218e-002	 1.132451692713016e+001
 2.549093748448203e+000	 6.797839082992745e-002	 1.134269638098982e+001
 2.548383163933140e+000	 9.079234426724003e-002	 1.134806505417375e+001
 2.547464807097442e+000	 1.136796225914473e-001	 1.134154399128700e+001
 2.546336606529218e+000	 1.366377921296463e-001	 1.132412161559145e+001
 2.544996520730955e+000	 1.596643650018565e-001	 1.129685439316406e+001
 2.543442539605088e+000	 1.827567993416420e-001	 1.126086739616663e+001
 2.541672685948493e+000	 2.059124995596092e-001	 1.121735476041321e+001
 2.539685016954604e+000	 2.291288166505647e-001	 1.116758003249910e+001
 2.575000000000000e+000	 0.000000000000000e+000	 1.121337705787952e+001
 2.574899046766007e+000	 2.280129301997283e-002	 1.125733050575692e+001
 2.574594725792466e+000	 4.568367236833036e-002	 1.128736989197835e+001
 2.574084863629216e+000	 6.864484564449713e-002	 1.130434685469143e+001
 2.573367312599416e+000	 9.168246529239436e-002	 1.130918080359298e+001
 2.572439952265480e+000	 1.147941286984114e-001	 1.130285976125307e+001
 2.571300690907555e+000	 1.379773783301046e-001	 1.128644110967504e+001
 2.569947467013449e+000	 1.612297019165111e-001	 1.126105223704602e+001
 2.568378250778760e+000	 1.845485326709336e-001	 1.122789107968026e+001
 2.566591045616016e+000	 2.079312495570212e-001	 1.118822655422794e+001
 2.564583889671532e+000	 2.313751775989394e-001	 1.114339887530464e+001
 2.600000000000000e+000	 0.000000000000000e+000	 1.118392369879855e+001
 2.599898066637538e+000	 2.302266479772407e-002	 1.122641409124351e+001
 2.599590791091487e+000	 4.612720316957149e-002	 1.125548540715280e+001
 2.599075978810229e+000	 6.931130045864856e-002	 1.127205172618620e+001
 2.598351461265692e+000	 9.257258631706805e-002	 1.127709694395764e+001
 2.597415097433516e+000	 1.159086348048716e-001	 1.127167560475139e+001
 2.596264775285892e+000	 1.393169645300756e-001	 1.125691363576290e+001
 2.594898413295944e+000	 1.627950388307350e-001	 1.123400897769210e+001
 2.593313961952431e+000	 1.863402659998913e-001	 1.120423210657061e+001
 2.591509405283540e+000	 2.099499995542374e-001	 1.116892644177672e+001
 2.589482762388461e+000	 2.336215385472976e-001	 1.112950863528202e+001
 2.625000000000000e+000	 0.000000000000000e+000	 1.115777718955666e+001
 2.624897086509069e+000	 2.324403657529780e-002	 1.119963573359833e+001
 2.624586856390508e+000	 4.657073397049554e-002	 1.122852528382142e+001
 2.624067093991241e+000	 6.997775527238173e-002	 1.124542184450816e+001
 2.623335609931968e+000	 9.346270734126111e-002	 1.125137332101174e+001
 2.622390242601552e+000	 1.170231409108282e-001	 1.124750034518508e+001
 2.621228859664228e+000	 1.406565507295594e-001	 1.123499699858753e+001
 2.619849359578439e+000	 1.643603757445282e-001	 1.121513142816780e+001
 2.618249673126103e+000	 1.881319993285156e-001	 1.118924634917866e+001
 2.616427764951064e+000	 2.119687495512579e-001	 1.115875943015751e+001
 2.614381635105390e+000	 2.358678994956392e-001	 1.112516355489893e+001
 2.650000000000000e+000	 0.000000000000000e+000	 1.113470998032349e+001
 2.649896106380600e+000	 2.346540835269402e-002	 1.117671862097086e+001
 2.649582921689528e+000	 4.701426477110250e-002	 1.120616334875432e+001
 2.649058209172255e+000	 7.064421008569664e-002	 1.122408159579991e+001
 2.648319758598243e+000	 9.435282836497354e-002	 1.123158482175164e+001
 2.647365387769589e+000	 1.181376470162808e-001	 1.122985933323155e+001
 2.646192944042564e+000	 1.419961369285558e-001	 1.122016699729426e+001
 2.644800305860933e+000	 1.659257126578906e-001	 1.120384584344185e+001
 2.643185384299773e+000	 1.899237326568060e-001	 1.118231054882614e+001
 2.641346124618587e+000	 2.139874995480826e-001	 1.115705280134701e+001
 2.639280507822317e+000	 2.381142604439641e-001	 1.112964153545348e+001
 2.675000000000000e+000	 0.000000000000000e+000	 1.111450302780489e+001
 2.674895126252130e+000	 2.368678012991273e-002	 1.115739592939782e+001
 2.674578986988550e+000	 4.745779557139240e-002	 1.118808488284707e+001
 2.674049324353267e+000	 7.131066489859329e-002	 1.120766827073719e+001
 2.673303907264519e+000	 9.524294938820532e-002	 1.121732067156371e+001
 2.672340532937625e+000	 1.192521531212298e-001	 1.121829367454011e+001
 2.671157028420902e+000	 1.433357231270650e-001	 1.121191658458061e+001
 2.669751252143427e+000	 1.674910495708224e-001	 1.119959701188625e+001
 2.668121095473446e+000	 1.917154659847628e-001	 1.118282134062968e+001
 2.666264484286111e+000	 2.160062495447115e-001	 1.116315507131858e+001
 2.664179380539246e+000	 2.403606213922725e-001	 1.114224303152160e+001
 2.699999999999999e+000	 0.000000000000000e+000	 1.109694540142166e+001
 2.699894146123661e+000	 2.390815190695394e-002	 1.114141036040090e+001
 2.699575052287571e+000	 4.790132637136522e-002	 1.117398609083683e+001
 2.699040439534280e+000	 7.197711971107168e-002	 1.119583146709714e+001
 2.698288055930795e+000	 9.613307041095645e-002	 1.120818377041008e+001
 2.697315678105662e+000	 1.203666592256749e-001	 1.121235950033502e+001
 2.696121112799238e+000	 1.446753093250869e-001	 1.120975507255047e+001
 2.694702198425921e+000	 1.690563864833234e-001	 1.120184739724821e+001
 2.693056806647117e+000	 1.935071993123860e-001	 1.119019433249162e+001
 2.691182843953635e+000	 2.180249995411447e-001	 1.117643500698686e+001
 2.689078253256174e+000	 2.426069823405643e-001	 1.116229000682369e+001
 2.724999999999999e+000	 0.000000000000000e+000	 1.108183391116672e+001
 2.724893165995192e+000	 2.412952368381761e-002	 1.112851370403794e+001
 2.724571117586591e+000	 4.834485717102095e-002	 1.116357360020910e+001
 2.724031554715293e+000	 7.264357452313183e-002	 1.118823252521205e+001
 2.723272204597070e+000	 9.702319143322696e-002	 1.120379006555448e+001
 2.722290823273699e+000	 1.214811653296163e-001	 1.121162727816895e+001
 2.721085197177575e+000	 1.460148955226216e-001	 1.121320738228261e+001
 2.719653144708416e+000	 1.706217233953938e-001	 1.121007632785321e+001
 2.717992517820789e+000	 1.952989326396755e-001	 1.120386323478894e+001
 2.716101203621158e+000	 2.200437495373821e-001	 1.119628069726545e+001
 2.713977125973103e+000	 2.448533432888396e-001	 1.118912494756666e+001
 2.750000000000000e+000	 0.000000000000000e+000	 1.106897275576083e+001
 2.749892185866724e+000	 2.435089546050380e-002	 1.111846642578758e+001
 2.749567182885613e+000	 4.878838797035964e-002	 1.115656398743613e+001
 2.749022669896307e+000	 7.331002933477374e-002	 1.118454399421700e+001
 2.748256353263346e+000	 9.791331245501686e-002	 1.120376795850302e+001
 2.747265968441735e+000	 1.225956714330539e-001	 1.121568116027166e+001
 2.746049281555912e+000	 1.473544817196689e-001	 1.122181333433183e+001
 2.744604090990912e+000	 1.721870603070334e-001	 1.122377923003331e+001
 2.742928228994461e+000	 1.970906659666313e-001	 1.122327903753345e+001
 2.741019563288683e+000	 2.220624995334238e-001	 1.122209867479445e+001
 2.738875998690032e+000	 2.470997042370982e-001	 1.122210992960381e+001
 2.489887271520747e+000	 2.246360947537655e-001	 1.137932732339165e+001
 2.487723162468774e+000	 2.474539691632789e-001	 1.142021791533233e+001
 2.485341806631373e+000	 2.703259220703974e-001	 1.146105263088097e+001
 2.482741409353889e+000	 2.932492015515169e-001	 1.150311681241254e+001
 2.479920215642903e+000	 3.162210049612338e-001	 1.154765010599741e+001
 2.476876511656140e+000	 3.392384794576842e-001	 1.159584438676595e+001
 2.473608626191484e+000	 3.622987225744604e-001	 1.164884176187348e+001
 2.470114932173583e+000	 3.853987828395769e-001	 1.170773265762135e+001
 2.466393848136456e+000	 4.085356604418977e-001	 1.177355399723034e+001
 2.462443839700501e+000	 4.317063079453934e-001	 1.184728747568205e+001
 2.458263421042266e+000	 4.549076310515292e-001	 1.192985793793697e+001
 2.514786144237676e+000	 2.268824557021734e-001	 1.120282269445728e+001
 2.512600394095503e+000	 2.499285088544540e-001	 1.121676686435897e+001
 2.510195224699992e+000	 2.730291812895608e-001	 1.122638239701607e+001
 2.507568823449939e+000	 2.961816935646565e-001	 1.123315781059663e+001
 2.504719417801990e+000	 3.193832150078854e-001	 1.123865101460257e+001
 2.501645276775446e+000	 3.426308642489679e-001	 1.124448902141594e+001
 2.498344712456170e+000	 3.659217097968348e-001	 1.127870885284070e+001
 2.494816081498057e+000	 3.892527706647826e-001	 1.134752712268670e+001
 2.491057786620465e+000	 4.126210170435669e-001	 1.142625215040842e+001
 2.487068278099993e+000	 4.360233710227999e-001	 1.151585451841819e+001
 2.482846055254957e+000	 4.594567073609637e-001	 1.161724381463412e+001
 2.539685016954604e+000	 2.291288166505647e-001	 1.116758003249910e+001
 2.537477625722233e+000	 2.524030485457934e-001	 1.118999160659053e+001
 2.535048642768611e+000	 2.757324405090310e-001	 1.120879386324823e+001
 2.532396237545989e+000	 2.991141855782061e-001	 1.122550392103196e+001
 2.529518619961077e+000	 3.225454250550114e-001	 1.124170945378439e+001
 2.526414041894753e+000	 3.460232490407508e-001	 1.125906839058412e+001
 2.523080798720856e+000	 3.695446970196928e-001	 1.127930847764381e+001
 2.519517230822531e+000	 3.931067584904164e-001	 1.130422669847795e+001
 2.515721725104473e+000	 4.167063736455674e-001	 1.133568854889414e+001
 2.511692716499485e+000	 4.403404341004001e-001	 1.137562716361370e+001
 2.507428689467647e+000	 4.640057836704130e-001	 1.142604229159423e+001
 2.564583889671532e+000	 2.313751775989394e-001	 1.114339887530464e+001
 2.562354857348963e+000	 2.548775882372970e-001	 1.117290018080565e+001
 2.559902060837231e+000	 2.784356997288078e-001	 1.119946828279781e+001
 2.557223651642040e+000	 3.020466775921658e-001	 1.122464957483920e+001
 2.554317822120163e+000	 3.257076351026120e-001	 1.125006222903386e+001
 2.551182807014058e+000	 3.494156338330328e-001	 1.127739588475776e+001
 2.547816884985543e+000	 3.731676842430345e-001	 1.130841119621409e+001
 2.544218380147005e+000	 3.969607463164779e-001	 1.134493923506268e+001
 2.540385663588481e+000	 4.207917302478994e-001	 1.138888074460181e+001
 2.536317154898976e+000	 4.446574971781940e-001	 1.144220524223920e+001
 2.532011323680339e+000	 4.685548599798769e-001	 1.150694996726287e+001
 2.589482762388461e+000	 2.336215385472976e-001	 1.112950863528202e+001
 2.587232088975693e+000	 2.573521279289648e-001	 1.116472313788448e+001
 2.584755478905850e+000	 2.811389589488911e-001	 1.119763737189776e+001
 2.582051065738090e+000	 3.049791696065358e-001	 1.122982768551106e+001
 2.579117024279250e+000	 3.288698451506871e-001	 1.126294348834092e+001
 2.575951572133364e+000	 3.528080186258139e-001	 1.129870692929497e+001
 2.572552971250230e+000	 3.767906714668600e-001	 1.133891243006260e+001
 2.568919529471479e+000	 4.008147341429675e-001	 1.138542607039277e+001
 2.565049602072488e+000	 4.248770868505627e-001	 1.144018482155968e+001
 2.560941593298468e+000	 4.489745602561819e-001	 1.150519562468066e+001
 2.556593957893029e+000	 4.731039362893555e-001	 1.158253431083269e+001
 2.614381635105390e+000	 2.358678994956392e-001	 1.112516355489893e+001
 2.612109320602422e+000	 2.598266676207970e-001	 1.116471526052188e+001
 2.609608896974470e+000	 2.838422181692812e-001	 1.120255646143884e+001
 2.606878479834139e+000	 3.079116616213161e-001	 1.124029414518942e+001
 2.603916226438337e+000	 3.320320551992365e-001	 1.127960970355536e+001
 2.600720337252670e+000	 3.562004034190940e-001	 1.132225859992730e+001
 2.597289057514916e+000	 3.804136586911692e-001	 1.137006988900808e+001
 2.593620678795953e+000	 4.046687219698851e-001	 1.142494558492441e+001
 2.589713540556496e+000	 4.289624434535576e-001	 1.148885987406758e+001
 2.585566031697960e+000	 4.532916233343634e-001	 1.156385816925243e+001
 2.581176592105721e+000	 4.776530125988487e-001	 1.165205600207305e+001
 2.639280507822317e+000	 2.381142604439641e-001	 1.112964153545348e+001
 2.636986552229153e+000	 2.623012073127934e-001	 1.117215442021758e+001
 2.634462315043090e+000	 2.865454773899779e-001	 1.121350338307092e+001
 2.631705893930190e+000	 3.108441536365064e-001	 1.125532674076673e+001
 2.628715428597424e+000	 3.351942652482604e-001	 1.129933861737452e+001
 2.625489102371976e+000	 3.595927882128733e-001	 1.134732860151579e+001
 2.622025143779603e+000	 3.840366459159622e-001	 1.140116125255620e+001
 2.618321828120427e+000	 4.085227097972307e-001	 1.146277545173583e+001
 2.614377479040503e+000	 4.330478000568838e-001	 1.153418359447415e+001
 2.610190470097453e+000	 4.576086864127387e-001	 1.161747062036125e+001
 2.605759226318411e+000	 4.822020889083566e-001	 1.171479287764359e+001
 2.664179380539246e+000	 2.403606213922725e-001	 1.114224303152160e+001
 2.661863783855882e+000	 2.647757470049541e-001	 1.118634049835974e+001
 2.659315733111709e+000	 2.892487366109813e-001	 1.122977741776546e+001
 2.656533308026239e+000	 3.137766456521069e-001	 1.127422413076672e+001
 2.653514630756510e+000	 3.383564752977588e-001	 1.132142824937846e+001
 2.650257867491282e+000	 3.629851730071516e-001	 1.137321430407289e+001
 2.646761230044289e+000	 3.876596331412388e-001	 1.143148323673658e+001
 2.643022977444901e+000	 4.123766976250041e-001	 1.149821173500305e+001
 2.639041417524512e+000	 4.371331566605415e-001	 1.157545140410916e+001
 2.634814908496945e+000	 4.619257494913079e-001	 1.166532777270768e+001
 2.630341860531103e+000	 4.867511652178794e-001	 1.177003912937050e+001
 2.689078253256174e+000	 2.426069823405643e-001	 1.116229000682369e+001
 2.686741015482612e+000	 2.672502866972791e-001	 1.120659436724898e+001
 2.684169151180328e+000	 2.919519958322913e-001	 1.125069830279148e+001
 2.681360722122289e+000	 3.167091376681177e-001	 1.129630487906539e+001
 2.678313832915597e+000	 3.415186853477316e-001	 1.134519595728555e+001
 2.675026632610588e+000	 3.663775578019290e-001	 1.139923183233885e+001
 2.671497316308975e+000	 3.912826203669991e-001	 1.146035071278234e+001
 2.667724126769374e+000	 4.162306854532055e-001	 1.153056803856004e+001
 2.663705356008520e+000	 4.412185132645305e-001	 1.161197563249722e+001
 2.659439346896436e+000	 4.662428125700707e-001	 1.170674068192047e+001
 2.654924494743793e+000	 4.913002415274165e-001	 1.181710454706267e+001
 2.713977125973103e+000	 2.448533432888396e-001	 1.118912494756666e+001
 2.711618247109342e+000	 2.697248263897683e-001	 1.123225692721238e+001
 2.709022569248949e+000	 2.946552550539079e-001	 1.127560529335347e+001
 2.706188136218340e+000	 3.196416296845386e-001	 1.132090654180135e+001
 2.703113035074684e+000	 3.446808953981789e-001	 1.136997754988165e+001
 2.699795397729894e+000	 3.697699425972057e-001	 1.142471520547306e+001
 2.696233402573662e+000	 3.949056075932432e-001	 1.148709587432238e+001
 2.692425276093848e+000	 4.200846732818348e-001	 1.155917470132727e+001
 2.688369294492528e+000	 4.453038698688511e-001	 1.164308474175266e+001
 2.684063785295928e+000	 4.705598756490275e-001	 1.174103591864253e+001
 2.679507128956485e+000	 4.958493178369686e-001	 1.185531380300806e+001
 2.738875998690032e+000	 2.470997042370982e-001	 1.122210992960381e+001
 2.736495478736073e+000	 2.721993660824219e-001	 1.126268819623877e+001
 2.733875987317568e+000	 2.973585142758314e-001	 1.130385627541217e+001
 2.731015550314390e+000	 3.225741217013698e-001	 1.134738480409111e+001
 2.727912237233771e+000	 3.478431054491007e-001	 1.139512644833532e+001
 2.724564162849201e+000	 3.731623273929815e-001	 1.144901552367132e+001
 2.720969488838349e+000	 3.985285948199711e-001	 1.151106744999991e+001
 2.717126425418324e+000	 4.239386611108923e-001	 1.158337803662597e+001
 2.713033232976536e+000	 4.493892264735031e-001	 1.166812259327980e+001
 2.708688223695421e+000	 4.748769387281779e-001	 1.176755486330290e+001
 2.704089763169176e+000	 5.003983941465353e-001	 1.188400577549715e+001
 2.458263421042266e+000	 4.549076310515292e-001	 1.192985793793697e+001
 2.453851156354649e+000	 4.781364894097321e-001	 1.186666576330878e+001
 2.449205661297807e+000	 5.013896974771258e-001	 1.180666669992446e+001
 2.444325604437782e+000	 5.246640254268113e-001	 1.174988338400542e+001
 2.439209708669709e+000	 5.479562001042994e-001	 1.169627053370688e+001
 2.433856752625838e+000	 5.712629060330331e-001	 1.164571455654075e+001
 2.428265572065930e+000	 5.945807864685845e-001	 1.159803331432039e+001
 2.422435061248221e+000	 6.179064445013770e-001	 1.155297604996776e+001
 2.416364174279133e+000	 6.412364442077183e-001	 1.172281804864701e+001
 2.410051926439911e+000	 6.645673118488592e-001	 1.196650461654169e+001
 2.403497395488342e+000	 6.878955371177123e-001	 1.218787012990794e+001
 2.482846055254957e+000	 4.594567073609637e-001	 1.161724381463412e+001
 2.478389667920199e+000	 4.829178543038031e-001	 1.155021533912006e+001
 2.473697717912495e+000	 5.064035944528337e-001	 1.148943003060158e+001
 2.468768860483547e+000	 5.299106656828868e-001	 1.143486204016000e+001
 2.463601805757441e+000	 5.534357621079268e-001	 1.138641281594508e+001
 2.458195320152747e+000	 5.769755350966310e-001	 1.134391070480102e+001
 2.452548227786828e+000	 6.005265943371260e-001	 1.130711071961052e+001
 2.446659411860499e+000	 6.240855089507388e-001	 1.127569447688967e+001
 2.440527816021247e+000	 6.476488086545389e-001	 1.155248665043369e+001
 2.434152445703129e+000	 6.712129849723890e-001	 1.181980287565161e+001
 2.427532369441510e+000	 6.947744924941302e-001	 1.206541392626821e+001
 2.507428689467647e+000	 4.640057836704130e-001	 1.142604229159423e+001
 2.502928179485754e+000	 4.876992191976984e-001	 1.128169469841836e+001
 2.498189774527202e+000	 5.114174914281946e-001	 1.117301959850411e+001
 2.493212116529355e+000	 5.351573059384635e-001	 1.111982194532106e+001
 2.487993902845249e+000	 5.589153241109238e-001	 1.107572380389914e+001
 2.482533887679780e+000	 5.826881641594864e-001	 1.104049479611298e+001
 2.476830883507901e+000	 6.064724022048327e-001	 1.101382635278834e+001
 2.470883762473018e+000	 6.302645733991934e-001	 1.107049759710858e+001
 2.464691457763676e+000	 6.540611731004009e-001	 1.138138008548114e+001
 2.458252964966746e+000	 6.778586580949291e-001	 1.167062237470916e+001
 2.451567343395171e+000	 7.016534478695476e-001	 1.193874370182150e+001
 2.532011323680339e+000	 4.685548599798769e-001	 1.150694996726287e+001
 2.527466691051314e+000	 4.924805840914179e-001	 1.135101394564855e+001
 2.522681831141929e+000	 5.164313884032088e-001	 1.120386439500097e+001
 2.517655372575207e+000	 5.404039461935419e-001	 1.106694980377290e+001
 2.512385999933136e+000	 5.643948861132903e-001	 1.094177337131533e+001
 2.506872455206933e+000	 5.884007932215989e-001	 1.082989181013416e+001
 2.501113539229152e+000	 6.124182100717046e-001	 1.073291400493387e+001
 2.495108113085776e+000	 6.364436378467416e-001	 1.087881484878113e+001
 2.488855099506419e+000	 6.604735375453044e-001	 1.120938408922987e+001
 2.482353484230762e+000	 6.845043312164795e-001	 1.151889306763835e+001
 2.475602317349326e+000	 7.085324032439653e-001	 1.180783399788451e+001
 2.556593957893029e+000	 4.731039362893555e-001	 1.158253431083269e+001
 2.552005202616878e+000	 4.972619489849618e-001	 1.141261038654782e+001
 2.547173887756675e+000	 5.214452853778763e-001	 1.125258571990318e+001
 2.542098628621103e+000	 5.456505864481217e-001	 1.110393080838016e+001
 2.536778097021101e+000	 5.698744481150262e-001	 1.096817140448269e+001
 2.531211022734208e+000	 5.941134222829687e-001	 1.084688728489060e+001
 2.525396194950578e+000	 6.183640179377414e-001	 1.074171087356010e+001
 2.519332463698774e+000	 6.426227022933823e-001	 1.091642970128380e+001
 2.513018741249476e+000	 6.668859019892494e-001	 1.118031353901337e+001
 2.506454003495175e+000	 6.911500043370404e-001	 1.143094979647861e+001
 2.499637291303976e+000	 7.154113586173830e-001	 1.167266146071153e+001
 2.581176592105721e+000	 4.776530125988487e-001	 1.165205600207305e+001
 2.576543714182448e+000	 5.020433138783298e-001	 1.146576355710822e+001
 2.571665944371440e+000	 5.264591823521967e-001	 1.129044368721484e+001
 2.566541884667042e+000	 5.508972267022031e-001	 1.112759039585928e+001
 2.561170194109142e+000	 5.753540101161317e-001	 1.097875355100648e+001
 2.555549590261605e+000	 5.998260513435957e-001	 1.084553762045510e+001
 2.549678850672180e+000	 6.243098258029435e-001	 1.072960025815902e+001
 2.543556814312013e+000	 6.488017667391167e-001	 1.099616700586045e+001
 2.537182382992848e+000	 6.732982664322358e-001	 1.126033804350056e+001
 2.530554522759990e+000	 6.977956774566119e-001	 1.151186027720006e+001
 2.523672265259118e+000	 7.222903139898007e-001	 1.175154391236437e+001
 2.605759226318411e+000	 4.822020889083566e-001	 1.171479287764359e+001
 2.601082225748022e+000	 5.068246787715222e-001	 1.150976872580904e+001
 2.596158000986225e+000	 5.314730793261705e-001	 1.131675121922213e+001
 2.590985140713025e+000	 5.561438669557857e-001	 1.113725936674292e+001
 2.585562291197262e+000	 5.808335721166065e-001	 1.097286871668209e+001
 2.579888157789124e+000	 6.055386804034800e-001	 1.082521005759753e+001
 2.573961506393957e+000	 6.302556336673105e-001	 1.078237582190077e+001
 2.567781164925491e+000	 6.549808311839438e-001	 1.105916680634519e+001
 2.561346024736533e+000	 6.797106308742636e-001	 1.132316235079796e+001
 2.554655042025202e+000	 7.044413505751934e-001	 1.157506598890696e+001
 2.547707239214755e+000	 7.291692693612185e-001	 1.181563046750120e+001
 2.630341860531103e+000	 4.867511652178794e-001	 1.177003912937050e+001
 2.625620737313602e+000	 5.116060436645390e-001	 1.154393615845395e+001
 2.620650057601029e+000	 5.364869762997971e-001	 1.133083485534197e+001
 2.615428396759051e+000	 5.613905072088699e-001	 1.113228073653453e+001
 2.609954388285460e+000	 5.863131341164509e-001	 1.094987659855213e+001
 2.604226725316765e+000	 6.112513094626221e-001	 1.078528118346849e+001
 2.598244162115911e+000	 6.362014415308429e-001	 1.083068252411104e+001
 2.592005515539210e+000	 6.611598956278643e-001	 1.110633707271347e+001
 2.585509666480534e+000	 6.861229953153332e-001	 1.136976964234368e+001
 2.578755561290814e+000	 7.110870236927857e-001	 1.162162530879468e+001
 2.571742213170885e+000	 7.360482247316361e-001	 1.186259823216589e+001
 2.654924494743793e+000	 4.913002415274165e-001	 1.181710454706267e+001
 2.650159248879185e+000	 5.163874085573799e-001	 1.156759042385035e+001
 2.645142114215853e+000	 5.415008732730773e-001	 1.133203412169946e+001
 2.639871652805121e+000	 5.666371474614557e-001	 1.111200917020054e+001
 2.634346485373736e+000	 5.917926961156647e-001	 1.090914718531159e+001
 2.628565292844528e+000	 6.169639385210207e-001	 1.072513649889643e+001
 2.622526817838040e+000	 6.421472493935402e-001	 1.086434674224594e+001
 2.616229866153168e+000	 6.673389600708776e-001	 1.113859187386767e+001
 2.609673308224848e+000	 6.925353597554441e-001	 1.140114776261444e+001
 2.602856080556824e+000	 7.177326968093881e-001	 1.165259982282023e+001
 2.595777187127509e+000	 7.429271801010537e-001	 1.189358245823931e+001
 2.679507128956485e+000	 4.958493178369686e-001	 1.185531380300806e+001
 2.674697760444774e+000	 5.211687734500451e-001	 1.158006973770830e+001
 2.669634170830695e+000	 5.465147702460103e-001	 1.131970093540716e+001
 2.664314908851235e+000	 5.718837877135429e-001	 1.107581044779121e+001
 2.658738582462088e+000	 5.972722581142480e-001	 1.085006028521370e+001
 2.652903860372413e+000	 6.226765675786770e-001	 1.064417000950332e+001
 2.646809473560346e+000	 6.480930572554026e-001	 1.088421594793020e+001
 2.640454216767366e+000	 6.735180245129845e-001	 1.115685109786967e+001
 2.633836949969477e+000	 6.989477241945965e-001	 1.141828900522467e+001
 2.626956599823234e+000	 7.243783699250009e-001	 1.166905417851130e+001
 2.619812161084627e+000	 7.498061354694716e-001	 1.190972005452435e+001
 2.704089763169176e+000	 5.003983941465353e-001	 1.188400577549715e+001
 2.699236272010369e+000	 5.259501383425348e-001	 1.158072534232662e+001
 2.694126227445558e+000	 5.515286672185968e-001	 1.129319904133849e+001
 2.688758164897393e+000	 5.771304279651318e-001	 1.102306095920965e+001
 2.683130679550521e+000	 6.027518201122009e-001	 1.077200507972640e+001
 2.677242427900420e+000	 6.283891966355909e-001	 1.060908666119680e+001
 2.671092129282827e+000	 6.540388651164305e-001	 1.089114445801400e+001
 2.664678567381807e+000	 6.796970889541842e-001	 1.116204018743367e+001
 2.658000591714422e+000	 7.053600886327908e-001	 1.142218991069299e+001
 2.651057119090043e+000	 7.310240430396247e-001	 1.167205594580397e+001
 2.643847135042239e+000	 7.566850908368894e-001	 1.191214951143122e+001
 2.403497395488342e+000	 6.878955371177123e-001	 1.218787012990794e+001
 2.396699722934155e+000	 7.112175744331118e-001	 1.211464989501281e+001
 2.389658115285039e+000	 7.345298442800079e-001	 1.205142412495294e+001
 2.382371845262166e+000	 7.578287345960115e-001	 1.199868455295369e+001
 2.374840252984291e+000	 7.811106022040242e-001	 1.195693639318828e+001
 2.367062747117390e+000	 8.043717742891897e-001	 1.192669792537444e+001
 2.359038805988395e+000	 8.276085499197395e-001	 1.190850003553516e+001
 2.350767978661280e+000	 8.508172016108215e-001	 1.190288571264537e+001
 2.342249885973674e+000	 8.739939769303398e-001	 1.191040950100579e+001
 2.333484221532295e+000	 8.971351001457415e-001	 1.193163690830787e+001
 2.324470752665467e+000	 9.202367739106158e-001	 1.196714376948196e+001
 2.427532369441510e+000	 6.947744924941302e-001	 1.206541392626821e+001
 2.420666720161247e+000	 7.183297501827995e-001	 1.200176662468279e+001
 2.413554696435142e+000	 7.418751427282125e-001	 1.194717999739826e+001
 2.406195563711574e+000	 7.654070219473556e-001	 1.190218292321579e+001
 2.398588655510490e+000	 7.889217082313585e-001	 1.186731956351434e+001
 2.390733374584523e+000	 8.124154920372166e-001	 1.184314893158208e+001
 2.382629194043878e+000	 8.358846354238423e-001	 1.183024441496014e+001
 2.374275658443167e+000	 8.593253736315351e-001	 1.182919325048373e+001
 2.365672384828394e+000	 8.827339167038775e-001	 1.184059595183129e+001
 2.356819063742346e+000	 9.061064511509911e-001	 1.186506568952230e+001
 2.347715460186632e+000	 9.294391416530003e-001	 1.190322762343946e+001
 2.451567343395171e+000	 7.016534478695476e-001	 1.193874370182150e+001
 2.444633717388931e+000	 7.254419259314924e-001	 1.188559283606159e+001
 2.437451277585918e+000	 7.492204411754367e-001	 1.184057428320806e+001
 2.430019282161732e+000	 7.729853092977435e-001	 1.180425393545119e+001
 2.422337058037504e+000	 7.967328142577710e-001	 1.177721477578978e+001
 2.414404002052529e+000	 8.204592097843656e-001	 1.176005643221499e+001
 2.406219582100278e+000	 8.441607209271217e-001	 1.175339468173543e+001
 2.397783338226005e+000	 8.678335456514896e-001	 1.175786090389039e+001
 2.389094883684092e+000	 8.914738564767305e-001	 1.177410148353097e+001
 2.380153905953393e+000	 9.150778021556406e-001	 1.180277716278590e+001
 2.370960167708796e+000	 9.386415093948796e-001	 1.184456234227105e+001
 2.475602317349326e+000	 7.085324032439653e-001	 1.180783399788451e+001
 2.468600714617200e+000	 7.325541016791896e-001	 1.176606967125935e+001
 2.461347858737369e+000	 7.565657396216802e-001	 1.173151402766079e+001
 2.453843000612641e+000	 7.805635966471753e-001	 1.170476985258223e+001
 2.446085460565335e+000	 8.045439202832617e-001	 1.168645883781938e+001
 2.438074629521406e+000	 8.285029275306370e-001	 1.167722112062248e+001
 2.429809970157597e+000	 8.524368064295774e-001	 1.167771476949752e+001
 2.421291018009799e+000	 8.763417176706848e-001	 1.168861521626515e+001
 2.412517382540770e+000	 9.002137962488993e-001	 1.171061463412546e+001
 2.403488748165433e+000	 9.240491531596902e-001	 1.174442126162092e+001
 2.394204875231962e+000	 9.478438771362537e-001	 1.179075867253923e+001
 2.499637291303976e+000	 7.154113586173830e-001	 1.167266146071153e+001
 2.492567711846060e+000	 7.396662774258920e-001	 1.164314158489771e+001
 2.485244439889495e+000	 7.639110380669433e-001	 1.161991081555548e+001
 2.477666719064299e+000	 7.881418839956509e-001	 1.160360872310212e+001
 2.469833863093982e+000	 8.123550263078306e-001	 1.159489560766088e+001
 2.461745256991155e+000	 8.365466452760307e-001	 1.159445202329504e+001
 2.453400358215832e+000	 8.607128919312103e-001	 1.160297824567715e+001
 2.444798697794545e+000	 8.848498896891213e-001	 1.162119368276333e+001
 2.435939881398428e+000	 9.089537360203831e-001	 1.164983622818835e+001
 2.426823590378469e+000	 9.330205041631400e-001	 1.168966155724886e+001
 2.417449582756126e+000	 9.570462448771225e-001	 1.174144236549898e+001
 2.523672265259118e+000	 7.222903139898007e-001	 1.175154391236437e+001
 2.516534709075509e+000	 7.467784531715990e-001	 1.165719733550223e+001
 2.509141021042295e+000	 7.712563365112256e-001	 1.157671108137905e+001
 2.501490437516708e+000	 7.957201713431702e-001	 1.151116633756509e+001
 2.493582265623444e+000	 8.201661323314773e-001	 1.150237565789865e+001
 2.485415884461776e+000	 8.445903630205468e-001	 1.151156610304797e+001
 2.476990746274987e+000	 8.689889774320192e-001	 1.152896785274713e+001
 2.468306377580246e+000	 8.933580617067987e-001	 1.155534422878361e+001
 2.459362380257065e+000	 9.176936757911827e-001	 1.159147879177222e+001
 2.450158432592499e+000	 9.419918551659895e-001	 1.163817460917629e+001
 2.440694290281292e+000	 9.662486126174865e-001	 1.169625346258852e+001
 2.547707239214755e+000	 7.291692693612185e-001	 1.181563046750120e+001
 2.540501706305546e+000	 7.538906289163111e-001	 1.172004149334634e+001
 2.533037602195769e+000	 7.786016349545277e-001	 1.163737362439934e+001
 2.525314155969867e+000	 8.032984586897336e-001	 1.156871300682721e+001
 2.517330668153723e+000	 8.279772383542027e-001	 1.151518605236085e+001
 2.509086511933270e+000	 8.526340807641855e-001	 1.147796097170220e+001
 2.500581134335059e+000	 8.772650629320051e-001	 1.145824925577954e+001
 2.491814057366899e+000	 9.018662337237170e-001	 1.149082471797537e+001
 2.482784879116681e+000	 9.264336155612974e-001	 1.153526600045211e+001
 2.473493274807526e+000	 9.509632061682394e-001	 1.158964935253986e+001
 2.463938997807456e+000	 9.754509803573452e-001	 1.165484562136417e+001
 2.571742213170885e+000	 7.360482247316361e-001	 1.186259823216589e+001
 2.564468703536172e+000	 7.610028046600280e-001	 1.176757708902574e+001
 2.556934183349918e+000	 7.859469333968490e-001	 1.168452347821802e+001
 2.549137874423776e+000	 8.108767460353409e-001	 1.161452669164440e+001
 2.541079070684818e+000	 8.357883443760058e-001	 1.155871858869290e+001
 2.532757139405634e+000	 8.606777985069464e-001	 1.151827522181119e+001
 2.524171522396048e+000	 8.855411484311676e-001	 1.149441840772245e+001
 2.515321737154507e+000	 9.103744057398762e-001	 1.148841723665509e+001
 2.506207377977277e+000	 9.351735553307274e-001	 1.150158951189029e+001
 2.496828117023545e+000	 9.599345571698887e-001	 1.154378651980592e+001
 2.487183705334621e+000	 9.846533480966988e-001	 1.161688547923309e+001
 2.595777187127509e+000	 7.429271801010537e-001	 1.189358245823931e+001
 2.588435700767387e+000	 7.681149804027497e-001	 1.180094829142828e+001
 2.580830764504741e+000	 7.932922318381895e-001	 1.171931271383036e+001
 2.572961592878435e+000	 8.184550333799915e-001	 1.164976633059553e+001
 2.564827473216728e+000	 8.435994503968870e-001	 1.159344463542024e+001
 2.556427766878871e+000	 8.687215162488297e-001	 1.155152973147696e+001
 2.547761910457955e+000	 8.938172339295065e-001	 1.152525199579307e+001
 2.538829416943069e+000	 9.188825777552762e-001	 1.151589167914005e+001
 2.529629876838851e+000	 9.439134950994730e-001	 1.152478043342588e+001
 2.520162959240561e+000	 9.689059081709385e-001	 1.155330275854050e+001
 2.510428412862785e+000	 9.938557158355472e-001	 1.160289736059328e+001
 2.619812161084627e+000	 7.498061354694716e-001	 1.190972005452435e+001
 2.612402697999191e+000	 7.752271561444764e-001	 1.182130187691756e+001
 2.604727345660238e+000	 8.006375302785499e-001	 1.174289697555953e+001
 2.596785311333844e+000	 8.260333207236867e-001	 1.167559541642827e+001
 2.588575875749454e+000	 8.514105564168467e-001	 1.162053449491077e+001
 2.580098394352981e+000	 8.767652339898353e-001	 1.157890055531815e+001
 2.571352298520781e+000	 9.020933194270221e-001	 1.155193075166761e+001
 2.562337096732584e+000	 9.273907497699172e-001	 1.154091474147602e+001
 2.553052375701406e+000	 9.526534348675338e-001	 1.154719630423800e+001
 2.543497801458571e+000	 9.778772591713880e-001	 1.157217487621864e+001
 2.533673120391951e+000	 1.003058083573891e+000	 1.161730699317702e+001
 2.643847135042239e+000	 7.566850908368894e-001	 1.191214951143122e+001
 2.636369695231585e+000	 7.823393318852079e-001	 1.182978711081122e+001
 2.628623926816410e+000	 8.079828287179298e-001	 1.175643531863262e+001
 2.620609029790003e+000	 8.336116080664255e-001	 1.169318178905132e+001
 2.612324278282998e+000	 8.592216624358847e-001	 1.164116376695011e+001
 2.603769021827961e+000	 8.848089517299635e-001	 1.160157000930737e+001
 2.594942686584525e+000	 9.103694049237149e-001	 1.157564264566087e+001
 2.585844776523053e+000	 9.358989217837994e-001	 1.156467896908817e+001
 2.576474874564940e+000	 9.613933746349104e-001	 1.157003314904958e+001
 2.566832643677576e+000	 9.868486101712379e-001	 1.159311785739543e+001
 2.556917827922116e+000	 1.012260451311729e+000	 1.163540579882498e+001
 2.324470752665467e+000	 9.202367739106158e-001	 1.196714376948196e+001
 2.315209321330897e+000	 9.432951809896923e-001	 1.192040330444156e+001
 2.305699844977406e+000	 9.663064860216960e-001	 1.188388354700780e+001
 2.295942317358884e+000	 9.892668373179072e-001	 1.185816649459200e+001
 2.285936809298535e+000	 1.012172368694827e+000	 1.184384603783104e+001
 2.275683469402266e+000	 1.035019201340097e+000	 1.184152719303915e+001
 2.265182524719623e+000	 1.057803445709805e+000	 1.185182528912731e+001
 2.254434281350881e+000	 1.080521203455544e+000	 1.187536510984369e+001
 2.243439124998900e+000	 1.103168569379458e+000	 1.191277999233970e+001
 2.232197521464457e+000	 1.125741633415527e+000	 1.196471088321637e+001
 2.220710017083810e+000	 1.148236482635196e+000	 1.203180535335730e+001
 2.347715460186632e+000	 9.294391416530003e-001	 1.190322762343946e+001
 2.338361414538539e+000	 9.527281328023738e-001	 1.185817560406552e+001
 2.328756843421378e+000	 9.759695508843156e-001	 1.182376526855726e+001
 2.318901740526581e+000	 9.991595056932203e-001	 1.180060307187245e+001
 2.308796177385584e+000	 1.022294092383755e+000	 1.178930771365037e+001
 2.298440304090351e+000	 1.045369393355437e+000	 1.179050934007423e+001
 2.287834349960926e+000	 1.068381480168918e+000	 1.180484869872998e+001
 2.276978624158587e+000	 1.091326415492304e+000	 1.183297624735143e+001
 2.265873516243221e+000	 1.114200255075764e+000	 1.187555121749775e+001
 2.254519496673615e+000	 1.136999049752618e+000	 1.193324063436446e+001
 2.242917117249388e+000	 1.159718847465025e+000	 1.200671829408566e+001
 2.370960167708796e+000	 9.386415093948796e-001	 1.184456234227105e+001
 2.361513507747179e+000	 9.621610846146400e-001	 1.180105048902869e+001
 2.351813841866350e+000	 9.856326157465911e-001	 1.176858547197485e+001
 2.341861163695277e+000	 1.009052174068240e+000	 1.174779853698970e+001
 2.331655545473632e+000	 1.032415816072421e+000	 1.173933354882276e+001
 2.321197138779436e+000	 1.055719585370526e+000	 1.174384616208854e+001
 2.310486175203229e+000	 1.078959514627770e+000	 1.176200294374288e+001
 2.299522966967292e+000	 1.102131627528776e+000	 1.179448044796673e+001
 2.288307907488542e+000	 1.125231940771733e+000	 1.184196424454487e+001
 2.276841471883772e+000	 1.148256466089302e+000	 1.190514790198769e+001
 2.265124217415967e+000	 1.171201212294357e+000	 1.198473192680474e+001
 2.394204875231962e+000	 9.478438771362537e-001	 1.179075867253923e+001
 2.384665600956820e+000	 9.715940364264912e-001	 1.174863160240176e+001
 2.374870840312321e+000	 9.952956806085224e-001	 1.171794073902421e+001
 2.364820586864975e+000	 1.018944842442968e+000	 1.169934245953958e+001
 2.354514913562681e+000	 1.042537539760825e+000	 1.169350615700352e+001
 2.343953973469522e+000	 1.066069777385366e+000	 1.170111338023862e+001
 2.333138000446533e+000	 1.089537549086364e+000	 1.172285692359927e+001
 2.322067309776998e+000	 1.112936839564960e+000	 1.175943986762049e+001
 2.310742298734863e+000	 1.136263626467365e+000	 1.181157457167979e+001
 2.299163447094930e+000	 1.159513882425580e+000	 1.187998161996712e+001
 2.287331317583545e+000	 1.182683577123193e+000	 1.196538872222387e+001
 2.417449582756126e+000	 9.570462448771225e-001	 1.174144236549898e+001
 2.407817694167462e+000	 9.810269882379279e-001	 1.170053771855405e+001
 2.397927838759294e+000	 1.004958745470109e+000	 1.167144290150109e+001
 2.387780010035672e+000	 1.028837510817401e+000	 1.165483976991002e+001
 2.377374281652728e+000	 1.052659263448967e+000	 1.165142361532951e+001
 2.366710808160606e+000	 1.076419969399954e+000	 1.166190227368872e+001
 2.355789825690836e+000	 1.100115583544699e+000	 1.168699518201462e+001
 2.344611652587703e+000	 1.123742051600856e+000	 1.172743238446464e+001
 2.333176689982184e+000	 1.147295312162661e+000	 1.178395348884558e+001
 2.321485422307088e+000	 1.170771298761451e+000	 1.185730657496126e+001
 2.309538417752123e+000	 1.194165941951533e+000	 1.194824705630205e+001
 2.440694290281292e+000	 9.662486126174865e-001	 1.169625346258852e+001
 2.430969787379103e+000	 9.904599400489497e-001	 1.165640202261550e+001
 2.420984837207266e+000	 1.014621810331353e+000	 1.162871831504132e+001
 2.410739433207368e+000	 1.038730179191542e+000	 1.161391002781459e+001
 2.400233649743777e+000	 1.062780987136847e+000	 1.161269872806266e+001
 2.389467642852692e+000	 1.086770161414292e+000	 1.162581893875326e+001
 2.378441650936139e+000	 1.110693618002774e+000	 1.165401716202092e+001
 2.367155995399409e+000	 1.134547263636464e+000	 1.169805085019497e+001
 2.355611081230504e+000	 1.158326997857619e+000	 1.175868732574189e+001
 2.343807397520245e+000	 1.182028715096917e+000	 1.183670265151179e+001
 2.331745517921702e+000	 1.205648306779377e+000	 1.193288045285509e+001
 2.463938997807456e+000	 9.754509803573452e-001	 1.165484562136417e+001
 2.454121880591744e+000	 9.998928918595564e-001	 1.161587143072380e+001
 2.444041835656238e+000	 1.024284875192251e+000	 1.158940717403413e+001
 2.433698856380065e+000	 1.048622847565389e+000	 1.157618673223015e+001
 2.423093017835825e+000	 1.072902710824466e+000	 1.157695833191453e+001
 2.412224477545776e+000	 1.097120353428380e+000	 1.159248358997473e+001
 2.401093476182441e+000	 1.121271652460590e+000	 1.162353650316860e+001
 2.389700338212113e+000	 1.145352475671785e+000	 1.167090238375184e+001
 2.378045472479827e+000	 1.169358683552240e+000	 1.173537674240244e+001
 2.366129372734403e+000	 1.193286131431976e+000	 1.181776411987927e+001
 2.353952618092280e+000	 1.217130671606725e+000	 1.191887686903412e+001
 2.487183705334621e+000	 9.846533480966988e-001	 1.161688547923309e+001
 2.477273973805385e+000	 1.009325843669748e+000	 1.157860594838850e+001
 2.467098834106210e+000	 1.033947940052806e+000	 1.155316286495128e+001
 2.456658279553762e+000	 1.058515515938944e+000	 1.154131667002926e+001
 2.445952385928873e+000	 1.083024434511822e+000	 1.154384264032414e+001
 2.434981312239862e+000	 1.107470545442217e+000	 1.156152990039333e+001
 2.423745301429745e+000	 1.131849686918147e+000	 1.159518037813787e+001
 2.412244681025819e+000	 1.156157687706817e+000	 1.164560770462655e+001
 2.400479863730147e+000	 1.180390369246524e+000	 1.171363605955329e+001
 2.388451347949561e+000	 1.204543547766628e+000	 1.180009896381332e+001
 2.376159718263858e+000	 1.228613036433577e+000	 1.190583802087060e+001
 2.510428412862785e+000	 9.938557158355472e-001	 1.160289736059328e+001
 2.500426067020026e+000	 1.018758795479525e+000	 1.154486102568110e+001
 2.490155832557182e+000	 1.043611004913016e+000	 1.151965135560262e+001
 2.479617702728460e+000	 1.068408184312206e+000	 1.150895930079994e+001
 2.468811754022921e+000	 1.093146158198917e+000	 1.151300462416520e+001
 2.457738146934947e+000	 1.117820737455804e+000	 1.153260437846842e+001
 2.446397126678048e+000	 1.142427721375446e+000	 1.156858886620499e+001
 2.434789023840525e+000	 1.166962899741562e+000	 1.162180050320618e+001
 2.422914254981468e+000	 1.191422054940472e+000	 1.169309262617327e+001
 2.410773323165719e+000	 1.215800964100875e+000	 1.178332824566877e+001
 2.398366818436436e+000	 1.240095401259933e+000	 1.189337874629108e+001
 2.533673120391951e+000	 1.003058083573891e+000	 1.161730699317702e+001
 2.523578160235667e+000	 1.028191747288888e+000	 1.154536027282598e+001
 2.513212831009153e+000	 1.053274069772882e+000	 1.149887896553319e+001
 2.502577125904157e+000	 1.078300852685174e+000	 1.147922461890896e+001
 2.491671122117970e+000	 1.103267881885750e+000	 1.148410942654257e+001
 2.480494981631032e+000	 1.128170929469140e+000	 1.150536577929783e+001
 2.469048951927351e+000	 1.153005755832484e+000	 1.154341436119650e+001
 2.457333366656231e+000	 1.177768111776018e+000	 1.159912684577835e+001
 2.445348646233789e+000	 1.202453740634082e+000	 1.167338622186780e+001
 2.433095298382876e+000	 1.227058380434715e+000	 1.176708550646975e+001
 2.420573918610014e+000	 1.251577766085793e+000	 1.188447964894984e+001
 2.556917827922116e+000	 1.012260451311729e+000	 1.163540579882498e+001
 2.546730253452309e+000	 1.037624699097835e+000	 1.155024202116176e+001
 2.536269829462127e+000	 1.062937134632405e+000	 1.149037685544360e+001
 2.525536549080854e+000	 1.088193521057849e+000	 1.145717086133344e+001
 2.514530490214019e+000	 1.113389605572322e+000	 1.145204330764909e+001
 2.503251816328117e+000	 1.138521121482226e+000	 1.147647334255579e+001
 2.491700777177656e+000	 1.163583790289265e+000	 1.151932101173694e+001
 2.479877709472937e+000	 1.188573323810187e+000	 1.157724461199035e+001
 2.467783037487111e+000	 1.213485426327356e+000	 1.165416849184031e+001
 2.455417273601035e+000	 1.238315796768149e+000	 1.175101619869734e+001
 2.442781018784593e+000	 1.263060130911157e+000	 1.191152910074479e+001
 2.220710017083810e+000	 1.148236482635196e+000	 1.203180535335730e+001
 2.208977239107448e+000	 1.170649203275409e+000	 1.205769151982812e+001
 2.196999896018612e+000	 1.192975882787096e+000	 1.210810180048484e+001
 2.184778777790678e+000	 1.215212611902256e+000	 1.218431406979992e+001
 2.172314756082765e+000	 1.237355486717287e+000	 1.228760668025783e+001
 2.159608784372368e+000	 1.259400610790523e+000	 1.232644990950523e+001
 2.146661898024328e+000	 1.281344097251810e+000	 1.225440484704823e+001
 2.133475214295430e+000	 1.303182070921886e+000	 1.219087081142249e+001
 2.120049932274017e+000	 1.324910670439301e+000	 1.213714289318505e+001
 2.106387332754106e+000	 1.346526050392599e+000	 1.209455550502421e+001
 2.092488778043565e+000	 1.368024383455396e+000	 1.206448083374184e+001
 2.242917117249388e+000	 1.159718847465025e+000	 1.200671829408566e+001
 2.231067011493503e+000	 1.182355695312165e+000	 1.205427186937516e+001
 2.218969894973999e+000	 1.204905641619348e+000	 1.212413382029679e+001
 2.206626565563987e+000	 1.227364738025891e+000	 1.221743496487451e+001
 2.194037903639175e+000	 1.249729041589154e+000	 1.233530787363828e+001
 2.181204872211835e+000	 1.271994616903055e+000	 1.228104357429560e+001
 2.168128517000457e+000	 1.294157538228737e+000	 1.222784904260923e+001
 2.154809966434391e+000	 1.316213891635144e+000	 1.217912091022875e+001
 2.141250431592865e+000	 1.338159777147214e+000	 1.213601071522993e+001
 2.127451206077835e+000	 1.359991310899373e+000	 1.209971315043600e+001
 2.113413665820249e+000	 1.381704627291974e+000	 1.207146467852345e+001
 2.265124217415967e+000	 1.171201212294357e+000	 1.198473192680474e+001
 2.253156783880558e+000	 1.194062187348341e+000	 1.204842378476634e+001
 2.240939893930386e+000	 1.216835400450964e+000	 1.213224495281473e+001
 2.228474353338295e+000	 1.239516864148863e+000	 1.223718237450909e+001
 2.215761051196585e+000	 1.262102596460362e+000	 1.227303343156484e+001
 2.202800960052304e+000	 1.284588623014960e+000	 1.223430283708915e+001
 2.189595135977586e+000	 1.306970979205101e+000	 1.219504965581808e+001
 2.176144718574352e+000	 1.329245712347933e+000	 1.215623674318325e+001
 2.162450930912713e+000	 1.351408883854782e+000	 1.211887506921364e+001
 2.148515079402566e+000	 1.373456571405956e+000	 1.208402262391068e+001
 2.134338553597934e+000	 1.395384871128547e+000	 1.205278319270375e+001
 2.287331317583545e+000	 1.182683577123193e+000	 1.196538872222387e+001
 2.275246556268613e+000	 1.205768679383935e+000	 1.203983601164464e+001
 2.262909892887774e+000	 1.228765159281942e+000	 1.213226893206339e+001
 2.250322141113604e+000	 1.251668990271171e+000	 1.223347766211811e+001
 2.237484198754997e+000	 1.274476151330910e+000	 1.221295140541672e+001
 2.224397047893772e+000	 1.297182629126240e+000	 1.218726538267791e+001
 2.211061754955715e+000	 1.319784420180902e+000	 1.215718841384723e+001
 2.197479470715314e+000	 1.342277533060255e+000	 1.212354196577768e+001
 2.183651430233561e+000	 1.364657990562005e+000	 1.208719935607068e+001
 2.169578952728295e+000	 1.386921831912350e+000	 1.204908482141796e+001
 2.155263441376618e+000	 1.409065114965114e+000	 1.201017245069768e+001
 2.309538417752123e+000	 1.194165941951533e+000	 1.194824705630205e+001
 2.297336328657668e+000	 1.217475171418948e+000	 1.202820737439670e+001
 2.284879891846161e+000	 1.240694918112284e+000	 1.212404378959503e+001
 2.272169928889912e+000	 1.263821116392816e+000	 1.216664099497632e+001
 2.259207346314407e+000	 1.286849706200797e+000	 1.215823578465448e+001
 2.245993135736240e+000	 1.309776635236893e+000	 1.214095615042604e+001
 2.232528373934845e+000	 1.332597861156142e+000	 1.211542872727616e+001
 2.218814222857275e+000	 1.355309353772108e+000	 1.208233640540949e+001
 2.204851929555409e+000	 1.377907097268884e+000	 1.204241769962646e+001
 2.190642826055024e+000	 1.400387092418553e+000	 1.199646597808884e+001
 2.176188329156302e+000	 1.422745358801676e+000	 1.194532855041001e+001
 2.331745517921702e+000	 1.205648306779377e+000	 1.193288045285509e+001
 2.319426101047722e+000	 1.229181663453380e+000	 1.201324629621280e+001
 2.306849890805548e+000	 1.252624676941988e+000	 1.209834338988981e+001
 2.294017716667222e+000	 1.275973242513798e+000	 1.211055839760439e+001
 2.280930493874819e+000	 1.299223261070027e+000	 1.210976427170219e+001
 2.267589223579708e+000	 1.322370641346921e+000	 1.209638794119507e+001
 2.253994992914973e+000	 1.345411302130819e+000	 1.207091656231006e+001
 2.240148975000236e+000	 1.368341174483492e+000	 1.203389719605293e+001
 2.226052428878258e+000	 1.391156203975419e+000	 1.198593634074526e+001
 2.211706699382753e+000	 1.413852352924567e+000	 1.192769931873175e+001
 2.197113216936987e+000	 1.436425602638232e+000	 1.185990951687859e+001
 2.353952618092280e+000	 1.217130671606725e+000	 1.191887686903412e+001
 2.341515873438778e+000	 1.240888155487230e+000	 1.199467034631295e+001
 2.328819889765935e+000	 1.264554435771055e+000	 1.204695900339099e+001
 2.315865504445531e+000	 1.288125368634117e+000	 1.206596930383650e+001
 2.302653641436229e+000	 1.311596815938596e+000	 1.206840811020895e+001
 2.289185311424177e+000	 1.334964647456323e+000	 1.205456198991473e+001
 2.275461611896103e+000	 1.358224743104934e+000	 1.202478126362762e+001
 2.261483727144197e+000	 1.381372995194408e+000	 1.197947984870359e+001
 2.247252928202105e+000	 1.404405310681609e+000	 1.191913495256427e+001
 2.232770572711483e+000	 1.427317613430390e+000	 1.184428661492318e+001
 2.218038104718671e+000	 1.450105846474784e+000	 1.175553709816424e+001
 2.376159718263858e+000	 1.228613036433577e+000	 1.190583802087060e+001
 2.363605645830832e+000	 1.252594647520498e+000	 1.197029005045006e+001
 2.350789888727322e+000	 1.276484194599485e+000	 1.201205831972631e+001
 2.337713292224839e+000	 1.300277494753773e+000	 1.203361190572537e+001
 2.324376788998640e+000	 1.323970370806505e+000	 1.203503238686074e+001
 2.310781399269644e+000	 1.347558653565099e+000	 1.201646850604702e+001
 2.296928230878231e+000	 1.371038184078486e+000	 1.197813633108794e+001
 2.282818479289158e+000	 1.394404815904855e+000	 1.192031926179797e+001
 2.268453427526953e+000	 1.417654417387455e+000	 1.184336788197603e+001
 2.253834446041212e+000	 1.440782873936023e+000	 1.174769965478490e+001
 2.238962992501355e+000	 1.463786090311330e+000	 1.163379846053657e+001
 2.398366818436436e+000	 1.240095401259933e+000	 1.189337874629108e+001
 2.385695418223886e+000	 1.264301139553186e+000	 1.195064731757996e+001
 2.372759887689709e+000	 1.288413953427277e+000	 1.199425447147931e+001
 2.359561080005148e+000	 1.312429620872765e+000	 1.201422321103224e+001
 2.346099936562051e+000	 1.336343925673756e+000	 1.201049631642506e+001
 2.332377487116112e+000	 1.360152659673249e+000	 1.198308718402462e+001
 2.318394849861361e+000	 1.383851625051477e+000	 1.193208015328695e+001
 2.304153231435119e+000	 1.407436636614834e+000	 1.185763067549857e+001
 2.289653926852801e+000	 1.430903524092956e+000	 1.175996532213990e+001
 2.274898319371942e+000	 1.454248134441466e+000	 1.163938163110673e+001
 2.259887880285039e+000	 1.477466334147870e+000	 1.149624778948275e+001
 2.420573918610014e+000	 1.251577766085793e+000	 1.188447964894984e+001
 2.407785190617942e+000	 1.276007631585292e+000	 1.195272178716525e+001
 2.394729886653096e+000	 1.300343712254434e+000	 1.199416397407461e+001
 2.381408867786457e+000	 1.324581746991095e+000	 1.200853909755213e+001
 2.367823084126462e+000	 1.348717480540346e+000	 1.199565351110497e+001
 2.353973574963581e+000	 1.372746665780774e+000	 1.195538768559158e+001
 2.339861468845490e+000	 1.396665066023905e+000	 1.188769670073463e+001
 2.325487983582081e+000	 1.420468457324345e+000	 1.179261057344954e+001
 2.310854426179648e+000	 1.444152630798113e+000	 1.167023442045133e+001
 2.295962192703671e+000	 1.467713394946719e+000	 1.152074845305905e+001
 2.280812768069723e+000	 1.491146577984406e+000	 1.134440780258741e+001
 2.442781018784593e+000	 1.263060130911157e+000	 1.191152910074479e+001
 2.429874963012998e+000	 1.287714123616817e+000	 1.197701661510793e+001
 2.416699885617484e+000	 1.312273471080953e+000	 1.201240657201238e+001
 2.403256655568766e+000	 1.336733873108761e+000	 1.201729436447591e+001
 2.389546231691873e+000	 1.361091035406278e+000	 1.199135223520114e+001
 2.375569662812049e+000	 1.385340671887672e+000	 1.193433009583476e+001
 2.361328087830619e+000	 1.409478506995772e+000	 1.184605618122253e+001
 2.346822735730042e+000	 1.433500278033387e+000	 1.172643753534578e+001
 2.332054925507497e+000	 1.457401737502926e+000	 1.157546032607659e+001
 2.317026066036402e+000	 1.481178655451782e+000	 1.139318998635727e+001
 2.301737655855408e+000	 1.504826821820936e+000	 1.117977117989182e+001
 2.092488778043565e+000	 1.368024383455396e+000	 1.206448083374184e+001
 2.078355711706041e+000	 1.389401862522306e+000	 1.210429978825884e+001
 2.063989658236324e+000	 1.410654702842501e+000	 1.213533305692808e+001
 2.049392222669044e+000	 1.431779144149050e+000	 1.215792195534249e+001
 2.034565090120716e+000	 1.452771452782182e+000	 1.217245531722017e+001
 2.019510025265108e+000	 1.473627923803213e+000	 1.217936867464979e+001
 2.004228871742098e+000	 1.494344883097002e+000	 1.217914331852411e+001
 1.988723551500282e+000	 1.514918689460505e+000	 1.217230524073663e+001
 1.972996064073689e+000	 1.535345736674993e+000	 1.215942396009115e+001
 1.957048485793046e+000	 1.555622455559538e+000	 1.214111123424364e+001
 1.940882968932161e+000	 1.575745316003345e+000	 1.211801966036182e+001
 2.113413665820249e+000	 1.381704627291974e+000	 1.207146467852345e+001
 2.099139268819376e+000	 1.403295881148705e+000	 1.208339987378580e+001
 2.084629554814937e+000	 1.424761249871356e+000	 1.208848560400378e+001
 2.069886144891909e+000	 1.446096935590330e+000	 1.208731282328575e+001
 2.054910741017975e+000	 1.467299167309258e+000	 1.208052025573380e+001
 2.039705125513637e+000	 1.488364203040068e+000	 1.206879329094405e+001
 2.024271160455173e+000	 1.509288331926469e+000	 1.205286275627853e+001
 2.008610787010665e+000	 1.530067876353385e+000	 1.203350356797049e+001
 1.992726024709482e+000	 1.550699194039903e+000	 1.201153326351076e+001
 1.976618970645657e+000	 1.571178680113284e+000	 1.198781041814658e+001
 1.960291798615738e+000	 1.591502769161626e+000	 1.196323294870014e+001
 2.134338553597934e+000	 1.395384871128547e+000	 1.205278319270375e+001
 2.119922825933710e+000	 1.417189899775284e+000	 1.204328112639702e+001
 2.105269451394550e+000	 1.438867796900547e+000	 1.202878205186900e+001
 2.090380067115775e+000	 1.460414727032072e+000	 1.201012404351094e+001
 2.075256391916233e+000	 1.481826881836891e+000	 1.198819326875734e+001
 2.059900225763165e+000	 1.503100482277546e+000	 1.196392260087312e+001
 2.044313449169247e+000	 1.524231780756594e+000	 1.193829010498461e+001
 2.028498022522047e+000	 1.545217063246931e+000	 1.191231739989798e+001
 2.012455985346274e+000	 1.566052651405454e+000	 1.188706789864945e+001
 1.996189455499269e+000	 1.586734904667616e+000	 1.186364493112682e+001
 1.979700628300315e+000	 1.607260222320409e+000	 1.184318975248975e+001
 2.155263441376618e+000	 1.409065114965114e+000	 1.201017245069768e+001
 2.140706383049044e+000	 1.431083918402042e+000	 1.198548524175469e+001
 2.125909347975163e+000	 1.452974343930074e+000	 1.195757069455243e+001
 2.110873989340641e+000	 1.474732518474275e+000	 1.192751158795950e+001
 2.095602042815492e+000	 1.496354596365081e+000	 1.189643918815809e+001
 2.080095326013694e+000	 1.517836761515647e+000	 1.186553158065449e+001
 2.064355737884322e+000	 1.539175229587379e+000	 1.183601187189242e+001
 2.048385258034430e+000	 1.560366250141141e+000	 1.180914626349204e+001
 2.032185945984066e+000	 1.581406108771645e+000	 1.178624200255226e+001
 2.015759940353880e+000	 1.602291129222535e+000	 1.176864521186235e+001
 1.999109457985893e+000	 1.623017675479693e+000	 1.175773860426753e+001
 2.176188329156302e+000	 1.422745358801676e+000	 1.194532855041001e+001
 2.161489940165379e+000	 1.444977937028980e+000	 1.191152127782629e+001
 2.146549244556775e+000	 1.467080890959936e+000	 1.187617446911101e+001
 2.131367911566507e+000	 1.489050309916940e+000	 1.184061329059499e+001
 2.115947693715750e+000	 1.510882310893829e+000	 1.180621186147684e+001
 2.100290426265223e+000	 1.532573040754371e+000	 1.177439130690085e+001
 2.084398026600397e+000	 1.554118678418823e+000	 1.174661767688235e+001
 2.068272493547812e+000	 1.575515437036017e+000	 1.172439973458011e+001
 2.051915906622858e+000	 1.596759566138478e+000	 1.170928661784441e+001
 2.035330425209491e+000	 1.617847353778040e+000	 1.170286537839032e+001
 2.018518287672471e+000	 1.638775128639479e+000	 1.170675840335693e+001
 2.197113216936987e+000	 1.436425602638232e+000	 1.185990951687859e+001
 2.182273497282713e+000	 1.458871955656099e+000	 1.182286720906050e+001
 2.167189141139388e+000	 1.481187437990134e+000	 1.178589216310492e+001
 2.151861833793373e+000	 1.503368101360066e+000	 1.175054971111638e+001
 2.136293344617010e+000	 1.525410025423134e+000	 1.171845467499102e+001
 2.120485526517752e+000	 1.547309319993719e+000	 1.169126914231565e+001
 2.104440315317472e+000	 1.569062127250926e+000	 1.167070010424457e+001
 2.088159729062195e+000	 1.590664623931558e+000	 1.165849695932724e+001
 2.071645867262650e+000	 1.612113023505951e+000	 1.165644888770361e+001
 2.054900910066102e+000	 1.633403578334131e+000	 1.166638210051862e+001
 2.037927117360048e+000	 1.654532581799765e+000	 1.169015696983042e+001
 2.218038104718671e+000	 1.450105846474784e+000	 1.175553709816424e+001
 2.203057054401048e+000	 1.472765974283397e+000	 1.172097139259095e+001
 2.187829037723001e+000	 1.495293985020668e+000	 1.168799955372453e+001
 2.172355756021239e+000	 1.517685892803653e+000	 1.165842494978188e+001
 2.156638995519268e+000	 1.539937739952995e+000	 1.163410104717063e+001
 2.140680626771280e+000	 1.562045599233690e+000	 1.161692891087748e+001
 2.124482604035547e+000	 1.584005576083688e+000	 1.160885456284845e+001
 2.108046964577577e+000	 1.605813810827764e+000	 1.161186620280508e+001
 2.091375827903442e+000	 1.627466480874065e+000	 1.162799129640008e+001
 2.074471394923713e+000	 1.648959802890808e+000	 1.165929353606301e+001
 2.057335947048625e+000	 1.670290034960553e+000	 1.170786968032323e+001
 2.238962992501355e+000	 1.463786090311330e+000	 1.163379846053657e+001
 2.223840611520382e+000	 1.486659992910875e+000	 1.160725395222278e+001
 2.208468934307614e+000	 1.509400532051536e+000	 1.158375048304156e+001
 2.192849678250105e+000	 1.532003684247701e+000	 1.156532741654161e+001
 2.176984646422527e+000	 1.554465454483415e+000	 1.155407489446346e+001
 2.160875727025809e+000	 1.576781878474284e+000	 1.155213106320108e+001
 2.144524892754621e+000	 1.598949024917110e+000	 1.156167915415282e+001
 2.127934200093959e+000	 1.620962997724635e+000	 1.158494442287477e+001
 2.111105788545235e+000	 1.642819938242820e+000	 1.162419095242305e+001
 2.094041879782325e+000	 1.664516027448072e+000	 1.168171832673465e+001
 2.076744776738203e+000	 1.686047488121843e+000	 1.175985818034350e+001
 2.259887880285039e+000	 1.477466334147870e+000	 1.149624778948275e+001
 2.244624168640716e+000	 1.500554011538533e+000	 1.148310808553118e+001
 2.229108830893227e+000	 1.523507079082740e+000	 1.147437787352358e+001
 2.213343600479971e+000	 1.546321475692211e+000	 1.147233055744079e+001
 2.197330297326785e+000	 1.568993169014391e+000	 1.147929107120370e+001
 2.181070827281339e+000	 1.591518157715502e+000	 1.149763283271151e+001
 2.164567181474695e+000	 1.613892473751191e+000	 1.152977454754913e+001
 2.147821435611342e+000	 1.636112184622171e+000	 1.157817686774291e+001
 2.130835749188027e+000	 1.658173395612215e+000	 1.164533891143363e+001
 2.113612364641936e+000	 1.680072252005922e+000	 1.173379464981160e+001
 2.096153606428781e+000	 1.701804941283633e+000	 1.184610916812080e+001
 2.280812768069723e+000	 1.491146577984406e+000	 1.134440780258741e+001
 2.265407725762050e+000	 1.514448030166370e+000	 1.134990129900960e+001
 2.249748727479839e+000	 1.537613626114280e+000	 1.136109468764906e+001
 2.233837522710837e+000	 1.560639267137182e+000	 1.138049354103739e+001
 2.217675948232044e+000	 1.583520883545925e+000	 1.141065578530511e+001
 2.201265927537867e+000	 1.606254436957342e+000	 1.145418838322180e+001
 2.184609470195770e+000	 1.628835922585931e+000	 1.151374386256632e+001
 2.167708671129724e+000	 1.651261371520372e+000	 1.159201669567069e+001
 2.150565709831819e+000	 1.673526852982251e+000	 1.169173953648627e+001
 2.133182849502547e+000	 1.695628476564357e+000	 1.181567932201189e+001
 2.115562436120359e+000	 1.717562394445926e+000	 1.196663324539858e+001
 2.301737655855408e+000	 1.504826821820936e+000	 1.117977117989182e+001
 2.286191282884384e+000	 1.528342048794389e+000	 1.120897657584600e+001
 2.270388624067453e+000	 1.551720173146156e+000	 1.124509483517945e+001
 2.254331444942703e+000	 1.574957058582615e+000	 1.129086190737881e+001
 2.238021599138304e+000	 1.598048598078017e+000	 1.134906699128021e+001
 2.221461027795396e+000	 1.620990716199807e+000	 1.142254894846068e+001
 2.204651758917846e+000	 1.643779371421331e+000	 1.151419255750098e+001
 2.187595906649108e+000	 1.666410558419238e+000	 1.162692461542569e+001
 2.170295670476612e+000	 1.688880310352929e+000	 1.176370989314718e+001
 2.152753334364159e+000	 1.711184701123381e+000	 1.192754695224626e+001
 2.134971265812936e+000	 1.733319847608720e+000	 1.212146383091097e+001
 1.940882968932161e+000	 1.575745316003345e+000	 1.211801966036182e+001
 1.924501740789867e+000	 1.595710828974349e+000	 1.210877981219833e+001
 1.907907102708858e+000	 1.615515548502403e+000	 1.208004287857725e+001
 1.891101429031947e+000	 1.635156073634189e+000	 1.203240059188014e+001
 1.874087165996259e+000	 1.654629050357171e+000	 1.196876106953261e+001
 1.856866830566979e+000	 1.673931173491006e+000	 1.192102001384657e+001
 1.839443009211615e+000	 1.693059188543971e+000	 1.184325928487661e+001
 1.821818356616007e+000	 1.712009893532202e+000	 1.173576458680494e+001
 1.803995594343423e+000	 1.730780140759638e+000	 1.159887459696898e+001
 1.785977509438138e+000	 1.749366838556605e+000	 1.143297948207315e+001
 1.767766952975000e+000	 1.767766952975000e+000	 1.123851930020495e+001
 1.960291798615738e+000	 1.591502769161626e+000	 1.196323294870014e+001
 1.943746758191629e+000	 1.611667937262448e+000	 1.194705627290210e+001
 1.926986173729532e+000	 1.631670703985806e+000	 1.191352269397884e+001
 1.910012443315688e+000	 1.651507634368848e+000	 1.186324553091347e+001
 1.892828037649595e+000	 1.671175340858912e+000	 1.179688643904187e+001
 1.875435498866089e+000	 1.690670485223853e+000	 1.171515365973745e+001
 1.857837439297352e+000	 1.709989780427031e+000	 1.165392311150766e+001
 1.840036540176085e+000	 1.729129992464742e+000	 1.156600988507515e+001
 1.822035550281187e+000	 1.748087942163965e+000	 1.145069053592742e+001
 1.803837284527377e+000	 1.766860506938328e+000	 1.130835803066050e+001
 1.785444622500250e+000	 1.785444622500250e+000	 1.113945451229014e+001
 1.979700628300315e+000	 1.607260222320409e+000	 1.184318975248975e+001
 1.962991775594386e+000	 1.627625045550958e+000	 1.181900745798991e+001
 1.946065244751185e+000	 1.647825859469549e+000	 1.177954271722553e+001
 1.928923457600384e+000	 1.667859195103797e+000	 1.172543190552695e+001
 1.911568909303850e+000	 1.687721631360913e+000	 1.165735896003744e+001
 1.894004167166073e+000	 1.707409796956951e+000	 1.157605356888622e+001
 1.876231869383909e+000	 1.726920372310351e+000	 1.148228925216089e+001
 1.858254723736918e+000	 1.746250091397571e+000	 1.140987723329656e+001
 1.840075506219632e+000	 1.765395743568632e+000	 1.131491988273507e+001
 1.821697059617210e+000	 1.784354175320462e+000	 1.119487851882630e+001
 1.803122292026000e+000	 1.803122292026000e+000	 1.105019906456324e+001
 1.999109457985893e+000	 1.623017675479693e+000	 1.175773860426753e+001
 1.982236792998138e+000	 1.643582153839881e+000	 1.172449334051280e+001
 1.965144315773818e+000	 1.663981014953634e+000	 1.167797519423545e+001
 1.947834471886035e+000	 1.684210755839037e+000	 1.161884507212261e+001
 1.930309780959026e+000	 1.704267921863176e+000	 1.154781073271414e+001
 1.912572835466933e+000	 1.724149108690299e+000	 1.146562491296583e+001
 1.894626299471287e+000	 1.743850964193931e+000	 1.137308334616501e+001
 1.876472907298506e+000	 1.763370190330692e+000	 1.127102267627456e+001
 1.858115462158756e+000	 1.782703544973638e+000	 1.119185875671290e+001
 1.839556834707639e+000	 1.801847843703006e+000	 1.109285589949307e+001
 1.820799961552250e+000	 1.820799961552250e+000	 1.097108742998753e+001
 2.018518287672471e+000	 1.638775128639479e+000	 1.170675840335693e+001
 2.001481810402884e+000	 1.659539262129213e+000	 1.166340349439327e+001
 1.984223386797432e+000	 1.680136170438059e+000	 1.160872115744550e+001
 1.966745486172641e+000	 1.700562316574568e+000	 1.154339831115710e+001
 1.949050652615121e+000	 1.720814212365699e+000	 1.146816808035189e+001
 1.931141503768667e+000	 1.740888420423898e+000	 1.138380785787571e+001
 1.913020729559484e+000	 1.760781556077771e+000	 1.129113725723503e+001
 1.894691090860849e+000	 1.780490289264101e+000	 1.119101596127619e+001
 1.876155418098561e+000	 1.800011346378985e+000	 1.108434147247831e+001
 1.857416609798663e+000	 1.819341512085959e+000	 1.100262688669687e+001
 1.838477631079000e+000	 1.838477631079000e+000	 1.090247465513278e+001
 2.037927117360048e+000	 1.654532581799765e+000	 1.169015696983042e+001
 2.020726827808627e+000	 1.675496370418957e+000	 1.163565568485983e+001
 2.003302457822026e+000	 1.696291325922827e+000	 1.157170905502480e+001
 1.985656500460202e+000	 1.716913877310390e+000	 1.149903149742480e+001
 1.967791524272137e+000	 1.737360502868483e+000	 1.141838305369353e+001
 1.949710172071277e+000	 1.757627732157748e+000	 1.133056738499346e+001
 1.931415159648502e+000	 1.777712147961873e+000	 1.123642965714247e+001
 1.912909274423948e+000	 1.797610388197801e+000	 1.113685432129001e+001
 1.894195374039045e+000	 1.817319147784671e+000	 1.103276279589297e+001
 1.875276384890282e+000	 1.836835180469323e+000	 1.092511105605484e+001
 1.856155300606249e+000	 1.856155300606249e+000	 1.084473538047958e+001
 2.057335947048625e+000	 1.670290034960553e+000	 1.170786968032323e+001
 2.039971845215364e+000	 1.691453478709113e+000	 1.164119453866853e+001
 2.022381528847599e+000	 1.712446481407935e+000	 1.156689345767982e+001
 2.004567514748718e+000	 1.733265438046503e+000	 1.148570984560787e+001
 1.986532395930073e+000	 1.753906793371528e+000	 1.139843221738537e+001
 1.968278840374762e+000	 1.774367043891847e+000	 1.130589212063341e+001
 1.949809589738340e+000	 1.794642739846234e+000	 1.120896195102755e+001
 1.931127457987801e+000	 1.814730487131792e+000	 1.110855266261782e+001
 1.912235329980210e+000	 1.834626949190698e+000	 1.100561137903526e+001
 1.893136159982496e+000	 1.854328848853096e+000	 1.090111891183526e+001
 1.873832970134000e+000	 1.873832970134000e+000	 1.079826291617834e+001
 2.076744776738203e+000	 1.686047488121843e+000	 1.175985818034350e+001
 2.059216862623095e+000	 1.707410586999680e+000	 1.167999028889131e+001
 2.041460599874153e+000	 1.728601636893384e+000	 1.159425383797488e+001
 2.023478529038190e+000	 1.749616998782907e+000	 1.150342272616946e+001
 2.005273267588929e+000	 1.770453083874833e+000	 1.140831550446760e+001
 1.986847508679121e+000	 1.791106355626198e+000	 1.130979323114307e+001
 1.968204019828998e+000	 1.811573331730855e+000	 1.120875721509237e+001
 1.949345641552410e+000	 1.831850586066073e+000	 1.110614665343085e+001
 1.930275285922055e+000	 1.851934750597065e+000	 1.100293616946338e+001
 1.910995935075305e+000	 1.871822517237279e+000	 1.090013325747098e+001
 1.891510639662249e+000	 1.891510639662249e+000	 1.089004659378675e+001
 2.096153606428781e+000	 1.701804941283633e+000	 1.184610916812080e+001
 2.078461880031822e+000	 1.723367695290657e+000	 1.175203758943843e+001
 2.060539670901687e+000	 1.744756792379175e+000	 1.165379341746861e+001
 2.042389543328616e+000	 1.765968559519602e+000	 1.155218254703039e+001
 2.024014139248705e+000	 1.786999374378399e+000	 1.144805513450423e+001
 2.005416176984356e+000	 1.807845667360798e+000	 1.134230337938309e+001
 1.986598449920475e+000	 1.828503923615737e+000	 1.123585919331092e+001
 1.967563825117773e+000	 1.848970685000643e+000	 1.112969176257224e+001
 1.948315241864579e+000	 1.869242552003771e+000	 1.102480501034510e+001
 1.928855710168709e+000	 1.889316185621873e+000	 1.102851020021608e+001
 1.909188309190999e+000	 1.909188309190999e+000	 1.104281654884261e+001
 2.115562436120359e+000	 1.717562394445926e+000	 1.196663324539858e+001
 2.097706897441544e+000	 1.739324803582046e+000	 1.185735439483649e+001
 2.079618741930201e+000	 1.760911947865306e+000	 1.174553807731031e+001
 2.061300557619997e+000	 1.782320120256587e+000	 1.163202369680518e+001
 2.042755010909402e+000	 1.803545664882226e+000	 1.151769459126554e+001
 2.023984845290466e+000	 1.824584979095650e+000	 1.140347573864868e+001
 2.004992880012773e+000	 1.845434515500879e+000	 1.129033134936621e+001
 1.985782008683892e+000	 1.866090783935504e+000	 1.117926235126922e+001
 1.966355197807784e+000	 1.886550353410819e+000	 1.117681363076319e+001
 1.946715485262708e+000	 1.906809854006877e+000	 1.122995326424857e+001
 1.926865978720250e+000	 1.926865978720250e+000	 1.124729407745436e+001
 2.134971265812936e+000	 1.733319847608720e+000	 1.212146383091097e+001
 2.116951914852261e+000	 1.755281911873847e+000	 1.199598090110959e+001
 2.098697812959695e+000	 1.777067103351779e+000	 1.186953532825872e+001
 2.080211571912335e+000	 1.798671680993865e+000	 1.174300154567948e+001
 2.061495882571018e+000	 1.820091955386313e+000	 1.161729765617322e+001
 2.042553513597452e+000	 1.841324290830752e+000	 1.149338306037718e+001
 2.023387310105892e+000	 1.862365107386282e+000	 1.137225597029987e+001
 2.004000192250766e+000	 1.883210882870656e+000	 1.134246701591063e+001
 1.984395153751669e+000	 1.903858154818207e+000	 1.142780240567194e+001
 1.964575260357303e+000	 1.924303522392292e+000	 1.148184867043164e+001
 1.944543648250000e+000	 1.944543648250000e+000	 1.150175165792315e+001
 1.767766952975000e+000	 1.767766952975000e+000	 1.123851930020495e+001
 1.749366838556605e+000	 1.785977509438138e+000	 1.117613529047863e+001
 1.730780140759639e+000	 1.803995594343423e+000	 1.113050971125795e+001
 1.712009893532202e+000	 1.821818356616006e+000	 1.110287716288202e+001
 1.693059188543972e+000	 1.839443009211615e+000	 1.109446926578485e+001
 1.673931173491006e+000	 1.856866830566979e+000	 1.110651193289569e+001
 1.654629050357171e+000	 1.874087165996259e+000	 1.114022262284211e+001
 1.635156073634190e+000	 1.891101429031947e+000	 1.109368590891166e+001
 1.615515548502402e+000	 1.907907102708858e+000	 1.104106302365571e+001
 1.595710828974349e+000	 1.924501740789867e+000	 1.099007012641988e+001
 1.575745316003345e+000	 1.940882968932160e+000	 1.094333151202964e+001
 1.785444622500250e+000	 1.785444622500250e+000	 1.113945451229014e+001
 1.766860506938328e+000	 1.803837284527377e+000	 1.112233197162523e+001
 1.748087942163965e+000	 1.822035550281187e+000	 1.111659536199762e+001
 1.729129992464742e+000	 1.840036540176085e+000	 1.112337743499802e+001
 1.709989780427031e+000	 1.857837439297352e+000	 1.114381402031182e+001
 1.690670485223853e+000	 1.875435498866089e+000	 1.117721401257360e+001
 1.671175340858912e+000	 1.892828037649594e+000	 1.114028267194388e+001
 1.651507634368848e+000	 1.910012443315688e+000	 1.109273088529618e+001
 1.631670703985806e+000	 1.926986173729532e+000	 1.103710830304586e+001
 1.611667937262448e+000	 1.943746758191629e+000	 1.097600629885838e+001
 1.591502769161626e+000	 1.960291798615738e+000	 1.091205191171365e+001
 1.803122292026000e+000	 1.803122292026000e+000	 1.105019906456324e+001
 1.784354175320462e+000	 1.821697059617210e+000	 1.107350668195729e+001
 1.765395743568632e+000	 1.840075506219632e+000	 1.110291417811529e+001
 1.746250091397571e+000	 1.858254723736918e+000	 1.113945588393000e+001
 1.726920372310351e+000	 1.876231869383909e+000	 1.118088679427324e+001
 1.707409796956950e+000	 1.894004167166073e+000	 1.117033011633032e+001
 1.687721631360913e+000	 1.911568909303850e+000	 1.113963464094213e+001
 1.667859195103797e+000	 1.928923457600383e+000	 1.109128459927540e+001
 1.647825859469549e+000	 1.946065244751185e+000	 1.102782039706388e+001
 1.627625045550958e+000	 1.962991775594386e+000	 1.095183257198711e+001
 1.607260222320409e+000	 1.979700628300316e+000	 1.086595561885958e+001
 1.820799961552250e+000	 1.820799961552250e+000	 1.097108742998753e+001
 1.801847843703005e+000	 1.839556834707639e+000	 1.103011427750941e+001
 1.782703544973638e+000	 1.858115462158756e+000	 1.109003789403465e+001
 1.763370190330691e+000	 1.876472907298506e+000	 1.115028362325771e+001
 1.743850964193931e+000	 1.894626299471287e+000	 1.117757165034896e+001
 1.724149108690299e+000	 1.912572835466933e+000	 1.117535060645575e+001
 1.704267921863176e+000	 1.930309780959026e+000	 1.114602097345305e+001
 1.684210755839037e+000	 1.947834471886035e+000	 1.109205392062793e+001
 1.663981014953634e+000	 1.965144315773819e+000	 1.101598531446917e+001
 1.643582153839880e+000	 1.982236792998137e+000	 1.092040956607846e+001
 1.623017675479693e+000	 1.999109457985893e+000	 1.080797333289769e+001
 1.838477631079000e+000	 1.838477631079000e+000	 1.090247465513278e+001
 1.819341512085959e+000	 1.857416609798663e+000	 1.099262510314183e+001
 1.800011346378985e+000	 1.876155418098561e+000	 1.107939156802197e+001
 1.780490289264101e+000	 1.894691090860850e+000	 1.115581513321272e+001
 1.760781556077771e+000	 1.913020729559484e+000	 1.119352082402276e+001
 1.740888420423898e+000	 1.931141503768667e+000	 1.119480687700198e+001
 1.720814212365699e+000	 1.949050652615121e+000	 1.116205675501080e+001
 1.700562316574568e+000	 1.966745486172641e+000	 1.109773324736601e+001
 1.680136170438060e+000	 1.984223386797433e+000	 1.100437237705787e+001
 1.659539262129213e+000	 2.001481810402884e+000	 1.088457713163327e+001
 1.638775128639479e+000	 2.018518287672471e+000	 1.074101103484922e+001
 1.856155300606249e+000	 1.856155300606249e+000	 1.084473538047958e+001
 1.836835180469322e+000	 1.875276384890282e+000	 1.096224366524149e+001
 1.817319147784672e+000	 1.894195374039045e+000	 1.109891419651835e+001
 1.797610388197801e+000	 1.912909274423948e+000	 1.118783337565407e+001
 1.777712147961873e+000	 1.931415159648502e+000	 1.123117855570418e+001
 1.757627732157748e+000	 1.949710172071277e+000	 1.123122684414037e+001
 1.737360502868483e+000	 1.967791524272137e+000	 1.119034933205338e+001
 1.716913877310390e+000	 1.985656500460202e+000	 1.111100509962906e+001
 1.696291325922827e+000	 2.003302457822026e+000	 1.099573501427991e+001
 1.675496370418957e+000	 2.020726827808626e+000	 1.084715533841746e+001
 1.654532581799765e+000	 2.037927117360048e+000	 1.066795116439339e+001
 1.873832970134000e+000	 1.873832970134000e+000	 1.079826291617834e+001
 1.854328848853096e+000	 1.893136159982496e+000	 1.100075106478455e+001
 1.834626949190698e+000	 1.912235329980210e+000	 1.115200418870160e+001
 1.814730487131792e+000	 1.931127457987802e+000	 1.124869983316440e+001
 1.794642739846235e+000	 1.949809589738340e+000	 1.129298994699718e+001
 1.774367043891847e+000	 1.968278840374762e+000	 1.128713511021257e+001
 1.753906793371527e+000	 1.986532395930073e+000	 1.123349867697439e+001
 1.733265438046503e+000	 2.004567514748718e+000	 1.113454067996078e+001
 1.712446481407935e+000	 2.022381528847600e+000	 1.099281151287809e+001
 1.691453478709112e+000	 2.039971845215364e+000	 1.081094540851577e+001
 1.670290034960553e+000	 2.057335947048625e+000	 1.059165373030816e+001
 1.891510639662249e+000	 1.891510639662249e+000	 1.089004659378675e+001
 1.871822517237279e+000	 1.910995935075305e+000	 1.107976036170384e+001
 1.851934750597065e+000	 1.930275285922054e+000	 1.124094440716529e+001
 1.831850586066072e+000	 1.949345641552410e+000	 1.134078089681192e+001
 1.811573331730855e+000	 1.968204019828998e+000	 1.138140092045749e+001
 1.791106355626197e+000	 1.986847508679121e+000	 1.136505311858246e+001
 1.770453083874833e+000	 2.005273267588930e+000	 1.129409773270449e+001
 1.749616998782907e+000	 2.023478529038189e+000	 1.117100040216875e+001
 1.728601636893384e+000	 2.041460599874153e+000	 1.099832572449131e+001
 1.707410586999679e+000	 2.059216862623095e+000	 1.077873059706445e+001
 1.686047488121843e+000	 2.076744776738203e+000	 1.051495735864325e+001
 1.909188309190999e+000	 1.909188309190999e+000	 1.104281654884261e+001
 1.889316185621873e+000	 1.928855710168709e+000	 1.122790491576632e+001
 1.869242552003772e+000	 1.948315241864579e+000	 1.136802639483994e+001
 1.848970685000643e+000	 1.967563825117773e+000	 1.146644763890560e+001
 1.828503923615737e+000	 1.986598449920475e+000	 1.149885818158541e+001
 1.807845667360798e+000	 2.005416176984356e+000	 1.146749929988505e+001
 1.786999374378399e+000	 2.024014139248705e+000	 1.137473273814955e+001
 1.765968559519602e+000	 2.042389543328615e+000	 1.122303439080300e+001
 1.744756792379174e+000	 2.060539670901687e+000	 1.101498773394630e+001
 1.723367695290657e+000	 2.078461880031822e+000	 1.075327702405446e+001
 1.701804941283634e+000	 2.096153606428781e+000	 1.044068028266123e+001
 1.926865978720250e+000	 1.926865978720250e+000	 1.124729407745436e+001
 1.906809854006877e+000	 1.946715485262708e+000	 1.142976502044188e+001
 1.886550353410819e+000	 1.966355197807783e+000	 1.155379233482949e+001
 1.866090783935504e+000	 1.985782008683892e+000	 1.162807559825949e+001
 1.845434515500879e+000	 2.004992880012773e+000	 1.164780918291113e+001
 1.824584979095649e+000	 2.023984845290466e+000	 1.159698921022517e+001
 1.803545664882226e+000	 2.042755010909402e+000	 1.147798353571472e+001
 1.782320120256588e+000	 2.061300557619997e+000	 1.129328295314033e+001
 1.760911947865306e+000	 2.079618741930201e+000	 1.104549449076292e+001
 1.739324803582046e+000	 2.097706897441543e+000	 1.073733446034742e+001
 1.717562394445926e+000	 2.115562436120359e+000	 1.037162127828663e+001
 1.944543648250000e+000	 1.944543648250000e+000	 1.150175165792315e+001
 1.924303522392292e+000	 1.964575260357303e+000	 1.167838939277764e+001
 1.903858154818207e+000	 1.984395153751669e+000	 1.179180376014472e+001
 1.883210882870656e+000	 2.004000192250766e+000	 1.183885925004895e+001
 1.862365107386283e+000	 2.023387310105892e+000	 1.183070209003871e+001
 1.841324290830751e+000	 2.042553513597451e+000	 1.175603566183786e+001
 1.820091955386314e+000	 2.061495882571018e+000	 1.160642386205456e+001
 1.798671680993865e+000	 2.080211571912334e+000	 1.138437702542398e+001
 1.777067103351779e+000	 2.098697812959695e+000	 1.109253040621356e+001
 1.755281911873847e+000	 2.116951914852261e+000	 1.073363707081779e+001
 1.733319847608720e+000	 2.134971265812937e+000	 1.031056054853027e+001
 1.575745316003345e+000	 1.940882968932160e+000	 1.094333151202964e+001
 1.555622455559537e+000	 1.957048485793046e+000	 1.092218841720582e+001
 1.535345736674993e+000	 1.972996064073689e+000	 1.088094397311255e+001
 1.514918689460505e+000	 1.988723551500282e+000	 1.082195064162318e+001
 1.494344883097002e+000	 2.004228871742098e+000	 1.074759300338993e+001
 1.473627923803213e+000	 2.019510025265108e+000	 1.066028170814195e+001
 1.452771452782182e+000	 2.034565090120716e+000	 1.056244737769938e+001
 1.431779144149050e+000	 2.049392222669044e+000	 1.045653447827436e+001
 1.410654702842500e+000	 2.063989658236325e+000	 1.034499517862590e+001
 1.389401862522307e+000	 2.078355711706042e+000	 1.023028321057343e+001
 1.368024383455396e+000	 2.092488778043565e+000	 1.011484774825330e+001
 1.591502769161626e+000	 1.960291798615738e+000	 1.091205191171365e+001
 1.571178680113283e+000	 1.976618970645657e+000	 1.086451057864998e+001
 1.550699194039903e+000	 1.992726024709482e+000	 1.080165151512246e+001
 1.530067876353385e+000	 2.008610787010665e+000	 1.072611395898704e+001
 1.509288331926469e+000	 2.024271160455173e+000	 1.064056462754184e+001
 1.488364203040068e+000	 2.039705125513637e+000	 1.054769128573715e+001
 1.467299167309258e+000	 2.054910741017975e+000	 1.045019627426288e+001
 1.446096935590331e+000	 2.069886144891909e+000	 1.035079001485549e+001
 1.424761249871356e+000	 2.084629554814938e+000	 1.025218451014037e+001
 1.403295881148705e+000	 2.099139268819376e+000	 1.015708685524211e+001
 1.381704627291974e+000	 2.113413665820249e+000	 1.006819277824884e+001
 1.607260222320409e+000	 1.979700628300316e+000	 1.086595561885958e+001
 1.586734904667616e+000	 1.996189455499269e+000	 1.079639571228539e+001
 1.566052651405454e+000	 2.012455985346274e+000	 1.071614503412697e+001
 1.545217063246930e+000	 2.028498022522047e+000	 1.062813048121943e+001
 1.524231780756594e+000	 2.044313449169247e+000	 1.053530192269355e+001
 1.503100482277546e+000	 2.059900225763165e+000	 1.044062538210227e+001
 1.481826881836891e+000	 2.075256391916233e+000	 1.034707618641928e+001
 1.460414727032072e+000	 2.090380067115775e+000	 1.025763210003252e+001
 1.438867796900547e+000	 2.105269451394550e+000	 1.017526646181118e+001
 1.417189899775284e+000	 2.119922825933710e+000	 1.010294134321772e+001
 1.395384871128547e+000	 2.134338553597933e+000	 1.004360074526585e+001
 1.623017675479693e+000	 1.999109457985893e+000	 1.080797333289769e+001
 1.602291129222535e+000	 2.015759940353880e+000	 1.072057758207703e+001
 1.581406108771645e+000	 2.032185945984065e+000	 1.062696369909543e+001
 1.560366250141141e+000	 2.048385258034430e+000	 1.053034723763326e+001
 1.539175229587379e+000	 2.064355737884322e+000	 1.043396234714536e+001
 1.517836761515647e+000	 2.080095326013694e+000	 1.034105456478948e+001
 1.496354596365081e+000	 2.095602042815492e+000	 1.025487358105503e+001
 1.474732518474276e+000	 2.110873989340641e+000	 1.017866599800919e+001
 1.452974343930074e+000	 2.125909347975163e+000	 1.011566809901284e+001
 1.431083918402042e+000	 2.140706383049044e+000	 1.006909864862944e+001
 1.409065114965114e+000	 2.155263441376618e+000	 1.004215174125572e+001
 1.638775128639479e+000	 2.018518287672471e+000	 1.074101103484922e+001
 1.617847353778040e+000	 2.035330425209491e+000	 1.063977151621838e+001
 1.596759566138478e+000	 2.051915906622858e+000	 1.053663439899516e+001
 1.575515437036017e+000	 2.068272493547812e+000	 1.043510500372403e+001
 1.554118678418823e+000	 2.084398026600397e+000	 1.033870299935486e+001
 1.532573040754372e+000	 2.100290426265223e+000	 1.025095480074012e+001
 1.510882310893829e+000	 2.115947693715751e+000	 1.017538594649750e+001
 1.489050309916940e+000	 2.131367911566507e+000	 1.011551347696066e+001
 1.467080890959936e+000	 2.146549244556776e+000	 1.007483833185734e+001
 1.444977937028980e+000	 2.161489940165378e+000	 1.005683778720214e+001
 1.422745358801676e+000	 2.176188329156302e+000	 1.006495795067381e+001
 1.654532581799765e+000	 2.037927117360048e+000	 1.066795116439339e+001
 1.633403578334131e+000	 2.054900910066102e+000	 1.055667528502542e+001
 1.612113023505951e+000	 2.071645867262650e+000	 1.044767232755340e+001
 1.590664623931557e+000	 2.088159729062194e+000	 1.034473859897073e+001
 1.569062127250926e+000	 2.104440315317472e+000	 1.025168063507214e+001
 1.547309319993719e+000	 2.120485526517752e+000	 1.017230719917094e+001
 1.525410025423134e+000	 2.136293344617009e+000	 1.011042126768446e+001
 1.503368101360066e+000	 2.151861833793373e+000	 1.006981202312994e+001
 1.481187437990134e+000	 2.167189141139388e+000	 1.005424687496833e+001
 1.458871955656099e+000	 2.182273497282713e+000	 1.006746352856143e+001
 1.436425602638232e+000	 2.197113216936987e+000	 1.011316212226510e+001
 1.670290034960553e+000	 2.057335947048625e+000	 1.059165373030816e+001
 1.648959802890809e+000	 2.074471394923714e+000	 1.047396992913836e+001
 1.627466480874065e+000	 2.091375827903443e+000	 1.036258153491971e+001
 1.605813810827764e+000	 2.108046964577577e+000	 1.026157716777994e+001
 1.584005576083689e+000	 2.124482604035547e+000	 1.017505168350538e+001
 1.562045599233690e+000	 2.140680626771280e+000	 1.010709776901400e+001
 1.539937739952996e+000	 2.156638995519268e+000	 1.006179753104105e+001
 1.517685892803653e+000	 2.172355756021238e+000	 1.004321409940973e+001
 1.495293985020667e+000	 2.187829037723001e+000	 1.005538326613647e+001
 1.472765974283397e+000	 2.203057054401047e+000	 1.010230518142705e+001
 1.450105846474784e+000	 2.218038104718671e+000	 1.018793612735261e+001
 1.686047488121843e+000	 2.076744776738203e+000	 1.051495735864325e+001
 1.664516027448072e+000	 2.094041879782325e+000	 1.039432054128227e+001
 1.642819938242820e+000	 2.111105788545235e+000	 1.028385544839376e+001
 1.620962997724635e+000	 2.127934200093960e+000	 1.018794444467634e+001
 1.598949024917110e+000	 2.144524892754621e+000	 1.011097226257979e+001
 1.576781878474284e+000	 2.160875727025809e+000	 1.005731718995797e+001
 1.554465454483415e+000	 2.176984646422527e+000	 1.003134225712050e+001
 1.532003684247701e+000	 2.192849678250105e+000	 1.003738644549898e+001
 1.509400532051535e+000	 2.208468934307614e+000	 1.007975594000322e+001
 1.486659992910875e+000	 2.223840611520382e+000	 1.016271544692634e+001
 1.463786090311330e+000	 2.238962992501355e+000	 1.029047959896917e+001
 1.701804941283634e+000	 2.096153606428781e+000	 1.044068028266123e+001
 1.680072252005922e+000	 2.113612364641936e+000	 1.032037700459653e+001
 1.658173395612215e+000	 2.130835749188027e+000	 1.021397736422414e+001
 1.636112184622171e+000	 2.147821435611342e+000	 1.012615900476004e+001
 1.613892473751191e+000	 2.164567181474696e+000	 1.006159819334886e+001
 1.591518157715502e+000	 2.181070827281338e+000	 1.002496059620953e+001
 1.568993169014391e+000	 2.197330297326785e+000	 1.002089205920937e+001
 1.546321475692211e+000	 2.213343600479971e+000	 1.005400941693972e+001
 1.523507079082740e+000	 2.229108830893226e+000	 1.012889135320656e+001
 1.500554011538533e+000	 2.244624168640716e+000	 1.025006933561234e+001
 1.477466334147870e+000	 2.259887880285039e+000	 1.042201864659313e+001
 1.717562394445926e+000	 2.115562436120359e+000	 1.037162127828663e+001
 1.695628476564358e+000	 2.133182849502547e+000	 1.025477469032229e+001
 1.673526852982252e+000	 2.150565709831819e+000	 1.015542091233541e+001
 1.651261371520371e+000	 2.167708671129724e+000	 1.007853450037756e+001
 1.628835922585931e+000	 2.184609470195770e+000	 1.002908501361243e+001
 1.606254436957342e+000	 2.201265927537867e+000	 1.001202737215762e+001
 1.583520883545925e+000	 2.217675948232044e+000	 1.003229222622975e+001
 1.560639267137182e+000	 2.233837522710837e+000	 1.009477636053708e+001
 1.537613626114279e+000	 2.249748727479839e+000	 1.020433315768410e+001
 1.514448030166371e+000	 2.265407725762050e+000	 1.036576314409581e+001
 1.491146577984406e+000	 2.280812768069723e+000	 1.058380464163269e+001
 1.733319847608720e+000	 2.134971265812937e+000	 1.031056054853027e+001
 1.711184701123380e+000	 2.152753334364159e+000	 1.020013511743413e+001
 1.688880310352929e+000	 2.170295670476612e+000	 1.011065049570652e+001
 1.666410558419238e+000	 2.187595906649107e+000	 1.004737988488335e+001
 1.643779371421331e+000	 2.204651758917846e+000	 1.001558799079187e+001
 1.620990716199807e+000	 2.221461027795396e+000	 1.002052095918342e+001
 1.598048598078017e+000	 2.238021599138304e+000	 1.006739632839224e+001
 1.574957058582615e+000	 2.254331444942703e+000	 1.016139302384739e+001
 1.551720173146155e+000	 2.270388624067453e+000	 1.030764141906846e+001
 1.528342048794388e+000	 2.286191282884385e+000	 1.051121348749707e+001
 1.504826821820936e+000	 2.301737655855408e+000	 1.077711306915629e+001
 1.368024383455396e+000	 2.092488778043565e+000	 1.011484774825330e+001
 1.346526050392599e+000	 2.106387332754106e+000	 9.921684530545253e+000
 1.324910670439301e+000	 2.120049932274017e+000	 9.745040142073711e+000
 1.303182070921885e+000	 2.133475214295430e+000	 9.587626549891295e+000
 1.281344097251810e+000	 2.146661898024328e+000	 9.452114913699438e+000
 1.259400610790523e+000	 2.159608784372367e+000	 9.341129573612781e+000
 1.237355486717287e+000	 2.172314756082764e+000	 9.237981861833937e+000
 1.215212611902256e+000	 2.184778777790678e+000	 9.130830785780727e+000
 1.192975882787095e+000	 2.196999896018612e+000	 9.030544802343691e+000
 1.170649203275408e+000	 2.208977239107448e+000	 8.938697065844293e+000
 1.148236482635196e+000	 2.220710017083810e+000	 8.856803205162480e+000
 1.381704627291974e+000	 2.113413665820249e+000	 1.006819277824884e+001
 1.359991310899373e+000	 2.127451206077835e+000	 9.910807007110194e+000
 1.338159777147214e+000	 2.141250431592865e+000	 9.766350915943143e+000
 1.316213891635144e+000	 2.154809966434392e+000	 9.637574929596212e+000
 1.294157538228737e+000	 2.168128517000457e+000	 9.527192412669720e+000
 1.271994616903055e+000	 2.181204872211835e+000	 9.437873470769883e+000
 1.249729041589154e+000	 2.194037903639175e+000	 9.371916532096179e+000
 1.227364738025891e+000	 2.206626565563986e+000	 9.293344935684168e+000
 1.204905641619348e+000	 2.218969894973999e+000	 9.217974963445967e+000
 1.182355695312165e+000	 2.231067011493503e+000	 9.147396883439843e+000
 1.159718847465025e+000	 2.242917117249388e+000	 9.083146211014974e+000
 1.395384871128547e+000	 2.134338553597933e+000	 1.004360074526585e+001
 1.373456571405956e+000	 2.148515079402566e+000	 9.917536968706152e+000
 1.351408883854781e+000	 2.162450930912713e+000	 9.800893386944354e+000
 1.329245712347933e+000	 2.176144718574352e+000	 9.696463484050748e+000
 1.306970979205101e+000	 2.189595135977586e+000	 9.607007361070819e+000
 1.284588623014960e+000	 2.202800960052304e+000	 9.535245344586864e+000
 1.262102596460361e+000	 2.215761051196586e+000	 9.483851719345880e+000
 1.239516864148863e+000	 2.228474353338295e+000	 9.440836800763593e+000
 1.216835400450963e+000	 2.240939893930387e+000	 9.387397659098234e+000
 1.194062187348341e+000	 2.253156783880558e+000	 9.335221005814354e+000
 1.171201212294357e+000	 2.265124217415967e+000	 9.285865010055057e+000
 1.409065114965114e+000	 2.155263441376618e+000	 1.004215174125572e+001
 1.386921831912350e+000	 2.169578952728295e+000	 9.942999231451207e+000
 1.364657990562005e+000	 2.183651430233561e+000	 9.849834032563511e+000
 1.342277533060255e+000	 2.197479470715314e+000	 9.765497307897130e+000
 1.319784420180902e+000	 2.211061754955715e+000	 9.692800446980431e+000
 1.297182629126240e+000	 2.224397047893772e+000	 9.634518475195057e+000
 1.274476151330910e+000	 2.237484198754997e+000	 9.593383585019286e+000
 1.251668990271171e+000	 2.250322141113604e+000	 9.572078804697412e+000
 1.228765159281942e+000	 2.262909892887774e+000	 9.539325111717758e+000
 1.205768679383935e+000	 2.275246556268613e+000	 9.502718638981214e+000
 1.182683577123193e+000	 2.287331317583545e+000	 9.465543190378439e+000
 1.422745358801676e+000	 2.176188329156302e+000	 1.006495795067381e+001
 1.400387092418553e+000	 2.190642826055024e+000	 9.988347403211414e+000
 1.377907097268885e+000	 2.204851929555409e+000	 9.914364920309298e+000
 1.355309353772107e+000	 2.218814222857275e+000	 9.845903984277667e+000
 1.332597861156142e+000	 2.232528373934845e+000	 9.785831846760534e+000
 1.309776635236893e+000	 2.245993135736240e+000	 9.736982733134925e+000
 1.286849706200797e+000	 2.259207346314407e+000	 9.702151166219391e+000
 1.263821116392817e+000	 2.272169928889913e+000	 9.684085425663596e+000
 1.240694918112283e+000	 2.284879891846162e+000	 9.674278063820495e+000
 1.217475171418949e+000	 2.297336328657668e+000	 9.650445029456757e+000
 1.194165941951533e+000	 2.309538417752123e+000	 9.622768007432045e+000
 1.436425602638232e+000	 2.197113216936987e+000	 1.011316212226510e+001
 1.413852352924566e+000	 2.211706699382753e+000	 1.005476251256551e+001
 1.391156203975419e+000	 2.226052428878257e+000	 9.995702489140191e+000
 1.368341174483492e+000	 2.240148975000236e+000	 9.938932513953402e+000
 1.345411302130819e+000	 2.253994992914973e+000	 9.887380297043860e+000
 1.322370641346921e+000	 2.267589223579708e+000	 9.843943789336313e+000
 1.299223261070027e+000	 2.280930493874819e+000	 9.811484292605847e+000
 1.275973242513798e+000	 2.294017716667222e+000	 9.792819703536429e+000
 1.252624676941988e+000	 2.306849890805548e+000	 9.790717908224508e+000
 1.229181663453380e+000	 2.319426101047722e+000	 9.778961176617321e+000
 1.205648306779377e+000	 2.331745517921702e+000	 9.758130209378047e+000
 1.450105846474784e+000	 2.218038104718671e+000	 1.018793612735261e+001
 1.427317613430390e+000	 2.232770572711484e+000	 1.014345171537501e+001
 1.404405310681609e+000	 2.247252928202105e+000	 1.009508639986786e+001
 1.381372995194407e+000	 2.261483727144197e+000	 1.004585230503941e+001
 1.358224743104934e+000	 2.275461611896103e+000	 9.998742219249396e+000
 1.334964647456323e+000	 2.289185311424177e+000	 9.956722369817285e+000
 1.311596815938596e+000	 2.302653641436229e+000	 9.922725312971583e+000
 1.288125368634117e+000	 2.315865504445530e+000	 9.899642956464756e+000
 1.264554435771055e+000	 2.328819889765935e+000	 9.890319731781730e+000
 1.240888155487230e+000	 2.341515873438777e+000	 9.888833561337764e+000
 1.217130671606725e+000	 2.353952618092280e+000	 9.872223872343239e+000
 1.463786090311330e+000	 2.238962992501355e+000	 1.029047959896917e+001
 1.440782873936023e+000	 2.253834446041212e+000	 1.025564707388319e+001
 1.417654417387455e+000	 2.268453427526952e+000	 1.021377845002395e+001
 1.394404815904855e+000	 2.282818479289158e+000	 1.016795221938999e+001
 1.371038184078486e+000	 2.296928230878231e+000	 1.012123089319060e+001
 1.347558653565099e+000	 2.310781399269645e+000	 1.007665355217521e+001
 1.323970370806506e+000	 2.324376788998640e+000	 1.003722851023627e+001
 1.300277494753773e+000	 2.337713292224839e+000	 1.000592610940623e+001
 1.276484194599485e+000	 2.350789888727322e+000	 9.985671663764883e+000
 1.252594647520499e+000	 2.363605645830832e+000	 9.979338569116131e+000
 1.228613036433577e+000	 2.376159718263858e+000	 9.965646244906685e+000
 1.477466334147870e+000	 2.259887880285039e+000	 1.042201864659313e+001
 1.454248134441466e+000	 2.274898319371942e+000	 1.039260440364180e+001
 1.430903524092956e+000	 2.289653926852800e+000	 1.035306154901185e+001
 1.407436636614834e+000	 2.304153231435119e+000	 1.030653967196260e+001
 1.383851625051477e+000	 2.318394849861361e+000	 1.025617567659407e+001
 1.360152659673249e+000	 2.332377487116113e+000	 1.020508610116182e+001
 1.336343925673756e+000	 2.346099936562051e+000	 1.015635954894083e+001
 1.312429620872765e+000	 2.359561080005148e+000	 1.011304924936762e+001
 1.288413953427277e+000	 2.372759887689710e+000	 1.007816576757790e+001
 1.264301139553186e+000	 2.385695418223887e+000	 1.005466987978912e+001
 1.240095401259933e+000	 2.398366818436436e+000	 1.003899760122683e+001
 1.491146577984406e+000	 2.280812768069723e+000	 1.058380464163269e+001
 1.467713394946719e+000	 2.295962192703671e+000	 1.055560218391000e+001
 1.444152630798113e+000	 2.310854426179648e+000	 1.051423874967231e+001
 1.420468457324345e+000	 2.325487983582081e+000	 1.046293977975815e+001
 1.396665066023905e+000	 2.339861468845490e+000	 1.040492126758065e+001
 1.372746665780774e+000	 2.353973574963581e+000	 1.034338184083206e+001
 1.348717480540346e+000	 2.367823084126461e+000	 1.028149495315435e+001
 1.324581746991095e+000	 2.381408867786456e+000	 1.022240120512723e+001
 1.300343712254433e+000	 2.394729886653097e+000	 1.016920081330387e+001
 1.276007631585292e+000	 2.407785190617942e+000	 1.012494624534662e+001
 1.251577766085793e+000	 2.420573918610014e+000	 1.009263503858528e+001
 1.504826821820936e+000	 2.301737655855408e+000	 1.077711306915629e+001
 1.481178655451783e+000	 2.317026066036402e+000	 1.074594052748567e+001
 1.457401737502926e+000	 2.332054925507497e+000	 1.069863233267266e+001
 1.433500278033387e+000	 2.346822735730042e+000	 1.063849455718270e+001
 1.409478506995772e+000	 2.361328087830619e+000	 1.056882700737487e+001
 1.385340671887672e+000	 2.375569662812049e+000	 1.049291506093952e+001
 1.361091035406278e+000	 2.389546231691873e+000	 1.041402161285936e+001
 1.336733873108761e+000	 2.403256655568767e+000	 1.033537914988160e+001
 1.312273471080952e+000	 2.416699885617484e+000	 1.026018197285601e+001
 1.287714123616817e+000	 2.429874963012997e+000	 1.019157858560634e+001
 1.263060130911157e+000	 2.442781018784593e+000	 1.013266426825970e+001
 1.148236482635196e+000	 2.220710017083810e+000	 8.856803205162480e+000
 1.125741633415527e+000	 2.232197521464456e+000	 8.720391085627483e+000
 1.103168569379458e+000	 2.243439124998900e+000	 8.587809730401718e+000
 1.080521203455544e+000	 2.254434281350881e+000	 8.460297122294548e+000
 1.057803445709805e+000	 2.265182524719623e+000	 8.339032793937223e+000
 1.035019201340097e+000	 2.275683469402266e+000	 8.225135282834790e+000
 1.012172368694828e+000	 2.285936809298536e+000	 8.119659758580239e+000
 9.892668373179073e-001	 2.295942317358883e+000	 8.023595825985460e+000
 9.663064860216958e-001	 2.305699844977406e+000	 7.937865507307389e+000
 9.432951809896925e-001	 2.315209321330897e+000	 7.863321406167443e+000
 9.202367739106159e-001	 2.324470752665467e+000	 7.800745055186858e+000
 1.159718847465025e+000	 2.242917117249388e+000	 9.083146211014974e+000
 1.136999049752618e+000	 2.254519496673615e+000	 8.957924394780410e+000
 1.114200255075764e+000	 2.265873516243221e+000	 8.836628665013857e+000
 1.091326415492304e+000	 2.276978624158587e+000	 8.720522615342063e+000
 1.068381480168917e+000	 2.287834349960926e+000	 8.610810329336079e+000
 1.045369393355437e+000	 2.298440304090351e+000	 8.508633757672252e+000
 1.022294092383755e+000	 2.308796177385585e+000	 8.415070271652184e+000
 9.991595056932207e-001	 2.318901740526581e+000	 8.331130396972142e+000
 9.759695508843156e-001	 2.328756843421378e+000	 8.257755731039408e+000
 9.527281328023738e-001	 2.338361414538538e+000	 8.195817046536778e+000
 9.294391416530002e-001	 2.347715460186632e+000	 8.146112583344845e+000
 1.171201212294357e+000	 2.265124217415967e+000	 9.285865010055057e+000
 1.148256466089302e+000	 2.276841471883772e+000	 9.169849407582959e+000
 1.125231940771734e+000	 2.288307907488541e+000	 9.057907240988957e+000
 1.102131627528776e+000	 2.299522966967292e+000	 8.951330231913284e+000
 1.078959514627770e+000	 2.310486175203229e+000	 8.851349455631636e+000
 1.055719585370526e+000	 2.321197138779436e+000	 8.759132637459592e+000
 1.032415816072421e+000	 2.331655545473632e+000	 8.675781629882827e+000
 1.009052174068241e+000	 2.341861163695277e+000	 8.602330074442385e+000
 9.856326157465907e-001	 2.351813841866350e+000	 8.539741251794137e+000
 9.621610846146402e-001	 2.361513507747179e+000	 8.488906122749604e+000
 9.386415093948795e-001	 2.370960167708796e+000	 8.450641562497843e+000
 1.182683577123193e+000	 2.287331317583545e+000	 9.465543190378439e+000
 1.159513882425580e+000	 2.299163447094930e+000	 9.356762807503198e+000
 1.136263626467366e+000	 2.310742298734863e+000	 9.252254790338242e+000
 1.112936839564960e+000	 2.322067309776998e+000	 9.153341520750042e+000
 1.089537549086364e+000	 2.333138000446533e+000	 9.061283521423754e+000
 1.066069777385366e+000	 2.343953973469521e+000	 8.977276668618533e+000
 1.042537539760825e+000	 2.354514913562680e+000	 8.902449590186265e+000
 1.018944842442968e+000	 2.364820586864975e+000	 8.837861253024329e+000
 9.952956806085219e-001	 2.374870840312322e+000	 8.784498743507145e+000
 9.715940364264912e-001	 2.384665600956820e+000	 8.743275243811617e+000
 9.478438771362536e-001	 2.394204875231962e+000	 8.715028206427366e+000
 1.194165941951533e+000	 2.309538417752123e+000	 9.622768007432045e+000
 1.170771298761452e+000	 2.321485422307088e+000	 9.519263398507814e+000
 1.147295312162661e+000	 2.333176689982184e+000	 9.420281244657645e+000
 1.123742051600856e+000	 2.344611652587703e+000	 9.327177135776719e+000
 1.100115583544699e+000	 2.355789825690836e+000	 9.241243513156519e+000
 1.076419969399954e+000	 2.366710808160607e+000	 9.163706795671676e+000
 1.052659263448967e+000	 2.377374281652728e+000	 9.095724695938344e+000
 1.028837510817402e+000	 2.387780010035671e+000	 9.038383730761170e+000
 1.004958745470109e+000	 2.397927838759294e+000	 8.992696929541019e+000
 9.810269882379279e-001	 2.407817694167462e+000	 8.959601743669614e+000
 9.570462448771225e-001	 2.417449582756126e+000	 8.939958159295355e+000
 1.205648306779377e+000	 2.331745517921702e+000	 9.758130209378047e+000
 1.182028715096917e+000	 2.343807397520245e+000	 9.657952004086067e+000
 1.158326997857619e+000	 2.355611081230504e+000	 9.562597106576344e+000
 1.134547263636464e+000	 2.367155995399408e+000	 9.473456878710637e+000
 1.110693618002774e+000	 2.378441650936139e+000	 9.391858167601971e+000
 1.086770161414292e+000	 2.389467642852691e+000	 9.319060342285244e+000
 1.062780987136847e+000	 2.400233649743777e+000	 9.256252525240408e+000
 1.038730179191542e+000	 2.410739433207368e+000	 9.204551023234387e+000
 1.014621810331352e+000	 2.420984837207266e+000	 9.164996961284032e+000
 9.904599400489497e-001	 2.430969787379103e+000	 9.138554122881475e+000
 9.662486126174865e-001	 2.440694290281291e+000	 9.126106998959502e+000
 1.217130671606725e+000	 2.353952618092280e+000	 9.872223872343239e+000
 1.193286131431976e+000	 2.366129372734403e+000	 9.773431371989100e+000
 1.169358683552240e+000	 2.378045472479826e+000	 9.679813422821018e+000
 1.145352475671785e+000	 2.389700338212114e+000	 9.592799739260624e+000
 1.121271652460591e+000	 2.401093476182442e+000	 9.513754077976691e+000
 1.097120353428380e+000	 2.412224477545776e+000	 9.443971182064235e+000
 1.072902710824466e+000	 2.423093017835825e+000	 9.384673925130512e+000
 1.048622847565390e+000	 2.433698856380066e+000	 9.337010659906085e+000
 1.024284875192251e+000	 2.444041835656238e+000	 9.302052775318602e+000
 9.998928918595562e-001	 2.454121880591744e+000	 9.280792465285005e+000
 9.754509803573452e-001	 2.463938997807456e+000	 9.274140711798882e+000
 1.228613036433577e+000	 2.376159718263858e+000	 9.965646244906685e+000
 1.204543547766628e+000	 2.388451347949561e+000	 9.866306084311438e+000
 1.180390369246525e+000	 2.400479863730146e+000	 9.772541758790796e+000
 1.156157687706817e+000	 2.412244681025820e+000	 9.685823933071116e+000
 1.131849686918147e+000	 2.423745301429745e+000	 9.607555794107840e+000
 1.107470545442217e+000	 2.434981312239862e+000	 9.539069899770247e+000
 1.083024434511822e+000	 2.445952385928873e+000	 9.481625232660850e+000
 1.058515515938944e+000	 2.456658279553762e+000	 9.436404463844477e+000
 1.033947940052805e+000	 2.467098834106210e+000	 9.404511430561952e+000
 1.009325843669748e+000	 2.477273973805384e+000	 9.386968831302895e+000
 9.846533480966987e-001	 2.487183705334621e+000	 9.384716140913776e+000
 1.240095401259933e+000	 2.398366818436436e+000	 1.003899760122683e+001
 1.215800964100875e+000	 2.410773323165718e+000	 9.937182472567391e+000
 1.191422054940472e+000	 2.422914254981468e+000	 9.841394174544790e+000
 1.166962899741561e+000	 2.434789023840525e+000	 9.753146937558668e+000
 1.142427721375445e+000	 2.446397126678048e+000	 9.673885917034669e+000
 1.117820737455804e+000	 2.457738146934947e+000	 9.604983943582724e+000
 1.093146158198917e+000	 2.468811754022922e+000	 9.547738483693671e+000
 1.068408184312206e+000	 2.479617702728460e+000	 9.503368815908415e+000
 1.043611004913016e+000	 2.490155832557182e+000	 9.473013426676268e+000
 1.018758795479525e+000	 2.500426067020026e+000	 9.453350352647483e+000
 9.938557158355471e-001	 2.510428412862785e+000	 9.316158437335959e+000
 1.251577766085793e+000	 2.420573918610014e+000	 1.009263503858528e+001
 1.227058380434714e+000	 2.433095298382876e+000	 9.986668537442570e+000
 1.202453740634082e+000	 2.445348646233789e+000	 9.886983202111013e+000
 1.177768111776018e+000	 2.457333366656231e+000	 9.795385525775508e+000
 1.153005755832484e+000	 2.469048951927352e+000	 9.713365188402308e+000
 1.128170929469140e+000	 2.480494981631032e+000	 9.642337768978864e+000
 1.103267881885750e+000	 2.491671122117969e+000	 9.583641610203413e+000
 1.078300852685174e+000	 2.502577125904156e+000	 9.532939792043385e+000
 1.053274069772882e+000	 2.513212831009154e+000	 9.436131981648853e+000
 1.028191747288888e+000	 2.523578160235667e+000	 9.286432262559904e+000
 1.003058083573891e+000	 2.533673120391951e+000	 9.085875091078325e+000
 1.263060130911157e+000	 2.442781018784593e+000	 1.013266426825970e+001
 1.238315796768149e+000	 2.455417273601034e+000	 1.001537387292251e+001
 1.213485426327356e+000	 2.467783037487111e+000	 9.909921824033415e+000
 1.188573323810187e+000	 2.479877709472937e+000	 9.813155798426154e+000
 1.163583790289265e+000	 2.491700777177656e+000	 9.726612574979827e+000
 1.138521121482226e+000	 2.503251816328117e+000	 9.670505542786239e+000
 1.113389605572322e+000	 2.514530490214019e+000	 9.627451384093462e+000
 1.088193521057850e+000	 2.525536549080854e+000	 9.525623384222612e+000
 1.062937134632405e+000	 2.536269829462127e+000	 9.367057697777781e+000
 1.037624699097835e+000	 2.546730253452309e+000	 9.153809921035098e+000
 1.012260451311729e+000	 2.556917827922117e+000	 8.887952022336020e+000
 9.202367739106159e-001	 2.324470752665467e+000	 7.800745055186858e+000
 8.971351001457416e-001	 2.333484221532295e+000	 7.734577934877150e+000
 8.739939769303398e-001	 2.342249885973674e+000	 7.643911357438018e+000
 8.508172016108214e-001	 2.350767978661281e+000	 7.529027957149675e+000
 8.276085499197395e-001	 2.359038805988396e+000	 7.390172682872314e+000
 8.043717742891899e-001	 2.367062747117389e+000	 7.227551778793633e+000
 7.811106022040244e-001	 2.374840252984292e+000	 7.041331906203210e+000
 7.578287345960116e-001	 2.382371845262165e+000	 6.831639405849160e+000
 7.345298442800076e-001	 2.389658115285039e+000	 6.598559700001297e+000
 7.112175744331116e-001	 2.396699722934155e+000	 6.342136832928490e+000
 6.878955371177123e-001	 2.403497395488342e+000	 6.062373148094822e+000
 9.294391416530002e-001	 2.347715460186632e+000	 8.146112583344845e+000
 9.061064511509912e-001	 2.356819063742346e+000	 8.081795589950136e+000
 8.827339167038776e-001	 2.365672384828394e+000	 8.004104799483148e+000
 8.593253736315348e-001	 2.374275658443167e+000	 7.913394980421680e+000
 8.358846354238423e-001	 2.382629194043878e+000	 7.809971064459807e+000
 8.124154920372165e-001	 2.390733374584523e+000	 7.694087193951281e+000
 7.889217082313587e-001	 2.398588655510490e+000	 7.565945926771885e+000
 7.654070219473557e-001	 2.406195563711574e+000	 7.425697597747930e+000
 7.418751427282125e-001	 2.413554696435142e+000	 7.273439835342100e+000
 7.183297501827994e-001	 2.420666720161248e+000	 7.109217231842578e+000
 6.947744924941302e-001	 2.427532369441510e+000	 6.933021164876131e+000
 9.386415093948795e-001	 2.370960167708796e+000	 8.450641562497843e+000
 9.150778021556407e-001	 2.380153905953393e+000	 8.391502717049535e+000
 8.914738564767309e-001	 2.389094883684093e+000	 8.329968282954976e+000
 8.678335456514892e-001	 2.397783338226005e+000	 8.266466219218021e+000
 8.441607209271217e-001	 2.406219582100279e+000	 8.201362539735733e+000
 8.204592097843656e-001	 2.414404002052529e+000	 8.134960424979679e+000
 7.967328142577711e-001	 2.422337058037504e+000	 8.067499507529284e+000
 7.729853092977437e-001	 2.430019282161732e+000	 7.999155330206198e+000
 7.492204411754364e-001	 2.437451277585918e+000	 7.930038975065546e+000
 7.254419259314923e-001	 2.444633717388931e+000	 7.860196861035121e+000
 7.016534478695476e-001	 2.451567343395171e+000	 7.789610707538555e+000
 9.478438771362536e-001	 2.394204875231962e+000	 8.715028206427366e+000
 9.240491531596904e-001	 2.403488748165434e+000	 8.664268265872389e+000
 9.002137962488996e-001	 2.412517382540771e+000	 8.621949624395462e+000
 8.763417176706848e-001	 2.421291018009799e+000	 8.588574518141284e+000
 8.524368064295773e-001	 2.429809970157597e+000	 8.564571168480264e+000
 8.285029275306370e-001	 2.438074629521406e+000	 8.550292955489308e+000
 8.045439202832618e-001	 2.446085460565335e+000	 8.546017781772008e+000
 7.805635966471756e-001	 2.453843000612641e+000	 8.551947624962962e+000
 7.565657396216801e-001	 2.461347858737370e+000	 8.568208276748424e+000
 7.325541016791896e-001	 2.468600714617200e+000	 8.594849265735389e+000
 7.085324032439653e-001	 2.475602317349326e+000	 8.631843961027277e+000
 9.570462448771225e-001	 2.417449582756126e+000	 8.939958159295355e+000
 9.330205041631401e-001	 2.426823590378469e+000	 8.900654604269931e+000
 9.089537360203834e-001	 2.435939881398428e+000	 8.880493829510748e+000
 8.848498896891212e-001	 2.444798697794545e+000	 8.880053464901705e+000
 8.607128919312100e-001	 2.453400358215833e+000	 8.899825090286869e+000
 8.365466452760307e-001	 2.461745256991155e+000	 8.940213468337513e+000
 8.123550263078306e-001	 2.469833863093982e+000	 9.001535984298089e+000
 7.881418839956511e-001	 2.477666719064299e+000	 9.084022290560251e+000
 7.639110380669429e-001	 2.485244439889494e+000	 9.187814153470914e+000
 7.396662774258919e-001	 2.492567711846060e+000	 9.312965499253853e+000
 7.154113586173831e-001	 2.499637291303976e+000	 9.459442655424866e+000
 9.662486126174865e-001	 2.440694290281291e+000	 9.126106998959502e+000
 9.419918551659895e-001	 2.450158432592499e+000	 9.101217831668587e+000
 9.176936757911829e-001	 2.459362380257065e+000	 9.106043227020837e+000
 8.933580617067983e-001	 2.468306377580246e+000	 9.141237354930828e+000
 8.689889774320192e-001	 2.476990746274987e+000	 9.207356330286123e+000
 8.445903630205469e-001	 2.485415884461776e+000	 9.304857502806875e+000
 8.201661323314775e-001	 2.493582265623445e+000	 9.434098970383175e+000
 7.957201713431706e-001	 2.501490437516709e+000	 9.531704481420491e+000
 7.712563365112256e-001	 2.509141021042295e+000	 9.364558772491833e+000
 7.467784531715992e-001	 2.516534709075509e+000	 9.184999338242459e+000
 7.222903139898008e-001	 2.523672265259119e+000	 8.994832451315457e+000
 9.754509803573452e-001	 2.463938997807456e+000	 9.274140711798882e+000
 9.509632061682393e-001	 2.473493274807525e+000	 9.266508074750515e+000
 9.264336155612976e-001	 2.482784879116681e+000	 9.299037594932427e+000
 9.018662337237166e-001	 2.491814057366900e+000	 9.372461157998455e+000
 8.772650629320052e-001	 2.500581134335059e+000	 9.469703349519811e+000
 8.526340807641855e-001	 2.509086511933270e+000	 9.335043487638380e+000
 8.279772383542029e-001	 2.517330668153723e+000	 9.190746251506130e+000
 8.032984586897338e-001	 2.525314155969867e+000	 9.038741205365195e+000
 7.786016349545272e-001	 2.533037602195769e+000	 8.880928521704414e+000
 7.538906289163110e-001	 2.540501706305546e+000	 8.719177085880030e+000
 7.291692693612184e-001	 2.547707239214755e+000	 8.555322698510663e+000
 9.846533480966987e-001	 2.487183705334621e+000	 9.384716140913776e+000
 9.599345571698887e-001	 2.496828117023545e+000	 9.397069766553816e+000
 9.351735553307278e-001	 2.506207377977277e+000	 9.323440162958189e+000
 9.103744057398758e-001	 2.515321737154508e+000	 9.183411241898392e+000
 8.855411484311674e-001	 2.524171522396048e+000	 9.037834736495894e+000
 8.606777985069464e-001	 2.532757139405634e+000	 8.888767763096986e+000
 8.357883443760058e-001	 2.541079070684818e+000	 8.738233172332416e+000
 8.108767460353409e-001	 2.549137874423776e+000	 8.588217519022297e+000
 7.859469333968487e-001	 2.556934183349918e+000	 8.440669138028207e+000
 7.610028046600279e-001	 2.564468703536173e+000	 8.297496327294095e+000
 7.360482247316361e-001	 2.571742213170885e+000	 8.160565639020533e+000
 9.938557158355471e-001	 2.510428412862785e+000	 9.316158437335959e+000
 9.689059081709385e-001	 2.520162959240560e+000	 9.149176191510843e+000
 9.439134950994733e-001	 2.529629876838852e+000	 8.980127972413294e+000
 9.188825777552759e-001	 2.538829416943069e+000	 8.811226489392029e+000
 8.938172339295064e-001	 2.547761910457955e+000	 8.644645605683488e+000
 8.687215162488298e-001	 2.556427766878871e+000	 8.482518133211897e+000
 8.435994503968872e-001	 2.564827473216728e+000	 8.326933741493962e+000
 8.184550333799922e-001	 2.572961592878435e+000	 8.179936982214585e+000
 7.932922318381895e-001	 2.580830764504741e+000	 8.043525430720649e+000
 7.681149804027495e-001	 2.588435700767387e+000	 7.919647945362558e+000
 7.429271801010537e-001	 2.595777187127509e+000	 7.810203045303902e+000
 1.003058083573891e+000	 2.533673120391951e+000	 9.085875091078325e+000
 9.778772591713881e-001	 2.543497801458570e+000	 8.876448757028840e+000
 9.526534348675341e-001	 2.553052375701406e+000	 8.672488752315138e+000
 9.273907497699170e-001	 2.562337096732584e+000	 8.476302065295377e+000
 9.020933194270221e-001	 2.571352298520781e+000	 8.290147963156606e+000
 8.767652339898353e-001	 2.580098394352981e+000	 8.116235816636831e+000
 8.514105564168467e-001	 2.588575875749455e+000	 7.956723050351910e+000
 8.260333207236869e-001	 2.596785311333844e+000	 7.813713220022574e+000
 8.006375302785497e-001	 2.604727345660237e+000	 7.689254217558382e+000
 7.752271561444761e-001	 2.612402697999191e+000	 7.585336604621073e+000
 7.498061354694716e-001	 2.619812161084627e+000	 7.503892074966546e+000
 1.012260451311729e+000	 2.556917827922117e+000	 8.887952022336020e+000
 9.868486101712383e-001	 2.566832643677576e+000	 8.637897278939844e+000
 9.613933746349105e-001	 2.576474874564940e+000	 8.400687933610982e+000
 9.358989217837993e-001	 2.585844776523053e+000	 8.178725977747204e+000
 9.103694049237148e-001	 2.594942686584524e+000	 7.974356880479010e+000
 8.848089517299635e-001	 2.603769021827962e+000	 7.789867441394301e+000
 8.592216624358849e-001	 2.612324278282999e+000	 7.627483780331981e+000
 8.336116080664260e-001	 2.620609029790004e+000	 7.489369465272509e+000
 8.079828287179296e-001	 2.628623926816410e+000	 7.377623778995434e+000
 7.823393318852077e-001	 2.636369695231585e+000	 7.294280124824180e+000
 7.566850908368894e-001	 2.643847135042238e+000	 7.241304571436139e+000
 6.878955371177123e-001	 2.403497395488342e+000	 6.062373148094822e+000
 6.645673118488593e-001	 2.410051926439911e+000	 5.801321463095600e+000
 6.412364442077186e-001	 2.416364174279133e+000	 5.655894326016193e+000
 6.179064445013768e-001	 2.422435061248221e+000	 5.615098362744305e+000
 5.945807864685845e-001	 2.428265572065930e+000	 5.601530180531977e+000
 5.712629060330331e-001	 2.433856752625838e+000	 5.601160663376763e+000
 5.479562001042996e-001	 2.439209708669709e+000	 5.608430835288792e+000
 5.246640254268117e-001	 2.444325604437782e+000	 5.618128988511993e+000
 5.013896974771256e-001	 2.449205661297807e+000	 5.625393407054472e+000
 4.781364894097321e-001	 2.453851156354649e+000	 5.625714258034302e+000
 4.549076310515292e-001	 2.458263421042266e+000	 5.614934669086637e+000
 6.947744924941302e-001	 2.427532369441510e+000	 6.933021164876131e+000
 6.712129849723891e-001	 2.434152445703129e+000	 6.808898073049182e+000
 6.476488086545391e-001	 2.440527816021247e+000	 6.791641334042141e+000
 6.240855089507384e-001	 2.446659411860499e+000	 6.880088191877853e+000
 6.005265943371260e-001	 2.452548227786828e+000	 7.000296266429928e+000
 5.769755350966310e-001	 2.458195320152748e+000	 7.116250585085715e+000
 5.534357621079269e-001	 2.463601805757440e+000	 7.222176797770205e+000
 5.299106656828870e-001	 2.468768860483547e+000	 7.312672723244176e+000
 5.064035944528335e-001	 2.473697717912495e+000	 7.382710939192154e+000
 4.829178543038030e-001	 2.478389667920199e+000	 7.427640502395088e+000
 4.594567073609638e-001	 2.482846055254957e+000	 7.443187818413858e+000
 7.016534478695476e-001	 2.451567343395171e+000	 7.789610707538555e+000
 6.778586580949291e-001	 2.458252964966745e+000	 7.799138443474258e+000
 6.540611731004010e-001	 2.464691457763677e+000	 7.907043922626142e+000
 6.302645733991933e-001	 2.470883762473018e+000	 8.112920733393345e+000
 6.064724022048327e-001	 2.476830883507902e+000	 8.369780973004644e+000
 5.826881641594863e-001	 2.482533887679780e+000	 8.604474701415885e+000
 5.589153241109239e-001	 2.487993902845249e+000	 8.811458686034850e+000
 5.351573059384638e-001	 2.493212116529355e+000	 8.985133915411389e+000
 5.114174914281945e-001	 2.498189774527202e+000	 9.120301184942015e+000
 4.876992191976983e-001	 2.502928179485755e+000	 8.977114207412425e+000
 4.640057836704129e-001	 2.507428689467647e+000	 8.664805068687585e+000
 7.085324032439653e-001	 2.475602317349326e+000	 8.631843961027277e+000
 6.845043312164796e-001	 2.482353484230761e+000	 8.771830621941245e+000
 6.604735375453047e-001	 2.488855099506419e+000	 9.001970451291463e+000
 6.364436378467412e-001	 2.495108113085776e+000	 9.321839188142848e+000
 6.124182100717045e-001	 2.501113539229152e+000	 9.628157396042898e+000
 5.884007932215989e-001	 2.506872455206933e+000	 9.549083415465843e+000
 5.643948861132904e-001	 2.512385999933136e+000	 9.416346687067422e+000
 5.404039461935422e-001	 2.517655372575207e+000	 9.237920195282067e+000
 5.164313884032087e-001	 2.522681831141930e+000	 9.021107238931087e+000
 4.924805840914177e-001	 2.527466691051314e+000	 8.772541571969986e+000
 4.685548599798770e-001	 2.532011323680339e+000	 8.498189001047281e+000
 7.154113586173831e-001	 2.499637291303976e+000	 9.459442655424866e+000
 6.911500043370404e-001	 2.506454003495176e+000	 9.345789437947891e+000
 6.668859019892492e-001	 2.513018741249476e+000	 9.257524758499464e+000
 6.426227022933821e-001	 2.519332463698774e+000	 9.216246817227221e+000
 6.183640179377414e-001	 2.525396194950578e+000	 9.217330665040427e+000
 5.941134222829687e-001	 2.531211022734208e+000	 9.180040658822785e+000
 5.698744481150263e-001	 2.536778097021101e+000	 9.086597472806655e+000
 5.456505864481219e-001	 2.542098628621103e+000	 8.945304292761025e+000
 5.214452853778759e-001	 2.547173887756675e+000	 8.763777110671040e+000
 4.972619489849617e-001	 2.552005202616879e+000	 8.548944702254495e+000
 4.731039362893555e-001	 2.556593957893029e+000	 8.307050104813976e+000
 7.222903139898008e-001	 2.523672265259119e+000	 8.994832451315457e+000
 6.977956774566120e-001	 2.530554522759990e+000	 8.897656643743883e+000
 6.732982664322361e-001	 2.537182382992848e+000	 8.836076101041813e+000
 6.488017667391163e-001	 2.543556814312013e+000	 8.811686882349404e+000
 6.243098258029436e-001	 2.549678850672180e+000	 8.825889225041406e+000
 5.998260513435958e-001	 2.555549590261605e+000	 8.821973815921362e+000
 5.753540101161317e-001	 2.561170194109143e+000	 8.759962975201441e+000
 5.508972267022031e-001	 2.566541884667042e+000	 8.648497933866523e+000
 5.264591823521964e-001	 2.571665944371441e+000	 8.495514463948432e+000
 5.020433138783298e-001	 2.576543714182449e+000	 8.308242695673163e+000
 4.776530125988488e-001	 2.581176592105721e+000	 8.093208479663998e+000
 7.291692693612184e-001	 2.547707239214755e+000	 8.555322698510663e+000
 7.044413505751935e-001	 2.554655042025202e+000	 8.490536452171028e+000
 6.797106308742640e-001	 2.561346024736534e+000	 8.451724152560338e+000
 6.549808311839437e-001	 2.567781164925491e+000	 8.440506800042039e+000
 6.302556336673104e-001	 2.573961506393957e+000	 8.458443050004048e+000
 6.055386804034801e-001	 2.579888157789124e+000	 8.477199874981888e+000
 5.808335721166065e-001	 2.585562291197262e+000	 8.438658867875601e+000
 5.561438669557858e-001	 2.590985140713024e+000	 8.349615453493373e+000
 5.314730793261701e-001	 2.596158000986225e+000	 8.218332396748139e+000
 5.068246787715222e-001	 2.601082225748022e+000	 8.052347636149275e+000
 4.822020889083566e-001	 2.605759226318411e+000	 7.858475534366146e+000
 7.360482247316361e-001	 2.571742213170885e+000	 8.160565639020533e+000
 7.110870236927857e-001	 2.578755561290814e+000	 8.124138047246467e+000
 6.861229953153335e-001	 2.585509666480533e+000	 8.104256499152982e+000
 6.611598956278639e-001	 2.592005515539210e+000	 8.102567433332501e+000
 6.362014415308428e-001	 2.598244162115910e+000	 8.120662227566491e+000
 6.112513094626219e-001	 2.604226725316765e+000	 8.148037567442417e+000
 5.863131341164509e-001	 2.609954388285460e+000	 8.124900153725871e+000
 5.613905072088702e-001	 2.615428396759051e+000	 8.050768306872826e+000
 5.364869762997969e-001	 2.620650057601029e+000	 7.934239122680362e+000
 5.116060436645389e-001	 2.625620737313602e+000	 7.783164921854461e+000
 4.867511652178794e-001	 2.630341860531103e+000	 7.604654392898858e+000
 7.429271801010537e-001	 2.595777187127509e+000	 7.810203045303902e+000
 7.177326968093882e-001	 2.602856080556824e+000	 7.798183450607674e+000
 6.925353597554443e-001	 2.609673308224849e+000	 7.793470474963312e+000
 6.673389600708776e-001	 2.616229866153168e+000	 7.797736501144067e+000
 6.421472493935400e-001	 2.622526817838040e+000	 7.812606004794675e+000
 6.169639385210209e-001	 2.628565292844528e+000	 7.836807287254673e+000
 5.917926961156648e-001	 2.634346485373736e+000	 7.820901195975260e+000
 5.666371474614558e-001	 2.639871652805121e+000	 7.754065202891258e+000
 5.415008732730768e-001	 2.645142114215853e+000	 7.645238197109380e+000
 5.163874085573799e-001	 2.650159248879186e+000	 7.502593574734731e+000
 4.913002415274165e-001	 2.654924494743793e+000	 7.333540278005684e+000
 7.498061354694716e-001	 2.619812161084627e+000	 7.503892074966546e+000
 7.243783699250013e-001	 2.626956599823234e+000	 7.512406932630767e+000
 6.989477241945968e-001	 2.633836949969477e+000	 7.519172715022481e+000
 6.735180245129840e-001	 2.640454216767367e+000	 7.525888263805020e+000
 6.480930572554026e-001	 2.646809473560346e+000	 7.534211539279275e+000
 6.226765675786771e-001	 2.652903860372412e+000	 7.545831014621108e+000
 5.972722581142479e-001	 2.658738582462089e+000	 7.528875747514581e+000
 5.718837877135431e-001	 2.664314908851234e+000	 7.461612230068337e+000
 5.465147702460100e-001	 2.669634170830696e+000	 7.353328730834551e+000
 5.211687734500450e-001	 2.674697760444775e+000	 7.212526532997743e+000
 4.958493178369686e-001	 2.679507128956484e+000	 7.046920873636538e+000
 7.566850908368894e-001	 2.643847135042238e+000	 7.241304571436139e+000
 7.310240430396248e-001	 2.651057119090043e+000	 7.266554455669716e+000
 7.053600886327910e-001	 2.658000591714422e+000	 7.281178732481410e+000
 6.796970889541841e-001	 2.664678567381807e+000	 7.286903225711994e+000
 6.540388651164302e-001	 2.671092129282827e+000	 7.285419778151444e+000
 6.283891966355909e-001	 2.677242427900419e+000	 7.278384844556782e+000
 6.027518201122010e-001	 2.683130679550521e+000	 7.251036978645752e+000
 5.771304279651321e-001	 2.688758164897392e+000	 7.175512975665297e+000
 5.515286672185965e-001	 2.694126227445559e+000	 7.060505592115931e+000
 5.259501383425347e-001	 2.699236272010369e+000	 6.914850927646164e+000
 5.003983941465354e-001	 2.704089763169176e+000	 6.746576667621003e+000
 4.549076310515292e-001	 2.458263421042266e+000	 5.614934669086637e+000
 4.317063079453936e-001	 2.462443839700501e+000	 5.673648849521706e+000
 4.085356604418978e-001	 2.466393848136456e+000	 5.743409460033690e+000
 3.853987828395767e-001	 2.470114932173584e+000	 5.821088998386673e+000
 3.622987225744604e-001	 2.473608626191484e+000	 5.903882116223410e+000
 3.392384794576842e-001	 2.476876511656140e+000	 5.989303571687614e+000
 3.162210049612340e-001	 2.479920215642903e+000	 6.075185527298535e+000
 2.932492015515172e-001	 2.482741409353889e+000	 6.159674219169779e+000
 2.703259220703973e-001	 2.485341806631373e+000	 6.241226024517740e+000
 2.474539691632788e-001	 2.487723162468773e+000	 6.318602955150233e+000
 2.246360947537655e-001	 2.489887271520747e+000	 6.390867605255161e+000
 4.594567073609638e-001	 2.482846055254957e+000	 7.443187818413858e+000
 4.360233710227999e-001	 2.487068278099993e+000	 7.518713857804560e+000
 4.126210170435670e-001	 2.491057786620465e+000	 7.584189083477840e+000
 3.892527706647824e-001	 2.494816081498056e+000	 7.636447696829216e+000
 3.659217097968348e-001	 2.498344712456170e+000	 7.672671255837646e+000
 3.426308642489678e-001	 2.501645276775445e+000	 7.583531969014119e+000
 3.193832150078855e-001	 2.504719417801990e+000	 7.404326872056106e+000
 2.961816935646566e-001	 2.507568823449939e+000	 7.250651064364184e+000
 2.730291812895607e-001	 2.510195224699992e+000	 7.122929718496661e+000
 2.499285088544538e-001	 2.512600394095503e+000	 7.021001976221082e+000
 2.268824557021734e-001	 2.514786144237676e+000	 6.944134586955983e+000
 4.640057836704129e-001	 2.507428689467647e+000	 8.664805068687585e+000
 4.403404341004001e-001	 2.511692716499485e+000	 8.434985245845661e+000
 4.167063736455675e-001	 2.515721725104473e+000	 8.214824476555350e+000
 3.931067584904162e-001	 2.519517230822531e+000	 8.008073289961709e+000
 3.695446970196927e-001	 2.523080798720857e+000	 7.817828013022218e+000
 3.460232490407508e-001	 2.526414041894752e+000	 7.646539411692964e+000
 3.225454250550116e-001	 2.529518619961077e+000	 7.496022477613357e+000
 2.991141855782062e-001	 2.532396237545989e+000	 7.367467305348264e+000
 2.757324405090309e-001	 2.535048642768612e+000	 7.261451004060328e+000
 2.524030485457932e-001	 2.537477625722233e+000	 7.177950586512344e+000
 2.291288166505648e-001	 2.539685016954604e+000	 7.116356777532658e+000
 4.685548599798770e-001	 2.532011323680339e+000	 8.498189001047281e+000
 4.446574971781941e-001	 2.536317154898977e+000	 8.312137568110899e+000
 4.207917302478996e-001	 2.540385663588481e+000	 8.131838635085737e+000
 3.969607463164778e-001	 2.544218380147005e+000	 7.961269484233019e+000
 3.731676842430345e-001	 2.547816884985543e+000	 7.803737988173626e+000
 3.494156338330328e-001	 2.551182807014058e+000	 7.661891277591214e+000
 3.257076351026121e-001	 2.554317822120163e+000	 7.537725588640732e+000
 3.020466775921660e-001	 2.557223651642039e+000	 7.432597233851735e+000
 2.784356997288076e-001	 2.559902060837231e+000	 7.347234639081474e+000
 2.548775882372969e-001	 2.562354857348963e+000	 7.281751388057485e+000
 2.313751775989394e-001	 2.564583889671531e+000	 7.235660215251100e+000
 4.731039362893555e-001	 2.556593957893029e+000	 8.307050104813976e+000
 4.489745602561820e-001	 2.560941593298469e+000	 8.159153469959247e+000
 4.248770868505629e-001	 2.565049602072488e+000	 8.013736955640034e+000
 4.008147341429674e-001	 2.568919529471479e+000	 7.875007674731285e+000
 3.767906714668599e-001	 2.572552971250230e+000	 7.746487379261140e+000
 3.528080186258139e-001	 2.575951572133364e+000	 7.631021164711440e+000
 3.288698451506871e-001	 2.579117024279251e+000	 7.530787389192387e+000
 3.049791696065360e-001	 2.582051065738089e+000	 7.447308749958206e+000
 2.811389589488911e-001	 2.584755478905851e+000	 7.381464458455771e+000
 2.573521279289648e-001	 2.587232088975693e+000	 7.333503454041208e+000
 2.336215385472976e-001	 2.589482762388461e+000	 7.303058595661543e+000
 4.776530125988488e-001	 2.581176592105721e+000	 8.093208479663998e+000
 4.532916233343635e-001	 2.585566031697960e+000	 7.977774138559737e+000
 4.289624434535578e-001	 2.589713540556496e+000	 7.862180614528559e+000
 4.046687219698851e-001	 2.593620678795953e+000	 7.750868036267056e+000
 3.804136586911692e-001	 2.597289057514916e+000	 7.647574472447595e+000
 3.562004034190940e-001	 2.600720337252670e+000	 7.555344682682939e+000
 3.320320551992365e-001	 2.603916226438336e+000	 7.476540119494426e+000
 3.079116616213161e-001	 2.606878479834139e+000	 7.412850122390843e+000
 2.838422181692811e-001	 2.609608896974470e+000	 7.365304243834693e+000
 2.598266676207969e-001	 2.612109320602423e+000	 7.334285645777880e+000
 2.358678994956391e-001	 2.614381635105389e+000	 7.319545504574360e+000
 4.822020889083566e-001	 2.605759226318411e+000	 7.858475534366146e+000
 4.576086864127388e-001	 2.610190470097453e+000	 7.769729854933903e+000
 4.330478000568840e-001	 2.614377479040504e+000	 7.678817931027328e+000
 4.085227097972305e-001	 2.618321828120427e+000	 7.590416198516585e+000
 3.840366459159620e-001	 2.622025143779603e+000	 7.508481581757637e+000
 3.595927882128733e-001	 2.625489102371976e+000	 7.436260301269804e+000
 3.351942652482605e-001	 2.628715428597424e+000	 7.376297969521067e+000
 3.108441536365066e-001	 2.631705893930189e+000	 7.330450914520380e+000
 2.865454773899778e-001	 2.634462315043089e+000	 7.299898669533419e+000
 2.623012073127933e-001	 2.636986552229153e+000	 7.285157566101407e+000
 2.381142604439641e-001	 2.639280507822317e+000	 7.286095366632083e+000
 4.867511652178794e-001	 2.630341860531103e+000	 7.604654392898858e+000
 4.619257494913080e-001	 2.634814908496944e+000	 7.536740503589186e+000
 4.371331566605418e-001	 2.639041417524512e+000	 7.465284968173822e+000
 4.123766976250038e-001	 2.643022977444900e+000	 7.395203925701175e+000
 3.876596331412386e-001	 2.646761230044289e+000	 7.330675795438714e+000
 3.629851730071516e-001	 2.650257867491282e+000	 7.275150151299523e+000
 3.383564752977588e-001	 2.653514630756510e+000	 7.231357922464948e+000
 3.137766456521071e-001	 2.656533308026239e+000	 7.201322858446654e+000
 2.892487366109812e-001	 2.659315733111709e+000	 7.186374195396778e+000
 2.647757470049540e-001	 2.661863783855882e+000	 7.187160459294700e+000
 2.403606213922725e-001	 2.664179380539246e+000	 7.203664340691654e+000
 4.913002415274165e-001	 2.654924494743793e+000	 7.333540278005684e+000
 4.662428125700708e-001	 2.659439346896436e+000	 7.280516053838640e+000
 4.412185132645307e-001	 2.663705356008520e+000	 7.223206100185345e+000
 4.162306854532054e-001	 2.667724126769375e+000	 7.166769758506499e+000
 3.912826203669990e-001	 2.671497316308976e+000	 7.115609680858516e+000
 3.663775578019290e-001	 2.675026632610588e+000	 7.073380781094659e+000
 3.415186853477317e-001	 2.678313832915596e+000	 7.043000551346832e+000
 3.167091376681179e-001	 2.681360722122289e+000	 7.026660680520643e+000
 2.919519958322911e-001	 2.684169151180329e+000	 7.025839910062131e+000
 2.672502866972790e-001	 2.686741015482613e+000	 7.041318061021866e+000
 2.426069823405643e-001	 2.689078253256174e+000	 7.073191165462215e+000
 4.958493178369686e-001	 2.679507128956484e+000	 7.046920873636538e+000
 4.705598756490275e-001	 2.684063785295928e+000	 7.002757014627020e+000
 4.453038698688512e-001	 2.688369294492528e+000	 6.954194548643542e+000
 4.200846732818347e-001	 2.692425276093848e+000	 6.906639620667130e+000
 3.949056075932431e-001	 2.696233402573662e+000	 6.864721950600305e+000
 3.697699425972056e-001	 2.699795397729895e+000	 6.832303871267406e+000
 3.446808953981790e-001	 2.703113035074684e+000	 6.812490771776300e+000
 3.196416296845388e-001	 2.706188136218339e+000	 6.807642881424593e+000
 2.946552550539079e-001	 2.709022569248949e+000	 6.819388327803278e+000
 2.697248263897681e-001	 2.711618247109342e+000	 6.848637401476533e+000
 2.448533432888395e-001	 2.713977125973103e+000	 6.895597958594497e+000
 5.003983941465354e-001	 2.704089763169176e+000	 6.746576667621003e+000
 4.748769387281781e-001	 2.708688223695421e+000	 6.705154864546597e+000
 4.493892264735033e-001	 2.713033232976536e+000	 6.659852889432457e+000
 4.239386611108921e-001	 2.717126425418323e+000	 6.616327392463618e+000
 3.985285948199710e-001	 2.720969488838350e+000	 6.579438092225996e+000
 3.731623273929815e-001	 2.724564162849201e+000	 6.553256910524105e+000
 3.478431054491009e-001	 2.727912237233771e+000	 6.541078553652143e+000
 3.225741217013700e-001	 2.731015550314390e+000	 6.545432473702295e+000
 2.973585142758312e-001	 2.733875987317568e+000	 6.568096141910963e+000
 2.721993660824217e-001	 2.736495478736074e+000	 6.610109564720982e+000
 2.470997042370982e-001	 2.738875998690031e+000	 6.671790972183581e+000
 2.246360947537655e-001	 2.489887271520747e+000	 6.390867605255161e+000
 2.018749995641979e-001	 2.491835966613445e+000	 6.425297634366215e+000
 1.791733326820581e-001	 2.493571117257746e+000	 6.448544917737361e+000
 1.565336911712550e-001	 2.495094628165966e+000	 6.460370636297985e+000
 1.339586197272678e-001	 2.496408437772546e+000	 6.460819175012939e+000
 1.114506103760078e-001	 2.497514516761370e+000	 6.450210760862580e+000
 8.901210221548951e-002	 2.498414866600589e+000	 6.429133723863886e+000
 6.664548119953342e-002	 2.499111518086177e+000	 6.398436411212087e+000
 4.435307996270441e-002	 2.499606529895403e+000	 6.359218784457444e+000
 2.213717768565395e-002	 2.499901987151415e+000	 6.312823729387781e+000
 0.000000000000000e+000	 2.500000000000000e+000	 6.260828107962269e+000
 2.268824557021734e-001	 2.514786144237676e+000	 6.944134586955983e+000
 2.038937495620015e-001	 2.516754326280969e+000	 6.851531171329655e+000
 1.809650660120170e-001	 2.518506828431417e+000	 6.776474927668542e+000
 1.580990280867710e-001	 2.520045574448461e+000	 6.716503060505098e+000
 1.352982059287006e-001	 2.521372522150883e+000	 6.668648521353839e+000
 1.125651164839795e-001	 2.522489661929406e+000	 6.629457206365322e+000
 8.990222324160513e-002	 2.523399015266865e+000	 6.595005695741135e+000
 6.731193601493965e-002	 2.524102633267190e+000	 6.560919478683639e+000
 4.479661076489676e-002	 2.524602595194425e+000	 6.522391608328023e+000
 2.235854946393773e-002	 2.524901007022946e+000	 6.474201731908527e+000
 0.000000000000000e+000	 2.525000000000000e+000	 6.410735442352670e+000
 2.291288166505648e-001	 2.539685016954604e+000	 7.116356777532658e+000
 2.059124995596093e-001	 2.541672685948493e+000	 7.031487600956801e+000
 1.827567993416422e-001	 2.543442539605088e+000	 6.961883074954078e+000
 1.596643650018564e-001	 2.544996520730955e+000	 6.905228639655204e+000
 1.366377921296462e-001	 2.546336606529218e+000	 6.858690658626626e+000
 1.136796225914473e-001	 2.547464807097442e+000	 6.818933889066487e+000
 9.079234426724010e-002	 2.548383163933141e+000	 6.782139515963761e+000
 6.797839082992760e-002	 2.549093748448203e+000	 6.744023692504285e+000
 4.524014156677202e-002	 2.549598660493445e+000	 6.699856529676929e+000
 2.257992124204399e-002	 2.549900026894477e+000	 6.644481478850700e+000
 0.000000000000000e+000	 2.550000000000000e+000	 6.572335052040428e+000
 2.313751775989394e-001	 2.564583889671531e+000	 7.235660215251100e+000
 2.079312495570213e-001	 2.566591045616016e+000	 7.162234997185924e+000
 1.845485326709337e-001	 2.568378250778760e+000	 7.102403585321403e+000
 1.612297019165109e-001	 2.569947467013449e+000	 7.053994907742038e+000
 1.379773783301045e-001	 2.571300690907556e+000	 7.014303416909926e+000
 1.147941286984114e-001	 2.572439952265480e+000	 6.980106850009505e+000
 9.168246529239445e-002	 2.573367312599417e+000	 6.947684575902435e+000
 6.864484564449729e-002	 2.574084863629215e+000	 6.912836469433533e+000
 4.568367236833022e-002	 2.574594725792466e+000	 6.870902254505865e+000
 2.280129301997274e-002	 2.574899046766007e+000	 6.816781258164669e+000
 0.000000000000000e+000	 2.575000000000000e+000	 6.744952518891978e+000
 2.336215385472976e-001	 2.589482762388461e+000	 7.303058595661543e+000
 2.099499995542375e-001	 2.591509405283540e+000	 7.244619098176723e+000
 1.863402659998916e-001	 2.593313961952431e+000	 7.198714397711202e+000
 1.627950388307349e-001	 2.594898413295944e+000	 7.163312256472180e+000
 1.393169645300756e-001	 2.596264775285893e+000	 7.135829981764651e+000
 1.159086348048716e-001	 2.597415097433516e+000	 7.113152494140832e+000
 9.257258631706813e-002	 2.598351461265692e+000	 7.091651005251862e+000
 6.931130045864874e-002	 2.599075978810228e+000	 7.067202244557571e+000
 4.612720316957133e-002	 2.599590791091487e+000	 7.035208174727883e+000
 2.302266479772398e-002	 2.599898066637537e+000	 6.990616136400178e+000
 0.000000000000000e+000	 2.600000000000000e+000	 6.927939363933985e+000
 2.358678994956391e-001	 2.614381635105389e+000	 7.319545504574360e+000
 2.119687495512579e-001	 2.616427764951064e+000	 7.279469017973880e+000
 1.881319993285157e-001	 2.618249673126103e+000	 7.251480544200606e+000
 1.643603757445280e-001	 2.619849359578438e+000	 7.233682115790693e+000
 1.406565507295593e-001	 2.621228859664228e+000	 7.223608746103974e+000
 1.170231409108281e-001	 2.622390242601553e+000	 7.218246822981636e+000
 9.346270734126122e-002	 2.623335609931968e+000	 7.214053135653999e+000
 6.997775527238191e-002	 2.624067093991241e+000	 7.206974472419178e+000
 4.657073397049537e-002	 2.624586856390508e+000	 7.192467727296671e+000
 2.324403657529772e-002	 2.624897086509069e+000	 7.165520454699109e+000
 0.000000000000000e+000	 2.625000000000000e+000	 7.120671812155217e+000
 2.381142604439641e-001	 2.639280507822317e+000	 7.286095366632083e+000
 2.139874995480826e-001	 2.641346124618587e+000	 7.267598030664295e+000
 1.899237326568062e-001	 2.643185384299774e+000	 7.261354758817523e+000
 1.659257126578905e-001	 2.644800305860932e+000	 7.265597376605966e+000
 1.419961369285558e-001	 2.646192944042565e+000	 7.277973536261303e+000
 1.181376470162809e-001	 2.647365387769589e+000	 7.295565453657481e+000
 9.435282836497362e-002	 2.648319758598243e+000	 7.314909302493090e+000
 7.064421008569682e-002	 2.649058209172255e+000	 7.332015201571515e+000
 4.701426477110234e-002	 2.649582921689528e+000	 7.342387731704449e+000
 2.346540835269394e-002	 2.649896106380600e+000	 7.341046919616080e+000
 0.000000000000000e+000	 2.650000000000000e+000	 7.322549627225268e+000
 2.403606213922725e-001	 2.664179380539246e+000	 7.203664340691654e+000
 2.160062495447116e-001	 2.666264484286111e+000	 7.209804310561267e+000
 1.917154659847630e-001	 2.668121095473445e+000	 7.228978052215574e+000
 1.674910495708223e-001	 2.669751252143427e+000	 7.259542789809777e+000
 1.433357231270650e-001	 2.671157028420902e+000	 7.299253825381993e+000
 1.192521531212298e-001	 2.672340532937625e+000	 7.345283636860459e+000
 9.524294938820538e-002	 2.673303907264518e+000	 7.394241657804546e+000
 7.131066489859349e-002	 2.674049324353268e+000	 7.442194672988749e+000
 4.745779557139222e-002	 2.674578986988549e+000	 7.484687764629818e+000
 2.368678012991264e-002	 2.674895126252130e+000	 7.516765744921742e+000
 0.000000000000000e+000	 2.675000000000000e+000	 7.532995011556172e+000
 2.426069823405643e-001	 2.689078253256174e+000	 7.073191165462215e+000
 2.180249995411448e-001	 2.691182843953635e+000	 7.106871631268096e+000
 1.935071993123861e-001	 2.693056806647117e+000	 7.154980254422823e+000
 1.690563864833233e-001	 2.694702198425921e+000	 7.215995343130336e+000
 1.446753093250869e-001	 2.696121112799239e+000	 7.287774934959900e+000
 1.203666592256749e-001	 2.697315678105662e+000	 7.367576273813855e+000
 9.613307041095653e-002	 2.698288055930794e+000	 7.452075993578674e+000
 7.197711971107187e-002	 2.699040439534281e+000	 7.537390940787787e+000
 4.790132637136506e-002	 2.699575052287571e+000	 7.619099569327283e+000
 2.390815190695384e-002	 2.699894146123661e+000	 7.692263841083944e+000
 0.000000000000000e+000	 2.699999999999999e+000	 7.751451567471597e+000
 2.448533432888395e-001	 2.713977125973103e+000	 6.895597958594497e+000
 2.200437495373822e-001	 2.716101203621158e+000	 6.959570026261598e+000
 1.952989326396756e-001	 2.717992517820788e+000	 7.039980527714853e+000
 1.706217233953936e-001	 2.719653144708416e+000	 7.135424617240401e+000
 1.460148955226215e-001	 2.721085197177575e+000	 7.243858225279876e+000
 1.214811653296163e-001	 2.722290823273699e+000	 7.362617932303010e+000
 9.702319143322702e-002	 2.723272204597070e+000	 7.488441574789547e+000
 7.264357452313200e-002	 2.724031554715293e+000	 7.617489513826555e+000
 4.834485717102078e-002	 2.724571117586591e+000	 7.745366497526883e+000
 2.412952368381753e-002	 2.724893165995192e+000	 7.867144049363230e+000
 0.000000000000000e+000	 2.724999999999999e+000	 7.977383315559677e+000
 2.470997042370982e-001	 2.738875998690031e+000	 6.671790972183581e+000
 2.220624995334239e-001	 2.741019563288683e+000	 6.768656413442557e+000
 1.970906659666314e-001	 2.742928228994460e+000	 6.884587851512292e+000
 1.721870603070332e-001	 2.744604090990911e+000	 7.018293122441447e+000
 1.473544817196688e-001	 2.746049281555912e+000	 7.167821275472967e+000
 1.225956714330539e-001	 2.747265968441736e+000	 7.330582861831076e+000
 9.791331245501693e-002	 2.748256353263346e+000	 7.503370981532888e+000
 7.331002933477392e-002	 2.749022669896307e+000	 7.682383016852793e+000
 4.878838797035946e-002	 2.749567182885613e+000	 7.863242981777193e+000
 2.435089546050372e-002	 2.749892185866723e+000	 8.041024417686842e+000
 0.000000000000000e+000	 2.750000000000000e+000	 8.210273766569674e+000
 2.750000000000000e+000	 0.000000000000000e+000	 1.106897275576083e+001
 2.749892185866724e+000	 2.435089546050380e-002	 1.111846642578758e+001
 2.749567182885613e+000	 4.878838797035964e-002	 1.115656398743613e+001
 2.749022669896307e+000	 7.331002933477374e-002	 1.118454399421700e+001
 2.748256353263346e+000	 9.791331245501686e-002	 1.120376795850302e+001
 2.747265968441735e+000	 1.225956714330539e-001	 1.121568116027166e+001
 2.746049281555912e+000	 1.473544817196689e-001	 1.122181333433183e+001
 2.744604090990912e+000	 1.721870603070334e-001	 1.122377923003331e+001
 2.742928228994461e+000	 1.970906659666313e-001	 1.122327903753345e+001
 2.741019563288683e+000	 2.220624995334238e-001	 1.122209867479445e+001
 2.738875998690032e+000	 2.470997042370982e-001	 1.122210992960381e+001
 2.775000000000000e+000	 0.000000000000000e+000	 1.103851488348259e+001
 2.774891205738252e+000	 2.457226723710123e-002	 1.108655960154398e+001
 2.774563248184625e+000	 4.923191876953977e-002	 1.112331286200178e+001
 2.774013785077298e+000	 7.397648414620646e-002	 1.115008548431550e+001
 2.773240501929583e+000	 9.880343347656641e-002	 1.116827304194531e+001
 2.772241113609713e+000	 1.237101775362395e-001	 1.117935668397067e+001
 2.771013365934162e+000	 1.486940679164726e-001	 1.118490383218379e+001
 2.769555037273286e+000	 1.737523972184576e-001	 1.118656874751395e+001
 2.767863940167976e+000	 1.988823992934202e-001	 1.118609295971851e+001
 2.765937922956008e+000	 2.240812495293676e-001	 1.118530555437812e+001
 2.763774871406714e+000	 2.493460651853486e-001	 1.118612331135566e+001
 2.800000000000000e+000	 0.000000000000000e+000	 1.100473246508730e+001
 2.799890225609775e+000	 2.479363901369865e-002	 1.105084578967256e+001
 2.799559313483616e+000	 4.967544956871989e-002	 1.108572283012777e+001
 2.799004900258245e+000	 7.464293895763922e-002	 1.111070662019639e+001
 2.798224650595743e+000	 9.969355449811596e-002	 1.112722679518196e+001
 2.797216258777568e+000	 1.248246836394252e-001	 1.113680042764942e+001
 2.795977450312236e+000	 1.500336541132763e-001	 1.114103273553920e+001
 2.794505983555422e+000	 1.753177341298819e-001	 1.114161765640515e+001
 2.792799651341178e+000	 2.006741326202092e-001	 1.114033828156920e+001
 2.790856282622937e+000	 2.260999995253114e-001	 1.113906714409031e+001
 2.788673744122905e+000	 2.515924261335989e-001	 1.113976635457072e+001
 2.825000000000000e+000	 0.000000000000000e+000	 1.096758810152668e+001
 2.824889245481293e+000	 2.501501079029607e-002	 1.101127386870428e+001
 2.824555378782589e+000	 5.011898036790001e-002	 1.104372895138524e+001
 2.823996015439152e+000	 7.530939376907195e-002	 1.106632855267387e+001
 2.823208799261825e+000	 1.005836755196655e-001	 1.108053637761492e+001
 2.822191403945302e+000	 1.259391897426109e-001	 1.108790548418759e+001
 2.820941534690137e+000	 1.513732403100800e-001	 1.109007900359759e+001
 2.819456929837322e+000	 1.768830710413061e-001	 1.108879072342991e+001
 2.817735362514068e+000	 2.024658659469981e-001	 1.108586552730874e+001
 2.815774642289468e+000	 2.281187495212551e-001	 1.108321968481745e+001
 2.813572616838604e+000	 2.538387870818492e-001	 1.108286098556173e+001
 2.850000000000000e+000	 0.000000000000000e+000	 1.092704570599974e+001
 2.849888265352808e+000	 2.523638256689349e-002	 1.096779417280494e+001
 2.849551444081544e+000	 5.056251116708015e-002	 1.099726787008360e+001
 2.848987130620012e+000	 7.597584858050469e-002	 1.101687413191581e+001
 2.848192947927832e+000	 1.014737965412150e-001	 1.102811074792752e+001
 2.847166549112915e+000	 1.270536958457965e-001	 1.103256683079084e+001
 2.845905619067861e+000	 1.527128265068837e-001	 1.103192354985559e+001
 2.844407876118980e+000	 1.784484079527304e-001	 1.102795472432125e+001
 2.842671073686645e+000	 2.042575992737870e-001	 1.102252726944540e+001
 2.840693001955603e+000	 2.301374995171989e-001	 1.101760148939419e+001
 2.838471489553812e+000	 2.560851480300996e-001	 1.101523121047271e+001
 2.875000000000000e+000	 0.000000000000000e+000	 1.088307044689854e+001
 2.874887285224318e+000	 2.545775434349091e-002	 1.092035842848642e+001
 2.874547509380478e+000	 5.100604196626029e-002	 1.094627774636897e+001
 2.873978245800831e+000	 7.664230339193742e-002	 1.096226783355923e+001
 2.873177096593761e+000	 1.023639175627646e-001	 1.096986058585497e+001
 2.872141694280408e+000	 1.281682019489822e-001	 1.097068124706363e+001
 2.870869703445413e+000	 1.540524127036874e-001	 1.096644915713778e+001
 2.869358822400401e+000	 1.800137448641546e-001	 1.095897835647410e+001
 2.867606784858911e+000	 2.060493326005760e-001	 1.095017803971662e+001
 2.865611361621340e+000	 2.321562495131426e-001	 1.094205285251840e+001
 2.863370362268527e+000	 2.583315089783499e-001	 1.093670302485160e+001
 2.900000000000000e+000	 0.000000000000000e+000	 1.083562869370515e+001
 2.899886305095822e+000	 2.567912612008834e-002	 1.086891969459210e+001
 2.899543574679393e+000	 5.144957276544040e-002	 1.089069819088632e+001
 2.898969360981606e+000	 7.730875820337015e-002	 1.090243568864665e+001
 2.898161245259613e+000	 1.032540385843141e-001	 1.090569821800117e+001
 2.897116839447780e+000	 1.292827080521679e-001	 1.090214723731958e+001
 2.895833787822788e+000	 1.553919989004911e-001	 1.089354039702195e+001
 2.894309768681584e+000	 1.815790817755789e-001	 1.088173215611494e+001
 2.892542496030862e+000	 2.078410659273649e-001	 1.086867424463937e+001
 2.890529721286680e+000	 2.341749995090864e-001	 1.085641596532632e+001
 2.888269234982751e+000	 2.605778699266002e-001	 1.084710432790007e+001
 2.925000000000000e+000	 0.000000000000000e+000	 1.078468796566288e+001
 2.924885324967321e+000	 2.590049789668575e-002	 1.081343230535935e+001
 2.924539639978291e+000	 5.189310356462054e-002	 1.083047020279250e+001
 2.923960476162338e+000	 7.797521301480291e-002	 1.083730521715597e+001
 2.923145393925387e+000	 1.041441596058637e-001	 1.083553754745948e+001
 2.922091984615031e+000	 1.303972141553536e-001	 1.082686495687609e+001
 2.920797872199990e+000	 1.567315850972948e-001	 1.081308355339681e+001
 2.919260714962528e+000	 1.831444186870031e-001	 1.079608841971932e+001
 2.917478207202502e+000	 2.096327992541539e-001	 1.077787408539161e+001
 2.915448080951624e+000	 2.361937495050301e-001	 1.076053483434809e+001
 2.913168107696484e+000	 2.628242308748505e-001	 1.074626484112075e+001
 2.949999999999999e+000	 0.000000000000000e+000	 1.073021688305758e+001
 2.949884344838818e+000	 2.612186967328318e-002	 1.075385181637766e+001
 2.949535705277168e+000	 5.233663436380066e-002	 1.076553611092076e+001
 2.948951591343028e+000	 7.864166782623562e-002	 1.076680536490987e+001
 2.948129542591084e+000	 1.050342806274132e-001	 1.075929398701261e+001
 2.947067129782162e+000	 1.315117202585392e-001	 1.074473614209640e+001
 2.945761956577017e+000	 1.580711712940985e-001	 1.072496654990633e+001
 2.944211661243234e+000	 1.847097555984273e-001	 1.070192112942497e+001
 2.942413918373829e+000	 2.114245325809428e-001	 1.067763748176703e+001
 2.940366440616171e+000	 2.382124995009739e-001	 1.065425520458419e+001
 2.938066980409724e+000	 2.650705918231008e-001	 1.063401603110114e+001
 2.974999999999999e+000	 0.000000000000000e+000	 1.067218512095555e+001
 2.974883364710307e+000	 2.634324144988059e-002	 1.069013495327096e+001
 2.974531770576026e+000	 5.278016516298079e-002	 1.069583951791215e+001
 2.973942706523673e+000	 7.930812263766840e-002	 1.069086644366637e+001
 2.973113691256705e+000	 1.059244016489628e-001	 1.067688439570004e+001
 2.972042274949171e+000	 1.326262263617249e-001	 1.065566404395910e+001
 2.970726040953869e+000	 1.594107574909022e-001	 1.062907888105261e+001
 2.969162607523700e+000	 1.862750925098516e-001	 1.059910588220569e+001
 2.967349629544844e+000	 2.132162659077317e-001	 1.056782599996455e+001
 2.965284800280319e+000	 2.402312494969177e-001	 1.053742448646052e+001
 2.962965853122473e+000	 2.673169527713512e-001	 1.051019103619069e+001
 3.000000000000000e+000	 0.000000000000000e+000	 1.061056336525407e+001
 2.999882384581794e+000	 2.656461322647803e-002	 1.062223956294661e+001
 2.999527835874867e+000	 5.322369596216094e-002	 1.062132524714020e+001
 2.998933821704276e+000	 7.997457744910114e-002	 1.060942007420493e+001
 2.998097839922249e+000	 1.068145226705123e-001	 1.058822701855745e+001
 2.997017420116060e+000	 1.337407324649106e-001	 1.055955336494924e+001
 2.995690125330548e+000	 1.607503436877060e-001	 1.052531154674327e+001
 2.994113553803930e+000	 1.878404294212759e-001	 1.048751982258656e+001
 2.992285340715547e+000	 2.150079992345207e-001	 1.044830278398797e+001
 2.990203159944073e+000	 2.422499994928615e-001	 1.040989168643575e+001
 2.987864725834731e+000	 2.695633137196016e-001	 1.037462459684408e+001
 2.738875998690032e+000	 2.470997042370982e-001	 1.122210992960381e+001
 2.736495478736073e+000	 2.721993660824219e-001	 1.126268819623877e+001
 2.733875987317568e+000	 2.973585142758314e-001	 1.130385627541217e+001
 2.731015550314390e+000	 3.225741217013698e-001	 1.134738480409111e+001
 2.727912237233771e+000	 3.478431054491007e-001	 1.139512644833532e+001
 2.724564162849201e+000	 3.731623273929815e-001	 1.144901552367132e+001
 2.720969488838349e+000	 3.985285948199711e-001	 1.151106744999991e+001
 2.717126425418324e+000	 4.239386611108923e-001	 1.158337803662597e+001
 2.713033232976536e+000	 4.493892264735031e-001	 1.166812259327980e+001
 2.708688223695421e+000	 4.748769387281779e-001	 1.176755486330290e+001
 2.704089763169176e+000	 5.003983941465353e-001	 1.188400577549715e+001
 2.763774871406714e+000	 2.493460651853486e-001	 1.118612331135566e+001
 2.761372710362509e+000	 2.746739057751574e-001	 1.121901551009344e+001
 2.758729405385852e+000	 3.000617734979081e-001	 1.125374861560149e+001
 2.755842964410066e+000	 3.255066137184060e-001	 1.129224837688768e+001
 2.752711439392450e+000	 3.510053155002597e-001	 1.133652569941038e+001
 2.749332927968071e+000	 3.765547121890066e-001	 1.138867617023594e+001
 2.745705575102577e+000	 4.021515820469407e-001	 1.145087941017121e+001
 2.741827574742320e+000	 4.277926489401635e-001	 1.152539824839151e+001
 2.737697171460054e+000	 4.534745830783209e-001	 1.161457771537991e+001
 2.733312662094416e+000	 4.791940018074253e-001	 1.172084385031237e+001
 2.728672397381367e+000	 5.049474704561092e-001	 1.184670231936685e+001
 2.788673744122905e+000	 2.515924261335989e-001	 1.113976635457072e+001
 2.786249941988360e+000	 2.771484454678931e-001	 1.116745238931099e+001
 2.783582823453462e+000	 3.027650327199847e-001	 1.119818104736046e+001
 2.780670378504993e+000	 3.284391057354422e-001	 1.123403231546480e+001
 2.777510641550315e+000	 3.541675255514188e-001	 1.127717450657824e+001
 2.774101693086072e+000	 3.799470969850319e-001	 1.132986369108320e+001
 2.770441661365888e+000	 4.057745692739103e-001	 1.139444294737422e+001
 2.766528724065365e+000	 4.316466367694348e-001	 1.147334142725545e+001
 2.762361109942594e+000	 4.575599396831384e-001	 1.156907323190934e+001
 2.757937100492415e+000	 4.835110648866727e-001	 1.168423609453110e+001
 2.753255031592557e+000	 5.094965467656832e-001	 1.182150986608060e+001
 2.813572616838604e+000	 2.538387870818492e-001	 1.108286098556173e+001
 2.811127173613622e+000	 2.796229851606287e-001	 1.110771475414037e+001
 2.808436241520400e+000	 3.054682919420613e-001	 1.113676352387296e+001
 2.805497792599171e+000	 3.313715977524783e-001	 1.117224069279073e+001
 2.802309843707365e+000	 3.573297356025775e-001	 1.121647119821400e+001
 2.798870458203201e+000	 3.833394817810571e-001	 1.127187085528917e+001
 2.795177747628281e+000	 4.093975565008799e-001	 1.134094550722623e+001
 2.791229873387456e+000	 4.355006245987061e-001	 1.142628998260950e+001
 2.787025048424154e+000	 4.616452962879561e-001	 1.153058685547970e+001
 2.782561538889420e+000	 4.878281279659200e-001	 1.165660500423613e+001
 2.777837665802749e+000	 5.140456230752573e-001	 1.180719796578321e+001
 2.838471489553812e+000	 2.560851480300996e-001	 1.101523121047271e+001
 2.836004405238297e+000	 2.820975248533642e-001	 1.103952381310407e+001
 2.833289659586666e+000	 3.081715511641379e-001	 1.106911447719446e+001
 2.830325206692602e+000	 3.343040897695145e-001	 1.110638923201191e+001
 2.827109045863600e+000	 3.604919456537367e-001	 1.115382890342754e+001
 2.823639223319458e+000	 3.867318665770823e-001	 1.121400836100332e+001
 2.819913833889759e+000	 4.130205437278497e-001	 1.128959556906047e+001
 2.815931022708593e+000	 4.393546124279774e-001	 1.138335043702253e+001
 2.811688986904735e+000	 4.657306528927737e-001	 1.149812346466648e+001
 2.807185977285430e+000	 4.921451910451673e-001	 1.163685417828255e+001
 2.802420300011939e+000	 5.185946993848312e-001	 1.180256935413528e+001
 2.863370362268527e+000	 2.583315089783499e-001	 1.093670302485160e+001
 2.860881636862386e+000	 2.845720645460999e-001	 1.096260583307334e+001
 2.858143077652259e+000	 3.108748103862145e-001	 1.099486044960545e+001
 2.855152620785284e+000	 3.372365817865506e-001	 1.103600479992346e+001
 2.851908248019021e+000	 3.636541557048956e-001	 1.108867490855362e+001
 2.848407988434845e+000	 3.901242513731075e-001	 1.115560405592358e+001
 2.844649920150318e+000	 4.166435309548192e-001	 1.123962173141677e+001
 2.840632172028778e+000	 4.432086002572487e-001	 1.134365237784146e+001
 2.836352925384337e+000	 4.698160094975914e-001	 1.147071392288035e+001
 2.831810415680446e+000	 4.964622541244146e-001	 1.162391609346959e+001
 2.827002934220130e+000	 5.231437756944052e-001	 1.180645850946464e+001
 2.888269234982751e+000	 2.605778699266002e-001	 1.084710432790007e+001
 2.885758868485888e+000	 2.870466042388355e-001	 1.087669192123550e+001
 2.882996495717179e+000	 3.135780696082912e-001	 1.091363574403271e+001
 2.879980034877217e+000	 3.401690738035869e-001	 1.096062492663951e+001
 2.876707450173627e+000	 3.668163657560546e-001	 1.102045004692639e+001
 2.873176753549362e+000	 3.935166361691326e-001	 1.109600219809163e+001
 2.869386006409960e+000	 4.202665181817890e-001	 1.119027184483436e+001
 2.865333321348009e+000	 4.470625880865199e-001	 1.130634746301973e+001
 2.861016863862960e+000	 4.739013661024089e-001	 1.144741395833098e+001
 2.856434854074466e+000	 5.007793172036621e-001	 1.161675085980174e+001
 2.851585568427321e+000	 5.276928520039791e-001	 1.181773028454796e+001
 2.913168107696484e+000	 2.628242308748505e-001	 1.074626484112075e+001
 2.910636100108802e+000	 2.895211439315710e-001	 1.078151781824332e+001
 2.907849913781428e+000	 3.162813288303679e-001	 1.082508209239790e+001
 2.904807448968402e+000	 3.431015658206231e-001	 1.087979734989588e+001
 2.901506652327419e+000	 3.699785758072136e-001	 1.094860811994801e+001
 2.897945518663007e+000	 3.969090209651578e-001	 1.103456275459622e+001
 2.894122092668686e+000	 4.238895054087586e-001	 1.114081218911687e+001
 2.890034470666287e+000	 4.509165759157913e-001	 1.127060847792913e+001
 2.885680802340603e+000	 4.779867227072266e-001	 1.142730310142893e+001
 2.881059292467493e+000	 5.050963802829094e-001	 1.161434503958249e+001
 2.876168202633513e+000	 5.322419283135530e-001	 1.183527860855741e+001
 2.938066980409724e+000	 2.650705918231008e-001	 1.063401603110114e+001
 2.935513331731131e+000	 2.919956836243067e-001	 1.067682370188144e+001
 2.932703331845003e+000	 3.189845880524445e-001	 1.072884834082953e+001
 2.929634863058839e+000	 3.460340578376592e-001	 1.079307958252364e+001
 2.926305854480396e+000	 3.731407858583725e-001	 1.087261534759411e+001
 2.922714283775782e+000	 4.003014057611831e-001	 1.097066073593556e+001
 2.918858178926494e+000	 4.275124926357282e-001	 1.109052669243125e+001
 2.914735619983612e+000	 4.547705637450625e-001	 1.123562844013009e+001
 2.910344740817267e+000	 4.820720793120442e-001	 1.140948367621775e+001
 2.905683730859523e+000	 5.094134433621567e-001	 1.161571052655424e+001
 2.900750836838703e+000	 5.367910046231269e-001	 1.185802525500994e+001
 2.962965853122473e+000	 2.673169527713512e-001	 1.051019103619069e+001
 2.960390563352871e+000	 2.944702233170423e-001	 1.056235400063228e+001
 2.957556749907905e+000	 3.216878472745211e-001	 1.062459015074673e+001
 2.954462277148527e+000	 3.489665498546954e-001	 1.070003850173085e+001
 2.951105056632558e+000	 3.763029959095315e-001	 1.079194984662503e+001
 2.947483048887686e+000	 4.036937905572083e-001	 1.090368556394125e+001
 2.943594265183386e+000	 4.311354798626978e-001	 1.103871618978000e+001
 2.939436769299982e+000	 4.586245515743337e-001	 1.120061974927978e+001
 2.935008679292953e+000	 4.861574359168619e-001	 1.139307984265836e+001
 2.930308169250560e+000	 5.137305064414041e-001	 1.161988348155208e+001
 2.925333471042894e+000	 5.413400809327010e-001	 1.188491867183693e+001
 2.987864725834731e+000	 2.695633137196016e-001	 1.037462459684408e+001
 2.985267794974027e+000	 2.969447630097781e-001	 1.043785721656377e+001
 2.982410167970137e+000	 3.243911064965979e-001	 1.051196971488885e+001
 2.979289691237467e+000	 3.518990418717317e-001	 1.060024995892019e+001
 2.975904258783907e+000	 3.794652059606906e-001	 1.070610113488651e+001
 2.972251813998720e+000	 4.070861753532337e-001	 1.083304047130615e+001
 2.968330351439361e+000	 4.347584670896677e-001	 1.098469771854956e+001
 2.964137918615402e+000	 4.624785394036052e-001	 1.116481337954475e+001
 2.959672617767659e+000	 4.902427925216796e-001	 1.137723668679913e+001
 2.954932607640603e+000	 5.180475695206515e-001	 1.162592332137502e+001
 2.949916105246086e+000	 5.458891572422751e-001	 1.191493286995018e+001
 2.704089763169176e+000	 5.003983941465353e-001	 1.188400577549715e+001
 2.699236272010369e+000	 5.259501383425348e-001	 1.158072534232662e+001
 2.694126227445558e+000	 5.515286672185968e-001	 1.129319904133849e+001
 2.688758164897393e+000	 5.771304279651318e-001	 1.102306095920965e+001
 2.683130679550521e+000	 6.027518201122009e-001	 1.077200507972640e+001
 2.677242427900420e+000	 6.283891966355909e-001	 1.060908666119680e+001
 2.671092129282827e+000	 6.540388651164305e-001	 1.089114445801400e+001
 2.664678567381807e+000	 6.796970889541842e-001	 1.116204018743367e+001
 2.658000591714422e+000	 7.053600886327908e-001	 1.142218991069299e+001
 2.651057119090043e+000	 7.310240430396247e-001	 1.167205594580397e+001
 2.643847135042239e+000	 7.566850908368894e-001	 1.191214951143122e+001
 2.728672397381367e+000	 5.049474704561092e-001	 1.184670231936685e+001
 2.723774783575466e+000	 5.307315032349365e-001	 1.152001781102367e+001
 2.718618284059930e+000	 5.565425641910099e-001	 1.120957670220978e+001
 2.713201420943072e+000	 5.823770682164715e-001	 1.091698244010446e+001
 2.707522776638490e+000	 6.082313821098384e-001	 1.064389877833732e+001
 2.701580995427986e+000	 6.341018256921329e-001	 1.058086859761221e+001
 2.695374785004896e+000	 6.599846729770404e-001	 1.086518773929922e+001
 2.688902917995866e+000	 6.858761533949309e-001	 1.113814610787702e+001
 2.682164233459023e+000	 7.117724530705056e-001	 1.140003074938161e+001
 2.675157638356550e+000	 7.376697161537531e-001	 1.165117452856138e+001
 2.667882108999597e+000	 7.635640462038071e-001	 1.189195896328011e+001
 2.753255031592557e+000	 5.094965467656832e-001	 1.182150986608060e+001
 2.748313295139561e+000	 5.355128681273381e-001	 1.146719075108714e+001
 2.743110340673302e+000	 5.615564611634224e-001	 1.112957084093361e+001
 2.737644676987751e+000	 5.876237084678108e-001	 1.081022532036141e+001
 2.731914873725461e+000	 6.137109441074760e-001	 1.051079016452483e+001
 2.725919562954553e+000	 6.398144547486752e-001	 1.055462953538948e+001
 2.719657440725966e+000	 6.659304808376506e-001	 1.083934623563361e+001
 2.713127268608924e+000	 6.920552178356770e-001	 1.111247322302106e+001
 2.706327875202623e+000	 7.181848175082201e-001	 1.137416802395996e+001
 2.699258157622058e+000	 7.443153892678818e-001	 1.162463358052073e+001
 2.691917082955955e+000	 7.704430015707247e-001	 1.186412127776012e+001
 2.777837665802749e+000	 5.140456230752573e-001	 1.180719796578321e+001
 2.772851806702656e+000	 5.402942330197397e-001	 1.142107449655954e+001
 2.767602397285674e+000	 5.665703581358352e-001	 1.105207253105640e+001
 2.762087933031431e+000	 5.928703487191503e-001	 1.070174135073078e+001
 2.756306970811430e+000	 6.191905061051134e-001	 1.037169158605696e+001
 2.750258130480121e+000	 6.455270838052173e-001	 1.053082340042078e+001
 2.743940096446035e+000	 6.718762886982608e-001	 1.081419227228144e+001
 2.737351619220983e+000	 6.982342822764235e-001	 1.108571197600732e+001
 2.730491516945223e+000	 7.245971819459348e-001	 1.134540995140317e+001
 2.723358676886565e+000	 7.509610623820101e-001	 1.159335868553652e+001
 2.715952056911313e+000	 7.773219569376425e-001	 1.182967893543834e+001
 2.802420300011939e+000	 5.185946993848312e-001	 1.180256935413528e+001
 2.797390318264753e+000	 5.450755979121414e-001	 1.138052977140778e+001
 2.792094453897046e+000	 5.715842551082483e-001	 1.097600042882545e+001
 2.786531189074109e+000	 5.981169889704898e-001	 1.059050704688358e+001
 2.780699067896400e+000	 6.246700681027507e-001	 1.022563732838172e+001
 2.774596698004689e+000	 6.512397128617596e-001	 1.050992322069282e+001
 2.768222752165104e+000	 6.778220965588708e-001	 1.079031443380720e+001
 2.761575969832041e+000	 7.044133467171696e-001	 1.105856622042850e+001
 2.754655158686825e+000	 7.310095463836497e-001	 1.131457530540591e+001
 2.747459196150072e+000	 7.576067354961386e-001	 1.155828312675812e+001
 2.739987030865671e+000	 7.842009123045602e-001	 1.178967925626565e+001
 2.827002934220130e+000	 5.231437756944052e-001	 1.180645850946464e+001
 2.821928829825849e+000	 5.498569628045430e-001	 1.134444636822219e+001
 2.816586510507418e+000	 5.765981520806611e-001	 1.090029957394112e+001
 2.810974445115789e+000	 6.033636292218294e-001	 1.047552261267585e+001
 2.805091164980371e+000	 6.301496301003884e-001	 1.020433843349110e+001
 2.798935265528256e+000	 6.569523419183018e-001	 1.049242029576097e+001
 2.792505407883173e+000	 6.837679044194810e-001	 1.076831685714957e+001
 2.785800320442101e+000	 7.105924111579159e-001	 1.103175263726533e+001
 2.778818800427425e+000	 7.374219108213642e-001	 1.128249295739447e+001
 2.771559715412582e+000	 7.642524086102674e-001	 1.152034755187782e+001
 2.764022004819029e+000	 7.910798676714779e-001	 1.174517418916868e+001
 2.851585568427321e+000	 5.276928520039791e-001	 1.181773028454796e+001
 2.846467341385945e+000	 5.546383276969448e-001	 1.131174189525857e+001
 2.841078567116790e+000	 5.816120490530741e-001	 1.082394025233902e+001
 2.835417701156467e+000	 6.086102694731688e-001	 1.035581091910627e+001
 2.829483262063339e+000	 6.356291920980257e-001	 1.019642189203425e+001
 2.823273833050822e+000	 6.626649709748439e-001	 1.047882340918173e+001
 2.816788063600243e+000	 6.897137122800909e-001	 1.074881856126044e+001
 2.810024671051159e+000	 7.167714755986622e-001	 1.100600018198194e+001
 2.802982442167025e+000	 7.438342752590790e-001	 1.125000144127974e+001
 2.795660234674088e+000	 7.708980817243958e-001	 1.148049965569365e+001
 2.788056978771388e+000	 7.979588230383955e-001	 1.169722011252502e+001
 2.876168202633513e+000	 5.322419283135530e-001	 1.183527860855741e+001
 2.871005852945042e+000	 5.594196925893464e-001	 1.128136058773455e+001
 2.865570623725160e+000	 5.866259460254867e-001	 1.074591691729106e+001
 2.859860957196146e+000	 6.138569097245082e-001	 1.023041653563474e+001
 2.853875359145309e+000	 6.411087540956634e-001	 1.019420505943096e+001
 2.847612400572390e+000	 6.683776000313862e-001	 1.046965808133309e+001
 2.841070719316312e+000	 6.956595201407011e-001	 1.073245281112144e+001
 2.834249021659218e+000	 7.229505400394086e-001	 1.098204955997524e+001
 2.827146083905626e+000	 7.502466396967937e-001	 1.121794854053044e+001
 2.819760753934596e+000	 7.775437548385245e-001	 1.143969387895097e+001
 2.812091952722746e+000	 8.048377784053130e-001	 1.164687764487042e+001
 2.900750836838703e+000	 5.367910046231269e-001	 1.185802525500994e+001
 2.895544364503137e+000	 5.642010574817481e-001	 1.125227217956852e+001
 2.890062680332532e+000	 5.916398429978996e-001	 1.066524716536579e+001
 2.884304213234825e+000	 6.191035499758476e-001	 1.009840481075617e+001
 2.878267456226280e+000	 6.465883160933008e-001	 1.019812387190504e+001
 2.871950968092957e+000	 6.740902290879284e-001	 1.046546586022724e+001
 2.865353375031381e+000	 7.016053280013114e-001	 1.071986651409859e+001
 2.858473372266276e+000	 7.291296044801550e-001	 1.096065272869648e+001
 2.851309725643227e+000	 7.566590041345083e-001	 1.118719089624288e+001
 2.843861273194104e+000	 7.841894279526529e-001	 1.139889112249725e+001
 2.836126926673104e+000	 8.117167337722308e-001	 1.159521146523105e+001
 2.925333471042894e+000	 5.413400809327010e-001	 1.188491867183693e+001
 2.920082876060233e+000	 5.689824223741498e-001	 1.122347083200564e+001
 2.914554736938903e+000	 5.966537399703125e-001	 1.058097076402100e+001
 2.908747469272504e+000	 6.243501902271872e-001	 9.958860998931728e+000
 2.902659553306250e+000	 6.520678780909385e-001	 1.020863189911901e+001
 2.896289535612524e+000	 6.798028581444705e-001	 1.046680364808052e+001
 2.889636030745451e+000	 7.075511358619213e-001	 1.071171964673286e+001
 2.882697722872336e+000	 7.353086689209013e-001	 1.094257242487575e+001
 2.875473367379827e+000	 7.630713685722230e-001	 1.115859363497146e+001
 2.867961792452611e+000	 7.908351010667813e-001	 1.135905847584924e+001
 2.860161900622463e+000	 8.185956891391486e-001	 1.154329014251469e+001
 2.949916105246086e+000	 5.458891572422751e-001	 1.191493286995018e+001
 2.944621387616330e+000	 5.737637872665515e-001	 1.119397411581252e+001
 2.939046793544276e+000	 6.016676369427255e-001	 1.049214872781663e+001
 2.933190725309185e+000	 6.295968304785270e-001	 9.965531379776772e+000
 2.927051650385220e+000	 6.575474400885762e-001	 1.022619960944757e+001
 2.920628103131092e+000	 6.855154872010129e-001	 1.047424306155493e+001
 2.913918686458521e+000	 7.134969437225319e-001	 1.070868471019125e+001
 2.906922073477395e+000	 7.414877333616478e-001	 1.092858171538546e+001
 2.899637009115429e+000	 7.694837330099380e-001	 1.113303001516815e+001
 2.892062311710120e+000	 7.974807741809101e-001	 1.132116895933165e+001
 2.884196874570821e+000	 8.254746445060665e-001	 1.149218597343226e+001
 2.643847135042239e+000	 7.566850908368894e-001	 1.191214951143122e+001
 2.636369695231585e+000	 7.823393318852079e-001	 1.182978711081122e+001
 2.628623926816410e+000	 8.079828287179298e-001	 1.175643531863262e+001
 2.620609029790003e+000	 8.336116080664255e-001	 1.169318178905132e+001
 2.612324278282998e+000	 8.592216624358847e-001	 1.164116376695011e+001
 2.603769021827961e+000	 8.848089517299635e-001	 1.160157000930737e+001
 2.594942686584525e+000	 9.103694049237149e-001	 1.157564264566087e+001
 2.585844776523053e+000	 9.358989217837994e-001	 1.156467896908817e+001
 2.576474874564940e+000	 9.613933746349104e-001	 1.157003314904958e+001
 2.566832643677576e+000	 9.868486101712379e-001	 1.159311785739543e+001
 2.556917827922116e+000	 1.012260451311729e+000	 1.163540579882498e+001
 2.667882108999597e+000	 7.635640462038071e-001	 1.189195896328011e+001
 2.660336692463774e+000	 7.894515076254417e-001	 1.181862666890514e+001
 2.652520507972429e+000	 8.153281271568192e-001	 1.175394397148002e+001
 2.644432748246060e+000	 8.411898954086864e-001	 1.169892405439474e+001
 2.636072680816487e+000	 8.670327684544612e-001	 1.165463050439833e+001
 2.627439649302940e+000	 8.928526694696530e-001	 1.162217938564939e+001
 2.618533074648314e+000	 9.186454904199954e-001	 1.160274125350006e+001
 2.609352456313619e+000	 9.444070937973019e-001	 1.159754309907867e+001
 2.599897373428621e+000	 9.701333144019442e-001	 1.160787021565198e+001
 2.590167485896779e+000	 9.958199611707879e-001	 1.163506797769539e+001
 2.580162535452529e+000	 1.021462819049315e+000	 1.168054352357827e+001
 2.691917082955955e+000	 7.704430015707247e-001	 1.186412127776012e+001
 2.684303689694970e+000	 7.965636833656756e-001	 1.179937437006658e+001
 2.676417089127467e+000	 8.226734255957088e-001	 1.174287962005311e+001
 2.668256466701160e+000	 8.487681827509469e-001	 1.169557471775651e+001
 2.659821083349055e+000	 8.748438744730380e-001	 1.165844861084474e+001
 2.651110276777040e+000	 9.008963872093422e-001	 1.163254373420536e+001
 2.642123462711282e+000	 9.269215759162762e-001	 1.161895817988564e+001
 2.632860136103426e+000	 9.529152658108043e-001	 1.161884779808633e+001
 2.623319872291618e+000	 9.788732541689782e-001	 1.163342821981770e+001
 2.613502328115380e+000	 1.004791312170337e+000	 1.166397679176538e+001
 2.603407242982436e+000	 1.030665186786900e+000	 1.171183441388557e+001
 2.715952056911313e+000	 7.773219569376425e-001	 1.182967893543834e+001
 2.708270686925169e+000	 8.036758591059093e-001	 1.177314724594413e+001
 2.700313670281525e+000	 8.300187240345980e-001	 1.172443335723997e+001
 2.692080185155304e+000	 8.563464700932075e-001	 1.168439839871748e+001
 2.683569485880700e+000	 8.826549804916148e-001	 1.165395565340322e+001
 2.674780904250262e+000	 9.089401049490314e-001	 1.163407294599284e+001
 2.665713850773425e+000	 9.351976614125567e-001	 1.162577497183592e+001
 2.656367815892474e+000	 9.614234378243067e-001	 1.163014555720272e+001
 2.646742371153929e+000	 9.876131939360121e-001	 1.164832984106178e+001
 2.636837170333382e+000	 1.013762663169887e+000	 1.168153636852779e+001
 2.626651950511838e+000	 1.039867554524486e+000	 1.173103908610374e+001
 2.739987030865671e+000	 7.842009123045602e-001	 1.178967925626565e+001
 2.732237684154373e+000	 8.107880348461433e-001	 1.174106577348295e+001
 2.724210251434601e+000	 8.373640224734873e-001	 1.169979832334238e+001
 2.715903903608492e+000	 8.639247574354683e-001	 1.166666036317755e+001
 2.707317888411426e+000	 8.904660865101918e-001	 1.164248844179240e+001
 2.698451531722607e+000	 9.169838226887206e-001	 1.162817474890066e+001
 2.689304238834745e+000	 9.434737469088372e-001	 1.162466960609596e+001
 2.679875495680763e+000	 9.699316098378094e-001	 1.163298388930615e+001
 2.670164870015556e+000	 9.963531337030460e-001	 1.165419137257307e+001
 2.660172012550785e+000	 1.022734014169437e+000	 1.168943098292192e+001
 2.649896658040735e+000	 1.049069922262071e+000	 1.173990895604093e+001
 2.764022004819029e+000	 7.910798676714779e-001	 1.174517418916868e+001
 2.756204681382582e+000	 8.179002105863771e-001	 1.170425372512916e+001
 2.748106832586698e+000	 8.447093209123768e-001	 1.167016961705788e+001
 2.739727622060723e+000	 8.715030447777287e-001	 1.164362649525491e+001
 2.731066290941226e+000	 8.982771925287681e-001	 1.162538306126598e+001
 2.722122159194074e+000	 9.250275404284097e-001	 1.161625480173798e+001
 2.712894626895241e+000	 9.517498324051178e-001	 1.161711664436686e+001
 2.703383175468293e+000	 9.784397818513119e-001	 1.162890554550579e+001
 2.693587368876499e+000	 1.005093073470080e+000	 1.165262299888067e+001
 2.683506854767586e+000	 1.031705365168986e+000	 1.168933745477294e+001
 2.673141365569126e+000	 1.058272289999657e+000	 1.174018663898038e+001
 2.788056978771388e+000	 7.979588230383955e-001	 1.169722011252502e+001
 2.780171678609796e+000	 8.250123863266109e-001	 1.166383802678249e+001
 2.772003413737814e+000	 8.520546193512663e-001	 1.163674421106612e+001
 2.763551340511999e+000	 8.790813321199895e-001	 1.161656327063859e+001
 2.754814693470107e+000	 9.060882985473449e-001	 1.160397490383951e+001
 2.745792786664665e+000	 9.330712581680993e-001	 1.159971678341880e+001
 2.736485014954916e+000	 9.600259179013982e-001	 1.160458738050588e+001
 2.726890855255064e+000	 9.869479538648145e-001	 1.161944872039030e+001
 2.717009867736757e+000	 1.013833013237114e+000	 1.164522905915812e+001
 2.706841696983789e+000	 1.040676716168536e+000	 1.168292547013296e+001
 2.696386073097013e+000	 1.067474657737242e+000	 1.173360632901346e+001
 2.812091952722746e+000	 8.048377784053130e-001	 1.164687764487042e+001
 2.804138675836015e+000	 8.321245620668447e-001	 1.162094862303319e+001
 2.795899994887949e+000	 8.593999177901556e-001	 1.160072087194416e+001
 2.787375058962318e+000	 8.866596194622501e-001	 1.158673773130768e+001
 2.778563095998065e+000	 9.138994045659217e-001	 1.157959869791610e+001
 2.769463414134377e+000	 9.411149759077884e-001	 1.157996247757284e+001
 2.760075403013765e+000	 9.683020033976790e-001	 1.158854998017794e+001
 2.750398535041076e+000	 9.954561258783168e-001	 1.160614724675090e+001
 2.740432366596330e+000	 1.022572953004148e+000	 1.163360829702504e+001
 2.730176539199392e+000	 1.049648067168086e+000	 1.167185788614312e+001
 2.719630780624395e+000	 1.076677025474828e+000	 1.172189415891961e+001
 2.836126926673104e+000	 8.117167337722308e-001	 1.159521146523105e+001
 2.828105673061239e+000	 8.392367378070784e-001	 1.157671834925145e+001
 2.819796576037104e+000	 8.667452162290449e-001	 1.156330008415384e+001
 2.811198777411680e+000	 8.942379068045107e-001	 1.155541746153605e+001
 2.802311498525101e+000	 9.217105105844983e-001	 1.155358853640546e+001
 2.793134041603210e+000	 9.491586936474775e-001	 1.155839185285413e+001
 2.783665791071792e+000	 9.765780888939597e-001	 1.157046961340606e+001
 2.773906214826328e+000	 1.003964297891819e+000	 1.159053078040333e+001
 2.763854865455220e+000	 1.031312892771182e+000	 1.161935409764673e+001
 2.753511381414393e+000	 1.058619418167635e+000	 1.165779102039420e+001
 2.742875488151270e+000	 1.085879393212413e+000	 1.170676854174739e+001
 2.860161900622463e+000	 8.185956891391486e-001	 1.154329014251469e+001
 2.852072670285467e+000	 8.463489135473123e-001	 1.153228281012610e+001
 2.843693157185278e+000	 8.740905146679343e-001	 1.152568397786173e+001
 2.835022495860089e+000	 9.018161941467713e-001	 1.152387056510675e+001
 2.826059901051216e+000	 9.295216166030752e-001	 1.152727790342538e+001
 2.816804669071168e+000	 9.572024113871669e-001	 1.153640313920054e+001
 2.807256179128995e+000	 9.848541743902404e-001	 1.155180858043873e+001
 2.797413894610821e+000	 1.012472469905322e+000	 1.157412497569099e+001
 2.787277364313424e+000	 1.040052832538216e+000	 1.160405471287943e+001
 2.776846223628796e+000	 1.067590769167185e+000	 1.164237492569771e+001
 2.766120195677642e+000	 1.095081760949999e+000	 1.168994049517284e+001
 2.884196874570821e+000	 8.254746445060665e-001	 1.149218597343226e+001
 2.876039667508701e+000	 8.534610892875464e-001	 1.148878026427622e+001
 2.867589738332473e+000	 8.814358131068238e-001	 1.148907626036815e+001
 2.858846214307540e+000	 9.093944814890321e-001	 1.149336564366584e+001
 2.849808303576410e+000	 9.373327226216522e-001	 1.150199969966800e+001
 2.840475296538248e+000	 9.652461291268560e-001	 1.151539290028028e+001
 2.830846567185376e+000	 9.931302598865213e-001	 1.153402643132380e+001
 2.820921574394557e+000	 1.020980641918824e+000	 1.155845165221294e+001
 2.810699863170943e+000	 1.048792772305250e+000	 1.158929347515809e+001
 2.800181065842598e+000	 1.076562120166735e+000	 1.162725365111829e+001
 2.789364903203508e+000	 1.104284128687585e+000	 1.167311394964013e+001
 2.556917827922116e+000	 1.012260451311729e+000	 1.163540579882498e+001
 2.546730253452309e+000	 1.037624699097835e+000	 1.155024202116176e+001
 2.536269829462127e+000	 1.062937134632405e+000	 1.149037685544360e+001
 2.525536549080854e+000	 1.088193521057849e+000	 1.145717086133344e+001
 2.514530490214019e+000	 1.113389605572322e+000	 1.145204330764909e+001
 2.503251816328117e+000	 1.138521121482226e+000	 1.147647334255579e+001
 2.491700777177656e+000	 1.163583790289265e+000	 1.151932101173694e+001
 2.479877709472937e+000	 1.188573323810187e+000	 1.157724461199035e+001
 2.467783037487111e+000	 1.213485426327356e+000	 1.165416849184031e+001
 2.455417273601035e+000	 1.238315796768149e+000	 1.175101619869734e+001
 2.442781018784593e+000	 1.263060130911157e+000	 1.191152910074479e+001
 2.580162535452529e+000	 1.021462819049315e+000	 1.168054352357827e+001
 2.569882346669243e+000	 1.047057650906575e+000	 1.158686502261510e+001
 2.559326827915428e+000	 1.072600199491755e+000	 1.151556923626772e+001
 2.548495972257904e+000	 1.098086189430378e+000	 1.146797845983989e+001
 2.537389858310436e+000	 1.123511329258762e+000	 1.144547797138457e+001
 2.526008651025577e+000	 1.148871313495187e+000	 1.144951734634640e+001
 2.514352602428330e+000	 1.174161824745915e+000	 1.148161163189179e+001
 2.502422052289998e+000	 1.199378535844212e+000	 1.154334237239074e+001
 2.490217428740764e+000	 1.224517112020461e+000	 1.161170550161246e+001
 2.477739248819489e+000	 1.249573213101380e+000	 1.169289003634668e+001
 2.464988118959423e+000	 1.274542495736273e+000	 1.190176968647153e+001
 2.603407242982436e+000	 1.030665186786900e+000	 1.171183441388557e+001
 2.593034439885761e+000	 1.056490602715315e+000	 1.160975428709875e+001
 2.582383826368382e+000	 1.082263264351105e+000	 1.152713154956515e+001
 2.571455395434662e+000	 1.107978857802907e+000	 1.146524950731171e+001
 2.560249226406592e+000	 1.133633052945202e+000	 1.142545876740178e+001
 2.548765485722786e+000	 1.159221505508147e+000	 1.140917869931257e+001
 2.537004427678744e+000	 1.184739859202564e+000	 1.141789875023643e+001
 2.524966395106771e+000	 1.210183747878236e+000	 1.145317960532499e+001
 2.512651819994079e+000	 1.235548797713566e+000	 1.151665418414750e+001
 2.500061224037538e+000	 1.260830629434610e+000	 1.167880087765209e+001
 2.487195219133758e+000	 1.286024860561388e+000	 1.189462561361953e+001
 2.626651950511838e+000	 1.039867554524486e+000	 1.173103908610374e+001
 2.616186533101865e+000	 1.065923554524055e+000	 1.162071254027779e+001
 2.605440824820995e+000	 1.091926329210455e+000	 1.152690677426236e+001
 2.594414818611126e+000	 1.117871526175436e+000	 1.145086534494504e+001
 2.583108594502486e+000	 1.143754776631642e+000	 1.139390347448401e+001
 2.571522320419745e+000	 1.169571697521108e+000	 1.135740966076035e+001
 2.559656252928899e+000	 1.195317893659215e+000	 1.134284713592131e+001
 2.547510737923258e+000	 1.220988959912261e+000	 1.135175516358341e+001
 2.535086211247058e+000	 1.246580483406670e+000	 1.138575016552245e+001
 2.522383199255179e+000	 1.272088045767840e+000	 1.161291932326138e+001
 2.509402319307596e+000	 1.297507225386504e+000	 1.186158043982170e+001
 2.649896658040735e+000	 1.049069922262071e+000	 1.173990895604093e+001
 2.639338626317554e+000	 1.075356506332795e+000	 1.162153279905435e+001
 2.628497823273262e+000	 1.101589394069805e+000	 1.151672770730388e+001
 2.617374241787297e+000	 1.127764194547964e+000	 1.142669669415390e+001
 2.605967962598117e+000	 1.153876500318082e+000	 1.135271884965707e+001
 2.594279155116454e+000	 1.179921889534068e+000	 1.129615110247434e+001
 2.582308078178794e+000	 1.205895928115864e+000	 1.125842982398422e+001
 2.570055080739456e+000	 1.231794171946285e+000	 1.124107226469156e+001
 2.557520602499700e+000	 1.257612169099776e+000	 1.131590713122785e+001
 2.544705174472416e+000	 1.283345462101071e+000	 1.156186354671654e+001
 2.531609419480937e+000	 1.308989590211620e+000	 1.179958519452890e+001
 2.673141365569126e+000	 1.058272289999657e+000	 1.174018663898038e+001
 2.662490719532829e+000	 1.084789458141534e+000	 1.161399879368771e+001
 2.651554821725186e+000	 1.111252458929156e+000	 1.149841740634706e+001
 2.640333664963175e+000	 1.137656862920493e+000	 1.139460411829983e+001
 2.628827330693487e+000	 1.163998224004522e+000	 1.130380110739590e+001
 2.617035989812912e+000	 1.190272081547028e+000	 1.122733300382743e+001
 2.604959903428432e+000	 1.216473962572515e+000	 1.116660864217943e+001
 2.592599423555365e+000	 1.242599383980309e+000	 1.112312263934229e+001
 2.579954993752004e+000	 1.268643854792880e+000	 1.128866737896051e+001
 2.567027149689244e+000	 1.294602878434302e+000	 1.152492304099744e+001
 2.553816519653783e+000	 1.320471955036735e+000	 1.175122290807686e+001
 2.696386073097013e+000	 1.067474657737242e+000	 1.173360632901346e+001
 2.685642812747688e+000	 1.094222409950274e+000	 1.159988536808061e+001
 2.674611820176765e+000	 1.120915523788506e+000	 1.147378960955902e+001
 2.663293088138760e+000	 1.147549531293022e+000	 1.135643846053908e+001
 2.651686698788594e+000	 1.174119947690962e+000	 1.124903637404507e+001
 2.639792824509118e+000	 1.200622273559989e+000	 1.115287492128118e+001
 2.627611728677810e+000	 1.227051997029165e+000	 1.106933469405029e+001
 2.615143766370987e+000	 1.253404596014334e+000	 1.103924104229229e+001
 2.602389385003972e+000	 1.279675540485985e+000	 1.127538290719659e+001
 2.589349124905667e+000	 1.305860294767532e+000	 1.150137587495688e+001
 2.576023619826133e+000	 1.331954319861851e+000	 1.171577009251362e+001
 2.719630780624395e+000	 1.076677025474828e+000	 1.172189415891961e+001
 2.708794905962132e+000	 1.103655361759014e+000	 1.158095885953811e+001
 2.697668818628000e+000	 1.130578588647856e+000	 1.144464913388540e+001
 2.686252511314052e+000	 1.157442199665550e+000	 1.131404125921590e+001
 2.674546066883441e+000	 1.184241671377402e+000	 1.119030111893532e+001
 2.662549659205076e+000	 1.210972465572949e+000	 1.107468643380944e+001
 2.650263553926928e+000	 1.237630031485815e+000	 1.096854881722879e+001
 2.637688109186321e+000	 1.264209808048359e+000	 1.104847990099481e+001
 2.624823776255603e+000	 1.290707226179090e+000	 1.127532241489269e+001
 2.611671100121684e+000	 1.317117711100763e+000	 1.149048918153138e+001
 2.598230719997987e+000	 1.343436684686967e+000	 1.169249216662228e+001
 2.742875488151270e+000	 1.085879393212413e+000	 1.170676854174739e+001
 2.731946999176162e+000	 1.113088313567753e+000	 1.155897745921658e+001
 2.720725817078890e+000	 1.140241653507206e+000	 1.141279225306823e+001
 2.709211934489051e+000	 1.167334868038079e+000	 1.126924514213427e+001
 2.697405434978025e+000	 1.194363395063843e+000	 1.112946256357913e+001
 2.685306493900782e+000	 1.221322657585910e+000	 1.099466756567331e+001
 2.672915379175787e+000	 1.248208065942465e+000	 1.086618201843178e+001
 2.660232452001367e+000	 1.275015020082383e+000	 1.107084395174656e+001
 2.647258167506897e+000	 1.301738911872195e+000	 1.128774431091491e+001
 2.633993075337294e+000	 1.328375127433993e+000	 1.149151962112730e+001
 2.620437820169345e+000	 1.354919049512082e+000	 1.168064392597467e+001
 2.766120195677642e+000	 1.095081760949999e+000	 1.168994049517284e+001
 2.755099092389776e+000	 1.122521265376493e+000	 1.153569155439892e+001
 2.743782815529437e+000	 1.149904718366556e+000	 1.138000705660408e+001
 2.732171357663757e+000	 1.177227536410608e+000	 1.122387420095033e+001
 2.720264803072348e+000	 1.204485118750283e+000	 1.106837907023450e+001
 2.708063328596237e+000	 1.231672849598870e+000	 1.091470918787951e+001
 2.695567204424388e+000	 1.258786100399115e+000	 1.088626171574527e+001
 2.682776794816125e+000	 1.285820232116408e+000	 1.110558358578525e+001
 2.669692558757854e+000	 1.312770597565300e+000	 1.131189714639570e+001
 2.656315050552498e+000	 1.339632543767224e+000	 1.150371382164317e+001
 2.642644920340206e+000	 1.366401414337198e+000	 1.167946998928477e+001
 2.789364903203508e+000	 1.104284128687585e+000	 1.167311394964013e+001
 2.778251185602976e+000	 1.131954217185233e+000	 1.151284405365595e+001
 2.766839813979641e+000	 1.159567783225906e+000	 1.134807379075426e+001
 2.755130780838170e+000	 1.187120204783136e+000	 1.117974434684527e+001
 2.743124171166410e+000	 1.214606842436723e+000	 1.100890051104052e+001
 2.730820163291444e+000	 1.242023041611831e+000	 1.083669339956609e+001
 2.718219029672730e+000	 1.269364134855766e+000	 1.094259312459891e+001
 2.705321137630596e+000	 1.296625444150433e+000	 1.115193994378146e+001
 2.692126950008475e+000	 1.323802283258405e+000	 1.134702002547265e+001
 2.678637025767297e+000	 1.350889960100455e+000	 1.152630879649087e+001
 2.664852020510573e+000	 1.377883779162314e+000	 1.168820522244437e+001
 2.442781018784593e+000	 1.263060130911157e+000	 1.191152910074479e+001
 2.429874963012998e+000	 1.287714123616817e+000	 1.197701661510793e+001
 2.416699885617484e+000	 1.312273471080953e+000	 1.201240657201238e+001
 2.403256655568766e+000	 1.336733873108761e+000	 1.201729436447591e+001
 2.389546231691873e+000	 1.361091035406278e+000	 1.199135223520114e+001
 2.375569662812049e+000	 1.385340671887672e+000	 1.193433009583476e+001
 2.361328087830619e+000	 1.409478506995772e+000	 1.184605618122253e+001
 2.346822735730042e+000	 1.433500278033387e+000	 1.172643753534578e+001
 2.332054925507497e+000	 1.457401737502926e+000	 1.157546032607659e+001
 2.317026066036402e+000	 1.481178655451782e+000	 1.139318998635727e+001
 2.301737655855408e+000	 1.504826821820936e+000	 1.117977117989182e+001
 2.464988118959423e+000	 1.274542495736273e+000	 1.190176968647153e+001
 2.451964735408257e+000	 1.299420615648048e+000	 1.194471924542659e+001
 2.438669884582033e+000	 1.324203229907143e+000	 1.195862191963482e+001
 2.425104443351200e+000	 1.348885999226073e+000	 1.194327641132051e+001
 2.411269379257375e+000	 1.373464590271840e+000	 1.189856018704742e+001
 2.397165750660581e+000	 1.397934677994196e+000	 1.182443009263209e+001
 2.382794706815789e+000	 1.422291947967267e+000	 1.172092279667381e+001
 2.368157487878027e+000	 1.446532098742073e+000	 1.158815505965433e+001
 2.353255424835356e+000	 1.470650844207407e+000	 1.142632382603272e+001
 2.338089939369133e+000	 1.494643915956549e+000	 1.123570613724860e+001
 2.322662543641093e+000	 1.518507065657215e+000	 1.101665886404810e+001
 2.487195219133758e+000	 1.286024860561388e+000	 1.189462561361953e+001
 2.474054507802924e+000	 1.311127107679275e+000	 1.192057867185974e+001
 2.460639883545905e+000	 1.336132988733313e+000	 1.191845667766543e+001
 2.446952231132880e+000	 1.361038125343341e+000	 1.188825923757909e+001
 2.432992526822060e+000	 1.385838145137323e+000	 1.183006670491403e+001
 2.418761838508240e+000	 1.410528684100595e+000	 1.174404059279351e+001
 2.404261325800040e+000	 1.435105388938585e+000	 1.163042380932603e+001
 2.389492240025056e+000	 1.459563919450517e+000	 1.148954071213223e+001
 2.374455924162234e+000	 1.483899950911571e+000	 1.132179697993246e+001
 2.359153812700870e+000	 1.508109176460914e+000	 1.112767929941076e+001
 2.343587431425777e+000	 1.532187309492996e+000	 1.090775486609295e+001
 2.509402319307596e+000	 1.297507225386504e+000	 1.186158043982170e+001
 2.496144280197001e+000	 1.322833599710497e+000	 1.190551944698804e+001
 2.482609882509102e+000	 1.348062747559464e+000	 1.189269772660273e+001
 2.468800018913809e+000	 1.373190251460564e+000	 1.185289252387756e+001
 2.454715674385927e+000	 1.398211700002727e+000	 1.178638481277666e+001
 2.440357926355025e+000	 1.423122690206872e+000	 1.169353857830627e+001
 2.425727944783372e+000	 1.447918829909724e+000	 1.157480084564428e+001
 2.410826992171133e+000	 1.472595740158718e+000	 1.143070152229610e+001
 2.395656423488133e+000	 1.497149057615417e+000	 1.126185305126375e+001
 2.380217686031612e+000	 1.521574436964876e+000	 1.106894987374304e+001
 2.364512319209461e+000	 1.545867553328280e+000	 1.085276770040464e+001
 2.531609419480937e+000	 1.308989590211620e+000	 1.179958519452890e+001
 2.518234052590487e+000	 1.334540091741714e+000	 1.183745678509794e+001
 2.504579881471621e+000	 1.359992506385595e+000	 1.186421762641489e+001
 2.490647806693985e+000	 1.385342377577743e+000	 1.183782793454526e+001
 2.476438821948976e+000	 1.410585254868052e+000	 1.176803432481814e+001
 2.461954014200937e+000	 1.435716696313025e+000	 1.167331258630397e+001
 2.447194563765786e+000	 1.460732270880685e+000	 1.155431180820864e+001
 2.432161744316254e+000	 1.485627560866675e+000	 1.141176547038211e+001
 2.416856922813052e+000	 1.510398164318946e+000	 1.124649088009668e+001
 2.401281559361360e+000	 1.535039697468435e+000	 1.105938841248650e+001
 2.385437206992146e+000	 1.559547797163067e+000	 1.085144055401908e+001
 2.553816519653783e+000	 1.320471955036735e+000	 1.175122290807686e+001
 2.540323824983382e+000	 1.346246583772926e+000	 1.177358008177919e+001
 2.526549880433464e+000	 1.371922265211707e+000	 1.178757707292326e+001
 2.512495594473410e+000	 1.397494503694878e+000	 1.179156969064429e+001
 2.498161969511209e+000	 1.422958809733299e+000	 1.177554155020196e+001
 2.483550102045977e+000	 1.448310702419053e+000	 1.168376220666900e+001
 2.468661182747281e+000	 1.473545711851468e+000	 1.156923016805703e+001
 2.453496496460421e+000	 1.498659381574390e+000	 1.143288057644524e+001
 2.438057422136993e+000	 1.523647271022157e+000	 1.127573377105806e+001
 2.422345432690112e+000	 1.548504957971592e+000	 1.109889430829611e+001
 2.406362094773829e+000	 1.573228040997356e+000	 1.090354977912299e+001
 2.576023619826133e+000	 1.331954319861851e+000	 1.171577009251362e+001
 2.562413597375686e+000	 1.357953075804133e+000	 1.172708998321699e+001
 2.548519879394630e+000	 1.383852024037799e+000	 1.173280845181681e+001
 2.534343382252084e+000	 1.409646629811968e+000	 1.173142840997722e+001
 2.519885117072623e+000	 1.435332364598465e+000	 1.172137846163413e+001
 2.505146189890143e+000	 1.460904708524959e+000	 1.170101402382225e+001
 2.490127801727857e+000	 1.486359152822073e+000	 1.161984429363097e+001
 2.474831248603634e+000	 1.511691202281862e+000	 1.149421403657381e+001
 2.459257921459952e+000	 1.536896377725050e+000	 1.134962843882478e+001
 2.443409306017870e+000	 1.561970218474346e+000	 1.118739455111943e+001
 2.427286982554514e+000	 1.586908284831148e+000	 1.100890346352138e+001
 2.598230719997987e+000	 1.343436684686967e+000	 1.169249216662228e+001
 2.584503369767397e+000	 1.369659567835335e+000	 1.169712484335530e+001
 2.570489878355120e+000	 1.395781782863870e+000	 1.169892469466524e+001
 2.556191170030006e+000	 1.421798755929015e+000	 1.169653921867120e+001
 2.541608264633220e+000	 1.447705919463553e+000	 1.168853789860574e+001
 2.526742277733436e+000	 1.473498714630741e+000	 1.167341314170461e+001
 2.511594420707514e+000	 1.499172593792499e+000	 1.164958144105125e+001
 2.496166000745893e+000	 1.524723022989092e+000	 1.159595140340102e+001
 2.480458420781933e+000	 1.550145484427626e+000	 1.146824400769415e+001
 2.464473179344632e+000	 1.575435478976699e+000	 1.132484254882505e+001
 2.448211870334198e+000	 1.600588528664443e+000	 1.116734007441471e+001
 2.620437820169345e+000	 1.354919049512082e+000	 1.168064392597467e+001
 2.606593142158518e+000	 1.381366059866532e+000	 1.168281651825772e+001
 2.592459877314933e+000	 1.407711541689923e+000	 1.168493633171821e+001
 2.578038957807175e+000	 1.433950882046016e+000	 1.168579299418171e+001
 2.563331412193000e+000	 1.460079474328562e+000	 1.168409434157017e+001
 2.548338365575855e+000	 1.486092720736399e+000	 1.167846717652826e+001
 2.533061039686254e+000	 1.511986034762747e+000	 1.166745825627049e+001
 2.517500752887197e+000	 1.537754843696078e+000	 1.164953551165440e+001
 2.501658920102933e+000	 1.563394591129885e+000	 1.162308949879903e+001
 2.485537052670400e+000	 1.588900739478649e+000	 1.151121700779918e+001
 2.469136758112883e+000	 1.614268772497240e+000	 1.137872717113612e+001
 2.642644920340206e+000	 1.366401414337198e+000	 1.167946998928477e+001
 2.628682914549048e+000	 1.393072551897724e+000	 1.168329063912771e+001
 2.614429876274070e+000	 1.419641300515956e+000	 1.168985159280113e+001
 2.599886745583591e+000	 1.446103008162973e+000	 1.169808220845916e+001
 2.585054559751962e+000	 1.472453029193492e+000	 1.170682620443144e+001
 2.569934453417402e+000	 1.498686726841934e+000	 1.171484223920175e+001
 2.554527658664074e+000	 1.524799475732817e+000	 1.172080472703187e+001
 2.538835505027548e+000	 1.550786664402821e+000	 1.172330489162468e+001
 2.522859419422954e+000	 1.576643697831826e+000	 1.172085205952035e+001
 2.506600925995173e+000	 1.602365999980196e+000	 1.171187519419951e+001
 2.490061645890567e+000	 1.627949016329540e+000	 1.164296018279307e+001
 2.664852020510573e+000	 1.377883779162314e+000	 1.168820522244437e+001
 2.650772686938987e+000	 1.404779043928912e+000	 1.169766687167775e+001
 2.636399875232532e+000	 1.431571059341969e+000	 1.171267650316615e+001
 2.621734533359257e+000	 1.458255134279886e+000	 1.173230086151166e+001
 2.606777707310106e+000	 1.484826584058344e+000	 1.175551713162674e+001
 2.591530541258077e+000	 1.511280732947345e+000	 1.178121334162512e+001
 2.575994277640976e+000	 1.537612916702709e+000	 1.180818900794108e+001
 2.560170257166945e+000	 1.563818485109322e+000	 1.183515602546027e+001
 2.544059918741996e+000	 1.589892804533449e+000	 1.186073980472929e+001
 2.527664799318952e+000	 1.615831260481341e+000	 1.188348065757432e+001
 2.510986533667252e+000	 1.641629260161343e+000	 1.190183543170434e+001
 2.301737655855408e+000	 1.504826821820936e+000	 1.117977117989182e+001
 2.286191282884384e+000	 1.528342048794389e+000	 1.120897657584600e+001
 2.270388624067453e+000	 1.551720173146156e+000	 1.124509483517945e+001
 2.254331444942703e+000	 1.574957058582615e+000	 1.129086190737881e+001
 2.238021599138304e+000	 1.598048598078017e+000	 1.134906699128021e+001
 2.221461027795396e+000	 1.620990716199807e+000	 1.142254894846068e+001
 2.204651758917846e+000	 1.643779371421331e+000	 1.151419255750098e+001
 2.187595906649108e+000	 1.666410558419238e+000	 1.162692461542569e+001
 2.170295670476612e+000	 1.688880310352929e+000	 1.176370989314718e+001
 2.152753334364159e+000	 1.711184701123381e+000	 1.192754695224626e+001
 2.134971265812936e+000	 1.733319847608720e+000	 1.212146383091097e+001
 2.322662543641093e+000	 1.518507065657215e+000	 1.101665886404810e+001
 2.306974840006722e+000	 1.542236067422203e+000	 1.109950877902939e+001
 2.291028520655075e+000	 1.565826720177869e+000	 1.118493957927504e+001
 2.274825367174591e+000	 1.589274850027924e+000	 1.127541213093448e+001
 2.258367250044602e+000	 1.612576312610017e+000	 1.137344465595411e+001
 2.241656128052987e+000	 1.635726995442208e+000	 1.148160943024641e+001
 2.224694047640010e+000	 1.658722820256690e+000	 1.160252931693528e+001
 2.207483142168611e+000	 1.681559745318081e+000	 1.173887414050625e+001
 2.190025631121564e+000	 1.704233767723595e+000	 1.189335690822385e+001
 2.172323819225972e+000	 1.726740925682400e+000	 1.206872988569978e+001
 2.154380095505764e+000	 1.749077300771513e+000	 1.226778053399963e+001
 2.343587431425777e+000	 1.532187309492996e+000	 1.090775486609295e+001
 2.327758397128064e+000	 1.556130086049429e+000	 1.103533539136729e+001
 2.311668417241718e+000	 1.579933267208925e+000	 1.116118345784830e+001
 2.295319289405525e+000	 1.603592641472524e+000	 1.128748996906210e+001
 2.278712900949980e+000	 1.627104027141278e+000	 1.141650732860237e+001
 2.261851228309702e+000	 1.650463274683859e+000	 1.155054641812125e+001
 2.244736336361353e+000	 1.673666269091308e+000	 1.169197340449079e+001
 2.227370377687360e+000	 1.696708932216214e+000	 1.184320638149294e+001
 2.209755591765835e+000	 1.719587225093602e+000	 1.200671185194537e+001
 2.191894304087189e+000	 1.742297150240828e+000	 1.218500105670543e+001
 2.173788925198088e+000	 1.764834753933805e+000	 1.238062615751572e+001
 2.364512319209461e+000	 1.545867553328280e+000	 1.085276770040464e+001
 2.348541954248410e+000	 1.570024104676068e+000	 1.101639428498941e+001
 2.332308313827380e+000	 1.594039814239324e+000	 1.117399168412241e+001
 2.315813211635502e+000	 1.617910432916416e+000	 1.132748585276688e+001
 2.299058551854437e+000	 1.641631741671801e+000	 1.147886842919644e+001
 2.282046328565542e+000	 1.665199553924761e+000	 1.163019398794708e+001
 2.264778625081876e+000	 1.688609717925187e+000	 1.178357711592102e+001
 2.247257613205352e+000	 1.711858119113637e+000	 1.194118931653880e+001
 2.229485552409424e+000	 1.734940682462946e+000	 1.210525574739876e+001
 2.211464788947809e+000	 1.757853374798665e+000	 1.227805179745399e+001
 2.193197754889913e+000	 1.780592207095596e+000	 1.246189951025436e+001
 2.385437206992146e+000	 1.559547797163067e+000	 1.085144055401908e+001
 2.369325511367762e+000	 1.583918123302120e+000	 1.104264983179552e+001
 2.352948210412062e+000	 1.608146361269064e+000	 1.122354785025109e+001
 2.336307133864524e+000	 1.632228224359600e+000	 1.139580052721166e+001
 2.319404202757974e+000	 1.656159456201584e+000	 1.156114368716010e+001
 2.302241428820505e+000	 1.679935833164913e+000	 1.172138058437933e+001
 2.284820913801577e+000	 1.703553166758326e+000	 1.187837924311525e+001
 2.267144848722588e+000	 1.727007306010348e+000	 1.203406961920116e+001
 2.249215513052331e+000	 1.750294139831630e+000	 1.219044058816324e+001
 2.231035273807834e+000	 1.773409599355911e+000	 1.234953676539278e+001
 2.212606584581236e+000	 1.796349660256885e+000	 1.251345516452559e+001
 2.406362094773829e+000	 1.573228040997356e+000	 1.090354977912299e+001
 2.390109068486118e+000	 1.597812141927584e+000	 1.111409175129149e+001
 2.373588106995764e+000	 1.622252908298146e+000	 1.131005312823461e+001
 2.356801056092591e+000	 1.646546015802076e+000	 1.149284460327536e+001
 2.339749853660591e+000	 1.670687170730629e+000	 1.166395104095841e+001
 2.322436529074593e+000	 1.694672112404316e+000	 1.182492926570210e+001
 2.304863202520457e+000	 1.718496615590724e+000	 1.197740566122306e+001
 2.287032084239069e+000	 1.742156492906350e+000	 1.212307358472841e+001
 2.268945473694558e+000	 1.765647597199653e+000	 1.226369060046275e+001
 2.250605758667262e+000	 1.788965823912565e+000	 1.240107553777975e+001
 2.232015414272057e+000	 1.812107113417673e+000	 1.253710537947983e+001
 2.427286982554514e+000	 1.586908284831148e+000	 1.100890346352138e+001
 2.410892625603480e+000	 1.611706160552461e+000	 1.123073401802002e+001
 2.394228003578486e+000	 1.636359455326572e+000	 1.143372551216780e+001
 2.377294978319703e+000	 1.660863807243843e+000	 1.161903813230650e+001
 2.360095504562286e+000	 1.685214885258934e+000	 1.178791054288045e+001
 2.342631629327805e+000	 1.709408391642969e+000	 1.194165793599932e+001
 2.324905491238517e+000	 1.733440064422383e+000	 1.208166988541040e+001
 2.306919319754793e+000	 1.757305679801640e+000	 1.220940800843543e+001
 2.288675434336103e+000	 1.781001054567014e+000	 1.232640344003470e+001
 2.270176243526093e+000	 1.804522048468628e+000	 1.243425412376053e+001
 2.251424243962378e+000	 1.827864566577960e+000	 1.253462192495080e+001
 2.448211870334198e+000	 1.600588528664443e+000	 1.116734007441471e+001
 2.431676182719846e+000	 1.625600179176749e+000	 1.139261382502058e+001
 2.414867900160228e+000	 1.650466002354339e+000	 1.159479909934709e+001
 2.397788900545859e+000	 1.675181598684902e+000	 1.177481020268444e+001
 2.380441155463061e+000	 1.699742599786501e+000	 1.193364426870492e+001
 2.362826729580141e+000	 1.724144670880873e+000	 1.207237956541965e+001
 2.344947779955755e+000	 1.748383513253301e+000	 1.219217359906394e+001
 2.326806555269760e+000	 1.772454866696219e+000	 1.229426101903396e+001
 2.308405394976968e+000	 1.796354511933715e+000	 1.237995132762078e+001
 2.289746728384328e+000	 1.820078273024101e+000	 1.245062639890326e+001
 2.270833073652197e+000	 1.843622019737746e+000	 1.250773781176840e+001
 2.469136758112883e+000	 1.614268772497240e+000	 1.137872717113612e+001
 2.452459739835218e+000	 1.639494197800451e+000	 1.159979059999479e+001
 2.435507796740989e+000	 1.664572549381448e+000	 1.179352340793144e+001
 2.418282822771059e+000	 1.689499390125252e+000	 1.196059855689417e+001
 2.400786806362916e+000	 1.714270314313329e+000	 1.210177623195906e+001
 2.383021829831602e+000	 1.738880950118028e+000	 1.221790239924164e+001
 2.364990068672173e+000	 1.763326962083479e+000	 1.230990715513770e+001
 2.346693790783972e+000	 1.787604053590089e+000	 1.237880286959051e+001
 2.328135355617151e+000	 1.811707969299755e+000	 1.242568212672115e+001
 2.309317213241967e+000	 1.835634497578981e+000	 1.245171546679069e+001
 2.290241903341514e+000	 1.859379472897029e+000	 1.245814893408919e+001
 2.490061645890567e+000	 1.627949016329540e+000	 1.164296018279307e+001
 2.473243296949594e+000	 1.653388216423565e+000	 1.185234507107691e+001
 2.456147693320771e+000	 1.678679096407900e+000	 1.203016272900691e+001
 2.438776744995305e+000	 1.703817181564894e+000	 1.217684922790856e+001
 2.421132457261850e+000	 1.728798028839418e+000	 1.229293230250065e+001
 2.403216930082187e+000	 1.753617229354432e+000	 1.237903015639758e+001
 2.385032357387770e+000	 1.778270410912917e+000	 1.243585005222161e+001
 2.366581026297428e+000	 1.802753240483248e+000	 1.246418668860380e+001
 2.347865316256653e+000	 1.827061426665134e+000	 1.246492036700779e+001
 2.328887698099010e+000	 1.851190722133271e+000	 1.243901495196090e+001
 2.309650733030330e+000	 1.875136926055812e+000	 1.238968977807961e+001
 2.510986533667252e+000	 1.641629260161343e+000	 1.190183543170434e+001
 2.494026854062975e+000	 1.667282235046092e+000	 1.215037837931575e+001
 2.476787589899573e+000	 1.692785643433693e+000	 1.230499551104804e+001
 2.459270667218596e+000	 1.718134973003829e+000	 1.242401619375127e+001
 2.441478108159864e+000	 1.743325743364769e+000	 1.250774012917088e+001
 2.423412030331897e+000	 1.768353508590088e+000	 1.255656221807130e+001
 2.405074646102547e+000	 1.793213859741616e+000	 1.257097138680671e+001
 2.386468261810128e+000	 1.817902427375696e+000	 1.255154919352838e+001
 2.367595276895474e+000	 1.842414884029853e+000	 1.249896821656746e+001
 2.348458182955457e+000	 1.866746946686970e+000	 1.241399022820070e+001
 2.329059562718645e+000	 1.890894379214094e+000	 1.254927863759874e+001
 2.134971265812936e+000	 1.733319847608720e+000	 1.212146383091097e+001
 2.116951914852261e+000	 1.755281911873847e+000	 1.199598090110959e+001
 2.098697812959695e+000	 1.777067103351779e+000	 1.186953532825872e+001
 2.080211571912335e+000	 1.798671680993865e+000	 1.174300154567948e+001
 2.061495882571018e+000	 1.820091955386313e+000	 1.161729765617322e+001
 2.042553513597452e+000	 1.841324290830752e+000	 1.149338306037718e+001
 2.023387310105892e+000	 1.862365107386282e+000	 1.137225597029987e+001
 2.004000192250766e+000	 1.883210882870656e+000	 1.134246701591063e+001
 1.984395153751669e+000	 1.903858154818207e+000	 1.142780240567194e+001
 1.964575260357303e+000	 1.924303522392292e+000	 1.148184867043164e+001
 1.944543648250000e+000	 1.944543648250000e+000	 1.150175165792315e+001
 2.154380095505764e+000	 1.749077300771513e+000	 1.226778053399963e+001
 2.136196932263273e+000	 1.771239020165651e+000	 1.208639248895455e+001
 2.117776883989519e+000	 1.793222258838262e+000	 1.190440192718631e+001
 2.099122586205026e+000	 1.815023241731164e+000	 1.172289546165906e+001
 2.080236754233004e+000	 1.836638245890441e+000	 1.154300410691843e+001
 2.061122181904811e+000	 1.858063602565916e+000	 1.136590064370571e+001
 2.041781740199379e+000	 1.879295699271775e+000	 1.124430871060622e+001
 2.022218375817995e+000	 1.900330981805929e+000	 1.131194555803960e+001
 2.002435109695884e+000	 1.921165956225754e+000	 1.135291658969308e+001
 1.982435035452191e+000	 1.941797190777908e+000	 1.136444645917874e+001
 1.962221317780000e+000	 1.962221317780000e+000	 1.134375014945935e+001
 2.173788925198088e+000	 1.764834753933805e+000	 1.238062615751572e+001
 2.155441949673878e+000	 1.787196128457048e+000	 1.214707353182759e+001
 2.136855955019021e+000	 1.809377414324423e+000	 1.191322822856892e+001
 2.118033600497470e+000	 1.831374802468217e+000	 1.168038830945343e+001
 2.098977625894809e+000	 1.853184536394387e+000	 1.144989702391829e+001
 2.079690850212045e+000	 1.874802914300954e+000	 1.122313990977693e+001
 2.060176170292787e+000	 1.896226291157187e+000	 1.126860837885684e+001
 2.040436559385177e+000	 1.917451080741158e+000	 1.129445762986138e+001
 2.020475065640079e+000	 1.938473757633281e+000	 1.129541180859419e+001
 2.000294810547075e+000	 1.959290859163519e+000	 1.126876452379390e+001
 1.979898987310000e+000	 1.979898987310000e+000	 1.121179620328524e+001
 2.193197754889913e+000	 1.780592207095596e+000	 1.246189951025436e+001
 2.174686967084077e+000	 1.803153236748038e+000	 1.217980258600308e+001
 2.155935026048201e+000	 1.825532569810263e+000	 1.189767273382906e+001
 2.136944614789670e+000	 1.847726363205024e+000	 1.161701880138618e+001
 2.117718497556434e+000	 1.869730826898153e+000	 1.133939566440485e+001
 2.098259518519154e+000	 1.891542226035867e+000	 1.129198900549126e+001
 2.078570600386115e+000	 1.913156883042519e+000	 1.130081640016738e+001
 2.058654742952316e+000	 1.934571179676341e+000	 1.128913573869672e+001
 2.038515021584253e+000	 1.955781559040788e+000	 1.125432785462131e+001
 2.018154585641954e+000	 1.976784527549125e+000	 1.119375168751832e+001
 1.997576656840000e+000	 1.997576656840000e+000	 1.110474944965616e+001
 2.212606584581236e+000	 1.796349660256885e+000	 1.251345516452559e+001
 2.193931984493869e+000	 1.819110345038622e+000	 1.218631789334909e+001
 2.175014097077061e+000	 1.841687725295783e+000	 1.185935753014269e+001
 2.155855629081623e+000	 1.864077923941585e+000	 1.153429311186842e+001
 2.136459369217877e+000	 1.886277117401738e+000	 1.137632889954091e+001
 2.116828186826137e+000	 1.908281537770655e+000	 1.136637546354084e+001
 2.096965030479361e+000	 1.930087474927769e+000	 1.134013864084917e+001
 2.076872926519409e+000	 1.951691278611478e+000	 1.129509508332882e+001
 2.056554977528407e+000	 1.973089360448274e+000	 1.122869094054456e+001
 2.036014360736828e+000	 1.994278195934725e+000	 1.113834688821230e+001
 2.015254326370000e+000	 2.015254326370001e+000	 1.102146329078402e+001
 2.232015414272057e+000	 1.812107113417673e+000	 1.253710537947983e+001
 2.213177001903255e+000	 1.835067453328800e+000	 1.216831913412757e+001
 2.194093168105600e+000	 1.857842880780981e+000	 1.179986987366744e+001
 2.174766643373330e+000	 1.880429484677900e+000	 1.151592438492325e+001
 2.155200240879140e+000	 1.902823407905143e+000	 1.148556740569897e+001
 2.135396855132995e+000	 1.925020849505317e+000	 1.144298586591268e+001
 2.115359460572527e+000	 1.947018066812941e+000	 1.138576081257967e+001
 2.095091110086457e+000	 1.968811377546571e+000	 1.131143430654838e+001
 2.074594933472542e+000	 1.990397161855741e+000	 1.121751429007021e+001
 2.053874135831696e+000	 2.011771864320322e+000	 1.110147960815445e+001
 2.032931995899999e+000	 2.032931995899999e+000	 1.096078517162176e+001
 2.251424243962378e+000	 1.827864566577960e+000	 1.253462192495080e+001
 2.232422019312235e+000	 1.851024561618572e+000	 1.212746908913263e+001
 2.213172239133817e+000	 1.873998036265858e+000	 1.172076369087953e+001
 2.193677657664791e+000	 1.896781045413969e+000	 1.165288629619067e+001
 2.173941112540222e+000	 1.919369698408366e+000	 1.159229972887666e+001
 2.153965523439727e+000	 1.941760161239853e+000	 1.152107185562781e+001
 2.133753890665613e+000	 1.963948658698031e+000	 1.143684934113683e+001
 2.113309293653459e+000	 1.985931476481618e+000	 1.133723620877404e+001
 2.092634889416655e+000	 2.007704963263187e+000	 1.121979869771411e+001
 2.071733910926561e+000	 2.029265532705913e+000	 1.108207028160988e+001
 2.050609665430000e+000	 2.050609665430000e+000	 1.092155683664178e+001
 2.270833073652197e+000	 1.843622019737746e+000	 1.250773781176840e+001
 2.251667036720809e+000	 1.866981669907937e+000	 1.206539521659087e+001
 2.232251310161713e+000	 1.890153191750413e+000	 1.186289849921636e+001
 2.212588671956006e+000	 1.913132606149793e+000	 1.178277087327784e+001
 2.192681984201123e+000	 1.935915988911409e+000	 1.169583915712562e+001
 2.172534191746333e+000	 1.958499472974264e+000	 1.159986329017988e+001
 2.152148320758618e+000	 1.980879250583041e+000	 1.149255219058276e+001
 2.131527477220416e+000	 2.003051575416621e+000	 1.137156842507678e+001
 2.110674845360750e+000	 2.025012764670614e+000	 1.123453305996364e+001
 2.089593686021419e+000	 2.046759201091499e+000	 1.107903068149742e+001
 2.068287334960000e+000	 2.068287334960000e+000	 1.090261457344625e+001
 2.290241903341514e+000	 1.859379472897029e+000	 1.245814893408919e+001
 2.270912054128976e+000	 1.882938778196897e+000	 1.211025279527879e+001
 2.251330381189289e+000	 1.906308347234647e+000	 1.200916895436476e+001
 2.231499686246975e+000	 1.929484166885370e+000	 1.190494904230289e+001
 2.211422855861843e+000	 1.952462279414270e+000	 1.179547490838577e+001
 2.191102860052813e+000	 1.975238784708549e+000	 1.167856916465065e+001
 2.170542750851543e+000	 1.997809842467971e+000	 1.155199964553985e+001
 2.149745660787328e+000	 2.020171674351577e+000	 1.141348406777938e+001
 2.128714801304823e+000	 2.042320566078020e+000	 1.126069487943151e+001
 2.107453461116273e+000	 2.064252869477080e+000	 1.109126428639582e+001
 2.085965004490000e+000	 2.085965004490000e+000	 1.090278944399037e+001
 2.309650733030330e+000	 1.875136926055812e+000	 1.238968977807961e+001
 2.290157071536736e+000	 1.898895886485449e+000	 1.226635260323850e+001
 2.270409452216542e+000	 1.922463502718561e+000	 1.214337375457363e+001
 2.250410700537698e+000	 1.945835727620701e+000	 1.201876557551120e+001
 2.230163727522383e+000	 1.969008569916952e+000	 1.189047314183457e+001
 2.209671528359169e+000	 1.991978096442708e+000	 1.175637848828198e+001
 2.188937180944388e+000	 2.014740434352820e+000	 1.161430505402436e+001
 2.167963844354194e+000	 2.037291773286489e+000	 1.146202233665600e+001
 2.146754757248877e+000	 2.059628367485406e+000	 1.129725074358995e+001
 2.125313236211122e+000	 2.081746537862656e+000	 1.111766662904546e+001
 2.103642674020000e+000	 2.103642674020000e+000	 1.092090750414737e+001
 2.329059562718645e+000	 1.890894379214094e+000	 1.254927863759874e+001
 2.309402088944092e+000	 1.914852994773596e+000	 1.240618124494438e+001
 2.289488523243476e+000	 1.938618658202153e+000	 1.226490967133210e+001
 2.269321714828176e+000	 1.962187288355787e+000	 1.212354018102004e+001
 2.248904599182742e+000	 1.985554860419452e+000	 1.198007791866878e+001
 2.228240196665399e+000	 2.008717408176743e+000	 1.183246111721910e+001
 2.207331611037153e+000	 2.031671026237589e+000	 1.167856553313838e+001
 2.186182027921017e+000	 2.054411872221357e+000	 1.151620909862165e+001
 2.164794713192912e+000	 2.076936168892773e+000	 1.134315677956825e+001
 2.143173011305966e+000	 2.099240206248227e+000	 1.115712562742493e+001
 2.121320343550000e+000	 2.121320343550000e+000	 1.095579001229533e+001
 1.944543648250000e+000	 1.944543648250000e+000	 1.150175165792315e+001
 1.924303522392292e+000	 1.964575260357303e+000	 1.167838939277764e+001
 1.903858154818207e+000	 1.984395153751669e+000	 1.179180376014472e+001
 1.883210882870656e+000	 2.004000192250766e+000	 1.183885925004895e+001
 1.862365107386283e+000	 2.023387310105892e+000	 1.183070209003871e+001
 1.841324290830751e+000	 2.042553513597451e+000	 1.175603566183786e+001
 1.820091955386314e+000	 2.061495882571018e+000	 1.160642386205456e+001
 1.798671680993865e+000	 2.080211571912334e+000	 1.138437702542398e+001
 1.777067103351779e+000	 2.098697812959695e+000	 1.109253040621356e+001
 1.755281911873847e+000	 2.116951914852261e+000	 1.073363707081779e+001
 1.733319847608720e+000	 2.134971265812937e+000	 1.031056054853027e+001
 1.962221317780000e+000	 1.962221317780000e+000	 1.134375014945935e+001
 1.941797190777907e+000	 1.982435035452191e+000	 1.147830500187135e+001
 1.921165956225753e+000	 2.002435109695884e+000	 1.155747815470927e+001
 1.900330981805929e+000	 2.022218375817995e+000	 1.157831911130798e+001
 1.879295699271775e+000	 2.041781740199379e+000	 1.153790378145709e+001
 1.858063602565916e+000	 2.061122181904811e+000	 1.144970068135945e+001
 1.836638245890441e+000	 2.080236754233004e+000	 1.129839022001018e+001
 1.815023241731165e+000	 2.099122586205026e+000	 1.108226401217068e+001
 1.793222258838262e+000	 2.117776883989519e+000	 1.080431375400452e+001
 1.771239020165651e+000	 2.136196932263273e+000	 1.046764303884252e+001
 1.749077300771513e+000	 2.154380095505764e+000	 1.007545953317218e+001
 1.979898987310000e+000	 1.979898987310000e+000	 1.121179620328524e+001
 1.959290859163519e+000	 2.000294810547075e+000	 1.131229223041890e+001
 1.938473757633281e+000	 2.020475065640078e+000	 1.136512586068954e+001
 1.917451080741157e+000	 2.040436559385178e+000	 1.136752612838498e+001
 1.896226291157187e+000	 2.060176170292787e+000	 1.131673940399221e+001
 1.874802914300954e+000	 2.079690850212046e+000	 1.121019943034641e+001
 1.853184536394388e+000	 2.098977625894809e+000	 1.106277628382950e+001
 1.831374802468217e+000	 2.118033600497470e+000	 1.085792308561935e+001
 1.809377414324423e+000	 2.136855955019021e+000	 1.059898829594849e+001
 1.787196128457048e+000	 2.155441949673878e+000	 1.028942655875817e+001
 1.764834753933805e+000	 2.173788925198089e+000	 9.932790399375813e+000
 1.997576656840000e+000	 1.997576656840000e+000	 1.110474944965616e+001
 1.976784527549125e+000	 2.018154585641954e+000	 1.117902475968682e+001
 1.955781559040787e+000	 2.038515021584253e+000	 1.121323917491362e+001
 1.934571179676340e+000	 2.058654742952317e+000	 1.120479584930206e+001
 1.913156883042519e+000	 2.078570600386115e+000	 1.115110625214821e+001
 1.891542226035867e+000	 2.098259518519154e+000	 1.104959566747563e+001
 1.869730826898153e+000	 2.117718497556434e+000	 1.090102136768985e+001
 1.847726363205024e+000	 2.136944614789669e+000	 1.071258718111789e+001
 1.825532569810264e+000	 2.155935026048202e+000	 1.047758386985670e+001
 1.803153236748038e+000	 2.174686967084077e+000	 1.019981777024447e+001
 1.780592207095596e+000	 2.193197754889913e+000	 9.883187104239013e+000
 2.015254326370000e+000	 2.015254326370001e+000	 1.102146329078402e+001
 1.994278195934726e+000	 2.036014360736828e+000	 1.107717711997367e+001
 1.973089360448274e+000	 2.056554977528407e+000	 1.110031818415259e+001
 1.951691278611479e+000	 2.076872926519410e+000	 1.108845841345543e+001
 1.930087474927769e+000	 2.096965030479361e+000	 1.103916907864981e+001
 1.908281537770655e+000	 2.116828186826137e+000	 1.095002620105374e+001
 1.886277117401738e+000	 2.136459369217877e+000	 1.081861601932409e+001
 1.864077923941585e+000	 2.155855629081622e+000	 1.064752957325930e+001
 1.841687725295782e+000	 2.175014097077062e+000	 1.044117671037821e+001
 1.819110345038622e+000	 2.193931984493869e+000	 1.019969911005163e+001
 1.796349660256885e+000	 2.212606584581236e+000	 9.927341642181428e+000
 2.032931995899999e+000	 2.032931995899999e+000	 1.096078517162176e+001
 2.011771864320322e+000	 2.053874135831696e+000	 1.100542465369561e+001
 1.990397161855741e+000	 2.074594933472541e+000	 1.102487042642731e+001
 1.968811377546571e+000	 2.095091110086456e+000	 1.101685791720766e+001
 1.947018066812941e+000	 2.115359460572527e+000	 1.097911296240529e+001
 1.925020849505317e+000	 2.135396855132995e+000	 1.090935713407033e+001
 1.902823407905143e+000	 2.155200240879140e+000	 1.080531313767846e+001
 1.880429484677901e+000	 2.174766643373330e+000	 1.066471026659287e+001
 1.857842880780981e+000	 2.194093168105600e+000	 1.049088743174603e+001
 1.835067453328800e+000	 2.213177001903255e+000	 1.029000303821461e+001
 1.812107113417673e+000	 2.232015414272058e+000	 1.006600152158268e+001
 2.050609665430000e+000	 2.050609665430000e+000	 1.092155683664178e+001
 2.029265532705913e+000	 2.071733910926561e+000	 1.096244348038129e+001
 2.007704963263187e+000	 2.092634889416655e+000	 1.098541056983393e+001
 1.985931476481618e+000	 2.113309293653459e+000	 1.098835181229442e+001
 1.963948658698031e+000	 2.133753890665613e+000	 1.096914243237788e+001
 1.941760161239853e+000	 2.153965523439727e+000	 1.092564442173979e+001
 1.919369698408366e+000	 2.173941112540221e+000	 1.085571187398370e+001
 1.896781045413970e+000	 2.193677657664791e+000	 1.075719639038406e+001
 1.873998036265857e+000	 2.213172239133817e+000	 1.062787911486406e+001
 1.851024561618572e+000	 2.232422019312235e+000	 1.047170988187711e+001
 1.827864566577960e+000	 2.251424243962378e+000	 1.029996737193928e+001
 2.068287334960000e+000	 2.068287334960000e+000	 1.090261457344625e+001
 2.046759201091498e+000	 2.089593686021419e+000	 1.094691046346197e+001
 2.025012764670613e+000	 2.110674845360750e+000	 1.098046010783976e+001
 2.003051575416620e+000	 2.131527477220416e+000	 1.100131033508199e+001
 1.980879250583041e+000	 2.152148320758619e+000	 1.100748063638688e+001
 1.958499472974264e+000	 2.172534191746333e+000	 1.099696834458156e+001
 1.935915988911409e+000	 2.192681984201123e+000	 1.096775391237257e+001
 1.913132606149792e+000	 2.212588671956005e+000	 1.091780627547797e+001
 1.890153191750413e+000	 2.232251310161714e+000	 1.084508828591119e+001
 1.866981669907937e+000	 2.251667036720808e+000	 1.074584578968858e+001
 1.843622019737746e+000	 2.270833073652197e+000	 1.063009067373140e+001
 2.085965004490000e+000	 2.085965004490000e+000	 1.090278944399037e+001
 2.064252869477080e+000	 2.107453461116273e+000	 1.095750317875019e+001
 2.042320566078020e+000	 2.128714801304823e+000	 1.100854707007265e+001
 2.020171674351578e+000	 2.149745660787329e+000	 1.105411596484566e+001
 1.997809842467971e+000	 2.170542750851543e+000	 1.109236855217300e+001
 1.975238784708549e+000	 2.191102860052813e+000	 1.112143247768687e+001
 1.952462279414270e+000	 2.211422855861843e+000	 1.113940957129287e+001
 1.929484166885370e+000	 2.231499686246975e+000	 1.114438117383736e+001
 1.906308347234647e+000	 2.251330381189289e+000	 1.113441354785829e+001
 1.882938778196897e+000	 2.270912054128976e+000	 1.110756335730621e+001
 1.859379472897029e+000	 2.290241903341515e+000	 1.105727160372016e+001
 2.103642674020000e+000	 2.103642674020000e+000	 1.092090750414737e+001
 2.081746537862656e+000	 2.125313236211122e+000	 1.099289988450776e+001
 2.059628367485406e+000	 2.146754757248877e+000	 1.106820574769239e+001
 2.037291773286489e+000	 2.167963844354194e+000	 1.114516290936172e+001
 2.014740434352820e+000	 2.188937180944388e+000	 1.122206423824209e+001
 1.991978096442708e+000	 2.209671528359169e+000	 1.129716271195518e+001
 1.969008569916952e+000	 2.230163727522383e+000	 1.136867660038502e+001
 1.945835727620701e+000	 2.250410700537698e+000	 1.143479476198496e+001
 1.922463502718561e+000	 2.270409452216543e+000	 1.149368203806538e+001
 1.898895886485449e+000	 2.290157071536736e+000	 1.154348472979534e+001
 1.875136926055812e+000	 2.309650733030330e+000	 1.158233614240074e+001
 2.121320343550000e+000	 2.121320343550000e+000	 1.095579001229533e+001
 2.099240206248228e+000	 2.143173011305966e+000	 1.105177949301045e+001
 2.076936168892773e+000	 2.164794713192911e+000	 1.115797643249359e+001
 2.054411872221356e+000	 2.186182027921017e+000	 1.127285661622003e+001
 2.031671026237590e+000	 2.207331611037154e+000	 1.139484212216656e+001
 2.008717408176743e+000	 2.228240196665399e+000	 1.152230632426895e+001
 1.985554860419452e+000	 2.248904599182742e+000	 1.165357903751565e+001
 1.962187288355787e+000	 2.269321714828175e+000	 1.178695178998019e+001
 1.938618658202153e+000	 2.289488523243476e+000	 1.192068320669996e+001
 1.914852994773596e+000	 2.309402088944092e+000	 1.205300448996940e+001
 1.890894379214094e+000	 2.329059562718646e+000	 1.218212498033257e+001
 1.733319847608720e+000	 2.134971265812937e+000	 1.031056054853027e+001
 1.711184701123380e+000	 2.152753334364159e+000	 1.020013511743413e+001
 1.688880310352929e+000	 2.170295670476612e+000	 1.011065049570652e+001
 1.666410558419238e+000	 2.187595906649107e+000	 1.004737988488335e+001
 1.643779371421331e+000	 2.204651758917846e+000	 1.001558799079187e+001
 1.620990716199807e+000	 2.221461027795396e+000	 1.002052095918342e+001
 1.598048598078017e+000	 2.238021599138304e+000	 1.006739632839224e+001
 1.574957058582615e+000	 2.254331444942703e+000	 1.016139302384739e+001
 1.551720173146155e+000	 2.270388624067453e+000	 1.030764141906846e+001
 1.528342048794388e+000	 2.286191282884385e+000	 1.051121348749707e+001
 1.504826821820936e+000	 2.301737655855408e+000	 1.077711306915629e+001
 1.749077300771513e+000	 2.154380095505764e+000	 1.007545953317218e+001
 1.726740925682399e+000	 2.172323819225972e+000	 1.005461877165294e+001
 1.704233767723596e+000	 2.190025631121564e+000	 1.004201411613940e+001
 1.681559745318081e+000	 2.207483142168611e+000	 1.004272056359628e+001
 1.658722820256690e+000	 2.224694047640010e+000	 1.006181939350945e+001
 1.635726995442208e+000	 2.241656128052987e+000	 1.010438810273226e+001
 1.612576312610017e+000	 2.258367250044602e+000	 1.017549033592526e+001
 1.589274850027924e+000	 2.274825367174592e+000	 1.028016583680977e+001
 1.565826720177869e+000	 2.291028520655076e+000	 1.042342044530138e+001
 1.542236067422203e+000	 2.306974840006722e+000	 1.061021616535268e+001
 1.518507065657215e+000	 2.322662543641092e+000	 1.084546132801258e+001
 1.764834753933805e+000	 2.173788925198089e+000	 9.932790399375813e+000
 1.742297150240828e+000	 2.191894304087189e+000	 9.989462581903988e+000
 1.719587225093601e+000	 2.209755591765834e+000	 1.004183569033075e+001
 1.696708932216214e+000	 2.227370377687360e+000	 1.009479478629356e+001
 1.673666269091309e+000	 2.244736336361353e+000	 1.015324589250022e+001
 1.650463274683859e+000	 2.261851228309702e+000	 1.022210591708810e+001
 1.627104027141278e+000	 2.278712900949980e+000	 1.030629255228476e+001
 1.603592641472524e+000	 2.295319289405525e+000	 1.041071417300228e+001
 1.579933267208925e+000	 2.311668417241718e+000	 1.054025976088578e+001
 1.556130086049429e+000	 2.327758397128064e+000	 1.069978887914009e+001
 1.532187309492996e+000	 2.343587431425777e+000	 1.089412172317561e+001
 1.780592207095596e+000	 2.193197754889913e+000	 9.883187104239013e+000
 1.757853374798665e+000	 2.211464788947809e+000	 1.000554587114279e+001
 1.734940682462946e+000	 2.229485552409423e+000	 1.011123304156008e+001
 1.711858119113637e+000	 2.247257613205353e+000	 1.020495193531502e+001
 1.688609717925187e+000	 2.264778625081876e+000	 1.029144141718409e+001
 1.665199553924761e+000	 2.282046328565542e+000	 1.037546580108528e+001
 1.641631741671801e+000	 2.299058551854437e+000	 1.046180470741094e+001
 1.617910432916417e+000	 2.315813211635502e+000	 1.055524289956686e+001
 1.594039814239324e+000	 2.332308313827380e+000	 1.066056012571158e+001
 1.570024104676068e+000	 2.348541954248410e+000	 1.078252099153261e+001
 1.545867553328280e+000	 2.364512319209462e+000	 1.092586488965099e+001
 1.796349660256885e+000	 2.212606584581236e+000	 9.927341642181428e+000
 1.773409599355911e+000	 2.231035273807834e+000	 1.010379621183093e+001
 1.750294139831630e+000	 2.249215513052330e+000	 1.025136266207546e+001
 1.727007306010348e+000	 2.267144848722589e+000	 1.037457069291939e+001
 1.703553166758326e+000	 2.284820913801577e+000	 1.047800004339973e+001
 1.679935833164913e+000	 2.302241428820505e+000	 1.056627036593730e+001
 1.656159456201584e+000	 2.319404202757974e+000	 1.064403103280127e+001
 1.632228224359600e+000	 2.336307133864525e+000	 1.071595090119950e+001
 1.608146361269064e+000	 2.352948210412063e+000	 1.078670806348062e+001
 1.583918123302120e+000	 2.369325511367762e+000	 1.086097960881517e+001
 1.559547797163067e+000	 2.385437206992145e+000	 1.094343142251612e+001
 1.812107113417673e+000	 2.232015414272058e+000	 1.006600152158268e+001
 1.788965823912565e+000	 2.250605758667261e+000	 1.028518732813148e+001
 1.765647597199653e+000	 2.268945473694558e+000	 1.046341803183407e+001
 1.742156492906349e+000	 2.287032084239069e+000	 1.060505776737473e+001
 1.718496615590724e+000	 2.304863202520457e+000	 1.071453511747331e+001
 1.694672112404316e+000	 2.322436529074593e+000	 1.079633294774204e+001
 1.670687170730629e+000	 2.339749853660591e+000	 1.085497815274708e+001
 1.646546015802076e+000	 2.356801056092591e+000	 1.089503134025663e+001
 1.622252908298147e+000	 2.373588106995765e+000	 1.092107648067116e+001
 1.597812141927584e+000	 2.390109068486118e+000	 1.093771054855343e+001
 1.573228040997356e+000	 2.406362094773829e+000	 1.094953318300388e+001
 1.827864566577960e+000	 2.251424243962378e+000	 1.029996737193928e+001
 1.804522048468628e+000	 2.270176243526093e+000	 1.055073710661148e+001
 1.781001054567015e+000	 2.288675434336103e+000	 1.074862802420431e+001
 1.757305679801640e+000	 2.306919319754793e+000	 1.089784668494080e+001
 1.733440064422383e+000	 2.324905491238517e+000	 1.100267842559402e+001
 1.709408391642969e+000	 2.342631629327805e+000	 1.106747714520219e+001
 1.685214885258934e+000	 2.360095504562286e+000	 1.109665498119597e+001
 1.660863807243843e+000	 2.377294978319702e+000	 1.109467190340762e+001
 1.636359455326572e+000	 2.394228003578486e+000	 1.106602525348724e+001
 1.611706160552460e+000	 2.410892625603480e+000	 1.101523925721084e+001
 1.586908284831148e+000	 2.427286982554514e+000	 1.094685453703061e+001
 1.843622019737746e+000	 2.270833073652197e+000	 1.063009067373140e+001
 1.820078273024101e+000	 2.289746728384328e+000	 1.090150570895968e+001
 1.796354511933716e+000	 2.308405394976967e+000	 1.110825539342686e+001
 1.772454866696219e+000	 2.326806555269760e+000	 1.125439664380100e+001
 1.748383513253301e+000	 2.344947779955755e+000	 1.134407940578569e+001
 1.724144670880873e+000	 2.362826729580141e+000	 1.138153638105243e+001
 1.699742599786501e+000	 2.380441155463061e+000	 1.137107262390300e+001
 1.675181598684902e+000	 2.397788900545858e+000	 1.131705503563848e+001
 1.650466002354339e+000	 2.414867900160228e+000	 1.122390178470795e+001
 1.625600179176749e+000	 2.431676182719846e+000	 1.109607168070870e+001
 1.600588528664443e+000	 2.448211870334198e+000	 1.093805353020949e+001
 1.859379472897029e+000	 2.290241903341515e+000	 1.105727160372016e+001
 1.835634497578981e+000	 2.309317213241967e+000	 1.133859378066783e+001
 1.811707969299756e+000	 2.328135355617151e+000	 1.154359533898444e+001
 1.787604053590088e+000	 2.346693790783972e+000	 1.167619142626897e+001
 1.763326962083479e+000	 2.364990068672173e+000	 1.174040439994763e+001
 1.738880950118027e+000	 2.383021829831602e+000	 1.174035348578681e+001
 1.714270314313329e+000	 2.400786806362916e+000	 1.168024428555779e+001
 1.689499390125252e+000	 2.418282822771059e+000	 1.156435816235710e+001
 1.664572549381448e+000	 2.435507796740990e+000	 1.139704153222239e+001
 1.639494197800451e+000	 2.452459739835218e+000	 1.118269509072015e+001
 1.614268772497240e+000	 2.469136758112883e+000	 1.092576300311764e+001
 1.875136926055812e+000	 2.309650733030330e+000	 1.158233614240074e+001
 1.851190722133271e+000	 2.328887698099010e+000	 1.186314075003052e+001
 1.827061426665134e+000	 2.347865316256653e+000	 1.205597414235639e+001
 1.802753240483247e+000	 2.366581026297427e+000	 1.216473836584190e+001
 1.778270410912917e+000	 2.385032357387770e+000	 1.219333594360785e+001
 1.753617229354432e+000	 2.403216930082187e+000	 1.214578030237474e+001
 1.728798028839418e+000	 2.421132457261850e+000	 1.202618518159363e+001
 1.703817181564894e+000	 2.438776744995305e+000	 1.183875390029984e+001
 1.678679096407899e+000	 2.456147693320771e+000	 1.158776851091581e+001
 1.653388216423565e+000	 2.473243296949593e+000	 1.127757886930263e+001
 1.627949016329540e+000	 2.490061645890567e+000	 1.091259165033133e+001
 1.890894379214094e+000	 2.329059562718646e+000	 1.218212498033257e+001
 1.866746946686970e+000	 2.348458182955457e+000	 1.247632321219511e+001
 1.842414884029853e+000	 2.367595276895474e+000	 1.264674787193544e+001
 1.817902427375696e+000	 2.386468261810128e+000	 1.272156736590122e+001
 1.793213859741616e+000	 2.405074646102547e+000	 1.270457209118837e+001
 1.768353508590088e+000	 2.423412030331897e+000	 1.259967731074120e+001
 1.743325743364769e+000	 2.441478108159864e+000	 1.241091245440673e+001
 1.718134973003829e+000	 2.459270667218596e+000	 1.214241025789285e+001
 1.692785643433693e+000	 2.476787589899573e+000	 1.179839576946135e+001
 1.667282235046092e+000	 2.494026854062976e+000	 1.138317525429838e+001
 1.641629260161343e+000	 2.510986533667252e+000	 1.135489757629648e+001
 1.504826821820936e+000	 2.301737655855408e+000	 1.077711306915629e+001
 1.481178655451783e+000	 2.317026066036402e+000	 1.074594052748567e+001
 1.457401737502926e+000	 2.332054925507497e+000	 1.069863233267266e+001
 1.433500278033387e+000	 2.346822735730042e+000	 1.063849455718270e+001
 1.409478506995772e+000	 2.361328087830619e+000	 1.056882700737487e+001
 1.385340671887672e+000	 2.375569662812049e+000	 1.049291506093952e+001
 1.361091035406278e+000	 2.389546231691873e+000	 1.041402161285936e+001
 1.336733873108761e+000	 2.403256655568767e+000	 1.033537914988160e+001
 1.312273471080952e+000	 2.416699885617484e+000	 1.026018197285601e+001
 1.287714123616817e+000	 2.429874963012997e+000	 1.019157858560634e+001
 1.263060130911157e+000	 2.442781018784593e+000	 1.013266426825970e+001
 1.518507065657215e+000	 2.322662543641092e+000	 1.084546132801258e+001
 1.494643915956549e+000	 2.338089939369133e+000	 1.073001879500210e+001
 1.470650844207407e+000	 2.353255424835356e+000	 1.060387462159230e+001
 1.446532098742074e+000	 2.368157487878027e+000	 1.047059095296771e+001
 1.422291947967267e+000	 2.382794706815789e+000	 1.033371726152833e+001
 1.397934677994196e+000	 2.397165750660582e+000	 1.019678184491043e+001
 1.373464590271840e+000	 2.411269379257375e+000	 1.006328344471340e+001
 1.348885999226073e+000	 2.425104443351199e+000	 9.936683006548643e+000
 1.324203229907142e+000	 2.438669884582033e+000	 9.820395601358515e+000
 1.299420615648048e+000	 2.451964735408257e+000	 9.717782527225678e+000
 1.274542495736273e+000	 2.464988118959423e+000	 9.632143610111081e+000
 1.532187309492996e+000	 2.343587431425777e+000	 1.089412172317561e+001
 1.508109176460914e+000	 2.359153812700871e+000	 1.069577240767512e+001
 1.483899950911571e+000	 2.374455924162234e+000	 1.049204486616056e+001
 1.459563919450516e+000	 2.389492240025056e+000	 1.028676018867120e+001
 1.435105388938585e+000	 2.404261325800040e+000	 1.008372044742471e+001
 1.410528684100595e+000	 2.418761838508240e+000	 9.886699849465577e+000
 1.385838145137323e+000	 2.432992526822060e+000	 9.699436022196517e+000
 1.361038125343342e+000	 2.446952231132881e+000	 9.525621453051640e+000
 1.336132988733313e+000	 2.460639883545905e+000	 9.368895103865281e+000
 1.311127107679275e+000	 2.474054507802925e+000	 9.232834219723305e+000
 1.286024860561388e+000	 2.487195219133758e+000	 9.120946351262218e+000
 1.545867553328280e+000	 2.364512319209462e+000	 1.092586488965099e+001
 1.521574436964876e+000	 2.380217686031613e+000	 1.064584374198931e+001
 1.497149057615418e+000	 2.395656423488133e+000	 1.036565927105318e+001
 1.472595740158718e+000	 2.410826992171133e+000	 1.008939446410141e+001
 1.447918829909724e+000	 2.425727944783372e+000	 9.821107005453106e+000
 1.423122690206872e+000	 2.440357926355025e+000	 9.564820077724804e+000
 1.398211700002727e+000	 2.454715674385927e+000	 9.324513308124759e+000
 1.373190251460564e+000	 2.468800018913809e+000	 9.104113881720121e+000
 1.348062747559464e+000	 2.482609882509102e+000	 8.907487842849996e+000
 1.322833599710497e+000	 2.496144280197001e+000	 8.738431605052607e+000
 1.297507225386504e+000	 2.509402319307596e+000	 8.838149348930013e+000
 1.559547797163067e+000	 2.385437206992145e+000	 1.094343142251612e+001
 1.535039697468435e+000	 2.401281559361360e+000	 1.058284819285309e+001
 1.510398164318946e+000	 2.416856922813052e+000	 1.022721002738071e+001
 1.485627560866675e+000	 2.432161744316253e+000	 9.880864842078267e+000
 1.460732270880685e+000	 2.447194563765786e+000	 9.548129023128247e+000
 1.435716696313025e+000	 2.461954014200937e+000	 9.233277870620128e+000
 1.410585254868052e+000	 2.476438821948977e+000	 8.940536199485216e+000
 1.385342377577744e+000	 2.490647806693986e+000	 8.674069120250325e+000
 1.359992506385595e+000	 2.504579881471621e+000	 8.580662317474275e+000
 1.334540091741714e+000	 2.518234052590487e+000	 8.765010751804855e+000
 1.308989590211620e+000	 2.531609419480937e+000	 8.914282321842997e+000
 1.573228040997356e+000	 2.406362094773829e+000	 1.094953318300388e+001
 1.548504957971592e+000	 2.422345432690113e+000	 1.050937534671078e+001
 1.523647271022157e+000	 2.438057422136991e+000	 1.007916635675635e+001
 1.498659381574390e+000	 2.453496496460421e+000	 9.663522167432587e+000
 1.473545711851468e+000	 2.468661182747281e+000	 9.267021033041514e+000
 1.448310702419053e+000	 2.483550102045977e+000	 8.894193587860352e+000
 1.422958809733299e+000	 2.498161969511209e+000	 8.549513095515378e+000
 1.397494503694878e+000	 2.512495594473410e+000	 8.663767754401645e+000
 1.371922265211707e+000	 2.526549880433465e+000	 8.819142647210885e+000
 1.346246583772926e+000	 2.540323824983382e+000	 8.946354611752051e+000
 1.320471955036735e+000	 2.553816519653783e+000	 9.041967531204870e+000
 1.586908284831148e+000	 2.427286982554514e+000	 1.094685453703061e+001
 1.561970218474347e+000	 2.443409306017870e+000	 1.042799009397633e+001
 1.536896377725050e+000	 2.459257921459952e+000	 9.923975501360554e+000
 1.511691202281862e+000	 2.474831248603634e+000	 9.439697938471326e+000
 1.486359152822073e+000	 2.490127801727857e+000	 8.980000769538599e+000
 1.460904708524959e+000	 2.505146189890143e+000	 8.744803630914589e+000
 1.435332364598465e+000	 2.519885117072623e+000	 8.881489058005203e+000
 1.409646629811969e+000	 2.534343382252084e+000	 9.001028949789212e+000
 1.383852024037798e+000	 2.548519879394630e+000	 9.099592278468482e+000
 1.357953075804133e+000	 2.562413597375685e+000	 9.173478217898706e+000
 1.331954319861851e+000	 2.576023619826133e+000	 9.219126402153581e+000
 1.600588528664443e+000	 2.448211870334198e+000	 1.093805353020949e+001
 1.575435478976699e+000	 2.464473179344633e+000	 1.034123368441936e+001
 1.550145484427626e+000	 2.480458420781932e+000	 9.764063663233033e+000
 1.524723022989091e+000	 2.496166000745893e+000	 9.211705133751982e+000
 1.499172593792499e+000	 2.511594420707515e+000	 9.148330528963625e+000
 1.473498714630741e+000	 2.526742277733436e+000	 9.234428382292990e+000
 1.447705919463553e+000	 2.541608264633220e+000	 9.311088568553378e+000
 1.421798755929015e+000	 2.556191170030004e+000	 9.374236080592992e+000
 1.395781782863870e+000	 2.570489878355120e+000	 9.419913181553410e+000
 1.369659567835335e+000	 2.584503369767397e+000	 9.444290403481562e+000
 1.343436684686967e+000	 2.598230719997987e+000	 9.443677171067840e+000
 1.614268772497240e+000	 2.469136758112883e+000	 1.092576300311764e+001
 1.588900739478649e+000	 2.485537052670400e+000	 1.025162472888724e+001
 1.563394591129885e+000	 2.501658920102933e+000	 9.670180282465132e+000
 1.537754843696077e+000	 2.517500752887198e+000	 9.695222232821434e+000
 1.511986034762747e+000	 2.533061039686253e+000	 9.723206535996111e+000
 1.486092720736399e+000	 2.548338365575855e+000	 9.749732780841899e+000
 1.460079474328563e+000	 2.563331412193000e+000	 9.770491853353267e+000
 1.433950882046016e+000	 2.578038957807174e+000	 9.781277985202893e+000
 1.407711541689923e+000	 2.592459877314933e+000	 9.778000480643156e+000
 1.381366059866532e+000	 2.606593142158518e+000	 9.756695092662278e+000
 1.354919049512082e+000	 2.620437820169344e+000	 9.713535020683908e+000
 1.627949016329540e+000	 2.490061645890567e+000	 1.091259165033133e+001
 1.602365999980196e+000	 2.506600925995173e+000	 1.043570599131949e+001
 1.576643697831826e+000	 2.522859419422954e+000	 1.038641094510246e+001
 1.550786664402821e+000	 2.538835505027548e+000	 1.034851896389290e+001
 1.524799475732817e+000	 2.554527658664074e+000	 1.031742214237206e+001
 1.498686726841934e+000	 2.569934453417402e+000	 1.028858826364800e+001
 1.472453029193492e+000	 2.585054559751961e+000	 1.025757353145153e+001
 1.446103008162973e+000	 2.599886745583591e+000	 1.022003501018985e+001
 1.419641300515955e+000	 2.614429876274071e+000	 1.017174274143886e+001
 1.393072551897724e+000	 2.628682914549047e+000	 1.010859150679121e+001
 1.366401414337198e+000	 2.642644920340206e+000	 1.002661220840006e+001
 1.641629260161343e+000	 2.510986533667252e+000	 1.135489757629648e+001
 1.615831260481341e+000	 2.527664799318952e+000	 1.122298183032703e+001
 1.589892804533449e+000	 2.544059918741996e+000	 1.111119097639825e+001
 1.563818485109322e+000	 2.560170257166945e+000	 1.101472277006617e+001
 1.537612916702709e+000	 2.575994277640975e+000	 1.092883406420022e+001
 1.511280732947345e+000	 2.591530541258076e+000	 1.084885420313118e+001
 1.484826584058343e+000	 2.606777707310107e+000	 1.077019815721727e+001
 1.458255134279887e+000	 2.621734533359257e+000	 1.068837936413165e+001
 1.431571059341969e+000	 2.636399875232532e+000	 1.059902224443507e+001
 1.404779043928912e+000	 2.650772686938987e+000	 1.049787436035784e+001
 1.377883779162314e+000	 2.664852020510572e+000	 1.038081818816552e+001
 1.263060130911157e+000	 2.442781018784593e+000	 1.013266426825970e+001
 1.238315796768149e+000	 2.455417273601034e+000	 1.001537387292251e+001
 1.213485426327356e+000	 2.467783037487111e+000	 9.909921824033415e+000
 1.188573323810187e+000	 2.479877709472937e+000	 9.813155798426154e+000
 1.163583790289265e+000	 2.491700777177656e+000	 9.726612574979827e+000
 1.138521121482226e+000	 2.503251816328117e+000	 9.670505542786239e+000
 1.113389605572322e+000	 2.514530490214019e+000	 9.627451384093462e+000
 1.088193521057850e+000	 2.525536549080854e+000	 9.525623384222612e+000
 1.062937134632405e+000	 2.536269829462127e+000	 9.367057697777781e+000
 1.037624699097835e+000	 2.546730253452309e+000	 9.153809921035098e+000
 1.012260451311729e+000	 2.556917827922117e+000	 8.887952022336020e+000
 1.274542495736273e+000	 2.464988118959423e+000	 9.632143610111081e+000
 1.249573213101380e+000	 2.477739248819489e+000	 9.501317227828587e+000
 1.224517112020461e+000	 2.490217428740764e+000	 9.407875711036109e+000
 1.199378535844211e+000	 2.502422052289999e+000	 9.364055151678219e+000
 1.174161824745915e+000	 2.514352602428329e+000	 9.423113838377155e+000
 1.148871313495187e+000	 2.526008651025577e+000	 9.425212185055031e+000
 1.123511329258762e+000	 2.537389858310436e+000	 9.372464644765724e+000
 1.098086189430378e+000	 2.548495972257904e+000	 9.267004143946924e+000
 1.072600199491755e+000	 2.559326827915428e+000	 9.110978874498397e+000
 1.047057650906575e+000	 2.569882346669242e+000	 8.906549135940232e+000
 1.021462819049315e+000	 2.580162535452528e+000	 8.655884232792271e+000
 1.286024860561388e+000	 2.487195219133758e+000	 9.120946351262218e+000
 1.260830629434610e+000	 2.500061224037538e+000	 8.975958905845070e+000
 1.235548797713566e+000	 2.512651819994079e+000	 9.116386413990561e+000
 1.210183747878236e+000	 2.524966395106772e+000	 9.209759432998201e+000
 1.184739859202564e+000	 2.537004427678743e+000	 9.249629166563741e+000
 1.159221505508147e+000	 2.548765485722786e+000	 9.238222319747441e+000
 1.133633052945202e+000	 2.560249226406592e+000	 9.177780223942948e+000
 1.107978857802907e+000	 2.571455395434662e+000	 9.070555517361173e+000
 1.082263264351105e+000	 2.582383826368382e+000	 8.918808881020947e+000
 1.056490602715315e+000	 2.593034439885762e+000	 8.724805835596436e+000
 1.030665186786900e+000	 2.603407242982436e+000	 8.490813604188663e+000
 1.297507225386504e+000	 2.509402319307596e+000	 8.838149348930013e+000
 1.272088045767840e+000	 2.522383199255179e+000	 8.945884699167600e+000
 1.246580483406671e+000	 2.535086211247057e+000	 9.038446845553436e+000
 1.220988959912261e+000	 2.547510737923258e+000	 9.109375592387332e+000
 1.195317893659215e+000	 2.559656252928899e+000	 9.132222743614808e+000
 1.169571697521108e+000	 2.571522320419745e+000	 9.109349257739263e+000
 1.143754776631642e+000	 2.583108594502486e+000	 9.043123688123590e+000
 1.117871526175436e+000	 2.594414818611126e+000	 8.935918795089307e+000
 1.091926329210455e+000	 2.605440824820994e+000	 8.790108224307856e+000
 1.065923554524055e+000	 2.616186533101865e+000	 8.608063256785268e+000
 1.039867554524486e+000	 2.626651950511838e+000	 8.392149635436004e+000
 1.308989590211620e+000	 2.531609419480937e+000	 8.914282321842997e+000
 1.283345462101071e+000	 2.544705174472416e+000	 8.974290635373487e+000
 1.257612169099776e+000	 2.557520602499699e+000	 9.020964278817189e+000
 1.231794171946285e+000	 2.570055080739456e+000	 9.062908917031535e+000
 1.205895928115865e+000	 2.582308078178795e+000	 9.070808302269221e+000
 1.179921889534068e+000	 2.594279155116453e+000	 9.038418474609344e+000
 1.153876500318082e+000	 2.605967962598117e+000	 8.968235580900824e+000
 1.127764194547964e+000	 2.617374241787297e+000	 8.862752939433806e+000
 1.101589394069805e+000	 2.628497823273261e+000	 8.724457659219034e+000
 1.075356506332795e+000	 2.639338626317554e+000	 8.555827341559674e+000
 1.049069922262071e+000	 2.649896658040735e+000	 8.359326868843883e+000
 1.320471955036735e+000	 2.553816519653783e+000	 9.041967531204870e+000
 1.294602878434302e+000	 2.567027149689244e+000	 9.059075679876587e+000
 1.268643854792880e+000	 2.579954993752005e+000	 9.066841377531386e+000
 1.242599383980310e+000	 2.592599423555365e+000	 9.070370614139430e+000
 1.216473962572515e+000	 2.604959903428432e+000	 9.065308408876494e+000
 1.190272081547028e+000	 2.617035989812912e+000	 9.025267081739239e+000
 1.163998224004522e+000	 2.628827330693487e+000	 8.952870771784411e+000
 1.137656862920493e+000	 2.640333664963175e+000	 8.850733816041846e+000
 1.111252458929155e+000	 2.651554821725185e+000	 8.721457308168265e+000
 1.084789458141534e+000	 2.662490719532829e+000	 8.567625750058509e+000
 1.058272289999657e+000	 2.673141365569126e+000	 8.391803801277307e+000
 1.331954319861851e+000	 2.576023619826133e+000	 9.219126402153581e+000
 1.305860294767532e+000	 2.589349124905667e+000	 9.198138570124222e+000
 1.279675540485985e+000	 2.602389385003972e+000	 9.171657621234569e+000
 1.253404596014334e+000	 2.615143766370987e+000	 9.136745005580906e+000
 1.227051997029165e+000	 2.627611728677810e+000	 9.115654082637809e+000
 1.200622273559989e+000	 2.639792824509118e+000	 9.069743324770114e+000
 1.174119947690962e+000	 2.651686698788595e+000	 8.996797838704428e+000
 1.147549531293022e+000	 2.663293088138761e+000	 8.899553465312796e+000
 1.120915523788505e+000	 2.674611820176764e+000	 8.780725826314930e+000
 1.094222409950274e+000	 2.685642812747688e+000	 8.643006924381975e+000
 1.067474657737242e+000	 2.696386073097013e+000	 8.489061851632634e+000
 1.343436684686967e+000	 2.598230719997987e+000	 9.443677171067840e+000
 1.317117711100763e+000	 2.611671100121684e+000	 9.389377825339301e+000
 1.290707226179090e+000	 2.624823776255602e+000	 9.333294622329506e+000
 1.264209808048359e+000	 2.637688109186322e+000	 9.272395213892718e+000
 1.237630031485815e+000	 2.650263553926928e+000	 9.221784434372909e+000
 1.210972465572949e+000	 2.662549659205076e+000	 9.171706107779675e+000
 1.184241671377402e+000	 2.674546066883441e+000	 9.099798482181187e+000
 1.157442199665550e+000	 2.686252511314052e+000	 9.008919411169618e+000
 1.130578588647855e+000	 2.697668818627999e+000	 8.901899609566364e+000
 1.103655361759014e+000	 2.708794905962132e+000	 8.781539200473691e+000
 1.076677025474828e+000	 2.719630780624395e+000	 8.650604381263666e+000
 1.354919049512082e+000	 2.620437820169344e+000	 9.713535020683908e+000
 1.328375127433993e+000	 2.633993075337294e+000	 9.630691755767192e+000
 1.301738911872195e+000	 2.647258167506897e+000	 9.549636533382312e+000
 1.275015020082383e+000	 2.660232452001367e+000	 9.467237142334849e+000
 1.248208065942465e+000	 2.672915379175787e+000	 9.383646323655043e+000
 1.221322657585910e+000	 2.685306493900782e+000	 9.331024541653481e+000
 1.194363395063843e+000	 2.697405434978026e+000	 9.261666969283461e+000
 1.167334868038079e+000	 2.709211934489050e+000	 9.178554004977176e+000
 1.140241653507206e+000	 2.720725817078891e+000	 9.084632042851178e+000
 1.113088313567753e+000	 2.731946999176162e+000	 8.982809965161271e+000
 1.085879393212413e+000	 2.742875488151270e+000	 8.875955764216451e+000
 1.366401414337198e+000	 2.642644920340206e+000	 1.002661220840006e+001
 1.339632543767224e+000	 2.656315050552498e+000	 9.919978471456268e+000
 1.312770597565300e+000	 2.669692558757853e+000	 9.818569940392790e+000
 1.285820232116408e+000	 2.682776794816125e+000	 9.719148429174256e+000
 1.258786100399115e+000	 2.695567204424388e+000	 9.618620695131309e+000
 1.231672849598870e+000	 2.708063328596238e+000	 9.547577515227491e+000
 1.204485118750283e+000	 2.720264803072348e+000	 9.482209605622064e+000
 1.177227536410608e+000	 2.732171357663756e+000	 9.408193802540627e+000
 1.149904718366555e+000	 2.743782815529437e+000	 9.328592786294921e+000
 1.122521265376493e+000	 2.755099092389776e+000	 9.246424855698821e+000
 1.095081760949999e+000	 2.766120195677642e+000	 9.164660504343033e+000
 1.377883779162314e+000	 2.664852020510572e+000	 1.038081818816552e+001
 1.350889960100455e+000	 2.678637025767296e+000	 1.025513589059945e+001
 1.323802283258406e+000	 2.692126950008474e+000	 1.013798376140147e+001
 1.296625444150432e+000	 2.705321137630596e+000	 1.002601148018612e+001
 1.269364134855766e+000	 2.718219029672730e+000	 9.916012754782729e+000
 1.242023041611831e+000	 2.730820163291444e+000	 9.821253287873423e+000
 1.214606842436724e+000	 2.743124171166410e+000	 9.761244233744039e+000
 1.187120204783137e+000	 2.755130780838170e+000	 9.697588972253673e+000
 1.159567783225906e+000	 2.766839813979641e+000	 9.633467097086710e+000
 1.131954217185234e+000	 2.778251185602977e+000	 9.572006999332746e+000
 1.104284128687585e+000	 2.789364903203509e+000	 9.516282396559628e+000
 1.012260451311729e+000	 2.556917827922117e+000	 8.887952022336020e+000
 9.868486101712383e-001	 2.566832643677576e+000	 8.637897278939844e+000
 9.613933746349105e-001	 2.576474874564940e+000	 8.400687933610982e+000
 9.358989217837993e-001	 2.585844776523053e+000	 8.178725977747204e+000
 9.103694049237148e-001	 2.594942686584524e+000	 7.974356880479010e+000
 8.848089517299635e-001	 2.603769021827962e+000	 7.789867441394301e+000
 8.592216624358849e-001	 2.612324278282999e+000	 7.627483780331981e+000
 8.336116080664260e-001	 2.620609029790004e+000	 7.489369465272509e+000
 8.079828287179296e-001	 2.628623926816410e+000	 7.377623778995434e+000
 7.823393318852077e-001	 2.636369695231585e+000	 7.294280124824180e+000
 7.566850908368894e-001	 2.643847135042238e+000	 7.241304571436139e+000
 1.021462819049315e+000	 2.580162535452528e+000	 8.655884232792271e+000
 9.958199611707879e-001	 2.590167485896778e+000	 8.443923687805267e+000
 9.701333144019444e-001	 2.599897373428621e+000	 8.241967917738796e+000
 9.444070937973018e-001	 2.609352456313620e+000	 8.052395675523979e+000
 9.186454904199952e-001	 2.618533074648314e+000	 7.877531370991006e+000
 8.928526694696530e-001	 2.627439649302940e+000	 7.719642897760880e+000
 8.670327684544615e-001	 2.636072680816487e+000	 7.580939595771215e+000
 8.411898954086866e-001	 2.644432748246060e+000	 7.463570350540925e+000
 8.153281271568190e-001	 2.652520507972429e+000	 7.369621829922275e+000
 7.894515076254415e-001	 2.660336692463774e+000	 7.301116858736666e+000
 7.635640462038073e-001	 2.667882108999597e+000	 7.260012931347837e+000
 1.030665186786900e+000	 2.603407242982436e+000	 8.490813604188663e+000
 1.004791312170337e+000	 2.613502328115380e+000	 8.313163182431909e+000
 9.788732541689785e-001	 2.623319872291618e+000	 8.142726179652637e+000
 9.529152658108042e-001	 2.632860136103427e+000	 7.981859963876529e+000
 9.269215759162761e-001	 2.642123462711282e+000	 7.832869678205200e+000
 9.008963872093423e-001	 2.651110276777040e+000	 7.698006040808832e+000
 8.748438744730380e-001	 2.659821083349055e+000	 7.579463279220574e+000
 8.487681827509470e-001	 2.668256466701160e+000	 7.479377200117390e+000
 8.226734255957083e-001	 2.676417089127467e+000	 7.399823395411358e+000
 7.965636833656755e-001	 2.684303689694970e+000	 7.342815585124182e+000
 7.704430015707247e-001	 2.691917082955955e+000	 7.310304097173559e+000
 1.039867554524486e+000	 2.626651950511838e+000	 8.392149635436004e+000
 1.013762663169887e+000	 2.636837170333383e+000	 8.245091411098864e+000
 9.876131939360127e-001	 2.646742371153929e+000	 8.102503383387429e+000
 9.614234378243066e-001	 2.656367815892474e+000	 7.966723371688750e+000
 9.351976614125565e-001	 2.665713850773424e+000	 7.840039028420082e+000
 9.089401049490314e-001	 2.674780904250262e+000	 7.724685611056272e+000
 8.826549804916150e-001	 2.683569485880700e+000	 7.622843887231750e+000
 8.563464700932076e-001	 2.692080185155304e+000	 7.536638174177960e+000
 8.300187240345979e-001	 2.700313670281525e+000	 7.468134513398440e+000
 8.036758591059092e-001	 2.708270686925169e+000	 7.419338981128609e+000
 7.773219569376425e-001	 2.715952056911313e+000	 7.392196134782887e+000
 1.049069922262071e+000	 2.649896658040735e+000	 8.359326868843883e+000
 1.022734014169437e+000	 2.660172012550785e+000	 8.239206500230456e+000
 9.963531337030465e-001	 2.670164870015556e+000	 8.120860150830039e+000
 9.699316098378089e-001	 2.679875495680763e+000	 8.006607911202213e+000
 9.434737469088371e-001	 2.689304238834746e+000	 7.898721703398623e+000
 9.169838226887206e-001	 2.698451531722607e+000	 7.799423023960963e+000
 8.904660865101917e-001	 2.707317888411425e+000	 7.710880818868241e+000
 8.639247574354684e-001	 2.715903903608491e+000	 7.635209491773024e+000
 8.373640224734872e-001	 2.724210251434602e+000	 7.574467046502743e+000
 8.107880348461430e-001	 2.732237684154373e+000	 7.530653364450339e+000
 7.842009123045602e-001	 2.739987030865671e+000	 7.505708617127366e+000
 1.058272289999657e+000	 2.673141365569126e+000	 8.391803801277307e+000
 1.031705365168986e+000	 2.683506854767587e+000	 8.295028077085613e+000
 1.005093073470081e+000	 2.693587368876500e+000	 8.197376193986598e+000
 9.784397818513116e-001	 2.703383175468292e+000	 8.101152317870259e+000
 9.517498324051178e-001	 2.712894626895242e+000	 8.008614385783597e+000
 9.250275404284100e-001	 2.722122159194075e+000	 7.921971818836033e+000
 8.982771925287684e-001	 2.731066290941226e+000	 7.843383366031042e+000
 8.715030447777293e-001	 2.739727622060724e+000	 7.774955080441322e+000
 8.447093209123765e-001	 2.748106832586698e+000	 7.718738428779748e+000
 8.179002105863769e-001	 2.756204681382582e+000	 7.676728535063049e+000
 7.910798676714780e-001	 2.764022004819030e+000	 7.650862558715510e+000
 1.067474657737242e+000	 2.696386073097013e+000	 8.489061851632634e+000
 1.040676716168536e+000	 2.706841696983788e+000	 8.412096342997725e+000
 1.013833013237114e+000	 2.717009867736757e+000	 8.331649492132627e+000
 9.869479538648138e-001	 2.726890855255063e+000	 8.250011329529723e+000
 9.600259179013986e-001	 2.736485014954916e+000	 8.169427538369337e+000
 9.330712581680992e-001	 2.745792786664665e+000	 8.092097136269894e+000
 9.060882985473451e-001	 2.754814693470107e+000	 8.020170287043028e+000
 8.790813321199896e-001	 2.763551340511998e+000	 7.955746243947838e+000
 8.520546193512658e-001	 2.772003413737813e+000	 7.900871425573017e+000
 8.250123863266107e-001	 2.780171678609796e+000	 7.857537625115715e+000
 7.979588230383954e-001	 2.788056978771388e+000	 7.827680353476554e+000
 1.076677025474828e+000	 2.719630780624395e+000	 8.650604381263666e+000
 1.049648067168086e+000	 2.730176539199391e+000	 8.589971194140667e+000
 1.022572953004148e+000	 2.740432366596331e+000	 8.523295511160358e+000
 9.954561258783166e-001	 2.750398535041075e+000	 8.452855002538472e+000
 9.683020033976790e-001	 2.760075403013765e+000	 8.380884815206739e+000
 9.411149759077881e-001	 2.769463414134377e+000	 8.309575222345417e+000
 9.138994045659219e-001	 2.778563095998065e+000	 8.241069402101104e+000
 8.866596194622503e-001	 2.787375058962318e+000	 8.177461347060074e+000
 8.593999177901553e-001	 2.795899994887950e+000	 8.120793905681451e+000
 8.321245620668445e-001	 2.804138675836015e+000	 8.073056956531975e+000
 8.048377784053131e-001	 2.812091952722746e+000	 8.036185715810909e+000
 1.085879393212413e+000	 2.742875488151270e+000	 8.875955764216451e+000
 1.058619418167635e+000	 2.753511381414393e+000	 8.828231387001750e+000
 1.031312892771182e+000	 2.763854865455219e+000	 8.771946462620509e+000
 1.003964297891819e+000	 2.773906214826328e+000	 8.709368062685591e+000
 9.765780888939597e-001	 2.783665791071792e+000	 8.642722502651509e+000
 9.491586936474775e-001	 2.793134041603211e+000	 8.574192958067899e+000
 9.217105105844986e-001	 2.802311498525102e+000	 8.505917209298531e+000
 8.942379068045111e-001	 2.811198777411681e+000	 8.439985516353271e+000
 8.667452162290448e-001	 2.819796576037104e+000	 8.378438625111375e+000
 8.392367378070782e-001	 2.828105673061239e+000	 8.323265905850150e+000
 8.117167337722309e-001	 2.836126926673104e+000	 8.276403624638018e+000
 1.095081760949999e+000	 2.766120195677642e+000	 9.164660504343033e+000
 1.067590769167185e+000	 2.776846223628796e+000	 9.126473745931371e+000
 1.040052832538216e+000	 2.787277364313423e+000	 9.077250600123051e+000
 1.012472469905321e+000	 2.797413894610821e+000	 9.019249288828641e+000
 9.848541743902404e-001	 2.807256179128995e+000	 8.954688988595265e+000
 9.572024113871669e-001	 2.816804669071168e+000	 8.885747412519780e+000
 9.295216166030752e-001	 2.826059901051216e+000	 8.814558520007434e+000
 9.018161941467714e-001	 2.835022495860088e+000	 8.743210356100816e+000
 8.740905146679339e-001	 2.843693157185277e+000	 8.673743021731220e+000
 8.463489135473121e-001	 2.852072670285467e+000	 8.608146775878227e+000
 8.185956891391485e-001	 2.860161900622463e+000	 8.548360270265224e+000
 1.104284128687585e+000	 2.789364903203509e+000	 9.516282396559628e+000
 1.076562120166735e+000	 2.800181065842599e+000	 9.484312410315614e+000
 1.048792772305250e+000	 2.810699863170943e+000	 9.438871550918231e+000
 1.020980641918824e+000	 2.820921574394557e+000	 9.382210927349130e+000
 9.931302598865212e-001	 2.830846567185376e+000	 9.316544258234732e+000
 9.652461291268561e-001	 2.840475296538248e+000	 9.244045418357381e+000
 9.373327226216525e-001	 2.849808303576410e+000	 9.166846112492106e+000
 9.093944814890325e-001	 2.858846214307540e+000	 9.087033678370009e+000
 8.814358131068237e-001	 2.867589738332473e+000	 9.006649020194265e+000
 8.534610892875463e-001	 2.876039667508701e+000	 8.927684673765702e+000
 8.254746445060665e-001	 2.884196874570822e+000	 8.852083003913430e+000
 7.566850908368894e-001	 2.643847135042238e+000	 7.241304571436139e+000
 7.310240430396248e-001	 2.651057119090043e+000	 7.266554455669716e+000
 7.053600886327910e-001	 2.658000591714422e+000	 7.281178732481410e+000
 6.796970889541841e-001	 2.664678567381807e+000	 7.286903225711994e+000
 6.540388651164302e-001	 2.671092129282827e+000	 7.285419778151444e+000
 6.283891966355909e-001	 2.677242427900419e+000	 7.278384844556782e+000
 6.027518201122010e-001	 2.683130679550521e+000	 7.251036978645752e+000
 5.771304279651321e-001	 2.688758164897392e+000	 7.175512975665297e+000
 5.515286672185965e-001	 2.694126227445559e+000	 7.060505592115931e+000
 5.259501383425347e-001	 2.699236272010369e+000	 6.914850927646164e+000
 5.003983941465354e-001	 2.704089763169176e+000	 6.746576667621003e+000
 7.635640462038073e-001	 2.667882108999597e+000	 7.260012931347837e+000
 7.376697161537533e-001	 2.675157638356550e+000	 7.283498762445294e+000
 7.117724530705057e-001	 2.682164233459022e+000	 7.296110323620645e+000
 6.858761533949306e-001	 2.688902917995866e+000	 7.299627687791261e+000
 6.599846729770403e-001	 2.695374785004896e+000	 7.295795678764877e+000
 6.341018256921330e-001	 2.701580995427987e+000	 7.286322426707945e+000
 6.082313821098385e-001	 2.707522776638490e+000	 7.266069864710354e+000
 5.823770682164716e-001	 2.713201420943071e+000	 7.210530693329678e+000
 5.565425641910096e-001	 2.718618284059930e+000	 7.126106715759288e+000
 5.307315032349363e-001	 2.723774783575466e+000	 7.021956319248913e+000
 5.049474704561093e-001	 2.728672397381367e+000	 6.906399113172957e+000
 7.704430015707247e-001	 2.691917082955955e+000	 7.310304097173559e+000
 7.443153892678818e-001	 2.699258157622057e+000	 7.331419115218295e+000
 7.181848175082203e-001	 2.706327875202622e+000	 7.341421681608402e+000
 6.920552178356768e-001	 2.713127268608924e+000	 7.342146650520913e+000
 6.659304808376505e-001	 2.719657440725967e+000	 7.335392332538197e+000
 6.398144547486752e-001	 2.725919562954553e+000	 7.322919012414083e+000
 6.137109441074761e-001	 2.731914873725461e+000	 7.304106051449872e+000
 5.876237084678111e-001	 2.737644676987750e+000	 7.262588476876186e+000
 5.615564611634222e-001	 2.743110340673302e+000	 7.203193754734926e+000
 5.355128681273379e-001	 2.748313295139560e+000	 7.135410257157739e+000
 5.094965467656832e-001	 2.753255031592557e+000	 7.067856512213914e+000
 7.773219569376425e-001	 2.715952056911313e+000	 7.392196134782887e+000
 7.509610623820103e-001	 2.723358676886565e+000	 7.410318448106424e+000
 7.245971819459354e-001	 2.730491516945223e+000	 7.417100782903670e+000
 6.982342822764233e-001	 2.737351619220983e+000	 7.414433315085605e+000
 6.718762886982608e-001	 2.743940096446035e+000	 7.404168355729026e+000
 6.455270838052174e-001	 2.750258130480121e+000	 7.388118830983950e+000
 6.191905061051134e-001	 2.756306970811430e+000	 7.367240513556111e+000
 5.928703487191506e-001	 2.762087933031430e+000	 7.333610861191846e+000
 5.665703581358352e-001	 2.767602397285674e+000	 7.293526367741847e+000
 5.402942330197397e-001	 2.772851806702656e+000	 7.256813188889513e+000
 5.140456230752573e-001	 2.777837665802749e+000	 7.232395859620784e+000
 7.842009123045602e-001	 2.739987030865671e+000	 7.505708617127366e+000
 7.576067354961388e-001	 2.747459196150073e+000	 7.520201550162865e+000
 7.310095463836498e-001	 2.754655158686824e+000	 7.523137807715391e+000
 7.044133467171695e-001	 2.761575969832042e+000	 7.516463436039380e+000
 6.778220965588707e-001	 2.768222752165104e+000	 7.502085268233413e+000
 6.512397128617596e-001	 2.774596698004689e+000	 7.481869366128856e+000
 6.246700681027508e-001	 2.780699067896399e+000	 7.457571831229749e+000
 5.981169889704902e-001	 2.786531189074110e+000	 7.425526337972181e+000
 5.715842551082480e-001	 2.792094453897045e+000	 7.398868521629161e+000
 5.450755979121412e-001	 2.797390318264753e+000	 7.387770221349732e+000
 5.185946993848312e-001	 2.802420300011939e+000	 7.401469160648046e+000
 7.910798676714780e-001	 2.764022004819030e+000	 7.650862558715510e+000
 7.642524086102673e-001	 2.771559715412581e+000	 7.661074984726100e+000
 7.374219108213646e-001	 2.778818800427425e+000	 7.659525044186793e+000
 7.105924111579157e-001	 2.785800320442100e+000	 7.648215210289810e+000
 6.837679044194811e-001	 2.792505407883174e+000	 7.629107367340418e+000
 6.569523419183018e-001	 2.798935265528256e+000	 7.604121214466847e+000
 6.301496301003886e-001	 2.805091164980371e+000	 7.575132784801597e+000
 6.033636292218295e-001	 2.810974445115789e+000	 7.540267183685330e+000
 5.765981520806607e-001	 2.816586510507417e+000	 7.520988304085062e+000
 5.498569628045430e-001	 2.821928829825850e+000	 7.529890918249700e+000
 5.231437756944052e-001	 2.827002934220130e+000	 7.576533213085058e+000
 7.979588230383954e-001	 2.788056978771388e+000	 7.827680353476554e+000
 7.708980817243957e-001	 2.795660234674088e+000	 7.832947012942651e+000
 7.438342752590791e-001	 2.802982442167025e+000	 7.826256797536548e+000
 7.167714755986623e-001	 2.810024671051159e+000	 7.809669171823553e+000
 6.897137122800909e-001	 2.816788063600243e+000	 7.785201608017152e+000
 6.626649709748439e-001	 2.823273833050822e+000	 7.754827951345698e+000
 6.356291920980260e-001	 2.829483262063339e+000	 7.720476904284966e+000
 6.086102694731691e-001	 2.835417701156467e+000	 7.679769296435764e+000
 5.816120490530735e-001	 2.841078567116789e+000	 7.661657746014589e+000
 5.546383276969445e-001	 2.846467341385945e+000	 7.684789108003303e+000
 5.276928520039791e-001	 2.851585568427321e+000	 7.759049400681068e+000
 8.048377784053131e-001	 2.812091952722746e+000	 8.036185715810909e+000
 7.775437548385245e-001	 2.819760753934596e+000	 8.035827521210781e+000
 7.502466396967938e-001	 2.827146083905626e+000	 8.023329303858803e+000
 7.229505400394083e-001	 2.834249021659217e+000	 8.000808091831958e+000
 6.956595201407010e-001	 2.841070719316312e+000	 7.970337489332764e+000
 6.683776000313861e-001	 2.847612400572389e+000	 7.933946003546497e+000
 6.411087540956635e-001	 2.853875359145309e+000	 7.893615493811151e+000
 6.138569097245084e-001	 2.859860957196147e+000	 7.845972041193181e+000
 5.866259460254865e-001	 2.865570623725161e+000	 7.822652653026175e+000
 5.594196925893462e-001	 2.871005852945041e+000	 7.854082701474503e+000
 5.322419283135530e-001	 2.876168202633512e+000	 7.950483497164499e+000
 8.117167337722309e-001	 2.836126926673104e+000	 8.276403624638018e+000
 7.841894279526530e-001	 2.843861273194103e+000	 8.269727952314263e+000
 7.566590041345087e-001	 2.851309725643227e+000	 8.250740648306435e+000
 7.291296044801549e-001	 2.858473372266277e+000	 8.221616883913574e+000
 7.016053280013110e-001	 2.865353375031381e+000	 8.184486946657280e+000
 6.740902290879285e-001	 2.871950968092957e+000	 8.141434528460728e+000
 6.465883160933009e-001	 2.878267456226280e+000	 8.094495139640136e+000
 6.191035499758479e-001	 2.884304213234826e+000	 8.040818102891747e+000
 5.916398429978994e-001	 2.890062680332532e+000	 8.005752445486387e+000
 5.642010574817480e-001	 2.895544364503138e+000	 8.039393518992126e+000
 5.367910046231269e-001	 2.900750836838703e+000	 8.152305480226412e+000
 8.185956891391485e-001	 2.860161900622463e+000	 8.548360270265224e+000
 7.908351010667816e-001	 2.867961792452611e+000	 8.534661240027731e+000
 7.630713685722232e-001	 2.875473367379827e+000	 8.508490687399553e+000
 7.353086689209010e-001	 2.882697722872336e+000	 8.472082514057506e+000
 7.075511358619213e-001	 2.889636030745451e+000	 8.427624249296338e+000
 6.798028581444705e-001	 2.896289535612524e+000	 8.377255299358273e+000
 6.520678780909384e-001	 2.902659553306250e+000	 8.323065326128871e+000
 6.243501902271874e-001	 2.908747469272504e+000	 8.266253346935555e+000
 5.966537399703122e-001	 2.914554736938904e+000	 8.212740006639473e+000
 5.689824223741495e-001	 2.920082876060233e+000	 8.242347126086926e+000
 5.413400809327010e-001	 2.925333471042894e+000	 8.365989354883583e+000
 8.254746445060665e-001	 2.884196874570822e+000	 8.852083003913430e+000
 7.974807741809102e-001	 2.892062311710120e+000	 8.830641746992315e+000
 7.694837330099383e-001	 2.899637009115428e+000	 8.796580975218499e+000
 7.414877333616478e-001	 2.906922073477395e+000	 8.752193915126952e+000
 7.134969437225316e-001	 2.913918686458521e+000	 8.699725903243614e+000
 6.855154872010129e-001	 2.920628103131092e+000	 8.641372596392822e+000
 6.575474400885762e-001	 2.927051650385220e+000	 8.579278314977646e+000
 6.295968304785271e-001	 2.933190725309185e+000	 8.515534518595993e+000
 6.016676369427254e-001	 2.939046793544277e+000	 8.445401538320724e+000
 5.737637872665514e-001	 2.944621387616330e+000	 8.464572677441069e+000
 5.458891572422751e-001	 2.949916105246086e+000	 8.593012985673495e+000
 5.003983941465354e-001	 2.704089763169176e+000	 6.746576667621003e+000
 4.748769387281781e-001	 2.708688223695421e+000	 6.705154864546597e+000
 4.493892264735033e-001	 2.713033232976536e+000	 6.659852889432457e+000
 4.239386611108921e-001	 2.717126425418323e+000	 6.616327392463618e+000
 3.985285948199710e-001	 2.720969488838350e+000	 6.579438092225996e+000
 3.731623273929815e-001	 2.724564162849201e+000	 6.553256910524105e+000
 3.478431054491009e-001	 2.727912237233771e+000	 6.541078553652143e+000
 3.225741217013700e-001	 2.731015550314390e+000	 6.545432473702295e+000
 2.973585142758312e-001	 2.733875987317568e+000	 6.568096141910963e+000
 2.721993660824217e-001	 2.736495478736074e+000	 6.610109564720982e+000
 2.470997042370982e-001	 2.738875998690031e+000	 6.671790972183581e+000
 5.049474704561093e-001	 2.728672397381367e+000	 6.906399113172957e+000
 4.791940018074254e-001	 2.733312662094415e+000	 6.919721783763912e+000
 4.534745830783211e-001	 2.737697171460055e+000	 6.917593474890244e+000
 4.277926489401633e-001	 2.741827574742321e+000	 6.906016800203062e+000
 4.021515820469407e-001	 2.745705575102577e+000	 6.890185429033789e+000
 3.765547121890066e-001	 2.749332927968071e+000	 6.874493043483864e+000
 3.510053155002598e-001	 2.752711439392450e+000	 6.862543779786837e+000
 3.255066137184062e-001	 2.755842964410066e+000	 6.857164086423519e+000
 3.000617734979079e-001	 2.758729405385851e+000	 6.860415929822179e+000
 2.746739057751573e-001	 2.761372710362509e+000	 6.873611277105503e+000
 2.493460651853486e-001	 2.763774871406714e+000	 6.897327784230832e+000
 5.094965467656832e-001	 2.753255031592557e+000	 7.067856512213914e+000
 4.835110648866728e-001	 2.757937100492415e+000	 7.128874329288608e+000
 4.575599396831386e-001	 2.762361109942594e+000	 7.163729948814763e+000
 4.316466367694347e-001	 2.766528724065365e+000	 7.178774026627505e+000
 4.057745692739102e-001	 2.770441661365888e+000	 7.179535377577935e+000
 3.799470969850319e-001	 2.774101693086072e+000	 7.170729768253531e+000
 3.541675255514188e-001	 2.777510641550315e+000	 7.156270232856799e+000
 3.284391057354423e-001	 2.780670378504993e+000	 7.139278843562385e+000
 3.027650327199846e-001	 2.783582823453463e+000	 7.122099864966720e+000
 2.771484454678929e-001	 2.786249941988359e+000	 7.106314220811651e+000
 2.515924261335989e-001	 2.788673744122905e+000	 7.092755200004492e+000
 5.140456230752573e-001	 2.777837665802749e+000	 7.232395859620784e+000
 4.878281279659201e-001	 2.782561538889420e+000	 7.333985316079120e+000
 4.616452962879563e-001	 2.787025048424154e+000	 7.399555613960240e+000
 4.355006245987059e-001	 2.791229873387455e+000	 7.435807675359890e+000
 4.093975565008799e-001	 2.795177747628282e+000	 7.448606798433010e+000
 3.833394817810571e-001	 2.798870458203201e+000	 7.442991299021903e+000
 3.573297356025777e-001	 2.802309843707365e+000	 7.423182715400015e+000
 3.313715977524785e-001	 2.805497792599171e+000	 7.392597506241095e+000
 3.054682919420611e-001	 2.808436241520401e+000	 7.353860170151282e+000
 2.796229851606286e-001	 2.811127173613622e+000	 7.308817713612362e+000
 2.538387870818492e-001	 2.813572616838604e+000	 7.258555392975906e+000
 5.185946993848312e-001	 2.802420300011939e+000	 7.401469160648046e+000
 4.921451910451676e-001	 2.807185977285431e+000	 7.536430343631046e+000
 4.657306528927738e-001	 2.811688986904735e+000	 7.626364726138480e+000
 4.393546124279772e-001	 2.815931022708593e+000	 7.678325863185330e+000
 4.130205437278496e-001	 2.819913833889759e+000	 7.698517014065096e+000
 3.867318665770823e-001	 2.823639223319458e+000	 7.692299646082979e+000
 3.604919456537368e-001	 2.827109045863601e+000	 7.664203542445940e+000
 3.343040897695147e-001	 2.830325206692602e+000	 7.617938443151495e+000
 3.081715511641378e-001	 2.833289659586666e+000	 7.556407145881325e+000
 2.820975248533642e-001	 2.836004405238298e+000	 7.481719992361192e+000
 2.560851480300995e-001	 2.838471489553812e+000	 7.395210664383944e+000
 5.231437756944052e-001	 2.827002934220130e+000	 7.576533213085058e+000
 4.964622541244147e-001	 2.831810415680446e+000	 7.737587674910317e+000
 4.698160094975916e-001	 2.836352925384337e+000	 7.845452452781409e+000
 4.432086002572486e-001	 2.840632172028778e+000	 7.907536241218645e+000
 4.166435309548192e-001	 2.844649920150318e+000	 7.930381875706249e+000
 3.901242513731075e-001	 2.848407988434846e+000	 7.919674711657830e+000
 3.636541557048957e-001	 2.851908248019020e+000	 7.880252649668478e+000
 3.372365817865509e-001	 2.855152620785284e+000	 7.816117734574107e+000
 3.108748103862144e-001	 2.858143077652259e+000	 7.730449253939519e+000
 2.845720645460997e-001	 2.860881636862386e+000	 7.625618259988632e+000
 2.583315089783498e-001	 2.863370362268527e+000	 7.503203437680187e+000
 5.276928520039791e-001	 2.851585568427321e+000	 7.759049400681068e+000
 5.007793172036622e-001	 2.856434854074466e+000	 7.938838121548141e+000
 4.739013661024092e-001	 2.861016863862959e+000	 8.058114833647295e+000
 4.470625880865198e-001	 2.865333321348009e+000	 8.124646014975800e+000
 4.202665181817888e-001	 2.869386006409961e+000	 8.145315826769707e+000
 3.935166361691326e-001	 2.873176753549362e+000	 8.126134380759964e+000
 3.668163657560547e-001	 2.876707450173628e+000	 8.072247695943931e+000
 3.401690738035870e-001	 2.879980034877217e+000	 7.987949271016774e+000
 3.135780696082910e-001	 2.882996495717180e+000	 7.876693196640796e+000
 2.870466042388354e-001	 2.885758868485888e+000	 7.741108730067607e+000
 2.605778699266002e-001	 2.888269234982751e+000	 7.583016253260498e+000
 5.322419283135530e-001	 2.876168202633512e+000	 7.950483497164499e+000
 5.050963802829095e-001	 2.881059292467493e+000	 8.141564934924201e+000
 4.779867227072269e-001	 2.885680802340604e+000	 8.265648743541611e+000
 4.509165759157910e-001	 2.890034470666286e+000	 8.330861963416959e+000
 4.238895054087584e-001	 2.894122092668686e+000	 8.344431963013124e+000
 3.969090209651579e-001	 2.897945518663008e+000	 8.312694607400520e+000
 3.699785758072137e-001	 2.901506652327419e+000	 8.241104160650670e+000
 3.431015658206232e-001	 2.904807448968402e+000	 8.134244846794196e+000
 3.162813288303678e-001	 2.907849913781428e+000	 7.995843992023364e+000
 2.895211439315709e-001	 2.910636100108803e+000	 7.828786669094441e+000
 2.628242308748505e-001	 2.913168107696484e+000	 7.635131763468261e+000
 5.367910046231269e-001	 2.900750836838703e+000	 8.152305480226412e+000
 5.094134433621568e-001	 2.905683730859524e+000	 8.347153702786995e+000
 4.820720793120443e-001	 2.910344740817267e+000	 8.469351856934118e+000
 4.547705637450623e-001	 2.914735619983611e+000	 8.527390457020573e+000
 4.275124926357281e-001	 2.918858178926494e+000	 8.528842089642492e+000
 4.003014057611831e-001	 2.922714283775782e+000	 8.480369496410363e+000
 3.731407858583726e-001	 2.926305854480396e+000	 8.387735436019815e+000
 3.460340578376594e-001	 2.929634863058839e+000	 8.255814248850118e+000
 3.189845880524443e-001	 2.932703331845003e+000	 8.088605045216617e+000
 2.919956836243065e-001	 2.935513331731130e+000	 7.889246436618183e+000
 2.650705918231008e-001	 2.938066980409724e+000	 7.660032727850110e+000
 5.413400809327010e-001	 2.925333471042894e+000	 8.365989354883583e+000
 5.137305064414042e-001	 2.930308169250560e+000	 8.556992251087467e+000
 4.861574359168621e-001	 2.935008679292952e+000	 8.670522614358836e+000
 4.586245515743336e-001	 2.939436769299983e+000	 8.715437474946818e+000
 4.311354798626977e-001	 2.943594265183386e+000	 8.699656775537086e+000
 4.036937905572083e-001	 2.947483048887686e+000	 8.630171381136844e+000
 3.763029959095316e-001	 2.951105056632559e+000	 8.513052914831308e+000
 3.489665498546956e-001	 2.954462277148526e+000	 8.353465341100389e+000
 3.216878472745210e-001	 2.957556749907905e+000	 8.155678216210028e+000
 2.944702233170422e-001	 2.960390563352872e+000	 7.923081523348447e+000
 2.673169527713512e-001	 2.962965853122473e+000	 7.658202008651952e+000
 5.458891572422751e-001	 2.949916105246086e+000	 8.593012985673495e+000
 5.180475695206517e-001	 2.954932607640603e+000	 8.772470550720220e+000
 4.902427925216797e-001	 2.959672617767659e+000	 8.870460190495402e+000
 4.624785394036050e-001	 2.964137918615402e+000	 8.896208621342151e+000
 4.347584670896675e-001	 2.968330351439361e+000	 8.857985404763147e+000
 4.070861753532337e-001	 2.972251813998719e+000	 8.763110897255782e+000
 3.794652059606907e-001	 2.975904258783907e+000	 8.617966073724116e+000
 3.518990418717319e-001	 2.979289691237467e+000	 8.428004144559141e+000
 3.243911064965978e-001	 2.982410167970138e+000	 8.197763884234155e+000
 2.969447630097779e-001	 2.985267794974027e+000	 7.930884587356760e+000
 2.695633137196015e-001	 2.987864725834731e+000	 7.630122566539735e+000
 2.470997042370982e-001	 2.738875998690031e+000	 6.671790972183581e+000
 2.220624995334239e-001	 2.741019563288683e+000	 6.768656413442557e+000
 1.970906659666314e-001	 2.742928228994460e+000	 6.884587851512292e+000
 1.721870603070332e-001	 2.744604090990911e+000	 7.018293122441447e+000
 1.473544817196688e-001	 2.746049281555912e+000	 7.167821275472967e+000
 1.225956714330539e-001	 2.747265968441736e+000	 7.330582861831076e+000
 9.791331245501693e-002	 2.748256353263346e+000	 7.503370981532888e+000
 7.331002933477392e-002	 2.749022669896307e+000	 7.682383016852793e+000
 4.878838797035946e-002	 2.749567182885613e+000	 7.863242981777193e+000
 2.435089546050372e-002	 2.749892185866723e+000	 8.041024417686842e+000
 0.000000000000000e+000	 2.750000000000000e+000	 8.210273766569674e+000
 2.493460651853486e-001	 2.763774871406714e+000	 6.897327784230832e+000
 2.240812495293676e-001	 2.765937922956008e+000	 6.963634165052542e+000
 1.988823992934204e-001	 2.767863940167976e+000	 7.042496851878061e+000
 1.737523972184575e-001	 2.769555037273286e+000	 7.132723190506375e+000
 1.486940679164726e-001	 2.771013365934161e+000	 7.232450179413188e+000
 1.237101775362395e-001	 2.772241113609713e+000	 7.339165001220661e+000
 9.880343347656646e-002	 2.773240501929583e+000	 7.449726333562659e+000
 7.397648414620664e-002	 2.774013785077298e+000	 7.560386366474639e+000
 4.923191876953960e-002	 2.774563248184625e+000	 7.666813454151786e+000
 2.457226723710114e-002	 2.774891205738252e+000	 7.764115329823535e+000
 0.000000000000000e+000	 2.775000000000000e+000	 7.846862813572494e+000
 2.515924261335989e-001	 2.788673744122905e+000	 7.092755200004492e+000
 2.260999995253115e-001	 2.790856282622937e+000	 7.126386372745366e+000
 2.006741326202093e-001	 2.792799651341178e+000	 7.166878769560309e+000
 1.753177341298817e-001	 2.794505983555423e+000	 7.213134911894165e+000
 1.500336541132762e-001	 2.795977450312236e+000	 7.263374691989789e+000
 1.248246836394252e-001	 2.797216258777567e+000	 7.315156167500852e+000
 9.969355449811602e-002	 2.798224650595743e+000	 7.365397157417997e+000
 7.464293895763939e-002	 2.799004900258246e+000	 7.410397564885642e+000
 4.967544956871973e-002	 2.799559313483616e+000	 7.445862353203065e+000
 2.479363901369855e-002	 2.799890225609775e+000	 7.466925102218449e+000
 0.000000000000000e+000	 2.800000000000000e+000	 7.468172073414390e+000
 2.538387870818492e-001	 2.813572616838604e+000	 7.258555392975906e+000
 2.281187495212552e-001	 2.815774642289468e+000	 7.257370939922668e+000
 2.024658659469983e-001	 2.817735362514068e+000	 7.258163983330198e+000
 1.768830710413059e-001	 2.819456929837321e+000	 7.259927959871313e+000
 1.513732403100800e-001	 2.820941534690137e+000	 7.260960671264068e+000
 1.259391897426109e-001	 2.822191403945301e+000	 7.258885362504038e+000
 1.005836755196656e-001	 2.823208799261826e+000	 7.250672623881042e+000
 7.530939376907211e-002	 2.823996015439151e+000	 7.232663040748746e+000
 5.011898036789984e-002	 2.824555378782589e+000	 7.200590515740178e+000
 2.501501079029598e-002	 2.824889245481295e+000	 7.149606189041625e+000
 0.000000000000000e+000	 2.825000000000000e+000	 7.074302883443907e+000
 2.560851480300995e-001	 2.838471489553812e+000	 7.395210664383944e+000
 2.301374995171990e-001	 2.840693001955602e+000	 7.357044066538320e+000
 2.042575992737872e-001	 2.842671073686646e+000	 7.316779670379662e+000
 1.784484079527302e-001	 2.844407876118981e+000	 7.273497638307811e+000
 1.527128265068837e-001	 2.845905619067862e+000	 7.225568765489696e+000
 1.270536958457965e-001	 2.847166549112915e+000	 7.170675862210011e+000
 1.014737965412151e-001	 2.848192947927832e+000	 7.105835983032939e+000
 7.597584858050487e-002	 2.848987130620012e+000	 7.027423425083059e+000
 5.056251116707998e-002	 2.849551444081544e+000	 6.931193418481040e+000
 2.523638256689339e-002	 2.849888265352807e+000	 6.812306432897350e+000
 0.000000000000000e+000	 2.850000000000000e+000	 6.665353025313128e+000
 2.583315089783498e-001	 2.863370362268527e+000	 7.503203437680187e+000
 2.321562495131427e-001	 2.865611361621340e+000	 7.425860323160754e+000
 2.060493326005761e-001	 2.867606784858910e+000	 7.343149945520168e+000
 1.800137448641544e-001	 2.869358822400401e+000	 7.254235071650583e+000
 1.540524127036873e-001	 2.870869703445412e+000	 7.157554639626309e+000
 1.281682019489822e-001	 2.872141694280408e+000	 7.050845465695701e+000
 1.023639175627647e-001	 2.873177096593761e+000	 6.931164821675189e+000
 7.664230339193760e-002	 2.873978245800831e+000	 6.794913803334955e+000
 5.100604196626010e-002	 2.874547509380479e+000	 6.637861411099593e+000
 2.545775434349082e-002	 2.874887285224317e+000	 6.455169265328089e+000
 0.000000000000000e+000	 2.875000000000000e+000	 6.241416879573197e+000
 2.605778699266002e-001	 2.888269234982751e+000	 7.583016253260498e+000
 2.341749995090864e-001	 2.890529721286680e+000	 7.464272721206020e+000
 2.078410659273651e-001	 2.892542496030862e+000	 7.337695993182108e+000
 1.815790817755787e-001	 2.894309768681583e+000	 7.202527385071349e+000
 1.553919989004910e-001	 2.895833787822788e+000	 7.057269190136275e+000
 1.292827080521679e-001	 2.897116839447781e+000	 6.899706731208608e+000
 1.032540385843142e-001	 2.898161245259612e+000	 6.726931307437147e+000
 7.730875820337035e-002	 2.898969360981606e+000	 6.535363954411388e+000
 5.144957276544022e-002	 2.899543574679394e+000	 6.320779937219438e+000
 2.567912612008824e-002	 2.899886305095822e+000	 6.078333896945930e+000
 0.000000000000000e+000	 2.900000000000000e+000	 5.802585572273577e+000
 2.628242308748505e-001	 2.913168107696484e+000	 7.635131763468261e+000
 2.361937495050302e-001	 2.915448080951624e+000	 7.472732779567174e+000
 2.096327992541540e-001	 2.917478207202503e+000	 7.300836192644544e+000
 1.831444186870029e-001	 2.919260714962529e+000	 7.118757875375479e+000
 1.567315850972948e-001	 2.920797872199990e+000	 6.925058748767068e+000
 1.303972141553536e-001	 2.922091984615031e+000	 6.717567200134315e+000
 1.041441596058637e-001	 2.923145393925386e+000	 6.493402420363874e+000
 7.797521301480311e-002	 2.923960476162339e+000	 6.248998577455393e+000
 5.189310356462035e-002	 2.924539639978291e+000	 5.980129744073762e+000
 2.590049789668566e-002	 2.924885324967322e+000	 5.681935497813868e+000
 0.000000000000000e+000	 2.925000000000000e+000	 5.348947114043136e+000
 2.650705918231008e-001	 2.938066980409724e+000	 7.660032727850110e+000
 2.382124995009740e-001	 2.940366440616170e+000	 7.451690587857575e+000
 2.114245325809429e-001	 2.942413918373830e+000	 7.232986236897838e+000
 1.847097555984271e-001	 2.944211661243234e+000	 7.003306173221302e+000
 1.580711712940984e-001	 2.945761956577017e+000	 6.761265275970985e+000
 1.315117202585392e-001	 2.947067129782162e+000	 6.504729609574577e+000
 1.050342806274133e-001	 2.948129542591085e+000	 6.230840172729850e+000
 7.864166782623584e-002	 2.948951591343027e+000	 5.936037507090084e+000
 5.233663436380049e-002	 2.949535705277169e+000	 5.616087081505349e+000
 2.612186967328308e-002	 2.949884344838817e+000	 5.266105368656226e+000
 0.000000000000000e+000	 2.949999999999999e+000	 4.880586532099553e+000
 2.673169527713512e-001	 2.962965853122473e+000	 7.658202008651952e+000
 2.402312494969177e-001	 2.965284800280320e+000	 7.401594866464218e+000
 2.132162659077319e-001	 2.967349629544843e+000	 7.134559245512556e+000
 1.862750925098514e-001	 2.969162607523701e+000	 6.856548397159472e+000
 1.594107574909021e-001	 2.970726040953869e+000	 6.566226544573421e+000
 1.326262263617249e-001	 2.972042274949171e+000	 6.261492094208766e+000
 1.059244016489628e-001	 2.973113691256704e+000	 5.939501817767808e+000
 7.930812263766857e-002	 2.973942706523673e+000	 5.596695917810076e+000
 5.278016516298060e-002	 2.974531770576026e+000	 5.228823890932040e+000
 2.634324144988050e-002	 2.974883364710307e+000	 4.830971103435462e+000
 0.000000000000000e+000	 2.974999999999999e+000	 4.397585995602913e+000
 2.695633137196015e-001	 2.987864725834731e+000	 7.630122566539735e+000
 2.422499994928616e-001	 2.990203159944074e+000	 7.322893023598873e+000
 2.150079992345209e-001	 2.992285340715546e+000	 7.005965871865631e+000
 1.878404294212756e-001	 2.994113553803930e+000	 6.678857299971187e+000
 1.607503436877059e-001	 2.995690125330548e+000	 6.340276314256886e+000
 1.337407324649106e-001	 2.997017420116060e+000	 5.988148378061123e+000
 1.068145226705124e-001	 2.998097839922249e+000	 5.619640047963348e+000
 7.997457744910133e-002	 2.998933821704276e+000	 5.231184518153890e+000
 5.322369596216075e-002	 2.999527835874867e+000	 4.818507984864486e+000
 2.656461322647793e-002	 2.999882384581794e+000	 4.376656743800578e+000
 0.000000000000000e+000	 3.000000000000000e+000	 3.900024934741292e+000
 3.000000000000000e+000	 0.000000000000000e+000	 1.061056336525407e+001
 2.999882384581794e+000	 2.656461322647803e-002	 1.062223956294661e+001
 2.999527835874867e+000	 5.322369596216094e-002	 1.062132524714020e+001
 2.998933821704276e+000	 7.997457744910114e-002	 1.060942007420493e+001
 2.998097839922249e+000	 1.068145226705123e-001	 1.058822701855745e+001
 2.997017420116060e+000	 1.337407324649106e-001	 1.055955336494924e+001
 2.995690125330548e+000	 1.607503436877060e-001	 1.052531154674327e+001
 2.994113553803930e+000	 1.878404294212759e-001	 1.048751982258656e+001
 2.992285340715547e+000	 2.150079992345207e-001	 1.044830278398797e+001
 2.990203159944073e+000	 2.422499994928615e-001	 1.040989168643575e+001
 2.987864725834731e+000	 2.695633137196016e-001	 1.037462459684408e+001
 3.025000000000000e+000	 0.000000000000000e+000	 1.066451588834138e+001
 3.024881404453279e+000	 2.678598500307306e-002	 1.067815752808495e+001
 3.024523901173706e+000	 5.366722676133150e-002	 1.067865549391786e+001
 3.023924936884879e+000	 8.064103226051231e-002	 1.066762612749382e+001
 3.023081988587793e+000	 1.077046436920233e-001	 1.064679141589403e+001
 3.021992565282949e+000	 1.348552385680359e-001	 1.061798002473997e+001
 3.020654209707225e+000	 1.620899298844223e-001	 1.058312817414454e+001
 3.019064500084158e+000	 1.894057663325809e-001	 1.054428034971528e+001
 3.017221051886248e+000	 2.167997325611534e-001	 1.050358984092627e+001
 3.015121519607826e+000	 2.442687494886068e-001	 1.046331909930226e+001
 3.012763598546988e+000	 2.718096746676061e-001	 1.042583990901541e+001
 3.050000000000000e+000	 0.000000000000000e+000	 1.074971383846727e+001
 3.049880424324768e+000	 2.700735677966334e-002	 1.076427429145269e+001
 3.049519966472564e+000	 5.411075756048293e-002	 1.076509375792993e+001
 3.048916052065525e+000	 8.130748707188022e-002	 1.075380550772062e+001
 3.048066137253413e+000	 1.085947647134573e-001	 1.073215084014557e+001
 3.046967710449958e+000	 1.359697446710402e-001	 1.070198015903715e+001
 3.045618294084077e+000	 1.634295160809641e-001	 1.066525388737835e+001
 3.044015446364626e+000	 1.909711032436473e-001	 1.062404321358483e+001
 3.042156763057263e+000	 2.185914658874734e-001	 1.058053066154926e+001
 3.040039879271977e+000	 2.462874994839551e-001	 1.053701047669684e+001
 3.037662471259737e+000	 2.740560356151188e-001	 1.049588882045931e+001
 3.075000000000000e+000	 0.000000000000000e+000	 1.086527968708070e+001
 3.074879444196264e+000	 2.722872855624884e-002	 1.087971034476793e+001
 3.074516031771441e+000	 5.455428835961522e-002	 1.087975816881091e+001
 3.073907167246214e+000	 8.197394188320498e-002	 1.086707359939288e+001
 3.073050285919110e+000	 1.094848857348141e-001	 1.084341754739236e+001
 3.071942855617088e+000	 1.370842507739238e-001	 1.081066251238089e+001
 3.070582378461104e+000	 1.647691022773312e-001	 1.077079353697379e+001
 3.068966392645331e+000	 1.925364401544753e-001	 1.072590898934790e+001
 3.067092474228589e+000	 2.203831992134809e-001	 1.067822116584578e+001
 3.064958238936522e+000	 2.483062494789064e-001	 1.063005670571552e+001
 3.062561343972977e+000	 2.763023965621398e-001	 1.058385681019742e+001
 3.100000000000000e+000	 0.000000000000000e+000	 1.101036421300329e+001
 3.099878464067764e+000	 2.745010033282959e-002	 1.102361424014877e+001
 3.099512097070338e+000	 5.499781915872840e-002	 1.102179466571104e+001
 3.098898282426945e+000	 8.264039669448649e-002	 1.100657334178908e+001
 3.098034434584885e+000	 1.103750067560939e-001	 1.097973108993553e+001
 3.096918000784339e+000	 1.381987568766865e-001	 1.094316286323523e+001
 3.095546462838306e+000	 1.661086884735237e-001	 1.089887874140050e+001
 3.093917338926274e+000	 1.941017770650647e-001	 1.084900475049189e+001
 3.092028185400229e+000	 2.221749325391758e-001	 1.079578349897811e+001
 3.089876598601465e+000	 2.503249994734608e-001	 1.074157462198141e+001
 3.087460216686710e+000	 2.785487575086693e-001	 1.068885502571951e+001
 3.125000000000000e+000	 0.000000000000000e+000	 1.118414537013420e+001
 3.124877483939268e+000	 2.767147210940556e-002	 1.119516146769756e+001
 3.124508162369254e+000	 5.544134995782243e-002	 1.119037588491538e+001
 3.123889397607720e+000	 8.330685150572482e-002	 1.117147412676776e+001
 3.123018583250737e+000	 1.112651277772966e-001	 1.114025722444864e+001
 3.121893145951711e+000	 1.393132629793284e-001	 1.109864294263118e+001
 3.120510547215681e+000	 1.674482746695415e-001	 1.104866681635093e+001
 3.118868285207457e+000	 1.956671139754157e-001	 1.099248300890555e+001
 3.116963896572181e+000	 2.239666658645581e-001	 1.093236498227511e+001
 3.114794958266806e+000	 2.523437494676183e-001	 1.087070597170329e+001
 3.112359089400934e+000	 2.807951184547070e-001	 1.081001925624462e+001
 3.150000000000000e+000	 0.000000000000000e+000	 1.116946038284213e+001
 3.149876503810778e+000	 2.789284388597678e-002	 1.116349697828357e+001
 3.149504227668188e+000	 5.588488075689733e-002	 1.114507883926130e+001
 3.148880512788539e+000	 8.397330631691997e-002	 1.111621083046886e+001
 3.148002731916666e+000	 1.121552487984223e-001	 1.107893255478369e+001
 3.146868291119204e+000	 1.404277690818493e-001	 1.103532395634463e+001
 3.145474631593232e+000	 1.687878608653847e-001	 1.098751120306335e+001
 3.143819231488878e+000	 1.972324508855280e-001	 1.093767284312985e+001
 3.141899607744445e+000	 2.257583991896278e-001	 1.088804622889241e+001
 3.139713317932544e+000	 2.543624994613788e-001	 1.084093420027993e+001
 3.137257962115649e+000	 2.830414794002528e-001	 1.079871201869206e+001
 3.175000000000000e+000	 0.000000000000000e+000	 1.112179185159669e+001
 3.174875523682292e+000	 2.811421566254322e-002	 1.110145934191563e+001
 3.174500292967143e+000	 5.632841155595311e-002	 1.106972348972276e+001
 3.173871627969401e+000	 8.463976112807191e-002	 1.102848309202687e+001
 3.172986880582672e+000	 1.130453698194708e-001	 1.097966880015689e+001
 3.171843436286817e+000	 1.415422751842494e-001	 1.092524892352822e+001
 3.170438715970958e+000	 1.701274470610533e-001	 1.086723552560693e+001
 3.168770177770539e+000	 1.987977877954020e-001	 1.080769080657235e+001
 3.166835318917023e+000	 2.275501325143849e-001	 1.074873376596266e+001
 3.164631677598678e+000	 2.563812494547423e-001	 1.069254713733654e+001
 3.162156834830856e+000	 2.852878403453070e-001	 1.064138458570178e+001
 3.199999999999999e+000	 0.000000000000000e+000	 1.104039298627498e+001
 3.199874543553811e+000	 2.833558743910490e-002	 1.100941134855272e+001
 3.199496358266115e+000	 5.677194235498975e-002	 1.096809786773051e+001
 3.198862743150305e+000	 8.530621593918064e-002	 1.091824085991895e+001
 3.197971029248754e+000	 1.139354908404423e-001	 1.086165751564047e+001
 3.196818581454552e+000	 1.426567812865288e-001	 1.080019990871270e+001
 3.195402800348857e+000	 1.714670332565473e-001	 1.073576131038243e+001
 3.193721124052436e+000	 2.003631247050374e-001	 1.067028280315152e+001
 3.191771030089914e+000	 2.293418658388294e-001	 1.060576018748181e+001
 3.189550037265210e+000	 2.583999994477089e-001	 1.054425117327641e+001
 3.187055707546556e+000	 2.875342012898696e-001	 1.048788284671000e+001
 3.224999999999999e+000	 0.000000000000000e+000	 1.092454015303701e+001
 3.224873563425334e+000	 2.855695921566181e-002	 1.088674177835638e+001
 3.224492423565108e+000	 5.721547315400726e-002	 1.083970364491334e+001
 3.223853858331254e+000	 8.597267075024617e-002	 1.078509911197598e+001
 3.222955177914915e+000	 1.148256118613368e-001	 1.072462733588696e+001
 3.221793726622407e+000	 1.437712873886872e-001	 1.066001948853584e+001
 3.220366884726932e+000	 1.728066194518667e-001	 1.059304529442652e+001
 3.218672070334573e+000	 2.019284616144343e-001	 1.052551988072277e+001
 3.216706741263116e+000	 2.311335991629614e-001	 1.045931093335956e+001
 3.214468396932137e+000	 2.604187494402785e-001	 1.039634615097997e+001
 3.211954580262747e+000	 2.897805622339404e-001	 1.033862098709046e+001
 3.250000000000000e+000	 0.000000000000000e+000	 1.077353198369927e+001
 3.249872583296864e+000	 2.877833099221397e-002	 1.073286148288412e+001
 3.249488488864120e+000	 5.765900395300565e-002	 1.068406436695846e+001
 3.248844973512246e+000	 8.663912556126854e-002	 1.062869449971340e+001
 3.247939326581152e+000	 1.157157328821541e-001	 1.056832836586661e+001
 3.246768871790384e+000	 1.448857934907248e-001	 1.050457150363860e+001
 3.245330969105183e+000	 1.741462056470114e-001	 1.043906526956509e+001
 3.243623016616949e+000	 2.034937985235927e-001	 1.037349392986762e+001
 3.241642452436632e+000	 2.329253324867808e-001	 1.030959207137190e+001
 3.239386756599463e+000	 2.624374994324513e-001	 1.024915232359273e+001
 3.236853452979430e+000	 2.920269231775197e-001	 1.019403338219657e+001
 2.987864725834731e+000	 2.695633137196016e-001	 1.037462459684408e+001
 2.985267794974027e+000	 2.969447630097781e-001	 1.043785721656377e+001
 2.982410167970137e+000	 3.243911064965979e-001	 1.051196971488885e+001
 2.979289691237467e+000	 3.518990418717317e-001	 1.060024995892019e+001
 2.975904258783907e+000	 3.794652059606906e-001	 1.070610113488651e+001
 2.972251813998720e+000	 4.070861753532337e-001	 1.083304047130615e+001
 2.968330351439361e+000	 4.347584670896677e-001	 1.098469771854956e+001
 2.964137918615402e+000	 4.624785394036052e-001	 1.116481337954475e+001
 2.959672617767659e+000	 4.902427925216796e-001	 1.137723668679913e+001
 2.954932607640603e+000	 5.180475695206515e-001	 1.162592332137502e+001
 2.949916105246086e+000	 5.458891572422751e-001	 1.191493286995018e+001
 3.012763598546988e+000	 2.718096746676061e-001	 1.042583990901541e+001
 3.010145026595181e+000	 2.994193027022249e-001	 1.050510122671958e+001
 3.007263586032368e+000	 3.270943657183575e-001	 1.059513557701065e+001
 3.004117105326406e+000	 3.548315338884370e-001	 1.069917225438226e+001
 3.000703460935255e+000	 3.826274160115196e-001	 1.082055642294227e+001
 2.997020579109752e+000	 4.104785601489446e-001	 1.096274789366892e+001
 2.993066437695334e+000	 4.383814543163540e-001	 1.112931965676691e+001
 2.988839067930820e+000	 4.663325272326390e-001	 1.132395616372505e+001
 2.984336556242365e+000	 4.943281491263212e-001	 1.155045135411096e+001
 2.979557046030644e+000	 5.223646325997994e-001	 1.181270642260350e+001
 2.974498739449277e+000	 5.504382335518415e-001	 1.211472732225976e+001
 3.037662471259737e+000	 2.740560356151188e-001	 1.049588882045931e+001
 3.035022258216923e+000	 3.018938423940945e-001	 1.058639076976753e+001
 3.032117004095270e+000	 3.297976249394829e-001	 1.068750663926465e+001
 3.028944519416094e+000	 3.577640259044806e-001	 1.080240919871531e+001
 3.025502663087416e+000	 3.857896260616888e-001	 1.093438772713363e+001
 3.021789344221656e+000	 4.138709449440277e-001	 1.108684684391362e+001
 3.017802523952225e+000	 4.420044415424736e-001	 1.126330509362096e+001
 3.013540217247193e+000	 4.701865150611983e-001	 1.146739327890397e+001
 3.009000494718050e+000	 4.984135057306104e-001	 1.170285253641791e+001
 3.004181484421681e+000	 5.266816956787482e-001	 1.197353215112328e+001
 2.999081373653468e+000	 5.549873098613937e-001	 1.228338710481834e+001
 3.062561343972977e+000	 2.763023965621398e-001	 1.058385681019742e+001
 3.059899489839250e+000	 3.043683820853868e-001	 1.068088646787876e+001
 3.056970422158845e+000	 3.325008841599744e-001	 1.078831862055241e+001
 3.053771933506530e+000	 3.606965179198625e-001	 1.090927153596703e+001
 3.050301865240394e+000	 3.889518361111982e-001	 1.104698071980937e+001
 3.046558109334430e+000	 4.172633297384822e-001	 1.120479780050539e+001
 3.042538610210034e+000	 4.456274287680267e-001	 1.138618916610648e+001
 3.038241366564517e+000	 4.740405028892827e-001	 1.159473434757208e+001
 3.033664433194715e+000	 5.024988623345474e-001	 1.183412414319706e+001
 3.028805922813712e+000	 5.309987587574979e-001	 1.210815847940235e+001
 3.023664007858659e+000	 5.595363861709308e-001	 1.242074400360880e+001
 3.087460216686710e+000	 2.785487575086693e-001	 1.068885502571951e+001
 3.084776721462165e+000	 3.068429217761016e-001	 1.078777171786616e+001
 3.081823840223093e+000	 3.352041433798316e-001	 1.089682710694113e+001
 3.078599347597715e+000	 3.636290099345828e-001	 1.101908695724979e+001
 3.075101067394186e+000	 3.921140461600479e-001	 1.115773508870455e+001
 3.071326874448076e+000	 4.206557145323085e-001	 1.131607231510937e+001
 3.067274696468759e+000	 4.492504159930132e-001	 1.149751513281581e+001
 3.062942515882794e+000	 4.778944907168924e-001	 1.170559415391168e+001
 3.058328371672358e+000	 5.065842189381320e-001	 1.194395227854183e+001
 3.053430361206737e+000	 5.353158218360486e-001	 1.221634260143391e+001
 3.048246642064849e+000	 5.640854624804536e-001	 1.252662604820636e+001
 3.112359089400934e+000	 2.807951184547070e-001	 1.081001925624462e+001
 3.109653953085667e+000	 3.093174614662391e-001	 1.090625178019850e+001
 3.106677258288014e+000	 3.379074025990548e-001	 1.101230675697697e+001
 3.103426761689649e+000	 3.665615019486414e-001	 1.113119942285801e+001
 3.099900269548792e+000	 3.952762562082375e-001	 1.126606397632499e+001
 3.096095639562592e+000	 4.240480993255067e-001	 1.142015256966277e+001
 3.092010782728402e+000	 4.528734032174330e-001	 1.159683404907498e+001
 3.087643665202025e+000	 4.817484785440275e-001	 1.179959243732910e+001
 3.082992310150981e+000	 5.106695755413645e-001	 1.203202515337716e+001
 3.078054799600758e+000	 5.396328849144005e-001	 1.229784096387537e+001
 3.072829276272041e+000	 5.686345387899614e-001	 1.260085766203493e+001
 3.137257962115649e+000	 2.830414794002528e-001	 1.079871201869206e+001
 3.134531184709755e+000	 3.117920011557995e-001	 1.091989945907499e+001
 3.131530676353606e+000	 3.406106618176438e-001	 1.105454452655414e+001
 3.128254175782331e+000	 3.694939939620383e-001	 1.120533180963902e+001
 3.124699471704213e+000	 3.984384662557674e-001	 1.137139344602789e+001
 3.120864404677979e+000	 4.274404841180766e-001	 1.151653095453866e+001
 3.116746868988962e+000	 4.564963904412862e-001	 1.168370445754947e+001
 3.112344814522210e+000	 4.856024663706877e-001	 1.187635369581894e+001
 3.107656248630582e+000	 5.147549321442445e-001	 1.209803300185528e+001
 3.102679237995774e+000	 5.439499479925535e-001	 1.235240929570453e+001
 3.097411910480231e+000	 5.731836150994546e-001	 1.264325980546830e+001
 3.162156834830856e+000	 2.852878403453070e-001	 1.064138458570178e+001
 3.159408416334431e+000	 3.142665408447823e-001	 1.075345610463592e+001
 3.156384094419872e+000	 3.433139210355989e-001	 1.087896884833446e+001
 3.153081589875761e+000	 3.724264859747735e-001	 1.102038985671242e+001
 3.149498673860448e+000	 4.016006763026375e-001	 1.118028453887165e+001
 3.145633169794237e+000	 4.308328689100182e-001	 1.136132495633244e+001
 3.141482955250439e+000	 4.601193776645729e-001	 1.156629828869968e+001
 3.137045963843347e+000	 4.894564541968733e-001	 1.179811546314921e+001
 3.132320187111163e+000	 5.188402887467722e-001	 1.205981992773793e+001
 3.127303676391783e+000	 5.482670110705071e-001	 1.235459654717108e+001
 3.121994544689422e+000	 5.777326914089332e-001	 1.265365011217070e+001
 3.187055707546556e+000	 2.875342012898696e-001	 1.048788284671000e+001
 3.184285647959694e+000	 3.167410805331879e-001	 1.059168091982209e+001
 3.181237512486811e+000	 3.460171802529198e-001	 1.070886463653665e+001
 3.177909003969940e+000	 3.753589779868468e-001	 1.084167938426227e+001
 3.174297876017498e+000	 4.047628863488477e-001	 1.099246670487368e+001
 3.170401934911366e+000	 4.342252537013316e-001	 1.116367295606239e+001
 3.166219041512832e+000	 4.637423648872926e-001	 1.135785816914828e+001
 3.161747113165439e+000	 4.933104420225841e-001	 1.157770508426414e+001
 3.156984125592723e+000	 5.229256453489479e-001	 1.182602834238946e+001
 3.151928114788789e+000	 5.525840741482619e-001	 1.210578381228733e+001
 3.146577178899613e+000	 5.822817677183971e-001	 1.242007802899163e+001
 3.211954580262747e+000	 2.897805622339404e-001	 1.033862098709046e+001
 3.209162879585543e+000	 3.192156202210161e-001	 1.043516903121427e+001
 3.206090930554421e+000	 3.487204394696066e-001	 1.054500801838571e+001
 3.202736418064867e+000	 3.782914699982586e-001	 1.067015748126950e+001
 3.199097078175363e+000	 4.079250963943981e-001	 1.081273087360329e+001
 3.195170700029366e+000	 4.376176384920169e-001	 1.097494461653078e+001
 3.190955127776143e+000	 4.673653521094461e-001	 1.115912735564462e+001
 3.186448262488482e+000	 4.971644298478201e-001	 1.136772940916680e+001
 3.181648064075263e+000	 5.270110019507712e-001	 1.160333238620737e+001
 3.176552553186789e+000	 5.569011372258178e-001	 1.186865895256517e+001
 3.171159813110805e+000	 5.868308440278466e-001	 1.216658272007404e+001
 3.236853452979430e+000	 2.920269231775197e-001	 1.019403338219657e+001
 3.234040111211981e+000	 3.216901599082671e-001	 1.028453347918349e+001
 3.230944348622705e+000	 3.514236986856594e-001	 1.038819074797099e+001
 3.227563832160543e+000	 3.812239620090088e-001	 1.050679456672317e+001
 3.223896280334043e+000	 4.110873064392887e-001	 1.064222598132063e+001
 3.219939465148238e+000	 4.410100232820740e-001	 1.079646714362436e+001
 3.215691214040372e+000	 4.709883393310329e-001	 1.097161097492318e+001
 3.211149411812481e+000	 5.010184176725818e-001	 1.116987103450000e+001
 3.206312002558781e+000	 5.310963585522424e-001	 1.139359157171180e+001
 3.201176991585784e+000	 5.612182003031746e-001	 1.164525773844627e+001
 3.195742447322996e+000	 5.913799203372813e-001	 1.192750593730407e+001
 2.949916105246086e+000	 5.458891572422751e-001	 1.191493286995018e+001
 2.944621387616330e+000	 5.737637872665515e-001	 1.119397411581252e+001
 2.939046793544276e+000	 6.016676369427255e-001	 1.049214872781663e+001
 2.933190725309185e+000	 6.295968304785270e-001	 9.965531379776772e+000
 2.927051650385220e+000	 6.575474400885762e-001	 1.022619960944757e+001
 2.920628103131092e+000	 6.855154872010129e-001	 1.047424306155493e+001
 2.913918686458521e+000	 7.134969437225319e-001	 1.070868471019125e+001
 2.906922073477395e+000	 7.414877333616478e-001	 1.092858171538546e+001
 2.899637009115429e+000	 7.694837330099380e-001	 1.113303001516815e+001
 2.892062311710120e+000	 7.974807741809101e-001	 1.132116895933165e+001
 2.884196874570821e+000	 8.254746445060665e-001	 1.149218597343226e+001
 2.974498739449277e+000	 5.504382335518415e-001	 1.211472732225976e+001
 2.969159899172426e+000	 5.785451521590409e-001	 1.132081933971365e+001
 2.963538850149648e+000	 6.066815339153120e-001	 1.054664399115053e+001
 2.957633981345865e+000	 6.348434707301158e-001	 1.014143853275036e+001
 2.951443747464190e+000	 6.630270020865289e-001	 1.038314391951312e+001
 2.944966670649659e+000	 6.912281162579265e-001	 1.061253255435523e+001
 2.938201342171590e+000	 7.194427515835593e-001	 1.082852534861419e+001
 2.931146424082455e+000	 7.476667978028477e-001	 1.103007670706653e+001
 2.923800650851029e+000	 7.758960974481320e-001	 1.121617929034316e+001
 2.916162830967627e+000	 8.041264472955334e-001	 1.138586882307670e+001
 2.908231848519180e+000	 8.323535998734841e-001	 1.153822893601349e+001
 2.999081373653468e+000	 5.549873098613937e-001	 1.228338710481834e+001
 2.993698410729522e+000	 5.833265170517062e-001	 1.141367584736884e+001
 2.988030906756019e+000	 6.116954308882450e-001	 1.056425092480691e+001
 2.982077237383543e+000	 6.400901109822029e-001	 1.029645840600848e+001
 2.975835844544160e+000	 6.685065640851121e-001	 1.051931616506751e+001
 2.969305238169227e+000	 6.969407453155827e-001	 1.073012158052631e+001
 2.962483997885658e+000	 7.253885594454217e-001	 1.092769190464794e+001
 2.955370774688512e+000	 7.538458622449542e-001	 1.111087721870588e+001
 2.947964292587630e+000	 7.823084618872844e-001	 1.127856536908670e+001
 2.940263350226135e+000	 8.107721204111466e-001	 1.142968695318912e+001
 2.932266822468538e+000	 8.392325552419018e-001	 1.156322034303132e+001
 3.023664007858659e+000	 5.595363861709308e-001	 1.242074400360880e+001
 3.018236922287618e+000	 5.881078819445471e-001	 1.147239155083690e+001
 3.012522963363392e+000	 6.167093278615249e-001	 1.054483369912954e+001
 3.006520493422222e+000	 6.453367512347887e-001	 1.043173634260245e+001
 3.000227941625130e+000	 6.739861260843260e-001	 1.063593639825778e+001
 2.993643805689794e+000	 7.026533743739816e-001	 1.082830498114537e+001
 2.986766653600728e+000	 7.313343673081191e-001	 1.100755404706873e+001
 2.979595125295572e+000	 7.600249266879678e-001	 1.117242774411477e+001
 2.972127934325230e+000	 7.887208263273955e-001	 1.132170752582227e+001
 2.964363869485642e+000	 8.174177935277489e-001	 1.145421731824032e+001
 2.956301796418896e+000	 8.461115106113193e-001	 1.156882872846006e+001
 3.048246642064849e+000	 5.640854624804536e-001	 1.252662604820636e+001
 3.042775433846714e+000	 5.928892468375639e-001	 1.149680947620337e+001
 3.037015019971764e+000	 6.217232248351519e-001	 1.048825045253242e+001
 3.030963749461900e+000	 6.505833914878728e-001	 1.054841049164502e+001
 3.024620038707100e+000	 6.794656880841702e-001	 1.073421629958268e+001
 3.017982373211360e+000	 7.083660034331233e-001	 1.090836803259711e+001
 3.011049309316797e+000	 7.372801751716513e-001	 1.106947067196154e+001
 3.003819475903630e+000	 7.662039911318881e-001	 1.121616078185325e+001
 2.996291576063832e+000	 7.951331907684649e-001	 1.134711180300824e+001
 2.988464388746150e+000	 8.240634666453409e-001	 1.146103940438909e+001
 2.980336770370254e+000	 8.529904659817371e-001	 1.155670688011432e+001
 3.072829276272041e+000	 5.686345387899614e-001	 1.260085766203493e+001
 3.067313945406811e+000	 5.976706117307563e-001	 1.148676795901959e+001
 3.061507076581136e+000	 6.267371218091253e-001	 1.046987388835480e+001
 3.055407005502580e+000	 6.558300317414558e-001	 1.064761209606783e+001
 3.049012135790070e+000	 6.849452500846451e-001	 1.081535951275859e+001
 3.042320940733928e+000	 7.140786324930076e-001	 1.097158682916148e+001
 3.035331965033867e+000	 7.432259830360184e-001	 1.111479033362767e+001
 3.028043826512689e+000	 7.723830555767155e-001	 1.124349731504018e+001
 3.020455217803432e+000	 8.015455552104926e-001	 1.135627154041640e+001
 3.012564908007658e+000	 8.307091397639227e-001	 1.145171879467819e+001
 3.004371744322612e+000	 8.598694213531548e-001	 1.152849246949555e+001
 3.097411910480231e+000	 5.731836150994546e-001	 1.264325980546830e+001
 3.091852456967906e+000	 6.024519766241243e-001	 1.144210083043486e+001
 3.085999133191508e+000	 6.317510187834460e-001	 1.057057907841555e+001
 3.079850261544259e+000	 6.610766719955370e-001	 1.073046576667636e+001
 3.073404232874039e+000	 6.904248120857505e-001	 1.088056196363943e+001
 3.066659508257495e+000	 7.197912615536347e-001	 1.101922864738286e+001
 3.059614620751936e+000	 7.491717909012203e-001	 1.114485165497307e+001
 3.052268177122748e+000	 7.785621200224495e-001	 1.125584726831525e+001
 3.044618859544032e+000	 8.079579196534793e-001	 1.135066787920692e+001
 3.036665427270165e+000	 8.373548128834938e-001	 1.142780772074527e+001
 3.028406718275971e+000	 8.667483767255725e-001	 1.148580865164566e+001
 3.121994544689422e+000	 5.777326914089332e-001	 1.265365011217070e+001
 3.116390968530002e+000	 6.072333415176683e-001	 1.136263759453514e+001
 3.110491189802878e+000	 6.367649157581131e-001	 1.065553558622203e+001
 3.104293517586937e+000	 6.663233122501168e-001	 1.079808974325714e+001
 3.097796329959009e+000	 6.959043740874864e-001	 1.093101216406958e+001
 3.090998075782062e+000	 7.255038906150046e-001	 1.105255229322504e+001
 3.083897276471005e+000	 7.551175987672573e-001	 1.116098371850808e+001
 3.076492527733806e+000	 7.847411844690906e-001	 1.125460994321216e+001
 3.068782501285633e+000	 8.143702840974244e-001	 1.133177024218857e+001
 3.060765946533673e+000	 8.440004860040550e-001	 1.139084558846879e+001
 3.052441692230329e+000	 8.736273320989901e-001	 1.143026463666120e+001
 3.146577178899613e+000	 5.822817677183971e-001	 1.242007802899163e+001
 3.140929480093099e+000	 6.120147064113878e-001	 1.109773978944318e+001
 3.134983246415251e+000	 6.417788127331275e-001	 1.063470206174177e+001
 3.128736773630616e+000	 6.715699525051951e-001	 1.081861478587181e+001
 3.122188427044979e+000	 7.013839360898527e-001	 1.096789150149357e+001
 3.115336643307630e+000	 7.312165196771172e-001	 1.107280843295332e+001
 3.108179932191074e+000	 7.610634066341291e-001	 1.116450643901925e+001
 3.100716878345864e+000	 7.909202489166383e-001	 1.124117443312371e+001
 3.092946143028234e+000	 8.207826485423276e-001	 1.130103679156694e+001
 3.084866465798181e+000	 8.506461591256057e-001	 1.134235947897423e+001
 3.076476666185687e+000	 8.805062874734078e-001	 1.136345623441788e+001
 3.171159813110805e+000	 5.868308440278466e-001	 1.216658272007404e+001
 3.165467991657194e+000	 6.167960713052830e-001	 1.075767201704211e+001
 3.159475303028622e+000	 6.467927097084883e-001	 1.050178250549456e+001
 3.153180029675296e+000	 6.768165927607718e-001	 1.066918105756135e+001
 3.146580524131949e+000	 7.068634980928498e-001	 1.082706400561746e+001
 3.139675210834197e+000	 7.369291487399725e-001	 1.097284903028736e+001
 3.132462587912143e+000	 7.670092145018358e-001	 1.110385857661918e+001
 3.124941228958924e+000	 7.970993133650932e-001	 1.121692001896618e+001
 3.117109784771834e+000	 8.271950129881898e-001	 1.125991486540185e+001
 3.108966985063688e+000	 8.572918322481455e-001	 1.128386462633777e+001
 3.100511640142045e+000	 8.873852428488256e-001	 1.128696637395894e+001
 3.195742447322996e+000	 5.913799203372813e-001	 1.192750593730407e+001
 3.190006503222291e+000	 6.215774361993541e-001	 1.043458233218146e+001
 3.183967359642995e+000	 6.518066066841965e-001	 1.040301753509844e+001
 3.177623285720976e+000	 6.820632330168475e-001	 1.055125531555256e+001
 3.170972621219920e+000	 7.123430600964775e-001	 1.069119348993389e+001
 3.164013778361765e+000	 7.426417778035708e-001	 1.082024673829294e+001
 3.156745243634213e+000	 7.729550223703776e-001	 1.093573131290381e+001
 3.149165579572983e+000	 8.032783778144551e-001	 1.103486202678825e+001
 3.141273426516435e+000	 8.336073774350103e-001	 1.111474933514445e+001
 3.133067504330196e+000	 8.639375053716755e-001	 1.117239652343364e+001
 3.124546614099405e+000	 8.942641982252434e-001	 1.120236559891178e+001
 2.884196874570821e+000	 8.254746445060665e-001	 1.149218597343226e+001
 2.876039667508701e+000	 8.534610892875464e-001	 1.148878026427622e+001
 2.867589738332473e+000	 8.814358131068238e-001	 1.148907626036815e+001
 2.858846214307540e+000	 9.093944814890321e-001	 1.149336564366584e+001
 2.849808303576410e+000	 9.373327226216522e-001	 1.150199969966800e+001
 2.840475296538248e+000	 9.652461291268560e-001	 1.151539290028028e+001
 2.830846567185376e+000	 9.931302598865213e-001	 1.153402643132380e+001
 2.820921574394557e+000	 1.020980641918824e+000	 1.155845165221294e+001
 2.810699863170943e+000	 1.048792772305250e+000	 1.158929347515809e+001
 2.800181065842598e+000	 1.076562120166735e+000	 1.162725365111829e+001
 2.789364903203508e+000	 1.104284128687585e+000	 1.167311394964013e+001
 2.908231848519180e+000	 8.323535998734841e-001	 1.153822893601349e+001
 2.900006664731933e+000	 8.605732650282778e-001	 1.153798850140867e+001
 2.891486319479657e+000	 8.887811115462038e-001	 1.153934306898712e+001
 2.882669932754969e+000	 9.169727688317708e-001	 1.154252399493510e+001
 2.873556706101564e+000	 9.451438286406897e-001	 1.154782491358184e+001
 2.864145924005266e+000	 9.732898468669844e-001	 1.155560549801562e+001
 2.854436955241667e+000	 1.001406345383214e+000	 1.156629516390209e+001
 2.844429254178170e+000	 1.029488813932706e+000	 1.158039670357537e+001
 2.834122362028305e+000	 1.057532712072626e+000	 1.159848983729342e+001
 2.823515908056201e+000	 1.085533471166585e+000	 1.162123466841335e+001
 2.812609610729128e+000	 1.113486496425423e+000	 1.164937502914891e+001
 2.932266822468538e+000	 8.392325552419018e-001	 1.156322034303132e+001
 2.923973661956154e+000	 8.676854407700045e-001	 1.156738189106285e+001
 2.915382900627801e+000	 8.961264099865641e-001	 1.157101024139258e+001
 2.906493651203310e+000	 9.245510561754659e-001	 1.157427468265987e+001
 2.897305108627561e+000	 9.529549346606492e-001	 1.157740948392161e+001
 2.887816551473040e+000	 9.813335646079899e-001	 1.158071783642675e+001
 2.878027343298606e+000	 1.009682430880729e+000	 1.158457573715629e+001
 2.867936933962303e+000	 1.037996985947347e+000	 1.158943580073438e+001
 2.857544860886037e+000	 1.066272651840687e+000	 1.159583098613066e+001
 2.846850750270003e+000	 1.094504822167034e+000	 1.160437822443138e+001
 2.835854318254756e+000	 1.122688864163766e+000	 1.161578193385965e+001
 2.956301796418896e+000	 8.461115106113193e-001	 1.156882872846006e+001
 2.947940659181365e+000	 8.747976165127259e-001	 1.157866777024778e+001
 2.939279481776907e+000	 9.034717084279046e-001	 1.158582290896453e+001
 2.930317369652564e+000	 9.321293435201169e-001	 1.159039959127005e+001
 2.921053511154402e+000	 9.607660406815306e-001	 1.159257097472251e+001
 2.911487178941568e+000	 9.893772823498731e-001	 1.159258205416765e+001
 2.901617731356190e+000	 1.017958516379068e+000	 1.159075372845964e+001
 2.891444613746952e+000	 1.046505157962747e+000	 1.158748679364674e+001
 2.880967359744136e+000	 1.075012591609432e+000	 1.158326584856187e+001
 2.870185592484005e+000	 1.103476173168083e+000	 1.157866309860992e+001
 2.859099025780396e+000	 1.131891231902615e+000	 1.157434204344135e+001
 2.980336770370254e+000	 8.529904659817371e-001	 1.155670688011432e+001
 2.971907656407567e+000	 8.819097922564430e-001	 1.157353760131478e+001
 2.963176062926975e+000	 9.108170068702260e-001	 1.158551021317392e+001
 2.954141088102730e+000	 9.397076308657238e-001	 1.159266451342987e+001
 2.944801913682087e+000	 9.685771467033343e-001	 1.159511076993373e+001
 2.935157806410852e+000	 9.974210000926341e-001	 1.159303403515718e+001
 2.925208119414423e+000	 1.026234601878231e+000	 1.158669839960067e+001
 2.914952293532121e+000	 1.055013329978907e+000	 1.157645116975541e+001
 2.904389858602606e+000	 1.083752531378863e+000	 1.156272695607072e+001
 2.893520434698208e+000	 1.112447524169733e+000	 1.154605165622454e+001
 2.882343733306045e+000	 1.141093599641968e+000	 1.152704631888751e+001
 3.004371744322612e+000	 8.598694213531548e-001	 1.152849246949555e+001
 2.995874653634759e+000	 8.890219680011550e-001	 1.155366760694384e+001
 2.987072644078003e+000	 9.181623053135278e-001	 1.157178594517909e+001
 2.977964806553807e+000	 9.472859182122873e-001	 1.158281979370853e+001
 2.968550316210615e+000	 9.763882527260589e-001	 1.158681472062197e+001
 2.958828433880890e+000	 1.005464717836273e+000	 1.158389405876863e+001
 2.948798507473301e+000	 1.034510687378216e+000	 1.157426334940667e+001
 2.938459973317807e+000	 1.063521501995825e+000	 1.155821470849019e+001
 2.927812357461445e+000	 1.092492471148977e+000	 1.153613110054892e+001
 2.916855276912610e+000	 1.121418875171983e+000	 1.150849050495548e+001
 2.905588440831705e+000	 1.150295967381827e+000	 1.147586995926308e+001
 3.028406718275971e+000	 8.667483767255725e-001	 1.148580865164566e+001
 3.019841650862942e+000	 8.961341437468621e-001	 1.152071937489242e+001
 3.010969225229993e+000	 9.255076037578103e-001	 1.154634915496513e+001
 3.001788525005797e+000	 9.548642055598066e-001	 1.156260094159990e+001
 2.992298718739988e+000	 9.841993587497060e-001	 1.156945376135565e+001
 2.982499061351686e+000	 1.013508435580789e+000	 1.156696741905769e+001
 2.972388895532826e+000	 1.042786772879026e+000	 1.155528713528974e+001
 2.961967653104012e+000	 1.072029674013502e+000	 1.153464810460156e+001
 2.951234856320653e+000	 1.101232410919777e+000	 1.150537995888316e+001
 2.940190119127212e+000	 1.130390226174832e+000	 1.146791112018888e+001
 2.928833148357375e+000	 1.159498335122191e+000	 1.142277302717786e+001
 3.052441692230329e+000	 8.736273320989901e-001	 1.143026463666120e+001
 3.043808648092115e+000	 9.032463194935644e-001	 1.147634043417362e+001
 3.034865806382944e+000	 9.328529022030734e-001	 1.151088473170504e+001
 3.025612243458701e+000	 9.624424929082823e-001	 1.153372921558066e+001
 3.016047121270204e+000	 9.920104647742746e-001	 1.154478449746864e+001
 3.006169688823235e+000	 1.021552153326183e+000	 1.154404501473558e+001
 2.995979283592998e+000	 1.051062858380658e+000	 1.153159386542851e+001
 2.985475332890736e+000	 1.080537846031939e+000	 1.150760756204571e+001
 2.974657355180231e+000	 1.109972350691261e+000	 1.147236068803414e+001
 2.963524961342014e+000	 1.139361577178282e+000	 1.142623044077654e+001
 2.952077855883055e+000	 1.168700702863060e+000	 1.136970104470992e+001
 3.076476666185687e+000	 8.805062874734078e-001	 1.136345623441788e+001
 3.067775645322278e+000	 9.103584952412617e-001	 1.142216480422583e+001
 3.058762387536855e+000	 9.401982006493168e-001	 1.146706395691658e+001
 3.049435961912515e+000	 9.700207802577138e-001	 1.149791217979059e+001
 3.039795523801263e+000	 9.998215707997652e-001	 1.151454976479603e+001
 3.029840316295539e+000	 1.029595871072454e+000	 1.151690391148727e+001
 3.019569671653817e+000	 1.059338943883114e+000	 1.150499376319140e+001
 3.008983012677976e+000	 1.089046018051134e+000	 1.147893536003125e+001
 2.998079854040177e+000	 1.118712290463429e+000	 1.143894649222112e+001
 2.986859803557016e+000	 1.148332928182332e+000	 1.138535143686927e+001
 2.975322563408745e+000	 1.177903070604434e+000	 1.131858556139519e+001
 3.100511640142045e+000	 8.873852428488256e-001	 1.128696637395894e+001
 3.091742642553431e+000	 9.174706709899544e-001	 1.135981351853972e+001
 3.082658968691728e+000	 9.475434990965410e-001	 1.141654503189064e+001
 3.073259680367243e+000	 9.775990676081021e-001	 1.145684423482093e+001
 3.063543926333167e+000	 1.007632676826178e+000	 1.148047916337565e+001
 3.053510943768600e+000	 1.037639588819603e+000	 1.148730787813527e+001
 3.043160059715283e+000	 1.067615029386393e+000	 1.147728370530749e+001
 3.032490692465736e+000	 1.097554190071088e+000	 1.145046039273806e+001
 3.021502352900493e+000	 1.127452230236283e+000	 1.140699716372588e+001
 3.010194645772218e+000	 1.157304279186981e+000	 1.134716365133937e+001
 2.998567270934446e+000	 1.187105438346313e+000	 1.127134469579875e+001
 3.124546614099405e+000	 8.942641982252434e-001	 1.120236559891178e+001
 3.115709639785576e+000	 9.245828467396423e-001	 1.129089512411777e+001
 3.106555549847563e+000	 9.548887975447460e-001	 1.136097358077704e+001
 3.097083398822883e+000	 9.851773549594461e-001	 1.141220712400467e+001
 3.087292328865915e+000	 1.015443782853513e+000	 1.144428956651718e+001
 3.077181571242415e+000	 1.045683306567630e+000	 1.145700789805741e+001
 3.066750447777396e+000	 1.075891114890496e+000	 1.145024773519891e+001
 3.055998372254012e+000	 1.106062362091802e+000	 1.142399868412616e+001
 3.044924851761178e+000	 1.136192170009821e+000	 1.137835959873651e+001
 3.033529487987621e+000	 1.166275630192231e+000	 1.131354371621451e+001
 3.021811978460158e+000	 1.196307806088698e+000	 1.122988365209078e+001
 2.789364903203508e+000	 1.104284128687585e+000	 1.167311394964013e+001
 2.778251185602976e+000	 1.131954217185233e+000	 1.151284405365595e+001
 2.766839813979641e+000	 1.159567783225906e+000	 1.134807379075426e+001
 2.755130780838170e+000	 1.187120204783136e+000	 1.117974434684527e+001
 2.743124171166410e+000	 1.214606842436723e+000	 1.100890051104052e+001
 2.730820163291444e+000	 1.242023041611831e+000	 1.083669339956609e+001
 2.718219029672730e+000	 1.269364134855766e+000	 1.094259312459891e+001
 2.705321137630596e+000	 1.296625444150433e+000	 1.115193994378146e+001
 2.692126950008475e+000	 1.323802283258405e+000	 1.134702002547265e+001
 2.678637025767297e+000	 1.350889960100455e+000	 1.152630879649087e+001
 2.664852020510573e+000	 1.377883779162314e+000	 1.168820522244437e+001
 2.812609610729128e+000	 1.113486496425423e+000	 1.164937502914891e+001
 2.801403278815884e+000	 1.141387168994181e+000	 1.146838740266036e+001
 2.789896812429516e+000	 1.169230848085429e+000	 1.128176970095966e+001
 2.778090204012230e+000	 1.197012873155812e+000	 1.109048468056997e+001
 2.765983539260103e+000	 1.224728566123295e+000	 1.089560229229060e+001
 2.753576997986275e+000	 1.252373233624917e+000	 1.073369600950030e+001
 2.740870854920701e+000	 1.279942169312546e+000	 1.094161008648258e+001
 2.727865480444710e+000	 1.307430656184601e+000	 1.113784837384725e+001
 2.714561341258762e+000	 1.334833968951679e+000	 1.132099083025824e+001
 2.700959000981798e+000	 1.362147376433889e+000	 1.148953746934128e+001
 2.687059120680686e+000	 1.389366143987678e+000	 1.164190864964704e+001
 2.835854318254756e+000	 1.122688864163766e+000	 1.161578193385965e+001
 2.824555372028621e+000	 1.150820120803543e+000	 1.141612247265677e+001
 2.812953810879079e+000	 1.178893912945295e+000	 1.120964478345203e+001
 2.801049627185874e+000	 1.206905541528780e+000	 1.099733126521036e+001
 2.788842907353316e+000	 1.234850289810127e+000	 1.078027517100391e+001
 2.776333832680607e+000	 1.262723425638253e+000	 1.075266079606982e+001
 2.763522680168190e+000	 1.290520203769584e+000	 1.094688243275301e+001
 2.750409823258400e+000	 1.318235868219058e+000	 1.113061199670881e+001
 2.736995732508725e+000	 1.345865654645289e+000	 1.130245679055905e+001
 2.723280976196111e+000	 1.373404792767729e+000	 1.146094097349719e+001
 2.709266220850791e+000	 1.400848508813537e+000	 1.160450577930530e+001
 2.859099025780396e+000	 1.131891231902615e+000	 1.157434204344135e+001
 2.847707465241187e+000	 1.160253072613320e+000	 1.135805717148203e+001
 2.836010809328330e+000	 1.188556977805505e+000	 1.113370668536472e+001
 2.824009050359106e+000	 1.216798209902042e+000	 1.090229068813125e+001
 2.811702275446057e+000	 1.244972013497222e+000	 1.066492386632459e+001
 2.799090667374439e+000	 1.273073617651840e+000	 1.077668667274926e+001
 2.786174505415197e+000	 1.301098238226882e+000	 1.095773924921390e+001
 2.772954166071666e+000	 1.329041080253802e+000	 1.112952489807624e+001
 2.759430123758361e+000	 1.356897340339236e+000	 1.129067791892386e+001
 2.745602951410237e+000	 1.384662209101975e+000	 1.143974619284080e+001
 2.731473321020889e+000	 1.412330873639893e+000	 1.157519132784021e+001
 2.882343733306045e+000	 1.141093599641968e+000	 1.152704631888751e+001
 2.870859558453585e+000	 1.169686024423512e+000	 1.129618386239521e+001
 2.859067807777270e+000	 1.198220042666060e+000	 1.105594838109911e+001
 2.846968473531923e+000	 1.226690878275596e+000	 1.080735573315053e+001
 2.834561643538319e+000	 1.255093737184579e+000	 1.063000468788248e+001
 2.821847502067773e+000	 1.283423809665677e+000	 1.080512655917368e+001
 2.808826330661722e+000	 1.311676272684440e+000	 1.097349840559284e+001
 2.795498508884507e+000	 1.339846292288835e+000	 1.113387080199867e+001
 2.781864515007672e+000	 1.367929026033521e+000	 1.128490471592520e+001
 2.767924926624177e+000	 1.395919625436628e+000	 1.142517134381598e+001
 2.753680421190979e+000	 1.423813238466745e+000	 1.155315218320904e+001
 2.905588440831705e+000	 1.150295967381827e+000	 1.147586995926308e+001
 2.894011651665810e+000	 1.179118976234119e+000	 1.123247998586078e+001
 2.882124806225897e+000	 1.207883107526959e+000	 1.097834875923396e+001
 2.869927896704327e+000	 1.236583546649444e+000	 1.071450593268087e+001
 2.857421011630105e+000	 1.265215460872197e+000	 1.067570754040385e+001
 2.844604336760608e+000	 1.293774001679765e+000	 1.083732178316486e+001
 2.831478155907767e+000	 1.322254307142256e+000	 1.099346700418436e+001
 2.818042851696924e+000	 1.350651504324155e+000	 1.114292348533070e+001
 2.804298906256655e+000	 1.378960711728142e+000	 1.128437855063844e+001
 2.790246901837927e+000	 1.407177041771687e+000	 1.141642632212582e+001
 2.775887521361062e+000	 1.435295603294094e+000	 1.153756771804380e+001
 2.928833148357375e+000	 1.159498335122191e+000	 1.142277302717786e+001
 2.917163744877866e+000	 1.188551928045140e+000	 1.116890865172291e+001
 2.905181804674214e+000	 1.217546172388202e+000	 1.090287318148653e+001
 2.892887319876317e+000	 1.246476215023584e+000	 1.062570809357932e+001
 2.880280379721415e+000	 1.275337184560077e+000	 1.072411960031120e+001
 2.867361171452942e+000	 1.304124193694102e+000	 1.087260254072386e+001
 2.854129981153329e+000	 1.332832341600331e+000	 1.101694180712906e+001
 2.840587194508918e+000	 1.361456716359763e+000	 1.115594717246233e+001
 2.826733297505314e+000	 1.389992397423100e+000	 1.128833202300273e+001
 2.812568877051491e+000	 1.418434458107152e+000	 1.141271303292068e+001
 2.798094621531136e+000	 1.446777968121937e+000	 1.152761008787840e+001
 2.952077855883055e+000	 1.168700702863060e+000	 1.136970104470992e+001
 2.940315838089752e+000	 1.197984879856577e+000	 1.110741920340322e+001
 2.928238803122218e+000	 1.227209237249789e+000	 1.083147401526627e+001
 2.915846743047894e+000	 1.256368883398018e+000	 1.063718809074206e+001
 2.903139747812249e+000	 1.285458908248220e+000	 1.077459391807258e+001
 2.890118006144780e+000	 1.314474385708691e+000	 1.091028833429176e+001
 2.876781806398410e+000	 1.343410376058666e+000	 1.104320964350625e+001
 2.863131537320488e+000	 1.372261928395659e+000	 1.117219691140026e+001
 2.849167688753645e+000	 1.401024083118395e+000	 1.129598930906264e+001
 2.834890852264868e+000	 1.429691874443023e+000	 1.141322570538695e+001
 2.820301721701203e+000	 1.458260332950277e+000	 1.152244451528645e+001
 2.975322563408745e+000	 1.177903070604434e+000	 1.131858556139519e+001
 2.963467931301467e+000	 1.207417831668428e+000	 1.104994775565153e+001
 2.951295801569911e+000	 1.236872302111720e+000	 1.076609114126492e+001
 2.938806166219057e+000	 1.266261551772745e+000	 1.070292931453844e+001
 2.925999115902606e+000	 1.295580631936623e+000	 1.082647253420327e+001
 2.912874840836117e+000	 1.324824577723530e+000	 1.094968839046678e+001
 2.899433631643009e+000	 1.353988410517259e+000	 1.107154779734419e+001
 2.885675880131633e+000	 1.383067140431844e+000	 1.119091893222037e+001
 2.871602080001652e+000	 1.412055768814028e+000	 1.130656649002651e+001
 2.857212827478058e+000	 1.440949290779302e+000	 1.141715119258935e+001
 2.842508821871260e+000	 1.469742697779114e+000	 1.152122956069993e+001
 2.998567270934446e+000	 1.187105438346313e+000	 1.127134469579875e+001
 2.986620024513012e+000	 1.216850783480695e+000	 1.099841770728525e+001
 2.974352800017291e+000	 1.246535366973995e+000	 1.070865243743785e+001
 2.961765589389805e+000	 1.276154220147765e+000	 1.076917548126673e+001
 2.948858483992487e+000	 1.305702355625290e+000	 1.087908690600829e+001
 2.935631675526955e+000	 1.335174769738620e+000	 1.099010205829281e+001
 2.922085456887126e+000	 1.364566444976112e+000	 1.110122437758330e+001
 2.908220222942354e+000	 1.393872352468316e+000	 1.121135098884796e+001
 2.894036471249331e+000	 1.423087454509997e+000	 1.131927186601981e+001
 2.879534802691059e+000	 1.452206707115986e+000	 1.142366925736715e+001
 2.864715922041312e+000	 1.481225062608446e+000	 1.152311738063176e+001
 3.021811978460158e+000	 1.196307806088698e+000	 1.122988365209078e+001
 3.009772117724388e+000	 1.226283735293376e+000	 1.095474023026359e+001
 2.997409798464362e+000	 1.256198431836615e+000	 1.074224001155079e+001
 2.984725012560141e+000	 1.286046888523079e+000	 1.083528014952183e+001
 2.971717852081893e+000	 1.315824079314217e+000	 1.093175831462888e+001
 2.958388510217295e+000	 1.345524961753960e+000	 1.103081918916529e+001
 2.944737282130763e+000	 1.375144479435225e+000	 1.113149867096410e+001
 2.930764565752652e+000	 1.404677564505076e+000	 1.123272268506358e+001
 2.916470862496686e+000	 1.434119140206303e+000	 1.133330625535755e+001
 2.901856777903874e+000	 1.463464123453077e+000	 1.143195284503510e+001
 2.886923022211355e+000	 1.492707427438275e+000	 1.152725397398040e+001
 2.664852020510573e+000	 1.377883779162314e+000	 1.168820522244437e+001
 2.650772686938987e+000	 1.404779043928912e+000	 1.169766687167775e+001
 2.636399875232532e+000	 1.431571059341969e+000	 1.171267650316615e+001
 2.621734533359257e+000	 1.458255134279886e+000	 1.173230086151166e+001
 2.606777707310106e+000	 1.484826584058344e+000	 1.175551713162674e+001
 2.591530541258077e+000	 1.511280732947345e+000	 1.178121334162512e+001
 2.575994277640976e+000	 1.537612916702709e+000	 1.180818900794108e+001
 2.560170257166945e+000	 1.563818485109322e+000	 1.183515602546027e+001
 2.544059918741996e+000	 1.589892804533449e+000	 1.186073980472929e+001
 2.527664799318952e+000	 1.615831260481341e+000	 1.188348065757432e+001
 2.510986533667252e+000	 1.641629260161343e+000	 1.190183543170434e+001
 2.687059120680686e+000	 1.389366143987678e+000	 1.164190864964704e+001
 2.672862459328722e+000	 1.416485535960390e+000	 1.166170392148847e+001
 2.658369874190830e+000	 1.443500818168300e+000	 1.168658140447946e+001
 2.643582321134799e+000	 1.470407260397131e+000	 1.171550025911549e+001
 2.628500854868160e+000	 1.497200138923525e+000	 1.174732721227144e+001
 2.613126629098687e+000	 1.523874739053070e+000	 1.178083705036991e+001
 2.597460896617837e+000	 1.550426357672883e+000	 1.181471336257343e+001
 2.581505009306319e+000	 1.576850305816057e+000	 1.184754953673994e+001
 2.565260418061028e+000	 1.603141911235244e+000	 1.187785001014258e+001
 2.548728672642727e+000	 1.629296520982581e+000	 1.190403177619440e+001
 2.531911421443936e+000	 1.655309503993148e+000	 1.192442614764060e+001
 2.709266220850791e+000	 1.400848508813537e+000	 1.160450577930530e+001
 2.694952231718638e+000	 1.428192027992455e+000	 1.163232988099456e+001
 2.680339873149483e+000	 1.455430576995289e+000	 1.166483171846797e+001
 2.665430108910844e+000	 1.482559386515083e+000	 1.170086364161811e+001
 2.650224002426849e+000	 1.509573693789444e+000	 1.173918261008635e+001
 2.634722716940044e+000	 1.536468745159543e+000	 1.177845077545032e+001
 2.618927515595535e+000	 1.563239798643796e+000	 1.181723632137865e+001
 2.602839761446600e+000	 1.589882126523503e+000	 1.185401456445361e+001
 2.586460917381019e+000	 1.616391017937702e+000	 1.188716931759952e+001
 2.569792545967492e+000	 1.642761781484414e+000	 1.191499451727124e+001
 2.552836309221620e+000	 1.668989747825456e+000	 1.193569611475494e+001
 2.731473321020889e+000	 1.412330873639893e+000	 1.157519132784021e+001
 2.717042004108736e+000	 1.439898520025105e+000	 1.160878296557670e+001
 2.702309872108486e+000	 1.467360335822935e+000	 1.164670958152061e+001
 2.687277896687393e+000	 1.494711512633743e+000	 1.168771746533507e+001
 2.671947149986172e+000	 1.521947248656102e+000	 1.173045447628767e+001
 2.656318804782146e+000	 1.549062751266766e+000	 1.177347071321239e+001
 2.640394134574071e+000	 1.576053239615449e+000	 1.181521945053312e+001
 2.624174513587791e+000	 1.602913947231661e+000	 1.185405834301359e+001
 2.607661416701968e+000	 1.629640124640821e+000	 1.188825090111201e+001
 2.590856419293248e+000	 1.656227041986839e+000	 1.191596823801189e+001
 2.573761197000304e+000	 1.682669991658267e+000	 1.193529108857376e+001
 2.753680421190979e+000	 1.423813238466745e+000	 1.155315218320904e+001
 2.739131776499018e+000	 1.451605012058342e+000	 1.159029198581196e+001
 2.724279871067844e+000	 1.479290094651236e+000	 1.163148616087232e+001
 2.709125684464445e+000	 1.506863638753109e+000	 1.167537566585136e+001
 2.693670297546130e+000	 1.534320803523498e+000	 1.172049990333894e+001
 2.677914892624994e+000	 1.561656757374739e+000	 1.176529747755979e+001
 2.661860753553444e+000	 1.588866680587844e+000	 1.180810722518725e+001
 2.645509265729889e+000	 1.615945767940529e+000	 1.184716952309744e+001
 2.628861916023877e+000	 1.642889231344602e+000	 1.188062787488666e+001
 2.611920292619992e+000	 1.669692302489857e+000	 1.190653077714321e+001
 2.594686084779988e+000	 1.696350235491580e+000	 1.192283386561375e+001
 2.775887521361062e+000	 1.435295603294094e+000	 1.153756771804380e+001
 2.761221548889481e+000	 1.463311504092165e+000	 1.157607672366584e+001
 2.746249870027555e+000	 1.491219853480195e+000	 1.161842209337047e+001
 2.730973472242002e+000	 1.519015764873184e+000	 1.166314015885071e+001
 2.715393445106724e+000	 1.546694358391633e+000	 1.170866248730123e+001
 2.699510980468590e+000	 1.574250763483461e+000	 1.175331672325162e+001
 2.683327372533654e+000	 1.601680121560979e+000	 1.179532771310649e+001
 2.666844017872895e+000	 1.628977588650109e+000	 1.183281891499738e+001
 2.650062415346746e+000	 1.656138338049046e+000	 1.186381409571711e+001
 2.632984165947726e+000	 1.683157562993467e+000	 1.188623931565091e+001
 2.615610972560673e+000	 1.710030479325396e+000	 1.189792520174239e+001
 2.798094621531136e+000	 1.446777968121937e+000	 1.152761008787840e+001
 2.783311321280128e+000	 1.475017996126575e+000	 1.156534829077049e+001
 2.768219868987619e+000	 1.503149612309811e+000	 1.160676790334715e+001
 2.752821260020063e+000	 1.531167890993967e+000	 1.165030131709571e+001
 2.737116592667952e+000	 1.559067913260507e+000	 1.169427286340466e+001
 2.721107068312932e+000	 1.586844769592933e+000	 1.173689973951922e+001
 2.704793991514703e+000	 1.614493562534854e+000	 1.177629322575806e+001
 2.688178770016811e+000	 1.642009409360401e+000	 1.181046019657201e+001
 2.671262914670573e+000	 1.669387444754151e+000	 1.183730492716695e+001
 2.654048039276451e+000	 1.696622823497669e+000	 1.185463119653130e+001
 2.636535860342357e+000	 1.723710723159714e+000	 1.186014468680679e+001
 2.820301721701203e+000	 1.458260332950277e+000	 1.152244451528645e+001
 2.805401093670956e+000	 1.486724488161570e+000	 1.155730946977651e+001
 2.790189867948035e+000	 1.515079371140083e+000	 1.159576440074986e+001
 2.774669047798628e+000	 1.543320017115457e+000	 1.163613842487359e+001
 2.758839740229814e+000	 1.571441468130118e+000	 1.167664921631730e+001
 2.742703156158019e+000	 1.599438775703154e+000	 1.171540401563811e+001
 2.726260610496587e+000	 1.627307003509469e+000	 1.175040093863763e+001
 2.709513522161635e+000	 1.655041230071403e+000	 1.177953058775166e+001
 2.692463413995360e+000	 1.682636551459918e+000	 1.180057796764980e+001
 2.675111912606165e+000	 1.710088084002464e+000	 1.181122470581446e+001
 2.657460748125041e+000	 1.737390966994536e+000	 1.180905157794168e+001
 2.842508821871260e+000	 1.469742697779114e+000	 1.152122956069993e+001
 2.827490866061967e+000	 1.498430980197152e+000	 1.155115503970369e+001
 2.812159866908804e+000	 1.527009129971012e+000	 1.158464306060954e+001
 2.796516835577696e+000	 1.555472143237654e+000	 1.161992011113971e+001
 2.780562887792313e+000	 1.583815023000468e+000	 1.165509776649524e+001
 2.764299244003852e+000	 1.612032781814124e+000	 1.168817377998875e+001
 2.747727229479309e+000	 1.640120444484826e+000	 1.171703348251819e+001
 2.730848274307367e+000	 1.668073050783117e+000	 1.173945149342615e+001
 2.713663913321106e+000	 1.695885658166348e+000	 1.175309374438033e+001
 2.696175785936869e+000	 1.723553344507852e+000	 1.175551981697695e+001
 2.678385635908726e+000	 1.751071210829859e+000	 1.174418559381590e+001
 2.864715922041312e+000	 1.481225062608446e+000	 1.152311738063176e+001
 2.849580638453159e+000	 1.510137472233320e+000	 1.154607208615931e+001
 2.834129865869927e+000	 1.538938888802599e+000	 1.157262638485909e+001
 2.818364623357268e+000	 1.567624269360559e+000	 1.160090476251502e+001
 2.802286035355447e+000	 1.596188577871557e+000	 1.162891323391182e+001
 2.785895331850432e+000	 1.624626787925845e+000	 1.165454051404477e+001
 2.769193848462869e+000	 1.652933885460923e+000	 1.167555950719902e+001
 2.752183026454008e+000	 1.681104871495543e+000	 1.168962911643086e+001
 2.734864412647811e+000	 1.709134764873439e+000	 1.169429637504871e+001
 2.717239659268562e+000	 1.737018605013831e+000	 1.168699890073078e+001
 2.699310523693410e+000	 1.764751454665686e+000	 1.166506767193738e+001
 2.886923022211355e+000	 1.492707427438275e+000	 1.152725397398040e+001
 2.871670410844536e+000	 1.521843964270075e+000	 1.154124029723859e+001
 2.856099864831404e+000	 1.550868647634841e+000	 1.155892824745254e+001
 2.840212411137345e+000	 1.579776395484173e+000	 1.157834091722189e+001
 2.824009182919216e+000	 1.608562132743385e+000	 1.159737928038373e+001
 2.807491419697759e+000	 1.637220794038314e+000	 1.161382344263854e+001
 2.790660467447267e+000	 1.665747326437760e+000	 1.162533421923541e+001
 2.773517778601557e+000	 1.694136692208680e+000	 1.162945504224117e+001
 2.756064911975476e+000	 1.722383871581193e+000	 1.162361419895617e+001
 2.738303532601247e+000	 1.750483865520404e+000	 1.160512740205273e+001
 2.720235411479095e+000	 1.778431698502015e+000	 1.157120069100539e+001
 2.510986533667252e+000	 1.641629260161343e+000	 1.190183543170434e+001
 2.494026854062975e+000	 1.667282235046092e+000	 1.215037837931575e+001
 2.476787589899573e+000	 1.692785643433693e+000	 1.230499551104804e+001
 2.459270667218596e+000	 1.718134973003829e+000	 1.242401619375127e+001
 2.441478108159864e+000	 1.743325743364769e+000	 1.250774012917088e+001
 2.423412030331897e+000	 1.768353508590088e+000	 1.255656221807130e+001
 2.405074646102547e+000	 1.793213859741616e+000	 1.257097138680671e+001
 2.386468261810128e+000	 1.817902427375696e+000	 1.255154919352838e+001
 2.367595276895474e+000	 1.842414884029853e+000	 1.249896821656746e+001
 2.348458182955457e+000	 1.866746946686970e+000	 1.241399022820070e+001
 2.329059562718645e+000	 1.890894379214094e+000	 1.254927863759874e+001
 2.531911421443936e+000	 1.655309503993148e+000	 1.192442614764060e+001
 2.514810411176357e+000	 1.681176253668529e+000	 1.215222085170300e+001
 2.497427486478374e+000	 1.706892190459319e+000	 1.232771215877841e+001
 2.479764589441885e+000	 1.732452764442532e+000	 1.238841450739889e+001
 2.461823759057878e+000	 1.757853457889840e+000	 1.241322351669505e+001
 2.443607130581607e+000	 1.783089787825432e+000	 1.240272553051934e+001
 2.425116934817322e+000	 1.808157308569985e+000	 1.235760356318854e+001
 2.406355497322827e+000	 1.833051614267811e+000	 1.227863568259536e+001
 2.387325237534295e+000	 1.857768341394250e+000	 1.216669316881720e+001
 2.368028667811903e+000	 1.882303171240376e+000	 1.213568901350139e+001
 2.348468392406961e+000	 1.906651832372125e+000	 1.234677889835043e+001
 2.552836309221620e+000	 1.668989747825456e+000	 1.193569611475494e+001
 2.535593968290734e+000	 1.695070272291373e+000	 1.211554292016519e+001
 2.518067383058155e+000	 1.720998737485267e+000	 1.225706827433420e+001
 2.500258511666131e+000	 1.746770555881482e+000	 1.235639961996541e+001
 2.482169409956812e+000	 1.772381172415094e+000	 1.232684368823952e+001
 2.463802230832191e+000	 1.797826067060902e+000	 1.226023102347325e+001
 2.445159223532919e+000	 1.823100757398434e+000	 1.215872769716416e+001
 2.426242732836283e+000	 1.848200801159972e+000	 1.202330769032873e+001
 2.407055198173796e+000	 1.873121798758668e+000	 1.185504045220481e+001
 2.387599152668946e+000	 1.897859395793786e+000	 1.200452823045396e+001
 2.367877222095776e+000	 1.922409285530155e+000	 1.216623309203115e+001
 2.573761197000304e+000	 1.682669991658267e+000	 1.193529108857376e+001
 2.556377525406104e+000	 1.708964290914625e+000	 1.207084115512367e+001
 2.538707279638917e+000	 1.735105284511537e+000	 1.216894360447260e+001
 2.520752433891332e+000	 1.761088347320680e+000	 1.222579480269400e+001
 2.502515060856666e+000	 1.786908886940528e+000	 1.223752667804849e+001
 2.483997331083652e+000	 1.812562346296498e+000	 1.213002826611141e+001
 2.465201512249337e+000	 1.838044206226964e+000	 1.197520112985061e+001
 2.446129968350495e+000	 1.863349988052179e+000	 1.178633029811759e+001
 2.426785158813979e+000	 1.888475256123106e+000	 1.176127780027107e+001
 2.407169637526585e+000	 1.913415620347201e+000	 1.189024862336199e+001
 2.387286051785095e+000	 1.938166738688187e+000	 1.200605864088389e+001
 2.594686084779988e+000	 1.696350235491580e+000	 1.192283386561375e+001
 2.577161082522472e+000	 1.722858309538284e+000	 1.201765597332959e+001
 2.559347176220658e+000	 1.749211831538130e+000	 1.207593653495947e+001
 2.541246356117488e+000	 1.775406138760124e+000	 1.209393815754983e+001
 2.522860711757442e+000	 1.801436601466145e+000	 1.206785595684128e+001
 2.504192431335988e+000	 1.827298625532221e+000	 1.199382266535367e+001
 2.485243800966575e+000	 1.852987655055575e+000	 1.180787507638176e+001
 2.466017203865462e+000	 1.878499174944431e+000	 1.161630223423278e+001
 2.446515119454843e+000	 1.903828713487564e+000	 1.170743893431821e+001
 2.426740122384820e+000	 1.928971844900622e+000	 1.179134681319236e+001
 2.406694881474913e+000	 1.953924191846217e+000	 1.186467778731067e+001
 2.615610972560673e+000	 1.710030479325396e+000	 1.189792520174239e+001
 2.597944639639833e+000	 1.736752328162351e+000	 1.195550846746696e+001
 2.579987072803379e+000	 1.763318378565045e+000	 1.197748948876943e+001
 2.561740278344600e+000	 1.789723930199816e+000	 1.196019446299782e+001
 2.543206362659138e+000	 1.815964315991943e+000	 1.189987896393031e+001
 2.524387531589200e+000	 1.842034904768069e+000	 1.179273300334885e+001
 2.505286089684636e+000	 1.867931103884267e+000	 1.163488635243565e+001
 2.485904439381187e+000	 1.893648361836729e+000	 1.161733292403224e+001
 2.466245080096388e+000	 1.919182170852043e+000	 1.166416429049737e+001
 2.446310607243651e+000	 1.944528069454047e+000	 1.170632144690569e+001
 2.426103711165233e+000	 1.969681645004247e+000	 1.174051740106616e+001
 2.636535860342357e+000	 1.723710723159714e+000	 1.186014468680679e+001
 2.618728196758190e+000	 1.750646346786826e+000	 1.188390117298054e+001
 2.600626969387082e+000	 1.777424925592283e+000	 1.187302893314893e+001
 2.582234200572667e+000	 1.804041721639754e+000	 1.182391513475600e+001
 2.563552013561753e+000	 1.830492030517922e+000	 1.173287310974603e+001
 2.544582631843289e+000	 1.856771184004044e+000	 1.159614737228890e+001
 2.525328378403515e+000	 1.882874552713040e+000	 1.150480407527846e+001
 2.505791674897666e+000	 1.908797548729072e+000	 1.160147997058533e+001
 2.485975040738615e+000	 1.934535628216541e+000	 1.163002516626328e+001
 2.465881092103079e+000	 1.960084294007477e+000	 1.163367311705976e+001
 2.445512540856055e+000	 1.985439098162278e+000	 1.163200879563262e+001
 2.657460748125041e+000	 1.737390966994536e+000	 1.180905157794168e+001
 2.639511753877541e+000	 1.764540365411708e+000	 1.180231879867594e+001
 2.621266865971764e+000	 1.791531472619843e+000	 1.176196600779458e+001
 2.602728122801689e+000	 1.818359513079940e+000	 1.168443875188790e+001
 2.583897664465291e+000	 1.845019745044084e+000	 1.156610544955571e+001
 2.564777732098252e+000	 1.871507463240145e+000	 1.140326236792282e+001
 2.545370667123217e+000	 1.897818001541894e+000	 1.145652567689387e+001
 2.525678910414902e+000	 1.923946735621460e+000	 1.152960020315506e+001
 2.505705001381524e+000	 1.949889085581060e+000	 1.158320890876622e+001
 2.485451576963103e+000	 1.975640518560913e+000	 1.157190428521122e+001
 2.464921370547378e+000	 2.001196551320309e+000	 1.153758755326991e+001
 2.678385635908726e+000	 1.751071210829859e+000	 1.174418559381590e+001
 2.660295310997888e+000	 1.778434384036998e+000	 1.171022892307265e+001
 2.641906762557427e+000	 1.805638019647725e+000	 1.164369712358547e+001
 2.623222045031667e+000	 1.832677304520372e+000	 1.154109155823437e+001
 2.604243315369748e+000	 1.859547459570427e+000	 1.139883308796196e+001
 2.584972832354091e+000	 1.886243742476373e+000	 1.133158203428295e+001
 2.565412955843738e+000	 1.912761450370828e+000	 1.140152367594585e+001
 2.545566145932895e+000	 1.939095922513895e+000	 1.145410833790183e+001
 2.525434962025113e+000	 1.965242542945600e+000	 1.148838867822486e+001
 2.505022061823724e+000	 1.991196743114353e+000	 1.150342189686510e+001
 2.484330200239203e+000	 2.016954004478340e+000	 1.145569335826641e+001
 2.699310523693410e+000	 1.764751454665686e+000	 1.166506767193738e+001
 2.681078868119230e+000	 1.792328402662695e+000	 1.160708265836867e+001
 2.662546659144069e+000	 1.819744566675930e+000	 1.151760453346766e+001
 2.643715967262600e+000	 1.846995095961051e+000	 1.139318794052301e+001
 2.624588966275126e+000	 1.874075174096952e+000	 1.123030356458749e+001
 2.605167932610806e+000	 1.900980021712726e+000	 1.128840443241880e+001
 2.585455244565083e+000	 1.927704899199844e+000	 1.133986429265690e+001
 2.565453381451643e+000	 1.954245109406375e+000	 1.137500017358321e+001
 2.545164922669383e+000	 1.980596000310159e+000	 1.139297903873333e+001
 2.524592546684941e+000	 2.006752967667799e+000	 1.139297156896822e+001
 2.503739029931528e+000	 2.032711457636371e+000	 1.137415316225715e+001
 2.720235411479095e+000	 1.778431698502015e+000	 1.157120069100539e+001
 2.701862425241567e+000	 1.806222421288800e+000	 1.149231528376048e+001
 2.683186555731693e+000	 1.833851113704457e+000	 1.138305687698997e+001
 2.664209889494488e+000	 1.861312887401978e+000	 1.124003088441092e+001
 2.644934617181425e+000	 1.888602888623658e+000	 1.118510173331347e+001
 2.625363032868398e+000	 1.915716300949207e+000	 1.123564579415388e+001
 2.605497533287247e+000	 1.942648348028941e+000	 1.127160892875069e+001
 2.585340616971148e+000	 1.969394296298900e+000	 1.129226886293883e+001
 2.564894883314335e+000	 1.995949457674740e+000	 1.129690534832424e+001
 2.544163031546755e+000	 2.022309192221251e+000	 1.128480102966962e+001
 2.523147859624355e+000	 2.048468910794402e+000	 1.125524232469310e+001
 2.329059562718645e+000	 1.890894379214094e+000	 1.254927863759874e+001
 2.309402088944092e+000	 1.914852994773596e+000	 1.240618124494438e+001
 2.289488523243476e+000	 1.938618658202153e+000	 1.226490967133210e+001
 2.269321714828176e+000	 1.962187288355787e+000	 1.212354018102004e+001
 2.248904599182742e+000	 1.985554860419452e+000	 1.198007791866878e+001
 2.228240196665399e+000	 2.008717408176743e+000	 1.183246111721910e+001
 2.207331611037153e+000	 2.031671026237589e+000	 1.167856553313838e+001
 2.186182027921017e+000	 2.054411872221357e+000	 1.151620909862165e+001
 2.164794713192912e+000	 2.076936168892773e+000	 1.134315677956825e+001
 2.143173011305966e+000	 2.099240206248227e+000	 1.115712562742493e+001
 2.121320343550000e+000	 2.121320343550000e+000	 1.095579001229533e+001
 2.348468392406961e+000	 1.906651832372125e+000	 1.234677889835043e+001
 2.328647106351446e+000	 1.930810103061539e+000	 1.219872188802574e+001
 2.308567594270409e+000	 1.954773813685585e+000	 1.205501427845072e+001
 2.288232729118653e+000	 1.978538849090749e+000	 1.191369240059116e+001
 2.267645470843101e+000	 2.002101150921862e+000	 1.177271673477767e+001
 2.246808864971628e+000	 2.025456719910714e+000	 1.162997620969430e+001
 2.225726041129918e+000	 2.048601618122318e+000	 1.148329273853149e+001
 2.204400211487839e+000	 2.071531971156200e+000	 1.133042598165834e+001
 2.182834669136945e+000	 2.094243970300128e+000	 1.116907832437557e+001
 2.161032786400810e+000	 2.116733874633796e+000	 1.099690005755400e+001
 2.138998013080000e+000	 2.138998013080000e+000	 1.081149474824571e+001
 2.367877222095776e+000	 1.922409285530155e+000	 1.216623309203115e+001
 2.347892123759207e+000	 1.946767211349483e+000	 1.201409739085749e+001
 2.327646665297662e+000	 1.970928969169017e+000	 1.186885641781395e+001
 2.307143743409376e+000	 1.994890409825711e+000	 1.172850475131667e+001
 2.286386342503640e+000	 2.018647441424272e+000	 1.159095632219602e+001
 2.265377533277983e+000	 2.042196031644684e+000	 1.145404880648606e+001
 2.244120471222762e+000	 2.065532210007047e+000	 1.131554826532305e+001
 2.222618395054706e+000	 2.088652070091044e+000	 1.117315402107067e+001
 2.200874625080999e+000	 2.111551771707485e+000	 1.102450375796820e+001
 2.178892561495658e+000	 2.134227543019364e+000	 1.086717883481330e+001
 2.156675682610000e+000	 2.156675682610000e+000	 1.069870979644693e+001
 2.387286051785095e+000	 1.938166738688187e+000	 1.200605864088389e+001
 2.367137141167375e+000	 1.962724319637426e+000	 1.185071571252821e+001
 2.346725736325238e+000	 1.987084124652448e+000	 1.170483611254857e+001
 2.326054757700345e+000	 2.011241970560673e+000	 1.156637084176852e+001
 2.305127214164361e+000	 2.035193731926682e+000	 1.143318538916418e+001
 2.283946201584464e+000	 2.058935343378656e+000	 1.130306422115729e+001
 2.262514901315687e+000	 2.082462801891776e+000	 1.117371552811300e+001
 2.240836578621618e+000	 2.105772169025888e+000	 1.104277621691728e+001
 2.218914581025073e+000	 2.128859573114841e+000	 1.090781713765846e+001
 2.196752336590512e+000	 2.151721211404932e+000	 1.076634853162464e+001
 2.174353352140000e+000	 2.174353352140000e+000	 1.061582568705826e+001
 2.406694881474913e+000	 1.953924191846217e+000	 1.186467778731067e+001
 2.386382158575948e+000	 1.978681427925369e+000	 1.170699018915388e+001
 2.365804807353134e+000	 2.003239280135879e+000	 1.156135929854830e+001
 2.344965771991560e+000	 2.027593531295636e+000	 1.142569070760969e+001
 2.323868085825262e+000	 2.051740022429092e+000	 1.129779956364866e+001
 2.302514869891070e+000	 2.075674655112627e+000	 1.117541515768306e+001
 2.280909331408693e+000	 2.099393393776504e+000	 1.105618578040414e+001
 2.259054762188574e+000	 2.122892267960731e+000	 1.093768383422266e+001
 2.236954536969167e+000	 2.146167374522197e+000	 1.081741118914155e+001
 2.214612111685371e+000	 2.169214879790501e+000	 1.069280476936028e+001
 2.192031021670000e+000	 2.192031021670000e+000	 1.056124235671829e+001
 2.426103711165233e+000	 1.969681645004247e+000	 1.174051740106616e+001
 2.405627175984928e+000	 1.994638536213313e+000	 1.158133931879685e+001
 2.384883878381352e+000	 2.019394435619311e+000	 1.143683758796324e+001
 2.363876786283021e+000	 2.043945092030598e+000	 1.130487055451062e+001
 2.342608957486344e+000	 2.068286312931502e+000	 1.118320111655306e+001
 2.321083538197802e+000	 2.092413966846599e+000	 1.106950141483413e+001
 2.299303761501779e+000	 2.116323985661233e+000	 1.096135780104596e+001
 2.277272945755577e+000	 2.140012366895575e+000	 1.085627607237844e+001
 2.254994492913282e+000	 2.163475175929552e+000	 1.075168695976037e+001
 2.232471886780234e+000	 2.186708548176069e+000	 1.064495185638498e+001
 2.209708691200000e+000	 2.209708691200000e+000	 1.053336877228575e+001
 2.445512540856055e+000	 1.985439098162278e+000	 1.163200879563262e+001
 2.424872193394315e+000	 2.010595644501256e+000	 1.147218655662659e+001
 2.403962949409890e+000	 2.035549591102742e+000	 1.132968804395148e+001
 2.382787800574729e+000	 2.060296652765560e+000	 1.120232251330758e+001
 2.361349829147607e+000	 2.084832603433911e+000	 1.108779869810943e+001
 2.339652206504660e+000	 2.109153278580569e+000	 1.098372960463736e+001
 2.317698191594945e+000	 2.133254577545962e+000	 1.088763759560981e+001
 2.295491129322625e+000	 2.157132465830419e+000	 1.079695975028756e+001
 2.273034448857415e+000	 2.180782977336909e+000	 1.070905348828125e+001
 2.250331661875104e+000	 2.204202216561638e+000	 1.062120244333404e+001
 2.227386360730000e+000	 2.227386360730000e+000	 1.053062257249742e+001
 2.464921370547378e+000	 2.001196551320309e+000	 1.153758755326991e+001
 2.444117210804107e+000	 2.026552752789199e+000	 1.137796011975810e+001
 2.423042020438750e+000	 2.051704746586175e+000	 1.123833296607260e+001
 2.401698814866681e+000	 2.076648213500522e+000	 1.111646440672848e+001
 2.380090700809050e+000	 2.101378893936321e+000	 1.101000708672365e+001
 2.358220874811643e+000	 2.125892590314541e+000	 1.091651288413741e+001
 2.336092621688192e+000	 2.150185169430690e+000	 1.083343811187226e+001
 2.313709312889718e+000	 2.174252564765263e+000	 1.075814900638356e+001
 2.291074404801570e+000	 2.198090778744265e+000	 1.068792749027109e+001
 2.268191436969977e+000	 2.221695884947206e+000	 1.061997719467741e+001
 2.245064030260000e+000	 2.245064030260000e+000	 1.055142972655565e+001
 2.484330200239203e+000	 2.016954004478340e+000	 1.145569335826641e+001
 2.463362228214306e+000	 2.042509861077142e+000	 1.129709280123833e+001
 2.442121091467931e+000	 2.067859902069606e+000	 1.116119968574064e+001
 2.420609829158880e+000	 2.092999774235484e+000	 1.104571952705334e+001
 2.398831572470674e+000	 2.117925184438732e+000	 1.094824694959363e+001
 2.376789543118751e+000	 2.142631902048512e+000	 1.086627069973186e+001
 2.354487051781519e+000	 2.167115761315419e+000	 1.079717896863520e+001
 2.331927496456856e+000	 2.191372663700107e+000	 1.073826501271137e+001
 2.309114360745745e+000	 2.215398580151621e+000	 1.068673305822227e+001
 2.286051212064856e+000	 2.239189553332774e+000	 1.063970447567937e+001
 2.262741699790000e+000	 2.262741699790000e+000	 1.059422420871950e+001
 2.503739029931528e+000	 2.032711457636371e+000	 1.137415316225715e+001
 2.482607245624910e+000	 2.058466969365085e+000	 1.122802179268451e+001
 2.461200162497433e+000	 2.084015057553037e+000	 1.109672037119103e+001
 2.439520843451326e+000	 2.109351334970447e+000	 1.098851642411610e+001
 2.417572444132480e+000	 2.134471474941141e+000	 1.090094461446153e+001
 2.395358211425986e+000	 2.159371213782483e+000	 1.083142854339790e+001
 2.372881481874926e+000	 2.184046353200148e+000	 1.077728619715905e+001
 2.350145680024039e+000	 2.208492762634951e+000	 1.073573570230671e+001
 2.327154316689939e+000	 2.232706381558977e+000	 1.070390137562539e+001
 2.303910987159740e+000	 2.256683221718343e+000	 1.067882005391804e+001
 2.280419369320000e+000	 2.280419369320000e+000	 1.065744768803125e+001
 2.523147859624355e+000	 2.048468910794402e+000	 1.125524232469310e+001
 2.501852263035922e+000	 2.074424077653029e+000	 1.116459792049779e+001
 2.480279233527257e+000	 2.100170213036469e+000	 1.104333184144901e+001
 2.458431857744017e+000	 2.125702895705409e+000	 1.094328870309106e+001
 2.436313315794466e+000	 2.151017765443552e+000	 1.086653185190052e+001
 2.413926879733346e+000	 2.176110525516454e+000	 1.081041772017005e+001
 2.391275911968414e+000	 2.200976945084877e+000	 1.077219199452964e+001
 2.368363863591268e+000	 2.225612861569795e+000	 1.074899550915803e+001
 2.345194272634154e+000	 2.250014182966334e+000	 1.073787044423846e+001
 2.321770762254630e+000	 2.274176890103913e+000	 1.073576681458104e+001
 2.298097038850000e+000	 2.298097038850000e+000	 1.073954923236319e+001
 2.121320343550000e+000	 2.121320343550000e+000	 1.095579001229533e+001
 2.099240206248228e+000	 2.143173011305966e+000	 1.105177949301045e+001
 2.076936168892773e+000	 2.164794713192911e+000	 1.115797643249359e+001
 2.054411872221356e+000	 2.186182027921017e+000	 1.127285661622003e+001
 2.031671026237590e+000	 2.207331611037154e+000	 1.139484212216656e+001
 2.008717408176743e+000	 2.228240196665399e+000	 1.152230632426895e+001
 1.985554860419452e+000	 2.248904599182742e+000	 1.165357903751565e+001
 1.962187288355787e+000	 2.269321714828175e+000	 1.178695178998019e+001
 1.938618658202153e+000	 2.289488523243476e+000	 1.192068320669996e+001
 1.914852994773596e+000	 2.309402088944092e+000	 1.205300448996940e+001
 1.890894379214094e+000	 2.329059562718646e+000	 1.218212498033257e+001
 2.138998013080000e+000	 2.138998013080000e+000	 1.081149474824571e+001
 2.116733874633795e+000	 2.161032786400810e+000	 1.094355125164919e+001
 2.094243970300128e+000	 2.182834669136945e+000	 1.107855808717462e+001
 2.071531971156200e+000	 2.204400211487839e+000	 1.121468780215143e+001
 2.048601618122318e+000	 2.225726041129918e+000	 1.135006477689818e+001
 2.025456719910714e+000	 2.246808864971628e+000	 1.148277062328001e+001
 2.002101150921862e+000	 2.267645470843101e+000	 1.161084971878196e+001
 1.978538849090749e+000	 2.288232729118653e+000	 1.173231486060836e+001
 1.954773813685585e+000	 2.308567594270409e+000	 1.184515302393534e+001
 1.930810103061539e+000	 2.328647106351446e+000	 1.194733120811791e+001
 1.906651832372125e+000	 2.348468392406962e+000	 1.203680235438703e+001
 2.156675682610000e+000	 2.156675682610000e+000	 1.069870979644693e+001
 2.134227543019364e+000	 2.178892561495658e+000	 1.086185533573041e+001
 2.111551771707485e+000	 2.200874625080999e+000	 1.102084464603228e+001
 2.088652070091043e+000	 2.222618395054705e+000	 1.117354747568004e+001
 2.065532210007047e+000	 2.244120471222762e+000	 1.131779081398451e+001
 2.042196031644685e+000	 2.265377533277983e+000	 1.145136468645067e+001
 2.018647441424272e+000	 2.286386342503640e+000	 1.157202807958318e+001
 1.994890409825711e+000	 2.307143743409375e+000	 1.167751497899818e+001
 1.970928969169016e+000	 2.327646665297662e+000	 1.176554050418148e+001
 1.946767211349483e+000	 2.347892123759207e+000	 1.183380712292135e+001
 1.922409285530155e+000	 2.367877222095777e+000	 1.188001092819433e+001
 2.174353352140000e+000	 2.174353352140000e+000	 1.061582568705826e+001
 2.151721211404932e+000	 2.196752336590512e+000	 1.080523368844354e+001
 2.128859573114841e+000	 2.218914581025073e+000	 1.098352722428151e+001
 2.105772169025888e+000	 2.240836578621618e+000	 1.114827359630566e+001
 2.082462801891776e+000	 2.262514901315687e+000	 1.129700262398306e+001
 2.058935343378656e+000	 2.283946201584464e+000	 1.142721283802183e+001
 2.035193731926682e+000	 2.305127214164361e+000	 1.153637779774959e+001
 2.011241970560673e+000	 2.326054757700345e+000	 1.162195251526976e+001
 1.987084124652448e+000	 2.346725736325238e+000	 1.168137996894244e+001
 1.962724319637426e+000	 2.367137141167375e+000	 1.171209768843788e+001
 1.938166738688187e+000	 2.387286051785094e+000	 1.171154439337682e+001
 2.192031021670000e+000	 2.192031021670000e+000	 1.056124235671829e+001
 2.169214879790501e+000	 2.214612111685371e+000	 1.077223328315515e+001
 2.146167374522197e+000	 2.236954536969167e+000	 1.096529768536270e+001
 2.122892267960732e+000	 2.259054762188575e+000	 1.113770068619522e+001
 2.099393393776504e+000	 2.280909331408693e+000	 1.128667507293341e+001
 2.075674655112627e+000	 2.302514869891070e+000	 1.140942789081981e+001
 2.051740022429092e+000	 2.323868085825262e+000	 1.150314715493730e+001
 2.027593531295636e+000	 2.344965771991560e+000	 1.156500866252735e+001
 2.003239280135879e+000	 2.365804807353134e+000	 1.159218288749399e+001
 1.978681427925369e+000	 2.386382158575948e+000	 1.158184193855507e+001
 1.953924191846217e+000	 2.406694881474913e+000	 1.153116656228237e+001
 2.209708691200000e+000	 2.209708691200000e+000	 1.053336877228575e+001
 2.186708548176069e+000	 2.232471886780235e+000	 1.076140592220179e+001
 2.163475175929553e+000	 2.254994492913281e+000	 1.096484861101263e+001
 2.140012366895575e+000	 2.277272945755577e+000	 1.114065996767608e+001
 2.116323985661233e+000	 2.299303761501779e+000	 1.128577580333798e+001
 2.092413966846598e+000	 2.321083538197802e+000	 1.139711160671293e+001
 2.068286312931502e+000	 2.342608957486344e+000	 1.147156965247523e+001
 2.043945092030598e+000	 2.363876786283021e+000	 1.150604620393990e+001
 2.019394435619311e+000	 2.384883878381352e+000	 1.149743879097284e+001
 1.994638536213312e+000	 2.405627175984928e+000	 1.144265354379670e+001
 1.969681645004248e+000	 2.426103711165233e+000	 1.133861256315542e+001
 2.227386360730000e+000	 2.227386360730000e+000	 1.053062257249742e+001
 2.204202216561638e+000	 2.250331661875104e+000	 1.077130804526419e+001
 2.180782977336909e+000	 2.273034448857415e+000	 1.098087327276066e+001
 2.157132465830419e+000	 2.295491129322625e+000	 1.115597949418210e+001
 2.133254577545962e+000	 2.317698191594946e+000	 1.129326552081035e+001
 2.109153278580569e+000	 2.339652206504660e+000	 1.138935513514162e+001
 2.084832603433911e+000	 2.361349829147606e+000	 1.144086459788595e+001
 2.060296652765560e+000	 2.382787800574728e+000	 1.144441024329418e+001
 2.035549591102742e+000	 2.403962949409890e+000	 1.139661614293762e+001
 2.010595644501256e+000	 2.424872193394315e+000	 1.129412181780543e+001
 1.985439098162278e+000	 2.445512540856055e+000	 1.113358997839499e+001
 2.245064030260000e+000	 2.245064030260000e+000	 1.055142972655565e+001
 2.221695884947205e+000	 2.268191436969977e+000	 1.080050054679468e+001
 2.198090778744265e+000	 2.291074404801570e+000	 1.101206560477151e+001
 2.174252564765263e+000	 2.313709312889717e+000	 1.118248427501318e+001
 2.150185169430690e+000	 2.336092621688192e+000	 1.130809826718101e+001
 2.125892590314540e+000	 2.358220874811642e+000	 1.138523943093045e+001
 2.101378893936321e+000	 2.380090700809050e+000	 1.141023766369703e+001
 2.076648213500522e+000	 2.401698814866680e+000	 1.137942890103327e+001
 2.051704746586174e+000	 2.423042020438750e+000	 1.128916316880112e+001
 2.026552752789199e+000	 2.444117210804107e+000	 1.113581267627507e+001
 2.001196551320309e+000	 2.464921370547378e+000	 1.091577992903678e+001
 2.262741699790000e+000	 2.262741699790000e+000	 1.059422420871950e+001
 2.239189553332774e+000	 2.286051212064856e+000	 1.084754860200276e+001
 2.215398580151621e+000	 2.309114360745745e+000	 1.105712017796112e+001
 2.191372663700107e+000	 2.331927496456856e+000	 1.121899639424681e+001
 2.167115761315419e+000	 2.354487051781518e+000	 1.132922168080150e+001
 2.142631902048512e+000	 2.376789543118751e+000	 1.138383565251542e+001
 2.117925184438731e+000	 2.398831572470674e+000	 1.137888142005799e+001
 2.092999774235484e+000	 2.420609829158880e+000	 1.131041397766860e+001
 2.067859902069606e+000	 2.442121091467931e+000	 1.117450864638285e+001
 2.042509861077142e+000	 2.463362228214305e+000	 1.096726955093307e+001
 2.016954004478340e+000	 2.484330200239203e+000	 1.068483810840013e+001
 2.280419369320000e+000	 2.280419369320000e+000	 1.065744768803125e+001
 2.256683221718343e+000	 2.303910987159740e+000	 1.091102150093408e+001
 2.232706381558977e+000	 2.327154316689938e+000	 1.111473217531629e+001
 2.208492762634950e+000	 2.350145680024038e+000	 1.126433512411864e+001
 2.184046353200148e+000	 2.372881481874926e+000	 1.135557724474126e+001
 2.159371213782483e+000	 2.395358211425986e+000	 1.138420554164885e+001
 2.134471474941142e+000	 2.417572444132480e+000	 1.134597584258440e+001
 2.109351334970446e+000	 2.439520843451325e+000	 1.123666158633523e+001
 2.084015057553037e+000	 2.461200162497433e+000	 1.105206265969170e+001
 2.058466969365085e+000	 2.482607245624910e+000	 1.078801426101191e+001
 2.032711457636371e+000	 2.503739029931528e+000	 1.049998622196908e+001
 2.298097038850000e+000	 2.298097038850000e+000	 1.073954923236319e+001
 2.274176890103912e+000	 2.321770762254630e+000	 1.098949249020768e+001
 2.250014182966333e+000	 2.345194272634154e+000	 1.118359736835361e+001
 2.225612861569795e+000	 2.368363863591268e+000	 1.131731703317045e+001
 2.200976945084877e+000	 2.391275911968415e+000	 1.138610052352914e+001
 2.176110525516454e+000	 2.413926879733345e+000	 1.138540178557959e+001
 2.151017765443552e+000	 2.436313315794466e+000	 1.131068879676304e+001
 2.125702895705410e+000	 2.458431857744016e+000	 1.115745275615266e+001
 2.100170213036469e+000	 2.480279233527257e+000	 1.092121731791866e+001
 2.074424077653029e+000	 2.501852263035922e+000	 1.062148957726792e+001
 2.048468910794402e+000	 2.523147859624355e+000	 1.052285216375532e+001
 1.890894379214094e+000	 2.329059562718646e+000	 1.218212498033257e+001
 1.866746946686970e+000	 2.348458182955457e+000	 1.247632321219511e+001
 1.842414884029853e+000	 2.367595276895474e+000	 1.264674787193544e+001
 1.817902427375696e+000	 2.386468261810128e+000	 1.272156736590122e+001
 1.793213859741616e+000	 2.405074646102547e+000	 1.270457209118837e+001
 1.768353508590088e+000	 2.423412030331897e+000	 1.259967731074120e+001
 1.743325743364769e+000	 2.441478108159864e+000	 1.241091245440673e+001
 1.718134973003829e+000	 2.459270667218596e+000	 1.214241025789285e+001
 1.692785643433693e+000	 2.476787589899573e+000	 1.179839576946135e+001
 1.667282235046092e+000	 2.494026854062976e+000	 1.138317525429838e+001
 1.641629260161343e+000	 2.510986533667252e+000	 1.135489757629648e+001
 1.906651832372125e+000	 2.348468392406962e+000	 1.203680235438703e+001
 1.882303171240375e+000	 2.368028667811902e+000	 1.222247355620448e+001
 1.857768341394251e+000	 2.387325237534294e+000	 1.226858320227286e+001
 1.833051614267811e+000	 2.406355497322827e+000	 1.221481029796432e+001
 1.808157308569985e+000	 2.425116934817322e+000	 1.207751786652436e+001
 1.783089787825431e+000	 2.443607130581606e+000	 1.186105059991505e+001
 1.757853457889840e+000	 2.461823759057878e+000	 1.156985917113644e+001
 1.732452764442532e+000	 2.479764589441885e+000	 1.120848882320954e+001
 1.706892190459319e+000	 2.497427486478374e+000	 1.078156783899091e+001
 1.681176253668529e+000	 2.514810411176357e+000	 1.089430087273942e+001
 1.655309503993148e+000	 2.531911421443936e+000	 1.106223209475208e+001
 1.922409285530155e+000	 2.367877222095777e+000	 1.188001092819433e+001
 1.897859395793785e+000	 2.387599152668946e+000	 1.195717102589559e+001
 1.873121798758668e+000	 2.407055198173796e+000	 1.191555600525273e+001
 1.848200801159972e+000	 2.426242732836283e+000	 1.173791603783141e+001
 1.823100757398434e+000	 2.445159223532919e+000	 1.148483541173258e+001
 1.797826067060902e+000	 2.463802230832191e+000	 1.116108976978177e+001
 1.772381172415094e+000	 2.482169409956812e+000	 1.077155271770942e+001
 1.746770555881482e+000	 2.500258511666131e+000	 1.033103586972271e+001
 1.720998737485267e+000	 2.518067383058155e+000	 1.052392368815321e+001
 1.695070272291373e+000	 2.535593968290734e+000	 1.068752013591130e+001
 1.668989747825456e+000	 2.552836309221620e+000	 1.081506931491692e+001
 1.938166738688187e+000	 2.387286051785094e+000	 1.171154439337682e+001
 1.913415620347201e+000	 2.407169637526585e+000	 1.168789310851994e+001
 1.888475256123106e+000	 2.426785158813978e+000	 1.155633414974223e+001
 1.863349988052179e+000	 2.446129968350495e+000	 1.129349002952706e+001
 1.838044206226964e+000	 2.465201512249337e+000	 1.092893324794227e+001
 1.812562346296498e+000	 2.483997331083652e+000	 1.050200962119799e+001
 1.786908886940528e+000	 2.502515060856667e+000	 1.010829421786208e+001
 1.761088347320680e+000	 2.520752433891332e+000	 1.025775006234971e+001
 1.735105284511538e+000	 2.538707279638917e+000	 1.039575980600099e+001
 1.708964290914625e+000	 2.556377525406104e+000	 1.051544707331137e+001
 1.682669991658267e+000	 2.573761197000304e+000	 1.060999412339994e+001
 1.953924191846217e+000	 2.406694881474913e+000	 1.153116656228237e+001
 1.928971844900621e+000	 2.426740122384820e+000	 1.141425837750791e+001
 1.903828713487564e+000	 2.446515119454843e+000	 1.119697694744202e+001
 1.878499174944431e+000	 2.466017203865463e+000	 1.087527881648379e+001
 1.852987655055575e+000	 2.485243800966576e+000	 1.041221149567792e+001
 1.827298625532221e+000	 2.504192431335988e+000	 1.002481103795081e+001
 1.801436601466145e+000	 2.522860711757442e+000	 1.010961744621655e+001
 1.775406138760124e+000	 2.541246356117489e+000	 1.020084957094402e+001
 1.749211831538130e+000	 2.559347176220658e+000	 1.029154152683158e+001
 1.722858309538284e+000	 2.577161082522472e+000	 1.037475801459274e+001
 1.696350235491580e+000	 2.594686084779988e+000	 1.044361129146323e+001
 1.969681645004248e+000	 2.426103711165233e+000	 1.133861256315542e+001
 1.944528069454047e+000	 2.446310607243651e+000	 1.113586205643596e+001
 1.919182170852043e+000	 2.466245080096388e+000	 1.084013593435033e+001
 1.893648361836729e+000	 2.485904439381185e+000	 1.044751847068979e+001
 1.867931103884267e+000	 2.505286089684635e+000	 1.009423404933541e+001
 1.842034904768069e+000	 2.524387531589201e+000	 1.009325337183552e+001
 1.815964315991943e+000	 2.543206362659138e+000	 1.011657485250921e+001
 1.789723930199816e+000	 2.561740278344599e+000	 1.015717506621056e+001
 1.763318378565046e+000	 2.579987072803380e+000	 1.020803233603636e+001
 1.736752328162351e+000	 2.597944639639833e+000	 1.026214418200641e+001
 1.710030479325396e+000	 2.615610972560673e+000	 1.031254467963594e+001
 1.985439098162278e+000	 2.445512540856055e+000	 1.113358997839499e+001
 1.960084294007477e+000	 2.465881092103079e+000	 1.085227694560808e+001
 1.934535628216542e+000	 2.485975040738615e+000	 1.048525300965035e+001
 1.908797548729072e+000	 2.505791674897666e+000	 1.017951214414465e+001
 1.882874552713040e+000	 2.525328378403515e+000	 1.019588239580549e+001
 1.856771184004044e+000	 2.544582631843288e+000	 1.015664447589981e+001
 1.830492030517922e+000	 2.563552013561753e+000	 1.012609067854165e+001
 1.804041721639754e+000	 2.582234200572666e+000	 1.012357307604382e+001
 1.777424925592283e+000	 2.600626969387082e+000	 1.014200586190627e+001
 1.750646346786826e+000	 2.618728196758190e+000	 1.017431109942536e+001
 1.723710723159714e+000	 2.636535860342358e+000	 1.021343648020348e+001
 2.001196551320309e+000	 2.464921370547378e+000	 1.091577992903678e+001
 1.975640518560913e+000	 2.485451576963104e+000	 1.056305430486175e+001
 1.949889085581061e+000	 2.505705001381523e+000	 1.026009071073839e+001
 1.923946735621460e+000	 2.525678910414903e+000	 1.025114774736186e+001
 1.897818001541894e+000	 2.545370667123217e+000	 1.023887406607867e+001
 1.871507463240145e+000	 2.564777732098252e+000	 1.021198816919628e+001
 1.845019745044084e+000	 2.583897664465290e+000	 1.013509055535807e+001
 1.818359513079940e+000	 2.602728122801688e+000	 1.009689575492950e+001
 1.791531472619842e+000	 2.621266865971764e+000	 1.009024547630532e+001
 1.764540365411708e+000	 2.639511753877541e+000	 1.010797802928841e+001
 1.737390966994536e+000	 2.657460748125041e+000	 1.014294649548483e+001
 2.016954004478340e+000	 2.484330200239203e+000	 1.068483810840013e+001
 1.991196743114353e+000	 2.505022061823724e+000	 1.036378920150304e+001
 1.965242542945600e+000	 2.525434962025112e+000	 1.031734674459023e+001
 1.939095922513894e+000	 2.545566145932895e+000	 1.027641863562798e+001
 1.912761450370828e+000	 2.565412955843739e+000	 1.024113955135013e+001
 1.886243742476373e+000	 2.584972832354091e+000	 1.021163868891161e+001
 1.859547459570427e+000	 2.604243315369748e+000	 1.014050144897774e+001
 1.832677304520372e+000	 2.623222045031667e+000	 1.007400066415603e+001
 1.805638019647725e+000	 2.641906762557427e+000	 1.004954391406209e+001
 1.778434384036998e+000	 2.660295310997888e+000	 1.005987743593750e+001
 1.751071210829859e+000	 2.678385635908726e+000	 1.009775144994072e+001
 2.032711457636371e+000	 2.503739029931528e+000	 1.049998622196908e+001
 2.006752967667799e+000	 2.524592546684941e+000	 1.040487263601089e+001
 1.980596000310160e+000	 2.545164922669383e+000	 1.032348620201220e+001
 1.954245109406374e+000	 2.565453381451643e+000	 1.025621349645807e+001
 1.927704899199844e+000	 2.585455244565083e+000	 1.020342834811971e+001
 1.900980021712726e+000	 2.605167932610806e+000	 1.016549028027824e+001
 1.874075174096952e+000	 2.624588966275126e+000	 1.013925160865185e+001
 1.846995095961051e+000	 2.643715967262599e+000	 1.005175056224834e+001
 1.819744566675930e+000	 2.662546659144069e+000	 1.001670291006403e+001
 1.792328402662695e+000	 2.681078868119229e+000	 1.002675447391598e+001
 1.764751454665686e+000	 2.699310523693410e+000	 1.007454433427646e+001
 2.048468910794402e+000	 2.523147859624355e+000	 1.052285216375532e+001
 2.022309192221251e+000	 2.544163031546754e+000	 1.039021653518420e+001
 1.995949457674740e+000	 2.564894883314335e+000	 1.027952512466093e+001
 1.969394296298900e+000	 2.585340616971148e+000	 1.019141033491978e+001
 1.942648348028941e+000	 2.605497533287247e+000	 1.012648334524500e+001
 1.915716300949207e+000	 2.625363032868398e+000	 1.008533231037970e+001
 1.888602888623659e+000	 2.644934617181425e+000	 1.006852057032850e+001
 1.861312887401978e+000	 2.664209889494488e+000	 1.002701320507432e+001
 1.833851113704457e+000	 2.683186555731693e+000	 9.988532853101502e+000
 1.806222421288800e+000	 2.701862425241568e+000	 1.000536649988391e+001
 1.778431698502015e+000	 2.720235411479095e+000	 1.007003377981712e+001
 1.641629260161343e+000	 2.510986533667252e+000	 1.135489757629648e+001
 1.615831260481341e+000	 2.527664799318952e+000	 1.122298183032703e+001
 1.589892804533449e+000	 2.544059918741996e+000	 1.111119097639825e+001
 1.563818485109322e+000	 2.560170257166945e+000	 1.101472277006617e+001
 1.537612916702709e+000	 2.575994277640975e+000	 1.092883406420022e+001
 1.511280732947345e+000	 2.591530541258076e+000	 1.084885420313118e+001
 1.484826584058343e+000	 2.606777707310107e+000	 1.077019815721727e+001
 1.458255134279887e+000	 2.621734533359257e+000	 1.068837936413165e+001
 1.431571059341969e+000	 2.636399875232532e+000	 1.059902224443507e+001
 1.404779043928912e+000	 2.650772686938987e+000	 1.049787436035784e+001
 1.377883779162314e+000	 2.664852020510572e+000	 1.038081818816552e+001
 1.655309503993148e+000	 2.531911421443936e+000	 1.106223209475208e+001
 1.629296520982582e+000	 2.548728672642727e+000	 1.093397312538400e+001
 1.603141911235245e+000	 2.565260418061028e+000	 1.082571639223436e+001
 1.576850305816056e+000	 2.581505009306319e+000	 1.073239442432912e+001
 1.550426357672883e+000	 2.597460896617837e+000	 1.064900058695142e+001
 1.523874739053070e+000	 2.613126629098687e+000	 1.057060296858282e+001
 1.497200138923525e+000	 2.628500854868160e+000	 1.049235800014784e+001
 1.470407260397131e+000	 2.643582321134798e+000	 1.040952377177059e+001
 1.443500818168300e+000	 2.658369874190830e+000	 1.031747301355345e+001
 1.416485535960391e+000	 2.672862459328722e+000	 1.021170570828692e+001
 1.389366143987678e+000	 2.687059120680686e+000	 1.008786130549589e+001
 1.668989747825456e+000	 2.552836309221620e+000	 1.081506931491692e+001
 1.642761781484414e+000	 2.569792545967492e+000	 1.069143605027677e+001
 1.616391017937702e+000	 2.586460917381019e+000	 1.058771462799196e+001
 1.589882126523502e+000	 2.602839761446600e+000	 1.049856681738972e+001
 1.563239798643796e+000	 2.618927515595535e+000	 1.041871696204854e+001
 1.536468745159543e+000	 2.634722716940044e+000	 1.034296636913005e+001
 1.509573693789444e+000	 2.650224002426849e+000	 1.026620742279033e+001
 1.482559386515083e+000	 2.665430108910843e+000	 1.018343738576601e+001
 1.455430576995289e+000	 2.680339873149482e+000	 1.008977185456888e+001
 1.428192027992455e+000	 2.694952231718638e+000	 9.980457835165526e+000
 1.400848508813537e+000	 2.709266220850791e+000	 9.850886407558155e+000
 1.682669991658267e+000	 2.573761197000304e+000	 1.060999412339994e+001
 1.656227041986839e+000	 2.590856419293247e+000	 1.049203931659585e+001
 1.629640124640821e+000	 2.607661416701968e+000	 1.039393875363561e+001
 1.602913947231660e+000	 2.624174513587791e+000	 1.031007782843637e+001
 1.576053239615450e+000	 2.640394134574071e+000	 1.023490624625712e+001
 1.549062751266767e+000	 2.656318804782146e+000	 1.016295292512957e+001
 1.521947248656102e+000	 2.671947149986172e+000	 1.008884061303520e+001
 1.494711512633743e+000	 2.687277896687392e+000	 1.000730018378847e+001
 1.467360335822934e+000	 2.702309872108487e+000	 9.913184575964953e+000
 1.439898520025105e+000	 2.717042004108736e+000	 9.801482340697252e+000
 1.412330873639893e+000	 2.731473321020890e+000	 9.667330765747014e+000
 1.696350235491580e+000	 2.594686084779988e+000	 1.044361129146323e+001
 1.669692302489857e+000	 2.611920292619992e+000	 1.033247076387037e+001
 1.642889231344602e+000	 2.628861916023877e+000	 1.024116021596732e+001
 1.615945767940529e+000	 2.645509265729889e+000	 1.016378296834239e+001
 1.588866680587844e+000	 2.661860753553444e+000	 1.009450838915349e+001
 1.561656757374739e+000	 2.677914892624994e+000	 1.002758731747731e+001
 1.534320803523498e+000	 2.693670297546130e+000	 9.957367193960410e+000
 1.506863638753110e+000	 2.709125684464445e+000	 9.878306860575993e+000
 1.479290094651236e+000	 2.724279871067844e+000	 9.784990992709394e+000
 1.451605012058342e+000	 2.739131776499018e+000	 9.672144128321385e+000
 1.423813238466745e+000	 2.753680421190979e+000	 9.534644260570676e+000
 1.710030479325396e+000	 2.615610972560673e+000	 1.031254467963594e+001
 1.683157562993467e+000	 2.632984165947726e+000	 1.020943659445046e+001
 1.656138338049046e+000	 2.650062415346746e+000	 1.012616810355306e+001
 1.628977588650109e+000	 2.666844017872896e+000	 1.005655467439866e+001
 1.601680121560979e+000	 2.683327372533654e+000	 9.994479557412436e+000
 1.574250763483461e+000	 2.699510980468590e+000	 9.933909741186689e+000
 1.546694358391633e+000	 2.715393445106724e+000	 9.868911606423744e+000
 1.519015764873185e+000	 2.730973472242002e+000	 9.793666239251234e+000
 1.491219853480195e+000	 2.746249870027555e+000	 9.702484365994623e+000
 1.463311504092165e+000	 2.761221548889481e+000	 9.589820873063468e+000
 1.435295603294094e+000	 2.775887521361062e+000	 9.450288877286623e+000
 1.723710723159714e+000	 2.636535860342358e+000	 1.021343648020348e+001
 1.696622823497669e+000	 2.654048039276451e+000	 1.011966064482400e+001
 1.669387444754151e+000	 2.671262914670574e+000	 1.004576844665261e+001
 1.642009409360400e+000	 2.688178770016811e+000	 9.985281638630340e+000
 1.614493562534854e+000	 2.704793991514702e+000	 9.931791491271493e+000
 1.586844769592933e+000	 2.721107068312931e+000	 9.878975289748812e+000
 1.559067913260507e+000	 2.737116592667952e+000	 9.820612521055628e+000
 1.531167890993967e+000	 2.752821260020063e+000	 9.750600710671327e+000
 1.503149612309810e+000	 2.768219868987618e+000	 9.662970869657313e+000
 1.475017996126574e+000	 2.783311321280127e+000	 9.551902514726343e+000
 1.446777968121937e+000	 2.798094621531136e+000	 9.411738225554087e+000
 1.737390966994536e+000	 2.657460748125041e+000	 1.014294649548483e+001
 1.710088084002464e+000	 2.675111912606165e+000	 1.005988369135897e+001
 1.682636551459918e+000	 2.692463413995360e+000	 9.996783550223890e+000
 1.655041230071403e+000	 2.709513522161635e+000	 9.946868167846686e+000
 1.627307003509469e+000	 2.726260610496586e+000	 9.903430891398392e+000
 1.599438775703154e+000	 2.742703156158019e+000	 9.859853368578499e+000
 1.571441468130118e+000	 2.758839740229814e+000	 9.809622278031918e+000
 1.543320017115457e+000	 2.774669047798627e+000	 9.746345699264982e+000
 1.515079371140083e+000	 2.790189867948035e+000	 9.663769081806622e+000
 1.486724488161570e+000	 2.805401093670956e+000	 9.555790775024885e+000
 1.458260332950278e+000	 2.820301721701202e+000	 9.416477081780686e+000
 1.751071210829859e+000	 2.678385635908726e+000	 1.009775144994072e+001
 1.723553344507851e+000	 2.696175785936869e+000	 1.002686278858953e+001
 1.695885658166348e+000	 2.713663913321106e+000	 9.976051358192452e+000
 1.668073050783117e+000	 2.730848274307367e+000	 9.938233573688434e+000
 1.640120444484825e+000	 2.747727229479309e+000	 9.906398834499457e+000
 1.612032781814124e+000	 2.764299244003852e+000	 9.873627135954553e+000
 1.583815023000468e+000	 2.780562887792313e+000	 9.833106353107315e+000
 1.555472143237654e+000	 2.796516835577696e+000	 9.778149153908734e+000
 1.527009129971012e+000	 2.812159866908805e+000	 9.702209500282311e+000
 1.498430980197152e+000	 2.827490866061967e+000	 9.598898697354944e+000
 1.469742697779114e+000	 2.842508821871260e+000	 9.462000952921127e+000
 1.764751454665686e+000	 2.699310523693410e+000	 1.007454433427646e+001
 1.737018605013831e+000	 2.717239659268562e+000	 1.001737063827916e+001
 1.709134764873440e+000	 2.734864412647811e+000	 9.980424847289795e+000
 1.681104871495542e+000	 2.752183026454008e+000	 9.956311591045187e+000
 1.652933885460923e+000	 2.769193848462869e+000	 9.937710216108430e+000
 1.624626787925844e+000	 2.785895331850432e+000	 9.917392969962984e+000
 1.596188577871557e+000	 2.802286035355447e+000	 9.888242848484039e+000
 1.567624269360560e+000	 2.818364623357268e+000	 9.843271062483037e+000
 1.538938888802598e+000	 2.834129865869928e+000	 9.775634080649528e+000
 1.510137472233320e+000	 2.849580638453159e+000	 9.678650207968548e+000
 1.481225062608446e+000	 2.864715922041312e+000	 9.545815660564660e+000
 1.778431698502015e+000	 2.720235411479095e+000	 1.007003377981712e+001
 1.750483865520404e+000	 2.738303532601247e+000	 1.002819498760424e+001
 1.722383871581194e+000	 2.756064911975476e+000	 1.000677144886859e+001
 1.694136692208680e+000	 2.773517778601557e+000	 9.998049823315068e+000
 1.665747326437760e+000	 2.790660467447267e+000	 9.994393219093395e+000
 1.637220794038314e+000	 2.807491419697759e+000	 9.988259960042912e+000
 1.608562132743385e+000	 2.824009182919216e+000	 9.972222007179619e+000
 1.579776395484173e+000	 2.840212411137346e+000	 9.938982988833695e+000
 1.550868647634841e+000	 2.856099864831404e+000	 9.881395795517141e+000
 1.521843964270075e+000	 2.871670410844536e+000	 9.792479697402634e+000
 1.492707427438275e+000	 2.886923022211355e+000	 9.665436944218119e+000
 1.377883779162314e+000	 2.664852020510572e+000	 1.038081818816552e+001
 1.350889960100455e+000	 2.678637025767296e+000	 1.025513589059945e+001
 1.323802283258406e+000	 2.692126950008474e+000	 1.013798376140147e+001
 1.296625444150432e+000	 2.705321137630596e+000	 1.002601148018612e+001
 1.269364134855766e+000	 2.718219029672730e+000	 9.916012754782729e+000
 1.242023041611831e+000	 2.730820163291444e+000	 9.821253287873423e+000
 1.214606842436724e+000	 2.743124171166410e+000	 9.761244233744039e+000
 1.187120204783137e+000	 2.755130780838170e+000	 9.697588972253673e+000
 1.159567783225906e+000	 2.766839813979641e+000	 9.633467097086710e+000
 1.131954217185234e+000	 2.778251185602977e+000	 9.572006999332746e+000
 1.104284128687585e+000	 2.789364903203509e+000	 9.516282396559628e+000
 1.389366143987678e+000	 2.687059120680686e+000	 1.008786130549589e+001
 1.362147376433888e+000	 2.700959000981797e+000	 9.967686942544779e+000
 1.334833968951679e+000	 2.714561341258762e+000	 9.855634687643324e+000
 1.307430656184601e+000	 2.727865480444711e+000	 9.748123408599874e+000
 1.279942169312546e+000	 2.740870854920701e+000	 9.641719944660878e+000
 1.252373233624917e+000	 2.753576997986275e+000	 9.533149057304071e+000
 1.224728566123295e+000	 2.765983539260102e+000	 9.475415299016966e+000
 1.197012873155812e+000	 2.778090204012229e+000	 9.420049924331822e+000
 1.169230848085428e+000	 2.789896812429516e+000	 9.365047402590143e+000
 1.141387168994181e+000	 2.801403278815884e+000	 9.313563333597923e+000
 1.113486496425423e+000	 2.812609610729128e+000	 9.268696756636428e+000
 1.400848508813537e+000	 2.709266220850791e+000	 9.850886407558155e+000
 1.373404792767729e+000	 2.723280976196111e+000	 9.737457849120887e+000
 1.345865654645289e+000	 2.736995732508725e+000	 9.631684145492928e+000
 1.318235868219058e+000	 2.750409823258400e+000	 9.529748335843141e+000
 1.290520203769584e+000	 2.763522680168190e+000	 9.427985483963703e+000
 1.262723425638253e+000	 2.776333832680606e+000	 9.322893035072367e+000
 1.234850289810128e+000	 2.788842907353317e+000	 9.246905527993064e+000
 1.206905541528780e+000	 2.801049627185874e+000	 9.197902236106488e+000
 1.178893912945294e+000	 2.812953810879079e+000	 9.150066172601521e+000
 1.150820120803543e+000	 2.824555372028621e+000	 9.106581774930927e+000
 1.122688864163766e+000	 2.835854318254756e+000	 9.070575021497300e+000
 1.412330873639893e+000	 2.731473321020890e+000	 9.667330765747014e+000
 1.384662209101975e+000	 2.745602951410237e+000	 9.561966636571569e+000
 1.356897340339236e+000	 2.759430123758361e+000	 9.463731546534332e+000
 1.329041080253802e+000	 2.772954166071666e+000	 9.368567609347975e+000
 1.301098238226882e+000	 2.786174505415197e+000	 9.272573127031830e+000
 1.273073617651840e+000	 2.799090667374439e+000	 9.172013360150427e+000
 1.244972013497222e+000	 2.811702275446057e+000	 9.075585124142229e+000
 1.216798209902042e+000	 2.824009050359106e+000	 9.031028842058523e+000
 1.188556977805505e+000	 2.836010809328329e+000	 8.988419758862889e+000
 1.160253072613320e+000	 2.847707465241187e+000	 8.950972773497094e+000
 1.131891231902615e+000	 2.859099025780396e+000	 8.921842415342235e+000
 1.423813238466745e+000	 2.753680421190979e+000	 9.534644260570676e+000
 1.395919625436628e+000	 2.767924926624177e+000	 9.438743406241807e+000
 1.367929026033521e+000	 2.781864515007671e+000	 9.349387822855839e+000
 1.339846292288834e+000	 2.795498508884507e+000	 9.262273522226391e+000
 1.311676272684440e+000	 2.808826330661723e+000	 9.173256979200813e+000
 1.283423809665677e+000	 2.821847502067772e+000	 9.078366322859958e+000
 1.255093737184579e+000	 2.834561643538319e+000	 8.973811980446007e+000
 1.226690878275597e+000	 2.846968473531924e+000	 8.919321128248862e+000
 1.198220042666059e+000	 2.859067807777269e+000	 8.880012294416090e+000
 1.169686024423512e+000	 2.870859558453585e+000	 8.846653872586042e+000
 1.141093599641968e+000	 2.882343733306045e+000	 8.822430549841460e+000
 1.435295603294094e+000	 2.775887521361062e+000	 9.450288877286623e+000
 1.407177041771687e+000	 2.790246901837927e+000	 9.365329851573486e+000
 1.378960711728142e+000	 2.804298906256655e+000	 9.286274966229811e+000
 1.350651504324155e+000	 2.818042851696924e+000	 9.208568875443167e+000
 1.322254307142256e+000	 2.831478155907767e+000	 9.127821082761320e+000
 1.293774001679765e+000	 2.844604336760608e+000	 9.039817560874802e+000
 1.265215460872197e+000	 2.857421011630105e+000	 8.940531808388018e+000
 1.236583546649444e+000	 2.869927896704327e+000	 8.862678594255286e+000
 1.207883107526959e+000	 2.882124806225897e+000	 8.824755382350835e+000
 1.179118976234119e+000	 2.894011651665810e+000	 8.793549424886825e+000
 1.150295967381827e+000	 2.905588440831705e+000	 8.772277168636579e+000
 1.446777968121937e+000	 2.798094621531136e+000	 9.411738225554087e+000
 1.418434458107152e+000	 2.812568877051492e+000	 9.339278798101777e+000
 1.389992397423100e+000	 2.826733297505313e+000	 9.272025589236375e+000
 1.361456716359763e+000	 2.840587194508919e+000	 9.205166560837606e+000
 1.332832341600331e+000	 2.854129981153329e+000	 9.134059022635549e+000
 1.304124193694102e+000	 2.867361171452942e+000	 9.054241688294191e+000
 1.275337184560077e+000	 2.880280379721414e+000	 8.961446152429748e+000
 1.246476215023585e+000	 2.892887319876318e+000	 8.861008531207469e+000
 1.217546172388201e+000	 2.905181804674213e+000	 8.822567799374134e+000
 1.188551928045140e+000	 2.917163744877866e+000	 8.791590322273560e+000
 1.159498335122191e+000	 2.928833148357375e+000	 8.771325904008451e+000
 1.458260332950278e+000	 2.820301721701202e+000	 9.416477081780686e+000
 1.429691874443023e+000	 2.834890852264868e+000	 9.358153765183594e+000
 1.401024083118395e+000	 2.849167688753644e+000	 9.304282507121181e+000
 1.372261928395659e+000	 2.863131537320488e+000	 9.249789163844872e+000
 1.343410376058666e+000	 2.876781806398410e+000	 9.189773550683055e+000
 1.314474385708691e+000	 2.890118006144780e+000	 9.119521942240416e+000
 1.285458908248220e+000	 2.903139747812248e+000	 9.034518977160733e+000
 1.256368883398019e+000	 2.915846743047894e+000	 8.930458943951177e+000
 1.227209237249788e+000	 2.928238803122218e+000	 8.873375213384552e+000
 1.197984879856576e+000	 2.940315838089752e+000	 8.840713738357289e+000
 1.168700702863060e+000	 2.952077855883055e+000	 8.819526045040858e+000
 1.469742697779114e+000	 2.842508821871260e+000	 9.462000952921127e+000
 1.440949290779301e+000	 2.857212827478057e+000	 9.419528548270291e+000
 1.412055768814028e+000	 2.871602080001652e+000	 9.380698339254138e+000
 1.383067140431843e+000	 2.885675880131633e+000	 9.340168584840074e+000
 1.353988410517259e+000	 2.899433631643008e+000	 9.292776227617226e+000
 1.324824577723530e+000	 2.912874840836117e+000	 9.233549846021671e+000
 1.295580631936623e+000	 2.925999115902606e+000	 9.157721994434654e+000
 1.266261551772745e+000	 2.938806166219056e+000	 9.060740906871819e+000
 1.236872302111720e+000	 2.951295801569911e+000	 8.977109914284897e+000
 1.207417831668428e+000	 2.963467931301467e+000	 8.940862883105581e+000
 1.177903070604434e+000	 2.975322563408745e+000	 8.916832316651794e+000
 1.481225062608446e+000	 2.864715922041312e+000	 9.545815660564660e+000
 1.452206707115985e+000	 2.879534802691059e+000	 9.520986820609217e+000
 1.423087454509997e+000	 2.894036471249331e+000	 9.498935129124151e+000
 1.393872352468315e+000	 2.908220222942355e+000	 9.474045678093962e+000
 1.364566444976112e+000	 2.922085456887126e+000	 9.440887081576923e+000
 1.335174769738620e+000	 2.935631675526955e+000	 9.394224887962301e+000
 1.305702355625289e+000	 2.948858483992487e+000	 9.329034363087660e+000
 1.276154220147765e+000	 2.961765589389805e+000	 9.240512619141635e+000
 1.246535366973995e+000	 2.974352800017292e+000	 9.133710557315492e+000
 1.216850783480694e+000	 2.986620024513012e+000	 9.091986768875218e+000
 1.187105438346313e+000	 2.998567270934446e+000	 9.063204668902102e+000
 1.492707427438275e+000	 2.886923022211355e+000	 9.665436944218119e+000
 1.463464123453077e+000	 2.901856777903874e+000	 9.660121753328731e+000
 1.434119140206303e+000	 2.916470862496686e+000	 9.656663981873368e+000
 1.404677564505076e+000	 2.930764565752653e+000	 9.649169907392347e+000
 1.375144479435225e+000	 2.944737282130762e+000	 9.631934282456156e+000
 1.345524961753960e+000	 2.958388510217295e+000	 9.599454215055902e+000
 1.315824079314217e+000	 2.971717852081893e+000	 9.546442402516073e+000
 1.286046888523079e+000	 2.984725012560141e+000	 9.467839693049276e+000
 1.256198431836615e+000	 2.997409798464362e+000	 9.358826951502714e+000
 1.226283735293376e+000	 3.009772117724388e+000	 9.294039987243458e+000
 1.196307806088698e+000	 3.021811978460158e+000	 9.258608076028553e+000
 1.104284128687585e+000	 2.789364903203509e+000	 9.516282396559628e+000
 1.076562120166735e+000	 2.800181065842599e+000	 9.484312410315614e+000
 1.048792772305250e+000	 2.810699863170943e+000	 9.438871550918231e+000
 1.020980641918824e+000	 2.820921574394557e+000	 9.382210927349130e+000
 9.931302598865212e-001	 2.830846567185376e+000	 9.316544258234732e+000
 9.652461291268561e-001	 2.840475296538248e+000	 9.244045418357381e+000
 9.373327226216525e-001	 2.849808303576410e+000	 9.166846112492106e+000
 9.093944814890325e-001	 2.858846214307540e+000	 9.087033678370009e+000
 8.814358131068237e-001	 2.867589738332473e+000	 9.006649020194265e+000
 8.534610892875463e-001	 2.876039667508701e+000	 8.927684673765702e+000
 8.254746445060665e-001	 2.884196874570822e+000	 8.852083003913430e+000
 1.113486496425423e+000	 2.812609610729128e+000	 9.268696756636428e+000
 1.085533471166585e+000	 2.823515908056200e+000	 9.227545614720729e+000
 1.057532712072626e+000	 2.834122362028305e+000	 9.175871519997239e+000
 1.029488813932706e+000	 2.844429254178170e+000	 9.116029926270008e+000
 1.001406345383213e+000	 2.854436955241667e+000	 9.050334100478420e+000
 9.732898468669844e-001	 2.864145924005266e+000	 8.981052619866963e+000
 9.451438286406900e-001	 2.873556706101563e+000	 8.910407004383918e+000
 9.169727688317710e-001	 2.882669932754969e+000	 8.840569486039831e+000
 8.887811115462034e-001	 2.891486319479657e+000	 8.773660916566437e+000
 8.605732650282777e-001	 2.900006664731933e+000	 8.711748814331088e+000
 8.323535998734841e-001	 2.908231848519181e+000	 8.656845551086500e+000
 1.122688864163766e+000	 2.835854318254756e+000	 9.070575021497300e+000
 1.094504822167034e+000	 2.846850750270003e+000	 9.021088216261536e+000
 1.066272651840688e+000	 2.857544860886037e+000	 8.963969789067408e+000
 1.037996985947347e+000	 2.867936933962302e+000	 8.901680091825584e+000
 1.009682430880729e+000	 2.878027343298606e+000	 8.836632508983232e+000
 9.813335646079902e-001	 2.887816551473039e+000	 8.771190904321854e+000
 9.529549346606492e-001	 2.897305108627561e+000	 8.707667210904432e+000
 9.245510561754662e-001	 2.906493651203310e+000	 8.648319165835311e+000
 8.961264099865637e-001	 2.915382900627801e+000	 8.595348191088203e+000
 8.676854407700044e-001	 2.923973661956154e+000	 8.550897421257625e+000
 8.392325552419019e-001	 2.932266822468538e+000	 8.517049878697916e+000
 1.131891231902615e+000	 2.859099025780396e+000	 8.921842415342235e+000
 1.103476173168084e+000	 2.870185592484005e+000	 8.864811030698066e+000
 1.075012591609433e+000	 2.880967359744138e+000	 8.802984353921010e+000
 1.046505157962747e+000	 2.891444613746952e+000	 8.738928206287254e+000
 1.017958516379068e+000	 2.901617731356191e+000	 8.675156675664351e+000
 9.893772823498731e-001	 2.911487178941568e+000	 8.614129511904769e+000
 9.607660406815307e-001	 2.921053511154402e+000	 8.558249673329282e+000
 9.321293435201170e-001	 2.930317369652563e+000	 8.509861025895923e+000
 9.034717084279045e-001	 2.939279481776909e+000	 8.471246196227071e+000
 8.747976165127258e-001	 2.947940659181365e+000	 8.444624579251022e+000
 8.461115106113193e-001	 2.956301796418897e+000	 8.432150500807097e+000
 1.141093599641968e+000	 2.882343733306045e+000	 8.822430549841460e+000
 1.112447524169733e+000	 2.893520434698208e+000	 8.758592791843913e+000
 1.083752531378863e+000	 2.904389858602606e+000	 8.692742612512493e+000
 1.055013329978906e+000	 2.914952293532121e+000	 8.627551891355880e+000
 1.026234601878231e+000	 2.925208119414423e+000	 8.565636021957520e+000
 9.974210000926342e-001	 2.935157806410852e+000	 8.509551254931608e+000
 9.685771467033342e-001	 2.944801913682086e+000	 8.461792199930185e+000
 9.397076308657241e-001	 2.954141088102729e+000	 8.424789488231117e+000
 9.108170068702257e-001	 2.963176062926975e+000	 8.400907596997689e+000
 8.819097922564428e-001	 2.971907656407568e+000	 8.392442835867463e+000
 8.529904659817370e-001	 2.980336770370254e+000	 8.401621496107852e+000
 1.150295967381827e+000	 2.905588440831705e+000	 8.772277168636579e+000
 1.121418875171983e+000	 2.916855276912609e+000	 8.702319834844143e+000
 1.092492471148978e+000	 2.927812357461445e+000	 8.633080988872095e+000
 1.063521501995824e+000	 2.938459973317808e+000	 8.567339174584664e+000
 1.034510687378216e+000	 2.948798507473302e+000	 8.507811709638386e+000
 1.005464717836273e+000	 2.958828433880891e+000	 8.457151974966029e+000
 9.763882527260590e-001	 2.968550316210615e+000	 8.417946871294889e+000
 9.472859182122877e-001	 2.977964806553808e+000	 8.392714444165449e+000
 9.181623053135277e-001	 2.987072644078004e+000	 8.383901678459587e+000
 8.890219680011547e-001	 2.995874653634759e+000	 8.393882462999642e+000
 8.598694213531549e-001	 3.004371744322613e+000	 8.424955725342796e+000
 1.159498335122191e+000	 2.928833148357375e+000	 8.771325904008451e+000
 1.130390226174833e+000	 2.940190119127211e+000	 8.695885794535172e+000
 1.101232410919777e+000	 2.951234856320653e+000	 8.623844574928263e+000
 1.072029674013502e+000	 2.961967653104012e+000	 8.558088076448442e+000
 1.042786772879025e+000	 2.972388895532827e+000	 8.501436174935932e+000
 1.013508435580789e+000	 2.982499061351686e+000	 8.456640025785838e+000
 9.841993587497061e-001	 2.992298718739987e+000	 8.426379473965572e+000
 9.548642055598070e-001	 3.001788525005797e+000	 8.413260640476880e+000
 9.255076037578098e-001	 3.010969225229992e+000	 8.419813686192100e+000
 8.961341437468618e-001	 3.019841650862941e+000	 8.448490753529951e+000
 8.667483767255724e-001	 3.028406718275971e+000	 8.501664085984226e+000
 1.168700702863060e+000	 2.952077855883055e+000	 8.819526045040858e+000
 1.139361577178282e+000	 2.963524961342014e+000	 8.739191318055328e+000
 1.109972350691261e+000	 2.974657355180230e+000	 8.664886789251741e+000
 1.080537846031938e+000	 2.985475332890735e+000	 8.599606216921613e+000
 1.051062858380658e+000	 2.995979283592999e+000	 8.546272684656321e+000
 1.021552153326183e+000	 3.006169688823234e+000	 8.507735780776187e+000
 9.920104647742748e-001	 3.016047121270203e+000	 8.486768960834306e+000
 9.624424929082825e-001	 3.025612243458701e+000	 8.486067094536375e+000
 9.328529022030730e-001	 3.034865806382944e+000	 8.508244197926917e+000
 9.032463194935642e-001	 3.043808648092115e+000	 8.555831351212779e+000
 8.736273320989901e-001	 3.052441692230329e+000	 8.631274802126368e+000
 1.177903070604434e+000	 2.975322563408745e+000	 8.916832316651794e+000
 1.148332928182332e+000	 2.986859803557016e+000	 8.832143790926768e+000
 1.118712290463430e+000	 2.998079854040177e+000	 8.756069051796132e+000
 1.089046018051134e+000	 3.008983012677976e+000	 8.691710440497658e+000
 1.059338943883114e+000	 3.019569671653818e+000	 8.642094913113571e+000
 1.029595871072454e+000	 3.029840316295539e+000	 8.610171163413549e+000
 9.998215707997656e-001	 3.039795523801263e+000	 8.598806936832407e+000
 9.700207802577143e-001	 3.049435961912515e+000	 8.610786536862879e+000
 9.401982006493166e-001	 3.058762387536855e+000	 8.648808524636371e+000
 9.103584952412615e-001	 3.067775645322277e+000	 8.715483611968796e+000
 8.805062874734078e-001	 3.076476666185687e+000	 8.813332747664440e+000
 1.187105438346313e+000	 2.998567270934446e+000	 9.063204668902102e+000
 1.157304279186982e+000	 3.010194645772219e+000	 8.974657075877868e+000
 1.127452230236283e+000	 3.021502352900493e+000	 8.897260473766796e+000
 1.097554190071088e+000	 3.032490692465735e+000	 8.834226458649669e+000
 1.067615029386393e+000	 3.043160059715283e+000	 8.788686538737672e+000
 1.037639588819603e+000	 3.053510943768599e+000	 8.763689199587883e+000
 1.007632676826178e+000	 3.063543926333166e+000	 8.762197168541515e+000
 9.775990676081021e-001	 3.073259680367242e+000	 8.787084879605999e+000
 9.475434990965406e-001	 3.082658968691728e+000	 8.841136139477205e+000
 9.174706709899542e-001	 3.091742642553431e+000	 8.927041994885981e+000
 8.873852428488256e-001	 3.100511640142046e+000	 9.047398800953390e+000
 1.196307806088698e+000	 3.021811978460158e+000	 9.258608076028553e+000
 1.166275630192232e+000	 3.033529487987621e+000	 9.166651263719897e+000
 1.136192170009821e+000	 3.044924851761178e+000	 9.088337561803469e+000
 1.106062362091802e+000	 3.055998372254013e+000	 9.026988508792668e+000
 1.075891114890496e+000	 3.066750447777396e+000	 8.985840859300987e+000
 1.045683306567630e+000	 3.077181571242415e+000	 8.968043590586671e+000
 1.015443782853513e+000	 3.087292328865915e+000	 8.976655116437669e+000
 9.851773549594465e-001	 3.097083398822883e+000	 9.014640709560176e+000
 9.548887975447457e-001	 3.106555549847563e+000	 9.084870133091384e+000
 9.245828467396422e-001	 3.115709639785575e+000	 9.190115481328723e+000
 8.942641982252435e-001	 3.124546614099404e+000	 9.333049229251859e+000
 8.254746445060665e-001	 2.884196874570822e+000	 8.852083003913430e+000
 7.974807741809102e-001	 2.892062311710120e+000	 8.830641746992315e+000
 7.694837330099383e-001	 2.899637009115428e+000	 8.796580975218499e+000
 7.414877333616478e-001	 2.906922073477395e+000	 8.752193915126952e+000
 7.134969437225316e-001	 2.913918686458521e+000	 8.699725903243614e+000
 6.855154872010129e-001	 2.920628103131092e+000	 8.641372596392822e+000
 6.575474400885762e-001	 2.927051650385220e+000	 8.579278314977646e+000
 6.295968304785271e-001	 2.933190725309185e+000	 8.515534518595993e+000
 6.016676369427254e-001	 2.939046793544277e+000	 8.445401538320724e+000
 5.737637872665514e-001	 2.944621387616330e+000	 8.464572677441069e+000
 5.458891572422751e-001	 2.949916105246086e+000	 8.593012985673495e+000
 8.323535998734841e-001	 2.908231848519181e+000	 8.656845551086500e+000
 8.041264472955336e-001	 2.916162830967627e+000	 8.661424937989862e+000
 7.758960974481322e-001	 2.923800650851029e+000	 8.644984664973014e+000
 7.476667978028474e-001	 2.931146424082455e+000	 8.609795645888601e+000
 7.194427515835592e-001	 2.938201342171590e+000	 8.558088173837836e+000
 6.912281162579265e-001	 2.944966670649659e+000	 8.492050010161970e+000
 6.630270020865289e-001	 2.951443747464190e+000	 8.413824600902675e+000
 6.348434707301159e-001	 2.957633981345864e+000	 8.325509420403916e+000
 6.066815339153117e-001	 2.963538850149649e+000	 8.215335855222918e+000
 5.785451521590409e-001	 2.969159899172426e+000	 8.184077576688408e+000
 5.504382335518416e-001	 2.974498739449277e+000	 8.269117610201286e+000
 8.392325552419019e-001	 2.932266822468538e+000	 8.517049878697916e+000
 8.107721204111463e-001	 2.940263350226134e+000	 8.542607114654990e+000
 7.823084618872848e-001	 2.947964292587630e+000	 8.538906242363447e+000
 7.538458622449540e-001	 2.955370774688512e+000	 8.508197100189728e+000
 7.253885594454216e-001	 2.962483997885659e+000	 8.452696049378277e+000
 6.969407453155827e-001	 2.969305238169226e+000	 8.374583942566542e+000
 6.685065640851122e-001	 2.975835844544160e+000	 8.276004214405440e+000
 6.400901109822031e-001	 2.982077237383543e+000	 8.159061094265896e+000
 6.116954308882447e-001	 2.988030906756019e+000	 8.007966735850451e+000
 5.833265170517062e-001	 2.993698410729522e+000	 7.916472765632436e+000
 5.549873098613937e-001	 2.999081373653468e+000	 7.948939441329916e+000
 8.461115106113193e-001	 2.956301796418897e+000	 8.432150500807097e+000
 8.174177935277489e-001	 2.964363869485642e+000	 8.473735388597728e+000
 7.887208263273956e-001	 2.972127934325231e+000	 8.477981953825266e+000
 7.600249266879676e-001	 2.979595125295572e+000	 8.447120188229592e+000
 7.313343673081191e-001	 2.986766653600728e+000	 8.383353626453690e+000
 7.026533743739817e-001	 2.993643805689793e+000	 8.288857194893732e+000
 6.739861260843261e-001	 3.000227941625130e+000	 8.165775177432563e+000
 6.453367512347888e-001	 3.006520493422221e+000	 8.016219298339223e+000
 6.167093278615247e-001	 3.012522963363392e+000	 7.825249522699243e+000
 5.881078819445469e-001	 3.018236922287618e+000	 7.663632674698386e+000
 5.595363861709308e-001	 3.023664007858659e+000	 7.634274050495451e+000
 8.529904659817370e-001	 2.980336770370254e+000	 8.401621496107852e+000
 8.240634666453410e-001	 2.988464388746150e+000	 8.454373280723891e+000
 7.951331907684651e-001	 2.996291576063831e+000	 8.461861417952060e+000
 7.662039911318878e-001	 3.003819475903630e+000	 8.426297273821220e+000
 7.372801751716512e-001	 3.011049309316797e+000	 8.349872655632414e+000
 7.083660034331233e-001	 3.017982373211360e+000	 8.234757541930591e+000
 6.794656880841703e-001	 3.024620038707100e+000	 8.083097924276038e+000
 6.505833914878733e-001	 3.030963749461901e+000	 7.897013761396641e+000
 6.217232248351515e-001	 3.037015019971764e+000	 7.669137206604724e+000
 5.928892468375637e-001	 3.042775433846714e+000	 7.427427179785116e+000
 5.640854624804536e-001	 3.048246642064849e+000	 7.326910371044161e+000
 8.598694213531549e-001	 3.004371744322613e+000	 8.424955725342796e+000
 8.307091397639229e-001	 3.012564908007657e+000	 8.484100064862975e+000
 8.015455552104932e-001	 3.020455217803432e+000	 8.490207090608951e+000
 7.723830555767151e-001	 3.028043826512689e+000	 8.445470756246406e+000
 7.432259830360183e-001	 3.035331965033867e+000	 8.352072235303151e+000
 7.140786324930076e-001	 3.042320940733928e+000	 8.212177533024162e+000
 6.849452500846452e-001	 3.049012135790070e+000	 8.027935205079677e+000
 6.558300317414558e-001	 3.055407005502579e+000	 7.801474184002024e+000
 6.267371218091252e-001	 3.061507076581135e+000	 7.534901713923482e+000
 5.976706117307562e-001	 3.067313945406811e+000	 7.209721784446132e+000
 5.686345387899615e-001	 3.072829276272041e+000	 7.028630963756097e+000
 8.667483767255724e-001	 3.028406718275971e+000	 8.501664085984226e+000
 8.373548128834940e-001	 3.036665427270165e+000	 8.562510142652261e+000
 8.079579196534796e-001	 3.044618859544032e+000	 8.562693755517415e+000
 7.785621200224494e-001	 3.052268177122748e+000	 8.504392672023174e+000
 7.491717909012202e-001	 3.059614620751936e+000	 8.389778520094895e+000
 7.197912615536347e-001	 3.066659508257495e+000	 8.221014302614719e+000
 6.904248120857505e-001	 3.073404232874039e+000	 8.000251993940132e+000
 6.610766719955372e-001	 3.079850261544258e+000	 7.729630239629449e+000
 6.317510187834454e-001	 3.085999133191507e+000	 7.411272160237632e+000
 6.024519766241242e-001	 3.091852456967906e+000	 7.012377793395574e+000
 5.731836150994546e-001	 3.097411910480231e+000	 6.741212269724788e+000
 8.736273320989901e-001	 3.052441692230329e+000	 8.631274802126368e+000
 8.440004860040550e-001	 3.060765946533674e+000	 8.689212447953844e+000
 8.143702840974244e-001	 3.068782501285632e+000	 8.679008038906275e+000
 7.847411844690904e-001	 3.076492527733806e+000	 8.602824315486796e+000
 7.551175987672572e-001	 3.083897276471005e+000	 8.462824443071940e+000
 7.255038906150046e-001	 3.090998075782062e+000	 8.261169389720296e+000
 6.959043740874865e-001	 3.097796329959009e+000	 8.000015401349518e+000
 6.663233122501171e-001	 3.104293517586938e+000	 7.681511575729959e+000
 6.367649157581130e-001	 3.110491189802879e+000	 7.307797536442783e+000
 6.072333415176682e-001	 3.116390968530002e+000	 6.837252477816413e+000
 5.777326914089334e-001	 3.121994544689422e+000	 6.466424851289520e+000
 8.805062874734078e-001	 3.076476666185687e+000	 8.813332747664440e+000
 8.506461591256057e-001	 3.084866465798181e+000	 8.863829879189694e+000
 8.207826485423281e-001	 3.092946143028234e+000	 8.838847946913930e+000
 7.909202489166383e-001	 3.100716878345866e+000	 8.740535877156411e+000
 7.610634066341288e-001	 3.108179932191074e+000	 8.571049450951556e+000
 7.312165196771172e-001	 3.115336643307630e+000	 8.332548565882858e+000
 7.013839360898529e-001	 3.122188427044979e+000	 8.027194590742809e+000
 6.715699525051954e-001	 3.128736773630617e+000	 7.867355157515010e+000
 6.417788127331272e-001	 3.134983246415251e+000	 7.815641556324192e+000
 6.120147064113878e-001	 3.140929480093099e+000	 7.673511128464779e+000
 5.822817677183971e-001	 3.146577178899613e+000	 7.579115586201017e+000
 8.873852428488256e-001	 3.100511640142046e+000	 9.047398800953390e+000
 8.572918322481457e-001	 3.108966985063688e+000	 9.085998758079409e+000
 8.271950129881900e-001	 3.117109784771833e+000	 9.041922424506721e+000
 7.970993133650929e-001	 3.124941228958924e+000	 8.917306098921753e+000
 7.670092145018357e-001	 3.132462587912143e+000	 9.058188273273899e+000
 7.369291487399725e-001	 3.139675210834196e+000	 9.158173503564768e+000
 7.068634980928500e-001	 3.146580524131949e+000	 9.212502075012578e+000
 6.768165927607722e-001	 3.153180029675296e+000	 9.219085930143477e+000
 6.467927097084881e-001	 3.159475303028622e+000	 9.175991306733721e+000
 6.167960713052829e-001	 3.165467991657194e+000	 9.042096952429448e+000
 5.868308440278466e-001	 3.171159813110805e+000	 8.880183681097417e+000
 8.942641982252435e-001	 3.124546614099404e+000	 9.333049229251859e+000
 8.639375053716756e-001	 3.133067504330197e+000	 9.638435792457058e+000
 8.336073774350107e-001	 3.141273426516435e+000	 9.914889177685712e+000
 8.032783778144549e-001	 3.149165579572983e+000	 1.014526426376358e+001
 7.729550223703774e-001	 3.156745243634214e+000	 1.032689998144848e+001
 7.426417778035707e-001	 3.164013778361765e+000	 1.045730193799846e+001
 7.123430600964776e-001	 3.170972621219920e+000	 1.053414197394059e+001
 6.820632330168476e-001	 3.177623285720976e+000	 1.055525744261240e+001
 6.518066066841962e-001	 3.183967359642995e+000	 1.051865022149258e+001
 6.215774361993540e-001	 3.190006503222291e+000	 1.040249928535303e+001
 5.913799203372813e-001	 3.195742447322996e+000	 1.017591195120354e+001
 5.458891572422751e-001	 2.949916105246086e+000	 8.593012985673495e+000
 5.180475695206517e-001	 2.954932607640603e+000	 8.772470550720220e+000
 4.902427925216797e-001	 2.959672617767659e+000	 8.870460190495402e+000
 4.624785394036050e-001	 2.964137918615402e+000	 8.896208621342151e+000
 4.347584670896675e-001	 2.968330351439361e+000	 8.857985404763147e+000
 4.070861753532337e-001	 2.972251813998719e+000	 8.763110897255782e+000
 3.794652059606907e-001	 2.975904258783907e+000	 8.617966073724116e+000
 3.518990418717319e-001	 2.979289691237467e+000	 8.428004144559141e+000
 3.243911064965978e-001	 2.982410167970138e+000	 8.197763884234155e+000
 2.969447630097779e-001	 2.985267794974027e+000	 7.930884587356760e+000
 2.695633137196015e-001	 2.987864725834731e+000	 7.630122566539735e+000
 5.504382335518416e-001	 2.974498739449277e+000	 8.269117610201286e+000
 5.223646325997995e-001	 2.979557046030643e+000	 8.397375263216919e+000
 4.943281491263213e-001	 2.984336556242365e+000	 8.464568037197759e+000
 4.663325272326387e-001	 2.988839067930820e+000	 8.480150304116785e+000
 4.383814543163538e-001	 2.993066437695334e+000	 8.452580516131581e+000
 4.104785601489446e-001	 2.997020579109751e+000	 8.389329620879741e+000
 3.826274160115197e-001	 3.000703460935255e+000	 8.296891408315551e+000
 3.548315338884371e-001	 3.004117105326406e+000	 8.180794706508900e+000
 3.270943657183573e-001	 3.007263586032367e+000	 8.045617341525345e+000
 2.994193027022248e-001	 3.010145026595181e+000	 7.895001774554935e+000
 2.718096746676061e-001	 3.012763598546989e+000	 7.731672327839548e+000
 5.549873098613937e-001	 2.999081373653468e+000	 7.948939441329916e+000
 5.266816956787482e-001	 3.004181484421681e+000	 8.020495289241335e+000
 4.984135057306106e-001	 3.009000494718050e+000	 8.051818489800587e+000
 4.701865150611981e-001	 3.013540217247192e+000	 8.052597191444411e+000
 4.420044415424734e-001	 3.017802523952225e+000	 8.031484127709547e+000
 4.138709449440277e-001	 3.021789344221657e+000	 7.996105505211076e+000
 3.857896260616890e-001	 3.025502663087416e+000	 7.953071882199532e+000
 3.577640259044809e-001	 3.028944519416094e+000	 7.907990952397271e+000
 3.297976249394828e-001	 3.032117004095270e+000	 7.865482146461949e+000
 3.018938423940943e-001	 3.035022258216922e+000	 7.829192961418295e+000
 2.740560356151188e-001	 3.037662471259737e+000	 7.801816926748859e+000
 5.595363861709308e-001	 3.023664007858659e+000	 7.634274050495451e+000
 5.309987587574980e-001	 3.028805922813711e+000	 7.643475555613287e+000
 5.024988623345476e-001	 3.033664433194716e+000	 7.633713350370522e+000
 4.740405028892825e-001	 3.038241366564517e+000	 7.614915536996427e+000
 4.456274287680266e-001	 3.042538610210034e+000	 7.595934569242552e+000
 4.172633297384822e-001	 3.046558109334430e+000	 7.584556620366833e+000
 3.889518361111983e-001	 3.050301865240394e+000	 7.587513001813212e+000
 3.606965179198629e-001	 3.053771933506530e+000	 7.610493544525586e+000
 3.325008841599741e-001	 3.056970422158845e+000	 7.658161852419022e+000
 3.043683820853866e-001	 3.059899489839250e+000	 7.734172335478760e+000
 2.763023965621398e-001	 3.062561343972977e+000	 7.841188928267081e+000
 5.640854624804536e-001	 3.048246642064849e+000	 7.326910371044161e+000
 5.353158218360488e-001	 3.053430361206738e+000	 7.267954771328378e+000
 5.065842189381322e-001	 3.058328371672358e+000	 7.211748571388354e+000
 4.778944907168923e-001	 3.062942515882795e+000	 7.168466061382314e+000
 4.492504159930130e-001	 3.067274696468759e+000	 7.147164902564360e+000
 4.206557145323085e-001	 3.071326874448076e+000	 7.155795982691688e+000
 3.921140461600480e-001	 3.075101067394186e+000	 7.201215383338924e+000
 3.636290099345831e-001	 3.078599347597715e+000	 7.289198368245312e+000
 3.352041433798315e-001	 3.081823840223094e+000	 7.424455299346794e+000
 3.068429217761015e-001	 3.084776721462165e+000	 7.610649385043125e+000
 2.785487575086692e-001	 3.087460216686710e+000	 7.850416163517449e+000
 5.686345387899615e-001	 3.072829276272041e+000	 7.028630963756097e+000
 5.396328849144008e-001	 3.078054799600758e+000	 6.895565676271185e+000
 5.106695755413646e-001	 3.082992310150981e+000	 6.787414489731543e+000
 4.817484785440273e-001	 3.087643665202026e+000	 6.714604173471813e+000
 4.528734032174329e-001	 3.092010782728402e+000	 6.686403132313020e+000
 4.240480993255067e-001	 3.096095639562592e+000	 6.710931756909329e+000
 3.952762562082376e-001	 3.099900269548792e+000	 6.795174948314479e+000
 3.665615019486416e-001	 3.103426761689649e+000	 6.944996723035956e+000
 3.379074025990547e-001	 3.106677258288014e+000	 7.165156802308012e+000
 3.093174614662391e-001	 3.109653953085666e+000	 7.459329087162215e+000
 2.807951184547069e-001	 3.112359089400934e+000	 7.830121919102307e+000
 5.731836150994546e-001	 3.097411910480231e+000	 6.741212269724788e+000
 5.439499479925536e-001	 3.102679237995774e+000	 6.527935278084738e+000
 5.147549321442447e-001	 3.107656248630582e+000	 6.362196049516617e+000
 4.856024663706874e-001	 3.112344814522210e+000	 6.254680181178619e+000
 4.564963904412860e-001	 3.116746868988962e+000	 6.214872406613756e+000
 4.274404841180766e-001	 3.120864404677980e+000	 6.251067448646885e+000
 3.984384662557676e-001	 3.124699471704213e+000	 6.370383109928155e+000
 3.694939939620384e-001	 3.128254175782330e+000	 6.697887058598155e+000
 3.406106618176438e-001	 3.131530676353607e+000	 7.061299201184030e+000
 3.117920011557994e-001	 3.134531184709755e+000	 7.446351378682054e+000
 2.830414794002528e-001	 3.137257962115649e+000	 7.853079288084331e+000
 5.777326914089334e-001	 3.121994544689422e+000	 6.466424851289520e+000
 5.482670110705072e-001	 3.127303676391783e+000	 6.314348174789951e+000
 5.188402887467726e-001	 3.132320187111164e+000	 6.397925734538005e+000
 4.894564541968731e-001	 3.137045963843348e+000	 6.517352400737615e+000
 4.601193776645727e-001	 3.141482955250438e+000	 6.666299345447862e+000
 4.308328689100183e-001	 3.145633169794238e+000	 6.839533240815801e+000
 4.016006763026376e-001	 3.149498673860448e+000	 7.032900885331609e+000
 3.724264859747737e-001	 3.153081589875761e+000	 7.243311933509671e+000
 3.433139210355988e-001	 3.156384094419873e+000	 7.468719823471991e+000
 3.142665408447822e-001	 3.159408416334431e+000	 7.708100998706048e+000
 2.852878403453070e-001	 3.162156834830856e+000	 7.961432521706454e+000
 5.822817677183971e-001	 3.146577178899613e+000	 7.579115586201017e+000
 5.525840741482619e-001	 3.151928114788789e+000	 7.535843266583283e+000
 5.229256453489481e-001	 3.156984125592723e+000	 7.528944092628981e+000
 4.933104420225839e-001	 3.161747113165438e+000	 7.550711646456136e+000
 4.637423648872925e-001	 3.166219041512832e+000	 7.594579454658545e+000
 4.342252537013316e-001	 3.170401934911366e+000	 7.655107321768863e+000
 4.047628863488477e-001	 3.174297876017497e+000	 7.727965621316207e+000
 3.753589779868471e-001	 3.177909003969940e+000	 7.809917639074986e+000
 3.460171802529196e-001	 3.181237512486811e+000	 7.898800065323528e+000
 3.167410805331877e-001	 3.184285647959694e+000	 7.993501734776033e+000
 2.875342012898696e-001	 3.187055707546556e+000	 8.093940714331541e+000
 5.868308440278466e-001	 3.171159813110805e+000	 8.880183681097417e+000
 5.569011372258178e-001	 3.176552553186789e+000	 8.758288548883902e+000
 5.270110019507714e-001	 3.181648064075263e+000	 8.665383021494163e+000
 4.971644298478201e-001	 3.186448262488483e+000	 8.593486781961731e+000
 4.673653521094459e-001	 3.190955127776143e+000	 8.535791231142985e+000
 4.376176384920170e-001	 3.195170700029367e+000	 8.486645531952997e+000
 4.079250963943982e-001	 3.199097078175363e+000	 8.441540556660085e+000
 3.782914699982589e-001	 3.202736418064867e+000	 8.397090834161293e+000
 3.487204394696065e-001	 3.206090930554421e+000	 8.351014596442845e+000
 3.192156202210159e-001	 3.209162879585544e+000	 8.302112025328366e+000
 2.897805622339404e-001	 3.211954580262747e+000	 8.250241802140826e+000
 5.913799203372813e-001	 3.195742447322996e+000	 1.017591195120354e+001
 5.612182003031748e-001	 3.201176991585784e+000	 9.980450990124595e+000
 5.310963585522425e-001	 3.206312002558782e+000	 9.806122309704437e+000
 5.010184176725815e-001	 3.211149411812481e+000	 9.644666429535604e+000
 4.709883393310327e-001	 3.215691214040372e+000	 9.489028080338217e+000
 4.410100232820740e-001	 3.219939465148238e+000	 9.333341951379600e+000
 4.110873064392889e-001	 3.223896280334044e+000	 9.172916285386840e+000
 3.812239620090090e-001	 3.227563832160544e+000	 9.004214420243688e+000
 3.514236986856592e-001	 3.230944348622705e+000	 8.824834379108728e+000
 3.216901599082669e-001	 3.234040111211981e+000	 8.633486612542992e+000
 2.920269231775196e-001	 3.236853452979430e+000	 8.429969997803278e+000
 2.695633137196015e-001	 2.987864725834731e+000	 7.630122566539735e+000
 2.422499994928616e-001	 2.990203159944074e+000	 7.322893023598873e+000
 2.150079992345209e-001	 2.992285340715546e+000	 7.005965871865631e+000
 1.878404294212756e-001	 2.994113553803930e+000	 6.678857299971187e+000
 1.607503436877059e-001	 2.995690125330548e+000	 6.340276314256886e+000
 1.337407324649106e-001	 2.997017420116060e+000	 5.988148378061123e+000
 1.068145226705124e-001	 2.998097839922249e+000	 5.619640047963348e+000
 7.997457744910133e-002	 2.998933821704276e+000	 5.231184518153890e+000
 5.322369596216075e-002	 2.999527835874867e+000	 4.818507984864486e+000
 2.656461322647793e-002	 2.999882384581794e+000	 4.376656743800578e+000
 0.000000000000000e+000	 3.000000000000000e+000	 3.900024934741292e+000
 2.718096746676061e-001	 3.012763598546989e+000	 7.731672327839548e+000
 2.442687494886068e-001	 3.015121519607826e+000	 7.565477094059501e+000
 2.167997325611536e-001	 3.017221051886249e+000	 7.404492335796821e+000
 1.894057663325807e-001	 3.019064500084158e+000	 7.248249837503267e+000
 1.620899298844222e-001	 3.020654209707225e+000	 7.095444389817630e+000
 1.348552385680359e-001	 3.021992565282949e+000	 6.943958165520812e+000
 1.077046436920234e-001	 3.023081988587792e+000	 6.790886124773361e+000
 8.064103226051250e-002	 3.023924936884879e+000	 6.632562358169648e+000
 5.366722676133132e-002	 3.024523901173706e+000	 6.464587276932353e+000
 2.678598500307297e-002	 3.024881404453279e+000	 6.281855560599779e+000
 0.000000000000000e+000	 3.025000000000000e+000	 6.078584773819435e+000
 2.740560356151188e-001	 3.037662471259737e+000	 7.801816926748859e+000
 2.462874994839552e-001	 3.040039879271976e+000	 7.778433768391922e+000
 2.185914658874736e-001	 3.042156763057263e+000	 7.775719720680796e+000
 1.909711032436471e-001	 3.044015446364626e+000	 7.793219379971471e+000
 1.634295160809640e-001	 3.045618294084078e+000	 7.829609904536312e+000
 1.359697446710402e-001	 3.046967710449958e+000	 7.882726144869896e+000
 1.085947647134573e-001	 3.048066137253413e+000	 7.949586836151084e+000
 8.130748707188042e-002	 3.048916052065525e+000	 8.026421758712456e+000
 5.411075756048274e-002	 3.049519966472564e+000	 8.108699773175585e+000
 2.700735677966324e-002	 3.049880424324769e+000	 8.191157637967718e+000
 0.000000000000000e+000	 3.050000000000000e+000	 8.267829518227654e+000
 2.763023965621398e-001	 3.062561343972977e+000	 7.841188928267081e+000
 2.483062494789065e-001	 3.064958238936522e+000	 7.962253476244888e+000
 2.203831992134811e-001	 3.067092474228589e+000	 8.120001800021340e+000
 1.925364401544751e-001	 3.068966392645331e+000	 8.313988552116614e+000
 1.647691022773311e-001	 3.070582378461104e+000	 8.542869863384624e+000
 1.370842507739238e-001	 3.071942855617088e+000	 8.804429245485519e+000
 1.094848857348142e-001	 3.073050285919111e+000	 9.095604588944864e+000
 8.197394188320514e-002	 3.073907167246214e+000	 9.412516159913686e+000
 5.455428835961503e-002	 3.074516031771442e+000	 9.750495499573514e+000
 2.722872855624875e-002	 3.074879444196264e+000	 1.010411513121227e+001
 0.000000000000000e+000	 3.075000000000000e+000	 1.046721898132371e+001
 2.785487575086692e-001	 3.087460216686710e+000	 7.850416163517449e+000
 2.503249994734609e-001	 3.089876598601465e+000	 8.117424031960018e+000
 2.221749325391760e-001	 3.092028185400229e+000	 8.437691875072121e+000
 1.941017770650646e-001	 3.093917338926275e+000	 8.810781672896178e+000
 1.661086884735236e-001	 3.095546462838306e+000	 9.235325154352781e+000
 1.381987568766865e-001	 3.096918000784339e+000	 9.709050489830798e+000
 1.103750067560940e-001	 3.098034434584885e+000	 1.022881011335655e+001
 8.264039669448670e-002	 3.098898282426946e+000	 1.079060957466809e+001
 5.499781915872820e-002	 3.099512097070338e+000	 1.138963732237014e+001
 2.745010033282948e-002	 3.099878464067764e+000	 1.202029532045560e+001
 0.000000000000000e+000	 3.100000000000000e+000	 1.267623040184111e+001
 2.807951184547069e-001	 3.112359089400934e+000	 7.830121919102307e+000
 2.523437494676183e-001	 3.114794958266807e+000	 8.244430739183880e+000
 2.239666658645582e-001	 3.116963896572182e+000	 8.729142793726942e+000
 1.956671139754155e-001	 3.118868285207458e+000	 9.283824687716125e+000
 1.674482746695415e-001	 3.120510547215681e+000	 9.907080393129013e+000
 1.393132629793283e-001	 3.121893145951711e+000	 1.059657874973069e+001
 1.112651277772967e-001	 3.123018583250737e+000	 1.134908213000708e+001
 8.330685150572503e-002	 3.123889397607721e+000	 1.216047616572408e+001
 5.544134995782223e-002	 3.124508162369253e+000	 1.302580043446488e+001
 2.767147210940546e-002	 3.124877483939268e+000	 1.393928000564195e+001
 0.000000000000000e+000	 3.125000000000000e+000	 1.489435774687374e+001
 2.830414794002528e-001	 3.137257962115649e+000	 7.853079288084331e+000
 2.543624994613788e-001	 3.139713317932543e+000	 8.243628028355063e+000
 2.257583991896280e-001	 3.141899607744446e+000	 8.644763952864704e+000
 1.972324508855279e-001	 3.143819231488879e+000	 9.059450847223895e+000
 1.687878608653847e-001	 3.145474631593233e+000	 9.491531959705840e+000
 1.404277690818493e-001	 3.146868291119204e+000	 9.945701437033877e+000
 1.121552487984223e-001	 3.148002731916666e+000	 1.042747477740006e+001
 8.397330631692018e-002	 3.148880512788539e+000	 1.094315839735065e+001
 5.588488075689713e-002	 3.149504227668189e+000	 1.149981840814001e+001
 2.789284388597667e-002	 3.149876503810777e+000	 1.210524869587577e+001
 0.000000000000000e+000	 3.150000000000000e+000	 1.276793839827124e+001
 2.852878403453070e-001	 3.162156834830856e+000	 7.961432521706454e+000
 2.563812494547424e-001	 3.164631677598678e+000	 8.189135756561779e+000
 2.275501325143851e-001	 3.166835318917024e+000	 8.414090084464945e+000
 1.987977877954018e-001	 3.168770177770539e+000	 8.639417767802556e+000
 1.701274470610533e-001	 3.170438715970958e+000	 8.869147980138743e+000
 1.415422751842495e-001	 3.171843436286817e+000	 9.108187376163448e+000
 1.130453698194709e-001	 3.172986880582671e+000	 9.362289652702286e+000
 8.463976112807213e-002	 3.173871627969401e+000	 9.638024200058801e+000
 5.632841155595290e-002	 3.174500292967142e+000	 9.942743941893641e+000
 2.811421566254312e-002	 3.174875523682292e+000	 1.028455246053455e+001
 0.000000000000000e+000	 3.175000000000000e+000	 1.067227050305984e+001
 2.875342012898696e-001	 3.187055707546556e+000	 8.093940714331541e+000
 2.583999994477090e-001	 3.189550037265209e+000	 8.161234941831749e+000
 2.293418658388295e-001	 3.191771030089913e+000	 8.212037196094080e+000
 2.003631247050372e-001	 3.193721124052436e+000	 8.249627949553052e+000
 1.714670332565472e-001	 3.195402800348858e+000	 8.278222611970069e+000
 1.426567812865288e-001	 3.196818581454552e+000	 8.302941220668734e+000
 1.139354908404424e-001	 3.197971029248754e+000	 8.329777095094862e+000
 8.530621593918086e-002	 3.198862743150305e+000	 8.365564557650785e+000
 5.677194235498956e-002	 3.199496358266116e+000	 8.417945821664407e+000
 2.833558743910480e-002	 3.199874543553810e+000	 8.495337145997633e+000
 0.000000000000000e+000	 3.199999999999999e+000	 8.606894354204288e+000
 2.897805622339404e-001	 3.211954580262747e+000	 8.250241802140826e+000
 2.604187494402786e-001	 3.214468396932137e+000	 8.159582443993086e+000
 2.311335991629615e-001	 3.216706741263115e+000	 8.038274910266992e+000
 2.019284616144341e-001	 3.218672070334574e+000	 7.889757645615888e+000
 1.728066194518666e-001	 3.220366884726932e+000	 7.718432641472239e+000
 1.437712873886872e-001	 3.221793726622408e+000	 7.529634232539542e+000
 1.148256118613368e-001	 3.222955177914914e+000	 7.329596830300037e+000
 8.597267075024639e-002	 3.223853858331254e+000	 7.125421698216377e+000
 5.721547315400705e-002	 3.224492423565107e+000	 6.925042872183521e+000
 2.855695921566170e-002	 3.224873563425334e+000	 6.737192328394349e+000
 0.000000000000000e+000	 3.224999999999999e+000	 6.571364499150502e+000
 2.920269231775196e-001	 3.236853452979430e+000	 8.429969997803278e+000
 2.624374994324514e-001	 3.239386756599464e+000	 8.183833065758657e+000
 2.329253324867810e-001	 3.241642452436632e+000	 7.892472478042459e+000
 2.034937985235925e-001	 3.243623016616949e+000	 7.559484441747910e+000
 1.741462056470113e-001	 3.245330969105182e+000	 7.189457909173776e+000
 1.448857934907249e-001	 3.246768871790385e+000	 6.787942466387605e+000
 1.157157328821542e-001	 3.247939326581152e+000	 6.361415130918942e+000
 8.663912556126877e-002	 3.248844973512246e+000	 5.917246166037650e+000
 5.765900395300546e-002	 3.249488488864120e+000	 5.463664017915188e+000
 2.877833099221386e-002	 3.249872583296864e+000	 5.009719480540076e+000
 0.000000000000000e+000	 3.250000000000000e+000	 4.565249191576865e+000
 3.250000000000000e+000	 0.000000000000000e+000	 1.077353198369927e+001
 3.249872583296864e+000	 2.877833099221397e-002	 1.073286148288412e+001
 3.249488488864120e+000	 5.765900395300565e-002	 1.068406436695846e+001
 3.248844973512246e+000	 8.663912556126854e-002	 1.062869449971340e+001
 3.247939326581152e+000	 1.157157328821541e-001	 1.056832836586661e+001
 3.246768871790384e+000	 1.448857934907248e-001	 1.050457150363860e+001
 3.245330969105183e+000	 1.741462056470114e-001	 1.043906526956509e+001
 3.243623016616949e+000	 2.034937985235927e-001	 1.037349392986762e+001
 3.241642452436632e+000	 2.329253324867808e-001	 1.030959207137190e+001
 3.239386756599463e+000	 2.624374994324513e-001	 1.024915232359273e+001
 3.236853452979430e+000	 2.920269231775197e-001	 1.019403338219657e+001
 3.275000000000000e+000	 0.000000000000000e+000	 1.073470241437639e+001
 3.274871603168394e+000	 2.899970276876611e-002	 1.069826435975000e+001
 3.274484554163141e+000	 5.810253475200403e-002	 1.065597930374367e+001
 3.273836088693259e+000	 8.730558037229089e-002	 1.060910565740964e+001
 3.272923475247428e+000	 1.166058539029715e-001	 1.055891681977555e+001
 3.271744016958421e+000	 1.460002995927624e-001	 1.050670788998033e+001
 3.270295053483519e+000	 1.754857918421561e-001	 1.045380273225458e+001
 3.268573962899444e+000	 2.050591354327511e-001	 1.040156138810911e+001
 3.266578163610304e+000	 2.347170658106001e-001	 1.035138782871156e+001
 3.264305116266987e+000	 2.644562494246239e-001	 1.030473803900955e+001
 3.261752325696358e+000	 2.942732841210988e-001	 1.026312842369843e+001
 3.300000000000000e+000	 0.000000000000000e+000	 1.070844604903182e+001
 3.299870623039924e+000	 2.922107454532303e-002	 1.067463511063576e+001
 3.299480619462162e+000	 5.854606555102154e-002	 1.063724733893979e+001
 3.298827203874272e+000	 8.797203518335642e-002	 1.059724287440233e+001
 3.297907623913702e+000	 1.174959749238659e-001	 1.055558915802295e+001
 3.296719162126458e+000	 1.471148056949209e-001	 1.051326792717310e+001
 3.295259137861856e+000	 1.768253780374754e-001	 1.047128258512192e+001
 3.293524909181938e+000	 2.066244723421480e-001	 1.043066593865910e+001
 3.291513874783975e+000	 2.365087991347321e-001	 1.039248829678481e+001
 3.289223475934511e+000	 2.664749994171936e-001	 1.035786592196170e+001
 3.286651198413287e+000	 2.965196450651695e-001	 1.032796982391004e+001
 3.324999999999999e+000	 0.000000000000000e+000	 1.069301657654268e+001
 3.324869642911456e+000	 2.944244632188471e-002	 1.066046934122965e+001
 3.324476684761182e+000	 5.898959635005818e-002	 1.062660717017222e+001
 3.323818319055285e+000	 8.863848999446515e-002	 1.059208901116338e+001
 3.322891772579979e+000	 1.183860959448374e-001	 1.055757336818225e+001
 3.321694307294494e+000	 1.482293117972002e-001	 1.052372558510958e+001
 3.320223222240192e+000	 1.781649642329694e-001	 1.049122552423439e+001
 3.318475855464432e+000	 2.081898092517834e-001	 1.046077563399150e+001
 3.316449585957646e+000	 2.383005324591765e-001	 1.043310939888761e+001
 3.314141835602035e+000	 2.684937494101602e-001	 1.040900016304481e+001
 3.311550071130215e+000	 2.987660060097320e-001	 1.038927031722285e+001
 3.350000000000000e+000	 0.000000000000000e+000	 1.068671981447622e+001
 3.349868662782986e+000	 2.966381809845116e-002	 1.065431073169273e+001
 3.349472750060204e+000	 5.943312714911397e-002	 1.062284149151089e+001
 3.348809434236297e+000	 8.930494480561710e-002	 1.059266682404802e+001
 3.347875921246254e+000	 1.192762169658859e-001	 1.056413321192800e+001
 3.346669452462531e+000	 1.493438178996003e-001	 1.053758646612520e+001
 3.345187306618529e+000	 1.795045504286380e-001	 1.051337971794589e+001
 3.343426801746927e+000	 2.097551461616573e-001	 1.049188182162387e+001
 3.341385297131318e+000	 2.400922657839337e-001	 1.047348616047271e+001
 3.339060195269558e+000	 2.705124994035237e-001	 1.045861984795569e+001
 3.336448943847143e+000	 3.010123669547863e-001	 1.044775331341098e+001
 3.375000000000000e+000	 0.000000000000000e+000	 1.068791177839762e+001
 3.374867682654517e+000	 2.988518987502237e-002	 1.065474925612283e+001
 3.374468815359225e+000	 5.987665794818887e-002	 1.062477536397223e+001
 3.373800549417310e+000	 8.997139961681223e-002	 1.059803748766954e+001
 3.372860069912530e+000	 1.201663379870116e-001	 1.057456690006912e+001
 3.371644597630567e+000	 1.504583240021213e-001	 1.055438663342612e+001
 3.370151390996865e+000	 1.808441366244812e-001	 1.053751978940487e+001
 3.368377748029421e+000	 2.113204830717697e-001	 1.052399828133806e+001
 3.366321008304989e+000	 2.418839991090034e-001	 1.051387200166249e+001
 3.363978554937082e+000	 2.725312493972842e-001	 1.050721840582187e+001
 3.361347816564072e+000	 3.032587279003323e-001	 1.050415250224679e+001
 3.400000000000000e+000	 0.000000000000000e+000	 1.069499683635545e+001
 3.399866702526047e+000	 3.010656165159834e-002	 1.066041948057162e+001
 3.399464880658245e+000	 6.032018874728289e-002	 1.063127465791109e+001
 3.398791664598323e+000	 9.063785442805056e-002	 1.060729918246339e+001
 3.397844218578805e+000	 1.210564590082143e-001	 1.058820582603661e+001
 3.396619742798603e+000	 1.515728301047631e-001	 1.057369149120452e+001
 3.395115475375202e+000	 1.821837228204991e-001	 1.056344584395174e+001
 3.393328694311914e+000	 2.128858199821206e-001	 1.055716040046462e+001
 3.391256719478661e+000	 2.436757324343857e-001	 1.055453806097434e+001
 3.388896914604606e+000	 2.745499993914417e-001	 1.055530308186972e+001
 3.386246689281000e+000	 3.055050888463699e-001	 1.055921147555979e+001
 3.425000000000000e+000	 0.000000000000000e+000	 1.070642594419230e+001
 3.424865722397579e+000	 3.032793342817908e-002	 1.066999893560097e+001
 3.424460945957267e+000	 6.076371954639608e-002	 1.064124456362849e+001
 3.423782779779336e+000	 9.130430923933212e-002	 1.061958574410965e+001
 3.422828367245081e+000	 1.219465800294941e-001	 1.060441335483901e+001
 3.421594887966640e+000	 1.526873362075258e-001	 1.059509471379945e+001
 3.420079559753539e+000	 1.835233090166916e-001	 1.059098253911168e+001
 3.418279640594410e+000	 2.144511568927102e-001	 1.059142438528615e+001
 3.416192430652332e+000	 2.454674657600806e-001	 1.059577254866386e+001
 3.413815274272130e+000	 2.765687493859961e-001	 1.060339443318726e+001
 3.411145561997928e+000	 3.077514497928993e-001	 1.061368336584765e+001
 3.449999999999999e+000	 0.000000000000000e+000	 1.072069495758148e+001
 3.449864742269110e+000	 3.054930520476459e-002	 1.068220655959789e+001
 3.449457011256287e+000	 6.120725034552838e-002	 1.065362816673635e+001
 3.448773894960349e+000	 9.197076405065684e-002	 1.063406537167645e+001
 3.447812515911356e+000	 1.228367010508510e-001	 1.062258366467185e+001
 3.446570033134677e+000	 1.538018423104094e-001	 1.061821722141639e+001
 3.445043644131875e+000	 1.848628952130587e-001	 1.061997819502294e+001
 3.443230586876903e+000	 2.160164938035381e-001	 1.062686650672750e+001
 3.441128141826004e+000	 2.472591990860880e-001	 1.063788012818374e+001
 3.438733633939654e+000	 2.785874993809474e-001	 1.065202584641029e+001
 3.436044434714856e+000	 3.099978107399203e-001	 1.066833050059994e+001
 3.474999999999999e+000	 0.000000000000000e+000	 1.073634301692498e+001
 3.474863762140640e+000	 3.077067698135486e-002	 1.069580120928443e+001
 3.474453076555308e+000	 6.165078114467980e-002	 1.066740508501635e+001
 3.473765010141362e+000	 9.263721886202479e-002	 1.064993939152687e+001
 3.472796664577632e+000	 1.237268220722849e-001	 1.064214063852971e+001
 3.471545178302714e+000	 1.549163484134138e-001	 1.064270620006001e+001
 3.470007728510212e+000	 1.862024814096004e-001	 1.065030394326360e+001
 3.468181533159398e+000	 2.175818307146046e-001	 1.066358237860601e+001
 3.466063852999675e+000	 2.490509324124081e-001	 1.068118132434216e+001
 3.463651993607177e+000	 2.806062493762958e-001	 1.070174307622799e+001
 3.460943307431786e+000	 3.122441716874331e-001	 1.072392407154293e+001
 3.500000000000000e+000	 0.000000000000000e+000	 1.075195100147044e+001
 3.499862782012172e+000	 3.099204875794991e-002	 1.070958023406274e+001
 3.499449141854330e+000	 6.209431194385037e-002	 1.068159016369991e+001
 3.498756125322376e+000	 9.330367367343595e-002	 1.066644107420121e+001
 3.497780813243909e+000	 1.246169430937959e-001	 1.066253680332057e+001
 3.496520323470751e+000	 1.560308545165391e-001	 1.066823416346997e+001
 3.494971812888549e+000	 1.875420676063169e-001	 1.068185291215739e+001
 3.493132479441893e+000	 2.191471676259096e-001	 1.070168626681402e+001
 3.490999564173347e+000	 2.508426657390408e-001	 1.072601195682575e+001
 3.488570353274701e+000	 2.826249993720411e-001	 1.075310380366669e+001
 3.485842180148715e+000	 3.144905326354376e-001	 1.078124381805993e+001
 3.236853452979430e+000	 2.920269231775197e-001	 1.019403338219657e+001
 3.234040111211981e+000	 3.216901599082671e-001	 1.028453347918349e+001
 3.230944348622705e+000	 3.514236986856594e-001	 1.038819074797099e+001
 3.227563832160543e+000	 3.812239620090088e-001	 1.050679456672317e+001
 3.223896280334043e+000	 4.110873064392887e-001	 1.064222598132063e+001
 3.219939465148238e+000	 4.410100232820740e-001	 1.079646714362436e+001
 3.215691214040372e+000	 4.709883393310329e-001	 1.097161097492318e+001
 3.211149411812481e+000	 5.010184176725818e-001	 1.116987103450000e+001
 3.206312002558781e+000	 5.310963585522424e-001	 1.139359157171180e+001
 3.201176991585784e+000	 5.612182003031746e-001	 1.164525773844627e+001
 3.195742447322996e+000	 5.913799203372813e-001	 1.192750593730407e+001
 3.261752325696358e+000	 2.942732841210988e-001	 1.026312842369843e+001
 3.258917342838710e+000	 3.241646995955180e-001	 1.035579768940633e+001
 3.255797766691325e+000	 3.541269579017121e-001	 1.045985399444131e+001
 3.252391246256594e+000	 3.841564540197591e-001	 1.057670017781917e+001
 3.248695482493130e+000	 4.142495164841794e-001	 1.070782690203638e+001
 3.244708230267543e+000	 4.444024080721309e-001	 1.085482260302104e+001
 3.240427300305057e+000	 4.746113265526195e-001	 1.101938368448511e+001
 3.235850561136954e+000	 5.048724054973430e-001	 1.120332493605634e+001
 3.230975941042790e+000	 5.351817151537135e-001	 1.140859015296289e+001
 3.225801429985276e+000	 5.655352633805314e-001	 1.163726293344581e+001
 3.220325081535687e+000	 5.959289966467158e-001	 1.189157762849510e+001
 3.286651198413287e+000	 2.965196450651695e-001	 1.032796982391004e+001
 3.283794574465441e+000	 3.266392392833462e-001	 1.042034236004318e+001
 3.280651184759944e+000	 3.568302171183990e-001	 1.052230148849524e+001
 3.277218660352643e+000	 3.870889460311707e-001	 1.063486070061582e+001
 3.273494684652216e+000	 4.174117265297296e-001	 1.075911746417828e+001
 3.269476995386850e+000	 4.477947928628163e-001	 1.089626369114822e+001
 3.265163386569745e+000	 4.782343137747729e-001	 1.104759646926101e+001
 3.260551710461429e+000	 5.087263933225793e-001	 1.121452903622125e+001
 3.255639879526798e+000	 5.392670717555368e-001	 1.139860197366597e+001
 3.250425868384768e+000	 5.698523264580871e-001	 1.160149459636874e+001
 3.244907715748377e+000	 6.004780729561651e-001	 1.182503651051639e+001
 3.311550071130215e+000	 2.987660060097320e-001	 1.038927031722285e+001
 3.308671806092171e+000	 3.291137789717518e-001	 1.047914321780358e+001
 3.305504602828564e+000	 3.595334763357197e-001	 1.057677177203749e+001
 3.302046074448694e+000	 3.900214380432441e-001	 1.068277718182497e+001
 3.298293886811303e+000	 4.205739365759399e-001	 1.079786077392777e+001
 3.294245760506156e+000	 4.511871776541295e-001	 1.092281499179083e+001
 3.289899472834430e+000	 4.818573009974929e-001	 1.105853467077582e+001
 3.285252859785903e+000	 5.125803811482900e-001	 1.120602857504503e+001
 3.280303818010806e+000	 5.433524283577124e-001	 1.136643117259594e+001
 3.275050306784260e+000	 5.741693895358420e-001	 1.154101462321634e+001
 3.269490349961068e+000	 6.050271492656288e-001	 1.173120095241566e+001
 3.336448943847143e+000	 3.010123669547863e-001	 1.044775331341098e+001
 3.333549037718900e+000	 3.315883186607346e-001	 1.053318200724999e+001
 3.330358020897183e+000	 3.622367355536747e-001	 1.062450474394101e+001
 3.326873488544744e+000	 3.929539300559794e-001	 1.072194736271264e+001
 3.323093088970390e+000	 4.237361466228101e-001	 1.082581196993025e+001
 3.319014525625462e+000	 4.545795624460712e-001	 1.093648846131243e+001
 3.314635559099118e+000	 4.854802882207795e-001	 1.105446634736058e+001
 3.309954009110376e+000	 5.164343689744756e-001	 1.118034685965746e+001
 3.304967756494813e+000	 5.474377849602401e-001	 1.131485531388437e+001
 3.299674745183751e+000	 5.784864526137957e-001	 1.145885370360848e+001
 3.294072984173759e+000	 6.095762255751076e-001	 1.161335349710897e+001
 3.361347816564072e+000	 3.032587279003323e-001	 1.050415250224679e+001
 3.358426269345630e+000	 3.340628583502949e-001	 1.058344626791403e+001
 3.355211438965803e+000	 3.649399947722639e-001	 1.066674160978897e+001
 3.351700902640793e+000	 3.958864220693762e-001	 1.075386580152303e+001
 3.347892291129476e+000	 4.268983566703398e-001	 1.084471851838915e+001
 3.343783290744768e+000	 4.579719472386412e-001	 1.093928389633776e+001
 3.339371645363804e+000	 4.891032754446326e-001	 1.103764291427092e+001
 3.334655158434851e+000	 5.202883568011358e-001	 1.113998607659839e+001
 3.329631694978821e+000	 5.515231415631203e-001	 1.124662637126560e+001
 3.324299183583244e+000	 5.828035156919486e-001	 1.135801247657541e+001
 3.318655618386451e+000	 6.141253018846009e-001	 1.147474218827472e+001
 3.386246689281000e+000	 3.055050888463699e-001	 1.055921147555979e+001
 3.383303500972360e+000	 3.365373980404324e-001	 1.063092912124648e+001
 3.380064857034422e+000	 3.676432539914870e-001	 1.070472483383394e+001
 3.376528316736844e+000	 3.988189140834348e-001	 1.078002399050125e+001
 3.372691493288563e+000	 4.300605667185297e-001	 1.085632049514080e+001
 3.368552055864074e+000	 4.613643320318394e-001	 1.093318938080180e+001
 3.364107731628490e+000	 4.927262626690525e-001	 1.101029975556475e+001
 3.359356307759325e+000	 5.241423446282708e-001	 1.108742806831000e+001
 3.354295633462829e+000	 5.556084981663527e-001	 1.116447166890022e+001
 3.348923621982736e+000	 5.871205787703004e-001	 1.124146263535912e+001
 3.343238252599141e+000	 6.186743781941089e-001	 1.131858183870793e+001
 3.411145561997928e+000	 3.077514497928993e-001	 1.061368336584765e+001
 3.408180732599090e+000	 3.390119377311472e-001	 1.067662906689746e+001
 3.404918275103042e+000	 3.703465132113444e-001	 1.073969809306110e+001
 3.401355730832894e+000	 4.017514060981550e-001	 1.080191046779131e+001
 3.397490695447650e+000	 4.332227767673792e-001	 1.086235085537611e+001
 3.393320820983380e+000	 4.647567168256657e-001	 1.092018171342032e+001
 3.388843817893178e+000	 4.963492498940390e-001	 1.097465680918259e+001
 3.384057457083798e+000	 5.279963324558805e-001	 1.102513507562216e+001
 3.378959571946838e+000	 5.596938547699373e-001	 1.107109478099456e+001
 3.373548060382228e+000	 5.914376418488513e-001	 1.111214798382885e+001
 3.367820886811832e+000	 6.232234545036315e-001	 1.114805524312630e+001
 3.436044434714856e+000	 3.099978107399203e-001	 1.066833050059994e+001
 3.433057964225819e+000	 3.414864774224395e-001	 1.072154978785418e+001
 3.429771693171661e+000	 3.730497724318357e-001	 1.077290623324864e+001
 3.426183144928944e+000	 4.046838981135369e-001	 1.082101092446861e+001
 3.422289897606735e+000	 4.363849868168885e-001	 1.086453569163487e+001
 3.418089586102685e+000	 4.681491016201202e-001	 1.090222681657461e+001
 3.413579904157863e+000	 4.999722371195919e-001	 1.093291912658952e+001
 3.408758606408273e+000	 5.318503202839651e-001	 1.095555044795580e+001
 3.403623510430845e+000	 5.637792113738743e-001	 1.096917639230637e+001
 3.398172498781719e+000	 5.957547049276010e-001	 1.097298544696578e+001
 3.392403521024523e+000	 6.277725308131688e-001	 1.113443441802231e+001
 3.460943307431786e+000	 3.122441716874331e-001	 1.072392407154293e+001
 3.457935195852550e+000	 3.439610171143091e-001	 1.076669996399005e+001
 3.454625111240281e+000	 3.757530316529612e-001	 1.080559522692488e+001
 3.451010559024994e+000	 4.076163901295806e-001	 1.083880830695265e+001
 3.447089099765823e+000	 4.395471968670578e-001	 1.086459448066372e+001
 3.442858351221993e+000	 4.715414864152032e-001	 1.088128012754662e+001
 3.438315990422550e+000	 5.035952243457118e-001	 1.088727740825987e+001
 3.433459755732745e+000	 5.357043081125240e-001	 1.088109932287009e+001
 3.428287448914853e+000	 5.678645679781635e-001	 1.086137512150629e+001
 3.422796937181212e+000	 6.000717680065498e-001	 1.082686603772949e+001
 3.416986155237214e+000	 6.323216071227208e-001	 1.121879198779143e+001
 3.485842180148715e+000	 3.144905326354376e-001	 1.078124381805993e+001
 3.482812427479281e+000	 3.464355568067562e-001	 1.081309309360441e+001
 3.479478529308901e+000	 3.784562908747209e-001	 1.083901213312728e+001
 3.475837973121044e+000	 4.105488821462860e-001	 1.085678291503037e+001
 3.471888301924910e+000	 4.427094069178869e-001	 1.086424031969458e+001
 3.467627116341299e+000	 4.749338712109144e-001	 1.085928697298677e+001
 3.463052076687238e+000	 5.072182115723981e-001	 1.083990851621273e+001
 3.458160905057221e+000	 5.395582959415582e-001	 1.080418927648595e+001
 3.452951387398861e+000	 5.719499245828053e-001	 1.075032830925247e+001
 3.447421375580704e+000	 6.043888310856977e-001	 1.067665578248738e+001
 3.441568789449906e+000	 6.368706834322875e-001	 1.129351011724434e+001
 3.195742447322996e+000	 5.913799203372813e-001	 1.192750593730407e+001
 3.190006503222291e+000	 6.215774361993541e-001	 1.043458233218146e+001
 3.183967359642995e+000	 6.518066066841965e-001	 1.040301753509844e+001
 3.177623285720976e+000	 6.820632330168475e-001	 1.055125531555256e+001
 3.170972621219920e+000	 7.123430600964775e-001	 1.069119348993389e+001
 3.164013778361765e+000	 7.426417778035708e-001	 1.082024673829294e+001
 3.156745243634213e+000	 7.729550223703776e-001	 1.093573131290381e+001
 3.149165579572983e+000	 8.032783778144551e-001	 1.103486202678825e+001
 3.141273426516435e+000	 8.336073774350103e-001	 1.111474933514445e+001
 3.133067504330196e+000	 8.639375053716755e-001	 1.117239652343364e+001
 3.124546614099405e+000	 8.942641982252434e-001	 1.120236559891178e+001
 3.220325081535687e+000	 5.959289966467158e-001	 1.189157762849510e+001
 3.214545014787886e+000	 6.263588010934251e-001	 1.038293899321931e+001
 3.208459416257858e+000	 6.568205036599045e-001	 1.050248960997568e+001
 3.202066541767134e+000	 6.873098732729227e-001	 1.061642940902804e+001
 3.195364718308351e+000	 7.178226221001052e-001	 1.072248920535422e+001
 3.188352345889771e+000	 7.483544068671686e-001	 1.081830562026222e+001
 3.181027899356695e+000	 7.789008302389191e-001	 1.090141769572350e+001
 3.173389930187422e+000	 8.094574422638170e-001	 1.096926358153120e+001
 3.165437068261379e+000	 8.400197418818309e-001	 1.101917730923779e+001
 3.157168023597005e+000	 8.705831784952052e-001	 1.104838566713698e+001
 3.148581588057016e+000	 9.011431536016611e-001	 1.105400519082645e+001
 3.244907715748377e+000	 6.004780729561651e-001	 1.182503651051639e+001
 3.239083526353474e+000	 6.311401659873205e-001	 1.050890525033773e+001
 3.232951472872700e+000	 6.618344006352653e-001	 1.059748533866409e+001
 3.226509797813247e+000	 6.925565135284995e-001	 1.068069404856319e+001
 3.219756815396703e+000	 7.233021841031020e-001	 1.075648305848049e+001
 3.212690913417656e+000	 7.540670359300240e-001	 1.082271094087662e+001
 3.205310555079000e+000	 7.848466381066257e-001	 1.087713947911650e+001
 3.197614280801620e+000	 8.156365067122716e-001	 1.091743005059308e+001
 3.189600710006009e+000	 8.464321063276927e-001	 1.094114009053263e+001
 3.181268542863414e+000	 8.772288516177456e-001	 1.094571965126618e+001
 3.172616562014134e+000	 9.080221089770787e-001	 1.092850807204974e+001
 3.269490349961068e+000	 6.050271492656288e-001	 1.173120095241566e+001
 3.263622037919057e+000	 6.359215308810399e-001	 1.062706279433749e+001
 3.257443529487524e+000	 6.668482976102796e-001	 1.068804500873142e+001
 3.250953053859317e+000	 6.978031537835777e-001	 1.074393620700289e+001
 3.244148912484980e+000	 7.287817461054684e-001	 1.079290907278937e+001
 3.237029480945418e+000	 7.597796649921365e-001	 1.083304421645979e+001
 3.229593210801129e+000	 7.907924459734975e-001	 1.086232619180228e+001
 3.221838631415580e+000	 8.218155711598196e-001	 1.087863957237498e+001
 3.213764351750323e+000	 8.528444707725963e-001	 1.087976510246630e+001
 3.205369062129424e+000	 8.838745247392957e-001	 1.086337593797648e+001
 3.196651535970757e+000	 9.149010643514963e-001	 1.082703399285746e+001
 3.294072984173759e+000	 6.095762255751076e-001	 1.161335349710897e+001
 3.288160549484637e+000	 6.407028957745838e-001	 1.073757309129059e+001
 3.281935586102328e+000	 6.718621945849470e-001	 1.077417989132126e+001
 3.275396309905343e+000	 7.030497940381575e-001	 1.080601725619033e+001
 3.268541009573177e+000	 7.342613081072044e-001	 1.083147909138935e+001
 3.261368048473059e+000	 7.654922940535064e-001	 1.084886820740908e+001
 3.253875866523083e+000	 7.967382538395345e-001	 1.085639203340123e+001
 3.246062982029298e+000	 8.279946356064606e-001	 1.085215838394874e+001
 3.237927993494324e+000	 8.592568352165414e-001	 1.083417129439767e+001
 3.229469581395036e+000	 8.905201978598566e-001	 1.080032694059759e+001
 3.220686509926887e+000	 9.217800197249140e-001	 1.074840965924890e+001
 3.318655618386451e+000	 6.141253018846009e-001	 1.147474218827472e+001
 3.312699061050211e+000	 6.454842606679520e-001	 1.084056638295051e+001
 3.306427642717112e+000	 6.768760915592673e-001	 1.085587331583549e+001
 3.299839565951326e+000	 7.082964342922389e-001	 1.086677391515215e+001
 3.292933106661296e+000	 7.397408701083097e-001	 1.087188359851580e+001
 3.285706616000578e+000	 7.712049231141334e-001	 1.086972761285952e+001
 3.278158522244861e+000	 8.026840617047366e-001	 1.085873644217907e+001
 3.270287332642777e+000	 8.341737000521948e-001	 1.083724126184676e+001
 3.262091635238009e+000	 8.656691996595277e-001	 1.080346945546194e+001
 3.253570100660249e+000	 8.971658709794281e-001	 1.075554021062715e+001
 3.244721483882524e+000	 9.286589750973319e-001	 1.069146021041851e+001
 3.343238252599141e+000	 6.186743781941089e-001	 1.131858183870793e+001
 3.337237572615780e+000	 6.502656255611442e-001	 1.093614283470511e+001
 3.330919699331878e+000	 6.818899885332411e-001	 1.093308169720422e+001
 3.324282821997265e+000	 7.135430745458216e-001	 1.092601915645218e+001
 3.317325203749339e+000	 7.452204321087845e-001	 1.091379250478376e+001
 3.310045183527974e+000	 7.769175521740177e-001	 1.089514973470083e+001
 3.302441177966462e+000	 8.086298695691037e-001	 1.086874463774370e+001
 3.294511683256015e+000	 8.403527644970220e-001	 1.083313194340548e+001
 3.286255276981380e+000	 8.720815641015558e-001	 1.078676251457882e+001
 3.277670619925062e+000	 9.038115440980098e-001	 1.072797861647466e+001
 3.268756457837667e+000	 9.355379304687496e-001	 1.065500927635892e+001
 3.367820886811832e+000	 6.232234545036315e-001	 1.114805524312630e+001
 3.361776084181346e+000	 6.550469904541610e-001	 1.102437363325426e+001
 3.355411755946624e+000	 6.869038855068678e-001	 1.100573551816583e+001
 3.348726078043160e+000	 7.187897147989056e-001	 1.098354307285062e+001
 3.341717300837303e+000	 7.506999941086290e-001	 1.095685589805001e+001
 3.334383751055251e+000	 7.826301812331595e-001	 1.092464511251340e+001
 3.326723833687888e+000	 8.145756774326358e-001	 1.088578813997443e+001
 3.318736033869013e+000	 8.465318289409424e-001	 1.083906352965573e+001
 3.310418918724438e+000	 8.784939285426251e-001	 1.078314582732176e+001
 3.301771139189478e+000	 9.104572172156019e-001	 1.071660051437707e+001
 3.292791431792316e+000	 9.424168858391672e-001	 1.063787903294143e+001
 3.392403521024523e+000	 6.277725308131688e-001	 1.113443441802231e+001
 3.386314595746905e+000	 6.598283553470019e-001	 1.110530203656242e+001
 3.379903812561350e+000	 6.919177824801479e-001	 1.107374026883917e+001
 3.373169334089012e+000	 7.240363550514914e-001	 1.103911370628250e+001
 3.366109397925190e+000	 7.561795561078428e-001	 1.100070476162897e+001
 3.358722318582403e+000	 7.883428102915583e-001	 1.095770813089842e+001
 3.351006489409138e+000	 8.205214852953331e-001	 1.090922526538888e+001
 3.342960384481771e+000	 8.527108933839557e-001	 1.085425887069612e+001
 3.334582560467180e+000	 8.849062929827362e-001	 1.079170745031462e+001
 3.325871658453493e+000	 9.171028903322045e-001	 1.072035991188329e+001
 3.316826405746471e+000	 9.492958412085848e-001	 1.063889025460149e+001
 3.416986155237214e+000	 6.323216071227208e-001	 1.121879198779143e+001
 3.410853107312460e+000	 6.646097202396671e-001	 1.117894437848940e+001
 3.404395869176057e+000	 6.969316794530809e-001	 1.113697734573873e+001
 3.397612590134821e+000	 7.292829953035789e-001	 1.109247784105285e+001
 3.390501495013000e+000	 7.616591181064262e-001	 1.104495166150649e+001
 3.383060886109436e+000	 7.940554393492147e-001	 1.099381760059218e+001
 3.375289145130212e+000	 8.264672931571958e-001	 1.093840160208413e+001
 3.367184735094290e+000	 8.588899578260625e-001	 1.087793093443169e+001
 3.358746202209609e+000	 8.913186574218885e-001	 1.081152840378371e+001
 3.349972177717109e+000	 9.237485634478172e-001	 1.073820662428190e+001
 3.340861379700133e+000	 9.561747965770026e-001	 1.065686236475013e+001
 3.441568789449906e+000	 6.368706834322875e-001	 1.129351011724434e+001
 3.435391618878011e+000	 6.693910851321568e-001	 1.124529103036562e+001
 3.428887925790747e+000	 7.019455764256674e-001	 1.119530491226052e+001
 3.422055846180587e+000	 7.345296355551677e-001	 1.114336176303783e+001
 3.414893592100732e+000	 7.671386801043790e-001	 1.108919140410163e+001
 3.407399453636346e+000	 7.997680684061285e-001	 1.103243731467558e+001
 3.399571800851111e+000	 8.324131010182234e-001	 1.097265046432320e+001
 3.391409085706569e+000	 8.650690222672625e-001	 1.090928315950935e+001
 3.382909843951724e+000	 8.977310218600828e-001	 1.084168292285784e+001
 3.374072696980329e+000	 9.303942365624409e-001	 1.076908642432468e+001
 3.364896353653301e+000	 9.630537519444204e-001	 1.069061348402481e+001
 3.124546614099405e+000	 8.942641982252434e-001	 1.120236559891178e+001
 3.115709639785576e+000	 9.245828467396423e-001	 1.129089512411777e+001
 3.106555549847563e+000	 9.548887975447460e-001	 1.136097358077704e+001
 3.097083398822883e+000	 9.851773549594461e-001	 1.141220712400467e+001
 3.087292328865915e+000	 1.015443782853513e+000	 1.144428956651718e+001
 3.077181571242415e+000	 1.045683306567630e+000	 1.145700789805741e+001
 3.066750447777396e+000	 1.075891114890496e+000	 1.145024773519891e+001
 3.055998372254012e+000	 1.106062362091802e+000	 1.142399868412616e+001
 3.044924851761178e+000	 1.136192170009821e+000	 1.137835959873651e+001
 3.033529487987621e+000	 1.166275630192231e+000	 1.131354371621451e+001
 3.021811978460158e+000	 1.196307806088698e+000	 1.122988365209078e+001
 3.148581588057016e+000	 9.011431536016611e-001	 1.105400519082645e+001
 3.139676637017926e+000	 9.316950224893300e-001	 1.119133258175276e+001
 3.130452131003560e+000	 9.622340959929508e-001	 1.130445620253867e+001
 3.120907117278647e+000	 9.927556423107905e-001	 1.137659235335046e+001
 3.111040731398753e+000	 1.023254888880847e+000	 1.140631663211628e+001
 3.100852198716295e+000	 1.053727024315657e+000	 1.141526024493873e+001
 3.090340835839549e+000	 1.084167200394599e+000	 1.140322211849260e+001
 3.079506052042313e+000	 1.114570534112516e+000	 1.137010752768549e+001
 3.068347350621874e+000	 1.144932109783358e+000	 1.131593356274345e+001
 3.056864330203026e+000	 1.175246981197481e+000	 1.124083447233822e+001
 3.045056685985869e+000	 1.205510173831083e+000	 1.114506686423333e+001
 3.172616562014134e+000	 9.080221089770787e-001	 1.092850807204974e+001
 3.163643634249695e+000	 9.388071982380229e-001	 1.107106621396507e+001
 3.154348712158920e+000	 9.695793944401748e-001	 1.119041643493796e+001
 3.144730835733751e+000	 1.000333929661178e+000	 1.128444438511153e+001
 3.134789133930934e+000	 1.031065994907259e+000	 1.135092197253313e+001
 3.124522826189546e+000	 1.061770742062806e+000	 1.138629854298513e+001
 3.113931223901139e+000	 1.092443285897878e+000	 1.136970693570146e+001
 3.103013731830142e+000	 1.123078706132470e+000	 1.133039289660402e+001
 3.091769849482220e+000	 1.153672049556212e+000	 1.126829010477870e+001
 3.080199172418235e+000	 1.184218332202131e+000	 1.118345223767618e+001
 3.068301393511570e+000	 1.214712541572961e+000	 1.107605838111658e+001
 3.196651535970757e+000	 9.149010643514963e-001	 1.082703399285746e+001
 3.187610631480886e+000	 9.459193739857201e-001	 1.097286261474891e+001
 3.178245293313646e+000	 9.769246928864183e-001	 1.109652374783233e+001
 3.168554554188189e+000	 1.007912217010610e+000	 1.119590278217766e+001
 3.158537536462453e+000	 1.038877100932750e+000	 1.126876757483736e+001
 3.148193453662171e+000	 1.069814459809077e+000	 1.131276496824919e+001
 3.137521611962162e+000	 1.100719371400334e+000	 1.132541749301350e+001
 3.126521411617497e+000	 1.131586878151666e+000	 1.130412027217165e+001
 3.115192348342218e+000	 1.162411989328380e+000	 1.123706404741493e+001
 3.103534014633251e+000	 1.193189683206180e+000	 1.114307892256919e+001
 3.091546101037261e+000	 1.223914909314336e+000	 1.102458644551671e+001
 3.220686509926887e+000	 9.217800197249140e-001	 1.074840965924890e+001
 3.211577628711498e+000	 9.530315497324225e-001	 1.089553133125856e+001
 3.202141874467737e+000	 9.842699913316814e-001	 1.102157140966256e+001
 3.192378272641967e+000	 1.015490504359086e+000	 1.112441712160951e+001
 3.182285938993314e+000	 1.046688206957319e+000	 1.120183431550360e+001
 3.171864081134169e+000	 1.077858177554471e+000	 1.125146382837185e+001
 3.161112000022622e+000	 1.108995456901967e+000	 1.127081804215785e+001
 3.150029091404383e+000	 1.140095050170102e+000	 1.125727764658366e+001
 3.138614847201868e+000	 1.171151929099864e+000	 1.120808862616694e+001
 3.126868856848072e+000	 1.202161034209630e+000	 1.112035948886154e+001
 3.114790808562941e+000	 1.233117277055205e+000	 1.099237243925306e+001
 3.244721483882524e+000	 9.286589750973319e-001	 1.069146021041851e+001
 3.235544625941530e+000	 9.601437254781297e-001	 1.083787985204497e+001
 3.226038455621191e+000	 9.916152897759637e-001	 1.096435013522322e+001
 3.216201991095082e+000	 1.023068791706605e+000	 1.106876224202439e+001
 3.206034341523513e+000	 1.054499312980966e+000	 1.114888207456127e+001
 3.195534708605540e+000	 1.085901895298987e+000	 1.120234646711599e+001
 3.184702388082517e+000	 1.117271542402776e+000	 1.122665959178115e+001
 3.173536771190797e+000	 1.148603222187779e+000	 1.121918957578034e+001
 3.162037346061168e+000	 1.179891868870663e+000	 1.117716534858063e+001
 3.150203699062697e+000	 1.211132385212480e+000	 1.109767373678903e+001
 3.138035516088611e+000	 1.242319644795568e+000	 1.097765682463452e+001
 3.268756457837667e+000	 9.355379304687496e-001	 1.065500927635892e+001
 3.259511623170984e+000	 9.672559012228417e-001	 1.079871368273966e+001
 3.249935036774011e+000	 9.989605882192657e-001	 1.092364817954665e+001
 3.240025709547534e+000	 1.030647079053168e+000	 1.102771004249515e+001
 3.229782744053054e+000	 1.062310419003691e+000	 1.110866730996297e+001
 3.219205336076284e+000	 1.093945613042626e+000	 1.116415483563570e+001
 3.208292776141848e+000	 1.125547627902762e+000	 1.119167053928718e+001
 3.197044450976738e+000	 1.157111394204698e+000	 1.118857187439585e+001
 3.185459844920121e+000	 1.188631808640778e+000	 1.115207253124514e+001
 3.173538541277128e+000	 1.220103736214729e+000	 1.107923939403456e+001
 3.161280223614271e+000	 1.251522012535427e+000	 1.097690447372280e+001
 3.292791431792316e+000	 9.424168858391672e-001	 1.063787903294143e+001
 3.283478620399857e+000	 9.743680769665586e-001	 1.077683641842411e+001
 3.273831617926194e+000	 1.006305886661587e+000	 1.089825142767540e+001
 3.263849427999325e+000	 1.038225366398776e+000	 1.100002958983283e+001
 3.253531146581935e+000	 1.070121525025494e+000	 1.107994318247786e+001
 3.242875963546400e+000	 1.101989330785387e+000	 1.113562712051651e+001
 3.231883164200613e+000	 1.133823713401924e+000	 1.116457504785242e+001
 3.220552130762207e+000	 1.165619566220857e+000	 1.116413565109770e+001
 3.208882343778725e+000	 1.197371748410209e+000	 1.113150921451636e+001
 3.196873383491363e+000	 1.229075087216379e+000	 1.106374443527162e+001
 3.184524931139920e+000	 1.260724380274781e+000	 1.101703062415691e+001
 3.316826405746471e+000	 9.492958412085848e-001	 1.063889025460149e+001
 3.307445617628153e+000	 9.814802527092802e-001	 1.077104981285258e+001
 3.297728199077743e+000	 1.013651185102928e+000	 1.088694348053142e+001
 3.287673146450452e+000	 1.045803653743426e+000	 1.098448722120485e+001
 3.277279549110157e+000	 1.077932631046375e+000	 1.106145967515478e+001
 3.266546591015890e+000	 1.110033048527270e+000	 1.111549788017286e+001
 3.255473552258815e+000	 1.142099798900263e+000	 1.114409319984006e+001
 3.244059810547205e+000	 1.174127738236257e+000	 1.114458747909285e+001
 3.232304842636979e+000	 1.206111688178954e+000	 1.111416944682653e+001
 3.220208225705404e+000	 1.238046438217428e+000	 1.104987138516350e+001
 3.207769638665559e+000	 1.269926748013629e+000	 1.104043400666482e+001
 3.340861379700133e+000	 9.561747965770026e-001	 1.065686236475013e+001
 3.331412614855868e+000	 9.885924284510067e-001	 1.078015384468691e+001
 3.321624780228655e+000	 1.020996483543288e+000	 1.088850573707869e+001
 3.311496864900918e+000	 1.053381941087122e+000	 1.097984664232365e+001
 3.301027951637719e+000	 1.085743737066335e+000	 1.105196370762886e+001
 3.290217218484751e+000	 1.118076766268275e+000	 1.110249817535778e+001
 3.279063940316452e+000	 1.150375884397779e+000	 1.112894114359188e+001
 3.267567490331730e+000	 1.182635910250898e+000	 1.112862955927374e+001
 3.255727341494886e+000	 1.214851627947015e+000	 1.109874246424981e+001
 3.243543067919250e+000	 1.247017789217878e+000	 1.103629751440688e+001
 3.231014346191188e+000	 1.279129115751972e+000	 1.104761643852480e+001
 3.364896353653301e+000	 9.630537519444204e-001	 1.069061348402481e+001
 3.355379612083005e+000	 9.957046041917383e-001	 1.080294678089271e+001
 3.345521361378934e+000	 1.028341781982668e+000	 1.090171747296456e+001
 3.335320583350721e+000	 1.060960228429860e+000	 1.098486902142722e+001
 3.324776354164621e+000	 1.093554843085373e+000	 1.105019924552902e+001
 3.313887845952988e+000	 1.126120484008404e+000	 1.109535569407948e+001
 3.302654328373525e+000	 1.158651969894472e+000	 1.111783123392903e+001
 3.291075170115785e+000	 1.191144082264780e+000	 1.111495987637243e+001
 3.279149840352444e+000	 1.223591567714391e+000	 1.108391286237224e+001
 3.266877910132902e+000	 1.255989140217728e+000	 1.103697874212402e+001
 3.254259053716807e+000	 1.288331483489811e+000	 1.103907424352556e+001
 3.021811978460158e+000	 1.196307806088698e+000	 1.122988365209078e+001
 3.009772117724388e+000	 1.226283735293376e+000	 1.095474023026359e+001
 2.997409798464362e+000	 1.256198431836615e+000	 1.074224001155079e+001
 2.984725012560141e+000	 1.286046888523079e+000	 1.083528014952183e+001
 2.971717852081893e+000	 1.315824079314217e+000	 1.093175831462888e+001
 2.958388510217295e+000	 1.345524961753960e+000	 1.103081918916529e+001
 2.944737282130763e+000	 1.375144479435225e+000	 1.113149867096410e+001
 2.930764565752652e+000	 1.404677564505076e+000	 1.123272268506358e+001
 2.916470862496686e+000	 1.434119140206303e+000	 1.133330625535755e+001
 2.901856777903874e+000	 1.463464123453077e+000	 1.143195284503510e+001
 2.886923022211355e+000	 1.492707427438275e+000	 1.152725397398040e+001
 3.045056685985869e+000	 1.205510173831083e+000	 1.114506686423333e+001
 3.032924210935764e+000	 1.235716687106057e+000	 1.086571310338318e+001
 3.020466796911431e+000	 1.265861496699235e+000	 1.076410521241681e+001
 3.007684435730476e+000	 1.295939556898392e+000	 1.084027210784336e+001
 2.994577220171298e+000	 1.325945803003145e+000	 1.092235657097675e+001
 2.981145344907635e+000	 1.355875153769300e+000	 1.100954415109682e+001
 2.967389107374398e+000	 1.385722513894337e+000	 1.110090714734714e+001
 2.953308908562949e+000	 1.415482776541836e+000	 1.119540330675426e+001
 2.938905253744040e+000	 1.445150825902609e+000	 1.129187478981061e+001
 2.924178753116689e+000	 1.474721539790167e+000	 1.138904741279438e+001
 2.909130122381398e+000	 1.504189792268103e+000	 1.148553017534979e+001
 3.068301393511570e+000	 1.214712541572961e+000	 1.107605838111658e+001
 3.056076304147308e+000	 1.245149638918323e+000	 1.079459738738255e+001
 3.043523795358812e+000	 1.275524561561510e+000	 1.079069296475121e+001
 3.030643858901224e+000	 1.305832225273412e+000	 1.085006231498907e+001
 3.017436588261178e+000	 1.336067526691811e+000	 1.091786461138531e+001
 3.003902179598474e+000	 1.366225345784390e+000	 1.099332625098082e+001
 2.990040932618514e+000	 1.396300548353190e+000	 1.107555584224858e+001
 2.975853251373670e+000	 1.426287988578308e+000	 1.116354278832389e+001
 2.961339644991720e+000	 1.456182511598578e+000	 1.125615614550667e+001
 2.946500728329691e+000	 1.485978956126852e+000	 1.135214376658196e+001
 2.931337222551448e+000	 1.515672157097435e+000	 1.145013173783987e+001
 3.091546101037261e+000	 1.223914909314336e+000	 1.102458644551671e+001
 3.079228397359024e+000	 1.254582590730175e+000	 1.079019726907116e+001
 3.066580793806505e+000	 1.285187626423441e+000	 1.082121635027735e+001
 3.053603282072387e+000	 1.315724893648139e+000	 1.086383288598326e+001
 3.040295956351537e+000	 1.346189250380215e+000	 1.091743471590906e+001
 3.026659014289811e+000	 1.376575537799230e+000	 1.098128908436918e+001
 3.012692757863114e+000	 1.406878582811784e+000	 1.105454083498766e+001
 2.998397594184816e+000	 1.437093200614492e+000	 1.113621087796805e+001
 2.983774036239725e+000	 1.467214197294210e+000	 1.122519494047388e+001
 2.968822703542879e+000	 1.497236372463129e+000	 1.132026261004415e+001
 2.953544322721507e+000	 1.527154521926272e+000	 1.142005668028695e+001
 3.114790808562941e+000	 1.233117277055205e+000	 1.099237243925306e+001
 3.102380490570910e+000	 1.264015542541612e+000	 1.084314718155391e+001
 3.089637792254510e+000	 1.294850691285028e+000	 1.085488278025526e+001
 3.076562705243963e+000	 1.325617562022573e+000	 1.088076084435287e+001
 3.063155324442370e+000	 1.356310974068357e+000	 1.092021464077943e+001
 3.049415848981648e+000	 1.386925729813818e+000	 1.097255227905011e+001
 3.035344583108194e+000	 1.417456617270118e+000	 1.103695478124560e+001
 3.020941936996386e+000	 1.447898412650389e+000	 1.111247443212184e+001
 3.006208427488057e+000	 1.478245882989506e+000	 1.119803342030031e+001
 2.991144678756257e+000	 1.508493788799001e+000	 1.129242278084661e+001
 2.975751422891574e+000	 1.538636886754612e+000	 1.139430164884710e+001
 3.138035516088611e+000	 1.242319644795568e+000	 1.097765682463452e+001
 3.125532583782966e+000	 1.273448494352633e+000	 1.089872487336123e+001
 3.112694790702826e+000	 1.304513756146272e+000	 1.089089420549893e+001
 3.099522128415953e+000	 1.335510230396713e+000	 1.090001831070148e+001
 3.086014692533679e+000	 1.366432697756237e+000	 1.092534778595383e+001
 3.072172683673983e+000	 1.397275921828156e+000	 1.096623164200236e+001
 3.057996408353757e+000	 1.428034651728194e+000	 1.102188703986690e+001
 3.043486279808379e+000	 1.458703624685997e+000	 1.109139752256208e+001
 3.028642818736715e+000	 1.489277568684464e+000	 1.117371154600214e+001
 3.013466653969821e+000	 1.519751205134466e+000	 1.126764131978482e+001
 2.997958523061648e+000	 1.550119251582456e+000	 1.137186196783613e+001
 3.161280223614271e+000	 1.251522012535427e+000	 1.097690447372280e+001
 3.148684676995192e+000	 1.282881446163240e+000	 1.095642548391601e+001
 3.135751789151454e+000	 1.314176821007170e+000	 1.093623161005429e+001
 3.122481551588358e+000	 1.345402898770561e+000	 1.092077268296380e+001
 3.108874060625466e+000	 1.376554421443856e+000	 1.093197335527273e+001
 3.094929518366817e+000	 1.407626113842244e+000	 1.096143929986621e+001
 3.080648233599801e+000	 1.438612686186010e+000	 1.100842379406667e+001
 3.066030622620796e+000	 1.469508836721317e+000	 1.107204153878455e+001
 3.051077209985699e+000	 1.500309254379085e+000	 1.115126707801523e+001
 3.035788629183572e+000	 1.531008621469525e+000	 1.124493353684542e+001
 3.020165623231730e+000	 1.561601616409804e+000	 1.135173168832671e+001
 3.184524931139920e+000	 1.260724380274781e+000	 1.101703062415691e+001
 3.171836770207588e+000	 1.292314397973432e+000	 1.099785785521061e+001
 3.158808787600394e+000	 1.323839885867725e+000	 1.097959885982511e+001
 3.145440974761175e+000	 1.355295567144116e+000	 1.096334048316789e+001
 3.131733428717729e+000	 1.386676145131212e+000	 1.095021618359006e+001
 3.117686353060151e+000	 1.417976305856081e+000	 1.095728383326228e+001
 3.103300058846326e+000	 1.449190720643567e+000	 1.099564816732946e+001
 3.088574965433638e+000	 1.480314048756350e+000	 1.105346528589733e+001
 3.073511601235010e+000	 1.511340940073369e+000	 1.112973565650831e+001
 3.058110604397510e+000	 1.542266037804178e+000	 1.122331307437448e+001
 3.042372723401820e+000	 1.573083981236655e+000	 1.133290363461702e+001
 3.207769638665559e+000	 1.269926748013629e+000	 1.104043400666482e+001
 3.194988863420155e+000	 1.301747349783208e+000	 1.102351641455272e+001
 3.181865786049645e+000	 1.333502950727936e+000	 1.100811156093540e+001
 3.168400397934406e+000	 1.365188235517377e+000	 1.099535024413352e+001
 3.154592796810468e+000	 1.396797868818307e+000	 1.098641066208232e+001
 3.140443187753983e+000	 1.428326497869668e+000	 1.098251822168043e+001
 3.125951884093334e+000	 1.459768755100865e+000	 1.098494523514164e+001
 3.111119308246904e+000	 1.491119260791094e+000	 1.103472507825817e+001
 3.095945992484646e+000	 1.522372625767317e+000	 1.110815087820424e+001
 3.080432579611637e+000	 1.553523454138424e+000	 1.120179196749921e+001
 3.064579823571918e+000	 1.584566346063012e+000	 1.131436944867920e+001
 3.231014346191188e+000	 1.279129115751972e+000	 1.104761643852480e+001
 3.218140956632892e+000	 1.311180301592571e+000	 1.103389039097192e+001
 3.204922784499208e+000	 1.343166015587802e+000	 1.102224641275860e+001
 3.191359821108052e+000	 1.375080903890346e+000	 1.101385869241708e+001
 3.177452164903683e+000	 1.406919592505140e+000	 1.100994963486878e+001
 3.163200022448315e+000	 1.438676689883004e+000	 1.101178964471768e+001
 3.148603709340823e+000	 1.470346789557903e+000	 1.102069679405218e+001
 3.133663651060593e+000	 1.501924472825550e+000	 1.103803637197558e+001
 3.118380383734608e+000	 1.533404311460927e+000	 1.108554436988522e+001
 3.102754554825951e+000	 1.564780870472264e+000	 1.117938070194160e+001
 3.086786923742023e+000	 1.596048710888871e+000	 1.129511963268897e+001
 3.254259053716807e+000	 1.288331483489811e+000	 1.103907424352556e+001
 3.241293049845800e+000	 1.320613253401518e+000	 1.102946400087236e+001
 3.227979782949084e+000	 1.352829080447324e+000	 1.102247557439316e+001
 3.214319244282112e+000	 1.384973572263021e+000	 1.101932598584202e+001
 3.200311532997376e+000	 1.417041316191711e+000	 1.102128132062278e+001
 3.185956857143146e+000	 1.449026881896090e+000	 1.102965648601508e+001
 3.171255534588795e+000	 1.480924824014684e+000	 1.104581485137273e+001
 3.156207993874709e+000	 1.512729684859719e+000	 1.107116776748687e+001
 3.140814774984898e+000	 1.544435997154201e+000	 1.110717396258690e+001
 3.125076530040452e+000	 1.576038286805698e+000	 1.115533881275009e+001
 3.108994023912139e+000	 1.607531075714235e+000	 1.127414358973274e+001
 2.886923022211355e+000	 1.492707427438275e+000	 1.152725397398040e+001
 2.871670410844536e+000	 1.521843964270075e+000	 1.154124029723859e+001
 2.856099864831404e+000	 1.550868647634841e+000	 1.155892824745254e+001
 2.840212411137345e+000	 1.579776395484173e+000	 1.157834091722189e+001
 2.824009182919216e+000	 1.608562132743385e+000	 1.159737928038373e+001
 2.807491419697759e+000	 1.637220794038314e+000	 1.161382344263854e+001
 2.790660467447267e+000	 1.665747326437760e+000	 1.162533421923541e+001
 2.773517778601557e+000	 1.694136692208680e+000	 1.162945504224117e+001
 2.756064911975476e+000	 1.722383871581193e+000	 1.162361419895617e+001
 2.738303532601247e+000	 1.750483865520404e+000	 1.160512740205273e+001
 2.720235411479095e+000	 1.778431698502015e+000	 1.157120069100539e+001
 2.909130122381398e+000	 1.504189792268103e+000	 1.148553017534979e+001
 2.893760183235911e+000	 1.533550456306829e+000	 1.149497275191348e+001
 2.878069863792879e+000	 1.562798406467084e+000	 1.150842237270747e+001
 2.862060198917423e+000	 1.591928521607786e+000	 1.152387467688485e+001
 2.845732330482985e+000	 1.620935687615213e+000	 1.153919998751987e+001
 2.829087507545085e+000	 1.649814800150784e+000	 1.155214456762873e+001
 2.812127086431664e+000	 1.678560767414597e+000	 1.156033221117609e+001
 2.794852530749106e+000	 1.707168512921817e+000	 1.156126617169433e+001
 2.777265411303141e+000	 1.735632978288948e+000	 1.155233143015827e+001
 2.759367405933931e+000	 1.763949126026977e+000	 1.153079730274813e+001
 2.741160299264779e+000	 1.792111942338345e+000	 1.149382038810241e+001
 2.931337222551448e+000	 1.515672157097435e+000	 1.145013173783987e+001
 2.915849955627105e+000	 1.545256948342998e+000	 1.145489697139237e+001
 2.900039862754003e+000	 1.574728165298670e+000	 1.146404310871993e+001
 2.883907986696995e+000	 1.604080647730691e+000	 1.147553807947789e+001
 2.867455478046118e+000	 1.633309242486302e+000	 1.148722120225004e+001
 2.850683595391665e+000	 1.662408806262504e+000	 1.149680444550021e+001
 2.833593705415224e+000	 1.691374208390694e+000	 1.150187403161400e+001
 2.816187282895747e+000	 1.720200333634242e+000	 1.149989238676370e+001
 2.798465910629847e+000	 1.748882084996039e+000	 1.148820043832137e+001
 2.780431279265625e+000	 1.777414386532957e+000	 1.146402026051153e+001
 2.762085187049463e+000	 1.805792186174171e+000	 1.142445806793976e+001
 2.953544322721507e+000	 1.527154521926272e+000	 1.142005668028695e+001
 2.937939728018115e+000	 1.556963440378580e+000	 1.142000061420778e+001
 2.922009861714772e+000	 1.586657924129600e+000	 1.142476822155011e+001
 2.905755774476064e+000	 1.616232773852888e+000	 1.143229946860347e+001
 2.889178625608617e+000	 1.645682797356652e+000	 1.144040231723150e+001
 2.872279683237499e+000	 1.675002812373475e+000	 1.144675399028323e+001
 2.855060324397947e+000	 1.704187649366050e+000	 1.144890258837884e+001
 2.837522035041479e+000	 1.733232154345956e+000	 1.144426906091146e+001
 2.819666409955593e+000	 1.762131191702468e+000	 1.143014953307504e+001
 2.801495152596329e+000	 1.790879647038344e+000	 1.140371798967077e+001
 2.783010074833148e+000	 1.819472430009495e+000	 1.136202931536400e+001
 2.975751422891574e+000	 1.538636886754612e+000	 1.139430164884710e+001
 2.960029500408944e+000	 1.568669932413575e+000	 1.138927011524871e+001
 2.943979860675189e+000	 1.598587682959872e+000	 1.138957441237966e+001
 2.927603562254629e+000	 1.628384899974378e+000	 1.139312629144857e+001
 2.910901773170480e+000	 1.658056352226264e+000	 1.139770200683031e+001
 2.893875771082586e+000	 1.687596818483696e+000	 1.140094358545949e+001
 2.876526943379831e+000	 1.717001090340666e+000	 1.140036045606338e+001
 2.858856787186303e+000	 1.746263975056959e+000	 1.139333144118768e+001
 2.840866909280380e+000	 1.775380298408235e+000	 1.137710711391288e+001
 2.822559025926043e+000	 1.804344907543139e+000	 1.134881252007656e+001
 2.803934962615832e+000	 1.833152673844316e+000	 1.130545026571149e+001
 2.997958523061648e+000	 1.550119251582456e+000	 1.137186196783613e+001
 2.982119272799590e+000	 1.580376424447985e+000	 1.136169073108076e+001
 2.965949859635252e+000	 1.610517441789487e+000	 1.135743735695174e+001
 2.949451350032689e+000	 1.640537026095161e+000	 1.135698513198524e+001
 2.932624920731709e+000	 1.670429907095137e+000	 1.135807825372472e+001
 2.915471858926927e+000	 1.700190824593167e+000	 1.135832310361210e+001
 2.897993562360879e+000	 1.729814531314541e+000	 1.135518988836557e+001
 2.880191539330218e+000	 1.759295795767250e+000	 1.134601465291237e+001
 2.862067408604207e+000	 1.788629405113341e+000	 1.132800166686422e+001
 2.843622899254766e+000	 1.817810168047342e+000	 1.129822618541650e+001
 2.824859850397516e+000	 1.846832917678635e+000	 1.125363758441988e+001
 3.020165623231730e+000	 1.561601616409804e+000	 1.135173168832671e+001
 3.004209045190053e+000	 1.592082916481808e+000	 1.133624658326686e+001
 2.987919858594963e+000	 1.622447200618447e+000	 1.132733174327088e+001
 2.971299137810247e+000	 1.652689152215236e+000	 1.132284174270647e+001
 2.954348068292302e+000	 1.682803461963273e+000	 1.132048837433490e+001
 2.937067946770523e+000	 1.712784830701890e+000	 1.131784192520859e+001
 2.919460181341089e+000	 1.742627972287676e+000	 1.131233282988617e+001
 2.901526291473225e+000	 1.772327616476831e+000	 1.130125370415075e+001
 2.883267907927075e+000	 1.801878511817784e+000	 1.128176176131266e+001
 2.864686772582501e+000	 1.831275428550951e+000	 1.125088161204455e+001
 2.845784738178201e+000	 1.860513161512450e+000	 1.120550844753909e+001
 3.042372723401820e+000	 1.573083981236655e+000	 1.133290363461702e+001
 3.026298817580335e+000	 1.603789408515045e+000	 1.131192069979073e+001
 3.009889857554320e+000	 1.634376959446748e+000	 1.129823130765190e+001
 2.993146925587299e+000	 1.664841278334603e+000	 1.128966107497218e+001
 2.976071215852259e+000	 1.695177016830668e+000	 1.128388904313893e+001
 2.958664034613371e+000	 1.725378836809862e+000	 1.127844895656143e+001
 2.940926800320462e+000	 1.755441413260070e+000	 1.127073092740963e+001
 2.922861043615324e+000	 1.785359437185700e+000	 1.125798348999271e+001
 2.904468407248984e+000	 1.815127618521566e+000	 1.123731604695398e+001
 2.885750645909246e+000	 1.844740689053969e+000	 1.120570170829986e+001
 2.866709625957885e+000	 1.874193405345763e+000	 1.115998052309584e+001
 3.064579823571918e+000	 1.584566346063012e+000	 1.131436944867920e+001
 3.048388589970434e+000	 1.615495900547695e+000	 1.128769505467931e+001
 3.031859856513325e+000	 1.646306718274394e+000	 1.126910886920139e+001
 3.014994713363848e+000	 1.676993404453262e+000	 1.125640730803569e+001
 2.997794363411584e+000	 1.707550571697327e+000	 1.124723631593157e+001
 2.980260122455474e+000	 1.737972842917085e+000	 1.123909264700746e+001
 2.962393419298998e+000	 1.768254854231724e+000	 1.122932554069460e+001
 2.944195795756514e+000	 1.798391257893857e+000	 1.121513879664610e+001
 2.925668906569935e+000	 1.828376725224685e+000	 1.119359325088628e+001
 2.906814519235000e+000	 1.858205949556393e+000	 1.116160965428987e+001
 2.887634513736569e+000	 1.887873649178574e+000	 1.119679444085281e+001
 3.086786923742023e+000	 1.596048710888871e+000	 1.129511963268897e+001
 3.070478362360350e+000	 1.627202392579759e+000	 1.126255060591488e+001
 3.053829855471977e+000	 1.658236477101382e+000	 1.123893636281085e+001
 3.036842501139893e+000	 1.689145530571214e+000	 1.122204387681744e+001
 3.019517510970271e+000	 1.719924126563246e+000	 1.120948565207908e+001
 3.001856210296831e+000	 1.750566849023559e+000	 1.119872100534597e+001
 2.983860038276696e+000	 1.781068295202637e+000	 1.118705775279859e+001
 2.965530547896796e+000	 1.811423078601303e+000	 1.117165430535335e+001
 2.946869405889925e+000	 1.841625831927142e+000	 1.114952217482571e+001
 2.927878392559766e+000	 1.871671210058226e+000	 1.111752889211453e+001
 2.908559401514253e+000	 1.901553893010882e+000	 1.123805506379871e+001
 3.108994023912139e+000	 1.607531075714235e+000	 1.127414358973274e+001
 3.092568134750085e+000	 1.638908884611238e+000	 1.123546733172240e+001
 3.075799854430276e+000	 1.670166235927714e+000	 1.120668487073579e+001
 3.058690288915435e+000	 1.701297656688459e+000	 1.118553349848832e+001
 3.041240658528325e+000	 1.732297681428427e+000	 1.116959193582023e+001
 3.023452298137441e+000	 1.763160855129283e+000	 1.115628161557213e+001
 3.005326657253558e+000	 1.793881736172811e+000	 1.114286837996016e+001
 2.986865300036170e+000	 1.824454899308038e+000	 1.112646459614025e+001
 2.968069905208957e+000	 1.854874938628938e+000	 1.110403169244160e+001
 2.948942265883543e+000	 1.885136470559467e+000	 1.113465045899116e+001
 2.929484289290938e+000	 1.915234136842687e+000	 1.127854198857647e+001
 2.720235411479095e+000	 1.778431698502015e+000	 1.157120069100539e+001
 2.701862425241567e+000	 1.806222421288800e+000	 1.149231528376048e+001
 2.683186555731693e+000	 1.833851113704457e+000	 1.138305687698997e+001
 2.664209889494488e+000	 1.861312887401978e+000	 1.124003088441092e+001
 2.644934617181425e+000	 1.888602888623658e+000	 1.118510173331347e+001
 2.625363032868398e+000	 1.915716300949207e+000	 1.123564579415388e+001
 2.605497533287247e+000	 1.942648348028941e+000	 1.127160892875069e+001
 2.585340616971148e+000	 1.969394296298900e+000	 1.129226886293883e+001
 2.564894883314335e+000	 1.995949457674740e+000	 1.129690534832424e+001
 2.544163031546755e+000	 2.022309192221251e+000	 1.128480102966962e+001
 2.523147859624355e+000	 2.048468910794402e+000	 1.125524232469310e+001
 2.741160299264779e+000	 1.792111942338345e+000	 1.149382038810241e+001
 2.722645982363904e+000	 1.820116439914905e+000	 1.140542487412347e+001
 2.703826452319316e+000	 1.847957660732984e+000	 1.128768353864562e+001
 2.684703811726376e+000	 1.875630678842904e+000	 1.114243607364223e+001
 2.665280268087723e+000	 1.903130603150365e+000	 1.120014895772847e+001
 2.645558133125989e+000	 1.930452580185686e+000	 1.124429536970825e+001
 2.625539822009412e+000	 1.957591796858037e+000	 1.127414376897859e+001
 2.605227852490652e+000	 1.984543483191425e+000	 1.128896330239849e+001
 2.584624843959287e+000	 2.011302915039319e+000	 1.128802466693302e+001
 2.563733516408568e+000	 2.037865416774702e+000	 1.127060098712084e+001
 2.542556689317182e+000	 2.064226363952433e+000	 1.123596870589245e+001
 2.762085187049463e+000	 1.805792186174171e+000	 1.142445806793976e+001
 2.743429539485246e+000	 1.834010458540603e+000	 1.132672010412964e+001
 2.724466348905958e+000	 1.862064207761188e+000	 1.120070716526988e+001
 2.705197733957309e+000	 1.889948470283585e+000	 1.116442561158949e+001
 2.685625918993101e+000	 1.917658317676889e+000	 1.121550589927495e+001
 2.665753233382703e+000	 1.945188859422040e+000	 1.125330996285470e+001
 2.645582110730754e+000	 1.972535245687052e+000	 1.127709807896401e+001
 2.625115088009400e+000	 1.999692670083905e+000	 1.128613072348531e+001
 2.604354804603557e+000	 2.026656372403878e+000	 1.127966944342609e+001
 2.583304001269784e+000	 2.053421641328147e+000	 1.125697774458057e+001
 2.561965519009508e+000	 2.079983817110463e+000	 1.121732199348882e+001
 2.783010074833148e+000	 1.819472430009495e+000	 1.136202931536400e+001
 2.764213096605592e+000	 1.847904477165892e+000	 1.125511900900856e+001
 2.745106245491620e+000	 1.876170754789071e+000	 1.112981614038057e+001
 2.725691656187286e+000	 1.904266261724016e+000	 1.118655987106355e+001
 2.705971569897559e+000	 1.932186032203232e+000	 1.123106385885649e+001
 2.685948333638542e+000	 1.959925138658268e+000	 1.126258126433133e+001
 2.665624399451278e+000	 1.987478694515987e+000	 1.128036409251427e+001
 2.645002323527393e+000	 2.014841856976339e+000	 1.128366405591810e+001
 2.624084765247146e+000	 2.042009829768418e+000	 1.127173345575679e+001
 2.602874486130406e+000	 2.068977865881588e+000	 1.124382607991400e+001
 2.581374348701332e+000	 2.095741270268494e+000	 1.119919811616497e+001
 2.803934962615832e+000	 1.833152673844316e+000	 1.130545026571149e+001
 2.784996653724944e+000	 1.861798495790774e+000	 1.118954017636126e+001
 2.765746142076302e+000	 1.890277301816630e+000	 1.115880355032294e+001
 2.746185578416309e+000	 1.918584053164202e+000	 1.120873046422326e+001
 2.726317220801094e+000	 1.946713746729394e+000	 1.124671467828843e+001
 2.706143433893507e+000	 1.974661417894369e+000	 1.127200149624617e+001
 2.685666688170978e+000	 2.002422143344840e+000	 1.128383456239808e+001
 2.664889559044628e+000	 2.029991043868728e+000	 1.128145673310095e+001
 2.643814725890054e+000	 2.057363287132937e+000	 1.126411096742133e+001
 2.622444970990429e+000	 2.084534090435024e+000	 1.123104123552345e+001
 2.600783178392654e+000	 2.111498723426525e+000	 1.118149344327634e+001
 2.824859850397516e+000	 1.846832917678635e+000	 1.125363758441988e+001
 2.805780210843301e+000	 1.875692514415249e+000	 1.113360912708303e+001
 2.786386038660004e+000	 1.904383848843868e+000	 1.118766246182729e+001
 2.766679500644376e+000	 1.932901844604140e+000	 1.123082953053572e+001
 2.746662871703712e+000	 1.961241461255374e+000	 1.126235072026411e+001
 2.726338534147595e+000	 1.989397697130344e+000	 1.128146339239681e+001
 2.705708976889859e+000	 2.017365592173614e+000	 1.128740274112465e+001
 2.684776794561109e+000	 2.045140230761071e+000	 1.127940267346824e+001
 2.663544686532281e+000	 2.072716744497436e+000	 1.125669670947571e+001
 2.642015455849857e+000	 2.100090314988454e+000	 1.121851890114316e+001
 2.620192008083476e+000	 2.127256176584556e+000	 1.116410476852978e+001
 2.845784738178201e+000	 1.860513161512450e+000	 1.120550844753909e+001
 2.826563767960662e+000	 1.889586533039316e+000	 1.116923917045184e+001
 2.807025935242726e+000	 1.918490395870783e+000	 1.121628545062330e+001
 2.787173422871487e+000	 1.947219636043832e+000	 1.125274971738997e+001
 2.767008522605407e+000	 1.975769175781172e+000	 1.127786484920488e+001
 2.746533634400807e+000	 2.004133976366193e+000	 1.129086017945828e+001
 2.725751265607919e+000	 2.032309041002305e+000	 1.129096236257093e+001
 2.704664030076832e+000	 2.060289417653369e+000	 1.127739626265261e+001
 2.683274647173826e+000	 2.088070201861914e+000	 1.124938586334603e+001
 2.661585940708688e+000	 2.115646539541879e+000	 1.120615519739338e+001
 2.639600837773796e+000	 2.143013629742586e+000	 1.114692929438249e+001
 2.866709625957885e+000	 1.874193405345763e+000	 1.115998052309584e+001
 2.847347325077028e+000	 1.903480551662975e+000	 1.120446939572683e+001
 2.827665831824468e+000	 1.932596942897376e+000	 1.124456558523730e+001
 2.807667345097644e+000	 1.961537427483276e+000	 1.127438416155974e+001
 2.787354173506182e+000	 1.990296890306788e+000	 1.129315041294894e+001
 2.766728734653143e+000	 2.018870255601915e+000	 1.130008555899480e+001
 2.745793554325158e+000	 2.047252489830916e+000	 1.129440762441346e+001
 2.724551265591801e+000	 2.075438604545620e+000	 1.127533233643392e+001
 2.703004607814691e+000	 2.103423659226372e+000	 1.124207404439166e+001
 2.681156425566923e+000	 2.131202764095300e+000	 1.119384666005457e+001
 2.659009667463616e+000	 2.158771082900617e+000	 1.112986461712408e+001
 2.887634513736569e+000	 1.887873649178574e+000	 1.119679444085281e+001
 2.868130882192400e+000	 1.917374570286227e+000	 1.123919342181210e+001
 2.848305728405229e+000	 1.946703489923646e+000	 1.127239640913728e+001
 2.828161267322845e+000	 1.975855218922473e+000	 1.129562647147206e+001
 2.807699824406037e+000	 2.004824604832223e+000	 1.130810122523617e+001
 2.786923834904604e+000	 2.033606534837511e+000	 1.130903369025368e+001
 2.765835843041575e+000	 2.062195938659446e+000	 1.129763317132399e+001
 2.744438501106012e+000	 2.090587791437828e+000	 1.127310616442966e+001
 2.722734568454874e+000	 2.118777116590811e+000	 1.123465728618295e+001
 2.700726910424563e+000	 2.146758988648715e+000	 1.118149022502527e+001
 2.678418497152933e+000	 2.174528536058647e+000	 1.111280871260724e+001
 2.908559401514253e+000	 1.901553893010882e+000	 1.123805506379871e+001
 2.888914439306776e+000	 1.931268588909071e+000	 1.127330532626966e+001
 2.868945624985010e+000	 1.960810036949595e+000	 1.129967192364866e+001
 2.848655189547090e+000	 1.990173010361424e+000	 1.131637071024132e+001
 2.828045475304971e+000	 2.019352319357477e+000	 1.132261154894916e+001
 2.807118935155189e+000	 2.048342814072982e+000	 1.131759917370189e+001
 2.785878131757172e+000	 2.077139387487895e+000	 1.130053407889055e+001
 2.764325736619468e+000	 2.105736978329988e+000	 1.127061343448913e+001
 2.742464529094375e+000	 2.134130573955228e+000	 1.122703202545774e+001
 2.720297395281605e+000	 2.162315213202126e+000	 1.116898321392954e+001
 2.697827326841749e+000	 2.190285989216679e+000	 1.109565992259446e+001
 2.929484289290938e+000	 1.915234136842687e+000	 1.127854198857647e+001
 2.909697996420158e+000	 1.945162607531509e+000	 1.130669962893888e+001
 2.889585521563812e+000	 1.974916583975221e+000	 1.132628657160225e+001
 2.869149111770381e+000	 2.004490801800127e+000	 1.133651137943050e+001
 2.848391126202986e+000	 2.033880033882548e+000	 1.133657608007230e+001
 2.827314035404899e+000	 2.063079093308326e+000	 1.132567703526821e+001
 2.805920420471948e+000	 2.092082836316265e+000	 1.130300583822759e+001
 2.784212972132169e+000	 2.120886165222105e+000	 1.126775023775675e+001
 2.762194489733197e+000	 2.149484031319626e+000	 1.121909508772248e+001
 2.739867880138053e+000	 2.177871437755532e+000	 1.115622332034090e+001
 2.717236156530065e+000	 2.206043442374710e+000	 1.107831694168977e+001
 2.523147859624355e+000	 2.048468910794402e+000	 1.125524232469310e+001
 2.501852263035922e+000	 2.074424077653029e+000	 1.116459792049779e+001
 2.480279233527257e+000	 2.100170213036469e+000	 1.104333184144901e+001
 2.458431857744017e+000	 2.125702895705409e+000	 1.094328870309106e+001
 2.436313315794466e+000	 2.151017765443552e+000	 1.086653185190052e+001
 2.413926879733346e+000	 2.176110525516454e+000	 1.081041772017005e+001
 2.391275911968414e+000	 2.200976945084877e+000	 1.077219199452964e+001
 2.368363863591268e+000	 2.225612861569795e+000	 1.074899550915803e+001
 2.345194272634154e+000	 2.250014182966334e+000	 1.073787044423846e+001
 2.321770762254630e+000	 2.274176890103913e+000	 1.073576681458104e+001
 2.298097038850000e+000	 2.298097038850000e+000	 1.073954923236319e+001
 2.542556689317182e+000	 2.064226363952433e+000	 1.123596870589245e+001
 2.521097280446934e+000	 2.090381185940973e+000	 1.116079238096912e+001
 2.499358304557080e+000	 2.116325368519902e+000	 1.109228216383707e+001
 2.477342872036707e+000	 2.142054456440371e+000	 1.099501141243684e+001
 2.455054187456451e+000	 2.167564055945962e+000	 1.092002681979433e+001
 2.432495548040706e+000	 2.192849837250425e+000	 1.086453368048704e+001
 2.409670342061902e+000	 2.217907536969605e+000	 1.082562470740003e+001
 2.386582047158496e+000	 2.242732960504639e+000	 1.080028615796072e+001
 2.363234228578369e+000	 2.267321984373689e+000	 1.078540427197139e+001
 2.339630537349519e+000	 2.291670558489480e+000	 1.077777200544965e+001
 2.315774708380000e+000	 2.315774708380000e+000	 1.077409604389415e+001
 2.561965519009508e+000	 2.079983817110463e+000	 1.121732199348882e+001
 2.540342297857539e+000	 2.106338294228916e+000	 1.115623188830782e+001
 2.518437375586582e+000	 2.132480524003333e+000	 1.110114635846293e+001
 2.496253886329152e+000	 2.158406017175334e+000	 1.104548694227996e+001
 2.473795059118257e+000	 2.184110346448371e+000	 1.097131344590906e+001
 2.451064216347939e+000	 2.209589148984396e+000	 1.091556410701281e+001
 2.428064772155310e+000	 2.234838128854334e+000	 1.087517747097338e+001
 2.404800230725679e+000	 2.259853059439483e+000	 1.084698392035532e+001
 2.381274184522563e+000	 2.284629785781046e+000	 1.082771235459313e+001
 2.357490312444403e+000	 2.309164226875049e+000	 1.081399717171957e+001
 2.333452377910000e+000	 2.333452377910000e+000	 1.080238553501205e+001
 2.581374348701332e+000	 2.095741270268494e+000	 1.119919811616497e+001
 2.559587315267738e+000	 2.122295402516860e+000	 1.115084594177397e+001
 2.537516446615764e+000	 2.148635679486764e+000	 1.110650470235063e+001
 2.515164900621352e+000	 2.174757577910296e+000	 1.106620944974156e+001
 2.492535930779882e+000	 2.200656636950781e+000	 1.101910877718518e+001
 2.469632884655048e+000	 2.226328460718368e+000	 1.096226764137417e+001
 2.446459202248637e+000	 2.251768720739063e+000	 1.091965059826912e+001
 2.423018414292818e+000	 2.276973158374327e+000	 1.088793082412892e+001
 2.399314140466738e+000	 2.301937587188402e+000	 1.086367844427344e+001
 2.375350087539282e+000	 2.326657895260617e+000	 1.084336776541074e+001
 2.351130047440000e+000	 2.351130047440000e+000	 1.082338479856180e+001
 2.600783178392654e+000	 2.111498723426525e+000	 1.118149344327634e+001
 2.578832332677530e+000	 2.138252510804803e+000	 1.114456349130785e+001
 2.556595517644623e+000	 2.164790834970196e+000	 1.110968198339071e+001
 2.534075914913305e+000	 2.191109138645258e+000	 1.107681602698777e+001
 2.511276802441324e+000	 2.217202927453191e+000	 1.104592049194407e+001
 2.488201552962031e+000	 2.243067772452339e+000	 1.100339861996561e+001
 2.464853632341883e+000	 2.268699312623791e+000	 1.095783921148778e+001
 2.441236597859911e+000	 2.294093257309171e+000	 1.092196284292564e+001
 2.417354096410892e+000	 2.319245388595757e+000	 1.089217939840638e+001
 2.393209862634155e+000	 2.344151563646185e+000	 1.086480152624064e+001
 2.368807716970000e+000	 2.368807716970000e+000	 1.083605242106511e+001
 2.620192008083476e+000	 2.127256176584556e+000	 1.116410476852978e+001
 2.598077350086916e+000	 2.154209619092746e+000	 1.113731295787507e+001
 2.575674588673162e+000	 2.180945990453628e+000	 1.111063767539094e+001
 2.552986929205012e+000	 2.207460699380221e+000	 1.108397864195403e+001
 2.530017674102587e+000	 2.233749217955601e+000	 1.105722480662336e+001
 2.506770221268889e+000	 2.259807084186310e+000	 1.103025460956884e+001
 2.483248062435050e+000	 2.285629904508520e+000	 1.098853343426372e+001
 2.459454781426959e+000	 2.311213356244015e+000	 1.094791012047423e+001
 2.435394052355027e+000	 2.336553190003114e+000	 1.091208543497235e+001
 2.411069637729024e+000	 2.361645232031754e+000	 1.087720876726505e+001
 2.386485386499999e+000	 2.386485386500000e+000	 1.083933879776947e+001
 2.639600837773796e+000	 2.143013629742586e+000	 1.114692929438249e+001
 2.617322367495897e+000	 2.170166727380690e+000	 1.112902225291414e+001
 2.594753659701379e+000	 2.197101145937059e+000	 1.110932984282952e+001
 2.571897943496473e+000	 2.223812260115183e+000	 1.108768494029461e+001
 2.548758545763669e+000	 2.250295508458011e+000	 1.106391109351065e+001
 2.525338889575621e+000	 2.276546395920281e+000	 1.103782286292693e+001
 2.501642492528136e+000	 2.302560496393249e+000	 1.100922618699997e+001
 2.477672964993961e+000	 2.328333455178859e+000	 1.096459718492310e+001
 2.453434008299141e+000	 2.353860991410470e+000	 1.092226037663414e+001
 2.428929412823889e+000	 2.379138900417323e+000	 1.087949264791716e+001
 2.404163056029999e+000	 2.404163056029999e+000	 1.083218643379798e+001
 2.659009667463616e+000	 2.158771082900617e+000	 1.112986461712408e+001
 2.636567384904470e+000	 2.186123835668633e+000	 1.111961879693239e+001
 2.613832730729275e+000	 2.213256301420491e+000	 1.110571519229064e+001
 2.590808957787688e+000	 2.240163820850145e+000	 1.108792036104894e+001
 2.567499417424571e+000	 2.266841798960421e+000	 1.106599295529838e+001
 2.543907557882227e+000	 2.293285707654253e+000	 1.103968413843819e+001
 2.520036922621142e+000	 2.319491088277978e+000	 1.100873802628873e+001
 2.495891148560918e+000	 2.345453554113703e+000	 1.097084315378859e+001
 2.471473964243236e+000	 2.371168792817826e+000	 1.092156188414279e+001
 2.446789187918747e+000	 2.396632568802891e+000	 1.087054943508858e+001
 2.421840725560000e+000	 2.421840725560000e+000	 1.081353023211005e+001
 2.678418497152933e+000	 2.174528536058647e+000	 1.111280871260724e+001
 2.655812402312637e+000	 2.202080943956577e+000	 1.110902953729333e+001
 2.632911801756850e+000	 2.229411456903923e+000	 1.109974912166334e+001
 2.609719972078657e+000	 2.256515381585107e+000	 1.108466821659146e+001
 2.586240289085291e+000	 2.283388089462831e+000	 1.106348106804039e+001
 2.562476226188708e+000	 2.310025019388224e+000	 1.103587591056789e+001
 2.538431352714066e+000	 2.336421680162706e+000	 1.100153548340797e+001
 2.514109332127830e+000	 2.362573653048547e+000	 1.096013756802795e+001
 2.489513920187309e+000	 2.388476594225181e+000	 1.090884167959514e+001
 2.464648963013601e+000	 2.414126237188460e+000	 1.084926875285923e+001
 2.439518395090000e+000	 2.439518395090000e+000	 1.078229776894209e+001
 2.697827326841749e+000	 2.190285989216679e+000	 1.109565992259446e+001
 2.675057419720397e+000	 2.218038052244520e+000	 1.109718096523619e+001
 2.651990872784105e+000	 2.245566612387354e+000	 1.109138576721703e+001
 2.628630986369380e+000	 2.272866942320069e+000	 1.107790976913036e+001
 2.604981160745831e+000	 2.299934379965241e+000	 1.105638328642680e+001
 2.581044894495063e+000	 2.326764331122195e+000	 1.102643207895876e+001
 2.556825782806911e+000	 2.353352272047435e+000	 1.098767794165846e+001
 2.532327515694697e+000	 2.379693751983390e+000	 1.093973931511334e+001
 2.507553876131363e+000	 2.405784395632538e+000	 1.088223191472971e+001
 2.482508738108449e+000	 2.431619905574028e+000	 1.081453382144730e+001
 2.457196064620000e+000	 2.457196064620000e+000	 1.073740955735880e+001
 2.717236156530065e+000	 2.206043442374710e+000	 1.107831694168977e+001
 2.694302437127753e+000	 2.233995160532463e+000	 1.108399913216611e+001
 2.671069943811038e+000	 2.261721767870786e+000	 1.108057804865925e+001
 2.647542000659858e+000	 2.289218503055032e+000	 1.106762430392781e+001
 2.623722032406190e+000	 2.316480670467651e+000	 1.104470474454686e+001
 2.599613562801293e+000	 2.343503642856166e+000	 1.101138309610322e+001
 2.575220212899676e+000	 2.370282863932164e+000	 1.096722062811170e+001
 2.550545699261519e+000	 2.396813850918235e+000	 1.091177683728044e+001
 2.525593832075397e+000	 2.423092197039895e+000	 1.084461014768236e+001
 2.500368513203295e+000	 2.449113573959597e+000	 1.076527862632313e+001
 2.474873734150000e+000	 2.474873734150000e+000	 1.067777929950915e+001
 2.298097038850000e+000	 2.298097038850000e+000	 1.073954923236319e+001
 2.274176890103912e+000	 2.321770762254630e+000	 1.098949249020768e+001
 2.250014182966333e+000	 2.345194272634154e+000	 1.118359736835361e+001
 2.225612861569795e+000	 2.368363863591268e+000	 1.131731703317045e+001
 2.200976945084877e+000	 2.391275911968415e+000	 1.138610052352914e+001
 2.176110525516454e+000	 2.413926879733345e+000	 1.138540178557959e+001
 2.151017765443552e+000	 2.436313315794466e+000	 1.131068879676304e+001
 2.125702895705410e+000	 2.458431857744016e+000	 1.115745275615266e+001
 2.100170213036469e+000	 2.480279233527257e+000	 1.092121731791866e+001
 2.074424077653029e+000	 2.501852263035922e+000	 1.062148957726792e+001
 2.048468910794402e+000	 2.523147859624355e+000	 1.052285216375532e+001
 2.315774708380000e+000	 2.315774708380000e+000	 1.077409604389415e+001
 2.291670558489480e+000	 2.339630537349518e+000	 1.098982058343270e+001
 2.267321984373690e+000	 2.363234228578369e+000	 1.115302130412726e+001
 2.242732960504639e+000	 2.386582047158496e+000	 1.125914922318759e+001
 2.217907536969605e+000	 2.409670342061902e+000	 1.130364609355041e+001
 2.192849837250426e+000	 2.432495548040706e+000	 1.128195355050371e+001
 2.167564055945962e+000	 2.455054187456451e+000	 1.118952235672570e+001
 2.142054456440372e+000	 2.477342872036708e+000	 1.102182172243983e+001
 2.116325368519901e+000	 2.499358304557081e+000	 1.077434867706818e+001
 2.090381185940973e+000	 2.521097280446934e+000	 1.069100393452088e+001
 2.064226363952433e+000	 2.542556689317182e+000	 1.059833404837593e+001
 2.333452377910000e+000	 2.333452377910000e+000	 1.080238553501205e+001
 2.309164226875049e+000	 2.357490312444403e+000	 1.098742610975610e+001
 2.284629785781046e+000	 2.381274184522563e+000	 1.112324723319499e+001
 2.259853059439483e+000	 2.404800230725679e+000	 1.120529406915729e+001
 2.234838128854334e+000	 2.428064772155310e+000	 1.122899735313868e+001
 2.209589148984396e+000	 2.451064216347939e+000	 1.118978265599271e+001
 2.184110346448371e+000	 2.473795059118257e+000	 1.108307975528314e+001
 2.158406017175333e+000	 2.496253886329152e+000	 1.090433209059554e+001
 2.132480524003332e+000	 2.518437375586582e+000	 1.081507713386032e+001
 2.106338294228916e+000	 2.540342297857539e+000	 1.074220674123958e+001
 2.079983817110463e+000	 2.561965519009508e+000	 1.065776392702417e+001
 2.351130047440000e+000	 2.351130047440000e+000	 1.082338479856180e+001
 2.326657895260617e+000	 2.375350087539281e+000	 1.098122891005389e+001
 2.301937587188402e+000	 2.399314140466737e+000	 1.109314950376833e+001
 2.276973158374327e+000	 2.423018414292818e+000	 1.115458219213587e+001
 2.251768720739063e+000	 2.446459202248637e+000	 1.116094296648012e+001
 2.226328460718368e+000	 2.469632884655048e+000	 1.110763758300558e+001
 2.200656636950781e+000	 2.492535930779882e+000	 1.099007106576303e+001
 2.174757577910297e+000	 2.515164900621352e+000	 1.090116672144361e+001
 2.148635679486764e+000	 2.537516446615764e+000	 1.084203307469714e+001
 2.122295402516860e+000	 2.559587315267738e+000	 1.077542311433499e+001
 2.095741270268495e+000	 2.581374348701332e+000	 1.070140885539708e+001
 2.368807716970000e+000	 2.368807716970000e+000	 1.083605242106511e+001
 2.344151563646185e+000	 2.393209862634155e+000	 1.097014219946488e+001
 2.319245388595758e+000	 2.417354096410892e+000	 1.106159768680480e+001
 2.294093257309171e+000	 2.441236597859911e+000	 1.110584125142211e+001
 2.268699312623791e+000	 2.464853632341883e+000	 1.109827041765088e+001
 2.243067772452339e+000	 2.488201552962031e+000	 1.103426737934985e+001
 2.217202927453191e+000	 2.511276802441325e+000	 1.095480325537254e+001
 2.191109138645258e+000	 2.534075914913305e+000	 1.090378937524610e+001
 2.164790834970196e+000	 2.556595517644623e+000	 1.084912743802935e+001
 2.138252510804803e+000	 2.578832332677530e+000	 1.079098536253789e+001
 2.111498723426525e+000	 2.600783178392654e+000	 1.072954464276037e+001
 2.386485386499999e+000	 2.386485386500000e+000	 1.083933879776947e+001
 2.361645232031754e+000	 2.411069637729024e+000	 1.095307281278831e+001
 2.336553190003114e+000	 2.435394052355026e+000	 1.102745675294324e+001
 2.311213356244014e+000	 2.459454781426959e+000	 1.105789605425209e+001
 2.285629904508520e+000	 2.483248062435050e+000	 1.103976605432500e+001
 2.259807084186310e+000	 2.506770221268889e+000	 1.098094524646663e+001
 2.233749217955601e+000	 2.530017674102588e+000	 1.093288558017162e+001
 2.207460699380221e+000	 2.552986929205012e+000	 1.088473300790070e+001
 2.180945990453627e+000	 2.575674588673162e+000	 1.083675539570900e+001
 2.154209619092746e+000	 2.598077350086916e+000	 1.078923272003515e+001
 2.127256176584556e+000	 2.620192008083476e+000	 1.074245552774218e+001
 2.404163056029999e+000	 2.404163056029999e+000	 1.083218643379798e+001
 2.379138900417322e+000	 2.428929412823889e+000	 1.092892143905515e+001
 2.353860991410470e+000	 2.453434008299141e+000	 1.098958724163320e+001
 2.328333455178858e+000	 2.477672964993961e+000	 1.100956866065432e+001
 2.302560496393249e+000	 2.501642492528136e+000	 1.098397236788617e+001
 2.276546395920281e+000	 2.525338889575621e+000	 1.093415765561049e+001
 2.250295508458011e+000	 2.548758545763669e+000	 1.088752751807348e+001
 2.223812260115183e+000	 2.571897943496473e+000	 1.084445330854185e+001
 2.197101145937059e+000	 2.594753659701379e+000	 1.080531730607919e+001
 2.170166727380690e+000	 2.617322367495896e+000	 1.077051109185734e+001
 2.143013629742586e+000	 2.639600837773797e+000	 1.074043386843001e+001
 2.421840725560000e+000	 2.421840725560000e+000	 1.081353023211005e+001
 2.396632568802890e+000	 2.446789187918747e+000	 1.089658284582619e+001
 2.371168792817826e+000	 2.471473964243235e+000	 1.094684542285713e+001
 2.345453554113702e+000	 2.495891148560919e+000	 1.095967848371291e+001
 2.319491088277978e+000	 2.520036922621141e+000	 1.091186088430397e+001
 2.293285707654252e+000	 2.543907557882227e+000	 1.086222273333803e+001
 2.266841798960421e+000	 2.567499417424571e+000	 1.081924297322524e+001
 2.240163820850145e+000	 2.590808957787687e+000	 1.078340949953651e+001
 2.213256301420490e+000	 2.613832730729275e+000	 1.075521852468613e+001
 2.186123835668633e+000	 2.636567384904469e+000	 1.073517281041729e+001
 2.158771082900617e+000	 2.659009667463616e+000	 1.072377984604009e+001
 2.439518395090000e+000	 2.439518395090000e+000	 1.078229776894209e+001
 2.414126237188460e+000	 2.464648963013600e+000	 1.085494609373819e+001
 2.388476594225182e+000	 2.489513920187309e+000	 1.089808345182125e+001
 2.362573653048546e+000	 2.514109332127830e+000	 1.086966405756556e+001
 2.336421680162706e+000	 2.538431352714067e+000	 1.081294785940233e+001
 2.310025019388224e+000	 2.562476226188708e+000	 1.076571033959942e+001
 2.283388089462831e+000	 2.586240289085291e+000	 1.072854781213576e+001
 2.256515381585107e+000	 2.609719972078657e+000	 1.070206420846848e+001
 2.229411456903922e+000	 2.632911801756850e+000	 1.068686922322104e+001
 2.202080943956577e+000	 2.655812402312637e+000	 1.068357640263401e+001
 2.174528536058648e+000	 2.678418497152933e+000	 1.069280118147072e+001
 2.457196064620000e+000	 2.457196064620000e+000	 1.073740955735880e+001
 2.431619905574028e+000	 2.482508738108450e+000	 1.080289474178875e+001
 2.405784395632538e+000	 2.507553876131362e+000	 1.081064460271527e+001
 2.379693751983389e+000	 2.532327515694696e+000	 1.074324383095519e+001
 2.353352272047435e+000	 2.556825782806911e+000	 1.068785689227512e+001
 2.326764331122194e+000	 2.581044894495063e+000	 1.064519080502389e+001
 2.299934379965241e+000	 2.604981160745831e+000	 1.061595979308716e+001
 2.272866942320070e+000	 2.628630986369379e+000	 1.060088334564849e+001
 2.245566612387353e+000	 2.651990872784105e+000	 1.060068421627752e+001
 2.218038052244520e+000	 2.675057419720398e+000	 1.061608636710856e+001
 2.190285989216679e+000	 2.697827326841749e+000	 1.064781286409063e+001
 2.474873734150000e+000	 2.474873734150000e+000	 1.067777929950915e+001
 2.449113573959596e+000	 2.500368513203294e+000	 1.073728467388943e+001
 2.423092197039895e+000	 2.525593832075397e+000	 1.065605854814841e+001
 2.396813850918235e+000	 2.550545699261519e+000	 1.058909403904498e+001
 2.370282863932165e+000	 2.575220212899676e+000	 1.053721063711559e+001
 2.343503642856166e+000	 2.599613562801293e+000	 1.050123491410990e+001
 2.316480670467651e+000	 2.623722032406190e+000	 1.048199849857148e+001
 2.289218503055032e+000	 2.647542000659858e+000	 1.048033598687414e+001
 2.261721767870785e+000	 2.671069943811037e+000	 1.049708279553356e+001
 2.233995160532464e+000	 2.694302437127753e+000	 1.053307296084975e+001
 2.206043442374710e+000	 2.717236156530064e+000	 1.058913689215077e+001
 2.048468910794402e+000	 2.523147859624355e+000	 1.052285216375532e+001
 2.022309192221251e+000	 2.544163031546754e+000	 1.039021653518420e+001
 1.995949457674740e+000	 2.564894883314335e+000	 1.027952512466093e+001
 1.969394296298900e+000	 2.585340616971148e+000	 1.019141033491978e+001
 1.942648348028941e+000	 2.605497533287247e+000	 1.012648334524500e+001
 1.915716300949207e+000	 2.625363032868398e+000	 1.008533231037970e+001
 1.888602888623659e+000	 2.644934617181425e+000	 1.006852057032850e+001
 1.861312887401978e+000	 2.664209889494488e+000	 1.002701320507432e+001
 1.833851113704457e+000	 2.683186555731693e+000	 9.988532853101502e+000
 1.806222421288800e+000	 2.701862425241568e+000	 1.000536649988391e+001
 1.778431698502015e+000	 2.720235411479095e+000	 1.007003377981712e+001
 2.064226363952433e+000	 2.542556689317182e+000	 1.059833404837593e+001
 2.037865416774701e+000	 2.563733516408568e+000	 1.049148966434848e+001
 2.011302915039320e+000	 2.584624843959287e+000	 1.040213149784079e+001
 1.984543483191425e+000	 2.605227852490652e+000	 1.033078525976702e+001
 1.957591796858037e+000	 2.625539822009412e+000	 1.027796100627948e+001
 1.930452580185686e+000	 2.645558133125988e+000	 1.024415138858559e+001
 1.903130603150365e+000	 2.665280268087723e+000	 1.022982990506807e+001
 1.875630678842904e+000	 2.684703811726376e+000	 1.023544916109387e+001
 1.847957660732984e+000	 2.703826452319316e+000	 1.016628173625526e+001
 1.820116439914905e+000	 2.722645982363904e+000	 1.014522675175283e+001
 1.792111942338345e+000	 2.741160299264779e+000	 1.016705920153379e+001
 2.079983817110463e+000	 2.561965519009508e+000	 1.065776392702417e+001
 2.053421641328147e+000	 2.583304001269784e+000	 1.057333894654008e+001
 2.026656372403879e+000	 2.604354804603557e+000	 1.050201472152259e+001
 1.999692670083905e+000	 2.625115088009401e+000	 1.044421227386435e+001
 1.972535245687052e+000	 2.645582110730755e+000	 1.040034249921812e+001
 1.945188859422041e+000	 2.665753233382704e+000	 1.037080446555195e+001
 1.917658317676889e+000	 2.685625918993101e+000	 1.035598370546213e+001
 1.889948470283585e+000	 2.705197733957309e+000	 1.035625050767434e+001
 1.862064207761188e+000	 2.724466348905958e+000	 1.032016229627222e+001
 1.834010458540603e+000	 2.743429539485246e+000	 1.026102852848433e+001
 1.805792186174171e+000	 2.762085187049463e+000	 1.023996977288977e+001
 2.095741270268495e+000	 2.581374348701332e+000	 1.070140885539708e+001
 2.068977865881588e+000	 2.602874486130406e+000	 1.063609998360060e+001
 2.042009829768418e+000	 2.624084765247146e+000	 1.057957691176898e+001
 2.014841856976339e+000	 2.645002323527393e+000	 1.053215795167678e+001
 1.987478694515987e+000	 2.665624399451278e+000	 1.049415677870321e+001
 1.959925138658268e+000	 2.685948333638543e+000	 1.046588077696499e+001
 1.932186032203233e+000	 2.705971569897559e+000	 1.044762936970625e+001
 1.904266261724017e+000	 2.725691656187287e+000	 1.043969234042331e+001
 1.876170754789071e+000	 2.745106245491620e+000	 1.044234815023639e+001
 1.847904477165892e+000	 2.764213096605592e+000	 1.035022495312131e+001
 1.819472430009494e+000	 2.783010074833148e+000	 1.028633576563306e+001
 2.111498723426525e+000	 2.600783178392654e+000	 1.072954464276037e+001
 2.084534090435024e+000	 2.622444970990429e+000	 1.068011490543208e+001
 2.057363287132937e+000	 2.643814725890054e+000	 1.063522454013946e+001
 2.029991043868728e+000	 2.664889559044628e+000	 1.059509110449052e+001
 2.002422143344841e+000	 2.685666688170979e+000	 1.055993297231704e+001
 1.974661417894369e+000	 2.706143433893507e+000	 1.052996772323301e+001
 1.946713746729394e+000	 2.726317220801095e+000	 1.050541050899243e+001
 1.918584053164202e+000	 2.746185578416309e+000	 1.048647240217569e+001
 1.890277301816630e+000	 2.765746142076302e+000	 1.047335873278619e+001
 1.861798495790774e+000	 2.784996653724944e+000	 1.041025985319448e+001
 1.833152673844316e+000	 2.803934962615831e+000	 1.030371643775492e+001
 2.127256176584556e+000	 2.620192008083476e+000	 1.074245552774218e+001
 2.100090314988453e+000	 2.642015455849857e+000	 1.070573212821707e+001
 2.072716744497436e+000	 2.663544686532280e+000	 1.066936827237552e+001
 2.045140230761070e+000	 2.684776794561108e+000	 1.063348269756775e+001
 2.017365592173613e+000	 2.705708976889859e+000	 1.059820037417673e+001
 1.989397697130344e+000	 2.726338534147595e+000	 1.056365093745928e+001
 1.961241461255374e+000	 2.746662871703712e+000	 1.052996708776874e+001
 1.932901844604140e+000	 2.766679500644376e+000	 1.049728296474514e+001
 1.904383848843868e+000	 2.786386038660005e+000	 1.046573250112797e+001
 1.875692514415249e+000	 2.805780210843301e+000	 1.043544776189515e+001
 1.846832917678635e+000	 2.824859850397516e+000	 1.028966044140672e+001
 2.143013629742586e+000	 2.639600837773797e+000	 1.074043386843001e+001
 2.115646539541880e+000	 2.661585940708688e+000	 1.071330612330533e+001
 2.088070201861914e+000	 2.683274647173827e+000	 1.068242281420286e+001
 2.060289417653368e+000	 2.704664030076833e+000	 1.064780577095620e+001
 2.032309041002305e+000	 2.725751265607919e+000	 1.060948843881173e+001
 2.004133976366192e+000	 2.746533634400806e+000	 1.056751435041667e+001
 1.975769175781172e+000	 2.767008522605407e+000	 1.052193555781047e+001
 1.947219636043831e+000	 2.787173422871487e+000	 1.047281103006451e+001
 1.918490395870783e+000	 2.807025935242726e+000	 1.042020502230422e+001
 1.889586533039316e+000	 2.826563767960661e+000	 1.036418542191293e+001
 1.860513161512450e+000	 2.845784738178200e+000	 1.024170621282051e+001
 2.158771082900617e+000	 2.659009667463616e+000	 1.072377984604009e+001
 2.131202764095300e+000	 2.681156425566923e+000	 1.070319719622222e+001
 2.103423659226372e+000	 2.703004607814691e+000	 1.067480676388666e+001
 2.075438604545620e+000	 2.724551265591801e+000	 1.063853536376711e+001
 2.047252489830916e+000	 2.745793554325158e+000	 1.059432677530909e+001
 2.018870255601915e+000	 2.766728734653143e+000	 1.054214025267649e+001
 1.990296890306788e+000	 2.787354173506182e+000	 1.048194898642016e+001
 1.961537427483276e+000	 2.807667345097644e+000	 1.041373852251725e+001
 1.932596942897376e+000	 2.827665831824468e+000	 1.033750514459781e+001
 1.903480551662975e+000	 2.847347325077028e+000	 1.025325422525745e+001
 1.874193405345763e+000	 2.866709625957885e+000	 1.015738234515288e+001
 2.174528536058648e+000	 2.678418497152933e+000	 1.069280118147072e+001
 2.146758988648715e+000	 2.700726910424563e+000	 1.067577127528576e+001
 2.118777116590811e+000	 2.722734568454874e+000	 1.064694247119757e+001
 2.090587791437827e+000	 2.744438501106012e+000	 1.060614844174542e+001
 2.062195938659447e+000	 2.765835843041575e+000	 1.055324514171379e+001
 2.033606534837511e+000	 2.786923834904604e+000	 1.048810935403594e+001
 2.004824604832223e+000	 2.807699824406037e+000	 1.041063717905311e+001
 1.975855218922474e+000	 2.828161267322844e+000	 1.032074247290658e+001
 1.946703489923646e+000	 2.848305728405229e+000	 1.021835524096506e+001
 1.917374570286227e+000	 2.868130882192400e+000	 1.010341999229048e+001
 1.887873649178574e+000	 2.887634513736569e+000	 9.975894061221807e+000
 2.190285989216679e+000	 2.697827326841749e+000	 1.064781286409063e+001
 2.162315213202126e+000	 2.720297395281605e+000	 1.063139970934763e+001
 2.134130573955228e+000	 2.742464529094375e+000	 1.059925590246547e+001
 2.105736978329988e+000	 2.764325736619468e+000	 1.055112382796632e+001
 2.077139387487895e+000	 2.785878131757172e+000	 1.048677343967044e+001
 2.048342814072981e+000	 2.807118935155188e+000	 1.040600084038069e+001
 2.019352319357476e+000	 2.828045475304971e+000	 1.030862679665034e+001
 1.990173010361424e+000	 2.848655189547090e+000	 1.019449519448361e+001
 1.960810036949594e+000	 2.868945624985010e+000	 1.006347144196131e+001
 1.931268588909071e+000	 2.888914439306776e+000	 9.915440824903204e+000
 1.901553893010882e+000	 2.908559401514253e+000	 9.750306821770446e+000
 2.206043442374710e+000	 2.717236156530064e+000	 1.058913689215077e+001
 2.177871437755532e+000	 2.739867880138052e+000	 1.057045907420283e+001
 2.149484031319626e+000	 2.762194489733196e+000	 1.053217651141658e+001
 2.120886165222104e+000	 2.784212972132168e+000	 1.047394213650214e+001
 2.092082836316265e+000	 2.805920420471948e+000	 1.039544170929477e+001
 2.063079093308326e+000	 2.827314035404899e+000	 1.029639242811009e+001
 2.033880033882548e+000	 2.848391126202985e+000	 1.017654146794242e+001
 2.004490801800128e+000	 2.869149111770381e+000	 1.003566445143123e+001
 1.974916583975221e+000	 2.889585521563813e+000	 9.873563858683781e+000
 1.945162607531509e+000	 2.909697996420158e+000	 9.690067382175656e+000
 1.915234136842688e+000	 2.929484289290938e+000	 9.485026233063373e+000
 1.778431698502015e+000	 2.720235411479095e+000	 1.007003377981712e+001
 1.750483865520404e+000	 2.738303532601247e+000	 1.002819498760424e+001
 1.722383871581194e+000	 2.756064911975476e+000	 1.000677144886859e+001
 1.694136692208680e+000	 2.773517778601557e+000	 9.998049823315068e+000
 1.665747326437760e+000	 2.790660467447267e+000	 9.994393219093395e+000
 1.637220794038314e+000	 2.807491419697759e+000	 9.988259960042912e+000
 1.608562132743385e+000	 2.824009182919216e+000	 9.972222007179619e+000
 1.579776395484173e+000	 2.840212411137346e+000	 9.938982988833695e+000
 1.550868647634841e+000	 2.856099864831404e+000	 9.881395795517141e+000
 1.521843964270075e+000	 2.871670410844536e+000	 9.792479697402634e+000
 1.492707427438275e+000	 2.886923022211355e+000	 9.665436944218119e+000
 1.792111942338345e+000	 2.741160299264779e+000	 1.016705920153379e+001
 1.763949126026976e+000	 2.759367405933930e+000	 1.007662254987213e+001
 1.735632978288948e+000	 2.777265411303141e+000	 1.001349724859617e+001
 1.707168512921817e+000	 2.794852530749107e+000	 9.969772274562258e+000
 1.678560767414597e+000	 2.812127086431664e+000	 9.937607239478199e+000
 1.649814800150784e+000	 2.829087507545086e+000	 9.909251690260879e+000
 1.620935687615213e+000	 2.845732330482985e+000	 9.877064064957089e+000
 1.591928521607785e+000	 2.862060198917422e+000	 9.833530257295999e+000
 1.562798406467084e+000	 2.878069863792879e+000	 9.771281744634834e+000
 1.533550456306829e+000	 2.893760183235912e+000	 9.683113235888767e+000
 1.504189792268103e+000	 2.909130122381397e+000	 9.561999797991044e+000
 1.805792186174171e+000	 2.762085187049463e+000	 1.023996977288977e+001
 1.777414386532957e+000	 2.780431279265624e+000	 1.010619356980001e+001
 1.748882084996038e+000	 2.798465910629846e+000	 1.000655180781024e+001
 1.720200333634242e+000	 2.816187282895747e+000	 9.932928223046925e+000
 1.691374208390694e+000	 2.833593705415225e+000	 9.877271449557567e+000
 1.662408806262504e+000	 2.850683595391665e+000	 9.831614863941422e+000
 1.633309242486302e+000	 2.867455478046118e+000	 9.788096086648482e+000
 1.604080647730691e+000	 2.883907986696995e+000	 9.738976091651114e+000
 1.574728165298670e+000	 2.900039862754003e+000	 9.676657877911671e+000
 1.545256948342998e+000	 2.915849955627105e+000	 9.593704657926056e+000
 1.515672157097435e+000	 2.931337222551448e+000	 9.482857520609750e+000
 1.819472430009494e+000	 2.783010074833148e+000	 1.028633576563306e+001
 1.790879647038344e+000	 2.801495152596328e+000	 1.011447724399678e+001
 1.762131191702469e+000	 2.819666409955593e+000	 9.983506328491670e+000
 1.733232154345956e+000	 2.837522035041479e+000	 9.885093904267873e+000
 1.704187649366050e+000	 2.855060324397947e+000	 9.810970092383318e+000
 1.675002812373475e+000	 2.872279683237500e+000	 9.752944649966404e+000
 1.645682797356652e+000	 2.889178625608618e+000	 9.702927027936470e+000
 1.616232773852888e+000	 2.905755774476063e+000	 9.652946036599966e+000
 1.586657924129600e+000	 2.922009861714772e+000	 9.595169071185003e+000
 1.556963440378580e+000	 2.937939728018115e+000	 9.521920851261612e+000
 1.527154521926272e+000	 2.953544322721507e+000	 9.425701630016246e+000
 1.833152673844316e+000	 2.803934962615831e+000	 1.030371643775492e+001
 1.804344907543139e+000	 2.822559025926043e+000	 1.009903358940328e+001
 1.775380298408235e+000	 2.840866909280380e+000	 9.941924596202856e+000
 1.746263975056959e+000	 2.858856787186303e+000	 9.823839829125753e+000
 1.717001090340666e+000	 2.876526943379832e+000	 9.736283306257757e+000
 1.687596818483696e+000	 2.893875771082586e+000	 9.670833659851079e+000
 1.658056352226264e+000	 2.910901773170480e+000	 9.619164761609536e+000
 1.628384899974379e+000	 2.927603562254629e+000	 9.573065955114906e+000
 1.598587682959872e+000	 2.943979860675189e+000	 9.524461846073686e+000
 1.568669932413575e+000	 2.960029500408944e+000	 9.465431602979541e+000
 1.538636886754612e+000	 2.975751422891574e+000	 9.388227722838856e+000
 1.846832917678635e+000	 2.824859850397516e+000	 1.028966044140672e+001
 1.817810168047342e+000	 2.843622899254767e+000	 1.005741378327993e+001
 1.788629405113341e+000	 2.862067408604207e+000	 9.879363254770166e+000
 1.759295795767250e+000	 2.880191539330219e+000	 9.746730995945370e+000
 1.729814531314541e+000	 2.897993562360880e+000	 9.650787276761397e+000
 1.700190824593167e+000	 2.915471858926927e+000	 9.582872042461604e+000
 1.670429907095137e+000	 2.932624920731709e+000	 9.534416117669579e+000
 1.640537026095160e+000	 2.949451350032689e+000	 9.496962016651619e+000
 1.610517441789488e+000	 2.965949859635252e+000	 9.462184309023101e+000
 1.580376424447985e+000	 2.982119272799590e+000	 9.421909492117859e+000
 1.550119251582456e+000	 2.997958523061648e+000	 9.368135323329893e+000
 1.860513161512450e+000	 2.845784738178200e+000	 1.024170621282051e+001
 1.831275428550952e+000	 2.864686772582501e+000	 9.987160488195183e+000
 1.801878511817784e+000	 2.883267907927075e+000	 9.793372068847582e+000
 1.772327616476830e+000	 2.901526291473225e+000	 9.651327093143737e+000
 1.742627972287676e+000	 2.919460181341089e+000	 9.552054382073616e+000
 1.712784830701890e+000	 2.937067946770523e+000	 9.486647574553553e+000
 1.682803461963272e+000	 2.954348068292302e+000	 9.446286921669259e+000
 1.652689152215236e+000	 2.971299137810246e+000	 9.422260685881676e+000
 1.622447200618446e+000	 2.987919858594963e+000	 9.405986093039587e+000
 1.592082916481808e+000	 3.004209045190053e+000	 9.389029787023251e+000
 1.561601616409804e+000	 3.020165623231730e+000	 9.363127738967556e+000
 1.874193405345763e+000	 2.866709625957885e+000	 1.015738234515288e+001
 1.844740689053969e+000	 2.885750645909246e+000	 9.885808162780517e+000
 1.815127618521566e+000	 2.904468407248984e+000	 9.681494174981603e+000
 1.785359437185699e+000	 2.922861043615324e+000	 9.535182693022673e+000
 1.755441413260070e+000	 2.940926800320462e+000	 9.437653331929068e+000
 1.725378836809862e+000	 2.958664034613371e+000	 9.379745747345135e+000
 1.695177016830668e+000	 2.976071215852259e+000	 9.352382031370960e+000
 1.664841278334603e+000	 2.993146925587299e+000	 9.346588711917969e+000
 1.634376959446748e+000	 3.009889857554320e+000	 9.353518301976447e+000
 1.603789408515045e+000	 3.026298817580335e+000	 9.364470347201314e+000
 1.573083981236656e+000	 3.042372723401821e+000	 9.370911922382250e+000
 1.887873649178574e+000	 2.887634513736569e+000	 9.975894061221807e+000
 1.858205949556393e+000	 2.906814519235001e+000	 9.750883358974656e+000
 1.828376725224685e+000	 2.925668906569934e+000	 9.541266321759892e+000
 1.798391257893857e+000	 2.944195795756514e+000	 9.395847437134972e+000
 1.768254854231724e+000	 2.962393419298998e+000	 9.305149300532097e+000
 1.737972842917085e+000	 2.980260122455474e+000	 9.259749849326903e+000
 1.707550571697327e+000	 2.997794363411583e+000	 9.250305371811880e+000
 1.676993404453262e+000	 3.014994713363848e+000	 9.267573118009166e+000
 1.646306718274393e+000	 3.031859856513325e+000	 9.302433457242607e+000
 1.615495900547695e+000	 3.048388589970434e+000	 9.345911529433586e+000
 1.584566346063012e+000	 3.064579823571918e+000	 9.389198339285514e+000
 1.901553893010882e+000	 2.908559401514253e+000	 9.750306821770446e+000
 1.871671210058226e+000	 2.927878392559766e+000	 9.579905006437080e+000
 1.841625831927143e+000	 2.946869405889925e+000	 9.370219099594156e+000
 1.811423078601302e+000	 2.965530547896796e+000	 9.230866213649765e+000
 1.781068295202637e+000	 2.983860038276696e+000	 9.152104053734322e+000
 1.750566849023559e+000	 3.001856210296831e+000	 9.124241045496262e+000
 1.719924126563246e+000	 3.019517510970271e+000	 9.137659968854768e+000
 1.689145530571214e+000	 3.036842501139892e+000	 9.182841191678486e+000
 1.658236477101382e+000	 3.053829855471977e+000	 9.250385446811256e+000
 1.627202392579759e+000	 3.070478362360350e+000	 9.331036097947974e+000
 1.596048710888871e+000	 3.086786923742023e+000	 9.415700842100664e+000
 1.915234136842688e+000	 2.929484289290938e+000	 9.485026233063373e+000
 1.885136470559467e+000	 2.948942265883543e+000	 9.327045136409948e+000
 1.854874938628939e+000	 2.968069905208957e+000	 9.165877160654912e+000
 1.824454899308038e+000	 2.986865300036170e+000	 9.037779327116047e+000
 1.793881736172811e+000	 3.005326657253558e+000	 8.976076070761549e+000
 1.763160855129283e+000	 3.023452298137441e+000	 8.970798453196752e+000
 1.732297681428427e+000	 3.041240658528325e+000	 9.012047981301974e+000
 1.701297656688460e+000	 3.058690288915435e+000	 9.090020475285490e+000
 1.670166235927714e+000	 3.075799854430276e+000	 9.195029476413986e+000
 1.638908884611238e+000	 3.092568134750086e+000	 9.317529138438241e+000
 1.607531075714235e+000	 3.108994023912138e+000	 9.448136549008316e+000
 1.492707427438275e+000	 2.886923022211355e+000	 9.665436944218119e+000
 1.463464123453077e+000	 2.901856777903874e+000	 9.660121753328731e+000
 1.434119140206303e+000	 2.916470862496686e+000	 9.656663981873368e+000
 1.404677564505076e+000	 2.930764565752653e+000	 9.649169907392347e+000
 1.375144479435225e+000	 2.944737282130762e+000	 9.631934282456156e+000
 1.345524961753960e+000	 2.958388510217295e+000	 9.599454215055902e+000
 1.315824079314217e+000	 2.971717852081893e+000	 9.546442402516073e+000
 1.286046888523079e+000	 2.984725012560141e+000	 9.467839693049276e+000
 1.256198431836615e+000	 2.997409798464362e+000	 9.358826951502714e+000
 1.226283735293376e+000	 3.009772117724388e+000	 9.294039987243458e+000
 1.196307806088698e+000	 3.021811978460158e+000	 9.258608076028553e+000
 1.504189792268103e+000	 2.909130122381397e+000	 9.561999797991044e+000
 1.474721539790167e+000	 2.924178753116689e+000	 9.579552042546348e+000
 1.445150825902609e+000	 2.938905253744039e+000	 9.598183780604803e+000
 1.415482776541836e+000	 2.953308908562949e+000	 9.611750745851984e+000
 1.385722513894337e+000	 2.967389107374397e+000	 9.614301633963267e+000
 1.355875153769300e+000	 2.981145344907636e+000	 9.600092431195925e+000
 1.325945803003145e+000	 2.994577220171298e+000	 9.563600079991861e+000
 1.295939556898392e+000	 3.007684435730476e+000	 9.499535454919872e+000
 1.265861496699235e+000	 3.020466796911432e+000	 9.402855624778232e+000
 1.235716687106057e+000	 3.032924210935764e+000	 9.313087174612079e+000
 1.205510173831083e+000	 3.045056685985870e+000	 9.273459311204672e+000
 1.515672157097435e+000	 2.931337222551448e+000	 9.482857520609750e+000
 1.485978956126852e+000	 2.946500728329692e+000	 9.526178931976856e+000
 1.456182511598578e+000	 2.961339644991719e+000	 9.569742982353754e+000
 1.426287988578308e+000	 2.975853251373670e+000	 9.607148682880581e+000
 1.396300548353190e+000	 2.990040932618514e+000	 9.632192615751544e+000
 1.366225345784390e+000	 3.003902179598473e+000	 9.638883719556006e+000
 1.336067526691811e+000	 3.017436588261179e+000	 9.621457394777755e+000
 1.305832225273413e+000	 3.030643858901224e+000	 9.574388901976965e+000
 1.275524561561510e+000	 3.043523795358813e+000	 9.492406027734607e+000
 1.245149638918324e+000	 3.056076304147309e+000	 9.384100971539134e+000
 1.214712541572961e+000	 3.068301393511570e+000	 9.339216207614593e+000
 1.527154521926272e+000	 2.953544322721507e+000	 9.425701630016246e+000
 1.497236372463129e+000	 2.968822703542879e+000	 9.497750400316392e+000
 1.467214197294211e+000	 2.983774036239725e+000	 9.569146601401085e+000
 1.437093200614492e+000	 2.998397594184816e+000	 9.633226274683981e+000
 1.406878582811784e+000	 3.012692757863114e+000	 9.683527764276333e+000
 1.376575537799229e+000	 3.026659014289811e+000	 9.713806967712639e+000
 1.346189250380215e+000	 3.040295956351536e+000	 9.718051889639341e+000
 1.315724893648139e+000	 3.053603282072388e+000	 9.690496470172382e+000
 1.285187626423441e+000	 3.066580793806505e+000	 9.625633662249941e+000
 1.254582590730175e+000	 3.079228397359024e+000	 9.518227734965862e+000
 1.223914909314336e+000	 3.091546101037260e+000	 9.455814154255110e+000
 1.538636886754612e+000	 2.975751422891574e+000	 9.388227722838856e+000
 1.508493788799001e+000	 2.991144678756257e+000	 9.492018735983358e+000
 1.478245882989506e+000	 3.006208427488057e+000	 9.594204175399076e+000
 1.447898412650388e+000	 3.020941936996385e+000	 9.687850797089324e+000
 1.417456617270118e+000	 3.035344583108195e+000	 9.766232514462679e+000
 1.386925729813818e+000	 3.049415848981647e+000	 9.822846123167835e+000
 1.356310974068357e+000	 3.063155324442370e+000	 9.851426311350505e+000
 1.325617562022573e+000	 3.076562705243963e+000	 9.845959926206083e+000
 1.294850691285028e+000	 3.089637792254510e+000	 9.800699470388137e+000
 1.264015542541612e+000	 3.102380490570910e+000	 9.710175804560143e+000
 1.233117277055205e+000	 3.114790808562941e+000	 9.623194147489249e+000
 1.550119251582456e+000	 2.997958523061648e+000	 9.368135323329893e+000
 1.519751205134466e+000	 3.013466653969821e+000	 9.506740377498909e+000
 1.489277568684464e+000	 3.028642818736715e+000	 9.642729597839214e+000
 1.458703624685996e+000	 3.043486279808379e+000	 9.768894070744194e+000
 1.428034651728194e+000	 3.057996408353757e+000	 9.878237018280384e+000
 1.397275921828156e+000	 3.072172683673983e+000	 9.963990005944421e+000
 1.366432697756237e+000	 3.086014692533680e+000	 1.001962841795257e+001
 1.335510230396714e+000	 3.099522128415953e+000	 1.003888617009140e+001
 1.304513756146271e+000	 3.112694790702827e+000	 1.001576963291041e+001
 1.273448494352633e+000	 3.125532583782966e+000	 9.934463870348287e+000
 1.242319644795568e+000	 3.138035516088611e+000	 9.651206256132529e+000
 1.561601616409804e+000	 3.020165623231730e+000	 9.363127738967556e+000
 1.531008621469525e+000	 3.035788629183572e+000	 9.539675760909796e+000
 1.500309254379085e+000	 3.051077209985700e+000	 9.712540957911028e+000
 1.469508836721317e+000	 3.066030622620796e+000	 9.874232294027600e+000
 1.438612686186010e+000	 3.080648233599801e+000	 1.001747597132341e+001
 1.407626113842244e+000	 3.094929518366817e+000	 1.013523212944925e+001
 1.376554421443855e+000	 3.108874060625466e+000	 1.022071079451622e+001
 1.345402898770562e+000	 3.122481551588358e+000	 1.026738704642986e+001
 1.314176821007170e+000	 3.135751789151454e+000	 1.000662928387699e+001
 1.282881446163240e+000	 3.148684676995191e+000	 9.737094697972450e+000
 1.251522012535427e+000	 3.161280223614271e+000	 9.531720530351906e+000
 1.573083981236656e+000	 3.042372723401821e+000	 9.370911922382250e+000
 1.542266037804178e+000	 3.058110604397511e+000	 9.588589173893254e+000
 1.511340940073370e+000	 3.073511601235009e+000	 9.801460387374226e+000
 1.480314048756349e+000	 3.088574965433638e+000	 1.000174588327879e+001
 1.449190720643567e+000	 3.103300058846326e+000	 1.018188844698402e+001
 1.417976305856081e+000	 3.117686353060152e+000	 1.033457052918202e+001
 1.386676145131212e+000	 3.131733428717729e+000	 1.023268845263655e+001
 1.355295567144116e+000	 3.145440974761175e+000	 9.929909799310327e+000
 1.323839885867724e+000	 3.158808787600393e+000	 9.690089605287469e+000
 1.292314397973432e+000	 3.171836770207588e+000	 9.515633888539803e+000
 1.260724380274781e+000	 3.184524931139920e+000	 9.408729385249552e+000
 1.584566346063012e+000	 3.064579823571918e+000	 9.389198339285514e+000
 1.553523454138424e+000	 3.080432579611637e+000	 9.651248616205216e+000
 1.522372625767317e+000	 3.095945992484646e+000	 9.907313914089279e+000
 1.491119260791094e+000	 3.111119308246904e+000	 1.014931931997270e+001
 1.459768755100865e+000	 3.125951884093334e+000	 1.033195486893350e+001
 1.428326497869667e+000	 3.140443187753983e+000	 9.993080749610394e+000
 1.396797868818307e+000	 3.154592796810469e+000	 9.714690469555388e+000
 1.365188235517377e+000	 3.168400397934406e+000	 9.499729797568412e+000
 1.333502950727935e+000	 3.181865786049646e+000	 9.350930382333120e+000
 1.301747349783209e+000	 3.194988863420155e+000	 9.270803785149743e+000
 1.269926748013629e+000	 3.207769638665559e+000	 9.261636046957772e+000
 1.596048710888871e+000	 3.086786923742023e+000	 9.415700842100664e+000
 1.564780870472264e+000	 3.102754554825951e+000	 9.725425666152143e+000
 1.533404311460927e+000	 3.118380383734608e+000	 1.002793132186924e+001
 1.501924472825550e+000	 3.133663651060593e+000	 9.947012217944769e+000
 1.470346789557904e+000	 3.148603709340823e+000	 9.628881811803824e+000
 1.438676689883004e+000	 3.163200022448315e+000	 9.370934434985204e+000
 1.406919592505140e+000	 3.177452164903683e+000	 9.176449909527110e+000
 1.375080903890346e+000	 3.191359821108051e+000	 9.048494675447733e+000
 1.343166015587801e+000	 3.204922784499208e+000	 8.989915099771434e+000
 1.311180301592571e+000	 3.218140956632892e+000	 9.003331324671050e+000
 1.279129115751972e+000	 3.231014346191188e+000	 9.091131663931584e+000
 1.607531075714235e+000	 3.108994023912138e+000	 9.448136549008316e+000
 1.576038286805698e+000	 3.125076530040452e+000	 9.805333610110830e+000
 1.544435997154201e+000	 3.140814774984898e+000	 9.449400110984811e+000
 1.512729684859719e+000	 3.156207993874709e+000	 9.149058605573380e+000
 1.480924824014684e+000	 3.171255534588795e+000	 8.908134148964987e+000
 1.449026881896090e+000	 3.185956857143146e+000	 8.730248002746466e+000
 1.417041316191712e+000	 3.200311532997376e+000	 8.618809670411032e+000
 1.384973572263021e+000	 3.214319244282112e+000	 8.577009461611070e+000
 1.352829080447324e+000	 3.227979782949084e+000	 8.607811598254068e+000
 1.320613253401519e+000	 3.241293049845800e+000	 8.713947873678970e+000
 1.288331483489811e+000	 3.254259053716808e+000	 8.897911874379904e+000
 1.196307806088698e+000	 3.021811978460158e+000	 9.258608076028553e+000
 1.166275630192232e+000	 3.033529487987621e+000	 9.166651263719897e+000
 1.136192170009821e+000	 3.044924851761178e+000	 9.088337561803469e+000
 1.106062362091802e+000	 3.055998372254013e+000	 9.026988508792668e+000
 1.075891114890496e+000	 3.066750447777396e+000	 8.985840859300987e+000
 1.045683306567630e+000	 3.077181571242415e+000	 8.968043590586671e+000
 1.015443782853513e+000	 3.087292328865915e+000	 8.976655116437669e+000
 9.851773549594465e-001	 3.097083398822883e+000	 9.014640709560176e+000
 9.548887975447457e-001	 3.106555549847563e+000	 9.084870133091384e+000
 9.245828467396422e-001	 3.115709639785575e+000	 9.190115481328723e+000
 8.942641982252435e-001	 3.124546614099404e+000	 9.333049229251859e+000
 1.205510173831083e+000	 3.045056685985870e+000	 9.273459311204672e+000
 1.175246981197481e+000	 3.056864330203026e+000	 9.172321424370963e+000
 1.144932109783359e+000	 3.068347350621874e+000	 9.071755796048397e+000
 1.114570534112516e+000	 3.079506052042313e+000	 8.975111055623993e+000
 1.084167200394599e+000	 3.090340835839550e+000	 8.885661759116644e+000
 1.053727024315657e+000	 3.100852198716295e+000	 8.806605186262662e+000
 1.023254888880847e+000	 3.111040731398753e+000	 8.741058336181672e+000
 9.927556423107906e-001	 3.120907117278648e+000	 8.692055123304169e+000
 9.622340959929506e-001	 3.130452131003561e+000	 8.789276378318865e+000
 9.316950224893299e-001	 3.139676637017925e+000	 9.050662109438404e+000
 9.011431536016610e-001	 3.148581588057016e+000	 9.393735532601827e+000
 1.214712541572961e+000	 3.068301393511570e+000	 9.339216207614593e+000
 1.184218332202131e+000	 3.080199172418236e+000	 9.224234856137507e+000
 1.153672049556212e+000	 3.091769849482220e+000	 9.096957959339232e+000
 1.123078706132470e+000	 3.103013731830142e+000	 8.960762526495048e+000
 1.092443285897879e+000	 3.113931223901139e+000	 8.818962053682633e+000
 1.061770742062806e+000	 3.124522826189546e+000	 8.674803111960447e+000
 1.031065994907259e+000	 3.134789133930934e+000	 8.673130883904410e+000
 1.000333929661179e+000	 3.144730835733750e+000	 8.753943768656098e+000
 9.695793944401745e-001	 3.154348712158920e+000	 8.909351237699902e+000
 9.388071982380229e-001	 3.163643634249695e+000	 9.136545338443485e+000
 9.080221089770787e-001	 3.172616562014134e+000	 9.432778090338136e+000
 1.223914909314336e+000	 3.091546101037260e+000	 9.455814154255110e+000
 1.193189683206180e+000	 3.103534014633252e+000	 9.322398775045564e+000
 1.162411989328381e+000	 3.115192348342218e+000	 9.164018751721383e+000
 1.131586878151665e+000	 3.126521411617498e+000	 8.985790744202753e+000
 1.100719371400334e+000	 3.137521611962162e+000	 8.851675424714779e+000
 1.069814459809077e+000	 3.148193453662171e+000	 8.788692892317970e+000
 1.038877100932750e+000	 3.158537536462453e+000	 8.793790916607360e+000
 1.007912217010610e+000	 3.168554554188189e+000	 8.863983198139390e+000
 9.769246928864181e-001	 3.178245293313647e+000	 8.996352114599286e+000
 9.459193739857200e-001	 3.187610631480886e+000	 9.188051234637074e+000
 9.149010643514963e-001	 3.196651535970757e+000	 9.436307600622648e+000
 1.233117277055205e+000	 3.114790808562941e+000	 9.623194147489249e+000
 1.202161034209630e+000	 3.126868856848071e+000	 9.450480864829634e+000
 1.171151929099864e+000	 3.138614847201867e+000	 9.212672832444790e+000
 1.140095050170102e+000	 3.150029091404383e+000	 9.040440670896180e+000
 1.108995456901967e+000	 3.161112000022622e+000	 8.930500416796404e+000
 1.077858177554471e+000	 3.171864081134169e+000	 8.879641922455596e+000
 1.046688206957319e+000	 3.182285938993313e+000	 8.884731978187482e+000
 1.015490504359086e+000	 3.192378272641967e+000	 8.942717183286337e+000
 9.842699913316808e-001	 3.202141874467737e+000	 9.050626566183588e+000
 9.530315497324224e-001	 3.211577628711497e+000	 9.205573954965431e+000
 9.217800197249140e-001	 3.220686509926887e+000	 9.404760100080926e+000
 1.242319644795568e+000	 3.138035516088611e+000	 9.651206256132529e+000
 1.211132385212480e+000	 3.150203699062697e+000	 9.401649410404227e+000
 1.179891868870664e+000	 3.162037346061168e+000	 9.209466262284936e+000
 1.148603222187779e+000	 3.173536771190796e+000	 9.071178305570046e+000
 1.117271542402776e+000	 3.184702388082517e+000	 8.983391560780651e+000
 1.085901895298987e+000	 3.195534708605540e+000	 8.942799879778127e+000
 1.054499312980966e+000	 3.206034341523514e+000	 8.946187980353574e+000
 1.023068791706606e+000	 3.216201991095082e+000	 8.990434211098069e+000
 9.916152897759637e-001	 3.226038455621192e+000	 9.072513047584225e+000
 9.601437254781294e-001	 3.235544625941530e+000	 9.189497321591038e+000
 9.286589750973320e-001	 3.244721483882524e+000	 9.338560185777894e+000
 1.251522012535427e+000	 3.161280223614271e+000	 9.531720530351906e+000
 1.220103736214729e+000	 3.173538541277126e+000	 9.333340794029271e+000
 1.188631808640779e+000	 3.185459844920121e+000	 9.184504806880407e+000
 1.157111394204697e+000	 3.197044450976737e+000	 9.078045204816105e+000
 1.125547627902761e+000	 3.208292776141848e+000	 9.010457008532379e+000
 1.093945613042626e+000	 3.219205336076285e+000	 8.978337028439022e+000
 1.062310419003691e+000	 3.229782744053054e+000	 8.978386813549912e+000
 1.030647079053169e+000	 3.240025709547533e+000	 9.007415312256050e+000
 9.989605882192654e-001	 3.249935036774010e+000	 9.062341246530950e+000
 9.672559012228416e-001	 3.259511623170983e+000	 9.140195201847936e+000
 9.355379304687495e-001	 3.268756457837667e+000	 9.238121435789930e+000
 1.260724380274781e+000	 3.184524931139920e+000	 9.408729385249552e+000
 1.229075087216379e+000	 3.196873383491363e+000	 9.245452869305641e+000
 1.197371748410209e+000	 3.208882343778725e+000	 9.137759877965191e+000
 1.165619566220856e+000	 3.220552130762207e+000	 9.061081990474944e+000
 1.133823713401924e+000	 3.231883164200613e+000	 9.011802234993908e+000
 1.101989330785386e+000	 3.242875963546399e+000	 8.986419333448236e+000
 1.070121525025494e+000	 3.253531146581936e+000	 8.981550566710263e+000
 1.038225366398776e+000	 3.263849427999324e+000	 8.993934333250621e+000
 1.006305886661587e+000	 3.273831617926195e+000	 9.020432403330167e+000
 9.743680769665584e-001	 3.283478620399857e+000	 9.058031871556596e+000
 9.424168858391672e-001	 3.292791431792316e+000	 9.103846811357700e+000
 1.269926748013629e+000	 3.207769638665559e+000	 9.261636046957772e+000
 1.238046438217428e+000	 3.220208225705404e+000	 9.137886293886609e+000
 1.206111688178954e+000	 3.232304842636979e+000	 9.069203781067184e+000
 1.174127738236257e+000	 3.244059810547205e+000	 9.020328383503779e+000
 1.142099798900263e+000	 3.255473552258815e+000	 8.987530135174970e+000
 1.110033048527270e+000	 3.266546591015890e+000	 8.967208616438462e+000
 1.077932631046376e+000	 3.277279549110157e+000	 8.955895737457658e+000
 1.045803653743427e+000	 3.287673146450453e+000	 8.950258196677522e+000
 1.013651185102928e+000	 3.297728199077743e+000	 8.947099616930842e+000
 9.814802527092800e-001	 3.307445617628152e+000	 8.943362362542569e+000
 9.492958412085848e-001	 3.316826405746471e+000	 8.936129041554144e+000
 1.279129115751972e+000	 3.231014346191188e+000	 9.091131663931584e+000
 1.247017789217878e+000	 3.243543067919251e+000	 9.010544428612691e+000
 1.214851627947015e+000	 3.255727341494886e+000	 8.978809683357300e+000
 1.182635910250898e+000	 3.267567490331730e+000	 8.955823236382368e+000
 1.150375884397779e+000	 3.279063940316452e+000	 8.937741116956055e+000
 1.118076766268276e+000	 3.290217218484752e+000	 8.920862704707334e+000
 1.085743737066335e+000	 3.301027951637718e+000	 8.901633433230616e+000
 1.053381941087122e+000	 3.311496864900918e+000	 8.876647150299135e+000
 1.020996483543287e+000	 3.321624780228655e+000	 8.842648137779236e+000
 9.885924284510065e-001	 3.331412614855867e+000	 8.796532795154246e+000
 9.561747965770026e-001	 3.340861379700133e+000	 8.735350991348083e+000
 1.288331483489811e+000	 3.254259053716808e+000	 8.897911874379904e+000
 1.255989140217728e+000	 3.266877910132902e+000	 8.874659757869582e+000
 1.223591567714392e+000	 3.279149840352444e+000	 8.866551582876584e+000
 1.191144082264780e+000	 3.291075170115786e+000	 8.867604564130007e+000
 1.158651969894471e+000	 3.302654328373525e+000	 8.862533189914457e+000
 1.126120484008404e+000	 3.313887845952988e+000	 8.847535573872262e+000
 1.093554843085373e+000	 3.324776354164622e+000	 8.818969563789754e+000
 1.060960228429861e+000	 3.335320583350722e+000	 8.773355005431240e+000
 1.028341781982668e+000	 3.345521361378934e+000	 8.707375648122376e+000
 9.957046041917382e-001	 3.355379612083005e+000	 8.617880696529864e+000
 9.630537519444204e-001	 3.364896353653301e+000	 8.501886013893564e+000
 8.942641982252435e-001	 3.124546614099404e+000	 9.333049229251859e+000
 8.639375053716756e-001	 3.133067504330197e+000	 9.638435792457058e+000
 8.336073774350107e-001	 3.141273426516435e+000	 9.914889177685712e+000
 8.032783778144549e-001	 3.149165579572983e+000	 1.014526426376358e+001
 7.729550223703774e-001	 3.156745243634214e+000	 1.032689998144848e+001
 7.426417778035707e-001	 3.164013778361765e+000	 1.045730193799846e+001
 7.123430600964776e-001	 3.170972621219920e+000	 1.053414197394059e+001
 6.820632330168476e-001	 3.177623285720976e+000	 1.055525744261240e+001
 6.518066066841962e-001	 3.183967359642995e+000	 1.051865022149258e+001
 6.215774361993540e-001	 3.190006503222291e+000	 1.040249928535303e+001
 5.913799203372813e-001	 3.195742447322996e+000	 1.017591195120354e+001
 9.011431536016610e-001	 3.148581588057016e+000	 9.393735532601827e+000
 8.705831784952053e-001	 3.157168023597005e+000	 9.631288843345851e+000
 8.400197418818312e-001	 3.165437068261379e+000	 9.837138324429956e+000
 8.094574422638166e-001	 3.173389930187422e+000	 1.000849933796324e+001
 7.789008302389191e-001	 3.181027899356694e+000	 1.014274527323217e+001
 7.483544068671686e-001	 3.188352345889772e+000	 1.023740751206685e+001
 7.178226221001053e-001	 3.195364718308351e+000	 1.029017511467533e+001
 6.873098732729230e-001	 3.202066541767132e+000	 1.029889423422380e+001
 6.568205036599041e-001	 3.208459416257858e+000	 1.026156726887631e+001
 6.263588010934251e-001	 3.214545014787885e+000	 1.017635176040414e+001
 5.959289966467158e-001	 3.220325081535687e+000	 9.931550651054206e+000
 9.080221089770787e-001	 3.172616562014134e+000	 9.432778090338136e+000
 8.772288516177454e-001	 3.181268542863414e+000	 9.593603111481228e+000
 8.464321063276931e-001	 3.189600710006008e+000	 9.734056819542037e+000
 8.156365067122714e-001	 3.197614280801621e+000	 9.851396706180491e+000
 7.848466381066257e-001	 3.205310555079000e+000	 9.943029654425994e+000
 7.540670359300239e-001	 3.212690913417656e+000	 1.000651202509175e+001
 7.233021841031021e-001	 3.219756815396703e+000	 1.003954946974152e+001
 6.925565135284997e-001	 3.226509797813246e+000	 1.003999647819255e+001
 6.618344006352651e-001	 3.232951472872700e+000	 1.000585566897291e+001
 6.311401659873202e-001	 3.239083526353473e+000	 9.935276831547867e+000
 6.004780729561651e-001	 3.244907715748377e+000	 9.708865062871531e+000
 9.149010643514963e-001	 3.196651535970757e+000	 9.436307600622648e+000
 8.838745247392960e-001	 3.205369062129424e+000	 9.525719666142321e+000
 8.528444707725966e-001	 3.213764351750323e+000	 9.605882715893721e+000
 8.218155711598192e-001	 3.221838631415580e+000	 9.674095245832003e+000
 7.907924459734976e-001	 3.229593210801130e+000	 9.727796676257288e+000
 7.597796649921365e-001	 3.237029480945418e+000	 9.764567557560664e+000
 7.287817461054688e-001	 3.244148912484980e+000	 9.782129508418237e+000
 6.978031537835781e-001	 3.250953053859317e+000	 9.778344894130013e+000
 6.668482976102793e-001	 3.257443529487524e+000	 9.751216253234693e+000
 6.359215308810396e-001	 3.263622037919057e+000	 9.698885480926261e+000
 6.050271492656288e-001	 3.269490349961068e+000	 9.505820314495631e+000
 9.217800197249140e-001	 3.220686509926887e+000	 9.404760100080926e+000
 8.905201978598567e-001	 3.229469581395036e+000	 9.427971011559359e+000
 8.592568352165415e-001	 3.237927993494322e+000	 9.452848689281856e+000
 8.279946356064604e-001	 3.246062982029298e+000	 9.476731518319985e+000
 7.967382538395343e-001	 3.253875866523083e+000	 9.497090507772798e+000
 7.654922940535065e-001	 3.261368048473059e+000	 9.511529614153170e+000
 7.342613081072044e-001	 3.268541009573177e+000	 9.517785802930879e+000
 7.030497940381579e-001	 3.275396309905343e+000	 9.513728855649307e+000
 6.718621945849467e-001	 3.281935586102327e+000	 9.497360930466691e+000
 6.407028957745837e-001	 3.288160549484636e+000	 9.466815884367845e+000
 6.095762255751076e-001	 3.294072984173759e+000	 9.320397075056377e+000
 9.286589750973320e-001	 3.244721483882524e+000	 9.338560185777894e+000
 8.971658709794282e-001	 3.253570100660248e+000	 9.300681404137716e+000
 8.656691996595282e-001	 3.262091635238010e+000	 9.275182237579323e+000
 8.341737000521943e-001	 3.270287332642776e+000	 9.259439854810623e+000
 8.026840617047365e-001	 3.278158522244862e+000	 9.250955912956551e+000
 7.712049231141334e-001	 3.285706616000578e+000	 9.247356996918974e+000
 7.397408701083099e-001	 3.292933106661297e+000	 9.246394802416205e+000
 7.082964342922391e-001	 3.299839565951325e+000	 9.245946069846568e+000
 6.768760915592670e-001	 3.306427642717112e+000	 9.244012276554287e+000
 6.454842606679518e-001	 3.312699061050212e+000	 9.238719095470517e+000
 6.141253018846009e-001	 3.318655618386451e+000	 9.150590979370101e+000
 9.355379304687495e-001	 3.268756457837667e+000	 9.238121435789930e+000
 9.038115440980098e-001	 3.277670619925062e+000	 9.144167155686677e+000
 8.720815641015560e-001	 3.286255276981380e+000	 9.073105871099738e+000
 8.403527644970217e-001	 3.294511683256016e+000	 9.022352438227911e+000
 8.086298695691034e-001	 3.302441177966462e+000	 8.989438228857118e+000
 7.769175521740177e-001	 3.310045183527975e+000	 8.972011684051086e+000
 7.452204321087848e-001	 3.317325203749339e+000	 8.967838616859329e+000
 7.135430745458218e-001	 3.324282821997265e+000	 8.974802270923078e+000
 6.818899885332407e-001	 3.330919699331877e+000	 8.990903142291192e+000
 6.502656255611443e-001	 3.337237572615780e+000	 9.014258572154080e+000
 6.186743781941089e-001	 3.343238252599141e+000	 8.994412077730303e+000
 9.424168858391672e-001	 3.292791431792316e+000	 9.103846811357700e+000
 9.104572172156019e-001	 3.301771139189477e+000	 8.958736923368296e+000
 8.784939285426255e-001	 3.310418918724437e+000	 8.846837294625390e+000
 8.465318289409420e-001	 3.318736033869013e+000	 8.765599381656665e+000
 8.145756774326358e-001	 3.326723833687888e+000	 8.712583344672892e+000
 7.826301812331594e-001	 3.334383751055250e+000	 8.685458713968169e+000
 7.506999941086291e-001	 3.341717300837304e+000	 8.682004810493435e+000
 7.187897147989062e-001	 3.348726078043161e+000	 8.700110927225040e+000
 6.869038855068675e-001	 3.355411755946624e+000	 8.737776278382778e+000
 6.550469904541608e-001	 3.361776084181345e+000	 8.793109723947920e+000
 6.232234545036314e-001	 3.367820886811832e+000	 8.849884309795604e+000
 9.492958412085848e-001	 3.316826405746471e+000	 8.936129041554144e+000
 9.171028903322046e-001	 3.325871658453493e+000	 8.744691987039651e+000
 8.849062929827364e-001	 3.334582560467181e+000	 8.596589581520542e+000
 8.527108933839558e-001	 3.342960384481772e+000	 8.489308803336870e+000
 8.205214852953330e-001	 3.351006489409139e+000	 8.420437681746597e+000
 7.883428102915585e-001	 3.358722318582404e+000	 8.387666074436794e+000
 7.561795561078429e-001	 3.366109397925190e+000	 8.388786204182106e+000
 7.240363550514918e-001	 3.373169334089012e+000	 8.421692961020950e+000
 6.919177824801477e-001	 3.379903812561350e+000	 8.484383976753504e+000
 6.598283553470018e-001	 3.386314595746906e+000	 8.574959478961395e+000
 6.277725308131688e-001	 3.392403521024523e+000	 8.691621932108811e+000
 9.561747965770026e-001	 3.340861379700133e+000	 8.735350991348083e+000
 9.237485634478174e-001	 3.349972177717110e+000	 8.502326514623494e+000
 8.913186574218889e-001	 3.358746202209609e+000	 8.322571340329219e+000
 8.588899578260621e-001	 3.367184735094290e+000	 8.193606898420455e+000
 8.264672931571956e-001	 3.375289145130211e+000	 8.113048174423383e+000
 7.940554393492146e-001	 3.383060886109435e+000	 8.078604596479762e+000
 7.616591181064262e-001	 3.390501495012999e+000	 8.088080686331868e+000
 7.292829953035791e-001	 3.397612590134821e+000	 8.139376480375017e+000
 6.969316794530807e-001	 3.404395869176058e+000	 8.230487727337707e+000
 6.646097202396671e-001	 3.410853107312461e+000	 8.359505869546569e+000
 6.323216071227208e-001	 3.416986155237214e+000	 8.524617815094015e+000
 9.630537519444204e-001	 3.364896353653301e+000	 8.501886013893564e+000
 9.303942365624410e-001	 3.374072696980329e+000	 8.231927816105980e+000
 8.977310218600831e-001	 3.382909843951724e+000	 8.024986874233125e+000
 8.650690222672622e-001	 3.391409085706569e+000	 7.878618007653130e+000
 8.324131010182233e-001	 3.399571800851111e+000	 7.790462251729474e+000
 7.997680684061285e-001	 3.407399453636346e+000	 7.758247852831306e+000
 7.671386801043791e-001	 3.414893592100732e+000	 7.779791031908554e+000
 7.345296355551679e-001	 3.422055846180586e+000	 7.852996522511436e+000
 7.019455764256671e-001	 3.428887925790747e+000	 7.975857889579180e+000
 6.693910851321567e-001	 3.435391618878011e+000	 8.146457635718067e+000
 6.368706834322875e-001	 3.441568789449906e+000	 8.362967102053824e+000
 5.913799203372813e-001	 3.195742447322996e+000	 1.017591195120354e+001
 5.612182003031748e-001	 3.201176991585784e+000	 9.980450990124595e+000
 5.310963585522425e-001	 3.206312002558782e+000	 9.806122309704437e+000
 5.010184176725815e-001	 3.211149411812481e+000	 9.644666429535604e+000
 4.709883393310327e-001	 3.215691214040372e+000	 9.489028080338217e+000
 4.410100232820740e-001	 3.219939465148238e+000	 9.333341951379600e+000
 4.110873064392889e-001	 3.223896280334044e+000	 9.172916285386840e+000
 3.812239620090090e-001	 3.227563832160544e+000	 9.004214420243688e+000
 3.514236986856592e-001	 3.230944348622705e+000	 8.824834379108728e+000
 3.216901599082669e-001	 3.234040111211981e+000	 8.633486612542992e+000
 2.920269231775196e-001	 3.236853452979430e+000	 8.429969997803278e+000
 5.959289966467158e-001	 3.220325081535687e+000	 9.931550651054206e+000
 5.655352633805315e-001	 3.225801429985276e+000	 9.717085920985321e+000
 5.351817151537136e-001	 3.230975941042790e+000	 9.530657859172077e+000
 5.048724054973427e-001	 3.235850561136954e+000	 9.363581454185445e+000
 4.746113265526194e-001	 3.240427300305058e+000	 9.208398607417196e+000
 4.444024080721309e-001	 3.244708230267543e+000	 9.058863926377686e+000
 4.142495164841795e-001	 3.248695482493129e+000	 8.909928313210482e+000
 3.841564540197592e-001	 3.252391246256594e+000	 8.757720449488264e+000
 3.541269579017118e-001	 3.255797766691325e+000	 8.599526280774828e+000
 3.241646995955179e-001	 3.258917342838711e+000	 8.433766606456507e+000
 2.942732841210988e-001	 3.261752325696358e+000	 8.259972881971672e+000
 6.004780729561651e-001	 3.244907715748377e+000	 9.708865062871531e+000
 5.698523264580873e-001	 3.250425868384768e+000	 9.481046428482646e+000
 5.392670717555369e-001	 3.255639879526798e+000	 9.287460304799479e+000
 5.087263933225791e-001	 3.260551710461429e+000	 9.118992719109055e+000
 4.782343137747728e-001	 3.265163386569744e+000	 8.967780146139596e+000
 4.477947928628162e-001	 3.269476995386849e+000	 8.827195336142856e+000
 4.174117265297299e-001	 3.273494684652216e+000	 8.691830884835294e+000
 3.870889460311708e-001	 3.277218660352643e+000	 8.557480648086926e+000
 3.568302171183988e-001	 3.280651184759945e+000	 8.421119106743053e+000
 3.266392392833460e-001	 3.283794574465440e+000	 8.280878789050483e+000
 2.965196450651695e-001	 3.286651198413287e+000	 8.136025859842841e+000
 6.050271492656288e-001	 3.269490349961068e+000	 9.505820314495631e+000
 5.741693895358421e-001	 3.275050306784259e+000	 9.270407209305299e+000
 5.433524283577125e-001	 3.280303818010806e+000	 9.074714998372041e+000
 5.125803811482899e-001	 3.285252859785903e+000	 8.909197203325494e+000
 4.818573009974927e-001	 3.289899472834430e+000	 8.765582164715010e+000
 4.511871776541295e-001	 3.294245760506156e+000	 8.636858893812867e+000
 4.205739365759401e-001	 3.298293886811303e+000	 8.517260611827949e+000
 3.900214380432444e-001	 3.302046074448694e+000	 8.402246081295170e+000
 3.595334763357196e-001	 3.305504602828564e+000	 8.288478836978888e+000
 3.291137789717515e-001	 3.308671806092170e+000	 8.173804425782983e+000
 2.987660060097320e-001	 3.311550071130214e+000	 8.057225766903697e+000
 6.095762255751076e-001	 3.294072984173759e+000	 9.320397075056377e+000
 5.784864526137959e-001	 3.299674745183752e+000	 9.083259026217311e+000
 5.474377849602403e-001	 3.304967756494813e+000	 8.890623694730213e+000
 5.164343689744753e-001	 3.309954009110377e+000	 8.732508439623960e+000
 4.854802882207794e-001	 3.314635559099118e+000	 8.600230651199443e+000
 4.545795624460711e-001	 3.319014525625462e+000	 8.486393615516983e+000
 4.237361466228101e-001	 3.323093088970389e+000	 8.384870010747445e+000
 3.929539300559796e-001	 3.326873488544744e+000	 8.290783142080434e+000
 3.622367355536746e-001	 3.330358020897184e+000	 8.200486024534257e+000
 3.315883186607344e-001	 3.333549037718901e+000	 8.111538425235320e+000
 3.010123669547862e-001	 3.336448943847143e+000	 8.022681978537795e+000
 6.141253018846009e-001	 3.318655618386451e+000	 9.150590979370101e+000
 5.828035156919487e-001	 3.324299183583244e+000	 8.917708113018048e+000
 5.515231415631204e-001	 3.329631694978822e+000	 8.733403944248909e+000
 5.202883568011357e-001	 3.334655158434851e+000	 8.587255901461175e+000
 4.891032754446326e-001	 3.339371645363804e+000	 8.470167501649124e+000
 4.579719472386412e-001	 3.343783290744768e+000	 8.374354216561610e+000
 4.268983566703400e-001	 3.347892291129476e+000	 8.293326914071409e+000
 3.958864220693765e-001	 3.351700902640793e+000	 8.221872983428872e+000
 3.649399947722636e-001	 3.355211438965803e+000	 8.156035255803648e+000
 3.340628583502946e-001	 3.358426269345630e+000	 8.093088833811200e+000
 3.032587279003322e-001	 3.361347816564072e+000	 8.031515945584836e+000
 6.186743781941089e-001	 3.343238252599141e+000	 8.994412077730303e+000
 5.871205787703006e-001	 3.348923621982736e+000	 8.771875605754261e+000
 5.556084981663528e-001	 3.354295633462829e+000	 8.601288512119229e+000
 5.241423446282706e-001	 3.359356307759324e+000	 8.471784416907406e+000
 4.927262626690523e-001	 3.364107731628491e+000	 8.373849935267568e+000
 4.613643320318393e-001	 3.368552055864074e+000	 8.299310534254445e+000
 4.300605667185297e-001	 3.372691493288563e+000	 8.241313907110714e+000
 3.988189140834350e-001	 3.376528316736843e+000	 8.194310975697784e+000
 3.676432539914868e-001	 3.380064857034423e+000	 8.154034634592341e+000
 3.365373980404323e-001	 3.383303500972360e+000	 8.117476352728378e+000
 3.055050888463698e-001	 3.386246689281000e+000	 8.082860750389850e+000
 6.232234545036314e-001	 3.367820886811832e+000	 8.849884309795604e+000
 5.914376418488513e-001	 3.373548060382227e+000	 8.643896998842306e+000
 5.596938547699376e-001	 3.378959571946838e+000	 8.492524823063226e+000
 5.279963324558803e-001	 3.384057457083798e+000	 8.384453608259035e+000
 4.963492498940388e-001	 3.388843817893178e+000	 8.309749935166524e+000
 4.647567168256657e-001	 3.393320820983380e+000	 8.259846976006786e+000
 4.332227767673793e-001	 3.397490695447649e+000	 8.227527789584945e+000
 4.017514060981554e-001	 3.401355730832893e+000	 8.206906187733221e+000
 3.703465132113441e-001	 3.404918275103043e+000	 8.193405288780216e+000
 3.390119377311472e-001	 3.408180732599090e+000	 8.183733876164370e+000
 3.077514497928993e-001	 3.411145561997928e+000	 8.175860682295911e+000
 6.277725308131688e-001	 3.392403521024523e+000	 8.691621932108811e+000
 5.957547049276010e-001	 3.398172498781718e+000	 8.531921624837407e+000
 5.637792113738745e-001	 3.403623510430845e+000	 8.405374430191388e+000
 5.318503202839647e-001	 3.408758606408273e+000	 8.323637356015860e+000
 4.999722371195919e-001	 3.413579904157864e+000	 8.276353713441768e+000
 4.681491016201202e-001	 3.418089586102685e+000	 8.254561991430968e+000
 4.363849868168886e-001	 3.422289897606736e+000	 8.250679060607558e+000
 4.046838981135373e-001	 3.426183144928944e+000	 8.258480890548130e+000
 3.730497724318355e-001	 3.429771693171662e+000	 8.273080898435099e+000
 3.414864774224393e-001	 3.433057964225819e+000	 8.290906049482292e+000
 3.099978107399203e-001	 3.436044434714856e+000	 8.309670831593429e+000
 6.323216071227208e-001	 3.416986155237214e+000	 8.524617815094015e+000
 6.000717680065499e-001	 3.422796937181211e+000	 8.434112156658861e+000
 5.678645679781637e-001	 3.428287448914853e+000	 8.338112506787322e+000
 5.357043081125240e-001	 3.433459755732746e+000	 8.287723285996044e+000
 5.035952243457116e-001	 3.438315990422550e+000	 8.272161199339124e+000
 4.715414864152032e-001	 3.442858351221992e+000	 8.282067567225466e+000
 4.395471968670580e-001	 3.447089099765823e+000	 8.309491425901882e+000
 4.076163901295808e-001	 3.451010559024994e+000	 8.347870082424143e+000
 3.757530316529610e-001	 3.454625111240281e+000	 8.392007244295034e+000
 3.439610171143090e-001	 3.457935195852550e+000	 8.438048846526515e+000
 3.122441716874331e-001	 3.460943307431786e+000	 8.483456700996689e+000
 6.368706834322875e-001	 3.441568789449906e+000	 8.362967102053824e+000
 6.043888310856980e-001	 3.447421375580705e+000	 8.348644131148239e+000
 5.719499245828054e-001	 3.452951387398861e+000	 8.289027359872717e+000
 5.395582959415579e-001	 3.458160905057221e+000	 8.275112278431871e+000
 5.072182115723980e-001	 3.463052076687238e+000	 8.295685549356140e+000
 4.749338712109144e-001	 3.467627116341299e+000	 8.340988743707261e+000
 4.427094069178871e-001	 3.471888301924911e+000	 8.402701326136505e+000
 4.105488821462863e-001	 3.475837973121045e+000	 8.473921034366169e+000
 3.784562908747207e-001	 3.479478529308901e+000	 8.549141775601632e+000
 3.464355568067561e-001	 3.482812427479280e+000	 8.624229165034048e+000
 3.144905326354376e-001	 3.485842180148714e+000	 8.696393833771888e+000
 2.920269231775196e-001	 3.236853452979430e+000	 8.429969997803278e+000
 2.624374994324514e-001	 3.239386756599464e+000	 8.183833065758657e+000
 2.329253324867810e-001	 3.241642452436632e+000	 7.892472478042459e+000
 2.034937985235925e-001	 3.243623016616949e+000	 7.559484441747910e+000
 1.741462056470113e-001	 3.245330969105182e+000	 7.189457909173776e+000
 1.448857934907249e-001	 3.246768871790385e+000	 6.787942466387605e+000
 1.157157328821542e-001	 3.247939326581152e+000	 6.361415130918942e+000
 8.663912556126877e-002	 3.248844973512246e+000	 5.917246166037650e+000
 5.765900395300546e-002	 3.249488488864120e+000	 5.463664017915188e+000
 2.877833099221386e-002	 3.249872583296864e+000	 5.009719480540076e+000
 0.000000000000000e+000	 3.250000000000000e+000	 4.565249191576865e+000
 2.942732841210988e-001	 3.261752325696358e+000	 8.259972881971672e+000
 2.644562494246240e-001	 3.264305116266987e+000	 8.057399861475066e+000
 2.347170658106003e-001	 3.266578163610304e+000	 7.816497354981986e+000
 2.050591354327509e-001	 3.268573962899443e+000	 7.540565359977543e+000
 1.754857918421560e-001	 3.270295053483519e+000	 7.233916983477061e+000
 1.460002995927624e-001	 3.271744016958421e+000	 6.901846041896786e+000
 1.166058539029716e-001	 3.272923475247428e+000	 6.550593535998708e+000
 8.730558037229109e-002	 3.273836088693259e+000	 6.187313110432091e+000
 5.810253475200383e-002	 3.274484554163141e+000	 5.820035606239572e+000
 2.899970276876601e-002	 3.274871603168394e+000	 5.457632813266490e+000
 0.000000000000000e+000	 3.275000000000000e+000	 5.109780527723763e+000
 2.965196450651695e-001	 3.286651198413287e+000	 8.136025859842841e+000
 2.664749994171937e-001	 3.289223475934511e+000	 7.973677205425561e+000
 2.365087991347322e-001	 3.291513874783975e+000	 7.779142797240427e+000
 2.066244723421478e-001	 3.293524909181937e+000	 7.555431876183059e+000
 1.768253780374754e-001	 3.295259137861856e+000	 7.306587841574026e+000
 1.471148056949209e-001	 3.296719162126458e+000	 7.037655541815306e+000
 1.174959749238660e-001	 3.297907623913702e+000	 6.754647405540808e+000
 8.797203518335663e-002	 3.298827203874272e+000	 6.464508524901766e+000
 5.854606555102134e-002	 3.299480619462162e+000	 6.175080801482405e+000
 2.922107454532293e-002	 3.299870623039924e+000	 5.895066263902002e+000
 0.000000000000000e+000	 3.300000000000000e+000	 5.633989664465072e+000
 2.987660060097320e-001	 3.311550071130214e+000	 8.057225766903697e+000
 2.684937494101602e-001	 3.314141835602035e+000	 7.931919366069896e+000
 2.383005324591768e-001	 3.316449585957646e+000	 7.779821611993488e+000
 2.081898092517832e-001	 3.318475855464431e+000	 7.603656341172561e+000
 1.781649642329693e-001	 3.320223222240192e+000	 7.407203285773568e+000
 1.482293117972002e-001	 3.321694307294495e+000	 7.195265034535968e+000
 1.183860959448375e-001	 3.322891772579979e+000	 6.973632799057426e+000
 8.863848999446536e-002	 3.323818319055284e+000	 6.749051099276528e+000
 5.898959635005797e-002	 3.324476684761183e+000	 6.529181480825415e+000
 2.944244632188460e-002	 3.324869642911456e+000	 6.322565375485170e+000
 0.000000000000000e+000	 3.324999999999999e+000	 6.138586214264356e+000
 3.010123669547862e-001	 3.336448943847143e+000	 8.022681978537795e+000
 2.705124994035238e-001	 3.339060195269558e+000	 7.931390633811840e+000
 2.400922657839339e-001	 3.341385297131319e+000	 7.817953912178498e+000
 2.097551461616571e-001	 3.343426801746927e+000	 7.684815500152363e+000
 1.795045504286379e-001	 3.345187306618529e+000	 7.535497409348070e+000
 1.493438178996003e-001	 3.346669452462530e+000	 7.374566587073377e+000
 1.192762169658860e-001	 3.347875921246255e+000	 7.207600296651040e+000
 8.930494480561731e-002	 3.348809434236298e+000	 7.041150383519546e+000
 5.943312714911376e-002	 3.349472750060204e+000	 6.882706542014302e+000
 2.966381809845104e-002	 3.349868662782986e+000	 6.740658696290272e+000
 0.000000000000000e+000	 3.350000000000000e+000	 6.624258607123328e+000
 3.032587279003322e-001	 3.361347816564072e+000	 8.031515945584836e+000
 2.725312493972843e-001	 3.363978554937082e+000	 7.971364949815811e+000
 2.418839991090036e-001	 3.366321008304990e+000	 7.892966845910594e+000
 2.113204830717695e-001	 3.368377748029420e+000	 7.798490329972263e+000
 1.808441366244811e-001	 3.370151390996865e+000	 7.691205548720604e+000
 1.504583240021213e-001	 3.371644597630567e+000	 7.575450339188879e+000
 1.201663379870117e-001	 3.372860069912531e+000	 7.456595201954896e+000
 8.997139961681246e-002	 3.373800549417310e+000	 7.341007126242223e+000
 5.987665794818865e-002	 3.374468815359224e+000	 7.236012384079804e+000
 2.988518987502226e-002	 3.374867682654517e+000	 7.149858409262763e+000
 0.000000000000000e+000	 3.375000000000000e+000	 7.091674875117895e+000
 3.055050888463698e-001	 3.386246689281000e+000	 8.082860750389850e+000
 2.745499993914417e-001	 3.388896914604605e+000	 8.051125551200274e+000
 2.436757324343858e-001	 3.391256719478660e+000	 8.004294337836448e+000
 2.128858199821205e-001	 3.393328694311915e+000	 7.944265883549345e+000
 1.821837228204990e-001	 3.395115475375202e+000	 7.874064237759841e+000
 1.515728301047632e-001	 3.396619742798604e+000	 7.797804574245881e+000
 1.210564590082144e-001	 3.397844218578805e+000	 7.720657736121382e+000
 9.063785442805079e-002	 3.398791664598323e+000	 7.648813598281774e+000
 6.032018874728268e-002	 3.399464880658245e+000	 7.589443366848500e+000
 3.010656165159823e-002	 3.399866702526048e+000	 7.550660933686399e+000
 0.000000000000000e+000	 3.400000000000000e+000	 7.541483402321764e+000
 3.077514497928993e-001	 3.411145561997928e+000	 8.175860682295911e+000
 2.765687493859962e-001	 3.413815274272130e+000	 8.169964631768522e+000
 2.454674657600808e-001	 3.416192430652333e+000	 8.151376841815415e+000
 2.144511568927100e-001	 3.418279640594410e+000	 8.121731141107357e+000
 1.835233090166915e-001	 3.420079559753539e+000	 8.083811164078657e+000
 1.526873362075258e-001	 3.421594887966641e+000	 8.041515786961504e+000
 1.219465800294942e-001	 3.422828367245081e+000	 7.999823223313458e+000
 9.130430923933233e-002	 3.423782779779336e+000	 7.964753902110040e+000
 6.076371954639585e-002	 3.424460945957266e+000	 7.943332250330196e+000
 3.032793342817898e-002	 3.424865722397578e+000	 7.943547500498559e+000
 0.000000000000000e+000	 3.425000000000000e+000	 7.974313641886562e+000
 3.099978107399203e-001	 3.436044434714856e+000	 8.309670831593429e+000
 2.785874993809475e-001	 3.438733633939654e+000	 8.327183017491629e+000
 2.472591990860882e-001	 3.441128141826003e+000	 8.333661104354315e+000
 2.160164938035379e-001	 3.443230586876903e+000	 8.330478867882546e+000
 1.848628952130586e-001	 3.445043644131875e+000	 8.320185127231097e+000
 1.538018423104094e-001	 3.446570033134677e+000	 8.306468748212115e+000
 1.228367010508511e-001	 3.447812515911356e+000	 8.294122268132385e+000
 9.197076405065707e-002	 3.448773894960349e+000	 8.289004267788528e+000
 6.120725034552816e-002	 3.449457011256288e+000	 8.298000615000994e+000
 3.054930520476448e-002	 3.449864742269110e+000	 8.328984702593214e+000
 0.000000000000000e+000	 3.449999999999999e+000	 8.390776801945458e+000
 3.122441716874331e-001	 3.460943307431786e+000	 8.483456700996689e+000
 2.806062493762958e-001	 3.463651993607177e+000	 8.522089855998660e+000
 2.490509324124082e-001	 3.466063852999674e+000	 8.550599938252748e+000
 2.175818307146044e-001	 3.468181533159398e+000	 8.570105477971943e+000
 1.862024814096004e-001	 3.470007728510212e+000	 8.582925998714698e+000
 1.549163484134138e-001	 3.471545178302714e+000	 8.592546567042662e+000
 1.237268220722850e-001	 3.472796664577632e+000	 8.603580925385682e+000
 9.263721886202500e-002	 3.473765010141362e+000	 8.621733336148445e+000
 6.165078114467958e-002	 3.474453076555308e+000	 8.653759263945057e+000
 3.077067698135475e-002	 3.474863762140640e+000	 8.707425021369136e+000
 0.000000000000000e+000	 3.474999999999999e+000	 8.791466501908037e+000
 3.144905326354376e-001	 3.485842180148714e+000	 8.696393833771888e+000
 2.826249993720412e-001	 3.488570353274702e+000	 8.754002319374401e+000
 2.508426657390410e-001	 3.490999564173347e+000	 8.801652005949961e+000
 2.191471676259094e-001	 3.493132479441893e+000	 8.840210904017461e+000
 1.875420676063168e-001	 3.494971812888549e+000	 8.871774683687127e+000
 1.560308545165391e-001	 3.496520323470751e+000	 8.899630750017408e+000
 1.246169430937960e-001	 3.497780813243908e+000	 8.928220862580162e+000
 9.330367367343619e-002	 3.498756125322376e+000	 8.963102429834626e+000
 6.209431194385016e-002	 3.499449141854330e+000	 9.010908607760888e+000
 3.099204875794980e-002	 3.499862782012172e+000	 9.079307330711487e+000
 0.000000000000000e+000	 3.500000000000000e+000	 9.176959400629563e+000
 3.500000000000000e+000	 0.000000000000000e+000	 1.075195100147044e+001
 3.499862782012172e+000	 3.099204875794991e-002	 1.070958023406274e+001
 3.499449141854330e+000	 6.209431194385037e-002	 1.068159016369991e+001
 3.498756125322376e+000	 9.330367367343595e-002	 1.066644107420121e+001
 3.497780813243909e+000	 1.246169430937959e-001	 1.066253680332057e+001
 3.496520323470751e+000	 1.560308545165391e-001	 1.066823416346997e+001
 3.494971812888549e+000	 1.875420676063169e-001	 1.068185291215739e+001
 3.493132479441893e+000	 2.191471676259096e-001	 1.070168626681402e+001
 3.490999564173347e+000	 2.508426657390408e-001	 1.072601195682575e+001
 3.488570353274701e+000	 2.826249993720411e-001	 1.075310380366669e+001
 3.485842180148715e+000	 3.144905326354376e-001	 1.078124381805993e+001
 3.525000000000000e+000	 0.000000000000000e+000	 1.074245132862659e+001
 3.524861801883700e+000	 3.121342053454733e-002	 1.069807772309839e+001
 3.524445207153342e+000	 6.253784274303052e-002	 1.067037844006252e+001
 3.523747240503367e+000	 9.397012848486869e-002	 1.065742896334021e+001
 3.522764961910145e+000	 1.255070641153455e-001	 1.065723883327660e+001
 3.521495468638728e+000	 1.571453606197247e-001	 1.066776141578605e+001
 3.519935897266799e+000	 1.888816538031206e-001	 1.068690424640112e+001
 3.518083425724269e+000	 2.207125045373338e-001	 1.071253994405207e+001
 3.515935275346863e+000	 2.526343990658297e-001	 1.074251768738352e+001
 3.513488712942027e+000	 2.846437493679848e-001	 1.077467524443589e+001
 3.510741052865397e+000	 3.167368935836880e-001	 1.080685154448195e+001
 3.549999999999999e+000	 0.000000000000000e+000	 1.073774599319449e+001
 3.549860821755223e+000	 3.143479231114475e-002	 1.069033475925044e+001
 3.549441272452333e+000	 6.298137354221063e-002	 1.066188679810993e+001
 3.548738355684315e+000	 9.463658329630142e-002	 1.065008955709854e+001
 3.547749110576305e+000	 1.263971851368950e-001	 1.065255497772135e+001
 3.546470613806581e+000	 1.582598667229104e-001	 1.066682961751051e+001
 3.544899981644873e+000	 1.902212399999243e-001	 1.069040537243292e+001
 3.543034372006405e+000	 2.222778414487581e-001	 1.072073079463529e+001
 3.540870986520065e+000	 2.544261323926187e-001	 1.075522299832311e+001
 3.538407072608955e+000	 2.866624993639286e-001	 1.079128014452808e+001
 3.535639925581588e+000	 3.189832545319382e-001	 1.082629449341676e+001
 3.574999999999999e+000	 0.000000000000000e+000	 1.073637399671466e+001
 3.574859841626743e+000	 3.165616408774217e-002	 1.068513305271805e+001
 3.574437337751306e+000	 6.342490434139073e-002	 1.065514075515206e+001
 3.573729470865220e+000	 9.530303810773416e-002	 1.064369317302721e+001
 3.572733259242388e+000	 1.272873061584445e-001	 1.064800123984184e+001
 3.571445758974317e+000	 1.593743728260961e-001	 1.066520123276752e+001
 3.569864066022773e+000	 1.915608261967280e-001	 1.069236587822334e+001
 3.567985318288304e+000	 2.238431783601823e-001	 1.072651607866422e+001
 3.565806697692955e+000	 2.562178657194076e-001	 1.076463325336870e+001
 3.563325432275486e+000	 2.886812493598724e-001	 1.080367228390456e+001
 3.560538798297286e+000	 3.212296154801885e-001	 1.084057505278362e+001
 3.600000000000000e+000	 0.000000000000000e+000	 1.073691492401819e+001
 3.599858861498257e+000	 3.187753586433959e-002	 1.068129110232086e+001
 3.599433403050260e+000	 6.386843514057089e-002	 1.064919880242140e+001
 3.598720586046081e+000	 9.596949291916691e-002	 1.063753926909466e+001
 3.597717407908394e+000	 1.281774271799941e-001	 1.064311891218035e+001
 3.596420904141930e+000	 1.604888789292818e-001	 1.066266014769852e+001
 3.594828150400499e+000	 1.929004123935317e-001	 1.069281289145725e+001
 3.592936264569962e+000	 2.254085152716066e-001	 1.073016670002676e+001
 3.590742408865532e+000	 2.580095990461965e-001	 1.077126355185096e+001
 3.588243791941620e+000	 2.906999993558161e-001	 1.081261125909674e+001
 3.585437671012494e+000	 3.234759764284390e-001	 1.085069749860701e+001
 3.625000000000000e+000	 0.000000000000000e+000	 1.073798754380287e+001
 3.624857881369765e+000	 3.209890764093702e-002	 1.067766292692568e+001
 3.624429468349195e+000	 6.431196593975101e-002	 1.064315126804139e+001
 3.623711701226900e+000	 9.663594773059965e-002	 1.063095543884458e+001
 3.622701556574323e+000	 1.290675482015436e-001	 1.063747370458748e+001
 3.621396049309424e+000	 1.616033850324674e-001	 1.065901093177161e+001
 3.619792234778049e+000	 1.942399985903353e-001	 1.069179047471594e+001
 3.617887210851384e+000	 2.269738521830308e-001	 1.073196673592269e+001
 3.615678120037797e+000	 2.598013323729855e-001	 1.077563839299641e+001
 3.613162151607358e+000	 2.927187493517598e-001	 1.081886228263477e+001
 3.610336543727210e+000	 3.257223373766893e-001	 1.085766792990962e+001
 3.650000000000000e+000	 0.000000000000000e+000	 1.073824846671984e+001
 3.649856901241271e+000	 3.232027941753444e-002	 1.067313684900655e+001
 3.649425533648110e+000	 6.475549673893113e-002	 1.063611922672185e+001
 3.648702816407675e+000	 9.730240254203239e-002	 1.062329644784910e+001
 3.647685705240175e+000	 1.299576692230932e-001	 1.063065490801308e+001
 3.646371194476795e+000	 1.627178911356531e-001	 1.065407812944863e+001
 3.644756319155425e+000	 1.955795847871390e-001	 1.068935904551492e+001
 3.642838157132565e+000	 2.285391890944550e-001	 1.073221298572302e+001
 3.640613831209749e+000	 2.615930656997744e-001	 1.077829135401324e+001
 3.638080511272699e+000	 2.947374993477036e-001	 1.082319599071883e+001
 3.635235416441434e+000	 3.279686983249396e-001	 1.086249420628077e+001
 3.675000000000000e+000	 0.000000000000000e+000	 1.073639085823246e+001
 3.674855921112770e+000	 3.254165119413186e-002	 1.066663432785558e+001
 3.674421598947007e+000	 6.519902753811127e-002	 1.062725345395661e+001
 3.673693931588407e+000	 9.796885735346513e-002	 1.061394330948984e+001
 3.672669853905949e+000	 1.308477902446427e-001	 1.062227459242805e+001
 3.671346339644046e+000	 1.638323972388388e-001	 1.064770558076351e+001
 3.669720403532627e+000	 1.969191709839428e-001	 1.068559482001377e+001
 3.667789103413511e+000	 2.301045260058793e-001	 1.073121453824280e+001
 3.665549542381389e+000	 2.633847990265633e-001	 1.077976478131640e+001
 3.662998870937642e+000	 2.967562493436474e-001	 1.082638825874053e+001
 3.660134289155166e+000	 3.302150592731899e-001	 1.086618588799339e+001
 3.699999999999999e+000	 0.000000000000000e+000	 1.073114320365644e+001
 3.699854940984265e+000	 3.276302297072929e-002	 1.065710884009559e+001
 3.699417664245885e+000	 6.564255833729141e-002	 1.061573342261880e+001
 3.698685046769097e+000	 9.863531216489786e-002	 1.060230239820779e+001
 3.697654002571647e+000	 1.317379112661923e-001	 1.061196683726258e+001
 3.696321484811177e+000	 1.649469033420245e-001	 1.063975576944493e+001
 3.694684487909653e+000	 1.982587571807465e-001	 1.068058927927809e+001
 3.692740049694216e+000	 2.316698629173035e-001	 1.072929235655758e+001
 3.690485253552716e+000	 2.651765323533523e-001	 1.078060949427053e+001
 3.687917230602189e+000	 2.987749993395912e-001	 1.082922002428319e+001
 3.685033161868407e+000	 3.324614202214402e-001	 1.086975417854831e+001
 3.724999999999999e+000	 0.000000000000000e+000	 1.072126812292975e+001
 3.724853960855755e+000	 3.298439474732670e-002	 1.064354480527321e+001
 3.724413729544743e+000	 6.608608913647153e-002	 1.060076633996160e+001
 3.723676161949742e+000	 9.930176697633060e-002	 1.058780459846107e+001
 3.722638151237268e+000	 1.326280322877418e-001	 1.059938699283411e+001
 3.721296629978185e+000	 1.660614094452101e-001	 1.063010919728896e+001
 3.719648572286506e+000	 1.995983433775501e-001	 1.067444865703424e+001
 3.717690995974683e+000	 2.332351998287278e-001	 1.072677887953787e+001
 3.715420964723730e+000	 2.669682656801413e-001	 1.078138450086298e+001
 3.712835590266338e+000	 3.007937493355349e-001	 1.083247711724972e+001
 3.709932034581156e+000	 3.347077811696906e-001	 1.087421186953235e+001
 3.750000000000000e+000	 0.000000000000000e+000	 1.070556123279200e+001
 3.749852980727241e+000	 3.320576652392414e-002	 1.062495655442789e+001
 3.749409794843583e+000	 6.652961993565168e-002	 1.058158622313862e+001
 3.748667277130346e+000	 9.996822178776336e-002	 1.056990448772413e+001
 3.747622299902811e+000	 1.335181533092914e-001	 1.058421097131749e+001
 3.746271775145075e+000	 1.671759155483958e-001	 1.061866378355669e+001
 3.744612656663185e+000	 2.009379295743539e-001	 1.066729344791412e+001
 3.742641942254912e+000	 2.348005367401521e-001	 1.072401763932305e+001
 3.740356675894433e+000	 2.687599990069302e-001	 1.078265672474952e+001
 3.737753949930092e+000	 3.028124993314787e-001	 1.083695009678513e+001
 3.734830907293414e+000	 3.369541421179410e-001	 1.088057328768238e+001
 3.485842180148715e+000	 3.144905326354376e-001	 1.078124381805993e+001
 3.482812427479281e+000	 3.464355568067562e-001	 1.081309309360441e+001
 3.479478529308901e+000	 3.784562908747209e-001	 1.083901213312728e+001
 3.475837973121044e+000	 4.105488821462860e-001	 1.085678291503037e+001
 3.471888301924910e+000	 4.427094069178869e-001	 1.086424031969458e+001
 3.467627116341299e+000	 4.749338712109144e-001	 1.085928697298677e+001
 3.463052076687238e+000	 5.072182115723981e-001	 1.083990851621273e+001
 3.458160905057221e+000	 5.395582959415582e-001	 1.080418927648595e+001
 3.452951387398861e+000	 5.719499245828053e-001	 1.075032830925247e+001
 3.447421375580704e+000	 6.043888310856977e-001	 1.067665578248738e+001
 3.441568789449906e+000	 6.368706834322875e-001	 1.129351011724434e+001
 3.510741052865397e+000	 3.167368935836880e-001	 1.080685154448195e+001
 3.507689659105719e+000	 3.489100964994941e-001	 1.082659938098752e+001
 3.504331947377194e+000	 3.811595500968071e-001	 1.083818055644015e+001
 3.500665387216742e+000	 4.134813741633439e-001	 1.083901024697659e+001
 3.496687504083628e+000	 4.458716169690846e-001	 1.082655368522856e+001
 3.492395881460230e+000	 4.783262560070001e-001	 1.079834155220839e+001
 3.487788162951552e+000	 5.108411987994553e-001	 1.075198581495251e+001
 3.482862054381337e+000	 5.434122837709491e-001	 1.068519598323995e+001
 3.477615325882536e+000	 5.760352811877795e-001	 1.059579575640300e+001
 3.472045813979897e+000	 6.087058941651440e-001	 1.048174002895277e+001
 3.466151423662342e+000	 6.414197597421076e-001	 1.131493095770277e+001
 3.535639925581588e+000	 3.189832545319382e-001	 1.082629449341676e+001
 3.532566890731576e+000	 3.513846361922370e-001	 1.083542144198663e+001
 3.529185365444834e+000	 3.838628093189126e-001	 1.083411885273164e+001
 3.525492801311734e+000	 4.164138661804452e-001	 1.081943048672141e+001
 3.521486706241609e+000	 4.490338270203597e-001	 1.078844728629798e+001
 3.517164646578412e+000	 4.817186408032074e-001	 1.073832332272173e+001
 3.512524249215127e+000	 5.144641860266879e-001	 1.066629220913728e+001
 3.507563203704741e+000	 5.472662716005793e-001	 1.056968395151445e+001
 3.502279264365546e+000	 5.801206377930674e-001	 1.044594220784837e+001
 3.496670252378495e+000	 6.130229572449882e-001	 1.029264192353677e+001
 3.490734057874272e+000	 6.459688360524207e-001	 1.133266218948412e+001
 3.560538798297286e+000	 3.212296154801885e-001	 1.084057505278362e+001
 3.557444122356851e+000	 3.538591758849846e-001	 1.084075339341784e+001
 3.554038783511820e+000	 3.865660685410373e-001	 1.082821254096150e+001
 3.550320215406021e+000	 4.193463581975898e-001	 1.079962012234566e+001
 3.546285908398853e+000	 4.521960370717121e-001	 1.075168803960657e+001
 3.541933411695844e+000	 4.851110255995358e-001	 1.068118898076656e+001
 3.537260335477958e+000	 5.180871732540956e-001	 1.058497341585084e+001
 3.532264353027430e+000	 5.511202594304486e-001	 1.045998705002410e+001
 3.526943202847890e+000	 5.842059943986687e-001	 1.030328870338715e+001
 3.521294690776494e+000	 6.173400203252302e-001	 1.011206858453651e+001
 3.515316692085695e+000	 6.505179123632263e-001	 1.134662514352437e+001
 3.585437671012494e+000	 3.234759764284390e-001	 1.085069749860701e+001
 3.582321353981543e+000	 3.563337155777368e-001	 1.084378888565133e+001
 3.578892201578153e+000	 3.892693277631812e-001	 1.082184432012736e+001
 3.575147629499604e+000	 4.222788502147779e-001	 1.078115047043504e+001
 3.571085110555359e+000	 4.553582471231420e-001	 1.071803534177484e+001
 3.566702176812527e+000	 4.885034103959857e-001	 1.062888535783055e+001
 3.561996421740048e+000	 5.217101604816786e-001	 1.051016294766185e+001
 3.556965502349404e+000	 5.549742472605573e-001	 1.035842460910913e+001
 3.551607141329567e+000	 5.882913510045832e-001	 1.017033941749754e+001
 3.545919129173896e+000	 6.216570834058701e-001	 9.942707945915547e+000
 3.539899326296611e+000	 6.550669886745246e-001	 1.135671965637466e+001
 3.610336543727210e+000	 3.257223373766893e-001	 1.085766792990962e+001
 3.607198585605653e+000	 3.588082552704940e-001	 1.084572111869560e+001
 3.603745619643832e+000	 3.919725869853444e-001	 1.081639416650471e+001
 3.599975043592481e+000	 4.252113422320094e-001	 1.076558785440756e+001
 3.595884312711128e+000	 4.585204571746492e-001	 1.068924132865330e+001
 3.591470941928460e+000	 4.918957951925567e-001	 1.058334976081314e+001
 3.586732508001396e+000	 5.253331477094367e-001	 1.044398253346901e+001
 3.581666651670666e+000	 5.588282350909053e-001	 1.026730192205860e+001
 3.576271079810581e+000	 5.923767076108114e-001	 1.004958224090006e+001
 3.570543567570702e+000	 6.259741464869079e-001	 9.839908298095370e+000
 3.564481960507018e+000	 6.596160649863155e-001	 1.136282481138694e+001
 3.635235416441434e+000	 3.279686983249396e-001	 1.086249420628077e+001
 3.632075817229181e+000	 3.612827949632560e-001	 1.084774285762101e+001
 3.628599037708858e+000	 3.946758462075267e-001	 1.081323942689087e+001
 3.624802457684653e+000	 4.281438342492843e-001	 1.075449377551239e+001
 3.620683514866161e+000	 4.616826672262339e-001	 1.066705112397889e+001
 3.616239707043643e+000	 4.952881799892492e-001	 1.054651029821004e+001
 3.611468594262003e+000	 5.289561349373702e-001	 1.038854252205155e+001
 3.606367800991213e+000	 5.626822229214923e-001	 1.018891072583145e+001
 3.600935018290927e+000	 5.964620642173529e-001	 9.943489338220610e+000
 3.595168005966912e+000	 6.302912095683437e-001	 9.924861436873860e+000
 3.589064594716919e+000	 6.641651412985992e-001	 1.136479964944002e+001
 3.660134289155166e+000	 3.302150592731899e-001	 1.086618588799339e+001
 3.656953048852127e+000	 3.637573346560227e-001	 1.085104644735344e+001
 3.653452455773231e+000	 3.973791054297284e-001	 1.081375490804300e+001
 3.649629871776120e+000	 4.310763262666025e-001	 1.074942507684919e+001
 3.645482717020455e+000	 4.648448772778959e-001	 1.065320307788238e+001
 3.641008472158077e+000	 4.986805647860629e-001	 1.052028619298410e+001
 3.636204680521868e+000	 5.325791221654790e-001	 1.034594226914799e+001
 3.631068950311046e+000	 5.665362107523188e-001	 1.012552966215592e+001
 3.625598956770607e+000	 6.005474208242078e-001	 9.854517682891505e+000
 3.619792444362524e+000	 6.346082726501773e-001	 1.001129123353081e+001
 3.613647228926312e+000	 6.687142176113755e-001	 1.136248385065625e+001
 3.685033161868407e+000	 3.324614202214402e-001	 1.086975417854831e+001
 3.681830280474491e+000	 3.662318743487942e-001	 1.085682382686836e+001
 3.678305873836951e+000	 4.000823646519492e-001	 1.081931296249026e+001
 3.674457285866882e+000	 4.340088182839642e-001	 1.075193410073807e+001
 3.670281919174012e+000	 4.680070873296354e-001	 1.064942899572624e+001
 3.665777237271761e+000	 5.020729495829980e-001	 1.050658808275223e+001
 3.660940766780990e+000	 5.362021093937627e-001	 1.031827050884274e+001
 3.655770099630165e+000	 5.703901985833844e-001	 1.007942471993622e+001
 3.650262895249622e+000	 6.046327774313762e-001	 9.785109570367549e+000
 3.644416882757539e+000	 6.389253357324086e-001	 1.009898662248032e+001
 3.638229863135198e+000	 6.732632939246445e-001	 1.135569838848112e+001
 3.709932034581156e+000	 3.347077811696906e-001	 1.087421186953235e+001
 3.706707512096273e+000	 3.687064140415705e-001	 1.086626654281344e+001
 3.703159291900017e+000	 4.027856238741893e-001	 1.083128357089045e+001
 3.699284699956938e+000	 4.369413103013691e-001	 1.076356883975245e+001
 3.695081121326833e+000	 4.711692973814522e-001	 1.065745435772790e+001
 3.690546002384696e+000	 5.054653343800544e-001	 1.050731830788427e+001
 3.685676853039371e+000	 5.398250966222219e-001	 1.030760570999736e+001
 3.680471248948569e+000	 5.742441864146891e-001	 1.005284965984380e+001
 3.674926833727972e+000	 6.087181340388581e-001	 9.737693110675576e+000
 3.669041321151958e+000	 6.432423988150380e-001	 1.018772040218532e+001
 3.662812497343578e+000	 6.778123702384060e-001	 1.134424615742416e+001
 3.734830907293414e+000	 3.369541421179410e-001	 1.088057328768238e+001
 3.731584743717474e+000	 3.711809537343518e-001	 1.088056576258597e+001
 3.728012709962431e+000	 4.054888830964487e-001	 1.085103442109238e+001
 3.724112114046291e+000	 4.398738023188177e-001	 1.078587308171052e+001
 3.719880323478916e+000	 4.743315074333465e-001	 1.067899852979773e+001
 3.715314767496883e+000	 5.088577191772322e-001	 1.052437118807785e+001
 3.710412939297010e+000	 5.434480838508564e-001	 1.031601641842470e+001
 3.705172398266262e+000	 5.780981742462336e-001	 1.004804642192511e+001
 3.699590772205656e+000	 6.128034906466535e-001	 9.714682701262039e+000
 3.693665759545779e+000	 6.475594618980652e-001	 1.027724977302258e+001
 3.687395131551449e+000	 6.823614465526605e-001	 1.132791257568993e+001
 3.441568789449906e+000	 6.368706834322875e-001	 1.129351011724434e+001
 3.435391618878011e+000	 6.693910851321568e-001	 1.124529103036562e+001
 3.428887925790747e+000	 7.019455764256674e-001	 1.119530491226052e+001
 3.422055846180587e+000	 7.345296355551677e-001	 1.114336176303783e+001
 3.414893592100732e+000	 7.671386801043790e-001	 1.108919140410163e+001
 3.407399453636346e+000	 7.997680684061285e-001	 1.103243731467558e+001
 3.399571800851111e+000	 8.324131010182234e-001	 1.097265046432320e+001
 3.391409085706569e+000	 8.650690222672625e-001	 1.090928315950935e+001
 3.382909843951724e+000	 8.977310218600828e-001	 1.084168292285784e+001
 3.374072696980329e+000	 9.303942365624409e-001	 1.076908642432468e+001
 3.364896353653301e+000	 9.630537519444204e-001	 1.069061348402481e+001
 3.466151423662342e+000	 6.414197597421076e-001	 1.131493095770277e+001
 3.459930130443355e+000	 6.741724500248499e-001	 1.125904941230624e+001
 3.453379982405272e+000	 7.069594733984075e-001	 1.120210602265168e+001
 3.446499102226226e+000	 7.397762758068601e-001	 1.114407805089310e+001
 3.439285689188370e+000	 7.726182421023854e-001	 1.108486232435804e+001
 3.431738021163191e+000	 8.054806974630454e-001	 1.102426878949493e+001
 3.423854456571968e+000	 8.383589088792042e-001	 1.096201405698015e+001
 3.415633436318824e+000	 8.712480867083656e-001	 1.089771495655391e+001
 3.407073485693827e+000	 9.041433862981300e-001	 1.083088212078901e+001
 3.398173216243544e+000	 9.370399096768673e-001	 1.076091361758709e+001
 3.388931327606469e+000	 9.699327073115912e-001	 1.068708865173777e+001
 3.490734057874272e+000	 6.459688360524207e-001	 1.133266218948412e+001
 3.484468642008293e+000	 6.789538149181262e-001	 1.126967494263071e+001
 3.477872039019489e+000	 7.119733703718012e-001	 1.120636598074447e+001
 3.470942358271659e+000	 7.450229160592580e-001	 1.114288122264198e+001
 3.463677786275902e+000	 7.780978041011289e-001	 1.107928586059444e+001
 3.456076588690030e+000	 8.111933265207119e-001	 1.101555762808252e+001
 3.448137112292918e+000	 8.443047167409267e-001	 1.095158005385181e+001
 3.439857786931271e+000	 8.774271511501820e-001	 1.088713572137009e+001
 3.431237127436225e+000	 9.105557507368419e-001	 1.082189955344839e+001
 3.422273735507154e+000	 9.436855827918899e-001	 1.075543214240262e+001
 3.412966301560131e+000	 9.768116626792683e-001	 1.068717314669863e+001
 3.515316692085695e+000	 6.505179123632263e-001	 1.134662514352437e+001
 3.509007153572822e+000	 6.837351798119854e-001	 1.127699618148567e+001
 3.502364095633400e+000	 7.169872673458494e-001	 1.120782102541651e+001
 3.495385614316884e+000	 7.502695563123617e-001	 1.113941569749154e+001
 3.488069883363327e+000	 7.835773661006105e-001	 1.107201516619208e+001
 3.480415156216862e+000	 8.169059555791279e-001	 1.100576632419846e+001
 3.472419768013961e+000	 8.502505246033906e-001	 1.094072094770085e+001
 3.464082137543915e+000	 8.836062155927117e-001	 1.087682865676933e+001
 3.455400769178915e+000	 9.169681151762189e-001	 1.081392989711073e+001
 3.446374254771156e+000	 9.503312559075078e-001	 1.075174896418097e+001
 3.437001275514286e+000	 9.836906180474516e-001	 1.068988709121047e+001
 3.539899326296611e+000	 6.550669886745246e-001	 1.135671965637466e+001
 3.533545665136944e+000	 6.885165447064279e-001	 1.128082166360764e+001
 3.526856152247003e+000	 7.220011643205517e-001	 1.120618883994875e+001
 3.519828870361901e+000	 7.555161965661709e-001	 1.113330880909619e+001
 3.512461980450645e+000	 7.890569281008292e-001	 1.106258777863691e+001
 3.504753723743688e+000	 8.226185846382935e-001	 1.099434322435363e+001
 3.496702423735099e+000	 8.561963324665961e-001	 1.092879655104344e+001
 3.488306488156749e+000	 8.897852800359548e-001	 1.086606575003624e+001
 3.479564410921900e+000	 9.233804796162607e-001	 1.080615807431495e+001
 3.470474774035552e+000	 9.569769290237220e-001	 1.074896275280580e+001
 3.461036249468935e+000	 9.905695734161415e-001	 1.069424376602088e+001
 3.564481960507018e+000	 6.596160649863155e-001	 1.136282481138694e+001
 3.558084176700659e+000	 6.932979096014533e-001	 1.128094058885427e+001
 3.551348208860298e+000	 7.270150612959079e-001	 1.120116919187375e+001
 3.544272126406713e+000	 7.607628368206859e-001	 1.112417139471464e+001
 3.536854077537856e+000	 7.945364901017854e-001	 1.105052615799874e+001
 3.529092291270506e+000	 8.283312136982085e-001	 1.098072301564597e+001
 3.520985079456329e+000	 8.621421403305435e-001	 1.091515443339907e+001
 3.512530838769779e+000	 8.959643444799115e-001	 1.085410815967101e+001
 3.503728052665179e+000	 9.297928440569673e-001	 1.079775959019980e+001
 3.494575293300343e+000	 9.636226021405324e-001	 1.074616416868732e+001
 3.485071223424078e+000	 9.974485287853374e-001	 1.069924984623768e+001
 3.589064594716919e+000	 6.641651412985992e-001	 1.136479964944002e+001
 3.582622688263967e+000	 6.980792744970616e-001	 1.127712348435782e+001
 3.575840265473288e+000	 7.320289582719184e-001	 1.119244454652860e+001
 3.568715382451316e+000	 7.660094770759063e-001	 1.111159836015496e+001
 3.561246174624959e+000	 8.000160521034790e-001	 1.103533820328110e+001
 3.553430858797317e+000	 8.340438427588731e-001	 1.096432719354853e+001
 3.545267735177652e+000	 8.680879481952318e-001	 1.089913034057127e+001
 3.536755189383001e+000	 9.021434089245812e-001	 1.084020658623814e+001
 3.527891694408750e+000	 9.362052084983389e-001	 1.078790085501762e+001
 3.518675812565527e+000	 9.702682752579382e-001	 1.074243613705931e+001
 3.509106197379714e+000	 1.004327484155040e+000	 1.070390562754947e+001
 3.613647228926312e+000	 6.687142176113755e-001	 1.136248385065625e+001
 3.607161199826867e+000	 7.028606393932529e-001	 1.126912283965174e+001
 3.600332322085968e+000	 7.370428552485825e-001	 1.117968065556498e+001
 3.593158638495712e+000	 7.712561173318322e-001	 1.109516922166060e+001
 3.585638271711956e+000	 8.054956141059104e-001	 1.101651774769560e+001
 3.577769426324122e+000	 8.397564718202876e-001	 1.094456451060420e+001
 3.569550390899070e+000	 8.740337560606620e-001	 1.088004859681482e+001
 3.560979539996417e+000	 9.083224733699646e-001	 1.082360162807849e+001
 3.552055336152617e+000	 9.426175729403754e-001	 1.077573949348415e+001
 3.542776331831104e+000	 9.769139483759401e-001	 1.073685411108037e+001
 3.533141171335844e+000	 1.011206439525248e+000	 1.070720524321264e+001
 3.638229863135198e+000	 6.732632939246445e-001	 1.135569838848112e+001
 3.631699711389360e+000	 7.076420042900274e-001	 1.125667371604911e+001
 3.624824378698343e+000	 7.420567522259013e-001	 1.116252712160074e+001
 3.617601894539901e+000	 7.765027575884640e-001	 1.107444862582817e+001
 3.610030368798846e+000	 8.109751761090793e-001	 1.099354503385754e+001
 3.602107993850920e+000	 8.454691008824511e-001	 1.092083140693011e+001
 3.593833046620580e+000	 8.799795639268339e-001	 1.085722249069886e+001
 3.585203890610026e+000	 9.145015378160613e-001	 1.080352412260071e+001
 3.576218977896775e+000	 9.490299373830767e-001	 1.076042464158725e+001
 3.566876851097076e+000	 9.835596214945378e-001	 1.072848632426887e+001
 3.557176145292468e+000	 1.018085394895963e+000	 1.070813687224167e+001
 3.662812497343578e+000	 6.778123702384060e-001	 1.134424615742416e+001
 3.656238222951446e+000	 7.124233691873849e-001	 1.123949433148218e+001
 3.649316435310409e+000	 7.470706492038739e-001	 1.114061794013367e+001
 3.642045150583884e+000	 7.817493978458017e-001	 1.104898684858880e+001
 3.634422465885629e+000	 8.164547381129856e-001	 1.096588716984627e+001
 3.626446561377711e+000	 8.511817299453643e-001	 1.089251242338623e+001
 3.618115702342184e+000	 8.859253717937471e-001	 1.082995464543193e+001
 3.609428241223830e+000	 9.206806022628714e-001	 1.077919547382922e+001
 3.600382619641227e+000	 9.554423018264429e-001	 1.074109723144350e+001
 3.590977370363441e+000	 9.902052946137316e-001	 1.071639403277279e+001
 3.581211119249587e+000	 1.024964350267184e+000	 1.070568293921591e+001
 3.687395131551449e+000	 6.823614465526605e-001	 1.132791257568993e+001
 3.680776734513125e+000	 7.172047340853256e-001	 1.121728662194831e+001
 3.673808491922170e+000	 7.520845461825008e-001	 1.111357201977891e+001
 3.666488406627660e+000	 7.869960381038449e-001	 1.101832027423036e+001
 3.658814562972306e+000	 8.219343001176298e-001	 1.093299856702299e+001
 3.650785128904496e+000	 8.568943590090273e-001	 1.085898059821733e+001
 3.642398358063882e+000	 8.918711796614021e-001	 1.079753737437395e+001
 3.633652591837826e+000	 9.268596667103950e-001	 1.074982796685037e+001
 3.624546261385975e+000	 9.618546662704742e-001	 1.071689026476062e+001
 3.615077889630201e+000	 9.968509677335213e-001	 1.069963174794869e+001
 3.605246093207198e+000	 1.031843305638912e+000	 1.069882030609403e+001
 3.364896353653301e+000	 9.630537519444204e-001	 1.069061348402481e+001
 3.355379612083005e+000	 9.957046041917383e-001	 1.080294678089271e+001
 3.345521361378934e+000	 1.028341781982668e+000	 1.090171747296456e+001
 3.335320583350721e+000	 1.060960228429860e+000	 1.098486902142722e+001
 3.324776354164621e+000	 1.093554843085373e+000	 1.105019924552902e+001
 3.313887845952988e+000	 1.126120484008404e+000	 1.109535569407948e+001
 3.302654328373525e+000	 1.158651969894472e+000	 1.111783123392903e+001
 3.291075170115785e+000	 1.191144082264780e+000	 1.111495987637243e+001
 3.279149840352444e+000	 1.223591567714391e+000	 1.108391286237224e+001
 3.266877910132902e+000	 1.255989140217728e+000	 1.103697874212402e+001
 3.254259053716807e+000	 1.288331483489811e+000	 1.103907424352556e+001
 3.388931327606469e+000	 9.699327073115912e-001	 1.068708865173777e+001
 3.379346609310144e+000	 1.002816779932178e+000	 1.078778034922619e+001
 3.369417942529220e+000	 1.035687080421720e+000	 1.087654550292245e+001
 3.359144301800547e+000	 1.068538515772246e+000	 1.095146772253833e+001
 3.348524756691562e+000	 1.101365949104042e+000	 1.101048220300353e+001
 3.337558473421284e+000	 1.134164201748157e+000	 1.105137081133787e+001
 3.326244716430685e+000	 1.166928055390793e+000	 1.107175739169253e+001
 3.314582849899959e+000	 1.199652254278306e+000	 1.106910331019225e+001
 3.302572339210160e+000	 1.232331507481435e+000	 1.104070326117261e+001
 3.290212752346754e+000	 1.264960491217280e+000	 1.101166893617663e+001
 3.277503761242674e+000	 1.297533851227396e+000	 1.100208332810112e+001
 3.412966301560131e+000	 9.768116626792683e-001	 1.068717314669863e+001
 3.403313606537867e+000	 1.009928955673029e+000	 1.077707977731178e+001
 3.393314523680163e+000	 1.043032378861098e+000	 1.085675159381331e+001
 3.382968020251078e+000	 1.076116803114882e+000	 1.092441333746753e+001
 3.372273159219241e+000	 1.109177055122894e+000	 1.097813848598718e+001
 3.361229100890329e+000	 1.142207919488038e+000	 1.101584405217461e+001
 3.349835104488588e+000	 1.175204140887197e+000	 1.103528560199056e+001
 3.338090529684847e+000	 1.208160426291878e+000	 1.103405251437973e+001
 3.325994838068540e+000	 1.241071447248501e+000	 1.100956350515604e+001
 3.313547594561200e+000	 1.273931842216838e+000	 1.098913751801861e+001
 3.300748468769045e+000	 1.306736218964982e+000	 1.097040768098796e+001
 3.437001275514286e+000	 9.836906180474516e-001	 1.068988709121047e+001
 3.427280603766174e+000	 1.017041131414290e+000	 1.076978151647820e+001
 3.417211104831760e+000	 1.050377677300802e+000	 1.084118931216723e+001
 3.406791738702316e+000	 1.083695090457767e+000	 1.090247738307259e+001
 3.396021561747658e+000	 1.116988161141931e+000	 1.095185844541825e+001
 3.384899728360125e+000	 1.150251637228048e+000	 1.098738553360606e+001
 3.373425492547229e+000	 1.183480226383683e+000	 1.100694672771928e+001
 3.361598209470447e+000	 1.216668598305496e+000	 1.100826012481804e+001
 3.349417336927582e+000	 1.249811387015586e+000	 1.098886907704742e+001
 3.336882436776240e+000	 1.282903193216400e+000	 1.096948905493991e+001
 3.323993176295922e+000	 1.315938586702568e+000	 1.094410738061254e+001
 3.461036249468935e+000	 9.905695734161415e-001	 1.069424376602088e+001
 3.451247600995065e+000	 1.024153307155963e+000	 1.076481656299679e+001
 3.441107685984012e+000	 1.057722975740830e+000	 1.082870815552339e+001
 3.430615457154259e+000	 1.091273377800902e+000	 1.088442869224527e+001
 3.419769964276813e+000	 1.124799267161153e+000	 1.093033113163662e+001
 3.408570355830670e+000	 1.158295354968185e+000	 1.096460545313861e+001
 3.397015880606614e+000	 1.191756311880251e+000	 1.098527309044721e+001
 3.385105889256760e+000	 1.225176770319161e+000	 1.099018161070637e+001
 3.372839835787290e+000	 1.258551326782692e+000	 1.097697930644053e+001
 3.360217278991877e+000	 1.291874544215968e+000	 1.095283368366826e+001
 3.347237883823303e+000	 1.325140954440153e+000	 1.092324943503227e+001
 3.485071223424078e+000	 9.974485287853374e-001	 1.069924984623768e+001
 3.475214598224541e+000	 1.031265482898046e+000	 1.076111064618707e+001
 3.465004267136918e+000	 1.065068274181185e+000	 1.081815369274003e+001
 3.454439175606909e+000	 1.098851665144287e+000	 1.086903350646193e+001
 3.443518366806704e+000	 1.132610373180557e+000	 1.091224433923207e+001
 3.432240983301964e+000	 1.166339072708451e+000	 1.094611408599336e+001
 3.420606268666739e+000	 1.200032397376902e+000	 1.096879842011611e+001
 3.408613569043786e+000	 1.233684942332872e+000	 1.097827517685937e+001
 3.396262334647661e+000	 1.267291266549819e+000	 1.096584740699437e+001
 3.383552121208107e+000	 1.300845895215541e+000	 1.093928691831962e+001
 3.370482591351189e+000	 1.334343322177739e+000	 1.090790754298271e+001
 3.509106197379714e+000	 1.004327484155040e+000	 1.070390562754947e+001
 3.499181595454600e+000	 1.038377658640541e+000	 1.075758440879161e+001
 3.488900848290481e+000	 1.072413572621866e+000	 1.080836769853839e+001
 3.478262894060265e+000	 1.106429952487922e+000	 1.085505556453059e+001
 3.467266769337335e+000	 1.140421479200146e+000	 1.089628465004936e+001
 3.455911610774009e+000	 1.174382790448845e+000	 1.093052178244452e+001
 3.444196656727606e+000	 1.208308482873634e+000	 1.095605780680904e+001
 3.432121248831523e+000	 1.242193114346629e+000	 1.097100167002174e+001
 3.419684833508697e+000	 1.276031206316967e+000	 1.095555191096276e+001
 3.406886963424933e+000	 1.309817246215119e+000	 1.092896946624111e+001
 3.393727298879581e+000	 1.343545689915324e+000	 1.089816186474480e+001
 3.533141171335844e+000	 1.011206439525248e+000	 1.070720524321264e+001
 3.523148592685243e+000	 1.045489834383448e+000	 1.075315357998905e+001
 3.512797429444697e+000	 1.079758871062871e+000	 1.079818828255489e+001
 3.502086612514328e+000	 1.114008239831808e+000	 1.084125618771574e+001
 3.491015171868703e+000	 1.148232585219919e+000	 1.088113747443811e+001
 3.479582238246801e+000	 1.182426508189367e+000	 1.091643896526662e+001
 3.467787044789213e+000	 1.216584568370449e+000	 1.094558765448707e+001
 3.455628928619976e+000	 1.250701286360433e+000	 1.096612231245318e+001
 3.443107332370397e+000	 1.284771146084134e+000	 1.094625780742254e+001
 3.430221805642353e+000	 1.318788597214702e+000	 1.092200705137042e+001
 3.416972006408479e+000	 1.352748057652910e+000	 1.089409880236439e+001
 3.557176145292468e+000	 1.018085394895963e+000	 1.070813687224167e+001
 3.547115589916470e+000	 1.052602010126765e+000	 1.074672914139273e+001
 3.536694010599569e+000	 1.087104169504203e+000	 1.078645001316163e+001
 3.525910330969095e+000	 1.121586527175942e+000	 1.082639436141201e+001
 3.514763574400809e+000	 1.156043691239876e+000	 1.086548709083023e+001
 3.503252865720343e+000	 1.190470225930017e+000	 1.090247612728517e+001
 3.491377432851563e+000	 1.224860653867346e+000	 1.093592563660145e+001
 3.479136608409139e+000	 1.259209458374282e+000	 1.095379758000379e+001
 3.466529831232760e+000	 1.293511085851323e+000	 1.093813374402673e+001
 3.453556647860368e+000	 1.327759948214290e+000	 1.091853024475643e+001
 3.440216713937880e+000	 1.361950425390495e+000	 1.089581078878179e+001
 3.581211119249587e+000	 1.024964350267184e+000	 1.070568293921591e+001
 3.571082587148281e+000	 1.059714185870493e+000	 1.073721748636506e+001
 3.560590591755095e+000	 1.094449467945860e+000	 1.077198403630073e+001
 3.549734049424571e+000	 1.129164814520327e+000	 1.080922681352920e+001
 3.538511976933652e+000	 1.163854797260017e+000	 1.084801668372387e+001
 3.526923493194636e+000	 1.198513943670795e+000	 1.088724382902595e+001
 3.514967820914652e+000	 1.233136739364325e+000	 1.092561065349329e+001
 3.502644288199015e+000	 1.267717630388179e+000	 1.094051144581924e+001
 3.489952330095787e+000	 1.302251025618533e+000	 1.093135190423360e+001
 3.476891490078978e+000	 1.336731299213884e+000	 1.091867430190451e+001
 3.463461421467788e+000	 1.371152793128081e+000	 1.090339608545280e+001
 3.605246093207198e+000	 1.031843305638912e+000	 1.069882030609403e+001
 3.595049584380677e+000	 1.066826361614633e+000	 1.072352057295911e+001
 3.584487172911277e+000	 1.101794766387843e+000	 1.075361818956531e+001
 3.573557767880753e+000	 1.136743101864962e+000	 1.078850808974160e+001
 3.562260379467235e+000	 1.171665903280343e+000	 1.082740838014771e+001
 3.550594120669679e+000	 1.206557661411701e+000	 1.086935269645829e+001
 3.538558208978485e+000	 1.241412824861386e+000	 1.091318279149723e+001
 3.526151967989605e+000	 1.276225802402121e+000	 1.092647524299292e+001
 3.513374828959480e+000	 1.310990965385763e+000	 1.092608788944643e+001
 3.500226332298183e+000	 1.345702650213483e+000	 1.092257900662789e+001
 3.486706128998200e+000	 1.380355160865667e+000	 1.091695858806483e+001
 3.254259053716807e+000	 1.288331483489811e+000	 1.103907424352556e+001
 3.241293049845800e+000	 1.320613253401518e+000	 1.102946400087236e+001
 3.227979782949084e+000	 1.352829080447324e+000	 1.102247557439316e+001
 3.214319244282112e+000	 1.384973572263021e+000	 1.101932598584202e+001
 3.200311532997376e+000	 1.417041316191711e+000	 1.102128132062278e+001
 3.185956857143146e+000	 1.449026881896090e+000	 1.102965648601508e+001
 3.171255534588795e+000	 1.480924824014684e+000	 1.104581485137273e+001
 3.156207993874709e+000	 1.512729684859719e+000	 1.107116776748687e+001
 3.140814774984898e+000	 1.544435997154201e+000	 1.110717396258690e+001
 3.125076530040452e+000	 1.576038286805698e+000	 1.115533881275009e+001
 3.108994023912139e+000	 1.607531075714235e+000	 1.127414358973274e+001
 3.277503761242674e+000	 1.297533851227396e+000	 1.100208332810112e+001
 3.264445143058997e+000	 1.330046205210258e+000	 1.100293939423487e+001
 3.251036781399276e+000	 1.362492145306674e+000	 1.100630415343132e+001
 3.237278667456502e+000	 1.394866240635550e+000	 1.101332591707255e+001
 3.223170901091398e+000	 1.427163039878151e+000	 1.102520244936941e+001
 3.208713691838290e+000	 1.459377073909050e+000	 1.104318081157636e+001
 3.193907359837047e+000	 1.491502858471334e+000	 1.106855708765736e+001
 3.178752336689058e+000	 1.523534896893744e+000	 1.110267598841285e+001
 3.163249166235359e+000	 1.555467682847305e+000	 1.114693033135919e+001
 3.147398505255051e+000	 1.587295703138930e+000	 1.120276039395005e+001
 3.131201124082256e+000	 1.619013440539351e+000	 1.127165313804403e+001
 3.300748468769045e+000	 1.306736218964982e+000	 1.097040768098796e+001
 3.287597236272605e+000	 1.339479157018998e+000	 1.098011940793020e+001
 3.274093779849794e+000	 1.372155210166024e+000	 1.099220460429253e+001
 3.260238090631141e+000	 1.404758909008078e+000	 1.100774350558649e+001
 3.246030269185602e+000	 1.437284763564591e+000	 1.102786622563338e+001
 3.231470526533562e+000	 1.469727265922011e+000	 1.105375268679099e+001
 3.216559185085382e+000	 1.502080892927984e+000	 1.108663243104893e+001
 3.201296679503453e+000	 1.534340108927768e+000	 1.112778430881940e+001
 3.185683557485841e+000	 1.566499368540411e+000	 1.117853604253116e+001
 3.169720480469652e+000	 1.598553119472159e+000	 1.124026366243384e+001
 3.153408224252373e+000	 1.630495805364467e+000	 1.131439081233594e+001
 3.323993176295922e+000	 1.315938586702568e+000	 1.094410738061254e+001
 3.310749329486621e+000	 1.348912108827738e+000	 1.096110605686946e+001
 3.297150778300636e+000	 1.381818275025375e+000	 1.098032074926527e+001
 3.283197513806030e+000	 1.414651577380607e+000	 1.100276423239145e+001
 3.268889637279991e+000	 1.447406487251032e+000	 1.102949962096668e+001
 3.254227361228962e+000	 1.480077457934971e+000	 1.106164038611717e+001
 3.239211010333798e+000	 1.512658927384634e+000	 1.110035025188223e+001
 3.223841022317894e+000	 1.545145320961793e+000	 1.114684296858705e+001
 3.208117948736344e+000	 1.577531054233515e+000	 1.120238196000609e+001
 3.192042455684259e+000	 1.609810535805390e+000	 1.126827984154024e+001
 3.175615324422491e+000	 1.641978170189583e+000	 1.134589780694906e+001
 3.347237883823303e+000	 1.325140954440153e+000	 1.092324943503227e+001
 3.333901422701049e+000	 1.358345060636478e+000	 1.094600723852568e+001
 3.320207776751802e+000	 1.391481339884725e+000	 1.097080124306743e+001
 3.306156936981168e+000	 1.424544245753136e+000	 1.099857735818645e+001
 3.291749005374561e+000	 1.457528210937472e+000	 1.103033233173314e+001
 3.276984195924488e+000	 1.490427649947932e+000	 1.106711385227328e+001
 3.261862835582296e+000	 1.523236961841284e+000	 1.111002053100262e+001
 3.246385365132381e+000	 1.555950532995818e+000	 1.116020175963876e+001
 3.230552339986867e+000	 1.588562739926620e+000	 1.121885744102673e+001
 3.214364430898872e+000	 1.621067952138621e+000	 1.128723758949725e+001
 3.197822424592608e+000	 1.653460535014698e+000	 1.136664179833534e+001
 3.370482591351189e+000	 1.334343322177739e+000	 1.090790754298271e+001
 3.357053515915887e+000	 1.367778012445218e+000	 1.093493653008679e+001
 3.343264775203294e+000	 1.401144404744075e+000	 1.096379940621077e+001
 3.329116360156554e+000	 1.434436914125664e+000	 1.099537579302775e+001
 3.314608373469317e+000	 1.467649934623912e+000	 1.103059668514956e+001
 3.299741030620142e+000	 1.500777841960892e+000	 1.107044463871158e+001
 3.284514660830876e+000	 1.533814996297935e+000	 1.111595383871399e+001
 3.268929707946914e+000	 1.566755745029842e+000	 1.116821004138681e+001
 3.252986731237411e+000	 1.599594425619725e+000	 1.122835038812914e+001
 3.236686406113489e+000	 1.632325368471851e+000	 1.129756308787429e+001
 3.220029524762726e+000	 1.664942899839814e+000	 1.137708696505469e+001
 3.393727298879581e+000	 1.343545689915324e+000	 1.089816186474480e+001
 3.380205609131133e+000	 1.377210964253957e+000	 1.092801299394491e+001
 3.366321773655109e+000	 1.410807469603425e+000	 1.095947306521346e+001
 3.352075783332190e+000	 1.444329582498193e+000	 1.099335597135091e+001
 3.337467741564254e+000	 1.477771658310352e+000	 1.103052754918780e+001
 3.322497865315922e+000	 1.511128033973852e+000	 1.107190585445617e+001
 3.307166486079536e+000	 1.544393030754585e+000	 1.111846131459173e+001
 3.291474050761494e+000	 1.577560957063867e+000	 1.117121675554478e+001
 3.275421122487976e+000	 1.610626111312830e+000	 1.123124729896140e+001
 3.259008381328112e+000	 1.643582784805082e+000	 1.129968012639919e+001
 3.242236624932843e+000	 1.676425264664929e+000	 1.137769410756578e+001
 3.416972006408479e+000	 1.352748057652910e+000	 1.089409880236439e+001
 3.403357702346791e+000	 1.386643916062697e+000	 1.092536099112476e+001
 3.389378772107251e+000	 1.420470534462775e+000	 1.095798439933457e+001
 3.375035206508074e+000	 1.454222250870722e+000	 1.099271773209386e+001
 3.360327109659375e+000	 1.487893381996793e+000	 1.103036224615476e+001
 3.345254700011832e+000	 1.521478225986813e+000	 1.107177211119234e+001
 3.329818311328278e+000	 1.554971065211234e+000	 1.111785464811982e+001
 3.314018393576120e+000	 1.588366169097891e+000	 1.116957044033492e+001
 3.297855513738560e+000	 1.621657797005935e+000	 1.122793331406887e+001
 3.281330356542740e+000	 1.654840201138312e+000	 1.129401018431342e+001
 3.264443725102960e+000	 1.687907629490045e+000	 1.136892076312745e+001
 3.440216713937880e+000	 1.361950425390495e+000	 1.089581078878179e+001
 3.426509795562858e+000	 1.396076867871437e+000	 1.092711000227572e+001
 3.412435770559715e+000	 1.430133599322125e+000	 1.095949979352203e+001
 3.397994629684208e+000	 1.464114919243250e+000	 1.099366420367999e+001
 3.383186477754680e+000	 1.498015105683233e+000	 1.103034046977546e+001
 3.368011534707869e+000	 1.531828417999774e+000	 1.107031947250099e+001
 3.352470136577104e+000	 1.565549099667885e+000	 1.111444606011285e+001
 3.336562736390792e+000	 1.599171381131916e+000	 1.116361924411976e+001
 3.320289904989166e+000	 1.632689482699040e+000	 1.121879226274232e+001
 3.303652331757374e+000	 1.666097617471543e+000	 1.128097250842901e+001
 3.286650825273078e+000	 1.699389994315161e+000	 1.135122131604195e+001
 3.463461421467788e+000	 1.371152793128081e+000	 1.090339608545280e+001
 3.449661888779335e+000	 1.405509819680177e+000	 1.093339445587251e+001
 3.435492769012504e+000	 1.439796664181475e+000	 1.096418969728210e+001
 3.420954052860590e+000	 1.474007587615779e+000	 1.099640169363270e+001
 3.406045845850167e+000	 1.508136829369673e+000	 1.103070420561541e+001
 3.390768369404032e+000	 1.542178610012734e+000	 1.106782540513727e+001
 3.375121961826010e+000	 1.576127134124535e+000	 1.110854828488606e+001
 3.359107079205510e+000	 1.609976593165940e+000	 1.115371093848449e+001
 3.342724296239791e+000	 1.643721168392145e+000	 1.120420670701970e+001
 3.325974306972011e+000	 1.677355033804773e+000	 1.126098418804232e+001
 3.308857925443196e+000	 1.710872359140276e+000	 1.132504710345884e+001
 3.486706128998200e+000	 1.380355160865667e+000	 1.091695858806483e+001
 3.472813981996224e+000	 1.414942771488917e+000	 1.094435356328753e+001
 3.458549767465619e+000	 1.449459729040826e+000	 1.097222848919416e+001
 3.443913476037222e+000	 1.483900255988308e+000	 1.100113958260543e+001
 3.428905213945839e+000	 1.518258553056113e+000	 1.103169765468583e+001
 3.413525204100325e+000	 1.552528802025695e+000	 1.106456873225821e+001
 3.397773787075000e+000	 1.586705168581185e+000	 1.110047455313875e+001
 3.381651422020273e+000	 1.620781805199965e+000	 1.114019293079633e+001
 3.365158687490438e+000	 1.654752854085250e+000	 1.118455798392799e+001
 3.348296282186655e+000	 1.688612450138004e+000	 1.123446022685119e+001
 3.331065025613314e+000	 1.722354723965393e+000	 1.129084651694676e+001
 3.108994023912139e+000	 1.607531075714235e+000	 1.127414358973274e+001
 3.092568134750085e+000	 1.638908884611238e+000	 1.123546733172240e+001
 3.075799854430276e+000	 1.670166235927714e+000	 1.120668487073579e+001
 3.058690288915435e+000	 1.701297656688459e+000	 1.118553349848832e+001
 3.041240658528325e+000	 1.732297681428427e+000	 1.116959193582023e+001
 3.023452298137441e+000	 1.763160855129283e+000	 1.115628161557213e+001
 3.005326657253558e+000	 1.793881736172811e+000	 1.114286837996016e+001
 2.986865300036170e+000	 1.824454899308038e+000	 1.112646459614025e+001
 2.968069905208957e+000	 1.854874938628938e+000	 1.110403169244160e+001
 2.948942265883543e+000	 1.885136470559467e+000	 1.113465045899116e+001
 2.929484289290938e+000	 1.915234136842687e+000	 1.127854198857647e+001
 3.131201124082256e+000	 1.619013440539351e+000	 1.127165313804403e+001
 3.114657907139728e+000	 1.650615376642425e+000	 1.120160266605584e+001
 3.097769853388399e+000	 1.682095994753727e+000	 1.116457992587006e+001
 3.080538076690724e+000	 1.713449782805372e+000	 1.113678531258391e+001
 3.062963806086062e+000	 1.744671236293278e+000	 1.111575880485892e+001
 3.045048385977678e+000	 1.775754861234694e+000	 1.109887821823862e+001
 3.026793276230001e+000	 1.806695177142703e+000	 1.108336091197798e+001
 3.008200052175089e+000	 1.837486720014539e+000	 1.106626592485519e+001
 2.989270404527509e+000	 1.868124045330562e+000	 1.104449654256270e+001
 2.970006139206822e+000	 1.898601731060612e+000	 1.116066973015781e+001
 2.950409177067122e+000	 1.928914380674490e+000	 1.130968722493593e+001
 3.153408224252373e+000	 1.630495805364467e+000	 1.131439081233594e+001
 3.136747679529372e+000	 1.662321868673618e+000	 1.120187108990914e+001
 3.119739852346521e+000	 1.694025753579760e+000	 1.111343698965074e+001
 3.102385864466013e+000	 1.725601908922329e+000	 1.107874140368248e+001
 3.084686953643797e+000	 1.757044791158208e+000	 1.105243522715495e+001
 3.066644473817915e+000	 1.788348867340229e+000	 1.103185225704768e+001
 3.048259895206442e+000	 1.819508618112772e+000	 1.101416086926021e+001
 3.029534804314007e+000	 1.850518540721283e+000	 1.099636617453145e+001
 3.010470903846060e+000	 1.881373152032502e+000	 1.101518591589988e+001
 2.991070012530103e+000	 1.912066991562159e+000	 1.117905753097456e+001
 2.971334064843307e+000	 1.942594624506790e+000	 1.133328811842565e+001
 3.175615324422491e+000	 1.641978170189583e+000	 1.134589780694906e+001
 3.158837451919014e+000	 1.674028360704815e+000	 1.122920129326216e+001
 3.141709851304642e+000	 1.705955512405812e+000	 1.111598062024650e+001
 3.124233652241302e+000	 1.737754035039331e+000	 1.101046889307408e+001
 3.106410101201532e+000	 1.769418346023218e+000	 1.097868473615390e+001
 3.088240561658153e+000	 1.800942873445888e+000	 1.095426443928982e+001
 3.069726514182884e+000	 1.832322059083021e+000	 1.093432689325335e+001
 3.050869556452927e+000	 1.863550361428269e+000	 1.091582267881117e+001
 3.031671403164613e+000	 1.894622258734760e+000	 1.102058634281941e+001
 3.012133885853384e+000	 1.925532252064109e+000	 1.118984849417174e+001
 2.992258952619491e+000	 1.956274868339587e+000	 1.134937828383447e+001
 3.197822424592608e+000	 1.653460535014698e+000	 1.136664179833534e+001
 3.180927224308658e+000	 1.685734852736017e+000	 1.124580918204525e+001
 3.163679850262765e+000	 1.717885271231884e+000	 1.112793851945643e+001
 3.146081440016591e+000	 1.749906161156377e+000	 1.101427336589452e+001
 3.128133248759268e+000	 1.781791900888305e+000	 1.090611205872649e+001
 3.109836649498389e+000	 1.813536879551669e+000	 1.086517192873774e+001
 3.091193133159327e+000	 1.845135500053447e+000	 1.084291410048557e+001
 3.072204308591847e+000	 1.876582182135497e+000	 1.083416801725163e+001
 3.052871902483164e+000	 1.907871365437336e+000	 1.101834196384499e+001
 3.033197759176664e+000	 1.938997512566462e+000	 1.119307378875059e+001
 3.013183840395675e+000	 1.969955112172882e+000	 1.135798789439411e+001
 3.220029524762726e+000	 1.664942899839814e+000	 1.137708696505469e+001
 3.203016996698300e+000	 1.697441344767224e+000	 1.125216019847287e+001
 3.185649849220887e+000	 1.729815030057976e+000	 1.112966509826648e+001
 3.167929227791881e+000	 1.762058287273467e+000	 1.101086493248343e+001
 3.149856396317004e+000	 1.794165455753472e+000	 1.089707948805907e+001
 3.131432737338627e+000	 1.826130885657575e+000	 1.078968414574436e+001
 3.112659752135769e+000	 1.857948941024052e+000	 1.073897420411554e+001
 3.093539060730765e+000	 1.889614002842969e+000	 1.081868558653676e+001
 3.074072401801717e+000	 1.921120472140230e+000	 1.100848160630761e+001
 3.054261632499945e+000	 1.952462773069216e+000	 1.118876123942221e+001
 3.034108728171860e+000	 1.983635356006674e+000	 1.135914380045337e+001
 3.242236624932843e+000	 1.676425264664929e+000	 1.137769410756578e+001
 3.225106769087943e+000	 1.709147836798436e+000	 1.124871641973205e+001
 3.207619848179009e+000	 1.741744788884088e+000	 1.112162342172669e+001
 3.189777015567170e+000	 1.774210413390602e+000	 1.099769822152034e+001
 3.171579543874740e+000	 1.806539010618718e+000	 1.087828221320595e+001
 3.153028825178865e+000	 1.838724891763604e+000	 1.076477414515419e+001
 3.134126371112211e+000	 1.870762381994835e+000	 1.065862903087664e+001
 3.114873812869684e+000	 1.902645823550685e+000	 1.079554169426148e+001
 3.095272901120267e+000	 1.934369578843441e+000	 1.099103084792780e+001
 3.075325505823225e+000	 1.965928033572373e+000	 1.117693544113804e+001
 3.055033615948044e+000	 1.997315599840964e+000	 1.135286964327571e+001
 3.264443725102960e+000	 1.687907629490045e+000	 1.136892076312745e+001
 3.247196541477585e+000	 1.720854328829652e+000	 1.123593667243913e+001
 3.229589847137131e+000	 1.753674547710219e+000	 1.110427331777654e+001
 3.211624803342460e+000	 1.786362539507781e+000	 1.097523377395140e+001
 3.193302691432475e+000	 1.818912565484043e+000	 1.085018119983281e+001
 3.174624913019101e+000	 1.851318897869757e+000	 1.073053789983185e+001
 3.155592990088653e+000	 1.883575822965795e+000	 1.068194563862716e+001
 3.136208565008604e+000	 1.915677644258642e+000	 1.080987858367470e+001
 3.116473400438819e+000	 1.947618685546969e+000	 1.096601212734672e+001
 3.096389379146505e+000	 1.979393294075933e+000	 1.115761786894560e+001
 3.075958503724228e+000	 2.010995843675750e+000	 1.133918596419162e+001
 3.286650825273078e+000	 1.699389994315161e+000	 1.135122131604195e+001
 3.269286313867229e+000	 1.732560820860875e+000	 1.121427664245626e+001
 3.251559846095252e+000	 1.765604306536369e+000	 1.107807148660669e+001
 3.233472591117748e+000	 1.798514665625005e+000	 1.094392901677986e+001
 3.215025838990211e+000	 1.831286120349447e+000	 1.081323431426569e+001
 3.196221000859339e+000	 1.863912903976033e+000	 1.068743342827596e+001
 3.177059609065095e+000	 1.896389263936935e+000	 1.073284771406819e+001
 3.157543317147523e+000	 1.928709464966843e+000	 1.086068535960873e+001
 3.137673899757371e+000	 1.960867792250816e+000	 1.098374910399678e+001
 3.117453252469785e+000	 1.992858554579895e+000	 1.113082698339070e+001
 3.096883391500412e+000	 2.024676087511034e+000	 1.131811030932619e+001
 3.308857925443196e+000	 1.710872359140276e+000	 1.132504710345884e+001
 3.291376086256872e+000	 1.744267312892101e+000	 1.118418898028593e+001
 3.273529845053375e+000	 1.777534065362540e+000	 1.104347160561709e+001
 3.255320378893036e+000	 1.810666791742272e+000	 1.090423836756072e+001
 3.236748986547946e+000	 1.843659675214930e+000	 1.076789642749574e+001
 3.217817088699575e+000	 1.876506910082433e+000	 1.064807179796723e+001
 3.198526228041538e+000	 1.909202704908252e+000	 1.078049294418172e+001
 3.178878069286442e+000	 1.941741285675286e+000	 1.090810565278086e+001
 3.158874399075922e+000	 1.974116898954979e+000	 1.103099525603511e+001
 3.138517125793066e+000	 2.006323815084259e+000	 1.114923425273268e+001
 3.117808279276597e+000	 2.038356331346816e+000	 1.128965733010931e+001
 3.331065025613314e+000	 1.722354723965393e+000	 1.129084651694676e+001
 3.313465858646516e+000	 1.755973804923333e+000	 1.114612340224955e+001
 3.295499844011498e+000	 1.789463824188730e+000	 1.100092443017660e+001
 3.277168166668326e+000	 1.822818917859585e+000	 1.085661333471577e+001
 3.258472134105683e+000	 1.856033230080492e+000	 1.071461951502362e+001
 3.239413176539813e+000	 1.889100916188957e+000	 1.069271416254618e+001
 3.219992847017981e+000	 1.922016145879749e+000	 1.082472486479591e+001
 3.200212821425362e+000	 1.954773106383973e+000	 1.095197964303558e+001
 3.180074898394475e+000	 1.987366005659461e+000	 1.107457310444330e+001
 3.159580999116347e+000	 2.019789075589026e+000	 1.119258649979927e+001
 3.138733167052782e+000	 2.052036575183095e+000	 1.130608697136795e+001
 2.929484289290938e+000	 1.915234136842687e+000	 1.127854198857647e+001
 2.909697996420158e+000	 1.945162607531509e+000	 1.130669962893888e+001
 2.889585521563812e+000	 1.974916583975221e+000	 1.132628657160225e+001
 2.869149111770381e+000	 2.004490801800127e+000	 1.133651137943050e+001
 2.848391126202986e+000	 2.033880033882548e+000	 1.133657608007230e+001
 2.827314035404899e+000	 2.063079093308326e+000	 1.132567703526821e+001
 2.805920420471948e+000	 2.092082836316265e+000	 1.130300583822759e+001
 2.784212972132169e+000	 2.120886165222105e+000	 1.126775023775675e+001
 2.762194489733197e+000	 2.149484031319626e+000	 1.121909508772248e+001
 2.739867880138053e+000	 2.177871437755532e+000	 1.115622332034090e+001
 2.717236156530065e+000	 2.206043442374710e+000	 1.107831694168977e+001
 2.950409177067122e+000	 1.928914380674490e+000	 1.130968722493593e+001
 2.930481553533042e+000	 1.959056626154036e+000	 1.133290526010594e+001
 2.910225418142123e+000	 1.989023131001015e+000	 1.134708542936095e+001
 2.889643033993194e+000	 2.018808593239061e+000	 1.135145006878820e+001
 2.868736777100538e+000	 2.048407748407898e+000	 1.134521523109420e+001
 2.847509135654170e+000	 2.077815372543980e+000	 1.132759154323546e+001
 2.825962709186313e+000	 2.107026285144964e+000	 1.129778509204132e+001
 2.804100207644490e+000	 2.136035352114552e+000	 1.125499833652827e+001
 2.781924450371677e+000	 2.164837488684344e+000	 1.119843104550894e+001
 2.759438364994201e+000	 2.193427662309230e+000	 1.112728125900252e+001
 2.736644986218128e+000	 2.221800895532991e+000	 1.104074627186290e+001
 2.971334064843307e+000	 1.942594624506790e+000	 1.133328811842565e+001
 2.951265110645926e+000	 1.972950644777149e+000	 1.135213678405781e+001
 2.930865314720434e+000	 2.003129678027466e+000	 1.136149159057714e+001
 2.910136956216006e+000	 2.033126384678703e+000	 1.136058835084794e+001
 2.889082427998092e+000	 2.062935462933988e+000	 1.134865683393480e+001
 2.867704235903441e+000	 2.092551651780386e+000	 1.132492161128833e+001
 2.846004997900678e+000	 2.121969733974401e+000	 1.128860293086579e+001
 2.823987443156810e+000	 2.151184539007711e+000	 1.123891761790498e+001
 2.801654411010157e+000	 2.180190946049723e+000	 1.117508000097183e+001
 2.779008849850348e+000	 2.208983886863519e+000	 1.109630286180648e+001
 2.756053815906193e+000	 2.237558348691773e+000	 1.100179840740043e+001
 2.992258952619491e+000	 1.956274868339587e+000	 1.134937828383447e+001
 2.972048667758809e+000	 1.986844663400851e+000	 1.136441681213341e+001
 2.951505211298744e+000	 2.017236225054575e+000	 1.136951657697047e+001
 2.930630878438818e+000	 2.047444176119054e+000	 1.136392657618998e+001
 2.909428078895645e+000	 2.077463177460815e+000	 1.134688999120896e+001
 2.887899336152713e+000	 2.107287931017540e+000	 1.131764502198484e+001
 2.866047286615044e+000	 2.136913182804580e+000	 1.127542574988263e+001
 2.843874678669133e+000	 2.166333725901581e+000	 1.121946302717734e+001
 2.821384371648636e+000	 2.195544403415763e+000	 1.114898539183008e+001
 2.798579334706496e+000	 2.224540111418400e+000	 1.106322000607952e+001
 2.775462645594258e+000	 2.253315801851058e+000	 1.096139361729768e+001
 3.013183840395675e+000	 1.969955112172882e+000	 1.135798789439411e+001
 2.992832224871694e+000	 2.000738682025141e+000	 1.136976481528082e+001
 2.972145107877057e+000	 2.031342772082342e+000	 1.137116907504648e+001
 2.951124800661630e+000	 2.061761967560113e+000	 1.136146256923443e+001
 2.929773729793199e+000	 2.091990891988382e+000	 1.133990159216572e+001
 2.908094436401984e+000	 2.122024210255444e+000	 1.130573766091279e+001
 2.886089575329409e+000	 2.151856631635498e+000	 1.125821836715757e+001
 2.863761914181453e+000	 2.181482912796160e+000	 1.119658825568814e+001
 2.841114332287117e+000	 2.210897860782464e+000	 1.112008972818927e+001
 2.818149819562645e+000	 2.240096335973872e+000	 1.102796397088530e+001
 2.794871475282322e+000	 2.269073255010843e+000	 1.091945190450051e+001
 3.034108728171860e+000	 1.983635356006674e+000	 1.135914380045337e+001
 3.013615781984577e+000	 2.014632700650016e+000	 1.136819723234663e+001
 2.992785004455367e+000	 2.045449319110766e+000	 1.136645503386271e+001
 2.971618722884444e+000	 2.076079759001881e+000	 1.135319171535012e+001
 2.950119380690753e+000	 2.106518606516688e+000	 1.132767638901132e+001
 2.928289536651255e+000	 2.136760489494098e+000	 1.128917358210249e+001
 2.906131864043775e+000	 2.166800080467156e+000	 1.123694407802378e+001
 2.883649149693775e+000	 2.196632099691451e+000	 1.117024578407208e+001
 2.860844292925597e+000	 2.226251318149826e+000	 1.108833462452827e+001
 2.837720304418793e+000	 2.255652560529936e+000	 1.099046545765417e+001
 2.814280304970386e+000	 2.284830708171129e+000	 1.087589301507951e+001
 3.055033615948044e+000	 1.997315599840964e+000	 1.135286964327571e+001
 3.034399339097461e+000	 2.028526719275481e+000	 1.135972757391502e+001
 3.013424901033678e+000	 2.059555866139850e+000	 1.135537775877689e+001
 2.992112645107255e+000	 2.090397550444356e+000	 1.133910704438384e+001
 2.970465031588305e+000	 2.121046321045732e+000	 1.131019707009557e+001
 2.948484636900526e+000	 2.151496768733500e+000	 1.126792507075137e+001
 2.926174152758140e+000	 2.181743529299555e+000	 1.121156470723031e+001
 2.903536385206096e+000	 2.211781286587452e+000	 1.114038692371835e+001
 2.880574253564076e+000	 2.241604775517848e+000	 1.105366083037141e+001
 2.857290789274941e+000	 2.271208785086590e+000	 1.095065460996509e+001
 2.833689134658449e+000	 2.300588161331918e+000	 1.083063644702708e+001
 3.075958503724228e+000	 2.010995843675750e+000	 1.133918596419162e+001
 3.055182896210345e+000	 2.042420737901532e+000	 1.134436652190852e+001
 3.034064797611990e+000	 2.073662413169590e+000	 1.133793800136869e+001
 3.012606567330068e+000	 2.104715341887540e+000	 1.131919931078012e+001
 2.990810682485858e+000	 2.135574035575516e+000	 1.128744433011105e+001
 2.968679737149798e+000	 2.166233047973652e+000	 1.124196270338834e+001
 2.946216441472506e+000	 2.196686978132694e+000	 1.118204065896184e+001
 2.923423620718417e+000	 2.226930473484163e+000	 1.110696185654096e+001
 2.900304214202556e+000	 2.256958232886532e+000	 1.101600825970877e+001
 2.876861274131089e+000	 2.286765009643835e+000	 1.090846103252027e+001
 2.853097964346514e+000	 2.316345614493208e+000	 1.078360145869543e+001
 3.096883391500412e+000	 2.024676087511034e+000	 1.131811030932619e+001
 3.075966453323229e+000	 2.056314756528171e+000	 1.132212202515094e+001
 3.054704694190301e+000	 2.087768960199989e+000	 1.131413404571600e+001
 3.033100489552880e+000	 2.119033133331432e+000	 1.129345707045289e+001
 3.011156333383411e+000	 2.150101750106038e+000	 1.125939693744640e+001
 2.988874837399069e+000	 2.180969327214555e+000	 1.121125540559910e+001
 2.966258730186870e+000	 2.211630426966571e+000	 1.114833096483086e+001
 2.943310856230740e+000	 2.242079660381585e+000	 1.106991967313659e+001
 2.920034174841036e+000	 2.272311690255878e+000	 1.097531601922355e+001
 2.896431758987238e+000	 2.302321234201673e+000	 1.086381380935032e+001
 2.872506794034578e+000	 2.332103067654998e+000	 1.073470707689253e+001
 3.117808279276597e+000	 2.038356331346816e+000	 1.128965733010931e+001
 3.096750010436112e+000	 2.070208775155397e+000	 1.129299939108199e+001
 3.075344590768612e+000	 2.101875507231044e+000	 1.128396179119704e+001
 3.053594411775693e+000	 2.133350924776032e+000	 1.126186675456172e+001
 3.031501984280965e+000	 2.164629464637300e+000	 1.122603179882738e+001
 3.009069937648340e+000	 2.195705606456206e+000	 1.117577050742687e+001
 2.986301018901236e+000	 2.226573875801191e+000	 1.111039332993704e+001
 2.963198091743061e+000	 2.257228847279718e+000	 1.102920840940607e+001
 2.939764135479516e+000	 2.287665147625883e+000	 1.093152243538301e+001
 2.916002243843385e+000	 2.317877458760101e+000	 1.081664152128657e+001
 2.891915623722642e+000	 2.347860520817291e+000	 1.068387210465214e+001
 3.138733167052782e+000	 2.052036575183095e+000	 1.130608697136795e+001
 3.117533567548996e+000	 2.084102793783212e+000	 1.125700137380356e+001
 3.095984487346924e+000	 2.115982054262759e+000	 1.124741483198028e+001
 3.074088333998507e+000	 2.147668716221342e+000	 1.122441274033691e+001
 3.051847635178519e+000	 2.179157179169301e+000	 1.118732402137232e+001
 3.029265037897612e+000	 2.210441885698607e+000	 1.113547379655721e+001
 3.006343307615602e+000	 2.241517324636550e+000	 1.106818417708433e+001
 2.983085327255383e+000	 2.272378034178562e+000	 1.098477508171080e+001
 2.959494096117997e+000	 2.303018604996550e+000	 1.088456508044565e+001
 2.935572728699535e+000	 2.333433683319122e+000	 1.076687226273435e+001
 2.911324453410707e+000	 2.363617973980084e+000	 1.063101512869282e+001
 2.717236156530065e+000	 2.206043442374710e+000	 1.107831694168977e+001
 2.694302437127753e+000	 2.233995160532463e+000	 1.108399913216611e+001
 2.671069943811038e+000	 2.261721767870786e+000	 1.108057804865925e+001
 2.647542000659858e+000	 2.289218503055032e+000	 1.106762430392781e+001
 2.623722032406190e+000	 2.316480670467651e+000	 1.104470474454686e+001
 2.599613562801293e+000	 2.343503642856166e+000	 1.101138309610322e+001
 2.575220212899676e+000	 2.370282863932164e+000	 1.096722062811170e+001
 2.550545699261519e+000	 2.396813850918235e+000	 1.091177683728044e+001
 2.525593832075397e+000	 2.423092197039895e+000	 1.084461014768236e+001
 2.500368513203295e+000	 2.449113573959597e+000	 1.076527862632313e+001
 2.474873734150000e+000	 2.474873734150000e+000	 1.067777929950915e+001
 2.736644986218128e+000	 2.221800895532991e+000	 1.104074627186290e+001
 2.713547454534904e+000	 2.249952268820610e+000	 1.104826573169199e+001
 2.690149014837810e+000	 2.277876923354378e+000	 1.104916348313797e+001
 2.666453014950212e+000	 2.305570063790118e+000	 1.104307406505739e+001
 2.642462904066458e+000	 2.333026960970151e+000	 1.102962574147561e+001
 2.618182231107459e+000	 2.360242954590201e+000	 1.100844107779294e+001
 2.593614642992400e+000	 2.387213455816933e+000	 1.097913754025294e+001
 2.568763882828318e+000	 2.413933949853102e+000	 1.094132811741545e+001
 2.543633788019420e+000	 2.440399998447261e+000	 1.089462196229826e+001
 2.518228288298135e+000	 2.466607242345167e+000	 1.083862505377625e+001
 2.492551403680000e+000	 2.492551403680000e+000	 1.077566838416463e+001
 2.756053815906193e+000	 2.237558348691773e+000	 1.100179840740043e+001
 2.732792471942056e+000	 2.265909377109163e+000	 1.101281796007336e+001
 2.709228085864582e+000	 2.294032078838291e+000	 1.101966639963891e+001
 2.685364029240567e+000	 2.321921624525449e+000	 1.102204127159640e+001
 2.661203775726726e+000	 2.349573251472833e+000	 1.101963135308060e+001
 2.636750899413626e+000	 2.376982266324359e+000	 1.101211716099671e+001
 2.612009073085125e+000	 2.404144047701782e+000	 1.099917148694582e+001
 2.586982066395117e+000	 2.431054048788012e+000	 1.098045995779714e+001
 2.561673743963445e+000	 2.457707799854648e+000	 1.095564162067616e+001
 2.536088063392976e+000	 2.484100910730744e+000	 1.092436955105404e+001
 2.510229073210000e+000	 2.510229073210000e+000	 1.081438110484587e+001
 2.775462645594258e+000	 2.253315801851058e+000	 1.096139361729768e+001
 2.752037489349208e+000	 2.281866485398122e+000	 1.097754354833956e+001
 2.728307156891355e+000	 2.310187234322526e+000	 1.099194276418008e+001
 2.704275043530920e+000	 2.338273185261025e+000	 1.100435091319815e+001
 2.679944647386995e+000	 2.366119541975694e+000	 1.101451639648897e+001
 2.655319567719793e+000	 2.393721578058645e+000	 1.102217680883074e+001
 2.630403503177848e+000	 2.421074639586712e+000	 1.102705940995925e+001
 2.605200249961916e+000	 2.448174147722970e+000	 1.102888162511808e+001
 2.579713699907468e+000	 2.475015601262054e+000	 1.102735157375662e+001
 2.553947838487818e+000	 2.501594579116325e+000	 1.100947768693816e+001
 2.527906742740000e+000	 2.527906742740000e+000	 1.080516633947035e+001
 2.794871475282322e+000	 2.269073255010843e+000	 1.091945190450051e+001
 2.771282506756359e+000	 2.297823593687487e+000	 1.094233087657598e+001
 2.747386227918126e+000	 2.326342389807081e+000	 1.096585008696243e+001
 2.723186057821274e+000	 2.354624745996849e+000	 1.098983039838954e+001
 2.698685519047263e+000	 2.382665832478737e+000	 1.101407896150948e+001
 2.673888236025959e+000	 2.410460889793056e+000	 1.103838958958527e+001
 2.648797933270572e+000	 2.438005231471722e+000	 1.106254316699305e+001
 2.623418433528714e+000	 2.465294246657972e+000	 1.108630809061594e+001
 2.597753655851491e+000	 2.492323402669479e+000	 1.110944074310440e+001
 2.571807613582659e+000	 2.519088247501911e+000	 1.097220523777177e+001
 2.545584412270000e+000	 2.545584412270000e+000	 1.079465293576539e+001
 2.814280304970386e+000	 2.284830708171129e+000	 1.087589301507951e+001
 2.790527524163510e+000	 2.313780701977259e+000	 1.090706895154274e+001
 2.766465298944899e+000	 2.342497545291958e+000	 1.094124736912228e+001
 2.742097072111628e+000	 2.370976306732918e+000	 1.097830947116146e+001
 2.717426390707531e+000	 2.399212122981961e+000	 1.101812029778138e+001
 2.692456904332127e+000	 2.427200201527592e+000	 1.106052903516700e+001
 2.667192363363296e+000	 2.454935823356812e+000	 1.110536936216297e+001
 2.641636617095514e+000	 2.482414345593019e+000	 1.115245983336513e+001
 2.615793611795516e+000	 2.509631204076926e+000	 1.111301597940558e+001
 2.589667388677500e+000	 2.536581915887501e+000	 1.093284695036268e+001
 2.563262081800000e+000	 2.563262081800000e+000	 1.078303364096179e+001
 2.833689134658449e+000	 2.300588161331918e+000	 1.083063644702708e+001
 2.809772541570663e+000	 2.329737810267437e+000	 1.087164738521325e+001
 2.785544369971670e+000	 2.358652700777156e+000	 1.091799505167179e+001
 2.761008086401982e+000	 2.387327867469233e+000	 1.096962013098724e+001
 2.736167262367800e+000	 2.415758413485365e+000	 1.102644470656105e+001
 2.711025572638294e+000	 2.443939513262254e+000	 1.108837250535868e+001
 2.685586793456021e+000	 2.471866415241984e+000	 1.115528918345235e+001
 2.659854800662312e+000	 2.499534444528111e+000	 1.122706265165219e+001
 2.633833567739539e+000	 2.526939005484393e+000	 1.104598907016609e+001
 2.607527163772341e+000	 2.554075584273098e+000	 1.089163153074623e+001
 2.580939751329999e+000	 2.580939751329999e+000	 1.077050860005896e+001
 2.853097964346514e+000	 2.316345614493208e+000	 1.078360145869543e+001
 2.829017558977814e+000	 2.345694918558022e+000	 1.083595637418873e+001
 2.804623440998443e+000	 2.374807856262675e+000	 1.089595496652363e+001
 2.779919100692337e+000	 2.403679428205794e+000	 1.096359655610553e+001
 2.754908134028069e+000	 2.432304703988950e+000	 1.103885943692550e+001
 2.729594240944460e+000	 2.460678824997042e+000	 1.112170105761928e+001
 2.703981223548745e+000	 2.488797007127235e+000	 1.121205824679809e+001
 2.678072984229111e+000	 2.516654543463250e+000	 1.113803745197440e+001
 2.651873523683563e+000	 2.544246806891879e+000	 1.097636757474550e+001
 2.625386938867182e+000	 2.571569252658699e+000	 1.084879418267384e+001
 2.598617420860000e+000	 2.598617420860000e+000	 1.075728510420004e+001
 2.872506794034578e+000	 2.332103067654998e+000	 1.073470707689253e+001
 2.848262576384966e+000	 2.361652026849011e+000	 1.079988667994728e+001
 2.823702512025215e+000	 2.390963011748516e+000	 1.087499028950112e+001
 2.798830114982690e+000	 2.420030988942601e+000	 1.096007502991332e+001
 2.773649005688337e+000	 2.448850994492715e+000	 1.105517458618384e+001
 2.748162909250627e+000	 2.477418136731954e+000	 1.116029932216254e+001
 2.722375653641469e+000	 2.505727599012566e+000	 1.121239611219293e+001
 2.696291167795910e+000	 2.533774642398433e+000	 1.104104819458698e+001
 2.669913479627586e+000	 2.561554608299386e+000	 1.090442073551906e+001
 2.643246713962023e+000	 2.589062921044305e+000	 1.080457638809572e+001
 2.616295090390000e+000	 2.616295090390000e+000	 1.074357734924825e+001
 2.891915623722642e+000	 2.347860520817291e+000	 1.068387210465214e+001
 2.867507593792117e+000	 2.377609135140408e+000	 1.076332960988828e+001
 2.842781583051987e+000	 2.407118167234677e+000	 1.085496549524051e+001
 2.817741129273045e+000	 2.436382549679655e+000	 1.095889387032311e+001
 2.792389877348605e+000	 2.465397284996662e+000	 1.107520300429903e+001
 2.766731577556794e+000	 2.494157448466993e+000	 1.120395538206577e+001
 2.740770083734193e+000	 2.522658190897978e+000	 1.108892347353102e+001
 2.714509351362709e+000	 2.550894741333661e+000	 1.094104204759353e+001
 2.687953435571610e+000	 2.578862409706913e+000	 1.083042323730661e+001
 2.661106489056865e+000	 2.606556589429915e+000	 1.075922569648294e+001
 2.633972759920000e+000	 2.633972759920000e+000	 1.072960620408478e+001
 2.911324453410707e+000	 2.363617973980084e+000	 1.063101512869282e+001
 2.886752611199269e+000	 2.393566243432211e+000	 1.072617699913498e+001
 2.861860654078760e+000	 2.423273322721160e+000	 1.083574631389724e+001
 2.836652143563399e+000	 2.452734110416955e+000	 1.095989336194571e+001
 2.811130749008874e+000	 2.481943575500790e+000	 1.109876020213270e+001
 2.785300245862961e+000	 2.510896760202158e+000	 1.112268333404890e+001
 2.759164513826918e+000	 2.539588782783472e+000	 1.096175332718554e+001
 2.732727534929508e+000	 2.568014840268935e+000	 1.083832590636759e+001
 2.705993391515634e+000	 2.596170211114460e+000	 1.075465502595771e+001
 2.678966264151707e+000	 2.624050257815533e+000	 1.071299552257682e+001
 2.651650429450000e+000	 2.651650429450000e+000	 1.071559898817487e+001
 2.474873734150000e+000	 2.474873734150000e+000	 1.067777929950915e+001
 2.449113573959596e+000	 2.500368513203294e+000	 1.073728467388943e+001
 2.423092197039895e+000	 2.525593832075397e+000	 1.065605854814841e+001
 2.396813850918235e+000	 2.550545699261519e+000	 1.058909403904498e+001
 2.370282863932165e+000	 2.575220212899676e+000	 1.053721063711559e+001
 2.343503642856166e+000	 2.599613562801293e+000	 1.050123491410990e+001
 2.316480670467651e+000	 2.623722032406190e+000	 1.048199849857148e+001
 2.289218503055032e+000	 2.647542000659858e+000	 1.048033598687414e+001
 2.261721767870785e+000	 2.671069943811037e+000	 1.049708279553356e+001
 2.233995160532464e+000	 2.694302437127753e+000	 1.053307296084975e+001
 2.206043442374710e+000	 2.717236156530064e+000	 1.058913689215077e+001
 2.492551403680000e+000	 2.492551403680000e+000	 1.077566838416463e+001
 2.466607242345168e+000	 2.518228288298135e+000	 1.076373139323749e+001
 2.440399998447261e+000	 2.543633788019420e+000	 1.071206433611107e+001
 2.413933949853101e+000	 2.568763882828318e+000	 1.067050444238008e+001
 2.387213455816933e+000	 2.593614642992400e+000	 1.063974916460809e+001
 2.360242954590201e+000	 2.618182231107459e+000	 1.062050842696032e+001
 2.333026960970151e+000	 2.642462904066458e+000	 1.061350269227119e+001
 2.305570063790118e+000	 2.666453014950212e+000	 1.061946095559944e+001
 2.277876923354377e+000	 2.690149014837810e+000	 1.063911867001679e+001
 2.249952268820610e+000	 2.713547454534904e+000	 1.067321561063538e+001
 2.221800895532991e+000	 2.736644986218128e+000	 1.072249368311567e+001
 2.510229073210000e+000	 2.510229073210000e+000	 1.081438110484587e+001
 2.484100910730744e+000	 2.536088063392976e+000	 1.077774297667273e+001
 2.457707799854647e+000	 2.561673743963444e+000	 1.075242699674854e+001
 2.431054048788012e+000	 2.586982066395117e+000	 1.073311285618787e+001
 2.404144047701782e+000	 2.612009073085125e+000	 1.072037791797406e+001
 2.376982266324359e+000	 2.636750899413626e+000	 1.071481739217264e+001
 2.349573251472832e+000	 2.661203775726727e+000	 1.071704249233307e+001
 2.321921624525448e+000	 2.685364029240566e+000	 1.072767850940851e+001
 2.294032078838291e+000	 2.709228085864582e+000	 1.074736280887120e+001
 2.265909377109162e+000	 2.732792471942056e+000	 1.077674275698218e+001
 2.237558348691774e+000	 2.756053815906193e+000	 1.081647358243232e+001
 2.527906742740000e+000	 2.527906742740000e+000	 1.080516633947035e+001
 2.501594579116325e+000	 2.553947838487817e+000	 1.078091468659204e+001
 2.475015601262053e+000	 2.579713699907468e+000	 1.077759413322924e+001
 2.448174147722970e+000	 2.605200249961916e+000	 1.077742871475131e+001
 2.421074639586712e+000	 2.630403503177848e+000	 1.077966650150528e+001
 2.393721578058645e+000	 2.655319567719793e+000	 1.078478989815855e+001
 2.366119541975694e+000	 2.679944647386995e+000	 1.079330276185881e+001
 2.338273185261026e+000	 2.704275043530920e+000	 1.080572855438073e+001
 2.310187234322525e+000	 2.728307156891355e+000	 1.082260840843198e+001
 2.281866485398122e+000	 2.752037489349207e+000	 1.084449911403486e+001
 2.253315801851058e+000	 2.775462645594258e+000	 1.087197103118028e+001
 2.545584412270000e+000	 2.545584412270000e+000	 1.079465293576539e+001
 2.519088247501911e+000	 2.571807613582659e+000	 1.078833045078565e+001
 2.492323402669479e+000	 2.597753655851491e+000	 1.078801753283827e+001
 2.465294246657972e+000	 2.623418433528715e+000	 1.080396381624767e+001
 2.438005231471722e+000	 2.648797933270572e+000	 1.081818510069592e+001
 2.410460889793055e+000	 2.673888236025959e+000	 1.083105287020860e+001
 2.382665832478737e+000	 2.698685519047263e+000	 1.084296549568685e+001
 2.354624745996849e+000	 2.723186057821274e+000	 1.085434646315834e+001
 2.326342389807081e+000	 2.747386227918127e+000	 1.086564250715121e+001
 2.297823593687487e+000	 2.771282506756359e+000	 1.087732165506932e+001
 2.269073255010843e+000	 2.794871475282322e+000	 1.088987118874908e+001
 2.563262081800000e+000	 2.563262081800000e+000	 1.078303364096179e+001
 2.536581915887501e+000	 2.589667388677499e+000	 1.079139959104981e+001
 2.509631204076926e+000	 2.615793611795515e+000	 1.079488347793928e+001
 2.482414345593019e+000	 2.641636617095514e+000	 1.081323224123505e+001
 2.454935823356812e+000	 2.667192363363296e+000	 1.083650446220094e+001
 2.427200201527592e+000	 2.692456904332126e+000	 1.085423211059976e+001
 2.399212122981961e+000	 2.717426390707532e+000	 1.086670991929814e+001
 2.370976306732918e+000	 2.742097072111629e+000	 1.087426323127196e+001
 2.342497545291958e+000	 2.766465298944899e+000	 1.087724619793870e+001
 2.313780701977259e+000	 2.790527524163510e+000	 1.087603987941907e+001
 2.284830708171130e+000	 2.814280304970386e+000	 1.087105025289646e+001
 2.580939751329999e+000	 2.580939751329999e+000	 1.077050860005896e+001
 2.554075584273098e+000	 2.607527163772341e+000	 1.079037992417498e+001
 2.526939005484393e+000	 2.633833567739539e+000	 1.080159464110078e+001
 2.499534444528111e+000	 2.659854800662312e+000	 1.080575027448855e+001
 2.471866415241984e+000	 2.685586793456022e+000	 1.083519587461831e+001
 2.443939513262254e+000	 2.711025572638294e+000	 1.085495233705487e+001
 2.415758413485365e+000	 2.736167262367800e+000	 1.086521258365706e+001
 2.387327867469234e+000	 2.761008086401982e+000	 1.086620562704159e+001
 2.358652700777156e+000	 2.785544369971671e+000	 1.085819483177641e+001
 2.329737810267437e+000	 2.809772541570662e+000	 1.084147606843229e+001
 2.300588161331918e+000	 2.833689134658449e+000	 1.081637576665358e+001
 2.598617420860000e+000	 2.598617420860000e+000	 1.075728510420004e+001
 2.571569252658698e+000	 2.625386938867181e+000	 1.078553470830066e+001
 2.544246806891880e+000	 2.651873523683562e+000	 1.080139681769335e+001
 2.516654543463250e+000	 2.678072984229111e+000	 1.080579626293937e+001
 2.488797007127235e+000	 2.703981223548745e+000	 1.081483115005558e+001
 2.460678824997041e+000	 2.729594240944460e+000	 1.083383721963220e+001
 2.432304703988950e+000	 2.754908134028068e+000	 1.083914745618146e+001
 2.403679428205795e+000	 2.779919100692336e+000	 1.083089633535939e+001
 2.374807856262675e+000	 2.804623440998443e+000	 1.080925821302216e+001
 2.345694918558021e+000	 2.829017558977813e+000	 1.077444553098144e+001
 2.316345614493208e+000	 2.853097964346514e+000	 1.072670691270351e+001
 2.616295090390000e+000	 2.616295090390000e+000	 1.074357734924825e+001
 2.589062921044304e+000	 2.643246713962023e+000	 1.077713245908607e+001
 2.561554608299387e+000	 2.669913479627586e+000	 1.079461148121500e+001
 2.533774642398432e+000	 2.696291167795910e+000	 1.079684811992279e+001
 2.505727599012566e+000	 2.722375653641469e+000	 1.078471739430500e+001
 2.477418136731954e+000	 2.748162909250627e+000	 1.079150941611952e+001
 2.448850994492716e+000	 2.773649005688336e+000	 1.078918600802457e+001
 2.420030988942601e+000	 2.798830114982690e+000	 1.076905409564322e+001
 2.390963011748515e+000	 2.823702512025216e+000	 1.073120078679559e+001
 2.361652026849012e+000	 2.848262576384966e+000	 1.067575683901992e+001
 2.332103067654998e+000	 2.872506794034578e+000	 1.060289479582534e+001
 2.633972759920000e+000	 2.633972759920000e+000	 1.072960620408478e+001
 2.606556589429916e+000	 2.661106489056865e+000	 1.076544677328323e+001
 2.578862409706913e+000	 2.687953435571610e+000	 1.078156362442602e+001
 2.550894741333660e+000	 2.714509351362708e+000	 1.077870148022438e+001
 2.522658190897978e+000	 2.740770083734193e+000	 1.075765121416115e+001
 2.494157448466993e+000	 2.766731577556793e+000	 1.072859060600292e+001
 2.465397284996662e+000	 2.792389877348606e+000	 1.071599729784228e+001
 2.436382549679655e+000	 2.817741129273045e+000	 1.068139383423518e+001
 2.407118167234677e+000	 2.842781583051988e+000	 1.062478181881834e+001
 2.377609135140408e+000	 2.867507593792117e+000	 1.054621205365317e+001
 2.347860520817291e+000	 2.891915623722642e+000	 1.044578271396494e+001
 2.651650429450000e+000	 2.651650429450000e+000	 1.071559898817487e+001
 2.624050257815533e+000	 2.678966264151706e+000	 1.075075615936724e+001
 2.596170211114461e+000	 2.705993391515634e+000	 1.076258164204026e+001
 2.568014840268935e+000	 2.732727534929508e+000	 1.075173330312263e+001
 2.539588782783472e+000	 2.759164513826918e+000	 1.071891998369264e+001
 2.510896760202157e+000	 2.785300245862960e+000	 1.066489866253990e+001
 2.481943575500790e+000	 2.811130749008874e+000	 1.062024805220979e+001
 2.452734110416955e+000	 2.836652143563399e+000	 1.056862679150411e+001
 2.423273322721160e+000	 2.861860654078760e+000	 1.049075556806067e+001
 2.393566243432212e+000	 2.886752611199269e+000	 1.038660694216693e+001
 2.363617973980084e+000	 2.911324453410707e+000	 1.025620641846256e+001
 2.206043442374710e+000	 2.717236156530064e+000	 1.058913689215077e+001
 2.177871437755532e+000	 2.739867880138052e+000	 1.057045907420283e+001
 2.149484031319626e+000	 2.762194489733196e+000	 1.053217651141658e+001
 2.120886165222104e+000	 2.784212972132168e+000	 1.047394213650214e+001
 2.092082836316265e+000	 2.805920420471948e+000	 1.039544170929477e+001
 2.063079093308326e+000	 2.827314035404899e+000	 1.029639242811009e+001
 2.033880033882548e+000	 2.848391126202985e+000	 1.017654146794242e+001
 2.004490801800128e+000	 2.869149111770381e+000	 1.003566445143123e+001
 1.974916583975221e+000	 2.889585521563813e+000	 9.873563858683781e+000
 1.945162607531509e+000	 2.909697996420158e+000	 9.690067382175656e+000
 1.915234136842688e+000	 2.929484289290938e+000	 9.485026233063373e+000
 2.221800895532991e+000	 2.736644986218128e+000	 1.072249368311567e+001
 2.193427662309230e+000	 2.759438364994201e+000	 1.067231644098108e+001
 2.164837488684345e+000	 2.781924450371677e+000	 1.060931812234612e+001
 2.136035352114552e+000	 2.804100207644489e+000	 1.053334139045454e+001
 2.107026285144963e+000	 2.825962709186313e+000	 1.044425530472551e+001
 2.077815372543980e+000	 2.847509135654169e+000	 1.034195373110477e+001
 2.048407748407898e+000	 2.868736777100538e+000	 1.022635368809357e+001
 2.018808593239061e+000	 2.889643033993193e+000	 1.009739363471645e+001
 1.989023131001014e+000	 2.910225418142124e+000	 9.955031706831246e+000
 1.959056626154036e+000	 2.930481553533042e+000	 9.799243908298545e+000
 1.928914380674490e+000	 2.950409177067122e+000	 9.630022263616905e+000
 2.237558348691774e+000	 2.756053815906193e+000	 1.081647358243232e+001
 2.208983886863519e+000	 2.779008849850348e+000	 1.073865002678830e+001
 2.180190946049723e+000	 2.801654411010157e+000	 1.065468592875545e+001
 2.151184539007711e+000	 2.823987443156810e+000	 1.056461267256821e+001
 2.121969733974401e+000	 2.846004997900678e+000	 1.046848169180559e+001
 2.092551651780386e+000	 2.867704235903441e+000	 1.036636267860403e+001
 2.062935462933988e+000	 2.889082427998092e+000	 1.025834173726747e+001
 2.033126384678703e+000	 2.910136956216005e+000	 1.014451948887332e+001
 2.003129678027465e+000	 2.930865314720434e+000	 1.002500913359530e+001
 1.972950644777149e+000	 2.951265110645926e+000	 9.899934477558450e+000
 1.942594624506790e+000	 2.971334064843307e+000	 9.769427931108830e+000
 2.253315801851058e+000	 2.775462645594258e+000	 1.087197103118028e+001
 2.224540111418400e+000	 2.798579334706496e+000	 1.077026477233360e+001
 2.195544403415763e+000	 2.821384371648636e+000	 1.066899709434624e+001
 2.166333725901581e+000	 2.843874678669132e+000	 1.056838713603094e+001
 2.136913182804580e+000	 2.866047286615044e+000	 1.046866782167717e+001
 2.107287931017540e+000	 2.887899336152712e+000	 1.037008386895484e+001
 2.077463177460816e+000	 2.909428078895646e+000	 1.027288974982016e+001
 2.047444176119055e+000	 2.930630878438818e+000	 1.017734761136218e+001
 2.017236225054575e+000	 2.951505211298745e+000	 1.008372516363150e+001
 1.986844663400851e+000	 2.972048667758809e+000	 9.992293541567090e+000
 1.956274868339587e+000	 2.992258952619491e+000	 9.903325148181928e+000
 2.269073255010843e+000	 2.794871475282322e+000	 1.088987118874908e+001
 2.240096335973872e+000	 2.818149819562644e+000	 1.076795865585807e+001
 2.210897860782464e+000	 2.841114332287116e+000	 1.065296408452852e+001
 2.181482912796160e+000	 2.863761914181454e+000	 1.054529344388565e+001
 2.151856631635498e+000	 2.886089575329409e+000	 1.044536030650989e+001
 2.122024210255444e+000	 2.908094436401985e+000	 1.035358365482425e+001
 2.091990891988382e+000	 2.929773729793199e+000	 1.027038564897495e+001
 2.061761967560114e+000	 2.951124800661631e+000	 1.019618936348781e+001
 2.031342772082342e+000	 2.972145107877056e+000	 1.013141650006382e+001
 2.000738682025140e+000	 2.992832224871693e+000	 1.007648508393296e+001
 1.969955112172882e+000	 3.013183840395675e+000	 1.003180715120934e+001
 2.284830708171130e+000	 2.814280304970386e+000	 1.087105025289646e+001
 2.255652560529935e+000	 2.837720304418793e+000	 1.073252293321997e+001
 2.226251318149826e+000	 2.860844292925596e+000	 1.060729482843074e+001
 2.196632099691450e+000	 2.883649149693774e+000	 1.049595785489741e+001
 2.166800080467156e+000	 2.906131864043775e+000	 1.039910543118978e+001
 2.136760489494098e+000	 2.928289536651255e+000	 1.031733008270560e+001
 2.106518606516688e+000	 2.950119380690753e+000	 1.025122101617182e+001
 2.076079759001881e+000	 2.971618722884443e+000	 1.020136167164628e+001
 2.045449319110767e+000	 2.992785004455368e+000	 1.016832725970970e+001
 2.014632700650016e+000	 3.013615781984577e+000	 1.015268229157184e+001
 1.983635356006674e+000	 3.034108728171860e+000	 1.015497810982114e+001
 2.300588161331918e+000	 2.833689134658449e+000	 1.081637576665358e+001
 2.271208785086590e+000	 2.857290789274941e+000	 1.066474236811326e+001
 2.241604775517849e+000	 2.880574253564076e+000	 1.053269287425183e+001
 2.211781286587451e+000	 2.903536385206097e+000	 1.042100430589193e+001
 2.181743529299555e+000	 2.926174152758140e+000	 1.033044916452741e+001
 2.151496768733500e+000	 2.948484636900527e+000	 1.026179283491078e+001
 2.121046321045732e+000	 2.970465031588305e+000	 1.021579096578616e+001
 2.090397550444356e+000	 2.992112645107255e+000	 1.019318683673977e+001
 2.059555866139849e+000	 3.013424901033678e+000	 1.019470871918654e+001
 2.028526719275481e+000	 3.034399339097460e+000	 1.022106723952503e+001
 1.997315599840964e+000	 3.055033615948044e+000	 1.027295275247778e+001
 2.316345614493208e+000	 2.853097964346514e+000	 1.072670691270351e+001
 2.286765009643835e+000	 2.876861274131089e+000	 1.056539545288960e+001
 2.256958232886533e+000	 2.900304214202556e+000	 1.042985753827242e+001
 2.226930473484163e+000	 2.923423620718418e+000	 1.032105449073291e+001
 2.196686978132694e+000	 2.946216441472505e+000	 1.023993717000885e+001
 2.166233047973652e+000	 2.968679737149798e+000	 1.018744317393013e+001
 2.135574035575516e+000	 2.990810682485858e+000	 1.016449402496079e+001
 2.104715341887540e+000	 3.012606567330067e+000	 1.017199235137001e+001
 2.073662413169589e+000	 3.034064797611989e+000	 1.021081907138116e+001
 2.042420737901532e+000	 3.055182896210345e+000	 1.028183058864224e+001
 2.010995843675750e+000	 3.075958503724228e+000	 1.038585600732607e+001
 2.332103067654998e+000	 2.872506794034578e+000	 1.060289479582534e+001
 2.302321234201673e+000	 2.896431758987238e+000	 1.043525462042797e+001
 2.272311690255878e+000	 2.920034174841036e+000	 1.029948404782518e+001
 2.242079660381585e+000	 2.943310856230740e+000	 1.019672793609782e+001
 2.211630426966572e+000	 2.966258730186870e+000	 1.012811481611072e+001
 2.180969327214554e+000	 2.988874837399069e+000	 1.009475388904799e+001
 2.150101750106038e+000	 3.011156333383411e+000	 1.009773201830968e+001
 2.119033133331432e+000	 3.033100489552880e+000	 1.013811072444311e+001
 2.087768960199988e+000	 3.054704694190300e+000	 1.021692319179191e+001
 2.056314756528171e+000	 3.075966453323229e+000	 1.033517129552030e+001
 2.024676087511034e+000	 3.096883391500412e+000	 1.049382265761530e+001
 2.347860520817291e+000	 2.891915623722642e+000	 1.044578271396494e+001
 2.317877458760101e+000	 2.916002243843385e+000	 1.027508644747272e+001
 2.287665147625883e+000	 2.939764135479516e+000	 1.014226367850769e+001
 2.257228847279718e+000	 2.963198091743061e+000	 1.004864207420233e+001
 2.226573875801191e+000	 2.986301018901236e+000	 9.995527186199688e+000
 2.195705606456205e+000	 3.009069937648340e+000	 9.984199245108096e+000
 2.164629464637300e+000	 3.031501984280965e+000	 1.001590995726483e+001
 2.133350924776032e+000	 3.053594411775692e+000	 1.009187931283731e+001
 2.101875507231044e+000	 3.075344590768612e+000	 1.021329241428007e+001
 2.070208775155397e+000	 3.096750010436112e+000	 1.038129633412276e+001
 2.038356331346816e+000	 3.117808279276597e+000	 1.059699701098919e+001
 2.363617973980084e+000	 2.911324453410707e+000	 1.025620641846256e+001
 2.333433683319122e+000	 2.935572728699535e+000	 1.008565184983798e+001
 2.303018604996550e+000	 2.959494096117997e+000	 9.958883885906985e+000
 2.272378034178562e+000	 2.983085327255383e+000	 9.877412312615654e+000
 2.241517324636550e+000	 3.006343307615601e+000	 9.842719088036407e+000
 2.210441885698607e+000	 3.029265037897612e+000	 9.856254933328186e+000
 2.179157179169300e+000	 3.051847635178518e+000	 9.919435933848707e+000
 2.147668716221342e+000	 3.074088333998506e+000	 1.003364015980379e+001
 2.115982054262759e+000	 3.095984487346924e+000	 1.020020431579101e+001
 2.084102793783212e+000	 3.117533567548997e+000	 1.042042042853386e+001
 2.052036575183095e+000	 3.138733167052782e+000	 1.019112687458816e+001
 1.915234136842688e+000	 2.929484289290938e+000	 9.485026233063373e+000
 1.885136470559467e+000	 2.948942265883543e+000	 9.327045136409948e+000
 1.854874938628939e+000	 2.968069905208957e+000	 9.165877160654912e+000
 1.824454899308038e+000	 2.986865300036170e+000	 9.037779327116047e+000
 1.793881736172811e+000	 3.005326657253558e+000	 8.976076070761549e+000
 1.763160855129283e+000	 3.023452298137441e+000	 8.970798453196752e+000
 1.732297681428427e+000	 3.041240658528325e+000	 9.012047981301974e+000
 1.701297656688460e+000	 3.058690288915435e+000	 9.090020475285490e+000
 1.670166235927714e+000	 3.075799854430276e+000	 9.195029476413986e+000
 1.638908884611238e+000	 3.092568134750086e+000	 9.317529138438241e+000
 1.607531075714235e+000	 3.108994023912138e+000	 9.448136549008316e+000
 1.928914380674490e+000	 2.950409177067122e+000	 9.630022263616905e+000
 1.898601731060612e+000	 2.970006139206823e+000	 9.549065965336125e+000
 1.868124045330562e+000	 2.989270404527509e+000	 9.522940253881087e+000
 1.837486720014539e+000	 3.008200052175089e+000	 9.475969764674465e+000
 1.806695177142703e+000	 3.026793276230001e+000	 9.494748429071091e+000
 1.775754861234695e+000	 3.045048385977679e+000	 9.568906431328212e+000
 1.744671236293278e+000	 3.062963806086061e+000	 9.688147699404796e+000
 1.713449782805372e+000	 3.080538076690723e+000	 9.842274467224831e+000
 1.682095994753727e+000	 3.097769853388399e+000	 1.002121136282338e+001
 1.650615376642425e+000	 3.114657907139728e+000	 1.021502896493235e+001
 1.619013440539351e+000	 3.131201124082256e+000	 1.011562734575670e+001
 1.942594624506790e+000	 2.971334064843307e+000	 9.769427931108830e+000
 1.912066991562159e+000	 2.991070012530103e+000	 9.764285214635734e+000
 1.881373152032502e+000	 3.010470903846060e+000	 9.842800611745483e+000
 1.850518540721282e+000	 3.029534804314007e+000	 9.904311272201280e+000
 1.819508618112772e+000	 3.048259895206442e+000	 1.000580616132559e+001
 1.788348867340229e+000	 3.066644473817915e+000	 1.016166230999473e+001
 1.757044791158208e+000	 3.084686953643796e+000	 1.036117913190553e+001
 1.725601908922329e+000	 3.102385864466013e+000	 1.059375836862867e+001
 1.694025753579759e+000	 3.119739852346521e+000	 1.084892886937886e+001
 1.662321868673618e+000	 3.136747679529371e+000	 1.053959364079403e+001
 1.630495805364467e+000	 3.153408224252373e+000	 1.001113692585955e+001
 1.956274868339587e+000	 2.992258952619491e+000	 9.903325148181928e+000
 1.925532252064109e+000	 3.012133885853384e+000	 9.972798190575686e+000
 1.894622258734761e+000	 3.031671403164613e+000	 1.012616261145792e+001
 1.863550361428269e+000	 3.050869556452928e+000	 1.031984486410978e+001
 1.832322059083021e+000	 3.069726514182885e+000	 1.050637352018401e+001
 1.800942873445888e+000	 3.088240561658154e+000	 1.074627383726405e+001
 1.769418346023218e+000	 3.106410101201532e+000	 1.102843369840638e+001
 1.737754035039331e+000	 3.124233652241302e+000	 1.134184736610919e+001
 1.705955512405812e+000	 3.141709851304644e+000	 1.084870727493744e+001
 1.674028360704815e+000	 3.158837451919015e+000	 1.035397296862430e+001
 1.641978170189583e+000	 3.175615324422491e+000	 9.900359087512364e+000
 1.969955112172882e+000	 3.013183840395675e+000	 1.003180715120934e+001
 1.938997512566461e+000	 3.033197759176664e+000	 1.017471092283500e+001
 1.907871365437337e+000	 3.052871902483164e+000	 1.040174714016073e+001
 1.876582182135497e+000	 3.072204308591847e+000	 1.071398093109357e+001
 1.845135500053447e+000	 3.091193133159327e+000	 1.099358371611785e+001
 1.813536879551670e+000	 3.109836649498390e+000	 1.131995714312058e+001
 1.781791900888305e+000	 3.128133248759268e+000	 1.153424024049764e+001
 1.749906161156377e+000	 3.146081440016592e+000	 1.104522921124838e+001
 1.717885271231884e+000	 3.163679850262765e+000	 1.058720091795329e+001
 1.685734852736017e+000	 3.180927224308658e+000	 1.016524404180508e+001
 1.653460535014698e+000	 3.197822424592608e+000	 9.784291052973238e+000
 1.983635356006674e+000	 3.034108728171860e+000	 1.015497810982114e+001
 1.952462773069216e+000	 3.054261632499945e+000	 1.037013979473241e+001
 1.921120472140230e+000	 3.074072401801716e+000	 1.066968242834768e+001
 1.889614002842969e+000	 3.093539060730766e+000	 1.105465577611941e+001
 1.857948941024052e+000	 3.112659752135769e+000	 1.146457860852085e+001
 1.826130885657575e+000	 3.131432737338627e+000	 1.157404259822106e+001
 1.794165455753472e+000	 3.149856396317004e+000	 1.113092546438351e+001
 1.762058287273467e+000	 3.167929227791880e+000	 1.071306331823038e+001
 1.729815030057976e+000	 3.185649849220887e+000	 1.032582308538885e+001
 1.697441344767224e+000	 3.203016996698300e+000	 9.974426006069511e+000
 1.664942899839814e+000	 3.220029524762726e+000	 9.663935459226089e+000
 1.997315599840964e+000	 3.055033615948044e+000	 1.027295275247778e+001
 1.965928033572373e+000	 3.075325505823225e+000	 1.055921118864931e+001
 1.934369578843441e+000	 3.095272901120267e+000	 1.093010615114068e+001
 1.902645823550684e+000	 3.114873812869684e+000	 1.138667328552841e+001
 1.870762381994835e+000	 3.134126371112212e+000	 1.149989553210217e+001
 1.838724891763604e+000	 3.153028825178865e+000	 1.110702876084262e+001
 1.806539010618718e+000	 3.171579543874740e+000	 1.073328935437451e+001
 1.774210413390602e+000	 3.189777015567169e+000	 1.038431652844395e+001
 1.741744788884087e+000	 3.207619848179009e+000	 1.006561533148775e+001
 1.709147836798436e+000	 3.225106769087943e+000	 9.782543739875919e+000
 1.676425264664929e+000	 3.242236624932843e+000	 9.540300172544850e+000
 2.010995843675750e+000	 3.075958503724228e+000	 1.038585600732607e+001
 1.979393294075933e+000	 3.096389379146505e+000	 1.074206114592579e+001
 1.947618685546970e+000	 3.116473400438819e+000	 1.118316510704396e+001
 1.915677644258642e+000	 3.136208565008604e+000	 1.122389837370806e+001
 1.883575822965795e+000	 3.155592990088653e+000	 1.095117308925633e+001
 1.851318897869757e+000	 3.174624913019101e+000	 1.064905627507194e+001
 1.818912565484043e+000	 3.193302691432475e+000	 1.034241271955605e+001
 1.786362539507781e+000	 3.211624803342458e+000	 1.006005323517694e+001
 1.753674547710218e+000	 3.229589847137131e+000	 9.807625241432332e+000
 1.720854328829653e+000	 3.247196541477585e+000	 9.590627659417114e+000
 1.687907629490045e+000	 3.264443725102961e+000	 9.414398110626326e+000
 2.024676087511034e+000	 3.096883391500412e+000	 1.049382265761530e+001
 1.992858554579895e+000	 3.117453252469786e+000	 1.091883504054441e+001
 1.960867792250816e+000	 3.137673899757371e+000	 1.090757023130962e+001
 1.928709464966843e+000	 3.157543317147523e+000	 1.063849771307010e+001
 1.896389263936935e+000	 3.177059609065096e+000	 1.041262093091725e+001
 1.863912903976033e+000	 3.196221000859338e+000	 1.020122923689000e+001
 1.831286120349447e+000	 3.215025838990211e+000	 9.959383168493964e+000
 1.798514665625005e+000	 3.233472591117748e+000	 9.741344141917852e+000
 1.765604306536369e+000	 3.251559846095253e+000	 9.552906227596109e+000
 1.732560820860875e+000	 3.269286313867229e+000	 9.399713531534669e+000
 1.699389994315161e+000	 3.286650825273078e+000	 9.287247071934310e+000
 2.038356331346816e+000	 3.117808279276597e+000	 1.059699701098919e+001
 2.006323815084259e+000	 3.138517125793066e+000	 1.056354511513831e+001
 1.974116898954979e+000	 3.158874399075922e+000	 1.029998075190724e+001
 1.941741285675286e+000	 3.178878069286442e+000	 1.007742433983266e+001
 1.909202704908252e+000	 3.198526228041538e+000	 9.897349196762031e+000
 1.876506910082433e+000	 3.217817088699575e+000	 9.761170042424491e+000
 1.843659675214930e+000	 3.236748986547947e+000	 9.585294881063735e+000
 1.810666791742272e+000	 3.255320378893037e+000	 9.429266050604166e+000
 1.777534065362540e+000	 3.273529845053375e+000	 9.302517334000005e+000
 1.744267312892101e+000	 3.291376086256872e+000	 9.210842294167206e+000
 1.710872359140276e+000	 3.308857925443196e+000	 9.159869571915150e+000
 2.052036575183095e+000	 3.138733167052782e+000	 1.019112687458816e+001
 2.019789075589026e+000	 3.159580999116348e+000	 9.934927953596281e+000
 1.987366005659461e+000	 3.180074898394475e+000	 9.717530731304647e+000
 1.954773106383973e+000	 3.200212821425363e+000	 9.540449872966429e+000
 1.922016145879748e+000	 3.219992847017981e+000	 9.405143850080984e+000
 1.889100916188957e+000	 3.239413176539813e+000	 9.313012913351047e+000
 1.856033230080492e+000	 3.258472134105683e+000	 9.221248389407108e+000
 1.822818917859585e+000	 3.277168166668327e+000	 9.124901658340558e+000
 1.789463824188730e+000	 3.295499844011498e+000	 9.057523048590975e+000
 1.755973804923333e+000	 3.313465858646516e+000	 9.025059883980140e+000
 1.722354723965393e+000	 3.331065025613313e+000	 9.033292685765201e+000
 1.607531075714235e+000	 3.108994023912138e+000	 9.448136549008316e+000
 1.576038286805698e+000	 3.125076530040452e+000	 9.805333610110830e+000
 1.544435997154201e+000	 3.140814774984898e+000	 9.449400110984811e+000
 1.512729684859719e+000	 3.156207993874709e+000	 9.149058605573380e+000
 1.480924824014684e+000	 3.171255534588795e+000	 8.908134148964987e+000
 1.449026881896090e+000	 3.185956857143146e+000	 8.730248002746466e+000
 1.417041316191712e+000	 3.200311532997376e+000	 8.618809670411032e+000
 1.384973572263021e+000	 3.214319244282112e+000	 8.577009461611070e+000
 1.352829080447324e+000	 3.227979782949084e+000	 8.607811598254068e+000
 1.320613253401519e+000	 3.241293049845800e+000	 8.713947873678970e+000
 1.288331483489811e+000	 3.254259053716808e+000	 8.897911874379904e+000
 1.619013440539351e+000	 3.131201124082256e+000	 1.011562734575670e+001
 1.587295703138929e+000	 3.147398505255050e+000	 9.784379237935521e+000
 1.555467682847306e+000	 3.163249166235358e+000	 9.495301010965269e+000
 1.523534896893743e+000	 3.178752336689058e+000	 9.252471954856830e+000
 1.491502858471334e+000	 3.193907359837046e+000	 9.059782880329854e+000
 1.459377073909050e+000	 3.208713691838291e+000	 8.920927340068753e+000
 1.427163039878152e+000	 3.223170901091399e+000	 8.839393362370236e+000
 1.394866240635550e+000	 3.237278667456502e+000	 8.818455712647648e+000
 1.362492145306674e+000	 3.251036781399277e+000	 8.861168696494739e+000
 1.330046205210258e+000	 3.264445143058997e+000	 8.970359516227296e+000
 1.297533851227396e+000	 3.277503761242674e+000	 9.148622191030656e+000
 1.630495805364467e+000	 3.153408224252373e+000	 1.001113692585955e+001
 1.598553119472159e+000	 3.169720480469653e+000	 9.751598806418448e+000
 1.566499368540411e+000	 3.185683557485841e+000	 9.524993513148289e+000
 1.534340108927768e+000	 3.201296679503453e+000	 9.335463471558290e+000
 1.502080892927984e+000	 3.216559185085382e+000	 9.186969306894183e+000
 1.469727265922010e+000	 3.231470526533562e+000	 9.083280760734347e+000
 1.437284763564592e+000	 3.246030269185602e+000	 9.027968118559127e+000
 1.404758909008079e+000	 3.260238090631141e+000	 9.024394164488431e+000
 1.372155210166024e+000	 3.274093779849795e+000	 9.075706677597335e+000
 1.339479157018998e+000	 3.287597236272605e+000	 9.184831482415374e+000
 1.306736218964982e+000	 3.300748468769045e+000	 9.354466064400329e+000
 1.641978170189583e+000	 3.175615324422491e+000	 9.900359087512364e+000
 1.609810535805390e+000	 3.192042455684259e+000	 9.708018938220155e+000
 1.577531054233516e+000	 3.208117948736343e+000	 9.539536085269837e+000
 1.545145320961793e+000	 3.223841022317894e+000	 9.399120327279876e+000
 1.512658927384634e+000	 3.239211010333797e+000	 9.290806186786977e+000
 1.480077457934971e+000	 3.254227361228961e+000	 9.218443517517525e+000
 1.447406487251032e+000	 3.268889637279991e+000	 9.185688621505610e+000
 1.414651577380608e+000	 3.283197513806030e+000	 9.195995892987650e+000
 1.381818275025374e+000	 3.297150778300636e+000	 9.252610004196709e+000
 1.348912108827738e+000	 3.310749329486621e+000	 9.358558646353034e+000
 1.315938586702568e+000	 3.323993176295921e+000	 9.516645837308850e+000
 1.653460535014698e+000	 3.197822424592608e+000	 9.784291052973238e+000
 1.621067952138621e+000	 3.214364430898872e+000	 9.654669921400675e+000
 1.588562739926621e+000	 3.230552339986867e+000	 9.539989005434428e+000
 1.555950532995817e+000	 3.246385365132382e+000	 9.444529737062096e+000
 1.523236961841284e+000	 3.261862835582296e+000	 9.372404643111395e+000
 1.490427649947932e+000	 3.276984195924488e+000	 9.327547638476171e+000
 1.457528210937472e+000	 3.291749005374561e+000	 9.313704828354025e+000
 1.424544245753136e+000	 3.306156936981168e+000	 9.334425837165117e+000
 1.391481339884724e+000	 3.320207776751802e+000	 9.393055679994994e+000
 1.358345060636478e+000	 3.333901422701050e+000	 9.492727190552349e+000
 1.325140954440153e+000	 3.347237883823303e+000	 9.636354017771309e+000
 1.664942899839814e+000	 3.220029524762726e+000	 9.663935459226089e+000
 1.632325368471851e+000	 3.236686406113489e+000	 9.592585583026954e+000
 1.599594425619725e+000	 3.252986731237410e+000	 9.527414299688697e+000
 1.566755745029842e+000	 3.268929707946914e+000	 9.472778957886046e+000
 1.533814996297935e+000	 3.284514660830876e+000	 9.432874220325020e+000
 1.500777841960892e+000	 3.299741030620142e+000	 9.411722038148810e+000
 1.467649934623912e+000	 3.314608373469317e+000	 9.413162133809111e+000
 1.434436914125665e+000	 3.329116360156554e+000	 9.440843010821050e+000
 1.401144404744074e+000	 3.343264775203294e+000	 9.498213506966367e+000
 1.367778012445217e+000	 3.357053515915887e+000	 9.588514905638160e+000
 1.334343322177739e+000	 3.370482591351189e+000	 9.714773618129211e+000
 1.676425264664929e+000	 3.242236624932843e+000	 9.540300172544850e+000
 1.643582784805082e+000	 3.259008381328112e+000	 9.522803167973608e+000
 1.610626111312830e+000	 3.275421122487975e+000	 9.502875682160305e+000
 1.577560957063866e+000	 3.291474050761495e+000	 9.484955287236845e+000
 1.544393030754585e+000	 3.307166486079536e+000	 9.473322938303122e+000
 1.511128033973852e+000	 3.322497865315922e+000	 9.472092624181959e+000
 1.477771658310352e+000	 3.337467741564254e+000	 9.485201526384346e+000
 1.444329582498193e+000	 3.352075783332190e+000	 9.516400705454636e+000
 1.410807469603424e+000	 3.366321773655109e+000	 9.569246331991511e+000
 1.377210964253957e+000	 3.380205609131133e+000	 9.647091477741249e+000
 1.343545689915324e+000	 3.393727298879581e+000	 9.753078480244772e+000
 1.687907629490045e+000	 3.264443725102961e+000	 9.414398110626326e+000
 1.654840201138312e+000	 3.281330356542740e+000	 9.446363222671286e+000
 1.621657797005935e+000	 3.297855513738559e+000	 9.467438497640192e+000
 1.588366169097891e+000	 3.314018393576120e+000	 9.482146061726178e+000
 1.554971065211234e+000	 3.329818311328278e+000	 9.494857344195097e+000
 1.521478225986813e+000	 3.345254700011833e+000	 9.509782399605504e+000
 1.487893381996792e+000	 3.360327109659375e+000	 9.530959738271983e+000
 1.454222250870722e+000	 3.375035206508074e+000	 9.562246684900105e+000
 1.420470534462774e+000	 3.389378772107250e+000	 9.607310283425385e+000
 1.386643916062697e+000	 3.403357702346791e+000	 9.669618764161561e+000
 1.352748057652909e+000	 3.416972006408478e+000	 9.752433587421956e+000
 1.699389994315161e+000	 3.286650825273078e+000	 9.287247071934310e+000
 1.666097617471543e+000	 3.303652331757373e+000	 9.364309483567354e+000
 1.632689482699040e+000	 3.320289904989165e+000	 9.422169666492748e+000
 1.599171381131915e+000	 3.336562736390792e+000	 9.465438655770326e+000
 1.565549099667884e+000	 3.352470136577104e+000	 9.498582562178699e+000
 1.531828417999774e+000	 3.368011534707868e+000	 9.525911560961569e+000
 1.498015105683233e+000	 3.383186477754680e+000	 9.551569389138015e+000
 1.464114919243251e+000	 3.397994629684207e+000	 9.579523372072153e+000
 1.430133599322125e+000	 3.412435770559716e+000	 9.613554998074452e+000
 1.396076867871437e+000	 3.426509795562858e+000	 9.657251057855680e+000
 1.361950425390495e+000	 3.440216713937880e+000	 9.713995363682125e+000
 1.710872359140276e+000	 3.308857925443196e+000	 9.159869571915150e+000
 1.677355033804773e+000	 3.325974306972011e+000	 9.277688770078367e+000
 1.643721168392145e+000	 3.342724296239791e+000	 9.368137631784061e+000
 1.609976593165940e+000	 3.359107079205510e+000	 9.435920480321663e+000
 1.576127134124535e+000	 3.375121961826010e+000	 9.485602341211052e+000
 1.542178610012734e+000	 3.390768369404033e+000	 9.521597592481909e+000
 1.508136829369672e+000	 3.406045845850167e+000	 9.548159124126226e+000
 1.474007587615779e+000	 3.420954052860590e+000	 9.569368028191395e+000
 1.439796664181474e+000	 3.435492769012503e+000	 9.589123839033979e+000
 1.405509819680177e+000	 3.449661888779335e+000	 9.611135341273812e+000
 1.371152793128081e+000	 3.463461421467788e+000	 9.638911960988260e+000
 1.722354723965393e+000	 3.331065025613313e+000	 9.033292685765201e+000
 1.688612450138004e+000	 3.348296282186655e+000	 9.187550881824677e+000
 1.654752854085250e+000	 3.365158687490438e+000	 9.306412308525292e+000
 1.620781805199965e+000	 3.381651422020275e+000	 9.394678981650612e+000
 1.586705168581185e+000	 3.397773787075000e+000	 9.457019100868847e+000
 1.552528802025695e+000	 3.413525204100325e+000	 9.497955356498297e+000
 1.518258553056114e+000	 3.428905213945840e+000	 9.521853746342297e+000
 1.483900255988309e+000	 3.443913476037222e+000	 9.532912924840916e+000
 1.449459729040825e+000	 3.458549767465619e+000	 9.535154104811506e+000
 1.414942771488917e+000	 3.472813981996224e+000	 9.532411530043396e+000
 1.380355160865667e+000	 3.486706128998200e+000	 9.528323534980249e+000
 1.288331483489811e+000	 3.254259053716808e+000	 8.897911874379904e+000
 1.255989140217728e+000	 3.266877910132902e+000	 8.874659757869582e+000
 1.223591567714392e+000	 3.279149840352444e+000	 8.866551582876584e+000
 1.191144082264780e+000	 3.291075170115786e+000	 8.867604564130007e+000
 1.158651969894471e+000	 3.302654328373525e+000	 8.862533189914457e+000
 1.126120484008404e+000	 3.313887845952988e+000	 8.847535573872262e+000
 1.093554843085373e+000	 3.324776354164622e+000	 8.818969563789754e+000
 1.060960228429861e+000	 3.335320583350722e+000	 8.773355005431240e+000
 1.028341781982668e+000	 3.345521361378934e+000	 8.707375648122376e+000
 9.957046041917382e-001	 3.355379612083005e+000	 8.617880696529864e+000
 9.630537519444204e-001	 3.364896353653301e+000	 8.501886013893564e+000
 1.297533851227396e+000	 3.277503761242674e+000	 9.148622191030656e+000
 1.264960491217280e+000	 3.290212752346754e+000	 9.091539615223461e+000
 1.232331507481436e+000	 3.302572339210159e+000	 9.028497983456758e+000
 1.199652254278306e+000	 3.314582849899959e+000	 8.994505463142037e+000
 1.166928055390793e+000	 3.326244716430685e+000	 8.962057807628234e+000
 1.134164201748157e+000	 3.337558473421284e+000	 8.927332119220173e+000
 1.101365949104042e+000	 3.348524756691562e+000	 8.886660788730426e+000
 1.068538515772246e+000	 3.359144301800546e+000	 8.836533873591034e+000
 1.035687080421720e+000	 3.369417942529221e+000	 8.773601118705354e+000
 1.002816779932178e+000	 3.379346609310144e+000	 8.694673624298845e+000
 9.699327073115912e-001	 3.388931327606469e+000	 8.596725165842386e+000
 1.306736218964982e+000	 3.300748468769045e+000	 9.354466064400329e+000
 1.273931842216838e+000	 3.313547594561200e+000	 9.265444260893704e+000
 1.241071447248501e+000	 3.325994838068540e+000	 9.155932688544624e+000
 1.208160426291877e+000	 3.338090529684847e+000	 9.090239192439972e+000
 1.175204140887197e+000	 3.349835104488588e+000	 9.033623637594644e+000
 1.142207919488038e+000	 3.361229100890329e+000	 8.982240720746015e+000
 1.109177055122894e+000	 3.372273159219242e+000	 8.932396110657756e+000
 1.076116803114882e+000	 3.382968020251078e+000	 8.880548940258805e+000
 1.043032378861098e+000	 3.393314523680163e+000	 8.823313942330252e+000
 1.009928955673028e+000	 3.403313606537868e+000	 8.757463232814054e+000
 9.768116626792683e-001	 3.412966301560131e+000	 8.679927746639731e+000
 1.315938586702568e+000	 3.323993176295921e+000	 9.516645837308850e+000
 1.282903193216400e+000	 3.336882436776241e+000	 9.397483645922552e+000
 1.249811387015587e+000	 3.349417336927583e+000	 9.249096311995031e+000
 1.216668598305496e+000	 3.361598209470447e+000	 9.154999342845672e+000
 1.183480226383683e+000	 3.373425492547229e+000	 9.077379243139676e+000
 1.150251637228048e+000	 3.384899728360124e+000	 9.012366910302614e+000
 1.116988161141931e+000	 3.396021561747658e+000	 8.956240025475474e+000
 1.083695090457767e+000	 3.406791738702315e+000	 8.905425659446598e+000
 1.050377677300801e+000	 3.417211104831760e+000	 8.856502522756429e+000
 1.017041131414290e+000	 3.427280603766174e+000	 8.806202863868219e+000
 9.836906180474517e-001	 3.437001275514286e+000	 8.751414020128152e+000
 1.325140954440153e+000	 3.347237883823303e+000	 9.636354017771309e+000
 1.291874544215968e+000	 3.360217278991877e+000	 9.488759525865309e+000
 1.258551326782692e+000	 3.372839835787290e+000	 9.321101350187222e+000
 1.225176770319160e+000	 3.385105889256760e+000	 9.188974392695833e+000
 1.191756311880251e+000	 3.397015880606614e+000	 9.093469518254123e+000
 1.158295354968185e+000	 3.408570355830670e+000	 9.017813927704744e+000
 1.124799267161153e+000	 3.419769964276813e+000	 8.958256048331835e+000
 1.091273377800902e+000	 3.430615457154258e+000	 8.911189749558506e+000
 1.057722975740830e+000	 3.441107685984012e+000	 8.873156707068505e+000
 1.024153307155962e+000	 3.451247600995065e+000	 8.840848415259583e+000
 9.905695734161415e-001	 3.461036249468935e+000	 8.811107852583685e+000
 1.334343322177739e+000	 3.370482591351189e+000	 9.714773618129211e+000
 1.300845895215541e+000	 3.383552121208107e+000	 9.540365743393265e+000
 1.267291266549819e+000	 3.396262334647662e+000	 9.355333761181194e+000
 1.233684942332871e+000	 3.408613569043786e+000	 9.192347884134668e+000
 1.200032397376902e+000	 3.420606268666740e+000	 9.082035814122476e+000
 1.166339072708451e+000	 3.432240983301965e+000	 8.998682799764938e+000
 1.132610373180557e+000	 3.443518366806705e+000	 8.938506747438618e+000
 1.098851665144288e+000	 3.454439175606909e+000	 8.897867184273641e+000
 1.065068274181185e+000	 3.465004267136919e+000	 8.873267735906614e+000
 1.031265482898046e+000	 3.475214598224541e+000	 8.861358252653645e+000
 9.974485287853375e-001	 3.485071223424078e+000	 8.858936588494098e+000
 1.343545689915324e+000	 3.393727298879581e+000	 9.753078480244772e+000
 1.309817246215119e+000	 3.406886963424932e+000	 9.553388499283019e+000
 1.276031206316967e+000	 3.419684833508697e+000	 9.352458610113045e+000
 1.242193114346628e+000	 3.432121248831524e+000	 9.165298592161602e+000
 1.208308482873634e+000	 3.444196656727606e+000	 9.043216060451870e+000
 1.174382790448845e+000	 3.455911610774008e+000	 8.955072416081185e+000
 1.140421479200146e+000	 3.467266769337335e+000	 8.897053776500597e+000
 1.106429952487922e+000	 3.478262894060265e+000	 8.865484183803838e+000
 1.072413572621865e+000	 3.488900848290479e+000	 8.856828195741782e+000
 1.038377658640541e+000	 3.499181595454599e+000	 8.867693125067282e+000
 1.004327484155040e+000	 3.509106197379714e+000	 8.894830931441968e+000
 1.352748057652909e+000	 3.416972006408478e+000	 9.752433587421956e+000
 1.318788597214702e+000	 3.430221805642352e+000	 9.528906612344711e+000
 1.284771146084135e+000	 3.443107332370397e+000	 9.313470990435896e+000
 1.250701286360432e+000	 3.455628928619975e+000	 9.108945579489692e+000
 1.216584568370449e+000	 3.467787044789213e+000	 8.977144881848840e+000
 1.182426508189367e+000	 3.479582238246800e+000	 8.887079601731371e+000
 1.148232585219919e+000	 3.491015171868703e+000	 8.833957905821102e+000
 1.114008239831808e+000	 3.502086612514327e+000	 8.814067206508286e+000
 1.079758871062871e+000	 3.512797429444697e+000	 8.823831973099495e+000
 1.045489834383447e+000	 3.523148592685243e+000	 8.859816083802270e+000
 1.011206439525248e+000	 3.533141171335845e+000	 8.918724829849795e+000
 1.361950425390495e+000	 3.440216713937880e+000	 9.713995363682125e+000
 1.327759948214291e+000	 3.453556647860368e+000	 9.467991768812855e+000
 1.293511085851323e+000	 3.466529831232760e+000	 9.239360233064163e+000
 1.259209458374282e+000	 3.479136608409139e+000	 9.031107740463623e+000
 1.224860653867346e+000	 3.491377432851563e+000	 8.883953709478126e+000
 1.190470225930017e+000	 3.503252865720344e+000	 8.794799187020516e+000
 1.156043691239876e+000	 3.514763574400809e+000	 8.749279052146736e+000
 1.121586527175943e+000	 3.525910330969096e+000	 8.743642940847835e+000
 1.087104169504203e+000	 3.536694010599568e+000	 8.774274210638838e+000
 1.052602010126764e+000	 3.547115589916470e+000	 8.837692404665461e+000
 1.018085394895963e+000	 3.557176145292468e+000	 8.930555367356980e+000
 1.371152793128081e+000	 3.463461421467788e+000	 9.638911960988260e+000
 1.336731299213884e+000	 3.476891490078979e+000	 9.371708761694539e+000
 1.302251025618533e+000	 3.489952330095787e+000	 9.131110099747387e+000
 1.267717630388178e+000	 3.502644288199015e+000	 8.920313591177905e+000
 1.233136739364325e+000	 3.514967820914653e+000	 8.763770888225180e+000
 1.198513943670795e+000	 3.526923493194636e+000	 8.678324074419546e+000
 1.163854797260017e+000	 3.538511976933652e+000	 8.643076307310189e+000
 1.129164814520327e+000	 3.549734049424570e+000	 8.654238297663627e+000
 1.094449467945860e+000	 3.560590591755095e+000	 8.708151265000407e+000
 1.059714185870493e+000	 3.571082587148281e+000	 8.801289513320958e+000
 1.024964350267184e+000	 3.581211119249587e+000	 8.930262657611333e+000
 1.380355160865667e+000	 3.486706128998200e+000	 9.528323534980249e+000
 1.345702650213483e+000	 3.500226332298184e+000	 9.241115720543608e+000
 1.310990965385763e+000	 3.513374828959480e+000	 8.989698968708979e+000
 1.276225802402121e+000	 3.526151967989605e+000	 8.777464072964312e+000
 1.241412824861386e+000	 3.538558208978484e+000	 8.616721779572197e+000
 1.206557661411701e+000	 3.550594120669679e+000	 8.537745302826330e+000
 1.171665903280343e+000	 3.562260379467235e+000	 8.515407965727414e+000
 1.136743101864962e+000	 3.573557767880753e+000	 8.545880402764336e+000
 1.101794766387843e+000	 3.584487172911278e+000	 8.625460666340215e+000
 1.066826361614632e+000	 3.595049584380677e+000	 8.750576913628112e+000
 1.031843305638912e+000	 3.605246093207198e+000	 8.917789743268580e+000
 9.630537519444204e-001	 3.364896353653301e+000	 8.501886013893564e+000
 9.303942365624410e-001	 3.374072696980329e+000	 8.231927816105980e+000
 8.977310218600831e-001	 3.382909843951724e+000	 8.024986874233125e+000
 8.650690222672622e-001	 3.391409085706569e+000	 7.878618007653130e+000
 8.324131010182233e-001	 3.399571800851111e+000	 7.790462251729474e+000
 7.997680684061285e-001	 3.407399453636346e+000	 7.758247852831306e+000
 7.671386801043791e-001	 3.414893592100732e+000	 7.779791031908554e+000
 7.345296355551679e-001	 3.422055846180586e+000	 7.852996522511436e+000
 7.019455764256671e-001	 3.428887925790747e+000	 7.975857889579180e+000
 6.693910851321567e-001	 3.435391618878011e+000	 8.146457635718067e+000
 6.368706834322875e-001	 3.441568789449906e+000	 8.362967102053824e+000
 9.699327073115912e-001	 3.388931327606469e+000	 8.596725165842386e+000
 9.370399096768675e-001	 3.398173216243544e+000	 8.364224402507796e+000
 9.041433862981303e-001	 3.407073485693827e+000	 8.186372081890074e+000
 8.712480867083653e-001	 3.415633436318824e+000	 8.060683622655356e+000
 8.383589088792042e-001	 3.423854456571968e+000	 7.984770647546528e+000
 8.054806974630456e-001	 3.431738021163193e+000	 7.956341838973615e+000
 7.726182421023856e-001	 3.439285689188370e+000	 7.973203551554282e+000
 7.397762758068605e-001	 3.446499102226226e+000	 8.033260188026009e+000
 7.069594733984072e-001	 3.453379982405272e+000	 8.134514345395836e+000
 6.741724500248497e-001	 3.459930130443356e+000	 8.275066738601829e+000
 6.414197597421077e-001	 3.466151423662343e+000	 8.453115909329563e+000
 9.768116626792683e-001	 3.412966301560131e+000	 8.679927746639731e+000
 9.436855827918899e-001	 3.422273735507152e+000	 8.484029780615114e+000
 9.105557507368421e-001	 3.431237127436225e+000	 8.334496511242252e+000
 8.774271511501816e-001	 3.439857786931272e+000	 8.228803038260056e+000
 8.443047167409266e-001	 3.448137112292918e+000	 8.164530647864799e+000
 8.111933265207117e-001	 3.456076588690030e+000	 8.139367529773999e+000
 7.780978041011291e-001	 3.463677786275902e+000	 8.151109239587886e+000
 7.450229160592582e-001	 3.470942358271658e+000	 8.197658913401613e+000
 7.119733703718011e-001	 3.477872039019489e+000	 8.277027242078074e+000
 6.789538149181261e-001	 3.484468642008292e+000	 8.387332213007563e+000
 6.459688360524208e-001	 3.490734057874272e+000	 8.526798627558339e+000
 9.836906180474517e-001	 3.437001275514286e+000	 8.751414020128152e+000
 9.503312559075080e-001	 3.446374254771155e+000	 8.591297692349205e+000
 9.169681151762193e-001	 3.455400769178916e+000	 8.469344555611096e+000
 8.836062155927114e-001	 3.464082137543914e+000	 8.382988476933447e+000
 8.502505246033907e-001	 3.472419768013962e+000	 8.329779488305887e+000
 8.169059555791279e-001	 3.480415156216863e+000	 8.307384366095933e+000
 7.835773661006105e-001	 3.488069883363327e+000	 8.313586944052283e+000
 7.502695563123619e-001	 3.495385614316883e+000	 8.346288167389615e+000
 7.169872673458493e-001	 3.502364095633400e+000	 8.403505895908038e+000
 6.837351798119852e-001	 3.509007153572822e+000	 8.483374464527152e+000
 6.505179123632263e-001	 3.515316692085695e+000	 8.584144010001035e+000
 9.905695734161415e-001	 3.461036249468935e+000	 8.811107852583685e+000
 9.569769290237222e-001	 3.470474774035552e+000	 8.685984668470690e+000
 9.233804796162610e-001	 3.479564410921900e+000	 8.590902650749618e+000
 8.897852800359546e-001	 3.488306488156749e+000	 8.523253524154674e+000
 8.561963324665962e-001	 3.496702423735099e+000	 8.480555154840166e+000
 8.226185846382935e-001	 3.504753723743688e+000	 8.460451992970873e+000
 7.890569281008294e-001	 3.512461980450646e+000	 8.460715237155123e+000
 7.555161965661713e-001	 3.519828870361902e+000	 8.479242728738738e+000
 7.220011643205513e-001	 3.526856152247003e+000	 8.514058584458530e+000
 6.885165447064278e-001	 3.533545665136944e+000	 8.563312576389428e+000
 6.550669886745246e-001	 3.539899326296611e+000	 8.625279268513920e+000
 9.974485287853375e-001	 3.485071223424078e+000	 8.858936588494098e+000
 9.636226021405323e-001	 3.494575293300343e+000	 8.768049932412634e+000
 9.297928440569677e-001	 3.503728052665179e+000	 8.699159204413741e+000
 8.959643444799109e-001	 3.512530838769778e+000	 8.649613081415305e+000
 8.621421403305434e-001	 3.520985079456330e+000	 8.616896357912466e+000
 8.283312136982085e-001	 3.529092291270506e+000	 8.598630252558154e+000
 7.945364901017857e-001	 3.536854077537856e+000	 8.592572424780293e+000
 7.607628368206859e-001	 3.544272126406711e+000	 8.596616709988121e+000
 7.270150612959075e-001	 3.551348208860298e+000	 8.608792582410766e+000
 6.932979096014529e-001	 3.558084176700660e+000	 8.627264355058843e+000
 6.596160649863155e-001	 3.564481960507018e+000	 8.650330126700613e+000
 1.004327484155040e+000	 3.509106197379714e+000	 8.894830931441968e+000
 9.702682752579384e-001	 3.518675812565526e+000	 8.837455308065758e+000
 9.362052084983391e-001	 3.527891694408750e+000	 8.794104528827944e+000
 9.021434089245810e-001	 3.536755189383001e+000	 8.762083321150437e+000
 8.680879481952318e-001	 3.545267735177653e+000	 8.738842507631532e+000
 8.340438427588731e-001	 3.553430858797317e+000	 8.721979177393909e+000
 8.000160521034795e-001	 3.561246174624960e+000	 8.709236555608705e+000
 7.660094770759065e-001	 3.568715382451315e+000	 8.698503580282893e+000
 7.320289582719179e-001	 3.575840265473287e+000	 8.687814195899948e+000
 6.980792744970613e-001	 3.582622688263967e+000	 8.675346373960387e+000
 6.641651412985992e-001	 3.589064594716919e+000	 8.659420870879593e+000
 1.011206439525248e+000	 3.533141171335845e+000	 8.918724829849795e+000
 9.769139483759403e-001	 3.542776331831105e+000	 8.894165131327416e+000
 9.426175729403755e-001	 3.552055336152616e+000	 8.875730775907440e+000
 9.083224733699642e-001	 3.560979539996417e+000	 8.860681643509256e+000
 8.740337560606618e-001	 3.569550390899069e+000	 8.846433689971772e+000
 8.397564718202875e-001	 3.577769426324121e+000	 8.830558983915793e+000
 8.054956141059108e-001	 3.585638271711956e+000	 8.810785429866511e+000
 7.712561173318328e-001	 3.593158638495712e+000	 8.784996187258180e+000
 7.370428552485824e-001	 3.600332322085968e+000	 8.751228795458909e+000
 7.028606393932527e-001	 3.607161199826867e+000	 8.707674015419716e+000
 6.687142176113755e-001	 3.613647228926312e+000	 8.652674398971477e+000
 1.018085394895963e+000	 3.557176145292468e+000	 8.930555367356980e+000
 9.835596214945382e-001	 3.566876851097076e+000	 8.938146165236683e+000
 9.490299373830770e-001	 3.576218977896776e+000	 8.944031875106454e+000
 9.145015378160609e-001	 3.585203890610027e+000	 8.945426634878377e+000
 8.799795639268335e-001	 3.593833046620580e+000	 8.939710643940058e+000
 8.454691008824512e-001	 3.602107993850920e+000	 8.924430066250068e+000
 8.109751761090794e-001	 3.610030368798847e+000	 8.897296607719044e+000
 7.765027575884643e-001	 3.617601894539902e+000	 8.856186778036143e+000
 7.420567522259008e-001	 3.624824378698343e+000	 8.799140847626390e+000
 7.076420042900276e-001	 3.631699711389361e+000	 8.724361510902863e+000
 6.732632939246444e-001	 3.638229863135198e+000	 8.630212267404312e+000
 1.024964350267184e+000	 3.581211119249587e+000	 8.930262657611333e+000
 9.902052946137315e-001	 3.590977370363441e+000	 8.969367518526388e+000
 9.554423018264432e-001	 3.600382619641227e+000	 8.999003473769230e+000
 9.206806022628710e-001	 3.609428241223829e+000	 9.016338028074978e+000
 8.859253717937469e-001	 3.618115702342183e+000	 9.018714739661812e+000
 8.511817299453643e-001	 3.626446561377711e+000	 9.003652990248709e+000
 8.164547381129858e-001	 3.634422465885629e+000	 8.968847417326328e+000
 7.817493978458019e-001	 3.642045150583884e+000	 8.912167019377334e+000
 7.470706492038737e-001	 3.649316435310409e+000	 8.831653945282367e+000
 7.124233691873848e-001	 3.656238222951445e+000	 8.725521979635808e+000
 6.778123702384060e-001	 3.662812497343578e+000	 8.592154736130174e+000
 1.031843305638912e+000	 3.605246093207198e+000	 8.917789743268580e+000
 9.968509677335214e-001	 3.615077889630200e+000	 8.987800567433586e+000
 9.618546662704745e-001	 3.624546261385974e+000	 9.040642879867090e+000
 9.268596667103948e-001	 3.633652591837827e+000	 9.073436664132682e+000
 8.918711796614018e-001	 3.642398358063881e+000	 9.083487957343737e+000
 8.568943590090273e-001	 3.650785128904496e+000	 9.068288487765566e+000
 8.219343001176299e-001	 3.658814562972306e+000	 9.025514962576880e+000
 7.869960381038450e-001	 3.666488406627660e+000	 8.953028017026202e+000
 7.520845461825005e-001	 3.673808491922170e+000	 8.848870836770161e+000
 7.172047340853255e-001	 3.680776734513124e+000	 8.711267465679095e+000
 6.823614465526605e-001	 3.687395131551449e+000	 8.538620811840900e+000
 6.368706834322875e-001	 3.441568789449906e+000	 8.362967102053824e+000
 6.043888310856980e-001	 3.447421375580705e+000	 8.348644131148239e+000
 5.719499245828054e-001	 3.452951387398861e+000	 8.289027359872717e+000
 5.395582959415579e-001	 3.458160905057221e+000	 8.275112278431871e+000
 5.072182115723980e-001	 3.463052076687238e+000	 8.295685549356140e+000
 4.749338712109144e-001	 3.467627116341299e+000	 8.340988743707261e+000
 4.427094069178871e-001	 3.471888301924911e+000	 8.402701326136505e+000
 4.105488821462863e-001	 3.475837973121045e+000	 8.473921034366169e+000
 3.784562908747207e-001	 3.479478529308901e+000	 8.549141775601632e+000
 3.464355568067561e-001	 3.482812427479280e+000	 8.624229165034048e+000
 3.144905326354376e-001	 3.485842180148714e+000	 8.696393833771888e+000
 6.414197597421077e-001	 3.466151423662343e+000	 8.453115909329563e+000
 6.087058941651441e-001	 3.472045813979897e+000	 8.424774110887666e+000
 5.760352811877797e-001	 3.477615325882537e+000	 8.318991982951868e+000
 5.434122837709488e-001	 3.482862054381337e+000	 8.265528602190338e+000
 5.108411987994552e-001	 3.487788162951553e+000	 8.252747026497397e+000
 4.783262560070001e-001	 3.492395881460230e+000	 8.270490009306535e+000
 4.458716169690847e-001	 3.496687504083629e+000	 8.310062987126853e+000
 4.134813741633441e-001	 3.500665387216742e+000	 8.364214404724500e+000
 3.811595500968069e-001	 3.504331947377193e+000	 8.427113502525035e+000
 3.489100964994940e-001	 3.507689659105719e+000	 8.494325693542118e+000
 3.167368935836879e-001	 3.510741052865397e+000	 8.562785659380754e+000
 6.459688360524208e-001	 3.490734057874272e+000	 8.526798627558339e+000
 6.130229572449885e-001	 3.496670252378494e+000	 8.490396120164842e+000
 5.801206377930676e-001	 3.502279264365547e+000	 8.346321439005340e+000
 5.472662716005791e-001	 3.507563203704741e+000	 8.260365910728130e+000
 5.144641860266878e-001	 3.512524249215126e+000	 8.220465628942520e+000
 4.817186408032074e-001	 3.517164646578412e+000	 8.216062091192057e+000
 4.490338270203598e-001	 3.521486706241609e+000	 8.238085175629767e+000
 4.164138661804455e-001	 3.525492801311734e+000	 8.278933397417722e+000
 3.838628093189125e-001	 3.529185365444834e+000	 8.332451571551458e+000
 3.513846361922368e-001	 3.532566890731576e+000	 8.393906011618780e+000
 3.189832545319382e-001	 3.535639925581587e+000	 8.459957396311829e+000
 6.505179123632263e-001	 3.515316692085695e+000	 8.584144010001035e+000
 6.173400203252304e-001	 3.521294690776494e+000	 8.544125205890872e+000
 5.842059943986689e-001	 3.526943202847890e+000	 8.369706302447515e+000
 5.511202594304484e-001	 3.532264353027429e+000	 8.258391932631071e+000
 5.180871732540955e-001	 3.537260335477958e+000	 8.197687764050233e+000
 4.851110255995359e-001	 3.541933411695844e+000	 8.176631501500198e+000
 4.521960370717122e-001	 3.546285908398853e+000	 8.185775839462817e+000
 4.193463581975900e-001	 3.550320215406021e+000	 8.217168635257989e+000
 3.865660685410371e-001	 3.554038783511820e+000	 8.264330431731917e+000
 3.538591758849843e-001	 3.557444122356851e+000	 8.322229461253139e+000
 3.212296154801886e-001	 3.560538798297287e+000	 8.387254265165030e+000
 6.550669886745246e-001	 3.539899326296611e+000	 8.625279268513920e+000
 6.216570834058705e-001	 3.545919129173898e+000	 8.584576355623211e+000
 5.882913510045833e-001	 3.551607141329567e+000	 8.387838377684220e+000
 5.549742472605570e-001	 3.556965502349404e+000	 8.258376724310651e+000
 5.217101604816784e-001	 3.561996421740048e+000	 8.183263074615294e+000
 4.885034103959856e-001	 3.566702176812526e+000	 8.151128706567921e+000
 4.553582471231421e-001	 3.571085110555359e+000	 8.152147412026841e+000
 4.222788502147781e-001	 3.575147629499604e+000	 8.178015572190683e+000
 3.892693277631811e-001	 3.578892201578153e+000	 8.221929524598702e+000
 3.563337155777367e-001	 3.582321353981544e+000	 8.278560355770548e+000
 3.234759764284389e-001	 3.585437671012494e+000	 8.344026256024693e+000
 6.596160649863155e-001	 3.564481960507018e+000	 8.650330126700613e+000
 6.259741464869081e-001	 3.570543567570702e+000	 8.602717207537589e+000
 5.923767076108115e-001	 3.576271079810580e+000	 8.399410656699217e+000
 5.588282350909050e-001	 3.581666651670666e+000	 8.259092589733921e+000
 5.253331477094367e-001	 3.586732508001397e+000	 8.176044327301806e+000
 4.918957951925567e-001	 3.591470941928460e+000	 8.138487990580991e+000
 4.585204571746493e-001	 3.595884312711128e+000	 8.136216657630660e+000
 4.252113422320096e-001	 3.599975043592481e+000	 8.160574326703726e+000
 3.919725869853442e-001	 3.603745619643832e+000	 8.204433112010666e+000
 3.588082552704939e-001	 3.607198585605653e+000	 8.262167808407401e+000
 3.257223373766892e-001	 3.610336543727210e+000	 8.329627963994549e+000
 6.641651412985992e-001	 3.589064594716919e+000	 8.659420870879593e+000
 6.302912095683438e-001	 3.595168005966912e+000	 8.580420172918966e+000
 5.964620642173529e-001	 3.600935018290926e+000	 8.403117278383716e+000
 5.626822229214921e-001	 3.606367800991212e+000	 8.259314003452580e+000
 5.289561349373702e-001	 3.611468594262003e+000	 8.174887305661482e+000
 4.952881799892492e-001	 3.616239707043643e+000	 8.137647324825615e+000
 4.616826672262341e-001	 3.620683514866161e+000	 8.137004523172404e+000
 4.281438342492845e-001	 3.624802457684652e+000	 8.163949522082911e+000
 3.946758462075265e-001	 3.628599037708859e+000	 8.211030111073692e+000
 3.612827949632559e-001	 3.632075817229181e+000	 8.272325567930468e+000
 3.279686983249396e-001	 3.635235416441434e+000	 8.343418431491680e+000
 6.687142176113755e-001	 3.613647228926312e+000	 8.652674398971477e+000
 6.346082726501774e-001	 3.619792444362524e+000	 8.544796928620585e+000
 6.005474208242082e-001	 3.625598956770607e+000	 8.397653489525947e+000
 5.665362107523185e-001	 3.631068950311045e+000	 8.257817536773608e+000
 5.325791221654787e-001	 3.636204680521868e+000	 8.178650707518248e+000
 4.986805647860629e-001	 3.641008472158078e+000	 8.147548242277077e+000
 4.648448772778961e-001	 3.645482717020455e+000	 8.153535995874428e+000
 4.310763262666027e-001	 3.649629871776120e+000	 8.187250133187535e+000
 3.973791054297283e-001	 3.653452455773232e+000	 8.240913935798874e+000
 3.637573346560226e-001	 3.656953048852127e+000	 8.308311860966004e+000
 3.302150592731899e-001	 3.660134289155166e+000	 8.384760996977239e+000
 6.732632939246444e-001	 3.638229863135198e+000	 8.630212267404312e+000
 6.389253357324087e-001	 3.644416882757539e+000	 8.495922644693527e+000
 6.046327774313762e-001	 3.650262895249622e+000	 8.381715607382205e+000
 5.703901985833841e-001	 3.655770099630165e+000	 8.253381786922690e+000
 5.362021093937626e-001	 3.660940766780990e+000	 8.186196046513198e+000
 5.020729495829980e-001	 3.665777237271762e+000	 8.167135717272132e+000
 4.680070873296354e-001	 3.670281919174012e+000	 8.184839966785882e+000
 4.340088182839644e-001	 3.674457285866882e+000	 8.229589339437689e+000
 4.000823646519490e-001	 3.678305873836951e+000	 8.293282345180021e+000
 3.662318743487941e-001	 3.681830280474491e+000	 8.369409240720422e+000
 3.324614202214402e-001	 3.685033161868407e+000	 8.453023149819931e+000
 6.778123702384060e-001	 3.662812497343578e+000	 8.592154736130174e+000
 6.432423988150381e-001	 3.669041321151957e+000	 8.433872441266741e+000
 6.087181340388583e-001	 3.674926833727972e+000	 8.354000983755038e+000
 5.742441864146889e-001	 3.680471248948570e+000	 8.244787309060721e+000
 5.398250966222218e-001	 3.685676853039371e+000	 8.196387557614141e+000
 5.054653343800544e-001	 3.690546002384696e+000	 8.195358050027386e+000
 4.711692973814524e-001	 3.695081121326833e+000	 8.229949099781985e+000
 4.369413103013694e-001	 3.699284699956939e+000	 8.290084383721808e+000
 4.027856238741890e-001	 3.703159291900017e+000	 8.367337297389064e+000
 3.687064140415705e-001	 3.706707512096273e+000	 8.454904441793405e+000
 3.347077811696906e-001	 3.709932034581156e+000	 8.547576391003751e+000
 6.823614465526605e-001	 3.687395131551449e+000	 8.538620811840900e+000
 6.475594618980655e-001	 3.693665759545780e+000	 8.358721390211008e+000
 6.128034906466536e-001	 3.699590772205656e+000	 8.313207970508346e+000
 5.780981742462332e-001	 3.705172398266263e+000	 8.230816551018926e+000
 5.434480838508562e-001	 3.710412939297010e+000	 8.208092106404514e+000
 5.088577191772321e-001	 3.715314767496883e+000	 8.231166755776393e+000
 4.743315074333467e-001	 3.719880323478916e+000	 8.287899705802978e+000
 4.398738023188180e-001	 3.724112114046291e+000	 8.367856436947420e+000
 4.054888830964485e-001	 3.728012709962431e+000	 8.462284809803208e+000
 3.711809537343516e-001	 3.731584743717474e+000	 8.564088240797741e+000
 3.369541421179410e-001	 3.734830907293413e+000	 8.667796099407479e+000
 3.144905326354376e-001	 3.485842180148714e+000	 8.696393833771888e+000
 2.826249993720412e-001	 3.488570353274702e+000	 8.754002319374401e+000
 2.508426657390410e-001	 3.490999564173347e+000	 8.801652005949961e+000
 2.191471676259094e-001	 3.493132479441893e+000	 8.840210904017461e+000
 1.875420676063168e-001	 3.494971812888549e+000	 8.871774683687127e+000
 1.560308545165391e-001	 3.496520323470751e+000	 8.899630750017408e+000
 1.246169430937960e-001	 3.497780813243908e+000	 8.928220862580162e+000
 9.330367367343619e-002	 3.498756125322376e+000	 8.963102429834626e+000
 6.209431194385016e-002	 3.499449141854330e+000	 9.010908607760888e+000
 3.099204875794980e-002	 3.499862782012172e+000	 9.079307330711487e+000
 0.000000000000000e+000	 3.500000000000000e+000	 9.176959400629563e+000
 3.167368935836879e-001	 3.510741052865397e+000	 8.562785659380754e+000
 2.846437493679849e-001	 3.513488712942027e+000	 8.612807703086647e+000
 2.526343990658300e-001	 3.515935275346863e+000	 8.655041907733443e+000
 2.207125045373336e-001	 3.518083425724269e+000	 8.690199208275832e+000
 1.888816538031205e-001	 3.519935897266799e+000	 8.720241478989820e+000
 1.571453606197248e-001	 3.521495468638728e+000	 8.748345127710875e+000
 1.255070641153455e-001	 3.522764961910145e+000	 8.778863199066265e+000
 9.397012848486894e-002	 3.523747240503367e+000	 8.817286119772925e+000
 6.253784274303029e-002	 3.524445207153342e+000	 8.870201217918726e+000
 3.121342053454722e-002	 3.524861801883700e+000	 8.945251146639395e+000
 0.000000000000000e+000	 3.525000000000000e+000	 9.051091340770725e+000
 3.189832545319382e-001	 3.535639925581587e+000	 8.459957396311829e+000
 2.866624993639287e-001	 3.538407072608955e+000	 8.503789087834205e+000
 2.544261323926189e-001	 3.540870986520065e+000	 8.541207753552646e+000
 2.222778414487579e-001	 3.543034372006406e+000	 8.572771063362488e+000
 1.902212399999242e-001	 3.544899981644873e+000	 8.600311669922929e+000
 1.582598667229104e-001	 3.546470613806582e+000	 8.626900300723243e+000
 1.263971851368951e-001	 3.547749110576305e+000	 8.656807323308879e+000
 9.463658329630166e-002	 3.548738355684315e+000	 8.695462919271026e+000
 6.298137354221041e-002	 3.549441272452334e+000	 8.749416001439608e+000
 3.143479231114464e-002	 3.549860821755225e+000	 8.826292007203401e+000
 0.000000000000000e+000	 3.549999999999999e+000	 8.934749699027346e+000
 3.212296154801886e-001	 3.560538798297287e+000	 8.387254265165030e+000
 2.886812493598724e-001	 3.563325432275487e+000	 8.426359211296983e+000
 2.562178657194078e-001	 3.565806697692955e+000	 8.459630237281791e+000
 2.238431783601821e-001	 3.567985318288303e+000	 8.487475499513440e+000
 1.915608261967279e-001	 3.569864066022773e+000	 8.511602947773943e+000
 1.593743728260961e-001	 3.571445758974317e+000	 8.534982894030501e+000
 1.272873061584447e-001	 3.572733259242388e+000	 8.561809017934889e+000
 9.530303810773438e-002	 3.573729470865220e+000	 8.597457947217398e+000
 6.342490434139052e-002	 3.574437337751307e+000	 8.648447549998696e+000
 3.165616408774206e-002	 3.574859841626743e+000	 8.722394074510639e+000
 0.000000000000000e+000	 3.574999999999999e+000	 8.827968269841149e+000
 3.234759764284389e-001	 3.585437671012494e+000	 8.344026256024693e+000
 2.906999993558162e-001	 3.588243791941620e+000	 8.379935735208157e+000
 2.580095990461968e-001	 3.590742408865532e+000	 8.409794965470605e+000
 2.254085152716064e-001	 3.592936264569963e+000	 8.433866283990181e+000
 1.929004123935316e-001	 3.594828150400499e+000	 8.453737402671880e+000
 1.604888789292818e-001	 3.596420904141930e+000	 8.472283432532459e+000
 1.281774271799942e-001	 3.597717407908395e+000	 8.493627307700427e+000
 9.596949291916714e-002	 3.598720586046082e+000	 8.523098749873293e+000
 6.386843514057067e-002	 3.599433403050261e+000	 8.567191912894067e+000
 3.187753586433948e-002	 3.599858861498256e+000	 8.633521845565696e+000
 0.000000000000000e+000	 3.600000000000000e+000	 8.730779908919494e+000
 3.257223373766892e-001	 3.610336543727210e+000	 8.329627963994549e+000
 2.927187493517600e-001	 3.613162151607358e+000	 8.363941075558980e+000
 2.598013323729857e-001	 3.615678120037797e+000	 8.391192287941676e+000
 2.269738521830306e-001	 3.617887210851384e+000	 8.411501757734326e+000
 1.942399985903353e-001	 3.619792234778049e+000	 8.426341371903655e+000
 1.616033850324674e-001	 3.621396049309423e+000	 8.438496206572076e+000
 1.290675482015437e-001	 3.622701556574323e+000	 8.452024347693094e+000
 9.663594773059987e-002	 3.623711701226900e+000	 8.472215217170319e+000
 6.431196593975078e-002	 3.624429468349195e+000	 8.505546546783787e+000
 3.209890764093690e-002	 3.624857881369766e+000	 8.559640140722953e+000
 0.000000000000000e+000	 3.625000000000000e+000	 8.643216565605600e+000
 3.279686983249396e-001	 3.635235416441434e+000	 8.343418431491680e+000
 2.947374993477037e-001	 3.638080511272698e+000	 8.377802239782074e+000
 2.615930656997746e-001	 3.640613831209749e+000	 8.403317135349704e+000
 2.285391890944548e-001	 3.642838157132567e+000	 8.419944678734350e+000
 1.955795847871390e-001	 3.644756319155425e+000	 8.429045294462814e+000
 1.627178911356531e-001	 3.646371194476795e+000	 8.433319142982176e+000
 1.299576692230933e-001	 3.647685705240175e+000	 8.436765316128586e+000
 9.730240254203262e-002	 3.648702816407676e+000	 8.444639502447618e+000
 6.475549673893091e-002	 3.649425533648111e+000	 8.463410267488428e+000
 3.232027941753433e-002	 3.649856901241271e+000	 8.500714092613087e+000
 0.000000000000000e+000	 3.650000000000000e+000	 8.565309313917862e+000
 3.302150592731899e-001	 3.660134289155166e+000	 8.384760996977239e+000
 2.967562493436475e-001	 3.662998870937642e+000	 8.420950670579668e+000
 2.633847990265636e-001	 3.665549542381390e+000	 8.445668863370736e+000
 2.301045260058791e-001	 3.667789103413511e+000	 8.458762071786202e+000
 1.969191709839427e-001	 3.669720403532627e+000	 8.461483571536267e+000
 1.638323972388388e-001	 3.671346339644046e+000	 8.456453681395344e+000
 1.308477902446428e-001	 3.672669853905949e+000	 8.447618311523831e+000
 9.796885735346539e-002	 3.673693931588408e+000	 8.440205945465429e+000
 6.519902753811104e-002	 3.674421598947007e+000	 8.440683203761346e+000
 3.254165119413175e-002	 3.674855921112770e+000	 8.456709135521194e+000
 0.000000000000000e+000	 3.675000000000000e+000	 8.497088382323302e+000
 3.324614202214402e-001	 3.685033161868407e+000	 8.453023149819931e+000
 2.987749993395912e-001	 3.687917230602189e+000	 8.492822096083568e+000
 2.651765323533525e-001	 3.690485253552716e+000	 8.517751103208331e+000
 2.316698629173033e-001	 3.692740049694216e+000	 8.527525084344186e+000
 1.982587571807463e-001	 3.694684487909653e+000	 8.523294432646154e+000
 1.649469033420244e-001	 3.696321484811176e+000	 8.507604655568210e+000
 1.317379112661924e-001	 3.697654002571646e+000	 8.484354254037450e+000
 9.863531216489810e-002	 3.698685046769097e+000	 8.458750998539200e+000
 6.564255833729117e-002	 3.699417664245885e+000	 8.437266752932610e+000
 3.276302297072916e-002	 3.699854940984265e+000	 8.427590995195569e+000
 0.000000000000000e+000	 3.699999999999999e+000	 8.438583182303530e+000
 3.347077811696906e-001	 3.709932034581156e+000	 8.547576391003751e+000
 3.007937493355350e-001	 3.712835590266338e+000	 8.592856386048704e+000
 2.669682656801414e-001	 3.715420964723729e+000	 8.619071618119401e+000
 2.332351998287276e-001	 3.717690995974684e+000	 8.625808848176856e+000
 1.995983433775501e-001	 3.719648572286506e+000	 8.614119807182124e+000
 1.660614094452101e-001	 3.721296629978185e+000	 8.586480179484564e+000
 1.326280322877419e-001	 3.722638151237267e+000	 8.546746790784253e+000
 9.930176697633084e-002	 3.723676161949741e+000	 8.500113155648878e+000
 6.608608913647129e-002	 3.724413729544744e+000	 8.453063538339666e+000
 3.298439474732658e-002	 3.724853960855755e+000	 8.413325679067384e+000
 0.000000000000000e+000	 3.724999999999999e+000	 8.389822335769919e+000
 3.369541421179410e-001	 3.734830907293413e+000	 8.667796099407479e+000
 3.028124993314788e-001	 3.737753949930092e+000	 8.720497413799073e+000
 2.687599990069305e-001	 3.740356675894433e+000	 8.749142165679082e+000
 2.348005367401518e-001	 3.742641942254912e+000	 8.753192346556475e+000
 2.009379295743538e-001	 3.744612656663184e+000	 8.733605201072690e+000
 1.671759155483958e-001	 3.746271775145075e+000	 8.692791538014552e+000
 1.335181533092915e-001	 3.747622299902811e+000	 8.634572204936656e+000
 9.996822178776361e-002	 3.748667277130346e+000	 8.564132884382783e+000
 6.652961993565144e-002	 3.749409794843583e+000	 8.487977368459896e+000
 3.320576652392401e-002	 3.749852980727242e+000	 8.413879466861031e+000
 0.000000000000000e+000	 3.750000000000000e+000	 8.350833701382898e+000
 3.750000000000000e+000	 0.000000000000000e+000	 1.070556123279200e+001
 3.749852980727241e+000	 3.320576652392414e-002	 1.062495655442789e+001
 3.749409794843583e+000	 6.652961993565168e-002	 1.058158622313862e+001
 3.748667277130346e+000	 9.996822178776336e-002	 1.056990448772413e+001
 3.747622299902811e+000	 1.335181533092914e-001	 1.058421097131749e+001
 3.746271775145075e+000	 1.671759155483958e-001	 1.061866378355669e+001
 3.744612656663185e+000	 2.009379295743539e-001	 1.066729344791412e+001
 3.742641942254912e+000	 2.348005367401521e-001	 1.072401763932305e+001
 3.740356675894433e+000	 2.687599990069302e-001	 1.078265672474952e+001
 3.737753949930092e+000	 3.028124993314787e-001	 1.083695009678513e+001
 3.734830907293414e+000	 3.369541421179410e-001	 1.088057328768238e+001
 3.775000000000000e+000	 0.000000000000000e+000	 1.069145108880196e+001
 3.774852000598727e+000	 3.342713830051917e-002	 1.061080237672482e+001
 3.774405860142423e+000	 6.697315073482224e-002	 1.056619223482286e+001
 3.773658392310948e+000	 1.006346765991745e-001	 1.055214484407521e+001
 3.772606448568355e+000	 1.344082743308024e-001	 1.056305565709096e+001
 3.771246920311963e+000	 1.682904216515211e-001	 1.059318656631103e+001
 3.769576741039862e+000	 2.022775157710703e-001	 1.063666091893138e+001
 3.767592888535142e+000	 2.363658736514571e-001	 1.068745838682276e+001
 3.765292387065134e+000	 2.705517323335629e-001	 1.073940970077298e+001
 3.762672309593844e+000	 3.048312493272240e-001	 1.078619125945644e+001
 3.759729780005671e+000	 3.392005030659454e-001	 1.082131962462985e+001
 3.800000000000000e+000	 0.000000000000000e+000	 1.067661281151444e+001
 3.799851020470218e+000	 3.364851007710944e-002	 1.059656867935217e+001
 3.799401925441280e+000	 6.741668153397368e-002	 1.055132171774059e+001
 3.798649507491594e+000	 1.013011314105425e-001	 1.053554289164941e+001
 3.797590597233974e+000	 1.352983953522363e-001	 1.054377827392936e+001
 3.796222065478973e+000	 1.694049277545255e-001	 1.057044401915301e+001
 3.794540825416714e+000	 2.036171019676120e-001	 1.060982117109585e+001
 3.792543834815608e+000	 2.379312105625235e-001	 1.065605031215460e+001
 3.790228098236149e+000	 2.723434656598830e-001	 1.070312606409319e+001
 3.787590669257994e+000	 3.068499993225723e-001	 1.074489145061718e+001
 3.784628652718419e+000	 3.414468640134583e-001	 1.077503213341140e+001
 3.824999999999999e+000	 0.000000000000000e+000	 1.066174713413789e+001
 3.824850040341712e+000	 3.386988185369495e-002	 1.058289789043994e+001
 3.824397990740157e+000	 6.786021233310595e-002	 1.053761245089547e+001
 3.823640622672282e+000	 1.019675862218672e-001	 1.052071075657519e+001
 3.822574745899673e+000	 1.361885163735932e-001	 1.052689173241226e+001
 3.821197210646104e+000	 1.705194338574090e-001	 1.055072806363076e+001
 3.819504909793741e+000	 2.049566881639791e-001	 1.058666079255679e+001
 3.817494781096314e+000	 2.394965474733515e-001	 1.062899374413759e+001
 3.815163809407477e+000	 2.741351989858904e-001	 1.067188778962087e+001
 3.812509028922540e+000	 3.088687493175237e-001	 1.070935495899524e+001
 3.809527525431660e+000	 3.436932249604792e-001	 1.073525241396450e+001
 3.850000000000000e+000	 0.000000000000000e+000	 1.064753658901801e+001
 3.849849060213212e+000	 3.409125363027569e-002	 1.057035471950029e+001
 3.849394056039055e+000	 6.830374313221913e-002	 1.052551072747367e+001
 3.848631737853014e+000	 1.026340410331487e-001	 1.050797577572792e+001
 3.847558894565447e+000	 1.370786373948730e-001	 1.051260392787533e+001
 3.846172355813355e+000	 1.716339399601717e-001	 1.053412672428407e+001
 3.844468994170942e+000	 2.062962743601716e-001	 1.056714756496041e+001
 3.842445727377257e+000	 2.410618843839409e-001	 1.060613590773469e+001
 3.840099520579115e+000	 2.759269323115853e-001	 1.064542129126653e+001
 3.837427388587484e+000	 3.108874993120782e-001	 1.067918719357246e+001
 3.834426398145392e+000	 3.459395859070087e-001	 1.070146473798939e+001
 3.875000000000000e+000	 0.000000000000000e+000	 1.063464609476286e+001
 3.874848080084717e+000	 3.431262540685167e-002	 1.055948764744889e+001
 3.874390121337971e+000	 6.874727393131318e-002	 1.051544800706062e+001
 3.873622853033790e+000	 1.033004958443871e-001	 1.049765185681387e+001
 3.872543043231299e+000	 1.379687584160757e-001	 1.050111073992192e+001
 3.871147500980726e+000	 1.727484460628136e-001	 1.052071743191995e+001
 3.869433078548318e+000	 2.076358605561895e-001	 1.055124010632733e+001
 3.867396673658440e+000	 2.426272212942919e-001	 1.058731630203141e+001
 3.865035231751068e+000	 2.777186656369676e-001	 1.062344670197383e+001
 3.862345748252824e+000	 3.129062493062356e-001	 1.065398873394710e+001
 3.859325270859617e+000	 3.481859468530463e-001	 1.067315000555686e+001
 3.900000000000000e+000	 0.000000000000000e+000	 1.062372352078522e+001
 3.899847099956226e+000	 3.453399718342289e-002	 1.055082944675207e+001
 3.899386186636904e+000	 6.919080473038806e-002	 1.050784139107674e+001
 3.898613968214608e+000	 1.039669506555822e-001	 1.049003990879239e+001
 3.897527191897228e+000	 1.388588794372014e-001	 1.049259641754299e+001
 3.896122646148219e+000	 1.738629521653345e-001	 1.051056736315554e+001
 3.894397162925869e+000	 2.089754467520327e-001	 1.053888816475867e+001
 3.892347619939861e+000	 2.441925582044043e-001	 1.057236694786010e+001
 3.889970942923333e+000	 2.795103989620373e-001	 1.060567807503285e+001
 3.887264107918563e+000	 3.149249992999961e-001	 1.063335548512178e+001
 3.884224143574332e+000	 3.504323077985923e-001	 1.064978585317325e+001
 3.924999999999999e+000	 0.000000000000000e+000	 1.061540023027093e+001
 3.924846119827740e+000	 3.475536895998933e-002	 1.054489768169595e+001
 3.924382251935859e+000	 6.963433552944384e-002	 1.050309408004386e+001
 3.923605083395470e+000	 1.046334054667341e-001	 1.048542825584859e+001
 3.922511340563233e+000	 1.397490004582499e-001	 1.048723394951876e+001
 3.921097791315832e+000	 1.749774582677347e-001	 1.050373376698484e+001
 3.919361247303594e+000	 2.103150329477013e-001	 1.053003290091750e+001
 3.917298566221521e+000	 2.457578951142783e-001	 1.056111262596103e+001
 3.914906654095910e+000	 2.813021322867944e-001	 1.059182357769950e+001
 3.912182467584696e+000	 3.169437492933596e-001	 1.061687882637597e+001
 3.909123016289540e+000	 3.526786687436464e-001	 1.063084675771561e+001
 3.949999999999999e+000	 0.000000000000000e+000	 1.061029160252762e+001
 3.949845139699260e+000	 3.497674073655101e-002	 1.054219518965783e+001
 3.949378317234833e+000	 7.007786632848050e-002	 1.050159581348724e+001
 3.948596198576375e+000	 1.052998602778429e-001	 1.048409303564588e+001
 3.947495489229316e+000	 1.406391214792214e-001	 1.048518542075443e+001
 3.946072936483568e+000	 1.760919643700140e-001	 1.050026427894353e+001
 3.944325331681494e+000	 2.116546191431953e-001	 1.052460715978329e+001
 3.942249512503419e+000	 2.473232320239136e-001	 1.055337110609916e+001
 3.939842365268800e+000	 2.830938656112390e-001	 1.058158567746244e+001
 3.937100827251228e+000	 3.189624992863262e-001	 1.060414575448504e+001
 3.934021889005238e+000	 3.549250296882090e-001	 1.061580413642003e+001
 3.974999999999999e+000	 0.000000000000000e+000	 1.060899753562260e+001
 3.974844159570782e+000	 3.519811251310792e-002	 1.054321054421686e+001
 3.974374382533824e+000	 7.052139712749800e-002	 1.050372329323728e+001
 3.973587313757323e+000	 1.059663150889084e-001	 1.048629858254972e+001
 3.972479637895477e+000	 1.415292425001158e-001	 1.048660235516941e+001
 3.971048081651422e+000	 1.772064704721724e-001	 1.050019722341957e+001
 3.969289416059570e+000	 2.129942053385146e-001	 1.052253573215135e+001
 3.967200458785555e+000	 2.488885689333105e-001	 1.054895336753499e+001
 3.964778076442002e+000	 2.848855989353709e-001	 1.057466132128115e+001
 3.962019186918155e+000	 3.209812492788958e-001	 1.059473902153496e+001
 3.958920761721430e+000	 3.571713906322798e-001	 1.060412644309671e+001
 4.000000000000000e+000	 0.000000000000000e+000	 1.061210293017143e+001
 3.999843179442312e+000	 3.541948428966008e-002	 1.054841850089717e+001
 3.999370447832837e+000	 7.096492792649639e-002	 1.050984059085737e+001
 3.998578428938315e+000	 1.066327698999308e-001	 1.049229779648083e+001
 3.997463786561714e+000	 1.424193635209332e-001	 1.049162604572810e+001
 3.996023226819399e+000	 1.783209765742101e-001	 1.050356190462611e+001
 3.994253500437819e+000	 2.143337915336594e-001	 1.052373560632613e+001
 3.992151405067931e+000	 2.504539058424689e-001	 1.054766381122795e+001
 3.989713787615519e+000	 2.866773322591902e-001	 1.057074210810237e+001
 3.986937546585482e+000	 3.229999992710685e-001	 1.058823726756876e+001
 3.983819634438112e+000	 3.594177515758590e-001	 1.059527926073717e+001
 3.734830907293414e+000	 3.369541421179410e-001	 1.088057328768238e+001
 3.731584743717474e+000	 3.711809537343518e-001	 1.088056576258597e+001
 3.728012709962431e+000	 4.054888830964487e-001	 1.085103442109238e+001
 3.724112114046291e+000	 4.398738023188177e-001	 1.078587308171052e+001
 3.719880323478916e+000	 4.743315074333465e-001	 1.067899852979773e+001
 3.715314767496883e+000	 5.088577191772322e-001	 1.052437118807785e+001
 3.710412939297010e+000	 5.434480838508564e-001	 1.031601641842470e+001
 3.705172398266262e+000	 5.780981742462336e-001	 1.004804642192511e+001
 3.699590772205656e+000	 6.128034906466535e-001	 9.714682701262039e+000
 3.693665759545779e+000	 6.475594618980652e-001	 1.027724977302258e+001
 3.687395131551449e+000	 6.823614465526605e-001	 1.132791257568993e+001
 3.759729780005671e+000	 3.392005030659454e-001	 1.082131962462985e+001
 3.756461975338673e+000	 3.736554934268418e-001	 1.082064930350228e+001
 3.752866128024844e+000	 4.081921423183813e-001	 1.078947400860736e+001
 3.748939528135643e+000	 4.428062943359137e-001	 1.072183136742671e+001
 3.744679525630999e+000	 4.774937174848721e-001	 1.061294554756741e+001
 3.740083532609068e+000	 5.122501039740349e-001	 1.045471680947341e+001
 3.735149025554648e+000	 5.470710710791199e-001	 1.024098429978091e+001
 3.729873547583952e+000	 5.819521620774205e-001	 9.965675287014644e+000
 3.724254710683340e+000	 6.168888472541159e-001	 9.622828133028666e+000
 3.718290197939601e+000	 6.518765249807942e-001	 1.028074234266994e+001
 3.711977765759320e+000	 6.869105228666610e-001	 1.123237454361851e+001
 3.784628652718419e+000	 3.414468640134583e-001	 1.077503213341140e+001
 3.781339206960455e+000	 3.761300331187450e-001	 1.077793064154879e+001
 3.777719546087910e+000	 4.108954015396414e-001	 1.075138831480214e+001
 3.773766942225699e+000	 4.457387863522611e-001	 1.068884042354647e+001
 3.769478727783819e+000	 4.806559275355832e-001	 1.058354981028819e+001
 3.764852297722004e+000	 5.156424887699671e-001	 1.042860064848320e+001
 3.759885111813030e+000	 5.506940583064662e-001	 1.021689215682380e+001
 3.754574696902358e+000	 5.858061499076545e-001	 9.941132288566307e+000
 3.748918649161690e+000	 6.209742038605992e-001	 9.594672874473137e+000
 3.742914636334020e+000	 6.561935880625283e-001	 1.032444286784481e+001
 3.736560399967698e+000	 6.914595991796617e-001	 1.117683648449381e+001
 3.809527525431660e+000	 3.436932249604792e-001	 1.073525241396450e+001
 3.806216438582819e+000	 3.786045728100612e-001	 1.074177081101307e+001
 3.802572964151630e+000	 4.135986607602288e-001	 1.071993269806569e+001
 3.798594356316461e+000	 4.486712783678600e-001	 1.066332975791773e+001
 3.794277929937377e+000	 4.838181375854795e-001	 1.056538160910146e+001
 3.789621062835688e+000	 5.190348735650283e-001	 1.041932924050970e+001
 3.784621198072152e+000	 5.543170455328953e-001	 1.021822839138673e+001
 3.779275846221477e+000	 5.896601377369352e-001	 9.954942896719068e+000
 3.773582587640705e+000	 6.250595604661032e-001	 9.624093807141628e+000
 3.767539074729034e+000	 6.605106511432674e-001	 1.040560791220179e+001
 3.761143034176585e+000	 6.960086754916621e-001	 1.116225976309524e+001
 3.834426398145392e+000	 3.459395859070087e-001	 1.070146473798939e+001
 3.831093670205765e+000	 3.810791125007904e-001	 1.071154694742938e+001
 3.827426382216002e+000	 4.163019199801439e-001	 1.069437736865096e+001
 3.823421770407928e+000	 4.516037703827104e-001	 1.064370677189121e+001
 3.819077132091671e+000	 4.869803476345613e-001	 1.055311423798609e+001
 3.814389827950121e+000	 5.224272583592186e-001	 1.041600026408114e+001
 3.809357284332017e+000	 5.579400327584075e-001	 1.022557980445771e+001
 3.803976995541309e+000	 5.935141255652625e-001	 9.974875266972250e+000
 3.798246526120385e+000	 6.291449170706281e-001	 9.780009460311874e+000
 3.792163513124647e+000	 6.648277142230117e-001	 1.047786273716092e+001
 3.785725668385978e+000	 7.005577518026629e-001	 1.115144154088923e+001
 3.859325270859617e+000	 3.481859468530463e-001	 1.067315000555686e+001
 3.855970901829293e+000	 3.835536521909328e-001	 1.068663391499315e+001
 3.852279800281028e+000	 4.190051791993862e-001	 1.067399136528944e+001
 3.848249184500101e+000	 4.545362623968124e-001	 1.062913494947942e+001
 3.843876334246703e+000	 4.901425576828284e-001	 1.054580595796938e+001
 3.839158593065305e+000	 5.258196431525382e-001	 1.041756715056372e+001
 3.834093370592623e+000	 5.615630199830025e-001	 1.023779545320027e+001
 3.828678144861857e+000	 5.973681133926371e-001	 9.999674600365797e+000
 3.822910464600732e+000	 6.332302736741742e-001	 9.916734627783107e+000
 3.816787951520856e+000	 6.691447773017615e-001	 1.053430760679556e+001
 3.810308302595879e+000	 7.051068281126635e-001	 1.112816450490090e+001
 3.884224143574332e+000	 3.504323077985923e-001	 1.064978585317325e+001
 3.880848133453403e+000	 3.860281918804883e-001	 1.066640437936022e+001
 3.877133218346707e+000	 4.217084384179560e-001	 1.065804259273994e+001
 3.873076598592977e+000	 4.574687544101659e-001	 1.061877770440216e+001
 3.868675536402474e+000	 4.933047677302810e-001	 1.054251602214427e+001
 3.863927358181238e+000	 5.292120279449866e-001	 1.042298538398495e+001
 3.858829456853972e+000	 5.651860072066807e-001	 1.025372750582661e+001
 3.853379294183119e+000	 6.012221012190580e-001	 1.002809026471571e+001
 3.847574403081743e+000	 6.373156302767409e-001	 1.003462618148429e+001
 3.841412389917662e+000	 6.734618403795164e-001	 1.057528892212744e+001
 3.834890936806286e+000	 7.096559044216639e-001	 1.109276444332378e+001
 3.909123016289540e+000	 3.526786687436464e-001	 1.063084675771561e+001
 3.905725365078095e+000	 3.885027315694568e-001	 1.065022887766411e+001
 3.901986636413041e+000	 4.244116976358535e-001	 1.064579785790247e+001
 3.897904012686559e+000	 4.604012464227708e-001	 1.061179838232522e+001
 3.893474738558979e+000	 4.964669777769188e-001	 1.054230464407476e+001
 3.888696123297920e+000	 5.326044127365643e-001	 1.043121243566243e+001
 3.883565543116061e+000	 5.688089944294416e-001	 1.027223114251965e+001
 3.878080443505094e+000	 6.050760890445258e-001	 1.005887566191403e+001
 3.872238341563422e+000	 6.414009868783283e-001	 1.013404604650816e+001
 3.866036828315065e+000	 6.777789034562765e-001	 1.060115915296656e+001
 3.859473571017202e+000	 7.142049807296647e-001	 1.104558422484997e+001
 3.934021889005238e+000	 3.549250296882090e-001	 1.061580413642003e+001
 3.930602596703371e+000	 3.909772712578384e-001	 1.063747588587431e+001
 3.926840054480028e+000	 4.271149568530782e-001	 1.063652290456052e+001
 3.922731426780846e+000	 4.633337384346273e-001	 1.060736026301395e+001
 3.918273940716221e+000	 4.996291878227420e-001	 1.054423296740137e+001
 3.913464888415352e+000	 5.359967975272711e-001	 1.044120770131483e+001
 3.908301629378892e+000	 5.724319816512853e-001	 1.029216446011750e+001
 3.902781592827783e+000	 6.089300768690403e-001	 1.009078810026838e+001
 3.896902280045765e+000	 6.454863434789369e-001	 1.021536104120090e+001
 3.890661266713064e+000	 6.820959665320419e-001	 1.061227664586109e+001
 3.884056205228624e+000	 7.187540570366653e-001	 1.098697357460375e+001
 3.958920761721430e+000	 3.571713906322798e-001	 1.060412644309671e+001
 3.955479828329226e+000	 3.934518109456330e-001	 1.062751188361283e+001
 3.951693472547667e+000	 4.298182160696303e-001	 1.062948244681241e+001
 3.947558840875840e+000	 4.662662304457353e-001	 1.060462656240563e+001
 3.943073142874203e+000	 5.027913978677507e-001	 1.054736303659344e+001
 3.938233653533534e+000	 5.393891823171072e-001	 1.045193244054622e+001
 3.933037715642466e+000	 5.760549688722120e-001	 1.031238838039477e+001
 3.927482742151185e+000	 6.127840646926016e-001	 1.012258867165856e+001
 3.921566218528775e+000	 6.495717000785660e-001	 1.027894272328636e+001
 3.915285705111661e+000	 6.864130296068124e-001	 1.060900543929408e+001
 3.908638839440555e+000	 7.233031333426659e-001	 1.091728885853048e+001
 3.983819634438112e+000	 3.594177515758590e-001	 1.059527926073717e+001
 3.980357059955668e+000	 3.959263506328409e-001	 1.061970141653987e+001
 3.976546890615960e+000	 4.325214752855101e-001	 1.062394020124903e+001
 3.972386254971537e+000	 4.691987224560948e-001	 1.060276043460411e+001
 3.967872345032922e+000	 5.059536079119448e-001	 1.055075776879816e+001
 3.963002418652467e+000	 5.427815671060725e-001	 1.046234971859960e+001
 3.957773801906783e+000	 5.796779560922217e-001	 1.033176656178328e+001
 3.952183891475304e+000	 6.166380525152101e-001	 1.015304213330009e+001
 3.946230157012450e+000	 6.536570566772162e-001	 1.032516724176037e+001
 3.939910143510855e+000	 6.907300926805884e-001	 1.059171508581070e+001
 3.933221473652993e+000	 7.278522096476667e-001	 1.083689287587090e+001
 3.687395131551449e+000	 6.823614465526605e-001	 1.132791257568993e+001
 3.680776734513125e+000	 7.172047340853256e-001	 1.121728662194831e+001
 3.673808491922170e+000	 7.520845461825008e-001	 1.111357201977891e+001
 3.666488406627660e+000	 7.869960381038449e-001	 1.101832027423036e+001
 3.658814562972306e+000	 8.219343001176298e-001	 1.093299856702299e+001
 3.650785128904496e+000	 8.568943590090273e-001	 1.085898059821733e+001
 3.642398358063882e+000	 8.918711796614021e-001	 1.079753737437395e+001
 3.633652591837826e+000	 9.268596667103950e-001	 1.074982796685037e+001
 3.624546261385975e+000	 9.618546662704742e-001	 1.071689026476062e+001
 3.615077889630201e+000	 9.968509677335213e-001	 1.069963174794869e+001
 3.605246093207198e+000	 1.031843305638912e+000	 1.069882030609403e+001
 3.711977765759320e+000	 6.869105228666610e-001	 1.123237454361851e+001
 3.705315246074803e+000	 7.219860989830625e-001	 1.112579041981516e+001
 3.698300548533930e+000	 7.570984431609740e-001	 1.102700797573961e+001
 3.690931662671435e+000	 7.922426783617844e-001	 1.093765088211975e+001
 3.683206660058982e+000	 8.274138621222201e-001	 1.085925655493220e+001
 3.675123696431280e+000	 8.626069880726867e-001	 1.079326676501726e+001
 3.666681013785578e+000	 8.978169875291034e-001	 1.074101819246485e+001
 3.657876942451824e+000	 9.330387311580154e-001	 1.070373294995546e+001
 3.648709903130721e+000	 9.682670307146521e-001	 1.068250910014060e+001
 3.639178408896959e+000	 1.003496640853508e+000	 1.067831119299296e+001
 3.629281067164810e+000	 1.038722261010886e+000	 1.069196084984041e+001
 3.736560399967698e+000	 6.914595991796617e-001	 1.117683648449381e+001
 3.729853757636888e+000	 7.267674638798090e-001	 1.107136196525048e+001
 3.722792605145995e+000	 7.621123401384855e-001	 1.097462197641587e+001
 3.715374918715418e+000	 7.974893186188110e-001	 1.088831536840164e+001
 3.707598757145765e+000	 8.328934241259659e-001	 1.081405278373438e+001
 3.699462263958071e+000	 8.683196171355897e-001	 1.075334702975341e+001
 3.690963669507182e+000	 9.037627953961568e-001	 1.070760339429795e+001
 3.682101293065626e+000	 9.392177956051155e-001	 1.067810992911602e+001
 3.672873544875174e+000	 9.746793951584587e-001	 1.066602772664795e+001
 3.663278928163325e+000	 1.010142313973292e+000	 1.067238121670260e+001
 3.653316041121927e+000	 1.045601216382847e+000	 1.069804851034772e+001
 3.761143034176585e+000	 6.960086754916621e-001	 1.116225976309524e+001
 3.754392269199381e+000	 7.315488287755653e-001	 1.105474291143376e+001
 3.747284661758370e+000	 7.671262371150364e-001	 1.095520391765954e+001
 3.739818174759607e+000	 8.027359588749251e-001	 1.086907572351050e+001
 3.731990854232656e+000	 8.383729861288674e-001	 1.079612178483996e+001
 3.723800831484869e+000	 8.740322461977362e-001	 1.073792893567932e+001
 3.715246325228692e+000	 9.097086032625616e-001	 1.069597403008862e+001
 3.706325643679236e+000	 9.453968600516960e-001	 1.067161398061997e+001
 3.697037186619333e+000	 9.810917596018941e-001	 1.066607578944842e+001
 3.687379447429296e+000	 1.016787987092874e+000	 1.068044659928639e+001
 3.677351015078551e+000	 1.052480171754797e+000	 1.071566379201995e+001
 3.785725668385978e+000	 7.005577518026629e-001	 1.115144154088923e+001
 3.778930780762281e+000	 7.363301936703310e-001	 1.105430987725560e+001
 3.771776718371052e+000	 7.721401340906254e-001	 1.096266974543542e+001
 3.764261430804003e+000	 8.079825991301263e-001	 1.087890715246178e+001
 3.756382951319652e+000	 8.438525481309243e-001	 1.080551289798580e+001
 3.748139399011674e+000	 8.797448752591266e-001	 1.074572640655632e+001
 3.739528980950109e+000	 9.156544111283187e-001	 1.070481725274542e+001
 3.730549994292652e+000	 9.515759244977564e-001	 1.068290600848440e+001
 3.721200828363199e+000	 9.875041240449581e-001	 1.068128848946440e+001
 3.711479966694873e+000	 1.023433660212254e+000	 1.070111740786927e+001
 3.701385989034681e+000	 1.059359127126733e+000	 1.074339222060931e+001
 3.810308302595879e+000	 7.051068281126635e-001	 1.112816450490090e+001
 3.803469292325589e+000	 7.411115585641065e-001	 1.104214433416197e+001
 3.796268774984041e+000	 7.771540310652531e-001	 1.096086144434044e+001
 3.788704686848607e+000	 8.132292393844147e-001	 1.088663612399206e+001
 3.780775048406756e+000	 8.493321101321366e-001	 1.082189497875138e+001
 3.772477966538485e+000	 8.854575043197607e-001	 1.076917532908921e+001
 3.763811636671433e+000	 9.216002189934274e-001	 1.073112954701437e+001
 3.754774344905874e+000	 9.577549889432973e-001	 1.071052931525200e+001
 3.745364470106770e+000	 9.939164884876511e-001	 1.071030640415697e+001
 3.735580485960059e+000	 1.030079333331432e+000	 1.073300882594670e+001
 3.725420962990317e+000	 1.066238082498657e+000	 1.077982418123736e+001
 3.834890936806286e+000	 7.096559044216639e-001	 1.109276444332378e+001
 3.828007803889303e+000	 7.458929234568915e-001	 1.101862117117937e+001
 3.820760831597337e+000	 7.821679280389193e-001	 1.094843946081918e+001
 3.813147942893418e+000	 8.184758796377905e-001	 1.088447231578933e+001
 3.805167145493967e+000	 8.548116721325045e-001	 1.082908059928693e+001
 3.796816534065303e+000	 8.911701333796380e-001	 1.078473762401511e+001
 3.788094292392663e+000	 9.275460268578878e-001	 1.075403368250871e+001
 3.778998695518902e+000	 9.639340533883180e-001	 1.073968050103183e+001
 3.769528111850048e+000	 1.000328852929973e+000	 1.074451559968816e+001
 3.759681005224847e+000	 1.036725006450407e+000	 1.077150654097081e+001
 3.749455936945461e+000	 1.073117037870568e+000	 1.082355476264594e+001
 3.859473571017202e+000	 7.142049807296647e-001	 1.104558422484997e+001
 3.852546315453426e+000	 7.506742883486862e-001	 1.098412209486653e+001
 3.845252888210939e+000	 7.871818250116243e-001	 1.092582392549413e+001
 3.837591198938435e+000	 8.237225198902530e-001	 1.087287384215883e+001
 3.829559242581285e+000	 8.602912341320280e-001	 1.082756539068883e+001
 3.821155101592128e+000	 8.968827624387593e-001	 1.079230632238398e+001
 3.812376948113800e+000	 9.334918347217001e-001	 1.076962332111691e+001
 3.803223046131738e+000	 9.701131178328188e-001	 1.076216665512838e+001
 3.793691753593033e+000	 1.006741217371923e+000	 1.077271473570439e+001
 3.783781524489245e+000	 1.043370679569180e+000	 1.080417856449020e+001
 3.773490910900110e+000	 1.079995993242467e+000	 1.085960605081657e+001
 3.884056205228624e+000	 7.187540570366653e-001	 1.098697357460375e+001
 3.877084827017956e+000	 7.554556532394905e-001	 1.093903541356961e+001
 3.869744944824850e+000	 7.921957219833682e-001	 1.089344131801935e+001
 3.862034454983661e+000	 8.289691601418032e-001	 1.085230491569217e+001
 3.853951339668710e+000	 8.657707961307067e-001	 1.081785083372808e+001
 3.845493669118960e+000	 9.025953914971242e-001	 1.079241968210136e+001
 3.836659603834844e+000	 9.394376425848642e-001	 1.077847298068102e+001
 3.827447396744379e+000	 9.762921822767998e-001	 1.077859801213698e+001
 3.817855395335724e+000	 1.013153581813502e+000	 1.079551258241784e+001
 3.807882043753248e+000	 1.050016352687751e+000	 1.083206967007893e+001
 3.797525884854265e+000	 1.086874948614353e+000	 1.089126194534270e+001
 3.908638839440555e+000	 7.233031333426659e-001	 1.091728885853048e+001
 3.901623338582893e+000	 7.602370181293046e-001	 1.088375582981891e+001
 3.894237001439066e+000	 7.972096189541506e-001	 1.085172426742509e+001
 3.886477711029093e+000	 8.342158003924406e-001	 1.082323565549707e+001
 3.878343436756242e+000	 8.712503581285412e-001	 1.080044407489829e+001
 3.869832236645799e+000	 9.083080205547327e-001	 1.078562138818740e+001
 3.860942259555794e+000	 9.453834504473802e-001	 1.078116236985502e+001
 3.851671747356828e+000	 9.824712467202609e-001	 1.078958976358674e+001
 3.842019037078121e+000	 1.019565946254710e+000	 1.081355924780994e+001
 3.831982563016857e+000	 1.056662025806120e+000	 1.085586429031932e+001
 3.821560858807927e+000	 1.093753903986227e+000	 1.091944087236345e+001
 3.933221473652993e+000	 7.278522096476667e-001	 1.083689287587090e+001
 3.926161850148238e+000	 7.650183830181283e-001	 1.081868424051060e+001
 3.918729058053593e+000	 8.022235159239719e-001	 1.080111135995013e+001
 3.910920967074733e+000	 8.394624406421654e-001	 1.078614190261893e+001
 3.902735533843881e+000	 8.767299201255313e-001	 1.077585774936190e+001
 3.894170804172645e+000	 9.140206496115850e-001	 1.077246038317960e+001
 3.885224915276652e+000	 9.513292583092481e-001	 1.077827622589182e+001
 3.875896097969084e+000	 9.886503111632025e-001	 1.079576190303638e+001
 3.866182678820226e+000	 1.025978310695547e+000	 1.082750941778731e+001
 3.856083082280073e+000	 1.063307698924287e+000	 1.087625121419528e+001
 3.845595832761096e+000	 1.100632859358089e+000	 1.094486510962674e+001
 3.605246093207198e+000	 1.031843305638912e+000	 1.069882030609403e+001
 3.595049584380677e+000	 1.066826361614633e+000	 1.072352057295911e+001
 3.584487172911277e+000	 1.101794766387843e+000	 1.075361818956531e+001
 3.573557767880753e+000	 1.136743101864962e+000	 1.078850808974160e+001
 3.562260379467235e+000	 1.171665903280343e+000	 1.082740838014771e+001
 3.550594120669679e+000	 1.206557661411701e+000	 1.086935269645829e+001
 3.538558208978485e+000	 1.241412824861386e+000	 1.091318279149723e+001
 3.526151967989605e+000	 1.276225802402121e+000	 1.092647524299292e+001
 3.513374828959480e+000	 1.310990965385763e+000	 1.092608788944643e+001
 3.500226332298183e+000	 1.345702650213483e+000	 1.092257900662789e+001
 3.486706128998200e+000	 1.380355160865667e+000	 1.091695858806483e+001
 3.629281067164810e+000	 1.038722261010886e+000	 1.069196084984041e+001
 3.619016581613070e+000	 1.073938537359064e+000	 1.071311472602025e+001
 3.608383754067449e+000	 1.109140064830154e+000	 1.074150585868956e+001
 3.597381486336913e+000	 1.144321389209950e+000	 1.077652375720200e+001
 3.586008782000778e+000	 1.179477009301036e+000	 1.081737585796638e+001
 3.574264748144659e+000	 1.214601379152982e+000	 1.086307969286127e+001
 3.562148597042228e+000	 1.249688910358818e+000	 1.091245529588703e+001
 3.549659647780074e+000	 1.284733974416420e+000	 1.092558881948264e+001
 3.536797327823013e+000	 1.319730905153324e+000	 1.093326507468724e+001
 3.523561174517189e+000	 1.354674001213380e+000	 1.093666946812775e+001
 3.509950836528365e+000	 1.389557528603505e+000	 1.093673693037686e+001
 3.653316041121927e+000	 1.045601216382847e+000	 1.069804851034772e+001
 3.642983578844875e+000	 1.081050713103668e+000	 1.071219276724926e+001
 3.632280335222947e+000	 1.116485363272793e+000	 1.073547718937315e+001
 3.621205204792322e+000	 1.151899676555394e+000	 1.076728885445092e+001
 3.609757184533504e+000	 1.187288115322284e+000	 1.080682745897394e+001
 3.597935375618768e+000	 1.222645096894885e+000	 1.085309729358885e+001
 3.585738985105053e+000	 1.257964995856909e+000	 1.089839922131153e+001
 3.573167327569588e+000	 1.293242146431385e+000	 1.091906291091257e+001
 3.560219826685567e+000	 1.328470844921530e+000	 1.093349173690497e+001
 3.546896016735199e+000	 1.363645352213865e+000	 1.094248373751792e+001
 3.533195544057530e+000	 1.398759896341848e+000	 1.094689925624506e+001
 3.677351015078551e+000	 1.052480171754797e+000	 1.071566379201995e+001
 3.666950576076089e+000	 1.088162888848445e+000	 1.071933287459344e+001
 3.656176916377769e+000	 1.123830661715762e+000	 1.073410882558087e+001
 3.645028923246980e+000	 1.159477963901295e+000	 1.075937929734724e+001
 3.633505587065415e+000	 1.195099221344086e+000	 1.079433918949283e+001
 3.621606003092005e+000	 1.230688814637408e+000	 1.083798242594712e+001
 3.609329373166961e+000	 1.266241081355659e+000	 1.087997351418455e+001
 3.596675007358150e+000	 1.301750318447017e+000	 1.090721960367070e+001
 3.583642325547142e+000	 1.337210784690379e+000	 1.092712619457898e+001
 3.570230858952213e+000	 1.372616703214940e+000	 1.094041606018671e+001
 3.556440251585695e+000	 1.407962264080697e+000	 1.094787541452616e+001
 3.701385989034681e+000	 1.059359127126733e+000	 1.074339222060931e+001
 3.690917573306717e+000	 1.095275064593396e+000	 1.073311743096951e+001
 3.680073497531918e+000	 1.131175960159060e+000	 1.073598079930083e+001
 3.668852641700889e+000	 1.167056251247652e+000	 1.075137357261286e+001
 3.657253989596510e+000	 1.202910327366441e+000	 1.077848880969171e+001
 3.645276630564371e+000	 1.238732532380554e+000	 1.081631295457625e+001
 3.632919761227950e+000	 1.274517166855068e+000	 1.085777554034096e+001
 3.620182687145758e+000	 1.310258490463315e+000	 1.089038029143176e+001
 3.607064824407738e+000	 1.345950724459871e+000	 1.091452526067999e+001
 3.593565701168235e+000	 1.381588054216606e+000	 1.093085836520194e+001
 3.579684959112860e+000	 1.417164631820050e+000	 1.094009212930495e+001
 3.725420962990317e+000	 1.066238082498657e+000	 1.077982418123736e+001
 3.714884570536753e+000	 1.102387240338519e+000	 1.075213288861950e+001
 3.703970078685392e+000	 1.138521258602688e+000	 1.073967642125339e+001
 3.692676360154048e+000	 1.174634538594465e+000	 1.074185265490177e+001
 3.681002392126787e+000	 1.210721433389350e+000	 1.075785577700985e+001
 3.668947258035864e+000	 1.246776250124320e+000	 1.078666765121385e+001
 3.656510149288022e+000	 1.282793252355136e+000	 1.083209110672684e+001
 3.643690366932412e+000	 1.318766662480280e+000	 1.086886569750280e+001
 3.630487323267354e+000	 1.354690664230006e+000	 1.089604429123482e+001
 3.616900543383260e+000	 1.390559405218861e+000	 1.091420034003099e+001
 3.602929666639025e+000	 1.426366999559909e+000	 1.092397310069347e+001
 3.749455936945461e+000	 1.073117037870568e+000	 1.082355476264594e+001
 3.738851567766202e+000	 1.109499416083815e+000	 1.077496963868363e+001
 3.727866659838193e+000	 1.145866557046645e+000	 1.074378217580350e+001
 3.716500078606456e+000	 1.182212825941734e+000	 1.072939992705856e+001
 3.704750794656250e+000	 1.218532539412813e+000	 1.073102119175738e+001
 3.692617885506486e+000	 1.254819967868708e+000	 1.075223427310974e+001
 3.680100537347176e+000	 1.291069337855863e+000	 1.080320613427964e+001
 3.667198046718112e+000	 1.327274834497911e+000	 1.084299589630936e+001
 3.653909822125992e+000	 1.363430604000785e+000	 1.087203723202335e+001
 3.640235385597291e+000	 1.399530756221705e+000	 1.089082950238690e+001
 3.626174374164190e+000	 1.435569367300273e+000	 1.089993910175315e+001
 3.773490910900110e+000	 1.079995993242467e+000	 1.085960605081657e+001
 3.762818564995062e+000	 1.116611591829284e+000	 1.079229985659740e+001
 3.751763240990317e+000	 1.153211855490931e+000	 1.074558581930222e+001
 3.740323797058115e+000	 1.189791113289460e+000	 1.071260110342448e+001
 3.728499197184896e+000	 1.226343645436830e+000	 1.069656774479457e+001
 3.716288512976234e+000	 1.262863685613718e+000	 1.071744683485161e+001
 3.703690925405412e+000	 1.299345423357249e+000	 1.077140665429791e+001
 3.690705726502859e+000	 1.335783006516208e+000	 1.081309033406039e+001
 3.677332320983649e+000	 1.372170543772207e+000	 1.084285666349083e+001
 3.663570227810326e+000	 1.408502107225139e+000	 1.086113126932890e+001
 3.649419081688355e+000	 1.444771735041142e+000	 1.086840807171300e+001
 3.797525884854265e+000	 1.086874948614353e+000	 1.089126194534270e+001
 3.786785562223331e+000	 1.123723767574926e+000	 1.079969345149071e+001
 3.775659822141769e+000	 1.160557153935546e+000	 1.072757678887085e+001
 3.764147515509023e+000	 1.197369400637642e+000	 1.067707860922655e+001
 3.752247599712727e+000	 1.234154751461400e+000	 1.065051248908585e+001
 3.739959140445111e+000	 1.270907403359349e+000	 1.068110249777647e+001
 3.727281313462729e+000	 1.307621508859294e+000	 1.073697880494880e+001
 3.714213406286651e+000	 1.344291178535172e+000	 1.077946784862864e+001
 3.700754819840327e+000	 1.380910483544272e+000	 1.080885384395467e+001
 3.686905070022366e+000	 1.417473458229163e+000	 1.082548902373880e+001
 3.672663789211519e+000	 1.453974102782516e+000	 1.082979520564786e+001
 3.821560858807927e+000	 1.093753903986227e+000	 1.091944087236345e+001
 3.810752559451014e+000	 1.130835943320741e+000	 1.080324311812972e+001
 3.799556403292546e+000	 1.167902452380491e+000	 1.070531185687520e+001
 3.787971233959183e+000	 1.204947687986281e+000	 1.062772213302695e+001
 3.775996002239742e+000	 1.241965857486524e+000	 1.057269862972637e+001
 3.763629767913117e+000	 1.278951121105601e+000	 1.062569027407389e+001
 3.750871701519130e+000	 1.315897594361998e+000	 1.069882294549275e+001
 3.737721086069491e+000	 1.352799350554802e+000	 1.074244668868065e+001
 3.724177318696026e+000	 1.389650423316981e+000	 1.077037875118079e+001
 3.710239912233413e+000	 1.426444809233777e+000	 1.078428417828876e+001
 3.695908496733685e+000	 1.463176470524395e+000	 1.078451304077256e+001
 3.845595832761096e+000	 1.100632859358089e+000	 1.094486510962674e+001
 3.834719556678107e+000	 1.137948119066728e+000	 1.080372179444491e+001
 3.823452984442649e+000	 1.175247750825766e+000	 1.067961409037756e+001
 3.811794952408592e+000	 1.212525975335376e+000	 1.057452445361134e+001
 3.799744404765942e+000	 1.249776963512203e+000	 1.049058775233558e+001
 3.787300395380251e+000	 1.286994838852475e+000	 1.056091138306972e+001
 3.774462089574614e+000	 1.324173679865361e+000	 1.062540479947992e+001
 3.761228765851377e+000	 1.361307522575099e+000	 1.068276662562817e+001
 3.747599817550746e+000	 1.398390363090333e+000	 1.072778012240085e+001
 3.733574754443465e+000	 1.435416160238980e+000	 1.073789623701039e+001
 3.719153204254849e+000	 1.472378838266780e+000	 1.073297153950001e+001
 3.486706128998200e+000	 1.380355160865667e+000	 1.091695858806483e+001
 3.472813981996224e+000	 1.414942771488917e+000	 1.094435356328753e+001
 3.458549767465619e+000	 1.449459729040826e+000	 1.097222848919416e+001
 3.443913476037222e+000	 1.483900255988308e+000	 1.100113958260543e+001
 3.428905213945839e+000	 1.518258553056113e+000	 1.103169765468583e+001
 3.413525204100325e+000	 1.552528802025695e+000	 1.106456873225821e+001
 3.397773787075000e+000	 1.586705168581185e+000	 1.110047455313875e+001
 3.381651422020273e+000	 1.620781805199965e+000	 1.114019293079633e+001
 3.365158687490438e+000	 1.654752854085250e+000	 1.118455798392799e+001
 3.348296282186655e+000	 1.688612450138004e+000	 1.123446022685119e+001
 3.331065025613314e+000	 1.722354723965393e+000	 1.129084651694676e+001
 3.509950836528365e+000	 1.389557528603505e+000	 1.093673693037686e+001
 3.495966075212821e+000	 1.424375723297864e+000	 1.095660580011585e+001
 3.481606765918415e+000	 1.459122793900348e+000	 1.097696752371479e+001
 3.466872899213523e+000	 1.493792924360984e+000	 1.099845259044690e+001
 3.451764582041180e+000	 1.528380276742684e+000	 1.102174791016973e+001
 3.436282038796304e+000	 1.562878994038781e+000	 1.104759739121971e+001
 3.420425612323706e+000	 1.597283203037965e+000	 1.107680238810258e+001
 3.404195764834802e+000	 1.631587017234134e+000	 1.111022201425643e+001
 3.387593078740911e+000	 1.665784539778523e+000	 1.114877331546147e+001
 3.370618257401203e+000	 1.699869866471439e+000	 1.119343129979112e+001
 3.353272125783427e+000	 1.733837088790756e+000	 1.124522882034217e+001
 3.533195544057530e+000	 1.398759896341848e+000	 1.094689925624506e+001
 3.519118168428428e+000	 1.433808675107226e+000	 1.096097170979919e+001
 3.504663764370251e+000	 1.468785858760214e+000	 1.097552505190270e+001
 3.489832322388910e+000	 1.503685592733951e+000	 1.099126315018702e+001
 3.474623950135680e+000	 1.538502000429517e+000	 1.100894814525820e+001
 3.459038873491527e+000	 1.573229186052117e+000	 1.102940098642162e+001
 3.443077437571767e+000	 1.607861237495004e+000	 1.105350183294262e+001
 3.426740107648815e+000	 1.642392229268590e+000	 1.108219031608936e+001
 3.410027469991016e+000	 1.676816225472134e+000	 1.111646565751178e+001
 3.392940232615552e+000	 1.711127282805278e+000	 1.115738663984175e+001
 3.375479225953534e+000	 1.745319453616616e+000	 1.120607142575391e+001
 3.556440251585695e+000	 1.407962264080697e+000	 1.094787541452616e+001
 3.542270261643044e+000	 1.443241626917004e+000	 1.095785594894155e+001
 3.527720762821125e+000	 1.478448923620425e+000	 1.096828040912796e+001
 3.512791745563388e+000	 1.513578261107214e+000	 1.097992515787954e+001
 3.497483318229335e+000	 1.548623724116612e+000	 1.099362670980017e+001
 3.481795708185998e+000	 1.583579378065704e+000	 1.101028222610355e+001
 3.465729262819184e+000	 1.618439271952301e+000	 1.103084987065327e+001
 3.449284450462312e+000	 1.653197441303335e+000	 1.105634902245565e+001
 3.432461861240755e+000	 1.687847911166081e+000	 1.108786034013594e+001
 3.415262207829704e+000	 1.722384699139524e+000	 1.112652567427096e+001
 3.397686326123631e+000	 1.756801818442972e+000	 1.117354782381602e+001
 3.579684959112860e+000	 1.417164631820050e+000	 1.094009212930495e+001
 3.565422354856672e+000	 1.452674578727196e+000	 1.094766081390112e+001
 3.550777761271038e+000	 1.488111988480979e+000	 1.095561133217302e+001
 3.535751168736951e+000	 1.523470929480768e+000	 1.096479166941834e+001
 3.520342686322147e+000	 1.558745447803968e+000	 1.097611186831808e+001
 3.504552542879714e+000	 1.593929570079541e+000	 1.099054448405269e+001
 3.488381088065955e+000	 1.629017306409859e+000	 1.100912489632559e+001
 3.471828793275291e+000	 1.664002653338367e+000	 1.103295147347030e+001
 3.454896252490127e+000	 1.698879596860366e+000	 1.106318558414598e+001
 3.437584183043659e+000	 1.733642115474177e+000	 1.110105145247869e+001
 3.419893426293720e+000	 1.768284183269824e+000	 1.114783585288288e+001
 3.602929666639025e+000	 1.426366999559909e+000	 1.092397310069347e+001
 3.588574448069307e+000	 1.462107530537802e+000	 1.093078631692713e+001
 3.573834759719991e+000	 1.497775053341878e+000	 1.093789401079998e+001
 3.558710591909605e+000	 1.533363597854615e+000	 1.094621492763931e+001
 3.543202054414117e+000	 1.568867171491587e+000	 1.095673180276035e+001
 3.527309377572676e+000	 1.604279762093628e+000	 1.097049177813457e+001
 3.511032913312080e+000	 1.639595340867676e+000	 1.098860667159575e+001
 3.494373136087754e+000	 1.674807865373687e+000	 1.101225309372050e+001
 3.477330643739132e+000	 1.709911282554987e+000	 1.104267240785877e+001
 3.459906158257415e+000	 1.744899531809236e+000	 1.108117052915400e+001
 3.442100526463804e+000	 1.779766548097172e+000	 1.112911755878011e+001
 3.626174374164190e+000	 1.435569367300273e+000	 1.089993910175315e+001
 3.611726541280953e+000	 1.471540482348824e+000	 1.090763025936852e+001
 3.596891758167983e+000	 1.507438118203121e+000	 1.091550313733457e+001
 3.581670015081345e+000	 1.543256266228756e+000	 1.092454638837995e+001
 3.566061422505243e+000	 1.578988895179467e+000	 1.093581461514800e+001
 3.550066212264883e+000	 1.614629954107966e+000	 1.095042874964948e+001
 3.533684738557561e+000	 1.650173375325751e+000	 1.096957628084556e+001
 3.516917478899702e+000	 1.685613077409295e+000	 1.099451132545546e+001
 3.499765034987770e+000	 1.720942968249945e+000	 1.102655453743240e+001
 3.482228133470974e+000	 1.756156948144701e+000	 1.106709285192609e+001
 3.464307626633878e+000	 1.791248912925016e+000	 1.111757905994976e+001
 3.649419081688355e+000	 1.444771735041142e+000	 1.086840807171300e+001
 3.634878634491609e+000	 1.480973434160260e+000	 1.087858830208481e+001
 3.619948756615013e+000	 1.517101183064708e+000	 1.088881195435528e+001
 3.604629438252175e+000	 1.553148934603190e+000	 1.090013674554296e+001
 3.588920790595527e+000	 1.589110618867609e+000	 1.091368833012011e+001
 3.572823046956338e+000	 1.624980146122555e+000	 1.093066064347793e+001
 3.556336563802396e+000	 1.660751409784085e+000	 1.095231608907674e+001
 3.539461821711133e+000	 1.696418289445192e+000	 1.097998556432978e+001
 3.522199426236039e+000	 1.731974653945240e+000	 1.101506832062920e+001
 3.504550108684335e+000	 1.767414364480573e+000	 1.105903165330883e+001
 3.486514726803943e+000	 1.802731277753356e+000	 1.111341041774914e+001
 3.672663789211519e+000	 1.453974102782516e+000	 1.082979520564786e+001
 3.658030727701275e+000	 1.490406385972112e+000	 1.084405403318302e+001
 3.643005755061083e+000	 1.526764247926639e+000	 1.085819230057134e+001
 3.627588861422094e+000	 1.563041602977917e+000	 1.087333595520820e+001
 3.611780158684968e+000	 1.599232342556013e+000	 1.089068089738261e+001
 3.595579881647038e+000	 1.635330338137394e+000	 1.091149328897992e+001
 3.578988389046586e+000	 1.671329444242679e+000	 1.093710970138506e+001
 3.562006164522048e+000	 1.707223501481376e+000	 1.096893709758680e+001
 3.544633817483943e+000	 1.743006339640873e+000	 1.100845264385359e+001
 3.526872083897499e+000	 1.778671780816851e+000	 1.105720334674873e+001
 3.508721826974002e+000	 1.814213642582192e+000	 1.111680551167501e+001
 3.695908496733685e+000	 1.463176470524395e+000	 1.078451304077256e+001
 3.681182820909950e+000	 1.499839337784378e+000	 1.080441903319867e+001
 3.666062753506191e+000	 1.536427312788914e+000	 1.082401465496963e+001
 3.650548284591099e+000	 1.572934271352937e+000	 1.084449325883449e+001
 3.634639526773566e+000	 1.609354066244679e+000	 1.086712019406464e+001
 3.618336716336984e+000	 1.645680530152484e+000	 1.089323308161516e+001
 3.601640214290131e+000	 1.681907478701532e+000	 1.092424192396359e+001
 3.584550507332447e+000	 1.718028713517848e+000	 1.096162904457461e+001
 3.567068208731479e+000	 1.754038025336841e+000	 1.100694885232054e+001
 3.549194059110464e+000	 1.789929197153535e+000	 1.106182742659563e+001
 3.530928927144053e+000	 1.825696007411524e+000	 1.112796191929632e+001
 3.719153204254849e+000	 1.472378838266780e+000	 1.073297153950001e+001
 3.704334914117635e+000	 1.509272289597060e+000	 1.076007293783228e+001
 3.689119751950341e+000	 1.546090377651535e+000	 1.078664817930595e+001
 3.673507707759193e+000	 1.582826939728250e+000	 1.081395720559172e+001
 3.657498894861322e+000	 1.619475789933607e+000	 1.084333402698661e+001
 3.641093551026176e+000	 1.656030722167824e+000	 1.087618696525239e+001
 3.624292039533033e+000	 1.692485513160644e+000	 1.091399872656845e+001
 3.607094850142330e+000	 1.728833925554609e+000	 1.095832629949287e+001
 3.589502599978649e+000	 1.765069711033148e+000	 1.101080067321778e+001
 3.571516034323234e+000	 1.801186613490626e+000	 1.107312637182447e+001
 3.553136027314097e+000	 1.837178372241353e+000	 1.114708080068946e+001
 3.331065025613314e+000	 1.722354723965393e+000	 1.129084651694676e+001
 3.313465858646516e+000	 1.755973804923333e+000	 1.114612340224955e+001
 3.295499844011498e+000	 1.789463824188730e+000	 1.100092443017660e+001
 3.277168166668326e+000	 1.822818917859585e+000	 1.085661333471577e+001
 3.258472134105683e+000	 1.856033230080492e+000	 1.071461951502362e+001
 3.239413176539813e+000	 1.889100916188957e+000	 1.069271416254618e+001
 3.219992847017981e+000	 1.922016145879749e+000	 1.082472486479591e+001
 3.200212821425362e+000	 1.954773106383973e+000	 1.095197964303558e+001
 3.180074898394475e+000	 1.987366005659461e+000	 1.107457310444330e+001
 3.159580999116347e+000	 2.019789075589026e+000	 1.119258649979927e+001
 3.138733167052782e+000	 2.052036575183095e+000	 1.130608697136795e+001
 3.353272125783427e+000	 1.733837088790756e+000	 1.124522882034217e+001
 3.335555631036250e+000	 1.767680296954858e+000	 1.109925053351675e+001
 3.317469842969797e+000	 1.801393583015249e+000	 1.095157427139649e+001
 3.299015954443869e+000	 1.834971043977251e+000	 1.080348479601059e+001
 3.280195281663736e+000	 1.868406784946424e+000	 1.065633432616206e+001
 3.261009264380423e+000	 1.901694922295855e+000	 1.073602613820368e+001
 3.241459465994842e+000	 1.934829586851615e+000	 1.086610702871492e+001
 3.221547573564735e+000	 1.967804927093015e+000	 1.099041049607648e+001
 3.201275397713506e+000	 2.000615112364274e+000	 1.110894160120100e+001
 3.180644872440122e+000	 2.033254336094089e+000	 1.122169190930326e+001
 3.159658054829465e+000	 2.065716819019625e+000	 1.132863882047819e+001
 3.375479225953534e+000	 1.745319453616616e+000	 1.120607142575391e+001
 3.357645403426167e+000	 1.779386788986964e+000	 1.105683311307696e+001
 3.339439841928447e+000	 1.813323341842405e+000	 1.090466334738520e+001
 3.320863742219913e+000	 1.847123170095580e+000	 1.075076903186061e+001
 3.301918429222424e+000	 1.880780339813014e+000	 1.064645773624760e+001
 3.282605352221780e+000	 1.914288928403380e+000	 1.077915301050387e+001
 3.262926084972539e+000	 1.947643027824043e+000	 1.090514257716685e+001
 3.242882325705017e+000	 1.980836747802526e+000	 1.102435619272179e+001
 3.222475897033497e+000	 2.013864219069431e+000	 1.113671059366507e+001
 3.201708745764888e+000	 2.046719596599342e+000	 1.124210886406341e+001
 3.180582942607150e+000	 2.079397062856160e+000	 1.134043984744855e+001
 3.397686326123631e+000	 1.756801818442972e+000	 1.117354782381602e+001
 3.379735175816265e+000	 1.791093281019651e+000	 1.101908630191810e+001
 3.361409840887453e+000	 1.825253100670198e+000	 1.086044806772559e+001
 3.342711529996462e+000	 1.859275296214572e+000	 1.069876325902345e+001
 3.323641576781748e+000	 1.893153894680265e+000	 1.069449978481724e+001
 3.304201440063882e+000	 1.926882934511530e+000	 1.082186704986754e+001
 3.284392703951075e+000	 1.960456468797033e+000	 1.094163978997973e+001
 3.264217077846207e+000	 1.993868568512505e+000	 1.105366089506216e+001
 3.243676396354447e+000	 2.027113325774932e+000	 1.115775998248649e+001
 3.222772619090644e+000	 2.060184857104785e+000	 1.125375284296868e+001
 3.201507830385834e+000	 2.093077306692701e+000	 1.134144093241341e+001
 3.419893426293720e+000	 1.768284183269824e+000	 1.114783585288288e+001
 3.401824948206546e+000	 1.802799773052920e+000	 1.098622857161843e+001
 3.383379839846811e+000	 1.837182859498628e+000	 1.081918711970577e+001
 3.364559317773515e+000	 1.871427422334228e+000	 1.064776594382303e+001
 3.345364724341706e+000	 1.905527449548174e+000	 1.074401250281493e+001
 3.325797527906732e+000	 1.939476940620305e+000	 1.086393973624732e+001
 3.305859322930448e+000	 1.973269909770586e+000	 1.097540514562070e+001
 3.285551829988306e+000	 2.006900389222952e+000	 1.107816595968459e+001
 3.264876895676356e+000	 2.040362432480778e+000	 1.117196586591902e+001
 3.243836492417388e+000	 2.073650117610419e+000	 1.125653453336311e+001
 3.222432718165519e+000	 2.106757550529247e+000	 1.133158718305571e+001
 3.442100526463804e+000	 1.779766548097172e+000	 1.112911755878011e+001
 3.423914720597010e+000	 1.814506265086770e+000	 1.095848159755329e+001
 3.405349838806521e+000	 1.849112618327695e+000	 1.078114139484486e+001
 3.386407105551071e+000	 1.883579548454547e+000	 1.067532934975776e+001
 3.367087871902299e+000	 1.917901004416744e+000	 1.079473248662866e+001
 3.347393615750326e+000	 1.952070946729707e+000	 1.090514178462667e+001
 3.327325941910659e+000	 1.986083350744701e+000	 1.100624337930436e+001
 3.306886582131312e+000	 2.019932209933868e+000	 1.109771002817272e+001
 3.286077394999225e+000	 2.053611539186969e+000	 1.117920066247712e+001
 3.264900365745122e+000	 2.087115378116242e+000	 1.125035998561194e+001
 3.243357605946203e+000	 2.120437794365798e+000	 1.131081812081503e+001
 3.464307626633878e+000	 1.791248912925016e+000	 1.111757905994976e+001
 3.446004492987656e+000	 1.826212757121202e+000	 1.093607015620927e+001
 3.427319837766585e+000	 1.861042377157399e+000	 1.074657391824449e+001
 3.408254893329133e+000	 1.895731674575529e+000	 1.073781445217166e+001
 3.388811019463529e+000	 1.930274559285973e+000	 1.084639654497801e+001
 3.368989703594667e+000	 1.964664952839736e+000	 1.094524316953815e+001
 3.348792560891706e+000	 1.998896791719378e+000	 1.103395753886633e+001
 3.328221334275228e+000	 2.032964030645252e+000	 1.111212911412602e+001
 3.307277894323051e+000	 2.066860645893502e+000	 1.117933322887637e+001
 3.285964239073846e+000	 2.100580638622255e+000	 1.123513076172259e+001
 3.264282493727888e+000	 2.134118038202354e+000	 1.127906785993388e+001
 3.486514726803943e+000	 1.802731277753356e+000	 1.111341041774914e+001
 3.468094265378485e+000	 1.837919249156214e+000	 1.091922202642277e+001
 3.449289836727001e+000	 1.872972135987741e+000	 1.071574978064031e+001
 3.430102681107698e+000	 1.907883800697174e+000	 1.080301320316688e+001
 3.410534167025391e+000	 1.942648114155861e+000	 1.089874169215208e+001
 3.390585791439755e+000	 1.977258958950389e+000	 1.098401314864457e+001
 3.370259179873592e+000	 2.011710232694617e+000	 1.105834903850138e+001
 3.349556086420052e+000	 2.045995851357105e+000	 1.112125668685362e+001
 3.328478393647839e+000	 2.080109752600381e+000	 1.117222897346657e+001
 3.307028112403561e+000	 2.114045899128458e+000	 1.121074407828616e+001
 3.285207381510571e+000	 2.147798282038917e+000	 1.123626527966144e+001
 3.508721826974002e+000	 1.814213642582192e+000	 1.111680551167501e+001
 3.490184037769495e+000	 1.849625741191809e+000	 1.090816789436886e+001
 3.471259835687771e+000	 1.884901894818718e+000	 1.077914391641293e+001
 3.451950468886766e+000	 1.920035926819483e+000	 1.087063139866227e+001
 3.432257314587890e+000	 1.955021669026409e+000	 1.095150514150403e+001
 3.412181879285589e+000	 1.989852965061668e+000	 1.102122028542483e+001
 3.391725798856314e+000	 2.024523673670419e+000	 1.107921771046092e+001
 3.370890838565784e+000	 2.059027672069426e+000	 1.112492375188982e+001
 3.349678892973585e+000	 2.093358859307605e+000	 1.115774996535715e+001
 3.328091985734264e+000	 2.127511159634852e+000	 1.117709294399044e+001
 3.306132269294255e+000	 2.161478525875483e+000	 1.118233418991787e+001
 3.530928927144053e+000	 1.825696007411524e+000	 1.112796191929632e+001
 3.512273810160687e+000	 1.861332233227984e+000	 1.090314126213561e+001
 3.493229834648894e+000	 1.896831653650335e+000	 1.086511107750199e+001
 3.473798256666338e+000	 1.932188052942454e+000	 1.094037589742923e+001
 3.453980462151023e+000	 1.967395223897617e+000	 1.100442429919129e+001
 3.433777967132169e+000	 2.002446971173574e+000	 1.105663247100358e+001
 3.413192417839874e+000	 2.037337114646784e+000	 1.109636185479971e+001
 3.392225590712425e+000	 2.072059492782216e+000	 1.112295892847129e+001
 3.370879392300290e+000	 2.106607966015173e+000	 1.113575503942482e+001
 3.349155859065959e+000	 2.140976420141436e+000	 1.113406629194405e+001
 3.327057157078940e+000	 2.175158769712056e+000	 1.111719349070727e+001
 3.553136027314097e+000	 1.837178372241353e+000	 1.114708080068946e+001
 3.534363582552064e+000	 1.873038725264742e+000	 1.090437835972674e+001
 3.515199833610370e+000	 1.908761412482587e+000	 1.095487204988626e+001
 3.495646044446416e+000	 1.944340179066090e+000	 1.101195458787764e+001
 3.475703609714793e+000	 1.979768778769484e+000	 1.105723675815036e+001
 3.455374054979496e+000	 2.015040977286106e+000	 1.109001694516223e+001
 3.434659036824272e+000	 2.050150555623710e+000	 1.110957828725688e+001
 3.413560342859975e+000	 2.085091313495475e+000	 1.111518852410890e+001
 3.392079891627955e+000	 2.119857072723085e+000	 1.110609989738335e+001
 3.370219732398642e+000	 2.154441680648209e+000	 1.108154910703819e+001
 3.347982044864625e+000	 2.188839013548634e+000	 1.104075732555244e+001
 3.138733167052782e+000	 2.052036575183095e+000	 1.130608697136795e+001
 3.117533567548996e+000	 2.084102793783212e+000	 1.125700137380356e+001
 3.095984487346924e+000	 2.115982054262759e+000	 1.124741483198028e+001
 3.074088333998507e+000	 2.147668716221342e+000	 1.122441274033691e+001
 3.051847635178519e+000	 2.179157179169301e+000	 1.118732402137232e+001
 3.029265037897612e+000	 2.210441885698607e+000	 1.113547379655721e+001
 3.006343307615602e+000	 2.241517324636550e+000	 1.106818417708433e+001
 2.983085327255383e+000	 2.272378034178562e+000	 1.098477508171080e+001
 2.959494096117997e+000	 2.303018604996550e+000	 1.088456508044565e+001
 2.935572728699535e+000	 2.333433683319122e+000	 1.076687226273435e+001
 2.911324453410707e+000	 2.363617973980084e+000	 1.063101512869282e+001
 3.159658054829465e+000	 2.065716819019625e+000	 1.132863882047819e+001
 3.138317124662376e+000	 2.097996812411230e+000	 1.124302711669174e+001
 3.116624383925715e+000	 2.130088601294634e+000	 1.118318212525291e+001
 3.094582256221773e+000	 2.161986507666774e+000	 1.116163833291393e+001
 3.072193286076493e+000	 2.193684893701391e+000	 1.112860983464463e+001
 3.049460138147258e+000	 2.225178164941071e+000	 1.108352764335108e+001
 3.026385596330288e+000	 2.256460773471950e+000	 1.102581745361275e+001
 3.002972562767960e+000	 2.287527221077428e+000	 1.095490033780750e+001
 2.979224056756658e+000	 2.318372062367228e+000	 1.087019347094206e+001
 2.955143213555779e+000	 2.348989907878144e+000	 1.077111088305681e+001
 2.930733283098773e+000	 2.379375427142877e+000	 1.065706423796939e+001
 3.180582942607150e+000	 2.079397062856160e+000	 1.134043984744855e+001
 3.159100681776744e+000	 2.111890831039068e+000	 1.124756617717160e+001
 3.137264280505466e+000	 2.144195148326173e+000	 1.115362328464323e+001
 3.115076178445952e+000	 2.176304299111745e+000	 1.109208778163184e+001
 3.092538936975307e+000	 2.208212608232925e+000	 1.106543331985841e+001
 3.069655238397657e+000	 2.239914444182912e+000	 1.102940455940035e+001
 3.046427885045616e+000	 2.271404222306690e+000	 1.098352954594215e+001
 3.022859798281050e+000	 2.302676407975629e+000	 1.092732928338805e+001
 2.998954017395681e+000	 2.333725519737263e+000	 1.086031834101117e+001
 2.974713698412216e+000	 2.364546132436579e+000	 1.078200549125267e+001
 2.950142112786840e+000	 2.395132880305170e+000	 1.069189437714465e+001
 3.201507830385834e+000	 2.093077306692701e+000	 1.134144093241341e+001
 3.179884238892103e+000	 2.125784849666726e+000	 1.124347121394435e+001
 3.157904177086178e+000	 2.158301695357377e+000	 1.114693882287568e+001
 3.135570100671041e+000	 2.190622090556254e+000	 1.105198886019110e+001
 3.112884587874963e+000	 2.222740322763901e+000	 1.099774619512549e+001
 3.089850338648807e+000	 2.254650723424129e+000	 1.097301291100091e+001
 3.066470173761587e+000	 2.286347671140771e+000	 1.094118619641875e+001
 3.042747033794652e+000	 2.317825594873165e+000	 1.090188578631486e+001
 3.018683978035067e+000	 2.349078977106659e+000	 1.085472245466517e+001
 2.994284183268845e+000	 2.380102356994429e+000	 1.079929853883257e+001
 2.969550942474911e+000	 2.410890333466961e+000	 1.073520849681911e+001
 3.222432718165519e+000	 2.106757550529247e+000	 1.133158718305571e+001
 3.200667796008453e+000	 2.139678868294204e+000	 1.123064042728106e+001
 3.178544073667850e+000	 2.172408242388246e+000	 1.113362021854442e+001
 3.156064022897041e+000	 2.204939882000303e+000	 1.104079160688858e+001
 3.133230238775460e+000	 2.237268037294321e+000	 1.095239376239867e+001
 3.110045438900709e+000	 2.269387002664723e+000	 1.091426109367813e+001
 3.086512462478198e+000	 2.301291119974192e+000	 1.089865428704232e+001
 3.062634269308765e+000	 2.332974781770036e+000	 1.087839594653629e+001
 3.038413938674816e+000	 2.364432434475414e+000	 1.085319188188047e+001
 3.013854668125669e+000	 2.395658581551693e+000	 1.082273683804317e+001
 2.988959772162985e+000	 2.426647786628250e+000	 1.078671494345315e+001
 3.243357605946203e+000	 2.120437794365798e+000	 1.131081812081503e+001
 3.221451353125792e+000	 2.153572886921502e+000	 1.120896758440400e+001
 3.199183970250482e+000	 2.186514789418779e+000	 1.111351617903388e+001
 3.176557945123952e+000	 2.219257673443890e+000	 1.102484795875839e+001
 3.153575889676799e+000	 2.251795751824183e+000	 1.094331863337693e+001
 3.130240539153362e+000	 2.284123281904694e+000	 1.086925458950847e+001
 3.106554751195452e+000	 2.316234568806955e+000	 1.085580180270325e+001
 3.082521504823393e+000	 2.348123968666242e+000	 1.085668802408395e+001
 3.058143899314926e+000	 2.379785891843527e+000	 1.085551589195360e+001
 3.033425152982683e+000	 2.411214806108370e+000	 1.085207142119827e+001
 3.008368601851061e+000	 2.442405239789038e+000	 1.084612728530692e+001
 3.264282493727888e+000	 2.134118038202354e+000	 1.127906785993388e+001
 3.242234910244121e+000	 2.167466905548621e+000	 1.117834216157153e+001
 3.219823866834076e+000	 2.200621336448978e+000	 1.108647222290153e+001
 3.197051867351773e+000	 2.233575464887016e+000	 1.100396018040751e+001
 3.173921540578977e+000	 2.266323466353488e+000	 1.093127735846806e+001
 3.150435639406766e+000	 2.298859561144042e+000	 1.086886314222467e+001
 3.126597039913347e+000	 2.331178017639058e+000	 1.081712392788721e+001
 3.102408740338531e+000	 2.363273155561783e+000	 1.083659236983916e+001
 3.077873859955401e+000	 2.395139349211001e+000	 1.086148685095903e+001
 3.052995637839890e+000	 2.426771030664460e+000	 1.088705740542024e+001
 3.027777431539140e+000	 2.458162692949324e+000	 1.091316414507515e+001
 3.285207381510571e+000	 2.147798282038917e+000	 1.123626527966144e+001
 3.263018467363441e+000	 2.181360924175559e+000	 1.113864948073294e+001
 3.240463763418629e+000	 2.214727883478840e+000	 1.105233078143284e+001
 3.217545789580505e+000	 2.247893256329681e+000	 1.097792850201267e+001
 3.194267191481998e+000	 2.280851180882235e+000	 1.091602867881058e+001
 3.170630739660923e+000	 2.313595840382766e+000	 1.086718278955095e+001
 3.146639328631884e+000	 2.346121466470502e+000	 1.083190655943924e+001
 3.122295975854181e+000	 2.378422342456659e+000	 1.081794135894545e+001
 3.097603820596237e+000	 2.410492806577833e+000	 1.087090012312558e+001
 3.072566122697291e+000	 2.442327255219966e+000	 1.092745386255061e+001
 3.047186261227222e+000	 2.473920146109110e+000	 1.098754903891771e+001
 3.306132269294255e+000	 2.161478525875483e+000	 1.118233418991787e+001
 3.283802024483750e+000	 2.195254942802317e+000	 1.108977084099407e+001
 3.261103660004143e+000	 2.228834430508366e+000	 1.101093129633984e+001
 3.238039711810148e+000	 2.262211047771884e+000	 1.094655118370098e+001
 3.214612842385859e+000	 2.295378895410425e+000	 1.089733037074684e+001
 3.190825839915830e+000	 2.328332119620868e+000	 1.086393154341644e+001
 3.166681617351064e+000	 2.361064915301286e+000	 1.084697886843884e+001
 3.142183211370345e+000	 2.393571529350870e+000	 1.084705674397120e+001
 3.117333781237435e+000	 2.425846263944024e+000	 1.088355397595821e+001
 3.092136607554884e+000	 2.457883479774885e+000	 1.097302369400070e+001
 3.066595090915306e+000	 2.489677599268394e+000	 1.106901022160328e+001
 3.327057157078940e+000	 2.175158769712056e+000	 1.111719349070727e+001
 3.304585581605049e+000	 2.209148961428895e+000	 1.103158364512164e+001
 3.281743556590617e+000	 2.242940977537558e+000	 1.096211031377281e+001
 3.258533634040701e+000	 2.276528839213626e+000	 1.090962457750121e+001
 3.234958493290562e+000	 2.309906609938059e+000	 1.087493927616238e+001
 3.211020940171490e+000	 2.343068398858346e+000	 1.085882744061209e+001
 3.186723906070885e+000	 2.376008364131412e+000	 1.086202081226679e+001
 3.162070446887021e+000	 2.408720716244415e+000	 1.088520845446948e+001
 3.137063741878996e+000	 2.441199721309576e+000	 1.092903545964163e+001
 3.111707092412668e+000	 2.473439704329218e+000	 1.102353351032489e+001
 3.086003920603393e+000	 2.505435052427177e+000	 1.107922296682818e+001
 3.347982044864625e+000	 2.188839013548634e+000	 1.104075732555244e+001
 3.325369138727341e+000	 2.223042980055294e+000	 1.096396152130403e+001
 3.302383453178052e+000	 2.257047524566414e+000	 1.090570157480661e+001
 3.279027556272166e+000	 2.290846630654907e+000	 1.086694318697187e+001
 3.255304144196106e+000	 2.324434324465135e+000	 1.084861133168778e+001
 3.231216040427900e+000	 2.357804678095201e+000	 1.085158854201388e+001
 3.206766194791349e+000	 2.390951812960879e+000	 1.087671328737468e+001
 3.181957682404208e+000	 2.423869903137296e+000	 1.092477844626840e+001
 3.156793702520920e+000	 2.456553178674487e+000	 1.099652987875108e+001
 3.131277577270648e+000	 2.488995928882965e+000	 1.109266510268227e+001
 3.105412750291483e+000	 2.521192505585459e+000	 1.094597302697737e+001
 2.911324453410707e+000	 2.363617973980084e+000	 1.063101512869282e+001
 2.886752611199269e+000	 2.393566243432211e+000	 1.072617699913498e+001
 2.861860654078760e+000	 2.423273322721160e+000	 1.083574631389724e+001
 2.836652143563399e+000	 2.452734110416955e+000	 1.095989336194571e+001
 2.811130749008874e+000	 2.481943575500790e+000	 1.109876020213270e+001
 2.785300245862961e+000	 2.510896760202158e+000	 1.112268333404890e+001
 2.759164513826918e+000	 2.539588782783472e+000	 1.096175332718554e+001
 2.732727534929508e+000	 2.568014840268935e+000	 1.083832590636759e+001
 2.705993391515634e+000	 2.596170211114460e+000	 1.075465502595771e+001
 2.678966264151707e+000	 2.624050257815533e+000	 1.071299552257682e+001
 2.651650429450000e+000	 2.651650429450000e+000	 1.071559898817487e+001
 2.930733283098773e+000	 2.379375427142877e+000	 1.065706423796939e+001
 2.905997628606329e+000	 2.409523351724013e+000	 1.079098173003640e+001
 2.880939725105363e+000	 2.439428478207633e+000	 1.093709445553641e+001
 2.855563157853521e+000	 2.469085671154231e+000	 1.109547870197059e+001
 2.829871620668864e+000	 2.498489866004878e+000	 1.126618423012951e+001
 2.803868914168815e+000	 2.527636071937260e+000	 1.111271209150427e+001
 2.777558943919312e+000	 2.556519374668874e+000	 1.097296397196682e+001
 2.750945718495975e+000	 2.585134939204087e+000	 1.086794586932368e+001
 2.724033347459338e+000	 2.613478012521847e+000	 1.079988192574892e+001
 2.696826039246255e+000	 2.641543926200947e+000	 1.077100084102337e+001
 2.669328098979750e+000	 2.669328098979750e+000	 1.078353174111593e+001
 2.950142112786840e+000	 2.395132880305170e+000	 1.069189437714465e+001
 2.925242646013206e+000	 2.425480460015402e+000	 1.086300912125998e+001
 2.900018796131630e+000	 2.455583633693764e+000	 1.104414125281365e+001
 2.874474172143181e+000	 2.485437231891217e+000	 1.123527373993217e+001
 2.848612492328293e+000	 2.515036156508704e+000	 1.124564156165188e+001
 2.822437582474045e+000	 2.544375383672111e+000	 1.109563889018008e+001
 2.795953374011047e+000	 2.573449966554016e+000	 1.097542790697919e+001
 2.769163902061778e+000	 2.602255038138947e+000	 1.088719209731916e+001
 2.742073303402402e+000	 2.630785813928895e+000	 1.083312723067442e+001
 2.714685814340219e+000	 2.659037594585950e+000	 1.081543731688645e+001
 2.687005768509000e+000	 2.687005768509000e+000	 1.083633046839477e+001
 2.969550942474911e+000	 2.410890333466961e+000	 1.073520849681911e+001
 2.944487663419903e+000	 2.441437568306380e+000	 1.094199497885148e+001
 2.919097867157557e+000	 2.471738789179554e+000	 1.115665482261939e+001
 2.893385186432377e+000	 2.501788792627911e+000	 1.135560167064182e+001
 2.867353363987166e+000	 2.531582447012270e+000	 1.120127312838763e+001
 2.841006250778652e+000	 2.561114695406711e+000	 1.107189590244595e+001
 2.814347804102123e+000	 2.590380558438898e+000	 1.096960293191118e+001
 2.787382085626915e+000	 2.619375137073518e+000	 1.089654706813352e+001
 2.760113259344826e+000	 2.648093615335601e+000	 1.085489713920779e+001
 2.732545589433598e+000	 2.676531262970544e+000	 1.084683390450112e+001
 2.704683438037750e+000	 2.704683438037750e+000	 1.087454590867637e+001
 2.988959772162985e+000	 2.426647786628250e+000	 1.078671494345315e+001
 2.963732680826416e+000	 2.457394676596947e+000	 1.102767966186941e+001
 2.938176938183147e+000	 2.487893944665003e+000	 1.127440700755086e+001
 2.912296200721112e+000	 2.518140353364315e+000	 1.128492881814853e+001
 2.886094235645479e+000	 2.548128737515575e+000	 1.115227711170576e+001
 2.859574919082636e+000	 2.577854007141061e+000	 1.104191664185288e+001
 2.832742234192540e+000	 2.607311150323519e+000	 1.095594742658863e+001
 2.805600269191387e+000	 2.636495236007798e+000	 1.089649309617968e+001
 2.778153215286610e+000	 2.665401416741968e+000	 1.086569696086051e+001
 2.750405364526391e+000	 2.694024931354727e+000	 1.086571796191055e+001
 2.722361107566000e+000	 2.722361107566000e+000	 1.089872651561560e+001
 3.008368601851061e+000	 2.442405239789038e+000	 1.084612728530692e+001
 2.982977698232747e+000	 2.473351784887102e+000	 1.111980793551363e+001
 2.957256009208400e+000	 2.504049100150113e+000	 1.134181052838773e+001
 2.931207215009381e+000	 2.534491914100428e+000	 1.121163394442064e+001
 2.904835107303235e+000	 2.564675028018620e+000	 1.109906328673176e+001
 2.878143587385996e+000	 2.594593318875161e+000	 1.100613591986930e+001
 2.851136664282297e+000	 2.624241742207880e+000	 1.093492033226073e+001
 2.823818452755195e+000	 2.653615334941789e+000	 1.088751233777378e+001
 2.796193171227755e+000	 2.682709218147996e+000	 1.086603114485813e+001
 2.768265139618600e+000	 2.711518599738501e+000	 1.087261530235935e+001
 2.740038777093750e+000	 2.740038777093750e+000	 1.090941853156731e+001
 3.027777431539140e+000	 2.458162692949324e+000	 1.091316414507515e+001
 3.002222715638894e+000	 2.489308893176847e+000	 1.121812882990293e+001
 2.976335080233315e+000	 2.520204255634879e+000	 1.124516692667094e+001
 2.950118229297189e+000	 2.550843474836250e+000	 1.113610362048608e+001
 2.923575978960431e+000	 2.581221318521404e+000	 1.104204341387198e+001
 2.896712255688731e+000	 2.611332630609010e+000	 1.096498980428124e+001
 2.869531094371395e+000	 2.641172334091981e+000	 1.090698113360557e+001
 2.842036636318339e+000	 2.670735433875489e+000	 1.087008679620247e+001
 2.814233127168260e+000	 2.700017019553682e+000	 1.085640330771351e+001
 2.786124914710225e+000	 2.729012268121865e+000	 1.086805024380641e+001
 2.757716446621000e+000	 2.757716446620999e+000	 1.090716605846128e+001
 3.047186261227222e+000	 2.473920146109110e+000	 1.098754903891771e+001
 3.021467733044860e+000	 2.505266001466179e+000	 1.124821795290173e+001
 2.995414151257892e+000	 2.536359411119305e+000	 1.114823224456488e+001
 2.969029243584533e+000	 2.567195035571781e+000	 1.105872706038524e+001
 2.942316850617070e+000	 2.597767609023927e+000	 1.098163117558819e+001
 2.915280923990842e+000	 2.628071942342609e+000	 1.091891557918213e+001
 2.887925524459833e+000	 2.658102925975822e+000	 1.087258984142353e+001
 2.860254819880818e+000	 2.687855532808900e+000	 1.084469832659639e+001
 2.832273083108124e+000	 2.717324820959029e+000	 1.083731625974638e+001
 2.803984689801263e+000	 2.746505936504818e+000	 1.085254565654533e+001
 2.775394116147749e+000	 2.775394116147750e+000	 1.089251112596863e+001
 3.066595090915306e+000	 2.489677599268394e+000	 1.106901022160328e+001
 3.040712750450644e+000	 2.521223109755101e+000	 1.113078105458513e+001
 3.014493222282131e+000	 2.552514566603390e+000	 1.105137364160325e+001
 2.987940257871414e+000	 2.583546596307021e+000	 1.097989603753129e+001
 2.961057722273150e+000	 2.614313899526189e+000	 1.091824211557295e+001
 2.933849592292329e+000	 2.644811254075957e+000	 1.086835170648213e+001
 2.906319954547613e+000	 2.675033517859402e+000	 1.083220697598786e+001
 2.878473003442633e+000	 2.704975631742019e+000	 1.081182864061871e+001
 2.850313039047349e+000	 2.734632622364035e+000	 1.080927203059574e+001
 2.821844464891718e+000	 2.763999604887362e+000	 1.082662300901673e+001
 2.793071785673999e+000	 2.793071785673999e+000	 1.086599375707964e+001
 3.086003920603393e+000	 2.505435052427177e+000	 1.107922296682818e+001
 3.059957767856244e+000	 2.537180218043611e+000	 1.101530321248202e+001
 3.033572293306033e+000	 2.568669722087134e+000	 1.095496144632130e+001
 3.006851272157832e+000	 2.599898157041971e+000	 1.090000480422678e+001
 2.979798593928671e+000	 2.630860190028191e+000	 1.085229358022037e+001
 2.952418260593193e+000	 2.661550565809055e+000	 1.081373778886981e+001
 2.924714384634734e+000	 2.691964109742721e+000	 1.078629355102346e+001
 2.896691187003782e+000	 2.722095730674849e+000	 1.077195931097661e+001
 2.868352994985935e+000	 2.751940423768701e+000	 1.077277189376962e+001
 2.839704239981586e+000	 2.781493273269495e+000	 1.079080241189163e+001
 2.810749455199750e+000	 2.810749455199749e+000	 1.082815203120692e+001
 3.105412750291483e+000	 2.521192505585459e+000	 1.094597302697737e+001
 3.079202785261663e+000	 2.553137326331711e+000	 1.090213376212868e+001
 3.052651364329597e+000	 2.584824877570536e+000	 1.085936905722447e+001
 3.025762286443788e+000	 2.616249717776630e+000	 1.081945001419836e+001
 2.998539465583634e+000	 2.647406480529932e+000	 1.078420466229180e+001
 2.970986928893433e+000	 2.678289877541903e+000	 1.075551453416285e+001
 2.943108814721196e+000	 2.708894701625782e+000	 1.073531105828656e+001
 2.914909370564268e+000	 2.739215829607388e+000	 1.072557177576372e+001
 2.886392950923881e+000	 2.769248225173028e+000	 1.072831639027410e+001
 2.857564015070872e+000	 2.798986941651220e+000	 1.074560266050172e+001
 2.828427124725000e+000	 2.828427124725000e+000	 1.077952214492220e+001
 2.651650429450000e+000	 2.651650429450000e+000	 1.071559898817487e+001
 2.624050257815533e+000	 2.678966264151706e+000	 1.075075615936724e+001
 2.596170211114461e+000	 2.705993391515634e+000	 1.076258164204026e+001
 2.568014840268935e+000	 2.732727534929508e+000	 1.075173330312263e+001
 2.539588782783472e+000	 2.759164513826918e+000	 1.071891998369264e+001
 2.510896760202157e+000	 2.785300245862960e+000	 1.066489866253990e+001
 2.481943575500790e+000	 2.811130749008874e+000	 1.062024805220979e+001
 2.452734110416955e+000	 2.836652143563399e+000	 1.056862679150411e+001
 2.423273322721160e+000	 2.861860654078760e+000	 1.049075556806067e+001
 2.393566243432212e+000	 2.886752611199269e+000	 1.038660694216693e+001
 2.363617973980084e+000	 2.911324453410707e+000	 1.025620641846256e+001
 2.669328098979750e+000	 2.669328098979750e+000	 1.078353174111593e+001
 2.641543926200946e+000	 2.696826039246255e+000	 1.079654945931983e+001
 2.613478012521847e+000	 2.724033347459337e+000	 1.079014223439412e+001
 2.585134939204086e+000	 2.750945718495975e+000	 1.076512011073232e+001
 2.556519374668874e+000	 2.777558943919311e+000	 1.072234124542214e+001
 2.527636071937259e+000	 2.803868914168815e+000	 1.066270887442611e+001
 2.498489866004878e+000	 2.829871620668864e+000	 1.058989078827951e+001
 2.469085671154231e+000	 2.855563157853522e+000	 1.054846668408928e+001
 2.439428478207632e+000	 2.880939725105363e+000	 1.048537367039440e+001
 2.409523351724013e+000	 2.905997628606329e+000	 1.040069529757020e+001
 2.379375427142877e+000	 2.930733283098773e+000	 1.029456468294454e+001
 2.687005768509000e+000	 2.687005768509000e+000	 1.083633046839477e+001
 2.659037594585950e+000	 2.714685814340219e+000	 1.082927022316059e+001
 2.630785813928895e+000	 2.742073303402402e+000	 1.080662789773140e+001
 2.602255038138947e+000	 2.769163902061777e+000	 1.076936549775047e+001
 2.573449966554016e+000	 2.795953374011047e+000	 1.071849033698151e+001
 2.544375383672111e+000	 2.822437582474046e+000	 1.065505180552202e+001
 2.515036156508704e+000	 2.848612492328293e+000	 1.058013802610357e+001
 2.485437231891216e+000	 2.874474172143180e+000	 1.052136754892628e+001
 2.455583633693764e+000	 2.900018796131629e+000	 1.047481373401345e+001
 2.425480460015402e+000	 2.925242646013206e+000	 1.041129545800919e+001
 2.395132880305170e+000	 2.950142112786840e+000	 1.033105332700569e+001
 2.704683438037750e+000	 2.704683438037750e+000	 1.087454590867637e+001
 2.676531262970543e+000	 2.732545589433597e+000	 1.084941934635601e+001
 2.648093615335602e+000	 2.760113259344826e+000	 1.081249044398369e+001
 2.619375137073518e+000	 2.787382085626915e+000	 1.076487298057944e+001
 2.590380558438898e+000	 2.814347804102123e+000	 1.070772329517404e+001
 2.561114695406711e+000	 2.841006250778652e+000	 1.064223685643943e+001
 2.531582447012270e+000	 2.867353363987166e+000	 1.056964472326500e+001
 2.501788792627911e+000	 2.893385186432378e+000	 1.049120990626449e+001
 2.471738789179555e+000	 2.919097867157557e+000	 1.045940547452321e+001
 2.441437568306380e+000	 2.944487663419903e+000	 1.041869535755409e+001
 2.410890333466960e+000	 2.969550942474911e+000	 1.036591937856193e+001
 2.722361107566000e+000	 2.722361107566000e+000	 1.089872651561560e+001
 2.694024931354727e+000	 2.750405364526391e+000	 1.085749660465567e+001
 2.665401416741969e+000	 2.778153215286610e+000	 1.080818170466915e+001
 2.636495236007799e+000	 2.805600269191388e+000	 1.075204720797891e+001
 2.607311150323519e+000	 2.832742234192540e+000	 1.069039837487224e+001
 2.577854007141061e+000	 2.859574919082636e+000	 1.062457670400415e+001
 2.548128737515575e+000	 2.886094235645479e+000	 1.055595619652005e+001
 2.518140353364315e+000	 2.912296200721112e+000	 1.048593952428540e+001
 2.487893944665004e+000	 2.938176938183148e+000	 1.043948488796880e+001
 2.457394676596946e+000	 2.963732680826416e+000	 1.042319015387983e+001
 2.426647786628250e+000	 2.988959772162985e+000	 1.039941800247218e+001
 2.740038777093750e+000	 2.740038777093750e+000	 1.090941853156731e+001
 2.711518599738501e+000	 2.768265139618600e+000	 1.085400069021211e+001
 2.682709218147995e+000	 2.796193171227754e+000	 1.079415353026072e+001
 2.653615334941789e+000	 2.823818452755196e+000	 1.073129392453819e+001
 2.624241742207880e+000	 2.851136664282297e+000	 1.066687597746715e+001
 2.594593318875161e+000	 2.878143587385995e+000	 1.060238719557162e+001
 2.564675028018620e+000	 2.904835107303235e+000	 1.053934455438868e+001
 2.534491914100429e+000	 2.931207215009382e+000	 1.047929047258098e+001
 2.504049100150112e+000	 2.957256009208400e+000	 1.042378870433984e+001
 2.473351784887102e+000	 2.982977698232746e+000	 1.042508199524663e+001
 2.442405239789038e+000	 3.008368601851061e+000	 1.043181223805637e+001
 2.757716446621000e+000	 2.757716446620999e+000	 1.090716605846128e+001
 2.729012268121864e+000	 2.786124914710225e+000	 1.083942924631143e+001
 2.700017019553682e+000	 2.814233127168259e+000	 1.077085778957861e+001
 2.670735433875489e+000	 2.842036636318339e+000	 1.070301993555355e+001
 2.641172334091982e+000	 2.869531094371395e+000	 1.063751858206969e+001
 2.611332630609010e+000	 2.896712255688730e+000	 1.057598724740735e+001
 2.581221318521404e+000	 2.923575978960431e+000	 1.052008593920945e+001
 2.550843474836251e+000	 2.950118229297189e+000	 1.047149693360994e+001
 2.520204255634879e+000	 2.976335080233315e+000	 1.043192047606804e+001
 2.489308893176847e+000	 3.002222715638894e+000	 1.042467979644286e+001
 2.458162692949325e+000	 3.027777431539140e+000	 1.046337274670888e+001
 2.775394116147749e+000	 2.775394116147750e+000	 1.089251112596863e+001
 2.746505936504817e+000	 2.803984689801263e+000	 1.081427890077680e+001
 2.717324820959029e+000	 2.832273083108124e+000	 1.073874636920600e+001
 2.687855532808899e+000	 2.860254819880818e+000	 1.066763307324766e+001
 2.658102925975822e+000	 2.887925524459834e+000	 1.060269067934123e+001
 2.628071942342609e+000	 2.915280923990842e+000	 1.054569874695097e+001
 2.597767609023927e+000	 2.942316850617070e+000	 1.049846039867397e+001
 2.567195035571781e+000	 2.969029243584532e+000	 1.046279790349087e+001
 2.536359411119304e+000	 2.995414151257892e+000	 1.044054818505864e+001
 2.505266001466179e+000	 3.021467733044860e+000	 1.043355826718961e+001
 2.473920146109110e+000	 3.047186261227222e+000	 1.049437756915735e+001
 2.793071785673999e+000	 2.793071785673999e+000	 1.086599375707964e+001
 2.763999604887362e+000	 2.821844464891717e+000	 1.077904529810324e+001
 2.734632622364035e+000	 2.850313039047350e+000	 1.069827117292684e+001
 2.704975631742019e+000	 2.878473003442633e+000	 1.062554216427195e+001
 2.675033517859402e+000	 2.906319954547613e+000	 1.056275870783689e+001
 2.644811254075957e+000	 2.933849592292329e+000	 1.051184645879170e+001
 2.614313899526189e+000	 2.961057722273150e+000	 1.047475176223978e+001
 2.583546596307021e+000	 2.987940257871413e+000	 1.045343703967108e+001
 2.552514566603390e+000	 3.014493222282131e+000	 1.044987610371524e+001
 2.521223109755101e+000	 3.040712750450644e+000	 1.046604941374219e+001
 2.489677599268394e+000	 3.066595090915306e+000	 1.052511189193941e+001
 2.810749455199750e+000	 2.810749455199749e+000	 1.082815203120692e+001
 2.781493273269495e+000	 2.839704239981586e+000	 1.073422313037998e+001
 2.751940423768702e+000	 2.868352994985934e+000	 1.064988412118506e+001
 2.722095730674848e+000	 2.896691187003782e+000	 1.057715699843527e+001
 2.691964109742721e+000	 2.924714384634734e+000	 1.051809099275110e+001
 2.661550565809055e+000	 2.952418260593193e+000	 1.047475793419197e+001
 2.630860190028191e+000	 2.979798593928671e+000	 1.044924752220684e+001
 2.599898157041970e+000	 3.006851272157832e+000	 1.044366251434405e+001
 2.568669722087133e+000	 3.033572293306033e+000	 1.046011384644099e+001
 2.537180218043611e+000	 3.059957767856244e+000	 1.050071569724741e+001
 2.505435052427177e+000	 3.086003920603393e+000	 1.056758051062521e+001
 2.828427124725000e+000	 2.828427124725000e+000	 1.077952214492220e+001
 2.798986941651219e+000	 2.857564015070872e+000	 1.068030616705311e+001
 2.769248225173028e+000	 2.886392950923880e+000	 1.059403715056384e+001
 2.739215829607388e+000	 2.914909370564268e+000	 1.052288829860521e+001
 2.708894701625783e+000	 2.943108814721196e+000	 1.046905768696002e+001
 2.678289877541903e+000	 2.970986928893433e+000	 1.043476342400388e+001
 2.647406480529932e+000	 2.998539465583634e+000	 1.042223871925380e+001
 2.616249717776630e+000	 3.025762286443787e+000	 1.043372687336361e+001
 2.584824877570536e+000	 3.052651364329597e+000	 1.047147620270100e+001
 2.553137326331711e+000	 3.079202785261663e+000	 1.053773491187012e+001
 2.521192505585459e+000	 3.105412750291483e+000	 1.063474592772561e+001
 2.363617973980084e+000	 2.911324453410707e+000	 1.025620641846256e+001
 2.333433683319122e+000	 2.935572728699535e+000	 1.008565184983798e+001
 2.303018604996550e+000	 2.959494096117997e+000	 9.958883885906985e+000
 2.272378034178562e+000	 2.983085327255383e+000	 9.877412312615654e+000
 2.241517324636550e+000	 3.006343307615601e+000	 9.842719088036407e+000
 2.210441885698607e+000	 3.029265037897612e+000	 9.856254933328186e+000
 2.179157179169300e+000	 3.051847635178518e+000	 9.919435933848707e+000
 2.147668716221342e+000	 3.074088333998506e+000	 1.003364015980379e+001
 2.115982054262759e+000	 3.095984487346924e+000	 1.020020431579101e+001
 2.084102793783212e+000	 3.117533567548997e+000	 1.042042042853386e+001
 2.052036575183095e+000	 3.138733167052782e+000	 1.019112687458816e+001
 2.379375427142877e+000	 2.930733283098773e+000	 1.029456468294454e+001
 2.348989907878144e+000	 2.955143213555779e+000	 1.018170589531024e+001
 2.318372062367228e+000	 2.979224056756658e+000	 1.011283943839138e+001
 2.287527221077428e+000	 3.002972562767960e+000	 1.008946384281277e+001
 2.256460773471950e+000	 3.026385596330287e+000	 1.011305066537498e+001
 2.225178164941071e+000	 3.049460138147258e+000	 1.018504104162684e+001
 2.193684893701392e+000	 3.072193286076492e+000	 1.030684224658798e+001
 2.161986507666774e+000	 3.094582256221773e+000	 1.047982427316610e+001
 2.130088601294634e+000	 3.116624383925715e+000	 1.070531643778989e+001
 2.097996812411230e+000	 3.138317124662376e+000	 1.052438638788876e+001
 2.065716819019625e+000	 3.159658054829465e+000	 1.007197728988552e+001
 2.395132880305170e+000	 2.950142112786840e+000	 1.033105332700569e+001
 2.364546132436579e+000	 2.974713698412216e+000	 1.027485096794890e+001
 2.333725519737264e+000	 2.998954017395681e+000	 1.026283931375586e+001
 2.302676407975629e+000	 3.022859798281050e+000	 1.029650679490088e+001
 2.271404222306690e+000	 3.046427885045616e+000	 1.037731573813497e+001
 2.239914444182912e+000	 3.069655238397657e+000	 1.050669887889507e+001
 2.208212608232925e+000	 3.092538936975307e+000	 1.068605587983624e+001
 2.176304299111745e+000	 3.115076178445951e+000	 1.091674986519454e+001
 2.144195148326173e+000	 3.137264280505467e+000	 1.080258829316203e+001
 2.111890831039068e+000	 3.159100681776744e+000	 1.038428669160882e+001
 2.079397062856160e+000	 3.180582942607150e+000	 9.971403652047325e+000
 2.410890333466960e+000	 2.969550942474911e+000	 1.036591937856193e+001
 2.380102356994429e+000	 2.994284183268845e+000	 1.036534480482660e+001
 2.349078977106659e+000	 3.018683978035067e+000	 1.040915162334400e+001
 2.317825594873165e+000	 3.042747033794653e+000	 1.049881931949250e+001
 2.286347671140771e+000	 3.066470173761587e+000	 1.063580216139665e+001
 2.254650723424129e+000	 3.089850338648807e+000	 1.082152567039252e+001
 2.222740322763901e+000	 3.112884587874964e+000	 1.105738309556203e+001
 2.190622090556255e+000	 3.135570100671041e+000	 1.102454435524082e+001
 2.158301695357377e+000	 3.157904177086178e+000	 1.064260553097558e+001
 2.125784849666726e+000	 3.179884238892103e+000	 1.026365165275205e+001
 2.093077306692701e+000	 3.201507830385834e+000	 9.889319187744224e+000
 2.426647786628250e+000	 2.988959772162985e+000	 1.039941800247218e+001
 2.395658581551693e+000	 3.013854668125669e+000	 1.045345284573745e+001
 2.364432434475413e+000	 3.038413938674816e+000	 1.055205174898900e+001
 2.332974781770036e+000	 3.062634269308767e+000	 1.069668640765075e+001
 2.301291119974192e+000	 3.086512462478199e+000	 1.088880420304671e+001
 2.269387002664723e+000	 3.110045438900708e+000	 1.112982462913485e+001
 2.237268037294321e+000	 3.133230238775461e+000	 1.118907014940097e+001
 2.204939882000303e+000	 3.156064022897041e+000	 1.084573441936010e+001
 2.172408242388246e+000	 3.178544073667851e+000	 1.050295926000525e+001
 2.139678868294204e+000	 3.200667796008453e+000	 1.016238607782538e+001
 2.106757550529247e+000	 3.222432718165518e+000	 9.825641031859686e+000
 2.442405239789038e+000	 3.008368601851061e+000	 1.043181223805637e+001
 2.411214806108369e+000	 3.033425152982682e+000	 1.053944798472208e+001
 2.379785891843528e+000	 3.058143899314927e+000	 1.069182210848160e+001
 2.348123968666241e+000	 3.082521504823392e+000	 1.089039967022988e+001
 2.316234568806955e+000	 3.106554751195452e+000	 1.113662233691361e+001
 2.284123281904694e+000	 3.130240539153362e+000	 1.129498290879547e+001
 2.251795751824183e+000	 3.153575889676799e+000	 1.099247574195956e+001
 2.219257673443891e+000	 3.176557945123951e+000	 1.068811580246958e+001
 2.186514789418780e+000	 3.199183970250483e+000	 1.038354641235675e+001
 2.153572886921501e+000	 3.221451353125791e+000	 1.008039895145797e+001
 2.120437794365798e+000	 3.243357605946203e+000	 9.780290101418808e+000
 2.458162692949325e+000	 3.027777431539140e+000	 1.046337274670888e+001
 2.426771030664461e+000	 3.052995637839891e+000	 1.062361033114963e+001
 2.395139349211001e+000	 3.077873859955400e+000	 1.082875193005876e+001
 2.363273155561783e+000	 3.102408740338531e+000	 1.108025712570228e+001
 2.331178017639058e+000	 3.126597039913347e+000	 1.134109944869269e+001
 2.298859561144042e+000	 3.150435639406766e+000	 1.108163148833389e+001
 2.266323466353488e+000	 3.173921540578977e+000	 1.081791032347074e+001
 2.233575464887016e+000	 3.197051867351772e+000	 1.055157808748328e+001
 2.200621336448977e+000	 3.219823866834076e+000	 1.028426835095958e+001
 2.167466905548620e+000	 3.242234910244121e+000	 1.001760330248656e+001
 2.134118038202355e+000	 3.264282493727888e+000	 9.753190974365792e+000
 2.473920146109110e+000	 3.047186261227222e+000	 1.049437756915735e+001
 2.442327255219966e+000	 3.072566122697290e+000	 1.070622697993015e+001
 2.410492806577833e+000	 3.097603820596236e+000	 1.096313703551041e+001
 2.378422342456658e+000	 3.122295975854182e+000	 1.126656299609439e+001
 2.346121466470502e+000	 3.146639328631884e+000	 1.111200116449955e+001
 2.313595840382766e+000	 3.170630739660922e+000	 1.089112939550793e+001
 2.280851180882235e+000	 3.194267191481998e+000	 1.066525663279729e+001
 2.247893256329681e+000	 3.217545789580505e+000	 1.043601552438567e+001
 2.214727883478839e+000	 3.240463763418629e+000	 1.020503072845795e+001
 2.181360924175558e+000	 3.263018467363440e+000	 9.973916075159645e+000
 2.147798282038917e+000	 3.285207381510571e+000	 9.744271772974086e+000
 2.489677599268394e+000	 3.066595090915306e+000	 1.052511189193941e+001
 2.457883479774885e+000	 3.092136607554884e+000	 1.078759179045321e+001
 2.425846263944025e+000	 3.117333781237435e+000	 1.109527963152273e+001
 2.393571529350869e+000	 3.142183211370345e+000	 1.108237979751306e+001
 2.361064915301287e+000	 3.166681617351064e+000	 1.090655502109956e+001
 2.328332119620868e+000	 3.190825839915830e+000	 1.072335301066918e+001
 2.295378895410425e+000	 3.214612842385859e+000	 1.053440229638449e+001
 2.262211047771884e+000	 3.238039711810147e+000	 1.034132688253962e+001
 2.228834430508366e+000	 3.261103660004143e+000	 1.014574335146024e+001
 2.195254942802317e+000	 3.283802024483750e+000	 9.949258005231449e+000
 2.161478525875483e+000	 3.306132269294256e+000	 9.753464051684064e+000
 2.505435052427177e+000	 3.086003920603393e+000	 1.056758051062521e+001
 2.473439704329218e+000	 3.111707092412669e+000	 1.086800517386839e+001
 2.441199721309576e+000	 3.137063741878996e+000	 1.099155604328768e+001
 2.408720716244414e+000	 3.162070446887020e+000	 1.086296263099694e+001
 2.376008364131412e+000	 3.186723906070886e+000	 1.072463150672614e+001
 2.343068398858345e+000	 3.211020940171488e+000	 1.057818380721849e+001
 2.309906609938059e+000	 3.234958493290562e+000	 1.042523967456241e+001
 2.276528839213626e+000	 3.258533634040700e+000	 1.026741530856743e+001
 2.242940977537558e+000	 3.281743556590617e+000	 1.010632004991132e+001
 2.209148961428895e+000	 3.304585581605049e+000	 9.943553500732664e+000
 2.175158769712056e+000	 3.327057157078940e+000	 9.780702689173413e+000
 2.521192505585459e+000	 3.105412750291483e+000	 1.063474592772561e+001
 2.488995928882964e+000	 3.131277577270647e+000	 1.083831040814696e+001
 2.456553178674486e+000	 3.156793702520920e+000	 1.075911919059412e+001
 2.423869903137295e+000	 3.181957682404208e+000	 1.066784772260818e+001
 2.390951812960879e+000	 3.206766194791349e+000	 1.056610639374449e+001
 2.357804678095201e+000	 3.231216040427900e+000	 1.045550819244821e+001
 2.324434324465135e+000	 3.255304144196106e+000	 1.033766571361213e+001
 2.290846630654907e+000	 3.279027556272165e+000	 1.021418818956148e+001
 2.257047524566414e+000	 3.302383453178052e+000	 1.008667855136317e+001
 2.223042980055295e+000	 3.325369138727341e+000	 9.956730527211402e+000
 2.188839013548634e+000	 3.347982044864625e+000	 9.825925784474398e+000
 2.052036575183095e+000	 3.138733167052782e+000	 1.019112687458816e+001
 2.019789075589026e+000	 3.159580999116348e+000	 9.934927953596281e+000
 1.987366005659461e+000	 3.180074898394475e+000	 9.717530731304647e+000
 1.954773106383973e+000	 3.200212821425363e+000	 9.540449872966429e+000
 1.922016145879748e+000	 3.219992847017981e+000	 9.405143850080984e+000
 1.889100916188957e+000	 3.239413176539813e+000	 9.313012913351047e+000
 1.856033230080492e+000	 3.258472134105683e+000	 9.221248389407108e+000
 1.822818917859585e+000	 3.277168166668327e+000	 9.124901658340558e+000
 1.789463824188730e+000	 3.295499844011498e+000	 9.057523048590975e+000
 1.755973804923333e+000	 3.313465858646516e+000	 9.025059883980140e+000
 1.722354723965393e+000	 3.331065025613313e+000	 9.033292685765201e+000
 2.065716819019625e+000	 3.159658054829465e+000	 1.007197728988552e+001
 2.033254336094089e+000	 3.180644872440123e+000	 9.854967320733417e+000
 2.000615112364274e+000	 3.201275397713506e+000	 9.672177059528925e+000
 1.967804927093015e+000	 3.221547573564735e+000	 9.525099122864157e+000
 1.934829586851615e+000	 3.241459465994842e+000	 9.415173978329644e+000
 1.901694922295856e+000	 3.261009264380424e+000	 9.343787884187606e+000
 1.868406784946424e+000	 3.280195281663736e+000	 9.299219059436325e+000
 1.834971043977251e+000	 3.299015954443868e+000	 9.230080435793413e+000
 1.801393583015249e+000	 3.317469842969797e+000	 9.185703346535370e+000
 1.767680296954858e+000	 3.335555631036250e+000	 9.172207147530411e+000
 1.733837088790757e+000	 3.353272125783427e+000	 9.195545929978115e+000
 2.079397062856160e+000	 3.180582942607150e+000	 9.971403652047325e+000
 2.046719596599342e+000	 3.201708745764888e+000	 9.792032956571724e+000
 2.013864219069431e+000	 3.222475897033497e+000	 9.642355657493384e+000
 1.980836747802525e+000	 3.242882325705017e+000	 9.523843207128813e+000
 1.947643027824043e+000	 3.262926084972539e+000	 9.437918909914371e+000
 1.914288928403380e+000	 3.282605352221780e+000	 9.385955828047074e+000
 1.880780339813014e+000	 3.301918429222424e+000	 9.369274791263878e+000
 1.847123170095580e+000	 3.320863742219913e+000	 9.334384105190713e+000
 1.813323341842404e+000	 3.339439841928448e+000	 9.310475200700951e+000
 1.779386788986964e+000	 3.357645403426167e+000	 9.313474599030212e+000
 1.745319453616616e+000	 3.375479225953533e+000	 9.349514121855712e+000
 2.093077306692701e+000	 3.201507830385834e+000	 9.889319187744224e+000
 2.060184857104785e+000	 3.222772619090644e+000	 9.746061801157861e+000
 2.027113325774932e+000	 3.243676396354447e+000	 9.628026066773892e+000
 1.993868568512505e+000	 3.264217077846208e+000	 9.536663152589375e+000
 1.960456468797033e+000	 3.284392703951076e+000	 9.473380036920391e+000
 1.926882934511530e+000	 3.304201440063883e+000	 9.439537379258914e+000
 1.893153894680265e+000	 3.323641576781748e+000	 9.436447490883852e+000
 1.859275296214572e+000	 3.342711529996462e+000	 9.439123106692900e+000
 1.825253100670198e+000	 3.361409840887453e+000	 9.433133037096621e+000
 1.791093281019651e+000	 3.379735175816265e+000	 9.450139358023783e+000
 1.756801818442972e+000	 3.397686326123631e+000	 9.496455817774937e+000
 2.106757550529247e+000	 3.222432718165518e+000	 9.825641031859686e+000
 2.073650117610419e+000	 3.243836492417388e+000	 9.716994008836352e+000
 2.040362432480778e+000	 3.264876895676356e+000	 9.629150378659423e+000
 2.006900389222952e+000	 3.285551829988306e+000	 9.563541900746612e+000
 1.973269909770586e+000	 3.305859322930449e+000	 9.521560060801013e+000
 1.939476940620305e+000	 3.325797527906732e+000	 9.504553906128120e+000
 1.905527449548174e+000	 3.345364724341706e+000	 9.513827976386891e+000
 1.871427422334229e+000	 3.364559317773515e+000	 9.545607553981535e+000
 1.837182859498628e+000	 3.383379839846811e+000	 9.554970470439235e+000
 1.802799773052920e+000	 3.401824948206546e+000	 9.583477278358133e+000
 1.768284183269824e+000	 3.419893426293720e+000	 9.637627884494421e+000
 2.120437794365798e+000	 3.243357605946203e+000	 9.780290101418808e+000
 2.087115378116242e+000	 3.264900365745122e+000	 9.704772844562527e+000
 2.053611539186969e+000	 3.286077394999225e+000	 9.645693151902831e+000
 2.019932209933868e+000	 3.306886582131313e+000	 9.604464246009188e+000
 1.986083350744701e+000	 3.327325941910659e+000	 9.582462950139494e+000
 1.952070946729707e+000	 3.347393615750327e+000	 9.581027487258208e+000
 1.917901004416744e+000	 3.367087871902299e+000	 9.601455370231172e+000
 1.883579548454547e+000	 3.386407105551073e+000	 9.645001387233272e+000
 1.849112618327695e+000	 3.405349838806522e+000	 9.677280330323946e+000
 1.814506265086770e+000	 3.423914720597010e+000	 9.714762989012309e+000
 1.779766548097172e+000	 3.442100526463804e+000	 9.774285553658430e+000
 2.134118038202355e+000	 3.264282493727888e+000	 9.753190974365792e+000
 2.100580638622255e+000	 3.285964239073846e+000	 9.709344584203576e+000
 2.066860645893503e+000	 3.307277894323052e+000	 9.677621333635925e+000
 2.032964030645252e+000	 3.328221334275228e+000	 9.659416776305751e+000
 1.998896791719378e+000	 3.348792560891706e+000	 9.656093900036002e+000
 1.964664952839736e+000	 3.368989703594667e+000	 9.668980888785496e+000
 1.930274559285973e+000	 3.388811019463529e+000	 9.699368971586432e+000
 1.895731674575529e+000	 3.408254893329133e+000	 9.748510362639827e+000
 1.861042377157399e+000	 3.427319837766585e+000	 9.801354686388681e+000
 1.826212757121202e+000	 3.446004492987656e+000	 9.845269933355993e+000
 1.791248912925016e+000	 3.464307626633877e+000	 9.907682474204414e+000
 2.147798282038917e+000	 3.285207381510571e+000	 9.744271772974086e+000
 2.114045899128458e+000	 3.307028112403561e+000	 9.730658418649565e+000
 2.080109752600382e+000	 3.328478393647839e+000	 9.724904183306045e+000
 2.045995851357105e+000	 3.349556086420052e+000	 9.728387815966419e+000
 2.011710232694617e+000	 3.370259179873592e+000	 9.742459293046672e+000
 1.977258958950389e+000	 3.390585791439756e+000	 9.768437542482994e+000
 1.942648114155861e+000	 3.410534167025391e+000	 9.807608250706108e+000
 1.907883800697174e+000	 3.430102681107697e+000	 9.861221756781383e+000
 1.872972135987740e+000	 3.449289836727001e+000	 9.928484872516476e+000
 1.837919249156214e+000	 3.468094265378485e+000	 9.976270406907503e+000
 1.802731277753356e+000	 3.486514726803944e+000	 1.003907076276750e+001
 2.161478525875483e+000	 3.306132269294256e+000	 9.753464051684064e+000
 2.127511159634852e+000	 3.328091985734265e+000	 9.768666361565879e+000
 2.093358859307605e+000	 3.349678892973584e+000	 9.787513199501834e+000
 2.059027672069426e+000	 3.370890838565784e+000	 9.811367370773347e+000
 2.024523673670419e+000	 3.391725798856314e+000	 9.841566661605853e+000
 1.989852965061668e+000	 3.412181879285589e+000	 9.879421524696024e+000
 1.955021669026409e+000	 3.432257314587890e+000	 9.926212843513280e+000
 1.920035926819483e+000	 3.451950468886766e+000	 9.983189779835962e+000
 1.884901894818718e+000	 3.471259835687771e+000	 1.005156770869484e+001
 1.849625741191809e+000	 3.490184037769495e+000	 1.010903559365848e+001
 1.814213642582192e+000	 3.508721826974003e+000	 1.016970105217131e+001
 2.175158769712056e+000	 3.327057157078940e+000	 9.780702689173413e+000
 2.140976420141436e+000	 3.349155859065959e+000	 9.823323160626790e+000
 2.106607966015173e+000	 3.370879392300290e+000	 9.865422049539763e+000
 2.072059492782216e+000	 3.392225590712425e+000	 9.908347075084890e+000
 2.037337114646783e+000	 3.413192417839874e+000	 9.953424651866254e+000
 2.002446971173574e+000	 3.433777967132169e+000	 1.000195753607264e+001
 1.967395223897617e+000	 3.453980462151022e+000	 1.005522254639100e+001
 1.932188052942454e+000	 3.473798256666338e+000	 1.011446836428588e+001
 1.896831653650335e+000	 3.493229834648894e+000	 1.018091341796435e+001
 1.861332233227984e+000	 3.512273810160688e+000	 1.024483560102743e+001
 1.825696007411525e+000	 3.530928927144053e+000	 1.030082253808857e+001
 2.188839013548634e+000	 3.347982044864625e+000	 9.825925784474398e+000
 2.154441680648210e+000	 3.370219732398643e+000	 9.894586212077497e+000
 2.119857072723086e+000	 3.392079891627955e+000	 9.958606501691509e+000
 2.085091313495474e+000	 3.413560342859974e+000	 1.001932014094261e+001
 2.050150555623710e+000	 3.434659036824271e+000	 1.007804298889559e+001
 2.015040977286106e+000	 3.455374054979496e+000	 1.013607088205412e+001
 1.979768778769484e+000	 3.475703609714792e+000	 1.019467731116786e+001
 1.944340179066090e+000	 3.495646044446416e+000	 1.025511117359570e+001
 1.908761412482587e+000	 3.515199833610370e+000	 1.031859460569529e+001
 1.873038725264741e+000	 3.534363582552064e+000	 1.038493949350268e+001
 1.837178372241353e+000	 3.553136027314097e+000	 1.043368302395210e+001
 1.722354723965393e+000	 3.331065025613313e+000	 9.033292685765201e+000
 1.688612450138004e+000	 3.348296282186655e+000	 9.187550881824677e+000
 1.654752854085250e+000	 3.365158687490438e+000	 9.306412308525292e+000
 1.620781805199965e+000	 3.381651422020275e+000	 9.394678981650612e+000
 1.586705168581185e+000	 3.397773787075000e+000	 9.457019100868847e+000
 1.552528802025695e+000	 3.413525204100325e+000	 9.497955356498297e+000
 1.518258553056114e+000	 3.428905213945840e+000	 9.521853746342297e+000
 1.483900255988309e+000	 3.443913476037222e+000	 9.532912924840916e+000
 1.449459729040825e+000	 3.458549767465619e+000	 9.535154104811506e+000
 1.414942771488917e+000	 3.472813981996224e+000	 9.532411530043396e+000
 1.380355160865667e+000	 3.486706128998200e+000	 9.528323534980249e+000
 1.733837088790757e+000	 3.353272125783427e+000	 9.195545929978115e+000
 1.699869866471438e+000	 3.370618257401203e+000	 9.343658866557206e+000
 1.665784539778524e+000	 3.387593078740911e+000	 9.456360083693717e+000
 1.631587017234133e+000	 3.404195764834802e+000	 9.538649989543599e+000
 1.597283203037965e+000	 3.420425612323706e+000	 9.595392067364246e+000
 1.562878994038781e+000	 3.436282038796304e+000	 9.631300839491626e+000
 1.528380276742684e+000	 3.451764582041180e+000	 9.650930353408379e+000
 1.493792924360984e+000	 3.466872899213522e+000	 9.658663212752204e+000
 1.459122793900348e+000	 3.481606765918416e+000	 9.658700174092381e+000
 1.424375723297864e+000	 3.495966075212821e+000	 9.655050328246810e+000
 1.389557528603505e+000	 3.509950836528365e+000	 9.651521882834683e+000
 1.745319453616616e+000	 3.375479225953533e+000	 9.349514121855712e+000
 1.711127282805278e+000	 3.392940232615552e+000	 9.490120001276747e+000
 1.676816225472134e+000	 3.410027469991017e+000	 9.595326354249334e+000
 1.642392229268590e+000	 3.426740107648814e+000	 9.670335682836976e+000
 1.607861237495004e+000	 3.443077437571767e+000	 9.720210387287278e+000
 1.573229186052117e+000	 3.459038873491527e+000	 9.749860381922142e+000
 1.538502000429517e+000	 3.474623950135680e+000	 9.764031245342990e+000
 1.503685592733952e+000	 3.489832322388910e+000	 9.767292928410889e+000
 1.468785858760214e+000	 3.504663764370250e+000	 9.764029041390742e+000
 1.433808675107226e+000	 3.519118168428429e+000	 9.758426739549719e+000
 1.398759896341848e+000	 3.533195544057530e+000	 9.754467224370570e+000
 1.756801818442972e+000	 3.397686326123631e+000	 9.496455817774937e+000
 1.722384699139524e+000	 3.415262207829704e+000	 9.628153975492412e+000
 1.687847911166081e+000	 3.432461861240755e+000	 9.724491681285040e+000
 1.653197441303334e+000	 3.449284450462311e+000	 9.790877273300739e+000
 1.618439271952301e+000	 3.465729262819184e+000	 9.832575742507816e+000
 1.583579378065703e+000	 3.481795708185998e+000	 9.854695995149164e+000
 1.548623724116612e+000	 3.497483318229334e+000	 9.862178661939780e+000
 1.513578261107214e+000	 3.512791745563388e+000	 9.859784478084453e+000
 1.478448923620424e+000	 3.527720762821125e+000	 9.852083256077673e+000
 1.443241626917003e+000	 3.542270261643044e+000	 9.843443471096117e+000
 1.407962264080697e+000	 3.556440251585694e+000	 9.838022476620255e+000
 1.768284183269824e+000	 3.419893426293720e+000	 9.637627884494421e+000
 1.733642115474177e+000	 3.437584183043659e+000	 9.758978891376902e+000
 1.698879596860366e+000	 3.454896252490127e+000	 9.845035147449911e+000
 1.664002653338367e+000	 3.471828793275292e+000	 9.901414609681869e+000
 1.629017306409859e+000	 3.488381088065955e+000	 9.933588573735561e+000
 1.593929570079541e+000	 3.504552542879714e+000	 9.946868577587356e+000
 1.558745447803969e+000	 3.520342686322147e+000	 9.946393864522557e+000
 1.523470929480768e+000	 3.535751168736953e+000	 9.937119430210371e+000
 1.488111988480978e+000	 3.550777761271039e+000	 9.923804676399348e+000
 1.452674578727196e+000	 3.565422354856672e+000	 9.911002691574021e+000
 1.417164631820050e+000	 3.579684959112860e+000	 9.903050176689140e+000
 1.779766548097172e+000	 3.442100526463804e+000	 9.774285553658430e+000
 1.744899531809236e+000	 3.459906158257415e+000	 9.883811314970966e+000
 1.709911282554987e+000	 3.477330643739131e+000	 9.958134404641079e+000
 1.674807865373687e+000	 3.494373136087755e+000	 1.000308622167287e+001
 1.639595340867676e+000	 3.511032913312080e+000	 1.002434812055736e+001
 1.604279762093628e+000	 3.527309377572676e+000	 1.002743795060777e+001
 1.568867171491587e+000	 3.543202054414117e+000	 1.001769716750922e+001
 1.533363597854616e+000	 3.558710591909605e+000	 1.000027854242280e+001
 1.497775053341877e+000	 3.573834759719990e+000	 9.980134491771329e+000
 1.462107530537802e+000	 3.588574448069307e+000	 9.962006048585264e+000
 1.426366999559909e+000	 3.602929666639025e+000	 9.950412494011433e+000
 1.791248912925016e+000	 3.464307626633877e+000	 9.907682474204414e+000
 1.756156948144701e+000	 3.482228133470974e+000	 1.000386632541825e+001
 1.720942968249945e+000	 3.499765034987769e+000	 1.006496571986098e+001
 1.685613077409295e+000	 3.516917478899702e+000	 1.009702936218899e+001
 1.650173375325751e+000	 3.533684738557561e+000	 1.010595245993481e+001
 1.614629954107966e+000	 3.550066212264883e+000	 1.009746289305878e+001
 1.578988895179467e+000	 3.566061422505243e+000	 1.007710796876113e+001
 1.543256266228757e+000	 3.581670015081346e+000	 1.005024178753979e+001
 1.507438118203120e+000	 3.596891758167982e+000	 1.002201324421531e+001
 1.471540482348824e+000	 3.611726541280953e+000	 9.997354685346735e+000
 1.435569367300273e+000	 3.626174374164190e+000	 9.980971242134464e+000
 1.802731277753356e+000	 3.486514726803944e+000	 1.003907076276750e+001
 1.767414364480573e+000	 3.504550108684335e+000	 1.012035756231883e+001
 1.731974653945240e+000	 3.522199426236039e+000	 1.016670401932244e+001
 1.696418289445191e+000	 3.539461821711133e+000	 1.018438004803014e+001
 1.660751409784085e+000	 3.556336563802396e+000	 1.017949854323049e+001
 1.624980146122555e+000	 3.572823046956338e+000	 1.015800117446710e+001
 1.589110618867609e+000	 3.588920790595527e+000	 1.012564477877278e+001
 1.553148934603190e+000	 3.604629438252175e+000	 1.008798837855767e+001
 1.517101183064707e+000	 3.619948756615012e+000	 1.005038084897699e+001
 1.480973434160260e+000	 3.634878634491609e+000	 1.001794925675375e+001
 1.444771735041142e+000	 3.649419081688354e+000	 9.995587890052621e+000
 1.814213642582192e+000	 3.508721826974003e+000	 1.016970105217131e+001
 1.778671780816851e+000	 3.526872083897497e+000	 1.023449727128444e+001
 1.743006339640873e+000	 3.544633817483943e+000	 1.026452293087863e+001
 1.707223501481376e+000	 3.562006164522048e+000	 1.026627309899834e+001
 1.671329444242679e+000	 3.578988389046586e+000	 1.024608223182822e+001
 1.635330338137394e+000	 3.595579881647038e+000	 1.021010958697879e+001
 1.599232342556013e+000	 3.611780158684968e+000	 1.016432524875314e+001
 1.563041602977918e+000	 3.627588861422092e+000	 1.011449679269576e+001
 1.526764247926639e+000	 3.643005755061083e+000	 1.006617661436055e+001
 1.490406385972112e+000	 3.658030727701275e+000	 1.002468994483326e+001
 1.453974102782516e+000	 3.672663789211519e+000	 9.995123573110968e+000
 1.825696007411525e+000	 3.530928927144053e+000	 1.030082253808857e+001
 1.789929197153535e+000	 3.549194059110465e+000	 1.034749634777433e+001
 1.754038025336842e+000	 3.567068208731479e+000	 1.035959482485205e+001
 1.718028713517848e+000	 3.584550507332447e+000	 1.034384217553919e+001
 1.681907478701532e+000	 3.601640214290131e+000	 1.030679833140914e+001
 1.645680530152484e+000	 3.618336716336984e+000	 1.025484397609410e+001
 1.609354066244679e+000	 3.634639526773566e+000	 1.019416619764713e+001
 1.572934271352937e+000	 3.650548284591098e+000	 1.013074479453419e+001
 1.536427312788914e+000	 3.666062753506191e+000	 1.007033926081502e+001
 1.499839337784378e+000	 3.681182820909950e+000	 1.001847647361384e+001
 1.463176470524395e+000	 3.695908496733685e+000	 9.980439103497345e+000
 1.837178372241353e+000	 3.553136027314097e+000	 1.043368302395210e+001
 1.801186613490626e+000	 3.571516034323234e+000	 1.046056437928796e+001
 1.765069711033149e+000	 3.589502599978649e+000	 1.045309085333233e+001
 1.728833925554609e+000	 3.607094850142331e+000	 1.041821981497182e+001
 1.692485513160644e+000	 3.624292039533032e+000	 1.036274062494229e+001
 1.656030722167824e+000	 3.641093551026176e+000	 1.029325927025038e+001
 1.619475789933607e+000	 3.657498894861323e+000	 1.021618363814386e+001
 1.582826939728251e+000	 3.673507707759193e+000	 1.013770945828383e+001
 1.546090377651534e+000	 3.689119751950341e+000	 1.006380693930459e+001
 1.509272289597059e+000	 3.704334914117636e+000	 1.000020812343826e+001
 1.472378838266780e+000	 3.719153204254850e+000	 9.952394980341129e+000
 1.380355160865667e+000	 3.486706128998200e+000	 9.528323534980249e+000
 1.345702650213483e+000	 3.500226332298184e+000	 9.241115720543608e+000
 1.310990965385763e+000	 3.513374828959480e+000	 8.989698968708979e+000
 1.276225802402121e+000	 3.526151967989605e+000	 8.777464072964312e+000
 1.241412824861386e+000	 3.538558208978484e+000	 8.616721779572197e+000
 1.206557661411701e+000	 3.550594120669679e+000	 8.537745302826330e+000
 1.171665903280343e+000	 3.562260379467235e+000	 8.515407965727414e+000
 1.136743101864962e+000	 3.573557767880753e+000	 8.545880402764336e+000
 1.101794766387843e+000	 3.584487172911278e+000	 8.625460666340215e+000
 1.066826361614632e+000	 3.595049584380677e+000	 8.750576913628112e+000
 1.031843305638912e+000	 3.605246093207198e+000	 8.917789743268580e+000
 1.389557528603505e+000	 3.509950836528365e+000	 9.651521882834683e+000
 1.354674001213380e+000	 3.523561174517189e+000	 9.377305269641116e+000
 1.319730905153325e+000	 3.536797327823012e+000	 9.137923713625677e+000
 1.284733974416420e+000	 3.549659647780074e+000	 8.936884529564892e+000
 1.249688910358818e+000	 3.562148597042228e+000	 8.777715079963020e+000
 1.214601379152982e+000	 3.574264748144659e+000	 8.698990604122630e+000
 1.179477009301037e+000	 3.586008782000778e+000	 8.672868386812617e+000
 1.144321389209951e+000	 3.597381486336912e+000	 8.695439506922575e+000
 1.109140064830153e+000	 3.608383754067450e+000	 8.762929462914116e+000
 1.073938537359064e+000	 3.619016581613070e+000	 8.871700845578406e+000
 1.038722261010886e+000	 3.629281067164810e+000	 9.018255649353359e+000
 1.398759896341848e+000	 3.533195544057530e+000	 9.754467224370570e+000
 1.363645352213865e+000	 3.546896016735199e+000	 9.490999924484708e+000
 1.328470844921530e+000	 3.560219826685568e+000	 9.261510545426186e+000
 1.293242146431385e+000	 3.573167327569589e+000	 9.069626053797148e+000
 1.257964995856909e+000	 3.585738985105054e+000	 8.918713365138387e+000
 1.222645096894885e+000	 3.597935375618769e+000	 8.834329235930328e+000
 1.187288115322284e+000	 3.609757184533504e+000	 8.804427406372627e+000
 1.151899676555395e+000	 3.621205204792322e+000	 8.819121817356677e+000
 1.116485363272793e+000	 3.632280335222947e+000	 8.874564440847315e+000
 1.081050713103668e+000	 3.642983578844875e+000	 8.967051363176850e+000
 1.045601216382847e+000	 3.653316041121927e+000	 9.093025071557559e+000
 1.407962264080697e+000	 3.556440251585694e+000	 9.838022476620255e+000
 1.372616703214941e+000	 3.570230858952214e+000	 9.583048564727376e+000
 1.337210784690379e+000	 3.583642325547142e+000	 9.361293679136448e+000
 1.301750318447017e+000	 3.596675007358150e+000	 9.176507597908106e+000
 1.266241081355659e+000	 3.609329373166961e+000	 9.032176745236027e+000
 1.230688814637408e+000	 3.621606003092005e+000	 8.943885825511009e+000
 1.195099221344086e+000	 3.633505587065414e+000	 8.910230298640974e+000
 1.159477963901295e+000	 3.645028923246981e+000	 8.917091894754833e+000
 1.123830661715762e+000	 3.656176916377770e+000	 8.960548082436814e+000
 1.088162888848445e+000	 3.666950576076089e+000	 9.036827502249073e+000
 1.052480171754797e+000	 3.677351015078551e+000	 9.142312229004673e+000
 1.417164631820050e+000	 3.579684959112860e+000	 9.903050176689140e+000
 1.381588054216606e+000	 3.593565701168235e+000	 9.654299187784650e+000
 1.345950724459871e+000	 3.607064824407739e+000	 9.438105970418528e+000
 1.310258490463315e+000	 3.620182687145757e+000	 9.258346302891839e+000
 1.274517166855068e+000	 3.632919761227950e+000	 9.118629168538025e+000
 1.238732532380554e+000	 3.645276630564371e+000	 9.027782360937277e+000
 1.202910327366441e+000	 3.657253989596509e+000	 8.990419322642779e+000
 1.167056251247652e+000	 3.668852641700889e+000	 8.989510933868640e+000
 1.131175960159060e+000	 3.680073497531919e+000	 9.021059178581606e+000
 1.095275064593396e+000	 3.690917573306717e+000	 9.081224306988800e+000
 1.059359127126733e+000	 3.701385989034681e+000	 9.166327074125555e+000
 1.426366999559909e+000	 3.602929666639025e+000	 9.950412494011433e+000
 1.390559405218861e+000	 3.616900543383259e+000	 9.705598937293946e+000
 1.354690664230007e+000	 3.630487323267354e+000	 9.492778959421406e+000
 1.318766662480280e+000	 3.643690366932413e+000	 9.315957556916803e+000
 1.282793252355136e+000	 3.656510149288022e+000	 9.178869351685721e+000
 1.246776250124320e+000	 3.668947258035864e+000	 9.086138276227837e+000
 1.210721433389350e+000	 3.681002392126788e+000	 9.045133819459437e+000
 1.174634538594466e+000	 3.692676360154049e+000	 9.036536872091681e+000
 1.138521258602688e+000	 3.703970078685392e+000	 9.056272947860169e+000
 1.102387240338519e+000	 3.714884570536753e+000	 9.100432958720131e+000
 1.066238082498657e+000	 3.725420962990318e+000	 9.165275430293733e+000
 1.435569367300273e+000	 3.626174374164190e+000	 9.980971242134464e+000
 1.399530756221705e+000	 3.640235385597289e+000	 9.737794130479243e+000
 1.363430604000785e+000	 3.653909822125991e+000	 9.526142912944586e+000
 1.327274834497910e+000	 3.667198046718112e+000	 9.350155051506462e+000
 1.291069337855863e+000	 3.680100537347176e+000	 9.213693915054096e+000
 1.254819967868708e+000	 3.692617885506485e+000	 9.120341678270462e+000
 1.218532539412814e+000	 3.704750794656250e+000	 9.074510305752474e+000
 1.182212825941735e+000	 3.716500078606457e+000	 9.058324493862056e+000
 1.145866557046644e+000	 3.727866659838192e+000	 9.066361151027817e+000
 1.109499416083815e+000	 3.738851567766201e+000	 9.094640899707498e+000
 1.073117037870568e+000	 3.749455936945461e+000	 9.139359124166980e+000
 1.444771735041142e+000	 3.649419081688354e+000	 9.995587890052621e+000
 1.408502107225139e+000	 3.663570227810325e+000	 9.751730284469911e+000
 1.372170543772207e+000	 3.677332320983648e+000	 9.539026864990843e+000
 1.335783006516208e+000	 3.690705726502858e+000	 9.361750835572238e+000
 1.299345423357249e+000	 3.703690925405412e+000	 9.223897449511783e+000
 1.262863685613718e+000	 3.716288512976234e+000	 9.129176682426264e+000
 1.226343645436830e+000	 3.728499197184897e+000	 9.078682563713240e+000
 1.189791113289461e+000	 3.740323797058116e+000	 9.055025531074948e+000
 1.153211855490931e+000	 3.751763240990319e+000	 9.075817313680979e+000
 1.116611591829284e+000	 3.762818564995061e+000	 9.212375295478493e+000
 1.079995993242467e+000	 3.773490910900110e+000	 9.308655051926392e+000
 1.453974102782516e+000	 3.672663789211519e+000	 9.995123573110968e+000
 1.417473458229163e+000	 3.686905070022366e+000	 9.748252141620288e+000
 1.380910483544273e+000	 3.700754819840327e+000	 9.532258655778630e+000
 1.344291178535171e+000	 3.714213406286652e+000	 9.351555367395097e+000
 1.307621508859294e+000	 3.727281313462730e+000	 9.210272580646105e+000
 1.270907403359349e+000	 3.739959140445111e+000	 9.112251096046439e+000
 1.234154751461400e+000	 3.752247599712728e+000	 9.100004076802925e+000
 1.197369400637643e+000	 3.764147515509024e+000	 9.260764792699085e+000
 1.160557153935546e+000	 3.775659822141769e+000	 9.378836783821575e+000
 1.123723767574925e+000	 3.786785562223331e+000	 9.453099225307140e+000
 1.086874948614353e+000	 3.797525884854265e+000	 9.482570988692174e+000
 1.463176470524395e+000	 3.695908496733685e+000	 9.980439103497345e+000
 1.426444809233777e+000	 3.710239912233413e+000	 9.728203693873583e+000
 1.389650423316982e+000	 3.724177318696026e+000	 9.506664969282607e+000
 1.352799350554802e+000	 3.737721086069491e+000	 9.320377564645376e+000
 1.315897594361998e+000	 3.750871701519130e+000	 9.194111858480630e+000
 1.278951121105601e+000	 3.763629767913117e+000	 9.363307117172052e+000
 1.241965857486524e+000	 3.775996002239742e+000	 9.513384880031898e+000
 1.204947687986281e+000	 3.787971233959182e+000	 9.620821503963875e+000
 1.167902452380490e+000	 3.799556403292545e+000	 9.681176916238250e+000
 1.130835943320740e+000	 3.810752559451013e+000	 9.693277437734400e+000
 1.093753903986227e+000	 3.821560858807927e+000	 9.656095074199675e+000
 1.472378838266780e+000	 3.719153204254850e+000	 9.952394980341129e+000
 1.435416160238980e+000	 3.733574754443465e+000	 9.692428206212291e+000
 1.398390363090334e+000	 3.747599817550745e+000	 9.463071369366091e+000
 1.361307522575099e+000	 3.761228765851378e+000	 9.558212558372830e+000
 1.324173679865361e+000	 3.774462089574614e+000	 9.700672267785738e+000
 1.286994838852475e+000	 3.787300395380251e+000	 9.823529714271173e+000
 1.249776963512203e+000	 3.799744404765943e+000	 9.925581732193257e+000
 1.212525975335377e+000	 3.811794952408592e+000	 9.979810476568805e+000
 1.175247750825765e+000	 3.823452984442649e+000	 9.982587576925493e+000
 1.137948119066728e+000	 3.834719556678107e+000	 9.932685094327503e+000
 1.100632859358089e+000	 3.845595832761096e+000	 9.829026785981313e+000
 1.031843305638912e+000	 3.605246093207198e+000	 8.917789743268580e+000
 9.968509677335214e-001	 3.615077889630200e+000	 8.987800567433586e+000
 9.618546662704745e-001	 3.624546261385974e+000	 9.040642879867090e+000
 9.268596667103948e-001	 3.633652591837827e+000	 9.073436664132682e+000
 8.918711796614018e-001	 3.642398358063881e+000	 9.083487957343737e+000
 8.568943590090273e-001	 3.650785128904496e+000	 9.068288487765566e+000
 8.219343001176299e-001	 3.658814562972306e+000	 9.025514962576880e+000
 7.869960381038450e-001	 3.666488406627660e+000	 8.953028017026202e+000
 7.520845461825005e-001	 3.673808491922170e+000	 8.848870836770161e+000
 7.172047340853255e-001	 3.680776734513124e+000	 8.711267465679095e+000
 6.823614465526605e-001	 3.687395131551449e+000	 8.538620811840900e+000
 1.038722261010886e+000	 3.629281067164810e+000	 9.018255649353359e+000
 1.003496640853508e+000	 3.639178408896960e+000	 9.063163538059550e+000
 9.682670307146524e-001	 3.648709903130721e+000	 9.099687323609466e+000
 9.330387311580148e-001	 3.657876942451823e+000	 9.124899111261263e+000
 8.978169875291034e-001	 3.666681013785578e+000	 9.136052376287402e+000
 8.626069880726867e-001	 3.675123696431280e+000	 9.130581740236041e+000
 8.274138621222203e-001	 3.683206660058982e+000	 9.106102397680033e+000
 7.922426783617848e-001	 3.690931662671435e+000	 9.060409204513199e+000
 7.570984431609736e-001	 3.698300548533930e+000	 8.991475439413273e+000
 7.219860989830624e-001	 3.705315246074803e+000	 8.897451250596882e+000
 6.869105228666611e-001	 3.711977765759321e+000	 8.776661800444391e+000
 1.045601216382847e+000	 3.653316041121927e+000	 9.093025071557559e+000
 1.010142313973292e+000	 3.663278928163324e+000	 9.115345988725625e+000
 9.746793951584590e-001	 3.672873544875174e+000	 9.137902674747110e+000
 9.392177956051151e-001	 3.682101293065625e+000	 9.157718980522862e+000
 9.037627953961567e-001	 3.690963669507182e+000	 9.171995580280477e+000
 8.683196171355896e-001	 3.699462263958071e+000	 9.178109884680845e+000
 8.328934241259661e-001	 3.707598757145765e+000	 9.173615604583715e+000
 7.974893186188113e-001	 3.715374918715417e+000	 9.156241976363516e+000
 7.621123401384853e-001	 3.722792605145996e+000	 9.123892660233995e+000
 7.267674638798087e-001	 3.729853757636888e+000	 9.074644323554491e+000
 6.914595991796617e-001	 3.736560399967698e+000	 9.006744921549462e+000
 1.052480171754797e+000	 3.677351015078551e+000	 9.142312229004673e+000
 1.016787987092874e+000	 3.687379447429296e+000	 9.144528433390994e+000
 9.810917596018945e-001	 3.697037186619333e+000	 9.155437887678520e+000
 9.453968600516957e-001	 3.706325643679235e+000	 9.172015805160600e+000
 9.097086032625616e-001	 3.715246325228693e+000	 9.191409811677335e+000
 8.740322461977363e-001	 3.723800831484869e+000	 9.210939993774238e+000
 8.383729861288674e-001	 3.731990854232656e+000	 9.228098597535157e+000
 8.027359588749252e-001	 3.739818174759607e+000	 9.240549388819403e+000
 7.671262371150359e-001	 3.747284661758370e+000	 9.246126686207873e+000
 7.315488287755649e-001	 3.754392269199381e+000	 9.189352114449433e+000
 6.960086754916622e-001	 3.761143034176585e+000	 9.069496503931338e+000
 1.059359127126733e+000	 3.701385989034681e+000	 9.166327074125555e+000
 1.023433660212254e+000	 3.711479966694873e+000	 9.150888103578129e+000
 9.875041240449586e-001	 3.721200828363198e+000	 9.152439552294888e+000
 9.515759244977561e-001	 3.730549994292652e+000	 9.167907605630502e+000
 9.156544111283184e-001	 3.739528980950109e+000	 9.194386585711049e+000
 8.797448752591266e-001	 3.748139399011674e+000	 9.229139132872179e+000
 8.438525481309244e-001	 3.756382951319652e+000	 9.236137590838666e+000
 8.079825991301267e-001	 3.764261430804004e+000	 9.207995463325057e+000
 7.721401340906250e-001	 3.771776718371052e+000	 9.150738079953781e+000
 7.363301936703308e-001	 3.778930780762282e+000	 9.064767402693695e+000
 7.005577518026629e-001	 3.785725668385978e+000	 8.950606346028446e+000
 1.066238082498657e+000	 3.725420962990318e+000	 9.165275430293733e+000
 1.030079333331432e+000	 3.735580485960057e+000	 9.134599054257846e+000
 9.939164884876516e-001	 3.745364470106771e+000	 9.129051970254434e+000
 9.577549889432969e-001	 3.754774344905874e+000	 9.153929000785592e+000
 9.216002189934274e-001	 3.763811636671434e+000	 9.175375378345553e+000
 8.854575043197607e-001	 3.772477966538485e+000	 9.174977033181659e+000
 8.493321101321368e-001	 3.780775048406757e+000	 9.152720884582045e+000
 8.132292393844149e-001	 3.788704686848607e+000	 9.108712517692371e+000
 7.771540310652526e-001	 3.796268774984041e+000	 9.043175837850281e+000
 7.411115585641064e-001	 3.803469292325590e+000	 8.956452462467127e+000
 7.051068281126635e-001	 3.810308302595879e+000	 8.849000857173254e+000
 1.073117037870568e+000	 3.749455936945461e+000	 9.139359124166980e+000
 1.036725006450407e+000	 3.759681005224847e+000	 9.160199262453839e+000
 1.000328852929973e+000	 3.769528111850049e+000	 9.172467930441746e+000
 9.639340533883177e-001	 3.778998695518903e+000	 9.170948957695535e+000
 9.275460268578878e-001	 3.788094292392663e+000	 9.155354046293898e+000
 8.911701333796380e-001	 3.796816534065304e+000	 9.125508570414306e+000
 8.548116721325048e-001	 3.805167145493967e+000	 9.081351950741556e+000
 8.184758796377906e-001	 3.813147942893417e+000	 9.022937754682461e+000
 7.821679280389191e-001	 3.820760831597336e+000	 8.950433527585069e+000
 7.458929234568915e-001	 3.828007803889304e+000	 8.864120360807728e+000
 7.096559044216639e-001	 3.834890936806286e+000	 8.764392203088406e+000
 1.079995993242467e+000	 3.773490910900110e+000	 9.308655051926392e+000
 1.043370679569180e+000	 3.783781524489244e+000	 9.276572368033454e+000
 1.006741217371923e+000	 3.793691753593033e+000	 9.238668099529010e+000
 9.701131178328185e-001	 3.803223046131738e+000	 9.194507154024961e+000
 9.334918347216998e-001	 3.812376948113800e+000	 9.143762524560886e+000
 8.968827624387593e-001	 3.821155101592128e+000	 9.086216119563810e+000
 8.602912341320280e-001	 3.829559242581284e+000	 9.021759314109850e+000
 8.237225198902534e-001	 3.837591198938436e+000	 8.950393226707353e+000
 7.871818250116240e-001	 3.845252888210939e+000	 8.872228726514440e+000
 7.506742883486861e-001	 3.852546315453426e+000	 8.787486176561325e+000
 7.142049807296647e-001	 3.859473571017202e+000	 8.696494919169437e+000
 1.086874948614353e+000	 3.797525884854265e+000	 9.482570988692174e+000
 1.050016352687752e+000	 3.807882043753248e+000	 9.395055872566358e+000
 1.013153581813503e+000	 3.817855395335725e+000	 9.309142931548038e+000
 9.762921822767995e-001	 3.827447396744380e+000	 9.224362383656890e+000
 9.394376425848640e-001	 3.836659603834843e+000	 9.140347715513039e+000
 9.025953914971243e-001	 3.845493669118960e+000	 9.056836688742044e+000
 8.657707961307070e-001	 3.853951339668710e+000	 8.973672067539187e+000
 8.289691601418034e-001	 3.862034454983661e+000	 8.890802071316488e+000
 7.921957219833679e-001	 3.869744944824850e+000	 8.808280557062558e+000
 7.554556532394906e-001	 3.877084827017957e+000	 8.726266936716970e+000
 7.187540570366653e-001	 3.884056205228624e+000	 8.645025835495114e+000
 1.093753903986227e+000	 3.821560858807927e+000	 9.656095074199675e+000
 1.056662025806120e+000	 3.831982563016857e+000	 9.515435621804079e+000
 1.019565946254710e+000	 3.842019037078121e+000	 9.383663115426717e+000
 9.824712467202608e-001	 3.851671747356828e+000	 9.260272153731927e+000
 9.453834504473798e-001	 3.860942259555793e+000	 9.144855903043958e+000
 9.083080205547327e-001	 3.869832236645799e+000	 9.037107279836006e+000
 8.712503581285412e-001	 3.878343436756241e+000	 8.936819854077873e+000
 8.342158003924408e-001	 3.886477711029093e+000	 8.843888477072698e+000
 7.972096189541502e-001	 3.894237001439067e+000	 8.758309638134660e+000
 7.602370181293044e-001	 3.901623338582893e+000	 8.680181555144504e+000
 7.233031333426661e-001	 3.908638839440555e+000	 8.609704004667428e+000
 1.100632859358089e+000	 3.845595832761096e+000	 9.829026785981313e+000
 1.063307698924287e+000	 3.856083082280073e+000	 9.637494756781075e+000
 1.025978310695547e+000	 3.866182678820226e+000	 9.461997391746600e+000
 9.886503111632020e-001	 3.875896097969085e+000	 9.301992724858994e+000
 9.513292583092478e-001	 3.885224915276651e+000	 9.157032771901593e+000
 9.140206496115850e-001	 3.894170804172645e+000	 9.026764888702610e+000
 8.767299201255315e-001	 3.902735533843882e+000	 8.910932849776739e+000
 8.394624406421656e-001	 3.910920967074734e+000	 8.809377650708180e+000
 8.022235159239715e-001	 3.918729058053593e+000	 8.722038038351951e+000
 7.650183830181282e-001	 3.926161850148238e+000	 8.648950773629542e+000
 7.278522096476668e-001	 3.933221473652993e+000	 8.590250632358012e+000
 6.823614465526605e-001	 3.687395131551449e+000	 8.538620811840900e+000
 6.475594618980655e-001	 3.693665759545780e+000	 8.358721390211008e+000
 6.128034906466536e-001	 3.699590772205656e+000	 8.313207970508346e+000
 5.780981742462332e-001	 3.705172398266263e+000	 8.230816551018926e+000
 5.434480838508562e-001	 3.710412939297010e+000	 8.208092106404514e+000
 5.088577191772321e-001	 3.715314767496883e+000	 8.231166755776393e+000
 4.743315074333467e-001	 3.719880323478916e+000	 8.287899705802978e+000
 4.398738023188180e-001	 3.724112114046291e+000	 8.367856436947420e+000
 4.054888830964485e-001	 3.728012709962431e+000	 8.462284809803208e+000
 3.711809537343516e-001	 3.731584743717474e+000	 8.564088240797741e+000
 3.369541421179410e-001	 3.734830907293413e+000	 8.667796099407479e+000
 6.869105228666611e-001	 3.711977765759321e+000	 8.776661800444391e+000
 6.518765249807942e-001	 3.718290197939601e+000	 8.660104789204842e+000
 6.168888472541161e-001	 3.724254710683340e+000	 8.701694008651449e+000
 5.819521620774202e-001	 3.729873547583952e+000	 8.679612152718192e+000
 5.470710710791198e-001	 3.735149025554649e+000	 8.686993602534145e+000
 5.122501039740348e-001	 3.740083532609068e+000	 8.709718117413329e+000
 4.774937174848724e-001	 3.744679525630999e+000	 8.735447588548903e+000
 4.428062943359139e-001	 3.748939528135642e+000	 8.753604409510043e+000
 4.081921423183810e-001	 3.752866128024844e+000	 8.724154015966946e+000
 3.736554934268416e-001	 3.756461975338673e+000	 8.696747266979989e+000
 3.392005030659454e-001	 3.759729780005672e+000	 8.688079785073493e+000
 6.914595991796617e-001	 3.736560399967698e+000	 9.006744921549462e+000
 6.561935880625281e-001	 3.742914636334019e+000	 8.952560877998193e+000
 6.209742038605993e-001	 3.748918649161690e+000	 9.075646295555270e+000
 5.858061499076541e-001	 3.754574696902358e+000	 9.025606157039682e+000
 5.506940583064660e-001	 3.759885111813030e+000	 8.956119672322151e+000
 5.156424887699670e-001	 3.764852297722003e+000	 8.891179449755692e+000
 4.806559275355834e-001	 3.769478727783819e+000	 8.833668707363025e+000
 4.457387863522613e-001	 3.773766942225699e+000	 8.785960418445752e+000
 4.108954015396412e-001	 3.777719546087911e+000	 8.749925104772547e+000
 3.761300331187448e-001	 3.781339206960455e+000	 8.726939461410673e+000
 3.414468640134582e-001	 3.784628652718419e+000	 8.717895769266759e+000
 6.960086754916622e-001	 3.761143034176585e+000	 9.069496503931338e+000
 6.605106511432675e-001	 3.767539074729034e+000	 8.948144115239197e+000
 6.250595604661036e-001	 3.773582587640705e+000	 8.996528971251831e+000
 5.896601377369348e-001	 3.779275846221478e+000	 8.959438490131204e+000
 5.543170455328952e-001	 3.784621198072152e+000	 8.917861074561429e+000
 5.190348735650283e-001	 3.789621062835687e+000	 8.875624766599964e+000
 4.838181375854797e-001	 3.794277929937377e+000	 8.835753357623725e+000
 4.486712783678602e-001	 3.798594356316461e+000	 8.800754213074617e+000
 4.135986607602287e-001	 3.802572964151630e+000	 8.772626043157402e+000
 3.786045728100609e-001	 3.806216438582819e+000	 8.752867521309307e+000
 3.436932249604792e-001	 3.809527525431660e+000	 8.742486705917143e+000
 7.005577518026629e-001	 3.785725668385978e+000	 8.950606346028446e+000
 6.648277142230121e-001	 3.792163513124647e+000	 8.840371665861829e+000
 6.291449170706286e-001	 3.798246526120384e+000	 8.890367390410553e+000
 5.935141255652624e-001	 3.803976995541310e+000	 8.899997641737439e+000
 5.579400327584075e-001	 3.809357284332017e+000	 8.883955524909952e+000
 5.224272583592184e-001	 3.814389827950121e+000	 8.862280047519052e+000
 4.869803476345614e-001	 3.819077132091672e+000	 8.838136437111007e+000
 4.516037703827107e-001	 3.823421770407929e+000	 8.814167056693298e+000
 4.163019199801437e-001	 3.827426382216003e+000	 8.792499156917113e+000
 3.810791125007904e-001	 3.831093670205766e+000	 8.774753492468102e+000
 3.459395859070087e-001	 3.834426398145392e+000	 8.762053757534650e+000
 7.051068281126635e-001	 3.810308302595879e+000	 8.849000857173254e+000
 6.691447773017617e-001	 3.816787951520856e+000	 8.749014208121327e+000
 6.332302736741743e-001	 3.822910464600731e+000	 8.799824477367979e+000
 5.973681133926367e-001	 3.828678144861858e+000	 8.847618326905057e+000
 5.615630199830025e-001	 3.834093370592623e+000	 8.854720442796049e+000
 5.258196431525382e-001	 3.839158593065305e+000	 8.851444735718951e+000
 4.901425576828286e-001	 3.843876334246704e+000	 8.841098759772818e+000
 4.545362623968127e-001	 3.848249184500100e+000	 8.826460507746175e+000
 4.190051791993861e-001	 3.852279800281029e+000	 8.809786148750046e+000
 3.835536521909326e-001	 3.855970901829293e+000	 8.792818646806712e+000
 3.481859468530463e-001	 3.859325270859617e+000	 8.776797214639240e+000
 7.096559044216639e-001	 3.834890936806286e+000	 8.764392203088406e+000
 6.734618403795165e-001	 3.841412389917662e+000	 8.673818338071486e+000
 6.373156302767410e-001	 3.847574403081744e+000	 8.724678917914066e+000
 6.012221012190578e-001	 3.853379294183118e+000	 8.802636166527540e+000
 5.651860072066806e-001	 3.858829456853971e+000	 8.830473746514342e+000
 5.292120279449868e-001	 3.863927358181238e+000	 8.843418419245738e+000
 4.933047677302811e-001	 3.868675536402473e+000	 8.844920982976348e+000
 4.574687544101661e-001	 3.873076598592977e+000	 8.837895718907211e+000
 4.217084384179559e-001	 3.877133218346708e+000	 8.824728118228325e+000
 3.860281918804882e-001	 3.880848133453403e+000	 8.807283507175852e+000
 3.504323077985923e-001	 3.884224143574332e+000	 8.786916523709158e+000
 7.142049807296647e-001	 3.859473571017202e+000	 8.696494919169437e+000
 6.777789034562769e-001	 3.866036828315065e+000	 8.614532471836183e+000
 6.414009868783286e-001	 3.872238341563422e+000	 8.664710720437890e+000
 6.050760890445256e-001	 3.878080443505093e+000	 8.765387658496442e+000
 5.688089944294413e-001	 3.883565543116061e+000	 8.811533837338221e+000
 5.326044127365643e-001	 3.888696123297920e+000	 8.838500826372918e+000
 4.964669777769190e-001	 3.893474738558979e+000	 8.849883612494571e+000
 4.604012464227710e-001	 3.897904012686559e+000	 8.848733450002598e+000
 4.244116976358532e-001	 3.901986636413041e+000	 8.837565581005739e+000
 3.885027315694566e-001	 3.905725365078096e+000	 8.818367871213090e+000
 3.526786687436464e-001	 3.909123016289539e+000	 8.792610314061262e+000
 7.187540570366653e-001	 3.884056205228624e+000	 8.645025835495114e+000
 6.820959665320421e-001	 3.890661266713064e+000	 8.570906788012012e+000
 6.454863434789370e-001	 3.896902280045765e+000	 8.619701174073619e+000
 6.089300768690401e-001	 3.902781592827782e+000	 8.736210149948308e+000
 5.724319816512852e-001	 3.908301629378893e+000	 8.798219584235648e+000
 5.359967975272713e-001	 3.913464888415352e+000	 8.836991821163640e+000
 4.996291878227421e-001	 3.918273940716222e+000	 8.856267007303410e+000
 4.633337384346276e-001	 3.922731426780847e+000	 8.859234080442612e+000
 4.271149568530779e-001	 3.926840054480027e+000	 8.848538487296215e+000
 3.909772712578382e-001	 3.930602596703370e+000	 8.826290834292436e+000
 3.549250296882090e-001	 3.934021889005239e+000	 8.794076423710646e+000
 7.233031333426661e-001	 3.908638839440555e+000	 8.609704004667428e+000
 6.864130296068128e-001	 3.915285705111661e+000	 8.542693172244753e+000
 6.495717000785661e-001	 3.921566218528774e+000	 8.589432808425142e+000
 6.127840646926014e-001	 3.927482742151186e+000	 8.715441810558980e+000
 5.760549688722118e-001	 3.933037715642467e+000	 8.790850309161876e+000
 5.393891823171073e-001	 3.938233653533534e+000	 8.839191399200798e+000
 5.027913978677507e-001	 3.943073142874203e+000	 8.864351384198239e+000
 4.662662304457357e-001	 3.947558840875840e+000	 8.869657621184464e+000
 4.298182160696302e-001	 3.951693472547667e+000	 8.857886239654826e+000
 3.934518109456329e-001	 3.955479828329227e+000	 8.831270811608347e+000
 3.571713906322799e-001	 3.958920761721430e+000	 8.791511924254166e+000
 7.278522096476668e-001	 3.933221473652993e+000	 8.590250632358012e+000
 6.907300926805886e-001	 3.939910143510855e+000	 8.529645163883975e+000
 6.536570566772164e-001	 3.946230157012450e+000	 8.573689354801671e+000
 6.166380525152096e-001	 3.952183891475303e+000	 8.703421606838980e+000
 5.796779560922215e-001	 3.957773801906784e+000	 8.789745772903542e+000
 5.427815671060725e-001	 3.963002418652466e+000	 8.845399683476959e+000
 5.059536079119449e-001	 3.967872345032923e+000	 8.874416822236848e+000
 4.691987224560952e-001	 3.972386254971538e+000	 8.880263726246243e+000
 4.325214752855099e-001	 3.976546890615961e+000	 8.865847710092190e+000
 3.959263506328407e-001	 3.980357059955667e+000	 8.833525559431152e+000
 3.594177515758589e-001	 3.983819634438112e+000	 8.785113144821194e+000
 3.369541421179410e-001	 3.734830907293413e+000	 8.667796099407479e+000
 3.028124993314788e-001	 3.737753949930092e+000	 8.720497413799073e+000
 2.687599990069305e-001	 3.740356675894433e+000	 8.749142165679082e+000
 2.348005367401518e-001	 3.742641942254912e+000	 8.753192346556475e+000
 2.009379295743538e-001	 3.744612656663184e+000	 8.733605201072690e+000
 1.671759155483958e-001	 3.746271775145075e+000	 8.692791538014552e+000
 1.335181533092915e-001	 3.747622299902811e+000	 8.634572204936656e+000
 9.996822178776361e-002	 3.748667277130346e+000	 8.564132884382783e+000
 6.652961993565144e-002	 3.749409794843583e+000	 8.487977368459896e+000
 3.320576652392401e-002	 3.749852980727242e+000	 8.413879466861031e+000
 0.000000000000000e+000	 3.750000000000000e+000	 8.350833701382898e+000
 3.392005030659454e-001	 3.759729780005672e+000	 8.688079785073493e+000
 3.048312493272241e-001	 3.762672309593844e+000	 8.653136833524275e+000
 2.705517323335631e-001	 3.765292387065135e+000	 8.622743367768639e+000
 2.363658736514568e-001	 3.767592888535141e+000	 8.596509179314102e+000
 2.022775157710701e-001	 3.769576741039862e+000	 8.573619047739269e+000
 1.682904216515211e-001	 3.771246920311963e+000	 8.552844934026465e+000
 1.344082743308025e-001	 3.772606448568355e+000	 8.532558678748496e+000
 1.006346765991747e-001	 3.773658392310948e+000	 8.510745161084303e+000
 6.697315073482200e-002	 3.774405860142423e+000	 8.485015874976135e+000
 3.342713830051906e-002	 3.774852000598727e+000	 8.452622879194477e+000
 0.000000000000000e+000	 3.775000000000000e+000	 8.410473078642060e+000
 3.414468640134582e-001	 3.784628652718419e+000	 8.717895769266759e+000
 3.068499993225725e-001	 3.787590669257995e+000	 8.681750709654390e+000
 2.723434656598832e-001	 3.790228098236149e+000	 8.650917896139735e+000
 2.379312105625233e-001	 3.792543834815608e+000	 8.625053535466572e+000
 2.036171019676119e-001	 3.794540825416714e+000	 8.603379642539577e+000
 1.694049277545255e-001	 3.796222065478974e+000	 8.584696431540200e+000
 1.352983953522364e-001	 3.797590597233975e+000	 8.567395223944246e+000
 1.013011314105427e-001	 3.798649507491593e+000	 8.549471828550580e+000
 6.741668153397343e-002	 3.799401925441281e+000	 8.528540348970983e+000
 3.364851007710933e-002	 3.799851020470218e+000	 8.501847374490341e+000
 0.000000000000000e+000	 3.800000000000000e+000	 8.466286510777699e+000
 3.436932249604792e-001	 3.809527525431660e+000	 8.742486705917143e+000
 3.088687493175238e-001	 3.812509028922540e+000	 8.704558445081645e+000
 2.741351989858907e-001	 3.815163809407477e+000	 8.672866696338328e+000
 2.394965474733513e-001	 3.817494781096314e+000	 8.647113893780892e+000
 2.049566881639790e-001	 3.819504909793741e+000	 8.626558904535010e+000
 1.705194338574090e-001	 3.821197210646104e+000	 8.610029622352316e+000
 1.361885163735933e-001	 3.822574745899673e+000	 8.595936090340651e+000
 1.019675862218674e-001	 3.823640622672282e+000	 8.582284107060504e+000
 6.786021233310573e-002	 3.824397990740158e+000	 8.566689270559394e+000
 3.386988185369484e-002	 3.824850040341713e+000	 8.546391415381912e+000
 0.000000000000000e+000	 3.824999999999999e+000	 8.518269398170679e+000
 3.459395859070087e-001	 3.834426398145392e+000	 8.762053757534650e+000
 3.108874993120783e-001	 3.837427388587484e+000	 8.721736873204472e+000
 2.759269323115856e-001	 3.840099520579116e+000	 8.688743090550966e+000
 2.410618843839407e-001	 3.842445727377258e+000	 8.662820892414315e+000
 2.062962743601715e-001	 3.844468994170943e+000	 8.643265622999229e+000
 1.716339399601717e-001	 3.846172355813355e+000	 8.628932288664892e+000
 1.370786373948731e-001	 3.847558894565447e+000	 8.618248900275210e+000
 1.026340410331490e-001	 3.848631737853014e+000	 8.609230310443541e+000
 6.830374313221890e-002	 3.849394056039055e+000	 8.599492499351502e+000
 3.409125363027557e-002	 3.849849060213211e+000	 8.586267263291983e+000
 0.000000000000000e+000	 3.850000000000000e+000	 8.566417260672591e+000
 3.481859468530463e-001	 3.859325270859617e+000	 8.776797214639240e+000
 3.129062493062357e-001	 3.862345748252824e+000	 8.733461983469171e+000
 2.777186656369678e-001	 3.865035231751069e+000	 8.698699601273789e+000
 2.426272212942916e-001	 3.867396673658439e+000	 8.672304430138855e+000
 2.076358605561894e-001	 3.869433078548318e+000	 8.653607923982611e+000
 1.727484460628136e-001	 3.871147500980726e+000	 8.641491641283535e+000
 1.379687584160758e-001	 3.872543043231299e+000	 8.634400811982841e+000
 1.033004958443873e-001	 3.873622853033789e+000	 8.630358410984956e+000
 6.874727393131293e-002	 3.874390121337970e+000	 8.626979691028257e+000
 3.431262540685155e-002	 3.874848080084716e+000	 8.621487128173470e+000
 0.000000000000000e+000	 3.875000000000000e+000	 8.610725733751693e+000
 3.504323077985923e-001	 3.884224143574332e+000	 8.786916523709158e+000
 3.149249992999961e-001	 3.887264107918561e+000	 8.739908948419712e+000
 2.795103989620376e-001	 3.889970942923332e+000	 8.702887976943666e+000
 2.441925582044041e-001	 3.892347619939861e+000	 8.675693690039434e+000
 2.089754467520326e-001	 3.894397162925869e+000	 8.657693291569380e+000
 1.738629521653346e-001	 3.896122646148220e+000	 8.647794337931279e+000
 1.388588794372014e-001	 3.897527191897228e+000	 8.644458534470930e+000
 1.039669506555825e-001	 3.898613968214609e+000	 8.645716050372727e+000
 6.919080473038783e-002	 3.899386186636904e+000	 8.649180303877659e+000
 3.453399718342276e-002	 3.899847099956226e+000	 8.652063170158854e+000
 0.000000000000000e+000	 3.900000000000000e+000	 8.651190564787378e+000
 3.526786687436464e-001	 3.909123016289539e+000	 8.792610314061262e+000
 3.169437492933597e-001	 3.912182467584696e+000	 8.741252149713651e+000
 2.813021322867946e-001	 3.914906654095911e+000	 8.701459216589740e+000
 2.457578951142780e-001	 3.917298566221521e+000	 8.673117162306529e+000
 2.103150329477012e-001	 3.919361247303594e+000	 8.655628588322369e+000
 1.749774582677347e-001	 3.921097791315833e+000	 8.647926500862706e+000
 1.397490004582500e-001	 3.922511340563233e+000	 8.648488341826072e+000
 1.046334054667344e-001	 3.923605083395470e+000	 8.655350550226146e+000
 6.963433552944359e-002	 3.924382251935859e+000	 8.666123605081070e+000
 3.475536895998920e-002	 3.924846119827740e+000	 8.678007501147182e+000
 0.000000000000000e+000	 3.924999999999999e+000	 8.687807609505979e+000
 3.549250296882090e-001	 3.934021889005239e+000	 8.794076423710646e+000
 3.189624992863263e-001	 3.937100827251227e+000	 8.737665203150225e+000
 2.830938656112391e-001	 3.939842365268800e+000	 8.694563593548912e+000
 2.473232320239134e-001	 3.942249512503419e+000	 8.664702666163150e+000
 2.116546191431952e-001	 3.944325331681494e+000	 8.647520074951506e+000
 1.760919643700140e-001	 3.946072936483568e+000	 8.641973733809236e+000
 1.406391214792215e-001	 3.947495489229316e+000	 8.646556086977242e+000
 1.052998602778431e-001	 3.948596198576375e+000	 8.659308922224490e+000
 7.007786632848025e-002	 3.949378317234833e+000	 8.677838676760899e+000
 3.497674073655088e-002	 3.949845139699259e+000	 8.699332186330183e+000
 0.000000000000000e+000	 3.949999999999999e+000	 8.720572828552244e+000
 3.571713906322799e-001	 3.958920761721430e+000	 8.791511924254166e+000
 3.209812492788959e-001	 3.962019186918155e+000	 8.729320982753963e+000
 2.848855989353711e-001	 3.964778076442002e+000	 8.682350678286317e+000
 2.488885689333103e-001	 3.967200458785556e+000	 8.650577370964511e+000
 2.129942053385145e-001	 3.969289416059570e+000	 8.633473429239889e+000
 1.772064704721725e-001	 3.971048081651423e+000	 8.630021138284711e+000
 1.415292425001159e-001	 3.972479637895476e+000	 8.638727214939870e+000
 1.059663150889087e-001	 3.973587313757323e+000	 8.657637877853741e+000
 7.052139712749775e-002	 3.974374382533824e+000	 8.684354421800112e+000
 3.519811251310778e-002	 3.974844159570782e+000	 8.716049245661088e+000
 0.000000000000000e+000	 3.974999999999999e+000	 8.749482284189876e+000
 3.594177515758589e-001	 3.983819634438112e+000	 8.785113144821194e+000
 3.229999992710687e-001	 3.986937546585482e+000	 8.716391643955081e+000
 2.866773322591905e-001	 3.989713787615519e+000	 8.664969360360022e+000
 2.504539058424687e-001	 3.992151405067931e+000	 8.630867816506338e+000
 2.143337915336593e-001	 3.994253500437819e+000	 8.613593764260324e+000
 1.783209765742101e-001	 3.996023226819399e+000	 8.612153329279852e+000
 1.424193635209333e-001	 3.997463786561714e+000	 8.625066775562987e+000
 1.066327698999310e-001	 3.998578428938315e+000	 8.650383837787427e+000
 7.096492792649614e-002	 3.999370447832837e+000	 8.685699569443491e+000
 3.541948428965995e-002	 3.999843179442312e+000	 8.728170655268404e+000
 0.000000000000000e+000	 4.000000000000000e+000	 8.774532137125938e+000
 4.000000000000000e+000	 0.000000000000000e+000	 1.061210293017143e+001
 3.999843179442312e+000	 3.541948428966008e-002	 1.054841850089717e+001
 3.999370447832837e+000	 7.096492792649639e-002	 1.050984059085737e+001
 3.998578428938315e+000	 1.066327698999308e-001	 1.049229779648083e+001
 3.997463786561714e+000	 1.424193635209332e-001	 1.049162604572810e+001
 3.996023226819399e+000	 1.783209765742101e-001	 1.050356190462611e+001
 3.994253500437819e+000	 2.143337915336594e-001	 1.052373560632613e+001
 3.992151405067931e+000	 2.504539058424689e-001	 1.054766381122795e+001
 3.989713787615519e+000	 2.866773322591902e-001	 1.057074210810237e+001
 3.986937546585482e+000	 3.229999992710685e-001	 1.058823726756876e+001
 3.983819634438112e+000	 3.594177515758590e-001	 1.059527926073717e+001
 4.025000000000000e+000	 0.000000000000000e+000	 1.062698882541120e+001
 4.024842199313842e+000	 3.564085606630336e-002	 1.056266973985061e+001
 4.024366513131858e+000	 7.140845872566287e-002	 1.052238220753416e+001
 4.023569544119328e+000	 1.072992247111839e-001	 1.050227011415497e+001
 4.022447935227990e+000	 1.433094845420294e-001	 1.049838974284945e+001
 4.020998371987436e+000	 1.794354826765600e-001	 1.050670283270091e+001
 4.019217584816155e+000	 2.156733777291350e-001	 1.052306934341872e+001
 4.017102351350426e+000	 2.520192427519619e-001	 1.054323993476131e+001
 4.014649498789190e+000	 2.884690655833327e-001	 1.056284817070421e+001
 4.011855906253005e+000	 3.250187492635375e-001	 1.057740245982145e+001
 4.008718507155041e+000	 3.616641125196922e-001	 1.058227774484797e+001
 4.050000000000000e+000	 0.000000000000000e+000	 1.063669767572673e+001
 4.049841219185373e+000	 3.586222784313369e-002	 1.057248951294326e+001
 4.049362578430878e+000	 7.185198952518471e-002	 1.053124216329664e+001
 4.048560659300342e+000	 1.079656795229416e-001	 1.050931703324280e+001
 4.047432083894265e+000	 1.441996055637604e-001	 1.050299303553431e+001
 4.045973517155471e+000	 1.805499887796554e-001	 1.050845939654617e+001
 4.044181669194492e+000	 2.170129639254472e-001	 1.052180815324688e+001
 4.042053297632920e+000	 2.535845796623626e-001	 1.053902634840954e+001
 4.039585209962861e+000	 2.902607989084342e-001	 1.055598793413409e+001
 4.036774265920530e+000	 3.270374992569963e-001	 1.056844539526330e+001
 4.033617379871969e+000	 3.639104734645255e-001	 1.057202110582120e+001
 4.074999999999999e+000	 0.000000000000000e+000	 1.064196910635697e+001
 4.074840239056903e+000	 3.608359962015106e-002	 1.057848910260731e+001
 4.074358643729899e+000	 7.229552032506183e-002	 1.053690286038053e+001
 4.073551774481353e+000	 1.086321343352040e-001	 1.051379159645801e+001
 4.072416232560542e+000	 1.450897265861261e-001	 1.050565918700394e+001
 4.070948662323509e+000	 1.816644948834962e-001	 1.050892472053433e+001
 4.069145753572830e+000	 2.183525501225959e-001	 1.051991472381482e+001
 4.067004243915415e+000	 2.551499165736712e-001	 1.053485506931140e+001
 4.064520921136532e+000	 2.920525322344943e-001	 1.054986257433517e+001
 4.061692625588053e+000	 3.290562492514447e-001	 1.056093630358098e+001
 4.058516252588897e+000	 3.661568344103587e-001	 1.056394858835132e+001
 4.100000000000000e+000	 0.000000000000000e+000	 1.064352470290208e+001
 4.099839258928435e+000	 3.630497139735547e-002	 1.058126331734812e+001
 4.099354709028920e+000	 7.273905112529436e-002	 1.053983180075209e+001
 4.098542889662367e+000	 1.092985891479710e-001	 1.051603352734067e+001
 4.097400381226816e+000	 1.459798476091267e-001	 1.050659972932152e+001
 4.095923807491546e+000	 1.827790009880826e-001	 1.050818179228270e+001
 4.094109837951166e+000	 2.196921363205812e-001	 1.051734320661834e+001
 4.091955190197909e+000	 2.567152534858873e-001	 1.053055118363168e+001
 4.089456632310204e+000	 2.938442655615133e-001	 1.054416794653103e+001
 4.086610985255576e+000	 3.310749992468828e-001	 1.055444170813588e+001
 4.083415125305826e+000	 3.684031953571920e-001	 1.055749734875086e+001
 4.125000000000000e+000	 0.000000000000000e+000	 1.064206855797930e+001
 4.124838278799966e+000	 3.652634317474693e-002	 1.058139099095414e+001
 4.124350774327941e+000	 7.318258192588219e-002	 1.054048203763128e+001
 4.123534004843379e+000	 1.099650439612427e-001	 1.051636963386861e+001
 4.122384529893092e+000	 1.468699686327621e-001	 1.050601481888131e+001
 4.120898952659583e+000	 1.838935070934145e-001	 1.050630376982763e+001
 4.119073922329502e+000	 2.210317225194031e-001	 1.051403947532678e+001
 4.116906136480403e+000	 2.582805903990113e-001	 1.052593305659076e+001
 4.114392343483875e+000	 2.956359988894912e-001	 1.053859474645948e+001
 4.111529344923100e+000	 3.330937492433104e-001	 1.054852453827703e+001
 4.108313998022755e+000	 3.706495563050253e-001	 1.055210251823487e+001
 4.150000000000000e+000	 0.000000000000000e+000	 1.063828779811982e+001
 4.149837298671496e+000	 3.674771495232542e-002	 1.057943546366304e+001
 4.149346839626961e+000	 7.362611272682534e-002	 1.053929261069504e+001
 4.148525120024392e+000	 1.106314987750191e-001	 1.051511419748017e+001
 4.147368678559367e+000	 1.477600896570322e-001	 1.050409357904969e+001
 4.145874097827618e+000	 1.850080131994918e-001	 1.050335427769637e+001
 4.144038006707839e+000	 2.223713087190614e-001	 1.050994137511518e+001
 4.141857082762897e+000	 2.598459273130429e-001	 1.052081253490258e+001
 4.139328054657547e+000	 2.974277322184279e-001	 1.053282866577878e+001
 4.136447704590624e+000	 3.351124992407279e-001	 1.054274423759447e+001
 4.133212870739683e+000	 3.728959172538585e-001	 1.054719726391766e+001
 4.175000000000000e+000	 0.000000000000000e+000	 1.063285309173545e+001
 4.174836318543028e+000	 3.696908673009096e-002	 1.057594504604028e+001
 4.174342904925982e+000	 7.406964352812387e-002	 1.053668896564422e+001
 4.173516235205405e+000	 1.112979535893001e-001	 1.051256934812044e+001
 4.172352827225644e+000	 1.486502106819371e-001	 1.050101443049502e+001
 4.170849242995654e+000	 1.861225193063147e-001	 1.049938769234123e+001
 4.169002091086175e+000	 2.237108949195564e-001	 1.050497896303836e+001
 4.166808029045392e+000	 2.614112642279824e-001	 1.051499514193959e+001
 4.164263765831218e+000	 2.992194655483236e-001	 1.052655054189035e+001
 4.161366064258147e+000	 3.371312492391351e-001	 1.053665686828319e+001
 4.158111743456611e+000	 3.751422782036917e-001	 1.054221284761823e+001
 4.199999999999999e+000	 0.000000000000000e+000	 1.062641913894365e+001
 4.199835338414558e+000	 3.719045850804355e-002	 1.057145346629102e+001
 4.199338970225004e+000	 7.451317432977773e-002	 1.053308335878638e+001
 4.198507350386417e+000	 1.119644084040858e-001	 1.050902542589268e+001
 4.197336975891918e+000	 1.495403317074768e-001	 1.049694540972043e+001
 4.195824388163693e+000	 1.872370254138830e-001	 1.049444941738007e+001
 4.193966175464511e+000	 2.250504811208879e-001	 1.049907473982011e+001
 4.191758975327885e+000	 2.629766011438295e-001	 1.050828026592737e+001
 4.189199477004890e+000	 3.010111988791780e-001	 1.051943650241072e+001
 4.186284423925671e+000	 3.391499992385318e-001	 1.052981521178002e+001
 4.183010616173539e+000	 3.773886391545250e-001	 1.053657868256549e+001
 4.224999999999999e+000	 0.000000000000000e+000	 1.061962514400210e+001
 4.224834358286089e+000	 3.741183028618317e-002	 1.056648030169069e+001
 4.224335035524025e+000	 7.495670513178691e-002	 1.052887524725443e+001
 4.223498465567432e+000	 1.126308632193762e-001	 1.050476132987020e+001
 4.222321124558195e+000	 1.504304527336513e-001	 1.049204447628751e+001
 4.220799533331729e+000	 1.883515315221968e-001	 1.048857614906480e+001
 4.218930259842849e+000	 2.263900673230559e-001	 1.049214387341337e+001
 4.216709921610381e+000	 2.645419380605845e-001	 1.050046134145779e+001
 4.214135188178561e+000	 3.028029322109914e-001	 1.051115810451420e+001
 4.211202783593194e+000	 3.411687492389183e-001	 1.052176886582735e+001
 4.207909488890469e+000	 3.796350001063583e-001	 1.052972238809022e+001
 4.250000000000000e+000	 0.000000000000000e+000	 1.061309527106933e+001
 4.249833378157620e+000	 3.763320206450985e-002	 1.056153139478884e+001
 4.249331100823047e+000	 7.540023593415146e-002	 1.052445166545284e+001
 4.248489580748444e+000	 1.132973180351712e-001	 1.050004485459746e+001
 4.247305273224471e+000	 1.513205737604606e-001	 1.048645980919711e+001
 4.245774678499766e+000	 1.894660376312561e-001	 1.048179613238010e+001
 4.243894344221186e+000	 2.277296535260605e-001	 1.048409441466989e+001
 4.241660867892875e+000	 2.661072749782472e-001	 1.049132602459601e+001
 4.239070899352234e+000	 3.045946655437636e-001	 1.050138246935766e+001
 4.236121143260720e+000	 3.431874992402945e-001	 1.051206433811120e+001
 4.232808361607396e+000	 3.818813610591916e-001	 1.052106984238686e+001
 3.983819634438112e+000	 3.594177515758590e-001	 1.059527926073717e+001
 3.980357059955668e+000	 3.959263506328409e-001	 1.061970141653987e+001
 3.976546890615960e+000	 4.325214752855101e-001	 1.062394020124903e+001
 3.972386254971537e+000	 4.691987224560948e-001	 1.060276043460411e+001
 3.967872345032922e+000	 5.059536079119448e-001	 1.055075776879816e+001
 3.963002418652467e+000	 5.427815671060725e-001	 1.046234971859960e+001
 3.957773801906783e+000	 5.796779560922217e-001	 1.033176656178328e+001
 3.952183891475304e+000	 6.166380525152101e-001	 1.015304213330009e+001
 3.946230157012450e+000	 6.536570566772162e-001	 1.032516724176037e+001
 3.939910143510855e+000	 6.907300926805884e-001	 1.059171508581070e+001
 3.933221473652993e+000	 7.278522096476667e-001	 1.083689287587090e+001
 4.008718507155041e+000	 3.616641125196922e-001	 1.058227774484797e+001
 4.005234291582396e+000	 3.984008903202551e-001	 1.060776731059042e+001
 4.001400308684580e+000	 4.352247345015535e-001	 1.061441759828679e+001
 3.997213669067587e+000	 4.721312144665802e-001	 1.059723393257643e+001
 3.992671547192009e+000	 5.091158179562314e-001	 1.055105404033496e+001
 3.987771183771772e+000	 5.461739518951022e-001	 1.047053868152271e+001
 3.982509888171469e+000	 5.833009433122727e-001	 1.035016213681127e+001
 3.976885040799777e+000	 6.204920403378413e-001	 1.018420257592712e+001
 3.970894095496459e+000	 6.577424132758768e-001	 1.036046254100236e+001
 3.964534581910347e+000	 6.950471557543668e-001	 1.057012903129235e+001
 3.957804107865683e+000	 7.324012859526673e-001	 1.075941193768835e+001
 4.033617379871969e+000	 3.639104734645255e-001	 1.057202110582120e+001
 4.030111523209127e+000	 4.008754300086695e-001	 1.059915158454870e+001
 4.026253726753200e+000	 4.379279937185969e-001	 1.060881304598455e+001
 4.022041083163638e+000	 4.750637064780655e-001	 1.059625392681556e+001
 4.017470749351095e+000	 5.122780280015181e-001	 1.055655664190031e+001
 4.012539948891079e+000	 5.495663366851321e-001	 1.048462781094210e+001
 4.007245974436156e+000	 5.869239305333237e-001	 1.037518832825666e+001
 4.001586190124251e+000	 6.243460281614731e-001	 1.022276330009135e+001
 3.995558033980466e+000	 6.618277698755375e-001	 1.039184039831249e+001
 3.989159020309840e+000	 6.993642188291455e-001	 1.054942001629285e+001
 3.982386742078373e+000	 7.369503622586678e-001	 1.068757157518719e+001
 4.058516252588897e+000	 3.661568344103587e-001	 1.056394858835132e+001
 4.054988754835856e+000	 4.033499696980837e-001	 1.059316840153824e+001
 4.051107144821818e+000	 4.406312529366403e-001	 1.060631575756885e+001
 4.046868497259687e+000	 4.779961984905507e-001	 1.059888487950749e+001
 4.042269951510182e+000	 5.154402380478047e-001	 1.056620555147872e+001
 4.037308714010385e+000	 5.529587214761617e-001	 1.050343293620503e+001
 4.031982060700842e+000	 5.905469177553746e-001	 1.040553722180224e+001
 4.026287339448724e+000	 6.282000159861044e-001	 1.029226450222641e+001
 4.020221972464475e+000	 6.659131264761979e-001	 1.041945663412443e+001
 4.013783458709330e+000	 7.036812819049237e-001	 1.052971286536334e+001
 4.006969376291065e+000	 7.414994385656684e-001	 1.062146545908516e+001
 4.083415125305826e+000	 3.684031953571920e-001	 1.055749734875086e+001
 4.079865986462586e+000	 4.058245093884980e-001	 1.058913131390221e+001
 4.075960562890438e+000	 4.433345121556837e-001	 1.060611581457220e+001
 4.071695911355738e+000	 4.809286905040360e-001	 1.060419360114033e+001
 4.067069153669269e+000	 5.186024480950915e-001	 1.057894457567844e+001
 4.062077479129690e+000	 5.563511062681913e-001	 1.052577519533653e+001
 4.056718146965530e+000	 5.941699049784259e-001	 1.043990769099305e+001
 4.050988488773198e+000	 6.320540038117360e-001	 1.035968965547029e+001
 4.044885910948482e+000	 6.699984830778581e-001	 1.044347681004710e+001
 4.038407897108822e+000	 7.079983449817023e-001	 1.051114361711432e+001
 4.031552010503756e+000	 7.460485148736690e-001	 1.056119994368687e+001
 4.108313998022755e+000	 3.706495563050253e-001	 1.055210251823487e+001
 4.104743218089316e+000	 4.082990490799123e-001	 1.058635328171202e+001
 4.100813980959058e+000	 4.460377713757270e-001	 1.060740414052089e+001
 4.096523325451788e+000	 4.838611825185213e-001	 1.061124917934365e+001
 4.091868355828354e+000	 5.217646581433781e-001	 1.059372123371254e+001
 4.086846244248997e+000	 5.597434910612210e-001	 1.055048087417027e+001
 4.081454233230216e+000	 5.977928922024768e-001	 1.047700519154356e+001
 4.075689638097673e+000	 6.359079916383678e-001	 1.041895984164277e+001
 4.069549849432490e+000	 6.740838396805191e-001	 1.046407593367775e+001
 4.063032335508314e+000	 7.123154080594807e-001	 1.049385918439559e+001
 4.056134644716447e+000	 7.505975911826697e-001	 1.050689368253285e+001
 4.133212870739683e+000	 3.728959172538585e-001	 1.054719726391766e+001
 4.129620449716046e+000	 4.107735887723266e-001	 1.058414669060668e+001
 4.125667399027677e+000	 4.487410305967704e-001	 1.060937247557358e+001
 4.121350739547837e+000	 4.867936745340066e-001	 1.061912291029982e+001
 4.116667557987442e+000	 5.249268681926648e-001	 1.060948664557339e+001
 4.111615009368302e+000	 5.631358758552508e-001	 1.057638125129411e+001
 4.106190319494902e+000	 6.014158794275279e-001	 1.051554156307957e+001
 4.100390787422146e+000	 6.397619794659991e-001	 1.047028576933766e+001
 4.094213787916497e+000	 6.781691962841794e-001	 1.048143817408410e+001
 4.087656773907807e+000	 7.166324711382593e-001	 1.047801702675899e+001
 4.080717278929137e+000	 7.551466674926702e-001	 1.045867725794052e+001
 4.158111743456611e+000	 3.751422782036917e-001	 1.054221284761823e+001
 4.154497681342774e+000	 4.132481284657408e-001	 1.058182336899149e+001
 4.150520817096297e+000	 4.514442898188139e-001	 1.061121335207129e+001
 4.146178153643887e+000	 4.897261665504918e-001	 1.062688823261966e+001
 4.141466760146528e+000	 5.280890782429515e-001	 1.062519542422497e+001
 4.136383774487609e+000	 5.665282606502805e-001	 1.060231244856643e+001
 4.130926405759589e+000	 6.050388666535790e-001	 1.055423483800303e+001
 4.125091936746621e+000	 6.436159672946306e-001	 1.051388568808165e+001
 4.118877726400505e+000	 6.822545528888399e-001	 1.049575658750893e+001
 4.112281212307298e+000	 7.209495342180373e-001	 1.046378483468883e+001
 4.105299913141828e+000	 7.596957438036709e-001	 1.041669282385526e+001
 4.183010616173539e+000	 3.773886391545250e-001	 1.053657868256549e+001
 4.179374912969506e+000	 4.157226681601551e-001	 1.057869460462223e+001
 4.175374235164916e+000	 4.541475490418572e-001	 1.061212007096055e+001
 4.171005567739937e+000	 4.926586585679771e-001	 1.063362066357968e+001
 4.166265962305615e+000	 5.312512882942381e-001	 1.063980557164534e+001
 4.161152539606915e+000	 5.699206454463102e-001	 1.062711528697110e+001
 4.155662492024274e+000	 6.086618538806299e-001	 1.059180905718334e+001
 4.149793086071094e+000	 6.474699551242622e-001	 1.054998516390185e+001
 4.143541664884514e+000	 6.863399094945004e-001	 1.050723285287076e+001
 4.136905650706790e+000	 7.252665972988159e-001	 1.045134022511000e+001
 4.129882547354518e+000	 7.642448201156715e-001	 1.038109376145668e+001
 4.207909488890469e+000	 3.796350001063583e-001	 1.052972238809022e+001
 4.204252144596236e+000	 4.181972078555695e-001	 1.057407116060087e+001
 4.200227653233535e+000	 4.568508082659006e-001	 1.061128667905349e+001
 4.195832981835988e+000	 4.955911505864624e-001	 1.063839773762307e+001
 4.191065164464702e+000	 5.344134983465247e-001	 1.065227837855991e+001
 4.185921304726221e+000	 5.733130302433399e-001	 1.064963514759016e+001
 4.180398578288962e+000	 6.122848411086811e-001	 1.062699409219193e+001
 4.174494235395567e+000	 6.513239429548936e-001	 1.057881686286126e+001
 4.168205603368522e+000	 6.904252661011610e-001	 1.051607701665514e+001
 4.161530089106282e+000	 7.295836603805944e-001	 1.044087044770610e+001
 4.154465181567210e+000	 7.687938964286721e-001	 1.035204434699197e+001
 4.232808361607396e+000	 3.818813610591916e-001	 1.052106984238686e+001
 4.229129376222968e+000	 4.206717475519838e-001	 1.056726329080634e+001
 4.225081071302157e+000	 4.595540674909441e-001	 1.060790794709066e+001
 4.220660395932038e+000	 4.985236426059477e-001	 1.064029894703133e+001
 4.215864366623790e+000	 5.375757083998116e-001	 1.066157832771353e+001
 4.210690069845527e+000	 5.767054150413699e-001	 1.066872183748322e+001
 4.205134664553649e+000	 6.159078283377322e-001	 1.065852547381103e+001
 4.199195384720043e+000	 6.551779307865254e-001	 1.060062034223419e+001
 4.192869541852530e+000	 6.945106227088215e-001	 1.052250724680976e+001
 4.186154527505775e+000	 7.339007234633730e-001	 1.043257210160315e+001
 4.179047815779902e+000	 7.733429727426728e-001	 1.032971943133271e+001
 3.933221473652993e+000	 7.278522096476667e-001	 1.083689287587090e+001
 3.926161850148238e+000	 7.650183830181283e-001	 1.081868424051060e+001
 3.918729058053593e+000	 8.022235159239719e-001	 1.080111135995013e+001
 3.910920967074733e+000	 8.394624406421654e-001	 1.078614190261893e+001
 3.902735533843881e+000	 8.767299201255313e-001	 1.077585774936190e+001
 3.894170804172645e+000	 9.140206496115850e-001	 1.077246038317960e+001
 3.885224915276652e+000	 9.513292583092481e-001	 1.077827622589182e+001
 3.875896097969084e+000	 9.886503111632025e-001	 1.079576190303638e+001
 3.866182678820226e+000	 1.025978310695547e+000	 1.082750941778731e+001
 3.856083082280073e+000	 1.063307698924287e+000	 1.087625121419528e+001
 3.845595832761096e+000	 1.100632859358089e+000	 1.094486510962674e+001
 3.957804107865683e+000	 7.324012859526673e-001	 1.075941193768835e+001
 3.950700361713788e+000	 7.697997479069519e-001	 1.075965918083679e+001
 3.943221114668281e+000	 8.072374128937929e-001	 1.075989213634441e+001
 3.935364223120499e+000	 8.447090808918899e-001	 1.076187525554823e+001
 3.927127630931612e+000	 8.822094821225209e-001	 1.076748661617554e+001
 3.918509371699555e+000	 9.197332786684371e-001	 1.077872360744928e+001
 3.909507570997550e+000	 9.572750661711155e-001	 1.079770856832681e+001
 3.900120448581363e+000	 9.948293756061437e-001	 1.082669435968340e+001
 3.890346320562340e+000	 1.032390675136383e+000	 1.086806985069507e+001
 3.880183601543291e+000	 1.069953372042453e+000	 1.092436529916888e+001
 3.869630806714263e+000	 1.107511814729950e+000	 1.099825760511449e+001
 3.982386742078373e+000	 7.369503622586678e-001	 1.068757157518719e+001
 3.975238873279343e+000	 7.745811127967659e-001	 1.070434038994024e+001
 3.967713171282988e+000	 8.122513098645752e-001	 1.072041187026522e+001
 3.959807479166307e+000	 8.499557211425273e-001	 1.073734667867830e+001
 3.951519728019422e+000	 8.876890441203553e-001	 1.075681855660422e+001
 3.942847939226587e+000	 9.254459077260456e-001	 1.078062030749384e+001
 3.933790226718623e+000	 9.632208740336313e-001	 1.081066973928797e+001
 3.924344799193880e+000	 1.001008440049605e+000	 1.084901554653132e+001
 3.914509962304769e+000	 1.038803039577591e+000	 1.089784311185626e+001
 3.904284120806908e+000	 1.076599045160823e+000	 1.095948020602174e+001
 3.893665780667924e+000	 1.114390770101823e+000	 1.103640256521308e+001
 4.006969376291065e+000	 7.414994385656684e-001	 1.062146545908516e+001
 3.999777384844903e+000	 7.793624776875702e-001	 1.065291287220943e+001
 3.992205227897715e+000	 8.172652068363189e-001	 1.068294666357838e+001
 3.984250735212159e+000	 8.552023613940772e-001	 1.071292308804724e+001
 3.975911825107308e+000	 8.931686061190344e-001	 1.074431097014356e+001
 3.967186506753740e+000	 9.311585367844105e-001	 1.077869798788771e+001
 3.958072882439873e+000	 9.691666818967953e-001	 1.081779692217636e+001
 3.948569149806640e+000	 1.007187504493586e+000	 1.086345185151901e+001
 3.938673604047511e+000	 1.045215404019170e+000	 1.091764427130545e+001
 3.928384640070924e+000	 1.083244718279393e+000	 1.098249911622053e+001
 3.917700754622081e+000	 1.121269725473710e+000	 1.106029066391633e+001
 4.031552010503756e+000	 7.460485148736690e-001	 1.056119994368687e+001
 4.024315896410468e+000	 7.841438425793651e-001	 1.060557278990598e+001
 4.016697284512461e+000	 8.222791038090240e-001	 1.064778224779667e+001
 4.008693991258054e+000	 8.604490016465400e-001	 1.068897949922009e+001
 4.000303922195272e+000	 8.986481681185579e-001	 1.073042782443015e+001
 3.991525074281016e+000	 9.368711658435318e-001	 1.077350918933133e+001
 3.982355538161299e+000	 9.751124897606078e-001	 1.081973080452082e+001
 3.972793500419638e+000	 1.013366568938087e+000	 1.087073163538530e+001
 3.962837245790567e+000	 1.051627768461120e+000	 1.092828884188152e+001
 3.952485159335338e+000	 1.089890391398166e+000	 1.099432412604152e+001
 3.941735728576730e+000	 1.128148680845609e+000	 1.107090996470994e+001
 4.056134644716447e+000	 7.505975911826697e-001	 1.050689368253285e+001
 4.048854407976037e+000	 7.889252074721501e-001	 1.056252712504737e+001
 4.041189341127226e+000	 8.272930007826903e-001	 1.061521369227239e+001
 4.033137247303994e+000	 8.656956418999159e-001	 1.066589878184859e+001
 4.024696019283315e+000	 9.041277301189258e-001	 1.071563945620700e+001
 4.015863641808413e+000	 9.425837949034094e-001	 1.076561133604138e+001
 4.006638193882901e+000	 9.810582976250684e-001	 1.081711547179236e+001
 3.997017851032876e+000	 1.019545633383107e+000	 1.087158517188721e+001
 3.987000887533940e+000	 1.058040132903442e+000	 1.093059276580929e+001
 3.976585678600152e+000	 1.096536064517142e+000	 1.099585627945520e+001
 3.965770702531872e+000	 1.135027636217520e+000	 1.106924599967792e+001
 4.080717278929137e+000	 7.551466674926702e-001	 1.045867725794052e+001
 4.073392919541611e+000	 7.937065723659253e-001	 1.052399335351067e+001
 4.065681397742011e+000	 8.323068977573183e-001	 1.058554512293712e+001
 4.057580503349977e+000	 8.709422821542041e-001	 1.064407142310231e+001
 4.049088116371435e+000	 9.096072921201380e-001	 1.070042237948291e+001
 4.040202209335932e+000	 9.482964239640432e-001	 1.075556658865681e+001
 4.030920849604678e+000	 9.870041054901769e-001	 1.081059830505639e+001
 4.021242201646355e+000	 1.025724697828648e+000	 1.086674459017891e+001
 4.011164529277626e+000	 1.064452497346135e+000	 1.092537240176619e+001
 4.000686197865364e+000	 1.103181737636319e+000	 1.098799559982213e+001
 3.989805676487509e+000	 1.141906591589444e+000	 1.105628184574968e+001
 4.105299913141828e+000	 7.596957438036709e-001	 1.041669282385526e+001
 4.097931431107191e+000	 7.984879372606913e-001	 1.049019913084506e+001
 4.090173454356815e+000	 8.373207947329071e-001	 1.055908945114664e+001
 4.082023759396002e+000	 8.761889224094052e-001	 1.062389529959929e+001
 4.073480213459632e+000	 9.150868541221949e-001	 1.068525910058450e+001
 4.064540776863573e+000	 9.540090530254336e-001	 1.074394170242990e+001
 4.055203505326632e+000	 9.929499133559337e-001	 1.080082988230235e+001
 4.045466552260073e+000	 1.031903762274709e+000	 1.085694381926090e+001
 4.035328171021626e+000	 1.070864861789199e+000	 1.091344451241366e+001
 4.024786717130976e+000	 1.109827410755699e+000	 1.097164112045019e+001
 4.013840650443639e+000	 1.148785546961380e+000	 1.103299819820751e+001
 4.129882547354518e+000	 7.642448201156715e-001	 1.038109376145668e+001
 4.122469942672774e+000	 8.032693021564474e-001	 1.046138198930549e+001
 4.114665510971639e+000	 8.423346917094579e-001	 1.053616811220997e+001
 4.106467015442071e+000	 8.814355626655193e-001	 1.060577545748195e+001
 4.097872310547907e+000	 9.205664161250964e-001	 1.067063793981332e+001
 4.088879344391335e+000	 9.597216820875801e-001	 1.073130789048177e+001
 4.079486161048761e+000	 9.988957212223389e-001	 1.078846388329712e+001
 4.069690902874030e+000	 1.038082826721289e+000	 1.084291853441323e+001
 4.059491812765941e+000	 1.077277226232634e+000	 1.089562625237387e+001
 4.048887236396987e+000	 1.116473083875281e+000	 1.094769091406045e+001
 4.037875624400262e+000	 1.155664502333329e+000	 1.100037344156910e+001
 4.154465181567210e+000	 7.687938964286721e-001	 1.035204434699197e+001
 4.147008454238363e+000	 8.080506670531940e-001	 1.043778904564244e+001
 4.139157567586481e+000	 8.473485886869693e-001	 1.051711081320149e+001
 4.130910271488186e+000	 8.866822029225459e-001	 1.059012390030098e+001
 4.122264407636262e+000	 9.260459781288420e-001	 1.065705285943484e+001
 4.113217911919220e+000	 9.654343111504832e-001	 1.071824069191272e+001
 4.103768816771067e+000	 1.004841529089392e+000	 1.077415699781640e+001
 4.093915253488230e+000	 1.044261891168389e+000	 1.082540610553031e+001
 4.083655454510570e+000	 1.083689590676441e+000	 1.087273515663311e+001
 4.072987755663395e+000	 1.123118756995065e+000	 1.091704212120687e+001
 4.061910598357380e+000	 1.162543457705291e+000	 1.095938371795325e+001
 4.179047815779902e+000	 7.733429727426728e-001	 1.032971943133271e+001
 4.171546965803959e+000	 8.128320319509310e-001	 1.041967671920490e+001
 4.163649624201344e+000	 8.523624856654427e-001	 1.050225528967360e+001
 4.155353527534343e+000	 8.919288431804857e-001	 1.057735938438574e+001
 4.146656504724693e+000	 9.315255401334327e-001	 1.064500329773825e+001
 4.137556479447227e+000	 9.711469402141428e-001	 1.070531984456767e+001
 4.128051472493549e+000	 1.010787336957094e+000	 1.075856883711512e+001
 4.118139604102669e+000	 1.050440955616010e+000	 1.080514554727940e+001
 4.107819096255514e+000	 1.090101955120619e+000	 1.084558912935477e+001
 4.097088274930205e+000	 1.129764430115052e+000	 1.088059097769301e+001
 4.085945572314992e+000	 1.169422413077266e+000	 1.091100299303282e+001
 3.845595832761096e+000	 1.100632859358089e+000	 1.094486510962674e+001
 3.834719556678107e+000	 1.137948119066728e+000	 1.080372179444491e+001
 3.823452984442649e+000	 1.175247750825766e+000	 1.067961409037756e+001
 3.811794952408592e+000	 1.212525975335376e+000	 1.057452445361134e+001
 3.799744404765942e+000	 1.249776963512203e+000	 1.049058775233558e+001
 3.787300395380251e+000	 1.286994838852475e+000	 1.056091138306972e+001
 3.774462089574614e+000	 1.324173679865361e+000	 1.062540479947992e+001
 3.761228765851377e+000	 1.361307522575099e+000	 1.068276662562817e+001
 3.747599817550746e+000	 1.398390363090333e+000	 1.072778012240085e+001
 3.733574754443465e+000	 1.435416160238980e+000	 1.073789623701039e+001
 3.719153204254849e+000	 1.472378838266780e+000	 1.073297153950001e+001
 3.869630806714263e+000	 1.107511814729950e+000	 1.099825760511449e+001
 3.858686553905200e+000	 1.145060294812716e+000	 1.083376465008732e+001
 3.847349565592751e+000	 1.182593049271040e+000	 1.068498220500482e+001
 3.835618670858001e+000	 1.220104262684471e+000	 1.055392146769879e+001
 3.823492807292140e+000	 1.257588069537881e+000	 1.047726213321790e+001
 3.810971022847386e+000	 1.295038556599349e+000	 1.054119371199162e+001
 3.798052477630097e+000	 1.332449765368725e+000	 1.059854823330042e+001
 3.784736445633263e+000	 1.369815694595396e+000	 1.064896453766169e+001
 3.771022316405465e+000	 1.407130302863685e+000	 1.069207077886989e+001
 3.756909596653517e+000	 1.444387511244183e+000	 1.072748472495756e+001
 3.742397911776015e+000	 1.481581206009164e+000	 1.073703153664055e+001
 3.893665780667924e+000	 1.114390770101823e+000	 1.103640256521308e+001
 3.882653551132883e+000	 1.152172470558531e+000	 1.085098684475465e+001
 3.871246146743528e+000	 1.189938347715985e+000	 1.067991491106849e+001
 3.859442389308159e+000	 1.227682550033110e+000	 1.052522453950718e+001
 3.847241209819154e+000	 1.265399175563005e+000	 1.046776853976492e+001
 3.834641650315390e+000	 1.303082274345601e+000	 1.052574529111986e+001
 3.821642865686497e+000	 1.340725850871429e+000	 1.057728290503576e+001
 3.808244125416103e+000	 1.378323866615026e+000	 1.062207964758142e+001
 3.794444815261164e+000	 1.415870242636394e+000	 1.065982350735858e+001
 3.780244438864563e+000	 1.453358862248796e+000	 1.069019244320076e+001
 3.765642619298180e+000	 1.490783573751044e+000	 1.071285466440647e+001
 3.917700754622081e+000	 1.121269725473710e+000	 1.106029066391633e+001
 3.906620548361152e+000	 1.159284646304173e+000	 1.085637915811806e+001
 3.895142727894979e+000	 1.197283646160600e+000	 1.066540246979954e+001
 3.883266107759067e+000	 1.235260837381292e+000	 1.048942277828451e+001
 3.870989612346986e+000	 1.273210281587576e+000	 1.046122226721369e+001
 3.858312277784268e+000	 1.311125992091232e+000	 1.051453722964556e+001
 3.845233253743815e+000	 1.349001936373474e+000	 1.056155557109036e+001
 3.831751805199895e+000	 1.386832038633990e+000	 1.060203437221838e+001
 3.817867314117842e+000	 1.424610182408460e+000	 1.063572083327845e+001
 3.803579281076603e+000	 1.462330213252820e+000	 1.066235246892840e+001
 3.788887326821345e+000	 1.499985941492418e+000	 1.068165733456598e+001
 3.941735728576730e+000	 1.128148680845609e+000	 1.107090996470994e+001
 3.930587545590011e+000	 1.166396822049642e+000	 1.085093035249821e+001
 3.919039309047104e+000	 1.204628944604886e+000	 1.064243372006115e+001
 3.907089826210726e+000	 1.242839124729018e+000	 1.044750446747216e+001
 3.894738014875633e+000	 1.281021387611592e+000	 1.045761855240465e+001
 3.881982905254017e+000	 1.319169709836242e+000	 1.050754100780446e+001
 3.868823641802051e+000	 1.357278021874860e+000	 1.055131395869150e+001
 3.855259484984642e+000	 1.395340210652287e+000	 1.058875269955956e+001
 3.841289812975500e+000	 1.433350122179882e+000	 1.061966302939390e+001
 3.826914123289639e+000	 1.471301564256254e+000	 1.064384139401943e+001
 3.812132034345510e+000	 1.509188309233287e+000	 1.066107505893921e+001
 3.965770702531872e+000	 1.135027636217520e+000	 1.106924599967792e+001
 3.954554542819460e+000	 1.173508997794938e+000	 1.083562723399710e+001
 3.942935890199904e+000	 1.211974243048843e+000	 1.061199612145090e+001
 3.930913544663134e+000	 1.250417412076288e+000	 1.040329647167517e+001
 3.918486417405095e+000	 1.288832493635055e+000	 1.045695241116718e+001
 3.905653532724638e+000	 1.327213427580630e+000	 1.050472846563321e+001
 3.892414029861204e+000	 1.365554107375587e+000	 1.054650673647043e+001
 3.878767164770343e+000	 1.403848382669918e+000	 1.058216014113715e+001
 3.864712311834136e+000	 1.442090061950661e+000	 1.061155247443782e+001
 3.850248965503670e+000	 1.480272915259099e+000	 1.063453849876790e+001
 3.835376741870674e+000	 1.518390676973651e+000	 1.065096406386201e+001
 3.989805676487509e+000	 1.141906591589444e+000	 1.105628184574968e+001
 3.978521540049498e+000	 1.180621173540061e+000	 1.081145471142028e+001
 3.966832471353379e+000	 1.219319541492470e+000	 1.057507579584477e+001
 3.954737263116293e+000	 1.257995699423101e+000	 1.040658531303434e+001
 3.942234819935373e+000	 1.296643599657964e+000	 1.045921864497646e+001
 3.929324160196132e+000	 1.335257145324397e+000	 1.050607179213191e+001
 3.916004417921276e+000	 1.373830192875655e+000	 1.054708348610685e+001
 3.902274844556996e+000	 1.412356554686883e+000	 1.058218368613857e+001
 3.888134810693753e+000	 1.450830001720796e+000	 1.061129358967881e+001
 3.873583807718696e+000	 1.489244266261354e+000	 1.063432567090661e+001
 3.858621449396840e+000	 1.527593044713509e+000	 1.065118374778112e+001
 4.013840650443639e+000	 1.148785546961380e+000	 1.103299819820751e+001
 4.002488537280124e+000	 1.187733349285011e+000	 1.077939585308222e+001
 3.990729052507526e+000	 1.226664839935768e+000	 1.053265756744879e+001
 3.978560981570202e+000	 1.265573986769458e+000	 1.041160487033364e+001
 3.965983222466468e+000	 1.304454705680320e+000	 1.046441184737135e+001
 3.952994787668497e+000	 1.343300863067542e+000	 1.051154351481620e+001
 3.939594805982265e+000	 1.382106278375064e+000	 1.055299467499212e+001
 3.925782524344604e+000	 1.420864726703181e+000	 1.058875175716537e+001
 3.911557309554348e+000	 1.459569941490288e+000	 1.061879277776741e+001
 3.896918649934715e+000	 1.498215617263019e+000	 1.064308732754011e+001
 3.881866156924004e+000	 1.536795412452863e+000	 1.066159658628079e+001
 4.037875624400262e+000	 1.155664502333329e+000	 1.100037344156910e+001
 4.026455534511339e+000	 1.194845525029789e+000	 1.074043194158274e+001
 4.014625633662350e+000	 1.234010138378737e+000	 1.048572500142016e+001
 4.002384700024860e+000	 1.273152274115358e+000	 1.041837106868835e+001
 3.989731624998377e+000	 1.312265811702121e+000	 1.047252641014283e+001
 3.976665415141733e+000	 1.351344580810065e+000	 1.052111648964229e+001
 3.963185194044173e+000	 1.390382363873814e+000	 1.056419162986876e+001
 3.949290204133165e+000	 1.429372898718813e+000	 1.060179416757201e+001
 3.934979808415923e+000	 1.468309881259137e+000	 1.063395836376638e+001
 3.920253492151731e+000	 1.507186968264094e+000	 1.066071033986572e+001
 3.905110864452169e+000	 1.545997780191711e+000	 1.068206804050127e+001
 4.061910598357380e+000	 1.162543457705291e+000	 1.095938371795325e+001
 4.050422531743143e+000	 1.201957700774393e+000	 1.069554252663891e+001
 4.038522214817848e+000	 1.241355436821377e+000	 1.043526044111717e+001
 4.026208418480270e+000	 1.280730561460802e+000	 1.042689912385461e+001
 4.013480027531105e+000	 1.320076917723369e+000	 1.048355652930307e+001
 4.000336042615841e+000	 1.359388298551968e+000	 1.053476389128990e+001
 3.986775582106998e+000	 1.398658449371905e+000	 1.058062651140590e+001
 3.972797883922680e+000	 1.437881070733778e+000	 1.062124208031942e+001
 3.958402307278478e+000	 1.477049821027342e+000	 1.065670053827466e+001
 3.943588334369740e+000	 1.516158319264580e+000	 1.068708396056730e+001
 3.928355571981333e+000	 1.555200147930054e+000	 1.071246646880880e+001
 4.085945572314992e+000	 1.169422413077266e+000	 1.091100299303282e+001
 4.074389528975536e+000	 1.209069876518825e+000	 1.064570547605210e+001
 4.062418795974019e+000	 1.248700735263687e+000	 1.038224504403449e+001
 4.050032136936430e+000	 1.288308848805790e+000	 1.043720356309284e+001
 4.037228430064649e+000	 1.327888023744063e+000	 1.049749621084345e+001
 4.024006670090824e+000	 1.367432016293249e+000	 1.055245920378792e+001
 4.010365970170742e+000	 1.406934534869337e+000	 1.060225228967203e+001
 3.996305563713150e+000	 1.446389242748077e+000	 1.064702796828060e+001
 3.981824806142011e+000	 1.485789760794904e+000	 1.068693130255857e+001
 3.966923176588746e+000	 1.525129670264476e+000	 1.072209975377150e+001
 3.951600279511499e+000	 1.564402515667893e+000	 1.075266304158306e+001
 3.719153204254849e+000	 1.472378838266780e+000	 1.073297153950001e+001
 3.704334914117635e+000	 1.509272289597060e+000	 1.076007293783228e+001
 3.689119751950341e+000	 1.546090377651535e+000	 1.078664817930595e+001
 3.673507707759193e+000	 1.582826939728250e+000	 1.081395720559172e+001
 3.657498894861322e+000	 1.619475789933607e+000	 1.084333402698661e+001
 3.641093551026176e+000	 1.656030722167824e+000	 1.087618696525239e+001
 3.624292039533033e+000	 1.692485513160644e+000	 1.091399872656845e+001
 3.607094850142330e+000	 1.728833925554609e+000	 1.095832629949287e+001
 3.589502599978649e+000	 1.765069711033148e+000	 1.101080067321778e+001
 3.571516034323234e+000	 1.801186613490626e+000	 1.107312637182447e+001
 3.553136027314097e+000	 1.837178372241353e+000	 1.114708080068946e+001
 3.742397911776015e+000	 1.481581206009164e+000	 1.073703153664055e+001
 3.727487007325320e+000	 1.518705241409741e+000	 1.077553740284531e+001
 3.712176750394489e+000	 1.555753442514154e+000	 1.081166199375937e+001
 3.696467130927288e+000	 1.592719608103564e+000	 1.084655752642097e+001
 3.680358262949079e+000	 1.629597513622535e+000	 1.088145205978868e+001
 3.663850385715369e+000	 1.666380914183165e+000	 1.091764988328591e+001
 3.646943864775933e+000	 1.703063547619757e+000	 1.095653173360501e+001
 3.629639192952212e+000	 1.739639137591369e+000	 1.099955483435595e+001
 3.611936991225818e+000	 1.776101396729453e+000	 1.104825275353817e+001
 3.593838009536003e+000	 1.812444029827717e+000	 1.110423507423539e+001
 3.575343127484140e+000	 1.848660737071182e+000	 1.116918687438322e+001
 3.765642619298180e+000	 1.490783573751044e+000	 1.071285466440647e+001
 3.750639100533996e+000	 1.528138193222007e+000	 1.079468164313511e+001
 3.735233748839598e+000	 1.565416507376430e+000	 1.084003092326964e+001
 3.719426554096293e+000	 1.602612276478584e+000	 1.088061007586978e+001
 3.703217631037676e+000	 1.639719237311201e+000	 1.091910975497738e+001
 3.686607220405314e+000	 1.676731106198254e+000	 1.095673110503947e+001
 3.669595690019477e+000	 1.713641582078609e+000	 1.099475381397336e+001
 3.652183535762613e+000	 1.750444349627840e+000	 1.103453629423890e+001
 3.634371382473355e+000	 1.787133082425423e+000	 1.107751567919774e+001
 3.616159984748968e+000	 1.823701446164401e+000	 1.112520762985356e+001
 3.597550227654190e+000	 1.860143101900514e+000	 1.117920594751923e+001
 3.788887326821345e+000	 1.499985941492418e+000	 1.068165733456598e+001
 3.773791193743661e+000	 1.537571145033858e+000	 1.076564791813834e+001
 3.758290747285668e+000	 1.575079572238361e+000	 1.085079159397329e+001
 3.742385977266211e+000	 1.612504944853311e+000	 1.091641635125168e+001
 3.726076999127117e+000	 1.649840960999605e+000	 1.095665110684622e+001
 3.709364055096013e+000	 1.687081298213093e+000	 1.099381662763720e+001
 3.692247515263667e+000	 1.724219616537203e+000	 1.102909245206918e+001
 3.674727878573526e+000	 1.761249561664025e+000	 1.106373911410545e+001
 3.656805773721258e+000	 1.798164768121055e+000	 1.109909827816792e+001
 3.638481959962131e+000	 1.834958862500678e+000	 1.113659268154958e+001
 3.619757327824249e+000	 1.871625466729350e+000	 1.117772587954177e+001
 3.812132034345510e+000	 1.509188309233287e+000	 1.066107505893921e+001
 3.796943286954317e+000	 1.547004096845295e+000	 1.074515541359705e+001
 3.781347745732699e+000	 1.584742637099948e+000	 1.082935248162343e+001
 3.765345400437040e+000	 1.622397613227745e+000	 1.091349080968557e+001
 3.748936367217401e+000	 1.659962684687746e+000	 1.099441964799333e+001
 3.732120889787467e+000	 1.697431490227682e+000	 1.102929104173247e+001
 3.714899340508502e+000	 1.734797650995538e+000	 1.105997278751550e+001
 3.697272221384958e+000	 1.772054773699921e+000	 1.108762845278400e+001
 3.679240164969529e+000	 1.809196453816351e+000	 1.111350517832629e+001
 3.660803935175493e+000	 1.846216278836551e+000	 1.113893375601069e+001
 3.641964427994314e+000	 1.883107831557690e+000	 1.123490671994445e+001
 3.835376741870674e+000	 1.518390676973651e+000	 1.065096406386201e+001
 3.820095380165963e+000	 1.556437048656317e+000	 1.073309847413027e+001
 3.804404744180690e+000	 1.594405701961191e+000	 1.081432549838483e+001
 3.788304823608781e+000	 1.632290281601885e+000	 1.089435981969657e+001
 3.771795735308528e+000	 1.670084408375627e+000	 1.097290136890300e+001
 3.754877724479676e+000	 1.707781682242020e+000	 1.104963562154962e+001
 3.737551165753983e+000	 1.745375685453613e+000	 1.108781768621642e+001
 3.719816564196904e+000	 1.782859985735529e+000	 1.110666629224429e+001
 3.701674556218166e+000	 1.820228139511309e+000	 1.112123693473221e+001
 3.683125910389052e+000	 1.857473695172016e+000	 1.113276941877664e+001
 3.664171528164389e+000	 1.894590196385535e+000	 1.130800270845894e+001
 3.858621449396840e+000	 1.527593044713509e+000	 1.065118374778112e+001
 3.843247473378598e+000	 1.565870000466923e+000	 1.072937370794035e+001
 3.827461742629643e+000	 1.604068766822089e+000	 1.080564432043796e+001
 3.811264246781434e+000	 1.642182949975733e+000	 1.087960128939294e+001
 3.794655103400497e+000	 1.680206132063246e+000	 1.095083509979601e+001
 3.777634559172637e+000	 1.718131874256107e+000	 1.101892142598872e+001
 3.760202991000109e+000	 1.755953719911430e+000	 1.108342158238865e+001
 3.742360907009368e+000	 1.793665197770850e+000	 1.112131153328601e+001
 3.724108947467171e+000	 1.831259825205930e+000	 1.112279015230208e+001
 3.705447885602809e+000	 1.868731111507075e+000	 1.111863342367185e+001
 3.686378628334472e+000	 1.906072561212882e+000	 1.136763421730146e+001
 3.881866156924004e+000	 1.536795412452863e+000	 1.066159658628079e+001
 3.866399566592226e+000	 1.575302952277115e+000	 1.073387991904095e+001
 3.850518741079557e+000	 1.613731831682644e+000	 1.080324394265766e+001
 3.834223669954998e+000	 1.652075618349287e+000	 1.086918624916620e+001
 3.817514471493309e+000	 1.690327855750602e+000	 1.093118874127489e+001
 3.800391393866355e+000	 1.728482066269945e+000	 1.098871815164683e+001
 3.782854816246879e+000	 1.766531754368986e+000	 1.104122660681708e+001
 3.764905249822348e+000	 1.804470409805882e+000	 1.108815223545878e+001
 3.746543338716543e+000	 1.842291510900214e+000	 1.111865760407703e+001
 3.727769860816763e+000	 1.879988527841727e+000	 1.113667405670179e+001
 3.708585728504561e+000	 1.917554926039734e+000	 1.141378347842212e+001
 3.905110864452169e+000	 1.545997780191711e+000	 1.068206804050127e+001
 3.889551659806843e+000	 1.584735904086892e+000	 1.074651804190554e+001
 3.873575739530430e+000	 1.623394896542854e+000	 1.080706063936625e+001
 3.857183093129475e+000	 1.661968286722549e+000	 1.086308616233737e+001
 3.840373839586965e+000	 1.700449579437697e+000	 1.091396877735737e+001
 3.823148228560824e+000	 1.738832258283531e+000	 1.095906711741282e+001
 3.805506641494295e+000	 1.777109788826284e+000	 1.099772495832666e+001
 3.787449592635845e+000	 1.815275621840626e+000	 1.102927194173598e+001
 3.768977729966282e+000	 1.853323196594162e+000	 1.105302434408422e+001
 3.750091836030915e+000	 1.891245944175974e+000	 1.119399653872822e+001
 3.730792828674659e+000	 1.929037290866090e+000	 1.144642739151003e+001
 3.928355571981333e+000	 1.555200147930054e+000	 1.071246646880880e+001
 3.912703753022449e+000	 1.594168855896254e+000	 1.076719107843605e+001
 3.896632737982265e+000	 1.633057961402721e+000	 1.081703192648008e+001
 3.880142516304864e+000	 1.671860955095518e+000	 1.086127291234848e+001
 3.863233207681463e+000	 1.710571303124530e+000	 1.089918129546969e+001
 3.845905063256048e+000	 1.749182450296868e+000	 1.093000843403211e+001
 3.828158466742356e+000	 1.787687823283323e+000	 1.095299057313654e+001
 3.809993935449857e+000	 1.826080833875083e+000	 1.096734968178012e+001
 3.791412121216387e+000	 1.864354882287772e+000	 1.097229433794137e+001
 3.772413811245263e+000	 1.902503360509814e+000	 1.117396221000340e+001
 3.752999928844765e+000	 1.940519655691950e+000	 1.145669913220588e+001
 3.951600279511499e+000	 1.564402515667893e+000	 1.075266304158306e+001
 3.935855846239047e+000	 1.603601807705202e+000	 1.079580403715612e+001
 3.919689736435062e+000	 1.642721026262243e+000	 1.083309652499210e+001
 3.903101939481164e+000	 1.681753623468193e+000	 1.086371879040596e+001
 3.886092575776805e+000	 1.720693026811101e+000	 1.088683199811100e+001
 3.868661897952027e+000	 1.759532642309954e+000	 1.090158103964015e+001
 3.850810291991064e+000	 1.798265857740103e+000	 1.090709543257015e+001
 3.832538278264387e+000	 1.836886045909252e+000	 1.090249027082017e+001
 3.813846512466861e+000	 1.875386567981046e+000	 1.088961772324597e+001
 3.794735786459811e+000	 1.913760776843248e+000	 1.114261560267182e+001
 3.775207029014879e+000	 1.952002020517314e+000	 1.139706947124719e+001
 3.553136027314097e+000	 1.837178372241353e+000	 1.114708080068946e+001
 3.534363582552064e+000	 1.873038725264742e+000	 1.090437835972674e+001
 3.515199833610370e+000	 1.908761412482587e+000	 1.095487204988626e+001
 3.495646044446416e+000	 1.944340179066090e+000	 1.101195458787764e+001
 3.475703609714793e+000	 1.979768778769484e+000	 1.105723675815036e+001
 3.455374054979496e+000	 2.015040977286106e+000	 1.109001694516223e+001
 3.434659036824272e+000	 2.050150555623710e+000	 1.110957828725688e+001
 3.413560342859975e+000	 2.085091313495475e+000	 1.111518852410890e+001
 3.392079891627955e+000	 2.119857072723085e+000	 1.110609989738335e+001
 3.370219732398642e+000	 2.154441680648209e+000	 1.108154910703819e+001
 3.347982044864625e+000	 2.188839013548634e+000	 1.104075732555244e+001
 3.575343127484140e+000	 1.848660737071182e+000	 1.116918687438322e+001
 3.556453354943440e+000	 1.884745217301496e+000	 1.097961115482745e+001
 3.537169832571846e+000	 1.920691171314831e+000	 1.101606280019167e+001
 3.517493832226493e+000	 1.956492305189702e+000	 1.104374875904177e+001
 3.497426757278562e+000	 1.992142333641312e+000	 1.106212039472021e+001
 3.476970142826822e+000	 2.027634983398575e+000	 1.107061228017946e+001
 3.456125655808669e+000	 2.062963996600547e+000	 1.106864182085574e+001
 3.434895095007523e+000	 2.098123134208612e+000	 1.105560892960651e+001
 3.413280390955621e+000	 2.133106179430840e+000	 1.103089575660863e+001
 3.391283605731326e+000	 2.167906941154782e+000	 1.099386647698056e+001
 3.368906932650309e+000	 2.202519257384963e+000	 1.094386713874608e+001
 3.597550227654190e+000	 1.860143101900514e+000	 1.117920594751923e+001
 3.578543127334634e+000	 1.896451709337664e+000	 1.106120067302450e+001
 3.559139831532968e+000	 1.932620930146416e+000	 1.106799829289034e+001
 3.539341620006065e+000	 1.968644431312608e+000	 1.106836396525424e+001
 3.519149904841695e+000	 2.004515888512400e+000	 1.106188612650323e+001
 3.498566230673402e+000	 2.040228989510295e+000	 1.104813467038556e+001
 3.477592274792229e+000	 2.075777437576643e+000	 1.102666039744524e+001
 3.456229847154164e+000	 2.111154954921037e+000	 1.099699451794958e+001
 3.434480890282325e+000	 2.146355286137931e+000	 1.095864821154203e+001
 3.412347479063020e+000	 2.181372201660762e+000	 1.091111224671939e+001
 3.389831820434993e+000	 2.216199501220790e+000	 1.085385666308437e+001
 3.619757327824249e+000	 1.871625466729350e+000	 1.117772587954177e+001
 3.600632899725644e+000	 1.908158201373246e+000	 1.113140255377271e+001
 3.581109830493738e+000	 1.944550688977346e+000	 1.111059037523198e+001
 3.561189407785134e+000	 1.980796557434805e+000	 1.108566618493224e+001
 3.540873052404193e+000	 2.016889443382751e+000	 1.105635465434083e+001
 3.520162318519235e+000	 2.052822995621266e+000	 1.102236015501227e+001
 3.499058893774951e+000	 2.088590878552000e+000	 1.098336603503689e+001
 3.477564599299897e+000	 2.124186775632751e+000	 1.093903395043045e+001
 3.455681389608072e+000	 2.159604392844361e+000	 1.088900325503282e+001
 3.433411352393724e+000	 2.194837462166150e+000	 1.083289045235051e+001
 3.410756708218677e+000	 2.229879745056114e+000	 1.077028871262720e+001
 3.641964427994314e+000	 1.883107831557690e+000	 1.123490671994445e+001
 3.622722672116472e+000	 1.919864693408242e+000	 1.119017011517096e+001
 3.603079829454155e+000	 1.956480447807618e+000	 1.114374697954194e+001
 3.583037195563698e+000	 1.992948683556295e+000	 1.109551852005144e+001
 3.562596199966056e+000	 2.029262998252362e+000	 1.104534482972036e+001
 3.541758406364323e+000	 2.065417001731487e+000	 1.099306393910041e+001
 3.520525512756837e+000	 2.101404319526616e+000	 1.093849092016494e+001
 3.498899351444720e+000	 2.137218596343754e+000	 1.088141704660783e+001
 3.476881888932859e+000	 2.172853499550128e+000	 1.082160901445509e+001
 3.454475225723438e+000	 2.208302722670944e+000	 1.075880822675826e+001
 3.431681596001361e+000	 2.243559988890935e+000	 1.069273014598828e+001
 3.664171528164389e+000	 1.894590196385535e+000	 1.130800270845894e+001
 3.644812444507119e+000	 1.931571185442651e+000	 1.123745186148112e+001
 3.625049828414218e+000	 1.968410206637234e+000	 1.116737224185543e+001
 3.604884983341758e+000	 2.005100809677078e+000	 1.109778128331090e+001
 3.584319347527286e+000	 2.041636553121236e+000	 1.102867371081624e+001
 3.563354494208663e+000	 2.078011007840959e+000	 1.096002041877843e+001
 3.541992131737885e+000	 2.114217760500491e+000	 1.089176740277947e+001
 3.520234103588635e+000	 2.150250417054045e+000	 1.082383474920777e+001
 3.498082388256686e+000	 2.186102606255233e+000	 1.075611568702512e+001
 3.475539099052162e+000	 2.221767983175147e+000	 1.068847570577333e+001
 3.452606483783046e+000	 2.257240232725254e+000	 1.062075174377279e+001
 3.686378628334472e+000	 1.906072561212882e+000	 1.136763421730146e+001
 3.666902216897582e+000	 1.943277677476475e+000	 1.127319162812318e+001
 3.647019827373930e+000	 1.980339965466193e+000	 1.118136661626356e+001
 3.626732771119317e+000	 2.017252935797153e+000	 1.109231208214743e+001
 3.606042495087878e+000	 2.054010107989371e+000	 1.100615661650534e+001
 3.584950582052259e+000	 2.090605013949682e+000	 1.092300320562718e+001
 3.563458750718094e+000	 2.127031201473626e+000	 1.084292799132435e+001
 3.541568855731642e+000	 2.163282237763625e+000	 1.076597909029334e+001
 3.519282887579553e+000	 2.199351712959676e+000	 1.069217547745686e+001
 3.496602972379896e+000	 2.235233243678757e+000	 1.062150593772266e+001
 3.473531371563731e+000	 2.270920476559069e+000	 1.055392809044521e+001
 3.708585728504561e+000	 1.917554926039734e+000	 1.141378347842212e+001
 3.688991989287863e+000	 1.954984169509711e+000	 1.129732872146084e+001
 3.668989826333287e+000	 1.992269724294494e+000	 1.118562698515112e+001
 3.648580558896370e+000	 2.029405061916520e+000	 1.107896589973143e+001
 3.627765642647836e+000	 2.066383662856767e+000	 1.097760717844183e+001
 3.606546669895108e+000	 2.103199020057653e+000	 1.088178515016934e+001
 3.584925369697467e+000	 2.139844642446019e+000	 1.079170534799186e+001
 3.562903607873741e+000	 2.176314058472495e+000	 1.070754315864973e+001
 3.540483386901463e+000	 2.212600819663458e+000	 1.062944253785711e+001
 3.517666845706641e+000	 2.248698504181774e+000	 1.055751479622889e+001
 3.494456259343415e+000	 2.284600720392382e+000	 1.049183746044130e+001
 3.730792828674659e+000	 1.929037290866090e+000	 1.144642739151003e+001
 3.711081761677962e+000	 1.966690661542362e+000	 1.130979805359500e+001
 3.690959825292291e+000	 2.004199483122140e+000	 1.118004676549750e+001
 3.670428346672918e+000	 2.041557188035180e+000	 1.105759517307010e+001
 3.649488790207160e+000	 2.078757217723425e+000	 1.094283739127210e+001
 3.628142757737210e+000	 2.115793026164877e+000	 1.083613836452008e+001
 3.606391988676003e+000	 2.152658083417674e+000	 1.073783228414689e+001
 3.584238360014931e+000	 2.189345879180652e+000	 1.064822106833417e+001
 3.561683886222414e+000	 2.225849926366578e+000	 1.056757290976746e+001
 3.538730719032396e+000	 2.262163764684199e+000	 1.049612089612425e+001
 3.515381147122099e+000	 2.298280964225193e+000	 1.043406170834748e+001
 3.752999928844765e+000	 1.940519655691950e+000	 1.145669913220588e+001
 3.733171534067878e+000	 1.978397153574426e+000	 1.131053027237141e+001
 3.712929824250943e+000	 2.016129241949128e+000	 1.116451601140338e+001
 3.692276134448962e+000	 2.053709314153131e+000	 1.102804986833769e+001
 3.671211937765847e+000	 2.091130772589344e+000	 1.090165766106692e+001
 3.649738845578567e+000	 2.128387032271351e+000	 1.078583424423334e+001
 3.627858607653701e+000	 2.165471524388587e+000	 1.068104175591346e+001
 3.605573112155213e+000	 2.202377699888097e+000	 1.058770792834251e+001
 3.582884385542403e+000	 2.239099033069035e+000	 1.050622446826381e+001
 3.559794592357162e+000	 2.275629025186031e+000	 1.043694551234960e+001
 3.536306034899783e+000	 2.311961208057501e+000	 1.038018616297929e+001
 3.775207029014879e+000	 1.952002020517314e+000	 1.139706947124719e+001
 3.755261306457614e+000	 1.990103645605905e+000	 1.128415111765932e+001
 3.734899823209242e+000	 2.028059000775460e+000	 1.113892151299891e+001
 3.714123922224505e+000	 2.065861440270376e+000	 1.099017755354709e+001
 3.692935085323902e+000	 2.103504327454526e+000	 1.085387685204432e+001
 3.671334933419178e+000	 2.140981038377075e+000	 1.073064348937713e+001
 3.649325226630563e+000	 2.178284965358760e+000	 1.062106685991723e+001
 3.626907864294587e+000	 2.215409520594833e+000	 1.052569981334630e+001
 3.604084884861436e+000	 2.252348139770831e+000	 1.044505686802895e+001
 3.580858465680938e+000	 2.289094285687272e+000	 1.037961250171603e+001
 3.557230922676468e+000	 2.325641451889307e+000	 1.032979952519812e+001
 3.347982044864625e+000	 2.188839013548634e+000	 1.104075732555244e+001
 3.325369138727341e+000	 2.223042980055294e+000	 1.096396152130403e+001
 3.302383453178052e+000	 2.257047524566414e+000	 1.090570157480661e+001
 3.279027556272166e+000	 2.290846630654907e+000	 1.086694318697187e+001
 3.255304144196106e+000	 2.324434324465135e+000	 1.084861133168778e+001
 3.231216040427900e+000	 2.357804678095201e+000	 1.085158854201388e+001
 3.206766194791349e+000	 2.390951812960879e+000	 1.087671328737468e+001
 3.181957682404208e+000	 2.423869903137296e+000	 1.092477844626840e+001
 3.156793702520920e+000	 2.456553178674487e+000	 1.099652987875108e+001
 3.131277577270648e+000	 2.488995928882965e+000	 1.109266510268227e+001
 3.105412750291483e+000	 2.521192505585459e+000	 1.094597302697737e+001
 3.368906932650309e+000	 2.202519257384963e+000	 1.094386713874608e+001
 3.346152695849630e+000	 2.236936998681402e+000	 1.089267135488839e+001
 3.323023349765487e+000	 2.271154071594951e+000	 1.086088941439706e+001
 3.299521478503630e+000	 2.305164422095855e+000	 1.084947722597068e+001
 3.275649795101650e+000	 2.338962038991882e+000	 1.085934849881400e+001
 3.251411140684310e+000	 2.372540957331743e+000	 1.089137302015117e+001
 3.226808483511812e+000	 2.405895261790065e+000	 1.094637502653140e+001
 3.201844917921395e+000	 2.439019090029943e+000	 1.102513167349668e+001
 3.176523663162844e+000	 2.471906636039226e+000	 1.112837160791818e+001
 3.150848062128626e+000	 2.504552153436617e+000	 1.119076479655153e+001
 3.124821579979573e+000	 2.536949958743739e+000	 1.087496362682519e+001
 3.389831820434993e+000	 2.216199501220790e+000	 1.085385666308437e+001
 3.366936252970930e+000	 2.250831017307106e+000	 1.082774720074925e+001
 3.343663246351960e+000	 2.285260618623185e+000	 1.082193732092857e+001
 3.320015400734183e+000	 2.319482213536602e+000	 1.083737349042104e+001
 3.295995446006352e+000	 2.353489753518526e+000	 1.087495848985636e+001
 3.271606240939970e+000	 2.387277236568283e+000	 1.093554968200362e+001
 3.246850772231634e+000	 2.420838710619349e+000	 1.101995737669347e+001
 3.221732153438071e+000	 2.454168276922789e+000	 1.112894329697864e+001
 3.196253623804405e+000	 2.487260093404263e+000	 1.126321915088587e+001
 3.170418546986411e+000	 2.520108377990668e+000	 1.113098851116646e+001
 3.144230409667659e+000	 2.552707411902517e+000	 1.084229089762621e+001
 3.410756708218677e+000	 2.229879745056114e+000	 1.077028871262720e+001
 3.387719810091239e+000	 2.264725035932409e+000	 1.076875638306544e+001
 3.364303142937474e+000	 2.299367165651117e+000	 1.078841735573129e+001
 3.340509322963825e+000	 2.333800004977146e+000	 1.083020900479081e+001
 3.316341096910214e+000	 2.368017468045067e+000	 1.089502351714606e+001
 3.291801341194878e+000	 2.402013515804821e+000	 1.098370615101467e+001
 3.266893060950814e+000	 2.435782159448731e+000	 1.109705359397270e+001
 3.241619388954234e+000	 2.469317463815833e+000	 1.123581242514095e+001
 3.215983584445602e+000	 2.502613550769600e+000	 1.136269892515571e+001
 3.189989031844004e+000	 2.535664602545118e+000	 1.107247479034787e+001
 3.163639239355744e+000	 2.568464865061795e+000	 1.081084107837678e+001
 3.431681596001361e+000	 2.243559988890935e+000	 1.069273014598828e+001
 3.408503367210559e+000	 2.278619054557308e+000	 1.071527010639272e+001
 3.384943039522027e+000	 2.313473712678746e+000	 1.075990529432577e+001
 3.361003245192558e+000	 2.348117796417488e+000	 1.082756433961501e+001
 3.336686747813234e+000	 2.382545182571506e+000	 1.091912916909612e+001
 3.311996441449033e+000	 2.416749795041357e+000	 1.103543325493867e+001
 3.286935349669350e+000	 2.450725608278211e+000	 1.117725996531276e+001
 3.261506624469884e+000	 2.484466650709074e+000	 1.134534102213415e+001
 3.235713545086438e+000	 2.517967008135234e+000	 1.127912657300124e+001
 3.209559516701404e+000	 2.551220827099967e+000	 1.101541314342832e+001
 3.183048069043826e+000	 2.584222318221571e+000	 1.078046249070076e+001
 3.452606483783046e+000	 2.257240232725254e+000	 1.062075174377279e+001
 3.429286924328888e+000	 2.292513073181805e+000	 1.066686333807673e+001
 3.405582936105619e+000	 2.327580259706072e+000	 1.073598051387175e+001
 3.381497167420379e+000	 2.362435587857628e+000	 1.082902350403919e+001
 3.357032398715414e+000	 2.397072897097844e+000	 1.094686430789599e+001
 3.332191541702438e+000	 2.431486074277891e+000	 1.109032492874050e+001
 3.306977638387247e+000	 2.465669057107790e+000	 1.126017571664574e+001
 3.281393859985023e+000	 2.499615837602515e+000	 1.145713382129551e+001
 3.255443505726912e+000	 2.533320465501167e+000	 1.119755732816142e+001
 3.229130001558612e+000	 2.566777051655214e+000	 1.095999550489757e+001
 3.202456898731904e+000	 2.599979771381846e+000	 1.075135441125153e+001
 3.473531371563731e+000	 2.270920476559069e+000	 1.055392809044521e+001
 3.450070481446228e+000	 2.306407091805899e+000	 1.062311469491589e+001
 3.426222832688253e+000	 2.341686806733097e+000	 1.071622588468506e+001
 3.401991089647289e+000	 2.376753379297564e+000	 1.083417384224686e+001
 3.377378049616752e+000	 2.411600611624079e+000	 1.097782097090370e+001
 3.352386641955091e+000	 2.446222353514424e+000	 1.114797812100500e+001
 3.327019927104500e+000	 2.480612505937467e+000	 1.134540292436850e+001
 3.301281095499650e+000	 2.514765024496154e+000	 1.135766572276545e+001
 3.275173466367022e+000	 2.548673922867399e+000	 1.111817819339615e+001
 3.248700486415626e+000	 2.582333276210859e+000	 1.090641616135577e+001
 3.221865728419981e+000	 2.615737224542619e+000	 1.072371829996758e+001
 3.494456259343415e+000	 2.284600720392382e+000	 1.049183746044130e+001
 3.470854038562576e+000	 2.320301110429591e+000	 1.058360633389637e+001
 3.446862729269925e+000	 2.355793353759819e+000	 1.070022766565208e+001
 3.422485011873289e+000	 2.391071170737299e+000	 1.084260593360804e+001
 3.397723700517249e+000	 2.426128326150212e+000	 1.101159427558109e+001
 3.372581742206992e+000	 2.460958632750953e+000	 1.120799270370869e+001
 3.347062215821112e+000	 2.495555954767242e+000	 1.143254642999931e+001
 3.321168331013763e+000	 2.529914211389992e+000	 1.125535087892608e+001
 3.294903427006771e+000	 2.564027380233930e+000	 1.104117861566085e+001
 3.268270971272449e+000	 2.597889500766904e+000	 1.085487168109084e+001
 3.241274558108055e+000	 2.631494677703892e+000	 1.069775773470464e+001
 3.515381147122099e+000	 2.298280964225193e+000	 1.043406170834748e+001
 3.491637595677935e+000	 2.334195129052880e+000	 1.054792384682936e+001
 3.467502625850638e+000	 2.369899900786238e+000	 1.068757540337953e+001
 3.442978934098379e+000	 2.405388962176831e+000	 1.085391349639396e+001
 3.418069351416905e+000	 2.440656040676242e+000	 1.104778232782392e+001
 3.392776842458142e+000	 2.475694911987481e+000	 1.126997138521420e+001
 3.367104504537082e+000	 2.510499403597115e+000	 1.137179832872822e+001
 3.341055566527366e+000	 2.545063398284028e+000	 1.115593019489702e+001
 3.314633387646158e+000	 2.579380837600758e+000	 1.096675041336267e+001
 3.287841456129079e+000	 2.613445725323347e+000	 1.080556084617124e+001
 3.260683387796125e+000	 2.647252130865662e+000	 1.067367834820251e+001
 3.536306034899783e+000	 2.311961208057501e+000	 1.038018616297929e+001
 3.512421152792304e+000	 2.348089147675766e+000	 1.051565615872898e+001
 3.488142522430389e+000	 2.384006447812355e+000	 1.067786183492448e+001
 3.463472856322557e+000	 2.419706753616161e+000	 1.086769329491017e+001
 3.438415002315720e+000	 2.455183755202171e+000	 1.108598613354674e+001
 3.412971942708541e+000	 2.490431191224007e+000	 1.133351962635341e+001
 3.387146793252410e+000	 2.525442852427087e+000	 1.125090350397525e+001
 3.360942802040456e+000	 2.560212585178262e+000	 1.105959086856975e+001
 3.334363348285181e+000	 2.594734294967886e+000	 1.089508770619912e+001
 3.307411940985515e+000	 2.629001949880189e+000	 1.075868458694942e+001
 3.280092217484194e+000	 2.663009584027932e+000	 1.065168776728960e+001
 3.557230922676468e+000	 2.325641451889307e+000	 1.032979952519812e+001
 3.533204709905683e+000	 2.361983166298250e+000	 1.048639542977705e+001
 3.508782419009181e+000	 2.398112994838169e+000	 1.067068279395772e+001
 3.483966778545826e+000	 2.434024545055289e+000	 1.088354504990726e+001
 3.458760653213694e+000	 2.469711469727998e+000	 1.112580951338819e+001
 3.433167042958189e+000	 2.505167470460532e+000	 1.132627768103681e+001
 3.407189081967098e+000	 2.540386301257156e+000	 1.113357335427332e+001
 3.380830037553034e+000	 2.575361772072695e+000	 1.096652247872425e+001
 3.354093308923843e+000	 2.610087752335312e+000	 1.082638684747307e+001
 3.326982425841761e+000	 2.644558174437430e+000	 1.071444591887703e+001
 3.299501047172259e+000	 2.678767037190700e+000	 1.063199555423332e+001
 3.105412750291483e+000	 2.521192505585459e+000	 1.094597302697737e+001
 3.079202785261663e+000	 2.553137326331711e+000	 1.090213376212868e+001
 3.052651364329597e+000	 2.584824877570536e+000	 1.085936905722447e+001
 3.025762286443788e+000	 2.616249717776630e+000	 1.081945001419836e+001
 2.998539465583634e+000	 2.647406480529932e+000	 1.078420466229180e+001
 2.970986928893433e+000	 2.678289877541903e+000	 1.075551453416285e+001
 2.943108814721196e+000	 2.708894701625782e+000	 1.073531105828656e+001
 2.914909370564268e+000	 2.739215829607388e+000	 1.072557177576372e+001
 2.886392950923881e+000	 2.769248225173028e+000	 1.072831639027410e+001
 2.857564015070872e+000	 2.798986941651220e+000	 1.074560266050172e+001
 2.828427124725000e+000	 2.828427124725000e+000	 1.077952214492220e+001
 3.124821579979573e+000	 2.536949958743739e+000	 1.087496362682519e+001
 3.098447802667084e+000	 2.569094434619900e+000	 1.084747070882331e+001
 3.071730435353171e+000	 2.600980033054108e+000	 1.081945536421694e+001
 3.044673300729765e+000	 2.632601278511519e+000	 1.079270423552556e+001
 3.017280337238636e+000	 2.663952771031953e+000	 1.076906386844534e+001
 2.989555597193735e+000	 2.695029189275061e+000	 1.075043724487188e+001
 2.961503244807746e+000	 2.725825293509172e+000	 1.073878012613228e+001
 2.933127554124876e+000	 2.756335928540261e+000	 1.073609721465699e+001
 2.904432906861986e+000	 2.786556026577674e+000	 1.074443814295881e+001
 2.875423790160358e+000	 2.816480610033235e+000	 1.076589329939381e+001
 2.846104794250500e+000	 2.846104794250500e+000	 1.080258950075911e+001
 3.144230409667659e+000	 2.552707411902517e+000	 1.084229089762621e+001
 3.117692820072692e+000	 2.585051542908685e+000	 1.079320490026753e+001
 3.090809506377104e+000	 2.617135188538358e+000	 1.077943377780780e+001
 3.063584315016250e+000	 2.648952839247163e+000	 1.076533725639743e+001
 3.036021208894278e+000	 2.680499061534792e+000	 1.075278123675456e+001
 3.008124265494786e+000	 2.711768501009096e+000	 1.074369101681099e+001
 2.979897674895137e+000	 2.742755885393480e+000	 1.074004758455960e+001
 2.951345737686393e+000	 2.773456027474087e+000	 1.074388372330875e+001
 2.922472862801051e+000	 2.803863827983302e+000	 1.075727993834414e+001
 2.893283565250835e+000	 2.833974278416246e+000	 1.078236021462415e+001
 2.863782463777000e+000	 2.863782463776999e+000	 1.082128761573020e+001
 3.163639239355744e+000	 2.568464865061795e+000	 1.081084107837678e+001
 3.136937837478489e+000	 2.601008651198063e+000	 1.075996001206804e+001
 3.109888577401392e+000	 2.633290344023286e+000	 1.073971732984956e+001
 3.082495329303243e+000	 2.665304399983560e+000	 1.073776644661259e+001
 3.054762080550558e+000	 2.697045352038451e+000	 1.073577792269172e+001
 3.026692933796586e+000	 2.728507812744004e+000	 1.073570024032570e+001
 2.998292104983366e+000	 2.759686477278709e+000	 1.073954050994947e+001
 2.969563921248820e+000	 2.790576126408869e+000	 1.074936051774594e+001
 2.940512818741076e+000	 2.821171629389907e+000	 1.076727258864338e+001
 2.911143340342301e+000	 2.851467946800253e+000	 1.079543527453781e+001
 2.881460133304500e+000	 2.881460133304500e+000	 1.083604887813181e+001
 3.183048069043826e+000	 2.584222318221571e+000	 1.078046249070076e+001
 3.156182854884472e+000	 2.616965759488034e+000	 1.073983590098296e+001
 3.128967648426040e+000	 2.649445499508894e+000	 1.070649047029971e+001
 3.101406343590746e+000	 2.681655960720713e+000	 1.071041095498127e+001
 3.073502952207474e+000	 2.713591642542929e+000	 1.071847669259774e+001
 3.045261602099134e+000	 2.745247124479786e+000	 1.072689075496928e+001
 3.016686535072434e+000	 2.776617069164856e+000	 1.073768727279514e+001
 2.987782104812156e+000	 2.807696225344604e+000	 1.075295795965757e+001
 2.958552774682061e+000	 2.838479430797494e+000	 1.077484791000217e+001
 2.929003115434757e+000	 2.868961615185254e+000	 1.080555121647402e+001
 2.899137802833000e+000	 2.899137802833000e+000	 1.084730641717468e+001
 3.202456898731904e+000	 2.599979771381846e+000	 1.075135441125153e+001
 3.175427872290643e+000	 2.632922867778599e+000	 1.072058148870984e+001
 3.148046719451044e+000	 2.665600654995181e+000	 1.069593968919562e+001
 3.120317357878754e+000	 2.698007521458619e+000	 1.068369165541594e+001
 3.092243823865031e+000	 2.730137933048226e+000	 1.070130187486806e+001
 3.063830270402432e+000	 2.761986436216443e+000	 1.071768980558726e+001
 3.035080965162342e+000	 2.793547661051924e+000	 1.073491749848663e+001
 3.006000288376402e+000	 2.824816324281296e+000	 1.075510752167776e+001
 2.976592730624005e+000	 2.855787232206059e+000	 1.078043869207631e+001
 2.946862890528204e+000	 2.886455283571249e+000	 1.081314162043318e+001
 2.916815472362500e+000	 2.916815472362500e+000	 1.085549408053206e+001
 3.221865728419981e+000	 2.615737224542619e+000	 1.072371829996758e+001
 3.194672889697001e+000	 2.648879976069759e+000	 1.070240553254535e+001
 3.167125790476407e+000	 2.681755810482147e+000	 1.068607519924111e+001
 3.139228372167272e+000	 2.714359082197278e+000	 1.067521637452769e+001
 3.110984695523225e+000	 2.746684223554342e+000	 1.068467931290275e+001
 3.082398938706478e+000	 2.778725747953974e+000	 1.070852599998942e+001
 3.053475395253089e+000	 2.810478252939912e+000	 1.073166202951266e+001
 3.024218471941557e+000	 2.841936423218941e+000	 1.075624175392341e+001
 2.994632686566910e+000	 2.873095033615605e+000	 1.078447866870923e+001
 2.964722665622640e+000	 2.903948951958240e+000	 1.081864088369533e+001
 2.934493141892999e+000	 2.934493141893000e+000	 1.086104641269926e+001
 3.241274558108055e+000	 2.631494677703892e+000	 1.069775773470464e+001
 3.213917907103547e+000	 2.664837084361511e+000	 1.068551873705478e+001
 3.186204861502127e+000	 2.697910965969791e+000	 1.067711443807415e+001
 3.158139386456297e+000	 2.730710642936693e+000	 1.067302119913896e+001
 3.129725567182059e+000	 2.763230514061278e+000	 1.067374756873132e+001
 3.100967607011273e+000	 2.795465059692380e+000	 1.069982926814249e+001
 3.071869825344674e+000	 2.827408844828819e+000	 1.072835288902058e+001
 3.042436655507622e+000	 2.859056522157542e+000	 1.075679425173439e+001
 3.012672642510774e+000	 2.890402835026131e+000	 1.078740248966280e+001
 2.982582440718066e+000	 2.921442620346226e+000	 1.082248419635086e+001
 2.952170811424500e+000	 2.952170811424500e+000	 1.086439863413070e+001
 3.260683387796125e+000	 2.647252130865662e+000	 1.067367834820251e+001
 3.233162924510279e+000	 2.680794192653857e+000	 1.067013369611760e+001
 3.205283932528204e+000	 2.714066121458115e+000	 1.066927657257144e+001
 3.177050400745831e+000	 2.747062203676860e+000	 1.067157092151245e+001
 3.148466438841530e+000	 2.779776804569033e+000	 1.067751486245890e+001
 3.119536275316816e+000	 2.812204371431659e+000	 1.069203082282018e+001
 3.090264255437100e+000	 2.844339436718645e+000	 1.072542324567772e+001
 3.060654839074597e+000	 2.876176621097097e+000	 1.075719962456561e+001
 3.030712598455597e+000	 2.907710636437636e+000	 1.078964569335797e+001
 3.000442215814482e+000	 2.938936288735206e+000	 1.082510751770487e+001
 2.969848480956999e+000	 2.969848480956999e+000	 1.086598662112216e+001
 3.280092217484194e+000	 2.663009584027932e+000	 1.065168776728960e+001
 3.252407941917199e+000	 2.696751300946797e+000	 1.065646483703061e+001
 3.224363003554640e+000	 2.730221276947117e+000	 1.066278244768756e+001
 3.195961415035872e+000	 2.763413764417782e+000	 1.067109241851249e+001
 3.167207310501641e+000	 2.796323095077607e+000	 1.068188274563374e+001
 3.138104943623110e+000	 2.828943683171814e+000	 1.069567688112935e+001
 3.108658685530364e+000	 2.861270028609391e+000	 1.072330737978025e+001
 3.078873022642481e+000	 2.893296720037607e+000	 1.075789346598366e+001
 3.048752554401381e+000	 2.925018437850121e+000	 1.079164468058302e+001
 3.018301990911889e+000	 2.956429957125182e+000	 1.082694755351936e+001
 2.987526150490500e+000	 2.987526150490500e+000	 1.086624688640709e+001
 3.299501047172259e+000	 2.678767037190700e+000	 1.063199555423332e+001
 3.271652959324307e+000	 2.712708409240331e+000	 1.064472836658390e+001
 3.243442074581433e+000	 2.746376432436798e+000	 1.065785453709965e+001
 3.214872429326423e+000	 2.779765325159458e+000	 1.067181405020999e+001
 3.185948182162389e+000	 2.812869385587000e+000	 1.068708508168302e+001
 3.156673611930151e+000	 2.845682994912844e+000	 1.070418328824166e+001
 3.127053115624468e+000	 2.878200620501057e+000	 1.072366097875604e+001
 3.097091206211275e+000	 2.910416818979073e+000	 1.075931232472237e+001
 3.066792510348125e+000	 2.942326239263588e+000	 1.079383668912981e+001
 3.036161766010286e+000	 2.973923625516154e+000	 1.082844173405866e+001
 3.005203820025000e+000	 3.005203820025000e+000	 1.086561656043793e+001
 2.828427124725000e+000	 2.828427124725000e+000	 1.077952214492220e+001
 2.798986941651219e+000	 2.857564015070872e+000	 1.068030616705311e+001
 2.769248225173028e+000	 2.886392950923880e+000	 1.059403715056384e+001
 2.739215829607388e+000	 2.914909370564268e+000	 1.052288829860521e+001
 2.708894701625783e+000	 2.943108814721196e+000	 1.046905768696002e+001
 2.678289877541903e+000	 2.970986928893433e+000	 1.043476342400388e+001
 2.647406480529932e+000	 2.998539465583634e+000	 1.042223871925380e+001
 2.616249717776630e+000	 3.025762286443787e+000	 1.043372687336361e+001
 2.584824877570536e+000	 3.052651364329597e+000	 1.047147620270100e+001
 2.553137326331711e+000	 3.079202785261663e+000	 1.053773491187012e+001
 2.521192505585459e+000	 3.105412750291483e+000	 1.063474592772561e+001
 2.846104794250500e+000	 2.846104794250500e+000	 1.080258950075911e+001
 2.816480610033235e+000	 2.875423790160357e+000	 1.070626943481025e+001
 2.786556026577674e+000	 2.904432906861986e+000	 1.062482207740527e+001
 2.756335928540261e+000	 2.933127554124876e+000	 1.056050659142267e+001
 2.725825293509172e+000	 2.961503244807746e+000	 1.051560616077863e+001
 2.695029189275062e+000	 2.989555597193736e+000	 1.049242301262213e+001
 2.663952771031954e+000	 3.017280337238637e+000	 1.049327334817799e+001
 2.632601278511519e+000	 3.044673300729766e+000	 1.052048219541321e+001
 2.600980033054107e+000	 3.071730435353172e+000	 1.057637819697834e+001
 2.569094434619901e+000	 3.098447802667084e+000	 1.066328834710489e+001
 2.536949958743739e+000	 3.124821579979572e+000	 1.078353269132138e+001
 2.863782463777000e+000	 2.863782463776999e+000	 1.082128761573020e+001
 2.833974278416246e+000	 2.893283565250835e+000	 1.072821754221732e+001
 2.803863827983302e+000	 2.922472862801051e+000	 1.065190635165622e+001
 2.773456027474087e+000	 2.951345737686393e+000	 1.059469980497546e+001
 2.742755885393480e+000	 2.979897674895137e+000	 1.055896687384938e+001
 2.711768501009095e+000	 3.008124265494786e+000	 1.054709462375866e+001
 2.680499061534792e+000	 3.036021208894278e+000	 1.056148300569261e+001
 2.648952839247162e+000	 3.063584315016250e+000	 1.060453956998736e+001
 2.617135188538357e+000	 3.090809506377103e+000	 1.067867411607278e+001
 2.585051542908685e+000	 3.117692820072692e+000	 1.078629329213064e+001
 2.552707411902518e+000	 3.144230409667660e+000	 1.064355351041383e+001
 2.881460133304500e+000	 2.881460133304500e+000	 1.083604887813181e+001
 2.851467946800252e+000	 2.911143340342301e+000	 1.074656629500098e+001
 2.821171629389907e+000	 2.940512818741075e+000	 1.067568940298952e+001
 2.790576126408868e+000	 2.969563921248820e+000	 1.062585121209617e+001
 2.759686477278708e+000	 2.998292104983366e+000	 1.059950717403155e+001
 2.728507812744004e+000	 3.026692933796586e+000	 1.059912992475994e+001
 2.697045352038451e+000	 3.054762080550558e+000	 1.062720393560913e+001
 2.665304399983561e+000	 3.082495329303243e+000	 1.068622008676583e+001
 2.633290344023287e+000	 3.109888577401393e+000	 1.077867017725395e+001
 2.601008651198063e+000	 3.136937837478489e+000	 1.075069232945315e+001
 2.568464865061795e+000	 3.163639239355744e+000	 1.052310193099708e+001
 2.899137802833000e+000	 2.899137802833000e+000	 1.084730641717468e+001
 2.868961615185253e+000	 2.929003115434757e+000	 1.076173252280605e+001
 2.838479430797494e+000	 2.958552774682060e+000	 1.069657195708649e+001
 2.807696225344605e+000	 2.987782104812157e+000	 1.065434564267421e+001
 2.776617069164856e+000	 3.016686535072434e+000	 1.063759621612627e+001
 2.745247124479786e+000	 3.045261602099134e+000	 1.064888262852145e+001
 2.713591642542929e+000	 3.073502952207475e+000	 1.069077465451070e+001
 2.681655960720712e+000	 3.101406343590744e+000	 1.076584732393912e+001
 2.649445499508894e+000	 3.128967648426040e+000	 1.083142254518741e+001
 2.616965759488034e+000	 3.156182854884472e+000	 1.063627017955053e+001
 2.584222318221571e+000	 3.183048069043826e+000	 1.042452586502346e+001
 2.916815472362500e+000	 2.916815472362500e+000	 1.085549408053206e+001
 2.886455283571249e+000	 2.946862890528204e+000	 1.077413404816774e+001
 2.855787232206061e+000	 2.976592730624005e+000	 1.071495599636407e+001
 2.824816324281295e+000	 3.006000288376402e+000	 1.068056943647241e+001
 2.793547661051924e+000	 3.035080965162342e+000	 1.067360490712063e+001
 2.761986436216443e+000	 3.063830270402431e+000	 1.069670843150143e+001
 2.730137933048226e+000	 3.092243823865031e+000	 1.075253588288049e+001
 2.698007521458619e+000	 3.120317357878755e+000	 1.084374727279898e+001
 2.665600654995181e+000	 3.148046719451045e+000	 1.072340271656904e+001
 2.632922867778599e+000	 3.175427872290642e+000	 1.054281809992843e+001
 2.599979771381846e+000	 3.202456898731905e+000	 1.034740547946422e+001
 2.934493141892999e+000	 2.934493141893000e+000	 1.086104641269926e+001
 2.903948951958240e+000	 2.964722665622640e+000	 1.078418965660528e+001
 2.873095033615605e+000	 2.994632686566909e+000	 1.073124472212125e+001
 2.841936423218941e+000	 3.024218471941557e+000	 1.070491039764879e+001
 2.810478252939913e+000	 3.053475395253089e+000	 1.070790585341098e+001
 2.778725747953974e+000	 3.082398938706477e+000	 1.074296495397487e+001
 2.746684223554341e+000	 3.110984695523225e+000	 1.081283047871899e+001
 2.714359082197279e+000	 3.139228372167272e+000	 1.078841035375122e+001
 2.681755810482146e+000	 3.167125790476407e+000	 1.063543870006494e+001
 2.648879976069758e+000	 3.194672889697001e+000	 1.046992262121970e+001
 2.615737224542619e+000	 3.221865728419981e+000	 1.029132382477755e+001
 2.952170811424500e+000	 2.952170811424500e+000	 1.086439863413070e+001
 2.921442620346225e+000	 2.982582440718066e+000	 1.079231906779007e+001
 2.890402835026131e+000	 3.012672642510772e+000	 1.074584251804561e+001
 2.859056522157541e+000	 3.042436655507622e+000	 1.072775775091248e+001
 2.827408844828819e+000	 3.071869825344675e+000	 1.074087330992253e+001
 2.795465059692380e+000	 3.100967607011272e+000	 1.078801168243435e+001
 2.763230514061278e+000	 3.129725567182059e+000	 1.083514023017842e+001
 2.730710642936692e+000	 3.158139386456296e+000	 1.070626502880349e+001
 2.697910965969791e+000	 3.186204861502127e+000	 1.056712355382103e+001
 2.664837084361510e+000	 3.213917907103546e+000	 1.041717290629310e+001
 2.631494677703891e+000	 3.241274558108055e+000	 1.025586674857641e+001
 2.969848480956999e+000	 2.969848480956999e+000	 1.086598662112216e+001
 2.938936288735207e+000	 3.000442215814482e+000	 1.079894290774354e+001
 2.907710636437637e+000	 3.030712598455597e+000	 1.075915491502324e+001
 2.876176621097097e+000	 3.060654839074597e+000	 1.074950209924539e+001
 2.844339436718645e+000	 3.090264255437100e+000	 1.077288313104583e+001
 2.812204371431660e+000	 3.119536275316816e+000	 1.083220991404776e+001
 2.779776804569033e+000	 3.148466438841531e+000	 1.075911356851572e+001
 2.747062203676861e+000	 3.177050400745830e+000	 1.064285395517796e+001
 2.714066121458115e+000	 3.205283932528205e+000	 1.051805271947919e+001
 2.680794192653857e+000	 3.233162924510279e+000	 1.038416067191303e+001
 2.647252130865662e+000	 3.260683387796125e+000	 1.024062281238013e+001
 2.987526150490500e+000	 2.987526150490500e+000	 1.086624688640709e+001
 2.956429957125182e+000	 3.018301990911889e+000	 1.080448268202211e+001
 2.925018437850121e+000	 3.048752554401380e+000	 1.077158855719791e+001
 2.893296720037606e+000	 3.078873022642481e+000	 1.077053538312491e+001
 2.861270028609391e+000	 3.108658685530364e+000	 1.080431272331544e+001
 2.828943683171814e+000	 3.138104943623109e+000	 1.079773689861688e+001
 2.796323095077607e+000	 3.167207310501641e+000	 1.070090138227333e+001
 2.763413764417782e+000	 3.195961415035872e+000	 1.059777900803376e+001
 2.730221276947116e+000	 3.224363003554640e+000	 1.048782395165966e+001
 2.696751300946797e+000	 3.252407941917199e+000	 1.037048011318043e+001
 2.663009584027932e+000	 3.280092217484194e+000	 1.024518321132114e+001
 3.005203820025000e+000	 3.005203820025000e+000	 1.086561656043793e+001
 2.973923625516154e+000	 3.036161766010285e+000	 1.080936074984841e+001
 2.942326239263588e+000	 3.066792510348125e+000	 1.078355116922821e+001
 2.910416818979071e+000	 3.097091206211275e+000	 1.079125084118581e+001
 2.878200620501058e+000	 3.127053115624469e+000	 1.082582042210398e+001
 2.845682994912843e+000	 3.156673611930151e+000	 1.074499215623488e+001
 2.812869385587000e+000	 3.185948182162389e+000	 1.066011212408394e+001
 2.779765325159459e+000	 3.214872429326423e+000	 1.057064413726356e+001
 2.746376432436797e+000	 3.243442074581434e+000	 1.047603724993217e+001
 2.712708409240331e+000	 3.271652959324307e+000	 1.037572783064053e+001
 2.678767037190700e+000	 3.299501047172260e+000	 1.026914169668580e+001
 2.521192505585459e+000	 3.105412750291483e+000	 1.063474592772561e+001
 2.488995928882964e+000	 3.131277577270647e+000	 1.083831040814696e+001
 2.456553178674486e+000	 3.156793702520920e+000	 1.075911919059412e+001
 2.423869903137295e+000	 3.181957682404208e+000	 1.066784772260818e+001
 2.390951812960879e+000	 3.206766194791349e+000	 1.056610639374449e+001
 2.357804678095201e+000	 3.231216040427900e+000	 1.045550819244821e+001
 2.324434324465135e+000	 3.255304144196106e+000	 1.033766571361213e+001
 2.290846630654907e+000	 3.279027556272165e+000	 1.021418818956148e+001
 2.257047524566414e+000	 3.302383453178052e+000	 1.008667855136317e+001
 2.223042980055295e+000	 3.325369138727341e+000	 9.956730527211402e+000
 2.188839013548634e+000	 3.347982044864625e+000	 9.825925784474398e+000
 2.536949958743739e+000	 3.124821579979572e+000	 1.078353269132138e+001
 2.504552153436617e+000	 3.150848062128625e+000	 1.067267303309030e+001
 2.471906636039226e+000	 3.176523663162843e+000	 1.061130259241199e+001
 2.439019090029943e+000	 3.201844917921395e+000	 1.054588711126320e+001
 2.405895261790065e+000	 3.226808483511813e+000	 1.046838241649924e+001
 2.372540957331742e+000	 3.251411140684310e+000	 1.038041997443271e+001
 2.338962038991882e+000	 3.275649795101650e+000	 1.028363211984661e+001
 2.305164422095856e+000	 3.299521478503630e+000	 1.017964903410706e+001
 2.271154071594951e+000	 3.323023349765487e+000	 1.007009575251175e+001
 2.236936998681402e+000	 3.346152695849630e+000	 9.956589207764450e+000
 2.202519257384963e+000	 3.368906932650309e+000	 9.840735316295840e+000
 2.552707411902518e+000	 3.144230409667660e+000	 1.064355351041383e+001
 2.520108377990668e+000	 3.170418546986411e+000	 1.055193155304971e+001
 2.487260093404263e+000	 3.196253623804405e+000	 1.048286886568548e+001
 2.454168276922788e+000	 3.221732153438071e+000	 1.044284462752117e+001
 2.420838710619349e+000	 3.246850772231634e+000	 1.038911941364122e+001
 2.387277236568283e+000	 3.271606240939970e+000	 1.032334378317964e+001
 2.353489753518525e+000	 3.295995446006352e+000	 1.024717041792735e+001
 2.319482213536602e+000	 3.320015400734183e+000	 1.016225104669804e+001
 2.285260618623185e+000	 3.343663246351960e+000	 1.007023339786067e+001
 2.250831017307107e+000	 3.366936252970930e+000	 9.972758187065406e+000
 2.216199501220790e+000	 3.389831820434993e+000	 9.871456147023949e+000
 2.568464865061795e+000	 3.163639239355744e+000	 1.052310193099708e+001
 2.535664602545119e+000	 3.189989031844004e+000	 1.045329010870611e+001
 2.502613550769600e+000	 3.215983584445602e+000	 1.037921859806055e+001
 2.469317463815832e+000	 3.241619388954234e+000	 1.035869562525637e+001
 2.435782159448731e+000	 3.266893060950813e+000	 1.032829462925215e+001
 2.402013515804821e+000	 3.291801341194877e+000	 1.028425849341494e+001
 2.368017468045067e+000	 3.316341096910215e+000	 1.022826085604107e+001
 2.333800004977147e+000	 3.340509322963826e+000	 1.016197559432924e+001
 2.299367165651117e+000	 3.364303142937474e+000	 1.008707372123473e+001
 2.264725035932409e+000	 3.387719810091239e+000	 1.000522031660549e+001
 2.229879745056114e+000	 3.410756708218677e+000	 9.918071499600758e+000
 2.584222318221571e+000	 3.183048069043826e+000	 1.042452586502346e+001
 2.551220827099967e+000	 3.209559516701404e+000	 1.037633494166563e+001
 2.517967008135234e+000	 3.235713545086438e+000	 1.032257167143498e+001
 2.484466650709074e+000	 3.261506624469885e+000	 1.029341812941122e+001
 2.450725608278212e+000	 3.286935349669351e+000	 1.028588785886319e+001
 2.416749795041357e+000	 3.311996441449034e+000	 1.026314541777505e+001
 2.382545182571506e+000	 3.336686747813235e+000	 1.022688601286680e+001
 2.348117796417489e+000	 3.361003245192557e+000	 1.017880627322547e+001
 2.313473712678746e+000	 3.384943039522027e+000	 1.012060109061490e+001
 2.278619054557308e+000	 3.408503367210559e+000	 1.005396049317429e+001
 2.243559988890935e+000	 3.431681596001361e+000	 9.980566559649017e+000
 2.599979771381846e+000	 3.202456898731905e+000	 1.034740547946422e+001
 2.566777051655214e+000	 3.229130001558612e+000	 1.032065513316144e+001
 2.533320465501168e+000	 3.255443505726912e+000	 1.028703683868337e+001
 2.499615837602515e+000	 3.281393859985023e+000	 1.024699275505487e+001
 2.465669057107791e+000	 3.306977638387247e+000	 1.026188137213817e+001
 2.431486074277891e+000	 3.332191541702438e+000	 1.025998823293107e+001
 2.397072897097844e+000	 3.357032398715414e+000	 1.024303072695461e+001
 2.362435587857628e+000	 3.381497167420379e+000	 1.021272884128898e+001
 2.327580259706072e+000	 3.405582936105621e+000	 1.017080194346668e+001
 2.292513073181805e+000	 3.429286924328888e+000	 1.011896559688103e+001
 2.257240232725254e+000	 3.452606483783046e+000	 1.005892841599719e+001
 2.615737224542619e+000	 3.221865728419981e+000	 1.029132382477755e+001
 2.582333276210860e+000	 3.248700486415626e+000	 1.028584251852287e+001
 2.548673922867399e+000	 3.275173466367023e+000	 1.027221462881384e+001
 2.514765024496154e+000	 3.301281095499650e+000	 1.025006621424427e+001
 2.480612505937467e+000	 3.327019927104500e+000	 1.025625983835160e+001
 2.446222353514423e+000	 3.352386641955090e+000	 1.027477290838278e+001
 2.411600611624079e+000	 3.377378049616752e+000	 1.027668202865744e+001
 2.376753379297564e+000	 3.401991089647289e+000	 1.026373115298885e+001
 2.341686806733097e+000	 3.426222832688254e+000	 1.023766472440644e+001
 2.306407091805899e+000	 3.450070481446227e+000	 1.020022443141605e+001
 2.270920476559069e+000	 3.473531371563730e+000	 1.015314600335393e+001
 2.631494677703891e+000	 3.241274558108055e+000	 1.025586674857641e+001
 2.597889500766904e+000	 3.268270971272449e+000	 1.027149160471740e+001
 2.564027380233929e+000	 3.294903427006771e+000	 1.027770812237124e+001
 2.529914211389991e+000	 3.321168331013764e+000	 1.027410325434191e+001
 2.495555954767242e+000	 3.347062215821112e+000	 1.026901025454400e+001
 2.460958632750953e+000	 3.372581742206992e+000	 1.030748763781108e+001
 2.426128326150212e+000	 3.397723700517249e+000	 1.032782907450807e+001
 2.391071170737299e+000	 3.422485011873289e+000	 1.033180309658938e+001
 2.355793353759818e+000	 3.446862729269924e+000	 1.032117982510694e+001
 2.320301110429590e+000	 3.470854038562576e+000	 1.029772766645854e+001
 2.284600720392382e+000	 3.494456259343415e+000	 1.026321004704222e+001
 2.647252130865662e+000	 3.260683387796125e+000	 1.024062281238013e+001
 2.613445725323347e+000	 3.287841456129079e+000	 1.027719949083761e+001
 2.579380837600759e+000	 3.314633387646157e+000	 1.030312287549841e+001
 2.545063398284027e+000	 3.341055566527366e+000	 1.031794041737353e+001
 2.510499403597115e+000	 3.367104504537082e+000	 1.032119975054677e+001
 2.475694911987481e+000	 3.392776842458142e+000	 1.035812277288217e+001
 2.440656040676242e+000	 3.418069351416904e+000	 1.039646308394011e+001
 2.405388962176831e+000	 3.442978934098378e+000	 1.041693653362061e+001
 2.369899900786238e+000	 3.467502625850638e+000	 1.042133952634927e+001
 2.334195129052880e+000	 3.491637595677935e+000	 1.041146778214118e+001
 2.298280964225193e+000	 3.515381147122099e+000	 1.038911300970727e+001
 2.663009584027932e+000	 3.280092217484194e+000	 1.024518321132114e+001
 2.629001949880189e+000	 3.307411940985516e+000	 1.030256579141114e+001
 2.594734294967886e+000	 3.334363348285180e+000	 1.034806684669371e+001
 2.560212585178261e+000	 3.360942802040456e+000	 1.038119392394333e+001
 2.525442852427085e+000	 3.387146793252410e+000	 1.040145545171512e+001
 2.490431191224007e+000	 3.412971942708540e+000	 1.042667075940182e+001
 2.455183755202171e+000	 3.438415002315720e+000	 1.048257727825532e+001
 2.419706753616161e+000	 3.463472856322557e+000	 1.051912524049758e+001
 2.384006447812355e+000	 3.488142522430389e+000	 1.053813794213213e+001
 2.348089147675766e+000	 3.512421152792304e+000	 1.054143901548643e+001
 2.311961208057501e+000	 3.536306034899784e+000	 1.053084903991643e+001
 2.678767037190700e+000	 3.299501047172260e+000	 1.026914169668580e+001
 2.644558174437429e+000	 3.326982425841761e+000	 1.034719256241725e+001
 2.610087752335312e+000	 3.354093308923843e+000	 1.041215032615354e+001
 2.575361772072694e+000	 3.380830037553033e+000	 1.046348222159203e+001
 2.540386301257157e+000	 3.407189081967098e+000	 1.050065704487008e+001
 2.505167470460533e+000	 3.433167042958189e+000	 1.052314740853380e+001
 2.469711469727998e+000	 3.458760653213694e+000	 1.058616682174523e+001
 2.434024545055289e+000	 3.483966778545826e+000	 1.063836485220022e+001
 2.398112994838169e+000	 3.508782419009181e+000	 1.067157096575356e+001
 2.361983166298250e+000	 3.533204709905684e+000	 1.068763730873324e+001
 2.325641451889307e+000	 3.557230922676468e+000	 1.068841392257332e+001
 2.188839013548634e+000	 3.347982044864625e+000	 9.825925784474398e+000
 2.154441680648210e+000	 3.370219732398643e+000	 9.894586212077497e+000
 2.119857072723086e+000	 3.392079891627955e+000	 9.958606501691509e+000
 2.085091313495474e+000	 3.413560342859974e+000	 1.001932014094261e+001
 2.050150555623710e+000	 3.434659036824271e+000	 1.007804298889559e+001
 2.015040977286106e+000	 3.455374054979496e+000	 1.013607088205412e+001
 1.979768778769484e+000	 3.475703609714792e+000	 1.019467731116786e+001
 1.944340179066090e+000	 3.495646044446416e+000	 1.025511117359570e+001
 1.908761412482587e+000	 3.515199833610370e+000	 1.031859460569529e+001
 1.873038725264741e+000	 3.534363582552064e+000	 1.038493949350268e+001
 1.837178372241353e+000	 3.553136027314097e+000	 1.043368302395210e+001
 2.202519257384963e+000	 3.368906932650309e+000	 9.840735316295840e+000
 2.167906941154782e+000	 3.391283605731326e+000	 9.916904179969395e+000
 2.133106179430840e+000	 3.413280390955621e+000	 9.983885997206150e+000
 2.098123134208612e+000	 3.434895095007524e+000	 1.004299224457416e+001
 2.062963996600547e+000	 3.456125655808669e+000	 1.009552092687514e+001
 2.027634983398576e+000	 3.476970142826822e+000	 1.014275414817508e+001
 1.992142333641311e+000	 3.497426757278562e+000	 1.018595574899434e+001
 1.956492305189702e+000	 3.517493832226492e+000	 1.022636901455059e+001
 1.920691171314830e+000	 3.537169832571846e+000	 1.026521445867433e+001
 1.884745217301497e+000	 3.556453354943440e+000	 1.030368768773353e+001
 1.848660737071182e+000	 3.575343127484140e+000	 1.032716838973469e+001
 2.216199501220790e+000	 3.389831820434993e+000	 9.871456147023949e+000
 2.181372201660762e+000	 3.412347479063020e+000	 9.953529876724918e+000
 2.146355286137931e+000	 3.434480890282324e+000	 1.002192143311459e+001
 2.111154954921036e+000	 3.456229847154164e+000	 1.007792123110020e+001
 2.075777437576643e+000	 3.477592274792229e+000	 1.012281032885220e+001
 2.040228989510295e+000	 3.498566230673402e+000	 1.015785796302438e+001
 2.004515888512400e+000	 3.519149904841695e+000	 1.018431914555094e+001
 1.968644431312608e+000	 3.539341620006065e+000	 1.020343232705777e+001
 1.932620930146416e+000	 3.559139831532969e+000	 1.021641713165901e+001
 1.896451709337664e+000	 3.578543127334634e+000	 1.022447216763193e+001
 1.860143101900514e+000	 3.597550227654190e+000	 1.022058404085440e+001
 2.229879745056114e+000	 3.410756708218677e+000	 9.918071499600758e+000
 2.194837462166150e+000	 3.433411352393724e+000	 1.000446903895366e+001
 2.159604392844361e+000	 3.455681389608071e+000	 1.007274009205459e+001
 2.124186775632751e+000	 3.477564599299897e+000	 1.012415495712451e+001
 2.088590878552000e+000	 3.499058893774952e+000	 1.015997864952867e+001
 2.052822995621267e+000	 3.520162318519236e+000	 1.018146840034368e+001
 2.016889443382751e+000	 3.540873052404194e+000	 1.018987121198119e+001
 1.980796557434805e+000	 3.561189407785133e+000	 1.018642147605223e+001
 1.944550688977346e+000	 3.581109830493739e+000	 1.017233865839445e+001
 1.908158201373246e+000	 3.600632899725644e+000	 1.014882505591321e+001
 1.871625466729350e+000	 3.619757327824249e+000	 1.011525300402835e+001
 2.243559988890935e+000	 3.431681596001361e+000	 9.980566559649017e+000
 2.208302722670944e+000	 3.454475225723438e+000	 1.006972874360410e+001
 2.172853499550128e+000	 3.476881888932858e+000	 1.013636999868555e+001
 2.137218596343753e+000	 3.498899351444720e+000	 1.018174144717962e+001
 2.101404319526616e+000	 3.520525512756837e+000	 1.020709296185134e+001
 2.065417001731487e+000	 3.541758406364323e+000	 1.021367062701206e+001
 2.029262998252363e+000	 3.562596199966057e+000	 1.020271425218625e+001
 1.992948683556296e+000	 3.583037195563699e+000	 1.017545494370885e+001
 1.956480447807618e+000	 3.603079829454155e+000	 1.013311273932844e+001
 1.919864693408242e+000	 3.622722672116473e+000	 1.007689431062440e+001
 1.883107831557690e+000	 3.641964427994314e+000	 1.000799073776676e+001
 2.257240232725254e+000	 3.452606483783046e+000	 1.005892841599719e+001
 2.221767983175147e+000	 3.475539099052162e+000	 1.014931736734734e+001
 2.186102606255234e+000	 3.498082388256686e+000	 1.021283989720264e+001
 2.150250417054045e+000	 3.520234103588635e+000	 1.025072888863792e+001
 2.114217760500491e+000	 3.541992131737884e+000	 1.026421996858012e+001
 2.078011007840959e+000	 3.563354494208663e+000	 1.025454893052672e+001
 2.041636553121236e+000	 3.584319347527285e+000	 1.022294920546846e+001
 2.005100809677078e+000	 3.604884983341758e+000	 1.017064938649579e+001
 1.968410206637234e+000	 3.625049828414220e+000	 1.009887081231732e+001
 1.931571185442651e+000	 3.644812444507119e+000	 1.000882521465864e+001
 1.894590196385535e+000	 3.664171528164389e+000	 9.901712434231733e+000
 2.270920476559069e+000	 3.473531371563730e+000	 1.015314600335393e+001
 2.235233243678757e+000	 3.496602972379897e+000	 1.024324454742877e+001
 2.199351712959677e+000	 3.519282887579554e+000	 1.030217922966423e+001
 2.163282237763625e+000	 3.541568855731642e+000	 1.033116562680699e+001
 2.127031201473626e+000	 3.563458750718094e+000	 1.033142601343823e+001
 2.090605013949681e+000	 3.584950582052259e+000	 1.030418674549018e+001
 2.054010107989371e+000	 3.606042495087878e+000	 1.025067568763382e+001
 2.017252935797153e+000	 3.626732771119316e+000	 1.017211969016548e+001
 1.980339965466192e+000	 3.647019827373930e+000	 1.006974212077647e+001
 1.943277677476475e+000	 3.666902216897582e+000	 9.944760456331983e+000
 1.906072561212882e+000	 3.686378628334472e+000	 9.798383939515116e+000
 2.284600720392382e+000	 3.494456259343415e+000	 1.026321004704222e+001
 2.248698504181774e+000	 3.517666845706641e+000	 1.035152114392643e+001
 2.212600819663458e+000	 3.540483386901463e+000	 1.040441811509763e+001
 2.176314058472493e+000	 3.562903607873740e+000	 1.042310016020087e+001
 2.139844642446020e+000	 3.584925369697467e+000	 1.040877709186191e+001
 2.103199020057654e+000	 3.606546669895108e+000	 1.036266667914640e+001
 2.066383662856767e+000	 3.627765642647836e+000	 1.028599203061754e+001
 2.029405061916520e+000	 3.648580558896368e+000	 1.017997902277029e+001
 1.992269724294494e+000	 3.668989826333287e+000	 1.004585377938195e+001
 1.954984169509711e+000	 3.688991989287863e+000	 9.884840207065400e+000
 1.917554926039734e+000	 3.708585728504561e+000	 9.698157592045856e+000
 2.298280964225193e+000	 3.515381147122099e+000	 1.038911300970727e+001
 2.262163764684199e+000	 3.538730719032396e+000	 1.047415920335701e+001
 2.225849926366577e+000	 3.561683886222412e+000	 1.051958732935132e+001
 2.189345879180651e+000	 3.584238360014931e+000	 1.052658113598037e+001
 2.152658083417674e+000	 3.606391988676003e+000	 1.049633886136599e+001
 2.115793026164877e+000	 3.628142757737210e+000	 1.043007053600428e+001
 2.078757217723425e+000	 3.649488790207160e+000	 1.032899532069456e+001
 2.041557188035180e+000	 3.670428346672918e+000	 1.019433888578442e+001
 2.004199483122139e+000	 3.690959825292292e+000	 1.002733083742598e+001
 1.966690661542362e+000	 3.711081761677962e+000	 9.829202196292430e+000
 1.929037290866090e+000	 3.730792828674659e+000	 9.601182933939558e+000
 2.311961208057501e+000	 3.536306034899784e+000	 1.053084903991643e+001
 2.275629025186031e+000	 3.559794592357162e+000	 1.061117192357427e+001
 2.239099033069035e+000	 3.582884385542403e+000	 1.064771828566237e+001
 2.202377699888097e+000	 3.605573112155213e+000	 1.064165734555534e+001
 2.165471524388587e+000	 3.627858607653701e+000	 1.059417665154166e+001
 2.128387032271351e+000	 3.649738845578567e+000	 1.050647934158722e+001
 2.091130772589344e+000	 3.671211937765847e+000	 1.037978143533345e+001
 2.053709314153131e+000	 3.692276134448962e+000	 1.021530916341096e+001
 2.016129241949128e+000	 3.712929824250944e+000	 1.001429633992290e+001
 1.978397153574426e+000	 3.733171534067878e+000	 9.777981783707206e+000
 1.940519655691950e+000	 3.752999928844765e+000	 9.595120048027692e+000
 2.325641451889307e+000	 3.557230922676468e+000	 1.068841392257332e+001
 2.289094285687273e+000	 3.580858465680938e+000	 1.076257361990617e+001
 2.252348139770831e+000	 3.604084884861436e+000	 1.078884301590960e+001
 2.215409520594833e+000	 3.626907864294587e+000	 1.076837772034192e+001
 2.178284965358760e+000	 3.649325226630563e+000	 1.070235547370119e+001
 2.140981038377075e+000	 3.671334933419178e+000	 1.059197336534463e+001
 2.103504327454525e+000	 3.692935085323902e+000	 1.043844507874921e+001
 2.065861440270377e+000	 3.714123922224504e+000	 1.024299817014867e+001
 2.028059000775460e+000	 3.734899823209243e+000	 1.000687138655863e+001
 1.990103645605905e+000	 3.755261306457614e+000	 9.878075000051114e+000
 1.952002020517314e+000	 3.775207029014879e+000	 1.014343823028897e+001
 1.837178372241353e+000	 3.553136027314097e+000	 1.043368302395210e+001
 1.801186613490626e+000	 3.571516034323234e+000	 1.046056437928796e+001
 1.765069711033149e+000	 3.589502599978649e+000	 1.045309085333233e+001
 1.728833925554609e+000	 3.607094850142331e+000	 1.041821981497182e+001
 1.692485513160644e+000	 3.624292039533032e+000	 1.036274062494229e+001
 1.656030722167824e+000	 3.641093551026176e+000	 1.029325927025038e+001
 1.619475789933607e+000	 3.657498894861323e+000	 1.021618363814386e+001
 1.582826939728251e+000	 3.673507707759193e+000	 1.013770945828383e+001
 1.546090377651534e+000	 3.689119751950341e+000	 1.006380693930459e+001
 1.509272289597059e+000	 3.704334914117636e+000	 1.000020812343826e+001
 1.472378838266780e+000	 3.719153204254850e+000	 9.952394980341129e+000
 1.848660737071182e+000	 3.575343127484140e+000	 1.032716838973469e+001
 1.812444029827717e+000	 3.593838009536003e+000	 1.030980542671184e+001
 1.776101396729454e+000	 3.611936991225818e+000	 1.025704096095910e+001
 1.739639137591368e+000	 3.629639192952213e+000	 1.017605904951707e+001
 1.703063547619757e+000	 3.646943864775932e+000	 1.007387326525829e+001
 1.666380914183164e+000	 3.663850385715369e+000	 9.957310929922150e+000
 1.629597513622535e+000	 3.680358262949078e+000	 9.832997999114578e+000
 1.592719608103564e+000	 3.696467130927287e+000	 9.707344628646759e+000
 1.555753442514154e+000	 3.712176750394490e+000	 9.586531449070998e+000
 1.518705241409741e+000	 3.727487007325320e+000	 9.476496572710008e+000
 1.481581206009164e+000	 3.742397911776015e+000	 9.382923354884516e+000
 1.860143101900514e+000	 3.597550227654190e+000	 1.022058404085440e+001
 1.823701446164401e+000	 3.616159984748968e+000	 1.015679657075938e+001
 1.787133082425423e+000	 3.634371382473355e+000	 1.005660224695015e+001
 1.750444349627840e+000	 3.652183535762612e+000	 9.927416030432482e+000
 1.713641582078610e+000	 3.669595690019477e+000	 9.776479839471595e+000
 1.676731106198254e+000	 3.686607220405314e+000	 9.610846375465304e+000
 1.639719237311201e+000	 3.703217631037676e+000	 9.437363613425971e+000
 1.602612276478584e+000	 3.719426554096293e+000	 9.262659987177067e+000
 1.565416507376429e+000	 3.735233748839598e+000	 9.093130296801352e+000
 1.528138193222007e+000	 3.750639100533996e+000	 8.955041568343466e+000
 1.490783573751044e+000	 3.765642619298180e+000	 9.271383542136478e+000
 1.871625466729350e+000	 3.619757327824249e+000	 1.011525300402835e+001
 1.834958862500679e+000	 3.638481959962132e+000	 1.000283084662494e+001
 1.798164768121055e+000	 3.656805773721259e+000	 9.853037247735848e+000
 1.761249561664024e+000	 3.674727878573526e+000	 9.673522326018448e+000
 1.724219616537203e+000	 3.692247515263667e+000	 9.471760516125334e+000
 1.687081298213093e+000	 3.709364055096013e+000	 9.255033981590541e+000
 1.649840960999605e+000	 3.726076999127117e+000	 9.030416705198132e+000
 1.612504944853311e+000	 3.742385977266211e+000	 8.804759287679648e+000
 1.575079572238360e+000	 3.758290747285667e+000	 8.853085463694130e+000
 1.537571145033858e+000	 3.773791193743661e+000	 9.129665607688919e+000
 1.499985941492418e+000	 3.788887326821345e+000	 9.382093698840265e+000
 1.883107831557690e+000	 3.641964427994314e+000	 1.000799073776676e+001
 1.846216278836551e+000	 3.660803935175493e+000	 9.849198010035885e+000
 1.809196453816351e+000	 3.679240164969528e+000	 9.647605112053222e+000
 1.772054773699920e+000	 3.697272221384957e+000	 9.415606020845653e+000
 1.734797650995538e+000	 3.714899340508502e+000	 9.160911896168953e+000
 1.697431490227682e+000	 3.732120889787467e+000	 8.891038483698255e+000
 1.659962684687746e+000	 3.748936367217401e+000	 8.613289799638846e+000
 1.622397613227745e+000	 3.765345400437040e+000	 8.840510633437489e+000
 1.584742637099947e+000	 3.781347745732699e+000	 9.080506116733142e+000
 1.547004096845295e+000	 3.796943286954317e+000	 9.295900389407898e+000
 1.509188309233287e+000	 3.812132034345510e+000	 9.484785103998036e+000
 1.894590196385535e+000	 3.664171528164389e+000	 9.901712434231733e+000
 1.857473695172016e+000	 3.683125910389052e+000	 9.697184636630391e+000
 1.820228139511309e+000	 3.701674556218166e+000	 9.441561703603259e+000
 1.782859985735529e+000	 3.719816564196905e+000	 9.154891821322634e+000
 1.745375685453613e+000	 3.737551165753983e+000	 8.845127121067129e+000
 1.707781682242020e+000	 3.754877724479676e+000	 8.682283258305915e+000
 1.670084408375627e+000	 3.771795735308528e+000	 8.911298958925197e+000
 1.632290281601885e+000	 3.788304823608780e+000	 9.117628058105950e+000
 1.594405701961191e+000	 3.804404744180690e+000	 9.299107236984945e+000
 1.556437048656317e+000	 3.820095380165963e+000	 9.453680259552767e+000
 1.518390676973651e+000	 3.835376741870674e+000	 9.579401266685983e+000
 1.906072561212882e+000	 3.686378628334472e+000	 9.798383939515116e+000
 1.868731111507075e+000	 3.705447885602808e+000	 9.548074217743279e+000
 1.831259825205930e+000	 3.724108947467171e+000	 9.236159699997838e+000
 1.793665197770849e+000	 3.742360907009368e+000	 8.892601157447711e+000
 1.755953719911430e+000	 3.760202991000109e+000	 8.861885211638787e+000
 1.718131874256107e+000	 3.777634559172637e+000	 9.059763358724768e+000
 1.680206132063246e+000	 3.794655103400498e+000	 9.235069779813541e+000
 1.642182949975733e+000	 3.811264246781434e+000	 9.385488332645302e+000
 1.604068766822089e+000	 3.827461742629643e+000	 9.508809895019656e+000
 1.565870000466923e+000	 3.843247473378598e+000	 9.602935985182022e+000
 1.527593044713509e+000	 3.858621449396840e+000	 9.665882106068819e+000
 1.917554926039734e+000	 3.708585728504561e+000	 9.698157592045856e+000
 1.879988527841727e+000	 3.727769860816763e+000	 9.400337419369640e+000
 1.842291510900214e+000	 3.746543338716541e+000	 9.032648688151671e+000
 1.804470409805881e+000	 3.764905249822348e+000	 9.111698936198275e+000
 1.766531754368986e+000	 3.782854816246879e+000	 9.280568357787022e+000
 1.728482066269945e+000	 3.800391393866355e+000	 9.427205850396716e+000
 1.690327855750602e+000	 3.817514471493310e+000	 9.549138227328008e+000
 1.652075618349288e+000	 3.834223669954998e+000	 9.643998875181719e+000
 1.613731831682643e+000	 3.850518741079555e+000	 9.709531711029747e+000
 1.575302952277115e+000	 3.866399566592225e+000	 9.743594861515760e+000
 1.536795412452863e+000	 3.881866156924004e+000	 9.744164058881964e+000
 1.929037290866090e+000	 3.730792828674659e+000	 9.601182933939558e+000
 1.891245944175973e+000	 3.750091836030914e+000	 9.255244166412771e+000
 1.853323196594162e+000	 3.768977729966281e+000	 9.427075033932239e+000
 1.815275621840626e+000	 3.787449592635845e+000	 9.568750480166720e+000
 1.777109788826284e+000	 3.805506641494296e+000	 9.688767796424811e+000
 1.738832258283531e+000	 3.823148228560824e+000	 9.784492972939800e+000
 1.700449579437697e+000	 3.840373839586965e+000	 9.853397723225008e+000
 1.661968286722549e+000	 3.857183093129475e+000	 9.893063787575583e+000
 1.623394896542854e+000	 3.873575739530430e+000	 9.901186957519808e+000
 1.584735904086892e+000	 3.889551659806843e+000	 9.875580815264192e+000
 1.545997780191711e+000	 3.905110864452169e+000	 9.814180183075500e+000
 1.940519655691950e+000	 3.752999928844765e+000	 9.595120048027692e+000
 1.902503360509814e+000	 3.772413811245263e+000	 9.781692597925995e+000
 1.864354882287772e+000	 3.791412121216387e+000	 9.919738398791681e+000
 1.826080833875083e+000	 3.809993935449858e+000	 1.001486464985344e+001
 1.787687823283323e+000	 3.828158466742356e+000	 1.008635102633796e+001
 1.749182450296868e+000	 3.845905063256049e+000	 1.013150383984283e+001
 1.710571303124530e+000	 3.863233207681463e+000	 1.014773851193424e+001
 1.671860955095518e+000	 3.880142516304862e+000	 1.013258395353571e+001
 1.633057961402721e+000	 3.896632737982265e+000	 1.008368665835059e+001
 1.594168855896254e+000	 3.912703753022449e+000	 9.998814504287720e+000
 1.555200147930054e+000	 3.928355571981333e+000	 9.875860257778081e+000
 1.952002020517314e+000	 3.775207029014879e+000	 1.014343823028897e+001
 1.913760776843248e+000	 3.794735786459811e+000	 1.029449025051851e+001
 1.875386567981046e+000	 3.813846512466861e+000	 1.040076997592680e+001
 1.836886045909252e+000	 3.832538278264387e+000	 1.044989394943393e+001
 1.798265857740103e+000	 3.850810291991064e+000	 1.047318257192011e+001
 1.759532642309953e+000	 3.868661897952027e+000	 1.046811453041027e+001
 1.720693026811101e+000	 3.886092575776806e+000	 1.043204775400957e+001
 1.681753623468193e+000	 3.903101939481164e+000	 1.036245713327108e+001
 1.642721026262243e+000	 3.919689736435062e+000	 1.025693868428739e+001
 1.603601807705202e+000	 3.935855846239047e+000	 1.011321341373964e+001
 1.564402515667893e+000	 3.951600279511499e+000	 9.929130879732933e+000
 1.472378838266780e+000	 3.719153204254850e+000	 9.952394980341129e+000
 1.435416160238980e+000	 3.733574754443465e+000	 9.692428206212291e+000
 1.398390363090334e+000	 3.747599817550745e+000	 9.463071369366091e+000
 1.361307522575099e+000	 3.761228765851378e+000	 9.558212558372830e+000
 1.324173679865361e+000	 3.774462089574614e+000	 9.700672267785738e+000
 1.286994838852475e+000	 3.787300395380251e+000	 9.823529714271173e+000
 1.249776963512203e+000	 3.799744404765943e+000	 9.925581732193257e+000
 1.212525975335377e+000	 3.811794952408592e+000	 9.979810476568805e+000
 1.175247750825765e+000	 3.823452984442649e+000	 9.982587576925493e+000
 1.137948119066728e+000	 3.834719556678107e+000	 9.932685094327503e+000
 1.100632859358089e+000	 3.845595832761096e+000	 9.829026785981313e+000
 1.481581206009164e+000	 3.742397911776015e+000	 9.382923354884516e+000
 1.444387511244183e+000	 3.756909596653516e+000	 9.285922033344063e+000
 1.407130302863686e+000	 3.771022316405464e+000	 9.411541828879710e+000
 1.369815694595395e+000	 3.784736445633263e+000	 9.528126869902646e+000
 1.332449765368725e+000	 3.798052477630096e+000	 9.634332905956196e+000
 1.295038556599349e+000	 3.810971022847385e+000	 9.728913313324718e+000
 1.257588069537881e+000	 3.823492807292140e+000	 9.810720788043653e+000
 1.220104262684472e+000	 3.835618670858000e+000	 9.856406151316408e+000
 1.182593049271040e+000	 3.847349565592752e+000	 9.855275114573072e+000
 1.145060294812716e+000	 3.858686553905200e+000	 9.808762191924808e+000
 1.107511814729950e+000	 3.869630806714263e+000	 9.715726804713396e+000
 1.490783573751044e+000	 3.765642619298180e+000	 9.271383542136478e+000
 1.453358862248797e+000	 3.780244438864562e+000	 9.346875885416514e+000
 1.415870242636395e+000	 3.794444815261164e+000	 9.422639522321852e+000
 1.378323866615026e+000	 3.808244125416103e+000	 9.497236955042450e+000
 1.340725850871429e+000	 3.821642865686497e+000	 9.569320192723946e+000
 1.303082274345601e+000	 3.834641650315390e+000	 9.637632822975041e+000
 1.265399175563005e+000	 3.847241209819155e+000	 9.701011843113058e+000
 1.227682550033110e+000	 3.859442389308159e+000	 9.740929318692700e+000
 1.189938347715984e+000	 3.871246146743527e+000	 9.737978973212623e+000
 1.152172470558531e+000	 3.882653551132882e+000	 9.696815231898524e+000
 1.114390770101823e+000	 3.893665780667925e+000	 9.616232096299948e+000
 1.499985941492418e+000	 3.788887326821345e+000	 9.382093698840265e+000
 1.462330213252820e+000	 3.803579281076603e+000	 9.402323212198180e+000
 1.424610182408461e+000	 3.817867314117842e+000	 9.430573383916254e+000
 1.386832038633989e+000	 3.831751805199896e+000	 9.465408054031204e+000
 1.349001936373474e+000	 3.845233253743816e+000	 9.505474483395483e+000
 1.311125992091232e+000	 3.858312277784268e+000	 9.549505559827018e+000
 1.273210281587576e+000	 3.870989612346985e+000	 9.596321767670139e+000
 1.235260837381292e+000	 3.883266107759067e+000	 9.632919886932289e+000
 1.197283646160599e+000	 3.895142727894979e+000	 9.630229621919083e+000
 1.159284646304173e+000	 3.906620548361152e+000	 9.596367057898830e+000
 1.121269725473710e+000	 3.917700754622081e+000	 9.530059675440734e+000
 1.509188309233287e+000	 3.812132034345510e+000	 9.484785103998036e+000
 1.471301564256254e+000	 3.826914123289639e+000	 9.452181721296620e+000
 1.433350122179882e+000	 3.841289812975499e+000	 9.435233431671637e+000
 1.395340210652287e+000	 3.855259484984642e+000	 9.432504304424029e+000
 1.357278021874860e+000	 3.868823641802051e+000	 9.442635839124526e+000
 1.319169709836242e+000	 3.881982905254017e+000	 9.464349306643159e+000
 1.281021387611593e+000	 3.894738014875633e+000	 9.496447857125858e+000
 1.242839124729018e+000	 3.907089826210725e+000	 9.531919606379216e+000
 1.204628944604885e+000	 3.919039309047104e+000	 9.531559987587388e+000
 1.166396822049642e+000	 3.930587545590012e+000	 9.506943539023268e+000
 1.128148680845609e+000	 3.941735728576730e+000	 9.456730101931571e+000
 1.518390676973651e+000	 3.835376741870674e+000	 9.579401266685983e+000
 1.480272915259099e+000	 3.850248965503670e+000	 9.496366342889216e+000
 1.442090061950661e+000	 3.864712311834137e+000	 9.436507783575106e+000
 1.403848382669918e+000	 3.878767164770343e+000	 9.398388774506936e+000
 1.365554107375587e+000	 3.892414029861205e+000	 9.380644035825863e+000
 1.327213427580630e+000	 3.905653532724638e+000	 9.381982298217544e+000
 1.288832493635056e+000	 3.918486417405096e+000	 9.401188549425102e+000
 1.250417412076288e+000	 3.930913544663135e+000	 9.437126050005306e+000
 1.211974243048843e+000	 3.942935890199906e+000	 9.441505380453188e+000
 1.173508997794938e+000	 3.954554542819460e+000	 9.428073478136335e+000
 1.135027636217520e+000	 3.965770702531872e+000	 9.395767373237232e+000
 1.527593044713509e+000	 3.858621449396840e+000	 9.665882106068819e+000
 1.489244266261353e+000	 3.873583807718694e+000	 9.534789313380687e+000
 1.450830001720796e+000	 3.888134810693752e+000	 9.434282714821716e+000
 1.412356554686882e+000	 3.902274844556997e+000	 9.362923495503612e+000
 1.373830192875655e+000	 3.916004417921276e+000	 9.319338572766778e+000
 1.335257145324396e+000	 3.929324160196132e+000	 9.302223207760479e+000
 1.296643599657965e+000	 3.942234819935373e+000	 9.310343390633237e+000
 1.257995699423101e+000	 3.954737263116293e+000	 9.342537997913677e+000
 1.219319541492470e+000	 3.966832471353379e+000	 9.359603422305330e+000
 1.180621173540061e+000	 3.978521540049497e+000	 9.359288523503198e+000
 1.141906591589444e+000	 3.989805676487508e+000	 9.346698820947180e+000
 1.536795412452863e+000	 3.881866156924004e+000	 9.744164058881964e+000
 1.498215617263019e+000	 3.896918649934715e+000	 9.567360256055062e+000
 1.459569941490289e+000	 3.911557309554347e+000	 9.428442712987936e+000
 1.420864726703181e+000	 3.925782524344604e+000	 9.325969492625315e+000
 1.382106278375064e+000	 3.939594805982265e+000	 9.258558680849923e+000
 1.343300863067541e+000	 3.952994787668497e+000	 9.224891133772196e+000
 1.304454705680320e+000	 3.965983222466468e+000	 9.223713001758721e+000
 1.265573986769458e+000	 3.978560981570202e+000	 9.253838028464697e+000
 1.226664839935768e+000	 3.990729052507527e+000	 9.285393977277892e+000
 1.187733349285011e+000	 4.002488537280124e+000	 9.300123083597907e+000
 1.148785546961380e+000	 4.013840650443639e+000	 9.309055010951406e+000
 1.545997780191711e+000	 3.905110864452169e+000	 9.814180183075500e+000
 1.507186968264094e+000	 3.920253492151730e+000	 9.593986258846956e+000
 1.468309881259137e+000	 3.934979808415923e+000	 9.418870531234546e+000
 1.429372898718812e+000	 3.949290204133165e+000	 9.287386815011654e+000
 1.390382363873814e+000	 3.963185194044173e+000	 9.198143330600402e+000
 1.351344580810065e+000	 3.976665415141734e+000	 9.149805587385506e+000
 1.312265811702122e+000	 3.989731624998379e+000	 9.141099046760775e+000
 1.273152274115359e+000	 4.002384700024861e+000	 9.170811562860246e+000
 1.234010138378737e+000	 4.014625633662349e+000	 9.218419085113515e+000
 1.194845525029788e+000	 4.026455534511339e+000	 9.250114244954357e+000
 1.155664502333329e+000	 4.037875624400262e+000	 9.282369647181522e+000
 1.555200147930054e+000	 3.928355571981333e+000	 9.875860257778081e+000
 1.516158319264580e+000	 3.943588334369741e+000	 9.614571949352065e+000
 1.477049821027342e+000	 3.958402307278478e+000	 9.405447239620719e+000
 1.437881070733778e+000	 3.972797883922680e+000	 9.247034564608466e+000
 1.398658449371905e+000	 3.986775582106998e+000	 9.137931239869207e+000
 1.359388298551968e+000	 4.000336042615841e+000	 9.076786480157622e+000
 1.320076917723369e+000	 4.013480027531105e+000	 9.062304201692877e+000
 1.280730561460803e+000	 4.026208418480270e+000	 9.093245604654793e+000
 1.241355436821376e+000	 4.038522214817848e+000	 9.158222896796449e+000
 1.201957700774393e+000	 4.050422531743143e+000	 9.208801692933816e+000
 1.162543457705291e+000	 4.061910598357380e+000	 9.266179478769342e+000
 1.564402515667893e+000	 3.951600279511499e+000	 9.929130879732933e+000
 1.525129670264477e+000	 3.966923176588746e+000	 9.629019567189971e+000
 1.485789760794904e+000	 3.981824806142011e+000	 9.388052274606958e+000
 1.446389242748077e+000	 3.996305563713150e+000	 9.204770924026464e+000
 1.406934534869337e+000	 4.010365970170742e+000	 9.077760881264862e+000
 1.367432016293249e+000	 4.024006670090824e+000	 9.005654112293096e+000
 1.327888023744064e+000	 4.037228430064649e+000	 8.987132124935249e+000
 1.288308848805791e+000	 4.050032136936430e+000	 9.020928693215705e+000
 1.248700735263687e+000	 4.062418795974020e+000	 9.104351612456950e+000
 1.209069876518824e+000	 4.074389528975535e+000	 9.175727635288649e+000
 1.169422413077266e+000	 4.085945572314992e+000	 9.260024210482030e+000
 1.100632859358089e+000	 3.845595832761096e+000	 9.829026785981313e+000
 1.063307698924287e+000	 3.856083082280073e+000	 9.637494756781075e+000
 1.025978310695547e+000	 3.866182678820226e+000	 9.461997391746600e+000
 9.886503111632020e-001	 3.875896097969085e+000	 9.301992724858994e+000
 9.513292583092478e-001	 3.885224915276651e+000	 9.157032771901593e+000
 9.140206496115850e-001	 3.894170804172645e+000	 9.026764888702610e+000
 8.767299201255315e-001	 3.902735533843882e+000	 8.910932849776739e+000
 8.394624406421656e-001	 3.910920967074734e+000	 8.809377650708180e+000
 8.022235159239715e-001	 3.918729058053593e+000	 8.722038038351951e+000
 7.650183830181282e-001	 3.926161850148238e+000	 8.648950773629542e+000
 7.278522096476668e-001	 3.933221473652993e+000	 8.590250632358012e+000
 1.107511814729950e+000	 3.869630806714263e+000	 9.715726804713396e+000
 1.069953372042454e+000	 3.880183601543291e+000	 9.551144276795604e+000
 1.032390675136383e+000	 3.890346320562340e+000	 9.399993574807219e+000
 9.948293756061433e-001	 3.900120448581363e+000	 9.261623545713240e+000
 9.572750661711154e-001	 3.909507570997550e+000	 9.135482266412254e+000
 9.197332786684372e-001	 3.918509371699555e+000	 9.021118466582836e+000
 8.822094821225213e-001	 3.927127630931612e+000	 8.918182661681005e+000
 8.447090808918900e-001	 3.935364223120498e+000	 8.826427999546851e+000
 8.072374128937925e-001	 3.943221114668281e+000	 8.745710824835090e+000
 7.697997479069518e-001	 3.950700361713788e+000	 8.675990966204678e+000
 7.324012859526674e-001	 3.957804107865683e+000	 8.617331751884837e+000
 1.114390770101823e+000	 3.893665780667925e+000	 9.616232096299948e+000
 1.076599045160822e+000	 3.904284120806908e+000	 9.477720382575665e+000
 1.038803039577591e+000	 3.914509962304769e+000	 9.350031064998207e+000
 1.001008440049604e+000	 3.924344799193880e+000	 9.232403134780052e+000
 9.632208740336311e-001	 3.933790226718624e+000	 9.124180096210472e+000
 9.254459077260457e-001	 3.942847939226587e+000	 9.024811454835408e+000
 8.876890441203557e-001	 3.951519728019421e+000	 8.933853905450000e+000
 8.499557211425274e-001	 3.959807479166306e+000	 8.850972223478397e+000
 8.122513098645748e-001	 3.967713171282988e+000	 8.775939864094612e+000
 7.745811127967657e-001	 3.975238873279342e+000	 8.708639274179275e+000
 7.369503622586678e-001	 3.982386742078373e+000	 8.649061922909548e+000
 1.121269725473710e+000	 3.917700754622081e+000	 9.530059675440734e+000
 1.083244718279394e+000	 3.928384640070924e+000	 9.416783463242558e+000
 1.045215404019170e+000	 3.938673604047511e+000	 9.311713075129283e+000
 1.007187504493585e+000	 3.948569149806639e+000	 9.213976956873152e+000
 9.691666818967955e-001	 3.958072882439874e+000	 9.122813386207929e+000
 9.311585367844106e-001	 3.967186506753740e+000	 9.037572027081954e+000
 8.931686061190346e-001	 3.975911825107308e+000	 8.957715173293888e+000
 8.552023613940775e-001	 3.984250735212159e+000	 8.882818685203160e+000
 8.172652068363187e-001	 3.992205227897716e+000	 8.812572624008695e+000
 7.793624776875701e-001	 3.999777384844903e+000	 8.746781588850825e+000
 7.414994385656684e-001	 4.006969376291065e+000	 8.685364762716473e+000
 1.128148680845609e+000	 3.941735728576730e+000	 9.456730101931571e+000
 1.089890391398167e+000	 3.952485159335339e+000	 9.367896768111299e+000
 1.051627768461121e+000	 3.962837245790567e+000	 9.284645001967812e+000
 1.013366568938086e+000	 3.972793500419637e+000	 9.205991993417458e+000
 9.751124897606076e-001	 3.982355538161299e+000	 9.131070119685957e+000
 9.368711658435319e-001	 3.991525074281015e+000	 9.059128566384407e+000
 8.986481681185581e-001	 4.000303922195272e+000	 8.989534627445488e+000
 8.604490016465405e-001	 4.008693991258054e+000	 8.921774687729650e+000
 8.222791038090236e-001	 4.016697284512461e+000	 8.855454892934949e+000
 7.841438425793649e-001	 4.024315896410467e+000	 8.790301512228878e+000
 7.460485148736690e-001	 4.031552010503755e+000	 8.726160999763090e+000
 1.135027636217520e+000	 3.965770702531872e+000	 9.395767373237232e+000
 1.096536064517142e+000	 3.976585678600152e+000	 9.330626320018038e+000
 1.058040132903442e+000	 3.987000887533941e+000	 9.268434360058222e+000
 1.019545633383107e+000	 3.997017851032875e+000	 9.208096696491067e+000
 9.810582976250684e-001	 4.006638193882902e+000	 9.148639112284181e+000
 9.425837949034094e-001	 4.015863641808413e+000	 9.089209658898351e+000
 9.041277301189261e-001	 4.024696019283316e+000	 9.029080013190068e+000
 8.656956418999160e-001	 4.033137247303993e+000	 8.967646506486133e+000
 8.272930007826900e-001	 4.041189341127226e+000	 8.904430830605117e+000
 7.889252074721500e-001	 4.048854407976037e+000	 8.839080426407497e+000
 7.505975911826697e-001	 4.056134644716447e+000	 8.771368561220040e+000
 1.141906591589444e+000	 3.989805676487508e+000	 9.346698820947180e+000
 1.103181737636320e+000	 4.000686197865364e+000	 9.304540831780273e+000
 1.064452497346135e+000	 4.011164529277626e+000	 9.262690717933516e+000
 1.025724697828648e+000	 4.021242201646355e+000	 9.219940944528522e+000
 9.870041054901767e-001	 4.030920849604678e+000	 9.175209986929602e+000
 9.482964239640432e-001	 4.040202209335932e+000	 9.127544087755688e+000
 9.096072921201384e-001	 4.049088116371435e+000	 9.076118671423808e+000
 8.709422821542044e-001	 4.057580503349976e+000	 9.020239420272153e+000
 8.323068977573177e-001	 4.065681397742011e+000	 8.959343017179934e+000
 7.937065723659252e-001	 4.073392919541612e+000	 8.892997560430292e+000
 7.551466674926702e-001	 4.080717278929137e+000	 8.820902657347288e+000
 1.148785546961380e+000	 4.013840650443639e+000	 9.309055010951406e+000
 1.109827410755699e+000	 4.024786717130976e+000	 9.289211625658471e+000
 1.070864861789199e+000	 4.035328171021625e+000	 9.267025636618669e+000
 1.031903762274708e+000	 4.045466552260072e+000	 9.241175999615432e+000
 9.929499133559335e-001	 4.055203505326632e+000	 9.210473149666244e+000
 9.540090530254335e-001	 4.064540776863572e+000	 9.173860827167253e+000
 9.150868541221949e-001	 4.073480213459632e+000	 9.130417550761361e+000
 8.761889224094058e-001	 4.082023759396003e+000	 9.079357741097477e+000
 8.373207947329068e-001	 4.090173454356815e+000	 9.020032500541765e+000
 7.984879372606911e-001	 4.097931431107191e+000	 8.951930054752872e+000
 7.596957438036709e-001	 4.105299913141828e+000	 8.874675862838753e+000
 1.155664502333329e+000	 4.037875624400262e+000	 9.282369647181522e+000
 1.116473083875282e+000	 4.048887236396987e+000	 9.284212555694113e+000
 1.077277226232635e+000	 4.059491812765941e+000	 9.281052610330267e+000
 1.038082826721289e+000	 4.069690902874031e+000	 9.271454466308562e+000
 9.988957212223386e-001	 4.079486161048761e+000	 9.254119766348154e+000
 9.597216820875802e-001	 4.088879344391336e+000	 9.227889036735867e+000
 9.205664161250965e-001	 4.097872310547908e+000	 9.191743219210903e+000
 8.814355626655196e-001	 4.106467015442072e+000	 9.144804842955715e+000
 8.423346917094572e-001	 4.114665510971639e+000	 9.086338841898101e+000
 8.032693021564474e-001	 4.122469942672775e+000	 9.015753023403169e+000
 7.642448201156715e-001	 4.129882547354518e+000	 8.932598195261816e+000
 1.162543457705291e+000	 4.061910598357380e+000	 9.266179478769342e+000
 1.123118756995066e+000	 4.072987755663395e+000	 9.289119932804788e+000
 1.083689590676441e+000	 4.083655454510569e+000	 9.304387009281330e+000
 1.044261891168389e+000	 4.093915253488230e+000	 9.310430251917543e+000
 1.004841529089392e+000	 4.103768816771066e+000	 9.305841740159751e+000
 9.654343111504832e-001	 4.113217911919220e+000	 9.289358055971249e+000
 9.260459781288423e-001	 4.122264407636261e+000	 9.259861875434536e+000
 8.866822029225463e-001	 4.130910271488186e+000	 9.216383189576291e+000
 8.473485886869692e-001	 4.139157567586482e+000	 9.158100159766008e+000
 8.080506670531938e-001	 4.147008454238363e+000	 9.084339613935050e+000
 7.687938964286722e-001	 4.154465181567210e+000	 8.994577190711787e+000
 1.169422413077266e+000	 4.085945572314992e+000	 9.260024210482030e+000
 1.129764430115052e+000	 4.097088274930204e+000	 9.303512452523409e+000
 1.090101955120620e+000	 4.107819096255514e+000	 9.336646024505191e+000
 1.050440955616010e+000	 4.118139604102670e+000	 9.357758528188706e+000
 1.010787336957094e+000	 4.128051472493549e+000	 9.365331689929645e+000
 9.711469402141429e-001	 4.137556479447227e+000	 9.357997398998915e+000
 9.315255401334329e-001	 4.146656504724693e+000	 9.334539359611663e+000
 8.919288431804859e-001	 4.155353527534343e+000	 9.293894361196790e+000
 8.523624856654425e-001	 4.163649624201344e+000	 9.235153172404226e+000
 8.128320319509309e-001	 4.171546965803958e+000	 9.157561065265721e+000
 7.733429727426728e-001	 4.179047815779902e+000	 9.060517976796634e+000
 7.278522096476668e-001	 3.933221473652993e+000	 8.590250632358012e+000
 6.907300926805886e-001	 3.939910143510855e+000	 8.529645163883975e+000
 6.536570566772164e-001	 3.946230157012450e+000	 8.573689354801671e+000
 6.166380525152096e-001	 3.952183891475303e+000	 8.703421606838980e+000
 5.796779560922215e-001	 3.957773801906784e+000	 8.789745772903542e+000
 5.427815671060725e-001	 3.963002418652466e+000	 8.845399683476959e+000
 5.059536079119449e-001	 3.967872345032923e+000	 8.874416822236848e+000
 4.691987224560952e-001	 3.972386254971538e+000	 8.880263726246243e+000
 4.325214752855099e-001	 3.976546890615961e+000	 8.865847710092190e+000
 3.959263506328407e-001	 3.980357059955667e+000	 8.833525559431152e+000
 3.594177515758589e-001	 3.983819634438112e+000	 8.785113144821194e+000
 7.324012859526674e-001	 3.957804107865683e+000	 8.617331751884837e+000
 6.950471557543670e-001	 3.964534581910347e+000	 8.548063368159074e+000
 6.577424132758770e-001	 3.970894095496459e+000	 8.577780181997445e+000
 6.204920403378411e-001	 3.976885040799776e+000	 8.698394144164785e+000
 5.833009433122726e-001	 3.982509888171469e+000	 8.788934459630328e+000
 5.461739518951021e-001	 3.987771183771772e+000	 8.848869947423371e+000
 5.091158179562316e-001	 3.992671547192009e+000	 8.882397237995891e+000
 4.721312144665805e-001	 3.997213669067587e+000	 8.893134464671604e+000
 4.352247345015533e-001	 4.001400308684579e+000	 8.884129054374757e+000
 3.984008903202549e-001	 4.005234291582396e+000	 8.857866508900806e+000
 3.616641125196922e-001	 4.008718507155041e+000	 8.816280126729684e+000
 7.369503622586678e-001	 3.982386742078373e+000	 8.649061922909548e+000
 6.993642188291456e-001	 3.989159020309839e+000	 8.571788982674654e+000
 6.618277698755376e-001	 3.995558033980466e+000	 8.587848083791785e+000
 6.243460281614728e-001	 4.001586190124251e+000	 8.695880763913026e+000
 5.869239305333236e-001	 4.007245974436156e+000	 8.789272004752245e+000
 5.495663366851321e-001	 4.012539948891078e+000	 8.852303576368687e+000
 5.122780280015182e-001	 4.017470749351095e+000	 8.889336318066279e+000
 4.750637064780657e-001	 4.022041083163638e+000	 8.904140783843813e+000
 4.379279937185968e-001	 4.026253726753200e+000	 8.899905103146381e+000
 4.008754300086693e-001	 4.030111523209127e+000	 8.879243853599851e+000
 3.639104734645255e-001	 4.033617379871969e+000	 8.844207894834323e+000
 7.414994385656684e-001	 4.006969376291065e+000	 8.685364762716473e+000
 7.036812819049239e-001	 4.013783458709330e+000	 8.600752661885650e+000
 6.659131264761982e-001	 4.020221972464474e+000	 8.603829603145723e+000
 6.282000159861042e-001	 4.026287339448725e+000	 8.694032649263676e+000
 5.905469177553745e-001	 4.031982060700842e+000	 8.791185356658797e+000
 5.529587214761617e-001	 4.037308714010385e+000	 8.856086560724815e+000
 5.154402380478049e-001	 4.042269951510182e+000	 8.895579682631254e+000
 4.779961984905510e-001	 4.046868497259687e+000	 8.913588545308530e+000
 4.406312529366401e-001	 4.051107144821819e+000	 8.913442593310160e+000
 4.033499696980836e-001	 4.054988754835856e+000	 8.897885860757501e+000
 3.661568344103588e-001	 4.058516252588897e+000	 8.869086921213166e+000
 7.460485148736690e-001	 4.031552010503755e+000	 8.726160999763090e+000
 7.079983449817026e-001	 4.038407897108823e+000	 8.634882313401738e+000
 6.699984830778585e-001	 4.044885910948482e+000	 8.625658698992289e+000
 6.320540038117358e-001	 4.050988488773197e+000	 8.697958678676308e+000
 5.941699049784256e-001	 4.056718146965529e+000	 8.795099266833088e+000
 5.563511062681912e-001	 4.062077479129690e+000	 8.860602917771447e+000
 5.186024480950916e-001	 4.067069153669269e+000	 8.901471222291775e+000
 4.809286905040363e-001	 4.071695911355738e+000	 8.921782144071560e+000
 4.433345121556834e-001	 4.075960562890439e+000	 8.925007077473607e+000
 4.058245093884980e-001	 4.079865986462586e+000	 8.914019914456937e+000
 3.684031953571920e-001	 4.083415125305826e+000	 8.891107114549842e+000
 7.505975911826697e-001	 4.056134644716447e+000	 8.771368561220040e+000
 7.123154080594807e-001	 4.063032335508314e+000	 8.674103181224982e+000
 6.740838396805190e-001	 4.069549849432490e+000	 8.653266824540131e+000
 6.359079916383675e-001	 4.075689638097673e+000	 8.708358302898862e+000
 5.977928922024768e-001	 4.081454233230216e+000	 8.801436356424942e+000
 5.597434910612210e-001	 4.086846244248997e+000	 8.866234751447790e+000
 5.217646581433783e-001	 4.091868355828354e+000	 8.907353150478190e+000
 4.838611825185215e-001	 4.096523325451788e+000	 8.929024553039472e+000
 4.460377713757269e-001	 4.100813980959058e+000	 8.934862959836615e+000
 4.082990490799122e-001	 4.104743218089316e+000	 8.927872542397328e+000
 3.706495563050253e-001	 4.108313998022754e+000	 8.910457837206048e+000
 7.551466674926702e-001	 4.080717278929137e+000	 8.820902657347288e+000
 7.166324711382593e-001	 4.087656773907806e+000	 8.718337925978883e+000
 6.781691962841796e-001	 4.094213787916498e+000	 8.686583002747474e+000
 6.397619794659990e-001	 4.100390787422146e+000	 8.725165821334029e+000
 6.014158794275277e-001	 4.106190319494902e+000	 8.810617180417435e+000
 5.631358758552507e-001	 4.111615009368303e+000	 8.873362309983431e+000
 5.249268681926650e-001	 4.116667557987442e+000	 8.913566053967287e+000
 4.867936745340067e-001	 4.121350739547837e+000	 8.935617365853965e+000
 4.487410305967702e-001	 4.125667399027678e+000	 8.943273530781962e+000
 4.107735887723265e-001	 4.129620449716046e+000	 8.939669441688569e+000
 3.728959172538585e-001	 4.133212870739683e+000	 8.927327921677009e+000
 7.596957438036709e-001	 4.105299913141828e+000	 8.874675862838753e+000
 7.209495342180375e-001	 4.112281212307298e+000	 8.767506702255203e+000
 6.822545528888403e-001	 4.118877726400506e+000	 8.725533899083796e+000
 6.436159672946303e-001	 4.125091936746619e+000	 8.748313343217264e+000
 6.050388666535788e-001	 4.130926405759588e+000	 8.823060289488231e+000
 5.665282606502805e-001	 4.136383774487609e+000	 8.882364041458487e+000
 5.280890782429517e-001	 4.141466760146528e+000	 8.920448941584724e+000
 4.897261665504921e-001	 4.146178153643888e+000	 8.941860838187159e+000
 4.514442898188136e-001	 4.150520817096297e+000	 8.950501000223133e+000
 4.132481284657408e-001	 4.154497681342776e+000	 8.949635503719255e+000
 3.751422782036917e-001	 4.158111743456611e+000	 8.941905686455804e+000
 7.642448201156715e-001	 4.129882547354518e+000	 8.932598195261816e+000
 7.252665972988160e-001	 4.136905650706790e+000	 8.821527233198108e+000
 6.863399094945006e-001	 4.143541664884513e+000	 8.770043891693428e+000
 6.474699551242620e-001	 4.149793086071095e+000	 8.777730852800410e+000
 6.086618538806298e-001	 4.155662492024274e+000	 8.839182289661515e+000
 5.699206454463102e-001	 4.161152539606915e+000	 8.893616647379378e+000
 5.312512882942383e-001	 4.166265962305615e+000	 8.928339291167564e+000
 4.926586585679774e-001	 4.171005567739938e+000	 8.948053927562224e+000
 4.541475490418570e-001	 4.175374235164916e+000	 8.956806529761222e+000
 4.157226681601550e-001	 4.179374912969506e+000	 8.957994838136330e+000
 3.773886391545250e-001	 4.183010616173539e+000	 8.954378951331071e+000
 7.687938964286722e-001	 4.154465181567210e+000	 8.994577190711787e+000
 7.295836603805946e-001	 4.161530089106282e+000	 8.880314882440652e+000
 6.904252661011612e-001	 4.168205603368522e+000	 8.820035139067670e+000
 6.513239429548935e-001	 4.174494235395568e+000	 8.813346272221013e+000
 6.122848411086810e-001	 4.180398578288962e+000	 8.859397899842168e+000
 5.733130302433399e-001	 4.185921304726221e+000	 8.907495134352793e+000
 5.344134983465251e-001	 4.191065164464702e+000	 8.937573094860062e+000
 4.955911505864627e-001	 4.195832981835988e+000	 8.954494331760063e+000
 4.568508082659004e-001	 4.200227653233536e+000	 8.962450263699997e+000
 4.181972078555694e-001	 4.204252144596237e+000	 8.964970795973791e+000
 3.796350001063584e-001	 4.207909488890468e+000	 8.964935052141469e+000
 7.733429727426728e-001	 4.179047815779902e+000	 9.060517976796634e+000
 7.339007234633732e-001	 4.186154527505775e+000	 8.943782723501881e+000
 6.945106227088217e-001	 4.192869541852530e+000	 8.875427645328841e+000
 6.551779307865252e-001	 4.199195384720043e+000	 8.855085522152663e+000
 6.159078283377321e-001	 4.205134664553649e+000	 8.884120007319288e+000
 5.767054150413697e-001	 4.210690069845527e+000	 8.924372863935625e+000
 5.375757083998120e-001	 4.215864366623790e+000	 8.948484902810465e+000
 4.985236426059480e-001	 4.220660395932039e+000	 8.961478525870616e+000
 4.595540674909438e-001	 4.225081071302157e+000	 8.967691358966530e+000
 4.206717475519837e-001	 4.229129376222966e+000	 8.970785991964656e+000
 3.818813610591916e-001	 4.232808361607396e+000	 8.973760855009651e+000
 3.594177515758589e-001	 3.983819634438112e+000	 8.785113144821194e+000
 3.229999992710687e-001	 3.986937546585482e+000	 8.716391643955081e+000
 2.866773322591905e-001	 3.989713787615519e+000	 8.664969360360022e+000
 2.504539058424687e-001	 3.992151405067931e+000	 8.630867816506338e+000
 2.143337915336593e-001	 3.994253500437819e+000	 8.613593764260324e+000
 1.783209765742101e-001	 3.996023226819399e+000	 8.612153329279852e+000
 1.424193635209333e-001	 3.997463786561714e+000	 8.625066775562987e+000
 1.066327698999310e-001	 3.998578428938315e+000	 8.650383837787427e+000
 7.096492792649614e-002	 3.999370447832837e+000	 8.685699569443491e+000
 3.541948428965995e-002	 3.999843179442312e+000	 8.728170655268404e+000
 0.000000000000000e+000	 4.000000000000000e+000	 8.774532137125938e+000
 3.616641125196922e-001	 4.008718507155041e+000	 8.816280126729684e+000
 3.250187492635377e-001	 4.011855906253005e+000	 8.755772026555846e+000
 2.884690655833330e-001	 4.014649498789190e+000	 8.709823532248079e+000
 2.520192427519617e-001	 4.017102351350427e+000	 8.678562443325601e+000
 2.156733777291349e-001	 4.019217584816156e+000	 8.661593690998235e+000
 1.794354826765600e-001	 4.020998371987436e+000	 8.658013598732142e+000
 1.433094845420295e-001	 4.022447935227990e+000	 8.666424776723050e+000
 1.072992247111841e-001	 4.023569544119328e+000	 8.684951597093169e+000
 7.140845872566262e-002	 4.024366513131858e+000	 8.711256196989996e+000
 3.564085606630323e-002	 4.024842199313843e+000	 8.742554957270450e+000
 0.000000000000000e+000	 4.025000000000000e+000	 8.775635405092277e+000
 3.639104734645255e-001	 4.033617379871969e+000	 8.844207894834323e+000
 3.270374992569964e-001	 4.036774265920530e+000	 8.791365651134218e+000
 2.902607989084344e-001	 4.039585209962862e+000	 8.750572911124040e+000
 2.535845796623624e-001	 4.042053297632919e+000	 8.722062915210465e+000
 2.170129639254471e-001	 4.044181669194493e+000	 8.705537709265718e+000
 1.805499887796554e-001	 4.045973517155472e+000	 8.700182527268423e+000
 1.441996055637605e-001	 4.047432083894266e+000	 8.704680821805193e+000
 1.079656795229418e-001	 4.048560659300342e+000	 8.717229888409847e+000
 7.185198952518444e-002	 4.049362578430879e+000	 8.735557030077194e+000
 3.586222784313356e-002	 4.049841219185373e+000	 8.756936208793052e+000
 0.000000000000000e+000	 4.050000000000000e+000	 8.778205131565116e+000
 3.661568344103588e-001	 4.058516252588897e+000	 8.869086921213166e+000
 3.290562492514448e-001	 4.061692625588052e+000	 8.823334253172341e+000
 2.920525322344945e-001	 4.064520921136532e+000	 8.787350336502923e+000
 2.551499165736709e-001	 4.067004243915415e+000	 8.761473037545688e+000
 2.183525501225958e-001	 4.069145753572829e+000	 8.745500472385054e+000
 1.816644948834962e-001	 4.070948662323509e+000	 8.738705517477595e+000
 1.450897265861263e-001	 4.072416232560541e+000	 8.739850982294604e+000
 1.086321343352042e-001	 4.073551774481353e+000	 8.747205389098777e+000
 7.229552032506161e-002	 4.074358643729899e+000	 8.758559305333547e+000
 3.608359962015094e-002	 4.074840239056904e+000	 8.771242174608512e+000
 0.000000000000000e+000	 4.074999999999999e+000	 8.782139592910284e+000
 3.684031953571920e-001	 4.083415125305826e+000	 8.891107114549842e+000
 3.310749992468829e-001	 4.086610985255576e+000	 8.851839138756651e+000
 2.938442655615136e-001	 4.089456632310205e+000	 8.820288391672307e+000
 2.567152534858871e-001	 4.091955190197909e+000	 8.796896571364773e+000
 2.196921363205811e-001	 4.094109837951166e+000	 8.781556839435858e+000
 1.827790009880826e-001	 4.095923807491546e+000	 8.773628465558241e+000
 1.459798476091268e-001	 4.097400381226817e+000	 8.771952148380750e+000
 1.092985891479713e-001	 4.098542889662366e+000	 8.774865957048741e+000
 7.273905112529411e-002	 4.099354709028921e+000	 8.780221837941792e+000
 3.630497139735534e-002	 4.099839258928435e+000	 8.785402631737401e+000
 0.000000000000000e+000	 4.100000000000000e+000	 8.787339546557737e+000
 3.706495563050253e-001	 4.108313998022754e+000	 8.910457837206048e+000
 3.330937492433106e-001	 4.111529344923100e+000	 8.877041197589946e+000
 2.956359988894915e-001	 4.114392343483876e+000	 8.849519411456821e+000
 2.582805903990110e-001	 4.116906136480403e+000	 8.828437234693830e+000
 2.210317225194030e-001	 4.119073922329502e+000	 8.813781869020046e+000
 1.838935070934145e-001	 4.120898952659582e+000	 8.804997746360858e+000
 1.468699686327622e-001	 4.122384529893093e+000	 8.801002004148247e+000
 1.099650439612430e-001	 4.123534004843380e+000	 8.800200594902401e+000
 7.318258192588194e-002	 4.124350774327941e+000	 8.800504973803719e+000
 3.652634317474679e-002	 4.124838278799965e+000	 8.799349308471557e+000
 0.000000000000000e+000	 4.125000000000000e+000	 8.793708155817653e+000
 3.728959172538585e-001	 4.133212870739683e+000	 8.927327921677009e+000
 3.351124992407280e-001	 4.136447704590624e+000	 8.899100915533174e+000
 2.974277322184281e-001	 4.139328054657547e+000	 8.875175489701952e+000
 2.598459273130427e-001	 4.141857082762898e+000	 8.856198703847104e+000
 2.223713087190614e-001	 4.144038006707839e+000	 8.842250813252111e+000
 1.850080131994918e-001	 4.145874097827619e+000	 8.832860198970542e+000
 1.477600896570323e-001	 4.147368678559368e+000	 8.827019003664233e+000
 1.106314987750194e-001	 4.148525120024393e+000	 8.823199415575880e+000
 7.362611272682511e-002	 4.149346839626961e+000	 8.819370543434454e+000
 3.674771495232530e-002	 4.149837298671496e+000	 8.813015825600715e+000
 0.000000000000000e+000	 4.150000000000000e+000	 8.801150917414331e+000
 3.751422782036917e-001	 4.158111743456611e+000	 8.941905686455804e+000
 3.371312492391351e-001	 4.161366064258147e+000	 8.918178386696344e+000
 2.992194655483239e-001	 4.164263765831219e+000	 8.897388486489048e+000
 2.614112642279822e-001	 4.166808029045393e+000	 8.880284614675771e+000
 2.237108949195563e-001	 4.169002091086175e+000	 8.867039111965285e+000
 1.861225193063147e-001	 4.170849242995655e+000	 8.857263112807791e+000
 1.486502106819372e-001	 4.172352827225643e+000	 8.850022347925194e+000
 1.112979535893004e-001	 4.173516235205406e+000	 8.843853609017030e+000
 7.406964352812362e-002	 4.174342904925982e+000	 8.836781817512831e+000
 3.696908673009083e-002	 4.174836318543028e+000	 8.826337639751042e+000
 0.000000000000000e+000	 4.175000000000000e+000	 8.809575591623437e+000
 3.773886391545250e-001	 4.183010616173539e+000	 8.954378951331071e+000
 3.391499992385319e-001	 4.186284423925672e+000	 8.934433325097862e+000
 3.010111988791782e-001	 4.189199477004890e+000	 8.916290035092510e+000
 2.629766011438293e-001	 4.191758975327886e+000	 8.900798563772243e+000
 2.250504811208877e-001	 4.193966175464512e+000	 8.888222387124770e+000
 1.872370254138830e-001	 4.195824388163692e+000	 8.878254214225713e+000
 1.495403317074769e-001	 4.197336975891918e+000	 8.870031962626717e+000
 1.119644084040861e-001	 4.198507350386419e+000	 8.862155410150773e+000
 7.451317432977747e-002	 4.199338970225004e+000	 8.852703464019310e+000
 3.719045850804342e-002	 4.199835338414558e+000	 8.839251988747041e+000
 0.000000000000000e+000	 4.199999999999999e+000	 8.818892134904312e+000
 3.796350001063584e-001	 4.207909488890468e+000	 8.964935052141469e+000
 3.411687492389183e-001	 4.211202783593194e+000	 8.948025075909914e+000
 3.028029322109916e-001	 4.214135188178561e+000	 8.932011548690131e+000
 2.645419380605842e-001	 4.216709921610382e+000	 8.917844109631600e+000
 2.263900673230558e-001	 4.218930259842849e+000	 8.905876437439174e+000
 1.883515315221968e-001	 4.220799533331729e+000	 8.895881653582915e+000
 1.504304527336514e-001	 4.222321124558194e+000	 8.887068476722844e+000
 1.126308632193765e-001	 4.223498465567431e+000	 8.878098067962874e+000
 7.495670513178664e-002	 4.224335035524025e+000	 8.867101506895793e+000
 3.741183028618303e-002	 4.224834358286088e+000	 8.851697838913390e+000
 0.000000000000000e+000	 4.224999999999999e+000	 8.829012634924315e+000
 3.818813610591916e-001	 4.232808361607396e+000	 8.973760855009651e+000
 3.431874992402947e-001	 4.236121143260720e+000	 8.959112626306730e+000
 3.045946655437639e-001	 4.239070899352234e+000	 8.944684226836490e+000
 2.661072749782468e-001	 4.241660867892875e+000	 8.931524773772205e+000
 2.277296535260604e-001	 4.243894344221186e+000	 8.920077233162147e+000
 1.894660376312561e-001	 4.245774678499766e+000	 8.910193992772879e+000
 1.513205737604607e-001	 4.247305273224471e+000	 8.901153201741929e+000
 1.132973180351715e-001	 4.248489580748445e+000	 8.891675815674397e+000
 7.540023593415120e-002	 4.249331100823047e+000	 8.879943286164446e+000
 3.763320206450971e-002	 4.249833378157621e+000	 8.863615834236835e+000
 0.000000000000000e+000	 4.250000000000000e+000	 8.839851247876123e+000
 4.250000000000000e+000	 0.000000000000000e+000	 1.061309527106933e+001
 4.249833378157620e+000	 3.763320206450985e-002	 1.056153139478884e+001
 4.249331100823047e+000	 7.540023593415146e-002	 1.052445166545284e+001
 4.248489580748444e+000	 1.132973180351712e-001	 1.050004485459746e+001
 4.247305273224471e+000	 1.513205737604606e-001	 1.048645980919711e+001
 4.245774678499766e+000	 1.894660376312561e-001	 1.048179613238010e+001
 4.243894344221186e+000	 2.277296535260605e-001	 1.048409441466989e+001
 4.241660867892875e+000	 2.661072749782472e-001	 1.049132602459601e+001
 4.239070899352234e+000	 3.045946655437636e-001	 1.050138246935766e+001
 4.236121143260720e+000	 3.431874992402945e-001	 1.051206433811120e+001
 4.232808361607396e+000	 3.818813610591916e-001	 1.052106984238686e+001
 4.275000000000000e+000	 0.000000000000000e+000	 1.056142699981555e+001
 4.274832398029148e+000	 3.785457384283890e-002	 1.051270585664717e+001
 4.274327166122059e+000	 7.584376673652557e-002	 1.047762075759133e+001
 4.273480695929435e+000	 1.139637728509879e-001	 1.045458242180633e+001
 4.272289421890708e+000	 1.522106947873084e-001	 1.044196668729714e+001
 4.270749823667742e+000	 1.905805437403758e-001	 1.043810491631325e+001
 4.268858428599435e+000	 2.290692397291523e-001	 1.044127393372345e+001
 4.266611814175251e+000	 2.676726118960291e-001	 1.044968550726079e+001
 4.264006610525748e+000	 3.063863988766921e-001	 1.046147538041403e+001
 4.261039502928045e+000	 3.452062492418692e-001	 1.047469187068094e+001
 4.257707234324079e+000	 3.841277220122707e-001	 1.048728404788191e+001
 4.300000000000000e+000	 0.000000000000000e+000	 1.051838961811933e+001
 4.299831417900671e+000	 3.807594562098566e-002	 1.047154937296901e+001
 4.299323231421049e+000	 7.628729753856345e-002	 1.043749322673181e+001
 4.298471811110385e+000	 1.146302276663430e-001	 1.041485678983421e+001
 4.297273570556867e+000	 1.531008158135985e-001	 1.040224589441401e+001
 4.295724968835596e+000	 1.916950498488709e-001	 1.039822672089646e+001
 4.293822512977509e+000	 2.304088259315823e-001	 1.040131543978807e+001
 4.291562760457388e+000	 2.692379488131417e-001	 1.040996737762797e+001
 4.288942321698952e+000	 3.081781322089743e-001	 1.042256571797035e+001
 4.285957862594973e+000	 3.472249992428511e-001	 1.043740975025810e+001
 4.282606107040270e+000	 3.863740829648416e-001	 1.045270268148199e+001
 4.324999999999999e+000	 0.000000000000000e+000	 1.048444055438509e+001
 4.324830437772191e+000	 3.829731739895016e-002	 1.043841322429670e+001
 4.324319296720021e+000	 7.673082834026511e-002	 1.040431379020818e+001
 4.323462926291289e+000	 1.152966824812367e-001	 1.038100574844040e+001
 4.322257719222951e+000	 1.539909368393309e-001	 1.036732798045572e+001
 4.320700114003333e+000	 1.928095559567414e-001	 1.036208459707892e+001
 4.318786597355409e+000	 2.317484121333504e-001	 1.036403427996070e+001
 4.316513706739286e+000	 2.708032857295852e-001	 1.037187912927300e+001
 4.313878032871841e+000	 3.099698655406102e-001	 1.038425302860747e+001
 4.310876222261504e+000	 3.492437492432403e-001	 1.039970954008349e+001
 4.307504979755969e+000	 3.886204439169040e-001	 1.041670934475955e+001
 4.350000000000000e+000	 0.000000000000000e+000	 1.046002672142081e+001
 4.349829457643704e+000	 3.851868917673237e-002	 1.041363914107667e+001
 4.349315362018976e+000	 7.717435914163061e-002	 1.037831858544196e+001
 4.348454041472150e+000	 1.159631372956689e-001	 1.035315948202347e+001
 4.347241867888956e+000	 1.548810578645055e-001	 1.033723686856756e+001
 4.345675259170945e+000	 1.939240620639871e-001	 1.032959595136086e+001
 4.343750681733135e+000	 2.330879983344565e-001	 1.032924114258153e+001
 4.341464653020945e+000	 2.723686226453594e-001	 1.033512458574057e+001
 4.338813744044418e+000	 3.117615988715999e-001	 1.034613418028295e+001
 4.335794581927638e+000	 3.512624992430367e-001	 1.036108111850472e+001
 4.332403852471177e+000	 3.908668048684583e-001	 1.037868695008000e+001
 4.374999999999999e+000	 0.000000000000000e+000	 1.044558481688381e+001
 4.374828477515215e+000	 3.874006095433233e-002	 1.039755957651928e+001
 4.374311427317912e+000	 7.761788994265988e-002	 1.035973541508261e+001
 4.373445156652968e+000	 1.166295921096397e-001	 1.033144078691746e+001
 4.372226016554885e+000	 1.557711788891225e-001	 1.031199004446796e+001
 4.370650404338438e+000	 1.950385681706083e-001	 1.030067270706325e+001
 4.368714766110685e+000	 2.344275845349007e-001	 1.029674219034125e+001
 4.366415599302367e+000	 2.739339595604644e-001	 1.029940400540244e+001
 4.363749455216683e+000	 3.135533322019433e-001	 1.030780343886320e+001
 4.360712941593376e+000	 3.532812492422404e-001	 1.032101272711592e+001
 4.357302725185893e+000	 3.931131658195044e-001	 1.033801774029353e+001
 4.400000000000000e+000	 0.000000000000000e+000	 1.050345464252959e+001
 4.399827497386720e+000	 3.896143273174999e-002	 1.045279652450872e+001
 4.399307492616827e+000	 7.806142074335290e-002	 1.041066514490632e+001
 4.398436271833743e+000	 1.172960469231490e-001	 1.037650460271921e+001
 4.397210165220737e+000	 1.566612999131817e-001	 1.034975469803162e+001
 4.395625549505810e+000	 1.961530742766048e-001	 1.032985069808238e+001
 4.393678850488062e+000	 2.357671707346830e-001	 1.031622307718344e+001
 4.391366545583549e+000	 2.754992964749001e-001	 1.030829723046999e+001
 4.388685166388635e+000	 3.153450655316404e-001	 1.030549316156822e+001
 4.385631301258717e+000	 3.552999992408514e-001	 1.030722514437925e+001
 4.382201597900116e+000	 3.953595267700419e-001	 1.031290135929389e+001
 4.425000000000000e+000	 0.000000000000000e+000	 1.054745651494990e+001
 4.424826517258218e+000	 3.918280450898538e-002	 1.049670579641262e+001
 4.424303557915724e+000	 7.850495154370979e-002	 1.045380512868321e+001
 4.423427387014476e+000	 1.179625017361969e-001	 1.041829081458004e+001
 4.422194313886513e+000	 1.575514209366833e-001	 1.038969732564161e+001
 4.420600694673061e+000	 1.972675803819767e-001	 1.036755702484355e+001
 4.418642934865264e+000	 2.371067569338034e-001	 1.035139985873402e+001
 4.416317491864494e+000	 2.770646333886667e-001	 1.034075301891249e+001
 4.413620877560275e+000	 3.171367988606913e-001	 1.033514057289090e+001
 4.410549660923660e+000	 3.573187492388697e-001	 1.033408306449624e+001
 4.407100470613848e+000	 3.976058877200713e-001	 1.033709708409791e+001
 4.449999999999999e+000	 0.000000000000000e+000	 1.057799818860615e+001
 4.449825537129715e+000	 3.940417628603850e-002	 1.052914992221628e+001
 4.449299623214602e+000	 7.894848234373043e-002	 1.048748187093002e+001
 4.448418502195165e+000	 1.186289565487833e-001	 1.045262205965277e+001
 4.447178462552209e+000	 1.584415419596271e-001	 1.042419914003250e+001
 4.445575839840191e+000	 1.983820864867240e-001	 1.040184206983583e+001
 4.443607019242291e+000	 2.384463431322619e-001	 1.038517975731394e+001
 4.441268438145198e+000	 2.786299703017640e-001	 1.037384067042826e+001
 4.438556588731602e+000	 3.189285321890960e-001	 1.036745241092804e+001
 4.435468020588207e+000	 3.593374992362953e-001	 1.036564125339950e+001
 4.431999343327089e+000	 3.998522486695924e-001	 1.036803164953901e+001
 4.474999999999999e+000	 0.000000000000000e+000	 1.059547830612751e+001
 4.474824557001205e+000	 3.962554806290932e-002	 1.055048628915049e+001
 4.474295688513459e+000	 7.939201314341488e-002	 1.051201129634221e+001
 4.473409617375811e+000	 1.192954113609082e-001	 1.047977260745623e+001
 4.472162611217830e+000	 1.593316629820132e-001	 1.045349257775984e+001
 4.470550985007201e+000	 1.994965925908466e-001	 1.043289627407377e+001
 4.468571103619143e+000	 2.397859293300585e-001	 1.041771107137677e+001
 4.466219384425665e+000	 2.801953072141921e-001	 1.040766620979075e+001
 4.463492299902617e+000	 3.207202655168542e-001	 1.040249231189123e+001
 4.460386380252356e+000	 3.613562492331280e-001	 1.040192086042407e+001
 4.456898216039838e+000	 4.020986096186052e-001	 1.040568363665007e+001
 4.500000000000000e+000	 0.000000000000000e+000	 1.060028665141734e+001
 4.499823576872690e+000	 3.984691983959790e-002	 1.056106423909326e+001
 4.499291753812299e+000	 7.983554394276311e-002	 1.052770210158071e+001
 4.498400732556415e+000	 1.199618661725717e-001	 1.050001032047307e+001
 4.497146759883374e+000	 1.602217840038417e-001	 1.047780449274981e+001
 4.495526130174089e+000	 2.006110986943446e-001	 1.046090532347975e+001
 4.493535187995821e+000	 2.411255155271932e-001	 1.044913817466738e+001
 4.491170330705895e+000	 2.817606441259510e-001	 1.044233257000388e+001
 4.488428011073320e+000	 3.225119988439664e-001	 1.044032165542080e+001
 4.485304739916110e+000	 3.633749992293683e-001	 1.044294161548851e+001
 4.481797088752097e+000	 4.043449705671097e-001	 1.045003104585042e+001
 4.232808361607396e+000	 3.818813610591916e-001	 1.052106984238686e+001
 4.229129376222968e+000	 4.206717475519838e-001	 1.056726329080634e+001
 4.225081071302157e+000	 4.595540674909441e-001	 1.060790794709066e+001
 4.220660395932038e+000	 4.985236426059477e-001	 1.064029894703133e+001
 4.215864366623790e+000	 5.375757083998116e-001	 1.066157832771353e+001
 4.210690069845527e+000	 5.767054150413699e-001	 1.066872183748322e+001
 4.205134664553649e+000	 6.159078283377322e-001	 1.065852547381103e+001
 4.199195384720043e+000	 6.551779307865254e-001	 1.060062034223419e+001
 4.192869541852530e+000	 6.945106227088215e-001	 1.052250724680976e+001
 4.186154527505775e+000	 7.339007234633730e-001	 1.043257210160315e+001
 4.179047815779902e+000	 7.733429727426728e-001	 1.032971943133271e+001
 4.257707234324079e+000	 3.841277220122707e-001	 1.048728404788191e+001
 4.254006607849405e+000	 4.231462872486892e-001	 1.053746425654154e+001
 4.249934489370448e+000	 4.622573267163141e-001	 1.058371799845401e+001
 4.245487810027736e+000	 5.014561346257856e-001	 1.062357114414344e+001
 4.240663568782507e+000	 5.407379184534669e-001	 1.065439740456844e+001
 4.235458834964459e+000	 5.800977998397743e-001	 1.067340471251784e+001
 4.229870750817964e+000	 6.195308155671542e-001	 1.067762131814545e+001
 4.223896534044159e+000	 6.590319186185139e-001	 1.061023020241409e+001
 4.217533480336205e+000	 6.985959793168148e-001	 1.052321643464461e+001
 4.210778965904968e+000	 7.382177865464500e-001	 1.042472061130202e+001
 4.203630449992338e+000	 7.778920490569271e-001	 1.031365784120239e+001
 4.282606107040270e+000	 3.863740829648416e-001	 1.045270268148199e+001
 4.278883839475262e+000	 4.256208269449768e-001	 1.050538091039098e+001
 4.274787907438089e+000	 4.649605859413375e-001	 1.055577989310014e+001
 4.270315224122728e+000	 5.043886266453285e-001	 1.060165981285995e+001
 4.265462770940488e+000	 5.439001285068594e-001	 1.064062965247837e+001
 4.260227600082641e+000	 5.834901846379283e-001	 1.067013314153752e+001
 4.254606837081538e+000	 6.231538027963179e-001	 1.068743440380702e+001
 4.248597683367563e+000	 6.628859064502164e-001	 1.060931053397737e+001
 4.242197418819215e+000	 7.026813359244741e-001	 1.051708671609500e+001
 4.235403404303566e+000	 7.425348496291238e-001	 1.041369128483393e+001
 4.228213084204269e+000	 7.824411253706887e-001	 1.029804691834683e+001
 4.307504979755969e+000	 3.886204439169040e-001	 1.041670934475955e+001
 4.303761071100537e+000	 4.280953666408464e-001	 1.047029985067249e+001
 4.299641325505075e+000	 4.676638451660142e-001	 1.052328341674236e+001
 4.295142638217016e+000	 5.073211186645764e-001	 1.057365817348592e+001
 4.290261973097732e+000	 5.470623385599891e-001	 1.061927203069426e+001
 4.284996365200072e+000	 5.868825694358318e-001	 1.065780818481002e+001
 4.279342923344370e+000	 6.267767900252236e-001	 1.068219105822207e+001
 4.273298832690252e+000	 6.667398942816329e-001	 1.059818975601496e+001
 4.266861357301559e+000	 7.067666925317988e-001	 1.050444393780450e+001
 4.260027842701565e+000	 7.468519127113943e-001	 1.039980721508062e+001
 4.252795718415691e+000	 7.869902016839576e-001	 1.028320681284570e+001
 4.332403852471177e+000	 3.908668048684583e-001	 1.037868695008000e+001
 4.328638302725228e+000	 4.305699063362981e-001	 1.043150773370033e+001
 4.324494743571407e+000	 4.703671043903442e-001	 1.048541916033739e+001
 4.319970052310598e+000	 5.102536106835296e-001	 1.053866099856313e+001
 4.315061175254238e+000	 5.502245486128563e-001	 1.058932379714139e+001
 4.309765130316756e+000	 5.902749542334850e-001	 1.063533394685354e+001
 4.304079009606459e+000	 6.303997772538713e-001	 1.065928890615059e+001
 4.297999982012226e+000	 6.705938821127633e-001	 1.057720081919116e+001
 4.291525295783236e+000	 7.108520491387893e-001	 1.048561921910562e+001
 4.284652281098967e+000	 7.511689757932618e-001	 1.038339750660416e+001
 4.277378352626607e+000	 7.915392779967340e-001	 1.026946442300166e+001
 4.357302725185893e+000	 3.931131658195044e-001	 1.033801774029353e+001
 4.353515534349339e+000	 4.330444460313320e-001	 1.038829127212805e+001
 4.349348161637088e+000	 4.730703636143275e-001	 1.044137849707834e+001
 4.344797466403474e+000	 5.131861027021878e-001	 1.049576456852037e+001
 4.339860377410006e+000	 5.533867586654604e-001	 1.054978644274301e+001
 4.334533895432689e+000	 5.936673390308876e-001	 1.060161748945817e+001
 4.328815095867808e+000	 6.340227644822606e-001	 1.062314377378492e+001
 4.322701131333488e+000	 6.744478699436078e-001	 1.054668107627012e+001
 4.316189234264249e+000	 7.149374057454456e-001	 1.046094880137162e+001
 4.309276719495773e+000	 7.554860388747262e-001	 1.036479710388465e+001
 4.301960986837014e+000	 7.960883543090176e-001	 1.025715320253388e+001
 4.382201597900116e+000	 3.953595267700419e-001	 1.031290135929389e+001
 4.378392765972867e+000	 4.355189857259480e-001	 1.034857486753709e+001
 4.374201579702113e+000	 4.757736228379642e-001	 1.039035356017230e+001
 4.369624880495647e+000	 5.161185947205511e-001	 1.044406662883579e+001
 4.364659579565039e+000	 5.565489687178018e-001	 1.049966362798282e+001
 4.359302660547873e+000	 5.970597238280400e-001	 1.055556874767244e+001
 4.353551182128414e+000	 6.376457517103920e-001	 1.057409752410526e+001
 4.347402280654035e+000	 6.783018577741661e-001	 1.050697215705610e+001
 4.340853172744595e+000	 7.190227623517677e-001	 1.043077390250399e+001
 4.333901157891982e+000	 7.598031019557877e-001	 1.034434662541346e+001
 4.326543621046915e+000	 8.006374306208084e-001	 1.024661297434474e+001
 4.407100470613848e+000	 3.976058877200713e-001	 1.033709708409791e+001
 4.403269997595813e+000	 4.379935254201460e-001	 1.036583512504666e+001
 4.399054997766486e+000	 4.784768820612543e-001	 1.039911569964212e+001
 4.394452294587114e+000	 5.190510867386193e-001	 1.043623157244045e+001
 4.389458781719333e+000	 5.597111787698805e-001	 1.047646438814241e+001
 4.384071425662305e+000	 6.004521086249417e-001	 1.051908419315519e+001
 4.378287268388279e+000	 6.412687389382651e-001	 1.052023971321409e+001
 4.372103429973867e+000	 6.821558456044385e-001	 1.045841984757317e+001
 4.365517111224276e+000	 7.231081189577551e-001	 1.039544057635247e+001
 4.358525596287595e+000	 7.641201650364460e-001	 1.032239220341039e+001
 4.351126255256309e+000	 8.051865069321068e-001	 1.023818975059926e+001
 4.431999343327089e+000	 3.998522486695924e-001	 1.036803164953901e+001
 4.428147229218177e+000	 4.404680651139264e-001	 1.039130933123477e+001
 4.423908415830206e+000	 4.811801412841976e-001	 1.041952275096398e+001
 4.419279708677876e+000	 5.219835787563928e-001	 1.045205279034589e+001
 4.414257983872892e+000	 5.628733888216964e-001	 1.048827048672406e+001
 4.408840190775990e+000	 6.038444934215930e-001	 1.052753647916419e+001
 4.403023354647401e+000	 6.448917261658800e-001	 1.052122927983598e+001
 4.396804579292986e+000	 6.860098334344249e-001	 1.046039795569485e+001
 4.390181049703291e+000	 7.271934755634086e-001	 1.039310977747318e+001
 4.383150034682610e+000	 7.684372281167010e-001	 1.031802323443022e+001
 4.375708889465193e+000	 8.097355832429123e-001	 1.023374911041046e+001
 4.456898216039838e+000	 4.020986096186052e-001	 1.040568363665007e+001
 4.453024460839959e+000	 4.429426048072887e-001	 1.042494291453530e+001
 4.448761833893272e+000	 4.838834005067942e-001	 1.044953011247396e+001
 4.444107122767933e+000	 5.249160707738714e-001	 1.047891386745443e+001
 4.439057186025712e+000	 5.660355988732495e-001	 1.051255424309925e+001
 4.433608955888926e+000	 6.072368782179941e-001	 1.054990210007306e+001
 4.427759440905781e+000	 6.485147133932370e-001	 1.053905080585245e+001
 4.421505728611392e+000	 6.898638212641249e-001	 1.048663305362923e+001
 4.414844988181640e+000	 7.312788321687278e-001	 1.042890566535746e+001
 4.407774473077028e+000	 7.727542911965529e-001	 1.036463295664470e+001
 4.400291523673573e+000	 8.142846595532255e-001	 1.029253183187929e+001
 4.481797088752097e+000	 4.043449705671097e-001	 1.045003104585042e+001
 4.477901692461161e+000	 4.454171445002335e-001	 1.046668135224018e+001
 4.473615251955685e+000	 4.865866597290443e-001	 1.048905073563407e+001
 4.468934536857284e+000	 5.278485627910551e-001	 1.051669524088580e+001
 4.463856388177794e+000	 5.691978089245400e-001	 1.054916360593242e+001
 4.458377721001112e+000	 6.106292630141444e-001	 1.058599655657710e+001
 4.452495527163421e+000	 6.521377006203358e-001	 1.057337619257630e+001
 4.446206877929084e+000	 6.937178090935396e-001	 1.053047495621206e+001
 4.439508926659324e+000	 7.353641887737125e-001	 1.048341477248978e+001
 4.432398911470851e+000	 7.770713542760019e-001	 1.043106587275315e+001
 4.424874157881446e+000	 8.188337358630459e-001	 1.037225136339428e+001
 4.179047815779902e+000	 7.733429727426728e-001	 1.032971943133271e+001
 4.171546965803959e+000	 8.128320319509310e-001	 1.041967671920490e+001
 4.163649624201344e+000	 8.523624856654427e-001	 1.050225528967360e+001
 4.155353527534343e+000	 8.919288431804857e-001	 1.057735938438574e+001
 4.146656504724693e+000	 9.315255401334327e-001	 1.064500329773825e+001
 4.137556479447227e+000	 9.711469402141428e-001	 1.070531984456767e+001
 4.128051472493549e+000	 1.010787336957094e+000	 1.075856883711512e+001
 4.118139604102669e+000	 1.050440955616010e+000	 1.080514554727940e+001
 4.107819096255514e+000	 1.090101955120619e+000	 1.084558912935477e+001
 4.097088274930205e+000	 1.129764430115052e+000	 1.088059097769301e+001
 4.085945572314992e+000	 1.169422413077266e+000	 1.091100299303282e+001
 4.203630449992338e+000	 7.778920490569271e-001	 1.031365784120239e+001
 4.196085477369345e+000	 8.176133968488740e-001	 1.040862624559689e+001
 4.188141680816043e+000	 8.573763826440791e-001	 1.049485408330335e+001
 4.179796783580376e+000	 8.971754834385506e-001	 1.057208781730221e+001
 4.171048601813031e+000	 9.370051021381152e-001	 1.064018491981741e+001
 4.161895046975168e+000	 9.768595692778664e-001	 1.069912263163905e+001
 4.152334128215989e+000	 1.016733144824837e+000	 1.074900673490725e+001
 4.142363954717085e+000	 1.056620020063654e+000	 1.079008031480745e+001
 4.131982738000447e+000	 1.096514319564807e+000	 1.082273248478657e+001
 4.121188794197010e+000	 1.136410103235041e+000	 1.084750704911670e+001
 4.109980546272603e+000	 1.176301368449240e+000	 1.086511107591380e+001
 4.228213084204269e+000	 7.824411253706887e-001	 1.029804691834683e+001
 4.220623988934317e+000	 8.223947617462386e-001	 1.039814673532054e+001
 4.212633737430396e+000	 8.623902796220805e-001	 1.048811554570120e+001
 4.204240039626114e+000	 9.024221236959534e-001	 1.056754056856541e+001
 4.195440698901107e+000	 9.424846641421384e-001	 1.063612101493475e+001
 4.186233614502861e+000	 9.825721983409623e-001	 1.069367714201613e+001
 4.176616783938171e+000	 1.022678952692014e+000	 1.074015932511711e+001
 4.166588305331214e+000	 1.062799084510823e+000	 1.077565712211735e+001
 4.156146379745046e+000	 1.102926684008645e+000	 1.080040830451084e+001
 4.145289313463413e+000	 1.143055776354834e+000	 1.081480782822577e+001
 4.134015520229721e+000	 1.183180323821201e+000	 1.081941671668624e+001
 4.252795718415691e+000	 7.869902016839576e-001	 1.028320681284570e+001
 4.245162500498869e+000	 8.271761266430252e-001	 1.038861541796759e+001
 4.237125794044403e+000	 8.674041765994475e-001	 1.048247360846352e+001
 4.228683295671557e+000	 9.076687639526941e-001	 1.056420786034602e+001
 4.219832795988922e+000	 9.479642261455015e-001	 1.063335765043495e+001
 4.210572182030301e+000	 9.882848274034306e-001	 1.068958480883719e+001
 4.200899439660092e+000	 1.028624760558625e+000	 1.073268289334355e+001
 4.190812655945056e+000	 1.068978148957520e+000	 1.076258656004847e+001
 4.180310021489308e+000	 1.109339048452132e+000	 1.077938090360503e+001
 4.169389832729409e+000	 1.149701449474428e+000	 1.078331073969495e+001
 4.158050494186345e+000	 1.190059279193150e+000	 1.077478980152690e+001
 4.277378352626607e+000	 7.915392779967340e-001	 1.026946442300166e+001
 4.269701012063006e+000	 8.319574915392335e-001	 1.038041562077547e+001
 4.261617850658065e+000	 8.724180735761798e-001	 1.047836765113561e+001
 4.253126551716705e+000	 9.129154042087730e-001	 1.056258471422729e+001
 4.244224893076472e+000	 9.534437881482050e-001	 1.063244504598234e+001
 4.234910749557492e+000	 9.939974564652715e-001	 1.068745057219638e+001
 4.225182095381759e+000	 1.034570568424671e+000	 1.072723658879505e+001
 4.215037006558611e+000	 1.075157213403744e+000	 1.075158144201213e+001
 4.204473663233235e+000	 1.115751412895269e+000	 1.076041618128260e+001
 4.193490351995003e+000	 1.156347122593826e+000	 1.075383415679616e+001
 4.182085468142476e+000	 1.196938234565087e+000	 1.073210053286507e+001
 4.301960986837014e+000	 7.960883543090176e-001	 1.025715320253388e+001
 4.294239523626727e+000	 8.367388564348637e-001	 1.037393659440871e+001
 4.286109907271380e+000	 8.774319705522771e-001	 1.047624234555591e+001
 4.277569807761561e+000	 9.181620444641898e-001	 1.056317081407900e+001
 4.268616990163762e+000	 9.589233501502488e-001	 1.063393745492322e+001
 4.259249317084431e+000	 9.997100855264841e-001	 1.068788277894496e+001
 4.249464751103164e+000	 1.040516376290151e+000	 1.072448234247230e+001
 4.239261357171881e+000	 1.081336277849494e+000	 1.074335674048948e+001
 4.228637304976828e+000	 1.122163777338055e+000	 1.074428157563202e+001
 4.217590871260192e+000	 1.162992795713027e+000	 1.072719737429572e+001
 4.206120442098111e+000	 1.203817189937011e+000	 1.069221942034694e+001
 4.326543621046915e+000	 8.006374306208084e-001	 1.024661297434474e+001
 4.318778035190028e+000	 8.415202213299152e-001	 1.036957334467991e+001
 4.310601963884349e+000	 8.824458675277399e-001	 1.047654750550687e+001
 4.302013063806120e+000	 9.234086847189446e-001	 1.056647037360613e+001
 4.293009087250787e+000	 9.644029121516327e-001	 1.063839304969256e+001
 4.283587884611121e+000	 1.005422714587069e+000	 1.069149308590840e+001
 4.273747406824311e+000	 1.046462184155065e+000	 1.072508478813998e+001
 4.263485707784863e+000	 1.087515342294771e+000	 1.073862952569438e+001
 4.252800946720086e+000	 1.128576141780491e+000	 1.073174601989868e+001
 4.241691390524975e+000	 1.169638468832031e+000	 1.070422058227552e+001
 4.230155416053255e+000	 1.210696145308922e+000	 1.065601727210779e+001
 4.351126255256309e+000	 8.051865069321068e-001	 1.023818975059926e+001
 4.343316546752915e+000	 8.463015862243891e-001	 1.036772646997471e+001
 4.335094020496972e+000	 8.874597645025674e-001	 1.047973794146219e+001
 4.326456319850386e+000	 9.286553249730370e-001	 1.057299200838740e+001
 4.317401184337552e+000	 9.698824741523567e-001	 1.064637381110536e+001
 4.307926452137561e+000	 1.011135343647027e+000	 1.069889636638431e+001
 4.298030062545202e+000	 1.052407992019414e+000	 1.072971118597752e+001
 4.287710058397559e+000	 1.093694406739574e+000	 1.073811890631530e+001
 4.276964588463008e+000	 1.134988506222576e+000	 1.072357990024882e+001
 4.265791909789358e+000	 1.176284141950839e+000	 1.068572484084169e+001
 4.254190390007903e+000	 1.217575100680821e+000	 1.062436518634005e+001
 4.375708889465193e+000	 8.097355832429123e-001	 1.023374911041046e+001
 4.367855058315383e+000	 8.510829511182845e-001	 1.036880200415723e+001
 4.359586077109249e+000	 8.924736614767607e-001	 1.048627332023035e+001
 4.350899575894356e+000	 9.339019652264679e-001	 1.058324861222709e+001
 4.341793281424052e+000	 9.753620361524212e-001	 1.065844542137960e+001
 4.332265019663749e+000	 1.016847972706356e+000	 1.071071061979209e+001
 4.322312718265833e+000	 1.058353799883198e+000	 1.073903134880339e+001
 4.311934409009967e+000	 1.099873471183904e+000	 1.074254597225494e+001
 4.301128230205594e+000	 1.141400870664311e+000	 1.072055501495725e+001
 4.289892429053334e+000	 1.182929815069449e+000	 1.067253205568562e+001
 4.278225363962058e+000	 1.224454056052707e+000	 1.059813454314569e+001
 4.400291523673573e+000	 8.142846595532255e-001	 1.029253183187929e+001
 4.392393569877434e+000	 8.558643160116016e-001	 1.041361294838261e+001
 4.384078133721181e+000	 8.974875584503188e-001	 1.051632817411171e+001
 4.375342831938033e+000	 9.391486054792365e-001	 1.059846194783067e+001
 4.366185378510290e+000	 9.808415981518260e-001	 1.067517716074511e+001
 4.356603587189687e+000	 1.022560601765058e+000	 1.072755688435105e+001
 4.346595373986204e+000	 1.064299607746415e+000	 1.075371757077233e+001
 4.336158759622090e+000	 1.106052535627761e+000	 1.075263373928890e+001
 4.325291871947847e+000	 1.147813235105695e+000	 1.072344453496280e+001
 4.313992948316907e+000	 1.189575488187861e+000	 1.066546495446433e+001
 4.302260337915721e+000	 1.231333011424581e+000	 1.057819699666160e+001
 4.424874157881446e+000	 8.188337358630459e-001	 1.037225136339428e+001
 4.416932081439071e+000	 8.606456809043407e-001	 1.049174919973381e+001
 4.408570190332767e+000	 9.025014554232427e-001	 1.059280133606477e+001
 4.399786087981418e+000	 9.443952457313434e-001	 1.067313686776617e+001
 4.390577475596269e+000	 9.863211601505711e-001	 1.073042019012469e+001
 4.380942154715376e+000	 1.028273230823133e+000	 1.076224915646947e+001
 4.370878029706319e+000	 1.070245415609068e+000	 1.077444455844936e+001
 4.360383110233927e+000	 1.112231600071145e+000	 1.076910709556931e+001
 4.349455513689765e+000	 1.154225599546729e+000	 1.073302296573890e+001
 4.338093467580077e+000	 1.196221161306078e+000	 1.066534706396802e+001
 4.326295311868889e+000	 1.238211966796443e+000	 1.056542446744754e+001
 4.085945572314992e+000	 1.169422413077266e+000	 1.091100299303282e+001
 4.074389528975536e+000	 1.209069876518825e+000	 1.064570547605210e+001
 4.062418795974019e+000	 1.248700735263687e+000	 1.038224504403449e+001
 4.050032136936430e+000	 1.288308848805790e+000	 1.043720356309284e+001
 4.037228430064649e+000	 1.327888023744063e+000	 1.049749621084345e+001
 4.024006670090824e+000	 1.367432016293249e+000	 1.055245920378792e+001
 4.010365970170742e+000	 1.406934534869337e+000	 1.060225228967203e+001
 3.996305563713150e+000	 1.446389242748077e+000	 1.064702796828060e+001
 3.981824806142011e+000	 1.485789760794904e+000	 1.068693130255857e+001
 3.966923176588746e+000	 1.525129670264476e+000	 1.072209975377150e+001
 3.951600279511499e+000	 1.564402515667893e+000	 1.075266304158306e+001
 4.109980546272603e+000	 1.176301368449240e+000	 1.086511107591380e+001
 4.098356526207931e+000	 1.216182052263254e+000	 1.059983020316676e+001
 4.086315377130201e+000	 1.256046033705988e+000	 1.038590967839635e+001
 4.073855855392611e+000	 1.295887136150756e+000	 1.045552727883981e+001
 4.060976832598230e+000	 1.335699129764719e+000	 1.051961735846851e+001
 4.047677297565866e+000	 1.375475734034469e+000	 1.057828710413595e+001
 4.033956358234573e+000	 1.415210620366680e+000	 1.063163563475981e+001
 4.019813243503739e+000	 1.454897414762255e+000	 1.067975383603300e+001
 4.005247305005702e+000	 1.494529700562308e+000	 1.072272422062127e+001
 3.990258018807951e+000	 1.534101021264173e+000	 1.076062081475589e+001
 3.974844987041911e+000	 1.573604883405484e+000	 1.079350907206266e+001
 4.134015520229721e+000	 1.183180323821201e+000	 1.081941671668624e+001
 4.122323523439744e+000	 1.223294228007851e+000	 1.055435929066898e+001
 4.110211958285729e+000	 1.263391332148599e+000	 1.040226943771899e+001
 4.097679573848086e+000	 1.303465423496135e+000	 1.047454596695614e+001
 4.084725235131073e+000	 1.343510235785849e+000	 1.054126514546945e+001
 4.071347925040157e+000	 1.383519451776188e+000	 1.060247502552496e+001
 4.057546746297664e+000	 1.423486705864506e+000	 1.065821455993652e+001
 4.043320923293615e+000	 1.463405586776860e+000	 1.070851348309468e+001
 4.028669803868731e+000	 1.503269640330041e+000	 1.075339221986605e+001
 4.013592861026560e+000	 1.543072372264059e+000	 1.079286182324178e+001
 3.998089694571819e+000	 1.582807251143084e+000	 1.082692394154147e+001
 4.158050494186345e+000	 1.190059279193150e+000	 1.077478980152690e+001
 4.146290520670970e+000	 1.230406403752616e+000	 1.051020687009000e+001
 4.134108539440599e+000	 1.270736630591519e+000	 1.042050551475120e+001
 4.121503292302855e+000	 1.311043710841926e+000	 1.049429142943090e+001
 4.108473637663178e+000	 1.351321341807455e+000	 1.056249148636210e+001
 4.095018552513700e+000	 1.391563169518405e+000	 1.062509505677863e+001
 4.081137134360011e+000	 1.431762791362815e+000	 1.068208138123074e+001
 4.066828603082779e+000	 1.471913758791889e+000	 1.073341949656425e+001
 4.052092302731094e+000	 1.512009580098101e+000	 1.077906819315218e+001
 4.036927703244575e+000	 1.552043723264134e+000	 1.081897600322913e+001
 4.021334402101221e+000	 1.592009618880696e+000	 1.085308122109970e+001
 4.182085468142476e+000	 1.196938234565087e+000	 1.073210053286507e+001
 4.170257517901614e+000	 1.237518579497549e+000	 1.046828693357652e+001
 4.158005120594816e+000	 1.278081929034749e+000	 1.044062907328030e+001
 4.145327010756917e+000	 1.318621998188129e+000	 1.051479441429222e+001
 4.132222040194549e+000	 1.359132447829537e+000	 1.058334678314772e+001
 4.118689179986494e+000	 1.399606887261122e+000	 1.064621731506998e+001
 4.104727522421620e+000	 1.440038876861605e+000	 1.070332598350125e+001
 4.090336282871229e+000	 1.480421930807344e+000	 1.075458157266957e+001
 4.075514801592792e+000	 1.520749519866489e+000	 1.079988168278944e+001
 4.060262545461995e+000	 1.561015074264399e+000	 1.083911276871770e+001
 4.044579109630118e+000	 1.601211986618317e+000	 1.087215021280254e+001
 4.206120442098111e+000	 1.203817189937011e+000	 1.069221942034694e+001
 4.194224515131673e+000	 1.244630755242650e+000	 1.042951333787306e+001
 4.181901701748377e+000	 1.285427227478289e+000	 1.046265069794140e+001
 4.169150729210273e+000	 1.326200285534745e+000	 1.053608464572065e+001
 4.155970442725177e+000	 1.366943553852094e+000	 1.060387996852772e+001
 4.142359807458537e+000	 1.407650605004338e+000	 1.066591000225431e+001
 4.128317910482487e+000	 1.448314962360878e+000	 1.072203588989889e+001
 4.113843962658969e+000	 1.488930102823224e+000	 1.077210659936410e+001
 4.098937300453828e+000	 1.529489459635205e+000	 1.081595897626819e+001
 4.083597387678821e+000	 1.569986425264854e+000	 1.085341783256432e+001
 4.067823817158510e+000	 1.610414354355949e+000	 1.088429607167199e+001
 4.230155416053255e+000	 1.210696145308922e+000	 1.065601727210779e+001
 4.218191512361147e+000	 1.251742930987919e+000	 1.040947800486041e+001
 4.205798282901285e+000	 1.292772525922139e+000	 1.048658041067049e+001
 4.192974447662923e+000	 1.333778572881773e+000	 1.055819085313561e+001
 4.179718845255071e+000	 1.374754659875128e+000	 1.062413854764514e+001
 4.166030434929832e+000	 1.415694322748053e+000	 1.068423945928157e+001
 4.151908298542612e+000	 1.456591047860634e+000	 1.073829632896062e+001
 4.137351642445993e+000	 1.497438274839530e+000	 1.078609873610735e+001
 4.122359799314200e+000	 1.538229399404250e+000	 1.082742319872577e+001
 4.106932229895052e+000	 1.578957776265498e+000	 1.086203331162895e+001
 4.091068524686397e+000	 1.619616722093591e+000	 1.088967992350068e+001
 4.254190390007903e+000	 1.217575100680821e+000	 1.062436518634005e+001
 4.242158509590039e+000	 1.258855106733357e+000	 1.043825596148635e+001
 4.229694864053536e+000	 1.300117824366298e+000	 1.051242768660000e+001
 4.216798166114867e+000	 1.341356860229214e+000	 1.058114079929608e+001
 4.203467247784223e+000	 1.382565765898636e+000	 1.064416863841115e+001
 4.189701062400376e+000	 1.423738040492267e+000	 1.070127021876434e+001
 4.175498686601996e+000	 1.464867133360872e+000	 1.075219029942911e+001
 4.160859322232307e+000	 1.505946446856262e+000	 1.079665949094109e+001
 4.145782298173908e+000	 1.546969339173621e+000	 1.083439440227859e+001
 4.130267072110688e+000	 1.587929127266332e+000	 1.086509782835648e+001
 4.114313232213778e+000	 1.628819089831244e+000	 1.088845897867184e+001
 4.278225363962058e+000	 1.224454056052707e+000	 1.059813454314569e+001
 4.266125506818345e+000	 1.265967282478963e+000	 1.047001762123154e+001
 4.253591445205132e+000	 1.307463122810768e+000	 1.054020146941840e+001
 4.240621884566103e+000	 1.348935147577067e+000	 1.060496130745386e+001
 4.227215650312640e+000	 1.390376871922621e+000	 1.066401501047222e+001
 4.213371689870171e+000	 1.431781758236980e+000	 1.071706505577384e+001
 4.199089074660639e+000	 1.473143218861593e+000	 1.076379863288740e+001
 4.184367002017906e+000	 1.514454618873418e+000	 1.080388779496725e+001
 4.169204797032951e+000	 1.555709278943321e+000	 1.083698965234287e+001
 4.153601914325729e+000	 1.596900478267356e+000	 1.086274660893455e+001
 4.137557939740653e+000	 1.638021457568906e+000	 1.088078664214272e+001
 4.302260337915721e+000	 1.231333011424581e+000	 1.057819699666160e+001
 4.290092504046069e+000	 1.273079458224736e+000	 1.050475400192942e+001
 4.277488026356076e+000	 1.314808421255548e+000	 1.056991018621502e+001
 4.264445603016635e+000	 1.356513434925334e+000	 1.062967828759697e+001
 4.250964052840319e+000	 1.398187977947081e+000	 1.068372112287118e+001
 4.237042317339218e+000	 1.439825475982193e+000	 1.073168503693324e+001
 4.222679462718540e+000	 1.481419304362795e+000	 1.077320005429406e+001
 4.207874681802794e+000	 1.522962790891000e+000	 1.080788007432962e+001
 4.192627295891330e+000	 1.564449218713350e+000	 1.083532311106203e+001
 4.176936756540174e+000	 1.605871829268569e+000	 1.085511157816100e+001
 4.160802647267024e+000	 1.647223825306579e+000	 1.086681261974149e+001
 4.326295311868889e+000	 1.238211966796443e+000	 1.056542446744754e+001
 4.314059501273209e+000	 1.280191633970678e+000	 1.054245600399066e+001
 4.301384607506363e+000	 1.322153719700637e+000	 1.060156176182999e+001
 4.288269321466461e+000	 1.364091722274012e+000	 1.065531676181787e+001
 4.274712455367262e+000	 1.405999083972017e+000	 1.070332916045282e+001
 4.260712944807515e+000	 1.447869193727904e+000	 1.074518956787455e+001
 4.246269850775702e+000	 1.489695389864481e+000	 1.078047124050061e+001
 4.231382361586969e+000	 1.531470962909008e+000	 1.080873031979591e+001
 4.216049794749047e+000	 1.573189158483706e+000	 1.082950611795323e+001
 4.200271598754028e+000	 1.614843180269973e+000	 1.084232145114921e+001
 4.184047354792891e+000	 1.656426193044263e+000	 1.084668302092073e+001
 3.951600279511499e+000	 1.564402515667893e+000	 1.075266304158306e+001
 3.935855846239047e+000	 1.603601807705202e+000	 1.079580403715612e+001
 3.919689736435062e+000	 1.642721026262243e+000	 1.083309652499210e+001
 3.903101939481164e+000	 1.681753623468193e+000	 1.086371879040596e+001
 3.886092575776805e+000	 1.720693026811101e+000	 1.088683199811100e+001
 3.868661897952027e+000	 1.759532642309954e+000	 1.090158103964015e+001
 3.850810291991064e+000	 1.798265857740103e+000	 1.090709543257015e+001
 3.832538278264387e+000	 1.836886045909252e+000	 1.090249027082017e+001
 3.813846512466861e+000	 1.875386567981046e+000	 1.088961772324597e+001
 3.794735786459811e+000	 1.913760776843248e+000	 1.114261560267182e+001
 3.775207029014879e+000	 1.952002020517314e+000	 1.139706947124719e+001
 3.974844987041911e+000	 1.573604883405484e+000	 1.079350907206266e+001
 3.959007939455936e+000	 1.613034759513854e+000	 1.082182617578983e+001
 3.942746734888186e+000	 1.652384091121428e+000	 1.084395458012673e+001
 3.926061362657818e+000	 1.691646291840493e+000	 1.085913617184144e+001
 3.908951943872515e+000	 1.730814750497264e+000	 1.086659638490332e+001
 3.891418732648381e+000	 1.769882834322603e+000	 1.086554499394677e+001
 3.873462117240142e+000	 1.808843892196424e+000	 1.085517695831366e+001
 3.855082621079272e+000	 1.847691257942943e+000	 1.083467331601526e+001
 3.836280903717666e+000	 1.886418253673829e+000	 1.088195889602003e+001
 3.817057761674656e+000	 1.925018193176184e+000	 1.111465317767511e+001
 3.797414129185245e+000	 1.963484385342178e+000	 1.134923734877273e+001
 3.998089694571819e+000	 1.582807251143084e+000	 1.082692394154147e+001
 3.982160032672422e+000	 1.622467711322332e+000	 1.084182553436224e+001
 3.965803733341005e+000	 1.662047155980281e+000	 1.085020614109828e+001
 3.949020785834266e+000	 1.701538960212334e+000	 1.085137056267912e+001
 3.931811311968122e+000	 1.740936474182872e+000	 1.084460780086402e+001
 3.914175567344729e+000	 1.780233026334631e+000	 1.082919179824309e+001
 3.896113942489314e+000	 1.819421926652086e+000	 1.080438222761938e+001
 3.877626963894351e+000	 1.858496469975969e+000	 1.076942533018289e+001
 3.858715294968766e+000	 1.897449939365970e+000	 1.087347930091846e+001
 3.839379736889895e+000	 1.936275609508532e+000	 1.108718307240463e+001
 3.819621229356107e+000	 1.974966750166537e+000	 1.130321541692916e+001
 4.021334402101221e+000	 1.592009618880696e+000	 1.085308122109970e+001
 4.005312125888501e+000	 1.631900663130633e+000	 1.085595173096522e+001
 3.988860731793518e+000	 1.671710220838803e+000	 1.085197681832468e+001
 3.971980209010511e+000	 1.711431628583718e+000	 1.084052352100185e+001
 3.954670680063623e+000	 1.751058197867925e+000	 1.082094371720413e+001
 3.936932402041073e+000	 1.790583218346036e+000	 1.079257481254802e+001
 3.918765767738582e+000	 1.829999961107088e+000	 1.075474047529545e+001
 3.900171306709628e+000	 1.869301682008328e+000	 1.070675141928032e+001
 3.881149686220161e+000	 1.908481625057469e+000	 1.086410875271734e+001
 3.861701712105531e+000	 1.947533025840291e+000	 1.106010985012204e+001
 3.841828329527464e+000	 1.986449114990393e+000	 1.125888302943646e+001
 4.044579109630118e+000	 1.601211986618317e+000	 1.087215021280254e+001
 4.028464219104175e+000	 1.641333614938760e+000	 1.086435067484520e+001
 4.011917730245727e+000	 1.681373285696994e+000	 1.084938907558576e+001
 3.994939632186549e+000	 1.721324296954644e+000	 1.082669402225674e+001
 3.977530048159018e+000	 1.761179921552422e+000	 1.079567958804986e+001
 3.959689236737413e+000	 1.800933410356820e+000	 1.075574594664606e+001
 3.941417592987946e+000	 1.840577995561431e+000	 1.070628005381293e+001
 3.922715649525100e+000	 1.880106894040022e+000	 1.067752030082859e+001
 3.903584077471855e+000	 1.919513310748325e+000	 1.085377732176868e+001
 3.884023687321564e+000	 1.958790442171462e+000	 1.103333889916246e+001
 3.864035429699317e+000	 1.997931479813745e+000	 1.121612093459748e+001
 4.067823817158510e+000	 1.610414354355949e+000	 1.088429607167199e+001
 4.051616312319444e+000	 1.650766566746712e+000	 1.086716467237026e+001
 4.034974728697631e+000	 1.691036350554854e+000	 1.084256231992731e+001
 4.017899055362382e+000	 1.731216965325112e+000	 1.080997853304472e+001
 4.000389416254310e+000	 1.771301645236366e+000	 1.076888890807367e+001
 3.982446071433747e+000	 1.811283602366981e+000	 1.071875570152258e+001
 3.964069418237406e+000	 1.851156030015116e+000	 1.065902845851556e+001
 3.945259992340768e+000	 1.890912106071049e+000	 1.068173503783877e+001
 3.926018468723842e+000	 1.930544996438538e+000	 1.084241532669817e+001
 3.906345662537991e+000	 1.970047858502044e+000	 1.100677640936100e+001
 3.886242529871669e+000	 2.009413844636593e+000	 1.117481123545267e+001
 4.091068524686397e+000	 1.619616722093591e+000	 1.088967992350068e+001
 4.074768405534308e+000	 1.660199518554488e+000	 1.086453252938458e+001
 4.058031727149230e+000	 1.700699415412381e+000	 1.083161298850004e+001
 4.040858478538012e+000	 1.741109633695123e+000	 1.079047108239458e+001
 4.023248784349496e+000	 1.781423368919754e+000	 1.074064326816046e+001
 4.005202906130077e+000	 1.821633794376520e+000	 1.068165320938646e+001
 3.986721243486961e+000	 1.861734064468140e+000	 1.061301235196985e+001
 3.967804335156631e+000	 1.901717318101411e+000	 1.068363984327894e+001
 3.948452859976127e+000	 1.941576682128110e+000	 1.082995332735199e+001
 3.928667637754816e+000	 1.981305274832037e+000	 1.098032934928279e+001
 3.908449630044514e+000	 2.020896209458937e+000	 1.113483735129321e+001
 4.114313232213778e+000	 1.628819089831244e+000	 1.088845897867184e+001
 4.097920498748768e+000	 1.669632470362090e+000	 1.085658965009334e+001
 4.081088725600525e+000	 1.710362480269579e+000	 1.081665463245495e+001
 4.063817901713436e+000	 1.751002302064675e+000	 1.076826333062091e+001
 4.046108152444578e+000	 1.791545092602588e+000	 1.071101240918700e+001
 4.027959740826403e+000	 1.831983986385438e+000	 1.064448627233612e+001
 4.009373068736611e+000	 1.872312098920506e+000	 1.056825758748992e+001
 3.990348677972690e+000	 1.912522530131107e+000	 1.068318861165205e+001
 3.970887251228708e+000	 1.952608367817038e+000	 1.081632211798263e+001
 3.950989612972036e+000	 1.992562691161443e+000	 1.095390544422508e+001
 3.930656730217855e+000	 2.032378574280777e+000	 1.109608398047883e+001
 4.137557939740653e+000	 1.638021457568906e+000	 1.088078664214272e+001
 4.121072591962822e+000	 1.679065422169517e+000	 1.084346813261434e+001
 4.104145724051513e+000	 1.720025545126444e+000	 1.079779799801076e+001
 4.086777324888655e+000	 1.760894970433769e+000	 1.074344463586109e+001
 4.068967520539554e+000	 1.801666816284866e+000	 1.068006427398837e+001
 4.050716575522725e+000	 1.842334178393734e+000	 1.060730139972221e+001
 4.032024893986358e+000	 1.882890133372213e+000	 1.056382178725642e+001
 4.012893020788947e+000	 1.923327742160137e+000	 1.068033495787367e+001
 3.993321642481584e+000	 1.963640053505324e+000	 1.080145272066451e+001
 3.973311588189652e+000	 2.003820107490259e+000	 1.092741315496060e+001
 3.952863830391693e+000	 2.043860939102113e+000	 1.105843706450888e+001
 4.160802647267024e+000	 1.647223825306579e+000	 1.086681261974149e+001
 4.144224685176470e+000	 1.688498373976768e+000	 1.082529686132685e+001
 4.127202722502195e+000	 1.729688609982978e+000	 1.077515110480396e+001
 4.109736748063670e+000	 1.770787638802406e+000	 1.071610211838188e+001
 4.091826888634428e+000	 1.811788539966590e+000	 1.064786505758264e+001
 4.073473410219042e+000	 1.852684370401407e+000	 1.057014384425781e+001
 4.054676719236199e+000	 1.893468167823261e+000	 1.056971636334046e+001
 4.035437363605398e+000	 1.934132954188501e+000	 1.067503222508157e+001
 4.015756033734755e+000	 1.974671739192967e+000	 1.078527637893020e+001
 3.995633563407664e+000	 2.015077523818487e+000	 1.090076165719363e+001
 3.975070930566027e+000	 2.055343303922946e+000	 1.102178375329775e+001
 4.184047354792891e+000	 1.656426193044263e+000	 1.084668302092073e+001
 4.167376778389714e+000	 1.697931325783844e+000	 1.080220159614212e+001
 4.150259720952576e+000	 1.739351674839182e+000	 1.074881932162721e+001
 4.132696171238480e+000	 1.780680307170585e+000	 1.068632072274246e+001
 4.114686256729197e+000	 1.821910263647759e+000	 1.061447925572130e+001
 4.096230244915354e+000	 1.863034562408459e+000	 1.053305763692512e+001
 4.077328544486139e+000	 1.904046202273650e+000	 1.057200056082880e+001
 4.057981706422046e+000	 1.944938166216198e+000	 1.066723349218520e+001
 4.038190424988224e+000	 1.985703424879969e+000	 1.076772455161879e+001
 4.017955538626072e+000	 2.026334940146126e+000	 1.087386082170076e+001
 3.997278030740859e+000	 2.066825668743275e+000	 1.098601237160785e+001
 3.775207029014879e+000	 1.952002020517314e+000	 1.139706947124719e+001
 3.755261306457614e+000	 1.990103645605905e+000	 1.128415111765932e+001
 3.734899823209242e+000	 2.028059000775460e+000	 1.113892151299891e+001
 3.714123922224505e+000	 2.065861440270376e+000	 1.099017755354709e+001
 3.692935085323902e+000	 2.103504327454526e+000	 1.085387685204432e+001
 3.671334933419178e+000	 2.140981038377075e+000	 1.073064348937713e+001
 3.649325226630563e+000	 2.178284965358760e+000	 1.062106685991723e+001
 3.626907864294587e+000	 2.215409520594833e+000	 1.052569981334630e+001
 3.604084884861436e+000	 2.252348139770831e+000	 1.044505686802895e+001
 3.580858465680938e+000	 2.289094285687272e+000	 1.037961250171603e+001
 3.557230922676468e+000	 2.325641451889307e+000	 1.032979952519812e+001
 3.797414129185245e+000	 1.963484385342178e+000	 1.134923734877273e+001
 3.777351078847552e+000	 2.001810137636888e+000	 1.123099584216033e+001
 3.756869822167703e+000	 2.039988759601311e+000	 1.112522577177095e+001
 3.735971710000170e+000	 2.078013566387165e+000	 1.099292911069655e+001
 3.714658232882046e+000	 2.115877882319285e+000	 1.085507726330814e+001
 3.692931021259852e+000	 2.153575044482422e+000	 1.073193761315394e+001
 3.670791845607464e+000	 2.191098406328612e+000	 1.062414817558482e+001
 3.648242616433983e+000	 2.228441341301310e+000	 1.053230862595277e+001
 3.625285384180478e+000	 2.265597246472443e+000	 1.045697843154036e+001
 3.601922339004716e+000	 2.302559546188415e+000	 1.039867506331642e+001
 3.578155810453152e+000	 2.339321695721108e+000	 1.035787229333177e+001
 3.819621229356107e+000	 1.974966750166537e+000	 1.130321541692916e+001
 3.799440851238083e+000	 2.013516629667467e+000	 1.118010873560544e+001
 3.778839821126840e+000	 2.051918518426859e+000	 1.107082483403403e+001
 3.757819497776587e+000	 2.090165692503750e+000	 1.097582368554500e+001
 3.736381380441008e+000	 2.128251437183941e+000	 1.085841259017583e+001
 3.714527109101399e+000	 2.166169050587767e+000	 1.073563622238749e+001
 3.692258464585284e+000	 2.203911847298560e+000	 1.062990299641022e+001
 3.669577368574334e+000	 2.241473162007985e+000	 1.054185943835731e+001
 3.646485883500498e+000	 2.278846353174354e+000	 1.047210998002436e+001
 3.622986212329488e+000	 2.316024806689955e+000	 1.042121509138429e+001
 3.599080698230837e+000	 2.353001939553409e+000	 1.038968950143227e+001
 3.841828329527464e+000	 1.986449114990393e+000	 1.125888302943646e+001
 3.821530623629203e+000	 2.025223121697641e+000	 1.113135897968207e+001
 3.800809820086653e+000	 2.063848277252102e+000	 1.101900273634470e+001
 3.779667285553756e+000	 2.102317818620132e+000	 1.092231216685197e+001
 3.758104528000788e+000	 2.140624992048494e+000	 1.084176186648626e+001
 3.736123196943818e+000	 2.178763056693108e+000	 1.074137362690536e+001
 3.713725083564023e+000	 2.216725288268604e+000	 1.063795398509281e+001
 3.690912120715638e+000	 2.254504982714857e+000	 1.055396362251486e+001
 3.667686382821499e+000	 2.292095459876561e+000	 1.049005195857454e+001
 3.644050085655257e+000	 2.329490067191892e+000	 1.044682247528607e+001
 3.620005586009521e+000	 2.366682183386207e+000	 1.042483086126669e+001
 3.864035429699317e+000	 1.997931479813745e+000	 1.121612093459748e+001
 3.843620396020914e+000	 2.036929613727413e+000	 1.108461737546282e+001
 3.822779819047143e+000	 2.075778036077042e+000	 1.096962056879315e+001
 3.801515073331677e+000	 2.114469944736309e+000	 1.087166601638575e+001
 3.779827675561385e+000	 2.152998546912943e+000	 1.079126476630857e+001
 3.757719284787112e+000	 2.191357062798446e+000	 1.072890263021967e+001
 3.735191702543681e+000	 2.229538729238746e+000	 1.064792647708444e+001
 3.712246872857897e+000	 2.267536803421926e+000	 1.056823541884590e+001
 3.688886882143479e+000	 2.305344566579065e+000	 1.051040787121017e+001
 3.665113958982019e+000	 2.342955327694226e+000	 1.047509034841232e+001
 3.640930473789205e+000	 2.380362427219501e+000	 1.046287950825710e+001
 3.886242529871669e+000	 2.009413844636593e+000	 1.117481123545267e+001
 3.865710168413219e+000	 2.048636105756780e+000	 1.103975629713732e+001
 3.844749818008309e+000	 2.087707794901678e+000	 1.092254120854845e+001
 3.823362861110349e+000	 2.126622070852284e+000	 1.082373885141955e+001
 3.801550823122800e+000	 2.165372101777289e+000	 1.074389647050892e+001
 3.779315372631277e+000	 2.203951068903780e+000	 1.068353484113970e+001
 3.756658321524258e+000	 2.242352170208985e+000	 1.064314748258898e+001
 3.733581625001110e+000	 2.280568624129191e+000	 1.058429185428020e+001
 3.710087381466440e+000	 2.318593673281867e+000	 1.053278419347827e+001
 3.686177832309777e+000	 2.356420588196958e+000	 1.050561499549134e+001
 3.661855361569890e+000	 2.394042671053293e+000	 1.050342190366183e+001
 3.908449630044514e+000	 2.020896209458937e+000	 1.113483735129321e+001
 3.887799940806113e+000	 2.060342597785744e+000	 1.099664964732145e+001
 3.866719816970153e+000	 2.099637553726011e+000	 1.087762926908930e+001
 3.845210648889776e+000	 2.138774196968054e+000	 1.077838622901121e+001
 3.823273970685031e+000	 2.177745656641532e+000	 1.069950371748619e+001
 3.800911460476317e+000	 2.216545075009111e+000	 1.064153722085669e+001
 3.778124940505752e+000	 2.255165611179321e+000	 1.060501368665385e+001
 3.754916377145277e+000	 2.293600444836655e+000	 1.059043073831858e+001
 3.731287880790379e+000	 2.331842779984966e+000	 1.055679028803524e+001
 3.707241705638529e+000	 2.369885848700087e+000	 1.053799576306252e+001
 3.682780249351574e+000	 2.407722914887582e+000	 1.054604774009147e+001
 3.930656730217855e+000	 2.032378574280777e+000	 1.109608398047883e+001
 3.909889713199599e+000	 2.072049089814303e+000	 1.095517281388138e+001
 3.888689815932672e+000	 2.111567312550039e+000	 1.083475105115571e+001
 3.867058436669952e+000	 2.150926323083621e+000	 1.073546559120708e+001
 3.844997118248081e+000	 2.190119211505671e+000	 1.065793532396000e+001
 3.822507548322229e+000	 2.229139081114439e+000	 1.060275019892882e+001
 3.799591559488166e+000	 2.267979052149753e+000	 1.057047034252046e+001
 3.776251129290399e+000	 2.306632265544315e+000	 1.056162522636004e+001
 3.752488380115298e+000	 2.345091886688362e+000	 1.057671288881292e+001
 3.728305578968275e+000	 2.383351109203613e+000	 1.057183497298453e+001
 3.703705137134258e+000	 2.421403158722369e+000	 1.059034985022774e+001
 3.952863830391693e+000	 2.043860939102113e+000	 1.105843706450888e+001
 3.931979485593676e+000	 2.083755581842459e+000	 1.091520262821315e+001
 3.910659814895868e+000	 2.123497071373763e+000	 1.079377449535403e+001
 3.888906224450881e+000	 2.163078449198984e+000	 1.069483621209285e+001
 3.866720265811948e+000	 2.202492766369706e+000	 1.061904212659094e+001
 3.844103636169014e+000	 2.241733087219764e+000	 1.056701640837940e+001
 3.821058178471498e+000	 2.280792493120282e+000	 1.053935211791558e+001
 3.797585881436475e+000	 2.319664086252172e+000	 1.053661032871804e+001
 3.773688879441198e+000	 2.358340993392056e+000	 1.055931930435199e+001
 3.749369452299018e+000	 2.396816369707536e+000	 1.060673783885888e+001
 3.724630024917941e+000	 2.435083402557653e+000	 1.063592411861927e+001
 3.975070930566027e+000	 2.055343303922946e+000	 1.102178375329775e+001
 3.954069257988343e+000	 2.095462073870210e+000	 1.087661732492050e+001
 3.932629813859740e+000	 2.135426830197184e+000	 1.075456913635067e+001
 3.910754012232562e+000	 2.175230575314143e+000	 1.065635914661932e+001
 3.888443413376632e+000	 2.214866321233638e+000	 1.058267692555759e+001
 3.865699724016673e+000	 2.254327093325085e+000	 1.053418062414747e+001
 3.842524797455749e+000	 2.293605934090909e+000	 1.051149599652334e+001
 3.818920633583504e+000	 2.332695906960226e+000	 1.051521547611600e+001
 3.794889378768076e+000	 2.371590100096046e+000	 1.054589730830993e+001
 3.770433325630755e+000	 2.410281630211857e+000	 1.060406474185230e+001
 3.745554912702627e+000	 2.448763646393434e+000	 1.068236939643390e+001
 3.997278030740859e+000	 2.066825668743275e+000	 1.098601237160785e+001
 3.976159030383603e+000	 2.107168565897559e+000	 1.083929650283698e+001
 3.954599812824289e+000	 2.147356589020302e+000	 1.071700605859256e+001
 3.932601800014995e+000	 2.187382701429100e+000	 1.061989718113392e+001
 3.910166560942136e+000	 2.227239876097467e+000	 1.054869443001437e+001
 3.887295811865205e+000	 2.266921099430403e+000	 1.050408970359023e+001
 3.863991416440920e+000	 2.306419375061632e+000	 1.048674121365315e+001
 3.840255385731489e+000	 2.345727727668478e+000	 1.049727251577845e+001
 3.816089878095935e+000	 2.384839206800335e+000	 1.053627159785771e+001
 3.791497198963488e+000	 2.423746890716576e+000	 1.060429002914985e+001
 3.766479800488311e+000	 2.462443890229713e+000	 1.070184217204155e+001
 3.557230922676468e+000	 2.325641451889307e+000	 1.032979952519812e+001
 3.533204709905683e+000	 2.361983166298250e+000	 1.048639542977705e+001
 3.508782419009181e+000	 2.398112994838169e+000	 1.067068279395772e+001
 3.483966778545826e+000	 2.434024545055289e+000	 1.088354504990726e+001
 3.458760653213694e+000	 2.469711469727998e+000	 1.112580951338819e+001
 3.433167042958189e+000	 2.505167470460532e+000	 1.132627768103681e+001
 3.407189081967098e+000	 2.540386301257156e+000	 1.113357335427332e+001
 3.380830037553034e+000	 2.575361772072695e+000	 1.096652247872425e+001
 3.354093308923843e+000	 2.610087752335312e+000	 1.082638684747307e+001
 3.326982425841761e+000	 2.644558174437430e+000	 1.071444591887703e+001
 3.299501047172259e+000	 2.678767037190700e+000	 1.063199555423332e+001
 3.578155810453152e+000	 2.339321695721108e+000	 1.035787229333177e+001
 3.553988267019065e+000	 2.375877184920824e+000	 1.053484087039183e+001
 3.529422315587982e+000	 2.412219541864152e+000	 1.073954398817905e+001
 3.504460700769116e+000	 2.448342336494647e+000	 1.097282498193910e+001
 3.479106304111708e+000	 2.484239184254102e+000	 1.123547016378279e+001
 3.453362143207897e+000	 2.519903749697368e+000	 1.125327167692451e+001
 3.427231370681873e+000	 2.555329750087556e+000	 1.107922307087050e+001
 3.400717273065733e+000	 2.590510958967459e+000	 1.092984618286375e+001
 3.373823269562664e+000	 2.625441209703058e+000	 1.080636135361440e+001
 3.346552910698207e+000	 2.660114398994963e+000	 1.071000822384462e+001
 3.318909876860575e+000	 2.694524490353718e+000	 1.064204452100465e+001
 3.599080698230837e+000	 2.353001939553409e+000	 1.038968950143227e+001
 3.574771824133441e+000	 2.389771203543980e+000	 1.058597271521095e+001
 3.550062212167763e+000	 2.426326088890771e+000	 1.081005363717802e+001
 3.524954622993362e+000	 2.462660127934669e+000	 1.106273615095916e+001
 3.499451955010642e+000	 2.498766898780868e+000	 1.134476618871092e+001
 3.473557243458482e+000	 2.534640028934829e+000	 1.118272750206335e+001
 3.447273659397470e+000	 2.570273198918516e+000	 1.102654103585846e+001
 3.420604508579188e+000	 2.605660145862692e+000	 1.089404043391024e+001
 3.393553230202165e+000	 2.640794667071146e+000	 1.078640500839616e+001
 3.366123395555250e+000	 2.675670623552684e+000	 1.070483502285896e+001
 3.338318706549391e+000	 2.710281943516740e+000	 1.065055052765491e+001
 3.620005586009521e+000	 2.366682183386207e+000	 1.042483086126669e+001
 3.595555381248813e+000	 2.403665222167719e+000	 1.063938385123225e+001
 3.570702108748524e+000	 2.440432635918028e+000	 1.088181783666908e+001
 3.545448545218561e+000	 2.476977919375354e+000	 1.115289788923504e+001
 3.519797605910497e+000	 2.513294613308291e+000	 1.127554125972151e+001
 3.493752343709943e+000	 2.549376308172915e+000	 1.111485859498776e+001
 3.467315948113888e+000	 2.585216647750037e+000	 1.097575644038151e+001
 3.440491744093401e+000	 2.620809332758390e+000	 1.085934986453997e+001
 3.413283190842348e+000	 2.656148124439577e+000	 1.076677756717300e+001
 3.385693880412889e+000	 2.691226848110592e+000	 1.069920086757845e+001
 3.357727536238708e+000	 2.726039396679764e+000	 1.065780258851262e+001
 3.640930473789205e+000	 2.380362427219501e+000	 1.046287950825710e+001
 3.616338938365180e+000	 2.417559240792040e+000	 1.069467023516923e+001
 3.591342005330266e+000	 2.454539182945925e+000	 1.095444540069817e+001
 3.565942467444719e+000	 2.491295710816703e+000	 1.124293189871136e+001
 3.540143256811271e+000	 2.527822327836374e+000	 1.119328765683381e+001
 3.513947443962280e+000	 2.564112587411626e+000	 1.104988007548379e+001
 3.487358236831126e+000	 2.600160096582118e+000	 1.092709981740877e+001
 3.460378979608368e+000	 2.635958519654555e+000	 1.082602011324481e+001
 3.433013151483213e+000	 2.671501581808350e+000	 1.074773945869207e+001
 3.405264365271124e+000	 2.706783072668689e+000	 1.069338065438354e+001
 3.377136365928527e+000	 2.741796849842790e+000	 1.066408973787538e+001
 3.661855361569890e+000	 2.394042671053293e+000	 1.050342190366183e+001
 3.637122495482541e+000	 2.431453259416944e+000	 1.075143080574494e+001
 3.611981901912987e+000	 2.468645729974458e+000	 1.102754778397596e+001
 3.586436389671830e+000	 2.505613502258716e+000	 1.126042214919065e+001
 3.560488907712968e+000	 2.542350042365117e+000	 1.111488309904581e+001
 3.534142544215492e+000	 2.578848866650963e+000	 1.098800869655340e+001
 3.507400525549186e+000	 2.615103545414763e+000	 1.088080300339628e+001
 3.480266215124092e+000	 2.651107706551187e+000	 1.079429779559465e+001
 3.452743112124757e+000	 2.686855039177465e+000	 1.072955176585323e+001
 3.424834850129956e+000	 2.722339297226972e+000	 1.068764961452759e+001
 3.396545195618846e+000	 2.757554303005819e+000	 1.066970102943932e+001
 3.682780249351574e+000	 2.407722914887582e+000	 1.054604774009147e+001
 3.657906052600898e+000	 2.445347278042430e+000	 1.080926739897578e+001
 3.632621798496690e+000	 2.482752277003630e+000	 1.110073900685911e+001
 3.606930311899896e+000	 2.519931293701393e+000	 1.116934194821645e+001
 3.580834558615584e+000	 2.556877756894518e+000	 1.104053086949664e+001
 3.554337644469579e+000	 2.593585145890925e+000	 1.092946279801629e+001
 3.527442814268066e+000	 2.630046994247966e+000	 1.083709910125617e+001
 3.500153450640571e+000	 2.666256893448285e+000	 1.076443047647947e+001
 3.472473072766985e+000	 2.702208496546922e+000	 1.071247620712512e+001
 3.444405334989382e+000	 2.737895521785442e+000	 1.068228330462338e+001
 3.415954025309669e+000	 2.773311756168852e+000	 1.067492553574803e+001
 3.703705137134258e+000	 2.421403158722369e+000	 1.059034985022774e+001
 3.678689609720249e+000	 2.459241296668499e+000	 1.086778466632705e+001
 3.653261695081372e+000	 2.496858824033440e+000	 1.117363558287433e+001
 3.627424234128919e+000	 2.534249085144733e+000	 1.108322495889711e+001
 3.601180209519121e+000	 2.571405471424580e+000	 1.097043610760830e+001
 3.574532744724543e+000	 2.608321425131512e+000	 1.087446226168447e+001
 3.547485102987768e+000	 2.644990443081732e+000	 1.079622244458096e+001
 3.520040686157808e+000	 2.681406080345850e+000	 1.073666664329246e+001
 3.492203033409893e+000	 2.717561953916722e+000	 1.069677511859136e+001
 3.463975819849408e+000	 2.753451746344102e+000	 1.067755759745217e+001
 3.435362855000992e+000	 2.789069209331887e+000	 1.068005234766013e+001
 3.724630024917941e+000	 2.435083402557653e+000	 1.063592411861927e+001
 3.699473166840595e+000	 2.473135315295151e+000	 1.092658999562731e+001
 3.673901591667034e+000	 2.510965371063888e+000	 1.111475752925082e+001
 3.647918156358897e+000	 2.548566876588737e+000	 1.100226340760254e+001
 3.621525860423578e+000	 2.585933185955301e+000	 1.090480575694300e+001
 3.594727844980382e+000	 2.623057704372725e+000	 1.082322846804800e+001
 3.567527391708289e+000	 2.659933891916058e+000	 1.075840856307407e+001
 3.539927921675801e+000	 2.696555267243883e+000	 1.071125568001691e+001
 3.511932994053483e+000	 2.732915411286863e+000	 1.068271143660169e+001
 3.483546304710028e+000	 2.769007970902949e+000	 1.067374867308262e+001
 3.454771684692816e+000	 2.804826662494924e+000	 1.068537057383479e+001
 3.745554912702627e+000	 2.448763646393434e+000	 1.068236939643390e+001
 3.720256723961937e+000	 2.487029333922384e+000	 1.098529343463370e+001
 3.694541488253677e+000	 2.525071918094974e+000	 1.102359282162864e+001
 3.668412078589830e+000	 2.562884668033404e+000	 1.092665157404328e+001
 3.641871511328957e+000	 2.600460900486682e+000	 1.084384851480819e+001
 3.614922945237098e+000	 2.637793983614563e+000	 1.077598425441233e+001
 3.587569680429633e+000	 2.674877340750946e+000	 1.072389414913872e+001
 3.559815157194549e+000	 2.711704454142382e+000	 1.068844784218192e+001
 3.531662954697752e+000	 2.748268868657348e+000	 1.067054868100481e+001
 3.503116789571245e+000	 2.784564195461981e+000	 1.067113301028730e+001
 3.474180514385142e+000	 2.820584115657964e+000	 1.069116934023455e+001
 3.766479800488311e+000	 2.462443890229713e+000	 1.070184217204155e+001
 3.741040281084275e+000	 2.500923352550201e+000	 1.103318385893523e+001
 3.715181384841300e+000	 2.539178465126699e+000	 1.093862908717531e+001
 3.688906000821719e+000	 2.577202459478736e+000	 1.085658573423320e+001
 3.662217162235255e+000	 2.614988615018722e+000	 1.078777478354134e+001
 3.635118045494690e+000	 2.652530262857026e+000	 1.073295387443133e+001
 3.607611969151798e+000	 2.689820789586394e+000	 1.069291702558082e+001
 3.579702392714054e+000	 2.726853641041348e+000	 1.066849423265270e+001
 3.551392915342705e+000	 2.763622326028175e+000	 1.066055093894011e+001
 3.522687274433059e+000	 2.800120420021205e+000	 1.066998737824533e+001
 3.493589344077969e+000	 2.836341568821007e+000	 1.069773778964462e+001
 3.299501047172259e+000	 2.678767037190700e+000	 1.063199555423332e+001
 3.271652959324307e+000	 2.712708409240331e+000	 1.064472836658390e+001
 3.243442074581433e+000	 2.746376432436798e+000	 1.065785453709965e+001
 3.214872429326423e+000	 2.779765325159458e+000	 1.067181405020999e+001
 3.185948182162389e+000	 2.812869385587000e+000	 1.068708508168302e+001
 3.156673611930151e+000	 2.845682994912844e+000	 1.070418328824166e+001
 3.127053115624468e+000	 2.878200620501057e+000	 1.072366097875604e+001
 3.097091206211275e+000	 2.910416818979073e+000	 1.075931232472237e+001
 3.066792510348125e+000	 2.942326239263588e+000	 1.079383668912981e+001
 3.036161766010286e+000	 2.973923625516154e+000	 1.082844173405866e+001
 3.005203820025000e+000	 3.005203820025000e+000	 1.086561656043793e+001
 3.318909876860575e+000	 2.694524490353718e+000	 1.064204452100465e+001
 3.290897976731710e+000	 2.728665517534071e+000	 1.065294889437451e+001
 3.262521145608556e+000	 2.762531587926649e+000	 1.066391433019527e+001
 3.233783443617327e+000	 2.796116885901280e+000	 1.067539922962171e+001
 3.204689053823507e+000	 2.829415676096524e+000	 1.068790143014210e+001
 3.175242280237567e+000	 2.862422306653998e+000	 1.070195747266119e+001
 3.145447545718942e+000	 2.895131212392854e+000	 1.071814174722315e+001
 3.115309389780423e+000	 2.927536917920682e+000	 1.074129740163697e+001
 3.084832466295199e+000	 2.959634040677222e+000	 1.077294770785317e+001
 3.054021541108976e+000	 2.991417293907330e+000	 1.080420799924536e+001
 3.022881489559751e+000	 3.022881489559750e+000	 1.083763653482548e+001
 3.338318706549391e+000	 2.710281943516740e+000	 1.065055052765491e+001
 3.310142994139513e+000	 2.744622625827627e+000	 1.065978004514070e+001
 3.281600216635980e+000	 2.778686743416163e+000	 1.066872727073798e+001
 3.252694457908432e+000	 2.812468446642638e+000	 1.067786905388970e+001
 3.223429925484727e+000	 2.845961966605489e+000	 1.068772294530364e+001
 3.193810948544984e+000	 2.879161618394527e+000	 1.069884644142855e+001
 3.163841975813316e+000	 2.912061804283989e+000	 1.071183610459265e+001
 3.133527573349372e+000	 2.944657016861628e+000	 1.072732656033647e+001
 3.102872422241972e+000	 2.976941842090219e+000	 1.075261922510354e+001
 3.071881316207268e+000	 3.008910962297920e+000	 1.078041496668936e+001
 3.040559159093999e+000	 3.040559159093999e+000	 1.080995862716898e+001
 3.357727536238708e+000	 2.726039396679764e+000	 1.065780258851262e+001
 3.329388011547718e+000	 2.760579734121002e+000	 1.066550824952113e+001
 3.300679287663705e+000	 2.794841898905339e+000	 1.067257701822497e+001
 3.271605472199738e+000	 2.828820007383533e+000	 1.067950422566980e+001
 3.242170797146046e+000	 2.862508257113895e+000	 1.068682718923169e+001
 3.212379616852402e+000	 2.895900930134435e+000	 1.069512443441068e+001
 3.182236405907591e+000	 2.928992396174468e+000	 1.070501478926842e+001
 3.151745756918121e+000	 2.961777115801909e+000	 1.071715635308251e+001
 3.120912378188446e+000	 2.994249643502574e+000	 1.073329967996238e+001
 3.089741091305159e+000	 3.026404630687927e+000	 1.075750368348315e+001
 3.058236828627750e+000	 3.058236828627750e+000	 1.078301622387027e+001
 3.377136365928527e+000	 2.741796849842790e+000	 1.066408973787538e+001
 3.348633028956324e+000	 2.776536842414193e+000	 1.067042002149058e+001
 3.319758358691729e+000	 2.810997054394176e+000	 1.067574737942159e+001
 3.290516486491244e+000	 2.845171568123966e+000	 1.068058565935309e+001
 3.260911668807467e+000	 2.879054547621742e+000	 1.068549200069720e+001
 3.230948285159820e+000	 2.912640241873717e+000	 1.069106603362719e+001
 3.200630836001766e+000	 2.945922988064285e+000	 1.069794894769532e+001
 3.169963940486670e+000	 2.978897214741524e+000	 1.070682243164846e+001
 3.138952334134619e+000	 3.011557444914291e+000	 1.071840748648626e+001
 3.107600866402650e+000	 3.043898299077347e+000	 1.073591580476544e+001
 3.075914498161000e+000	 3.075914498161000e+000	 1.075724338671920e+001
 3.396545195618846e+000	 2.757554303005819e+000	 1.066970102943932e+001
 3.367878046365330e+000	 2.792493950707203e+000	 1.067480195597891e+001
 3.338837429720058e+000	 2.827152209882677e+000	 1.067852230415369e+001
 3.309427500782953e+000	 2.861523128863934e+000	 1.068139447501640e+001
 3.279652540468988e+000	 2.895600838129032e+000	 1.068399548727227e+001
 3.249516953467239e+000	 2.929379553612376e+000	 1.068694615347442e+001
 3.219025266095842e+000	 2.962853579953444e+000	 1.069091012270075e+001
 3.188182124055020e+000	 2.996017313680476e+000	 1.069659279136815e+001
 3.156992290080493e+000	 3.028865246325366e+000	 1.070474008427968e+001
 3.125460641499740e+000	 3.061391967466183e+000	 1.071613710843436e+001
 3.093592167693749e+000	 3.093592167693749e+000	 1.073307483359678e+001
 3.415954025309669e+000	 2.773311756168852e+000	 1.067492553574803e+001
 3.387123063774741e+000	 2.808451059000032e+000	 1.067894072657118e+001
 3.357916500748686e+000	 2.843307365370840e+000	 1.068118588124345e+001
 3.328338515074862e+000	 2.877874689603440e+000	 1.068221199257883e+001
 3.298393412130610e+000	 2.912147128635764e+000	 1.068261601769369e+001
 3.268085621774659e+000	 2.946118865350410e+000	 1.068304003128304e+001
 3.237419696189817e+000	 2.979784171841943e+000	 1.068417024223383e+001
 3.206400307623169e+000	 3.013137412618762e+000	 1.068673587527272e+001
 3.175032246026067e+000	 3.046173047735802e+000	 1.069150791979519e+001
 3.143320416596433e+000	 3.078885635854434e+000	 1.069929774846640e+001
 3.111269837226000e+000	 3.111269837226000e+000	 1.071094591983622e+001
 3.435362855000992e+000	 2.789069209331887e+000	 1.068005234766013e+001
 3.406368081184549e+000	 2.824408167292675e+000	 1.068312308328583e+001
 3.376995571777615e+000	 2.859462520858666e+000	 1.068402233458287e+001
 3.347249529366973e+000	 2.894226250342483e+000	 1.068331972615666e+001
 3.317134283792334e+000	 2.928693419141936e+000	 1.068163221448541e+001
 3.286654290082080e+000	 2.962858177087821e+000	 1.067962321819550e+001
 3.255814126283694e+000	 2.996714763729783e+000	 1.067800160848625e+001
 3.224618491191120e+000	 3.030257511556385e+000	 1.067752056144381e+001
 3.193072201971343e+000	 3.063480849145600e+000	 1.067897627444280e+001
 3.161180191692723e+000	 3.096379304242100e+000	 1.068320654928684e+001
 3.128947506757750e+000	 3.128947506757750e+000	 1.069096298115784e+001
 3.454771684692816e+000	 2.804826662494924e+000	 1.068537057383479e+001
 3.425613098594761e+000	 2.840365275585138e+000	 1.068763585042756e+001
 3.396074642806846e+000	 2.875617676346153e+000	 1.068731601933973e+001
 3.366160543659284e+000	 2.910577811081063e+000	 1.068499937860821e+001
 3.335875155454158e+000	 2.945239709647550e+000	 1.068132294682967e+001
 3.305222958389500e+000	 2.979597488824607e+000	 1.067697157035123e+001
 3.274208556377471e+000	 3.013645355616964e+000	 1.067267688737985e+001
 3.242836674758870e+000	 3.047377610493343e+000	 1.066921615079306e+001
 3.211112157916316e+000	 3.080788650554756e+000	 1.066741091190069e+001
 3.179039966788615e+000	 3.113872972629181e+000	 1.066812556787088e+001
 3.146625176289000e+000	 3.146625176289000e+000	 1.067677995516331e+001
 3.474180514385142e+000	 2.820584115657964e+000	 1.069116934023455e+001
 3.444858116005373e+000	 2.856322383877417e+000	 1.069276592451239e+001
 3.415153713836379e+000	 2.891772831833303e+000	 1.069135141829061e+001
 3.385071557951797e+000	 2.926929371819181e+000	 1.068753283626180e+001
 3.354616027116084e+000	 2.961786000152606e+000	 1.068196732367715e+001
 3.323791626696921e+000	 2.996336800560770e+000	 1.067536124036700e+001
 3.292602986471148e+000	 3.030575947503486e+000	 1.066846909840653e+001
 3.261054858326421e+000	 3.064497709429636e+000	 1.066209235525115e+001
 3.229152113860990e+000	 3.098096451963273e+000	 1.065707806464394e+001
 3.196899741884107e+000	 3.131366641015677e+000	 1.065947098653367e+001
 3.164302845819750e+000	 3.164302845819750e+000	 1.067199206220218e+001
 3.493589344077969e+000	 2.836341568821007e+000	 1.069773778964462e+001
 3.464103133416387e+000	 2.872279492169516e+000	 1.069880027226175e+001
 3.434232784866212e+000	 2.907927987320115e+000	 1.069641313827625e+001
 3.403982572244511e+000	 2.943280932556834e+000	 1.069120216381939e+001
 3.373356898778110e+000	 2.978332290657103e+000	 1.068384468708669e+001
 3.342360295004344e+000	 3.013076112296310e+000	 1.067506866910160e+001
 3.310997416564726e+000	 3.047506539389349e+000	 1.066565160480688e+001
 3.279273041893773e+000	 3.081617808365265e+000	 1.065641928635074e+001
 3.247192069805366e+000	 3.115404253371150e+000	 1.064824442092251e+001
 3.214759516979199e+000	 3.148860309401589e+000	 1.066624512418794e+001
 3.181980515350000e+000	 3.181980515350000e+000	 1.067629501984707e+001
 3.005203820025000e+000	 3.005203820025000e+000	 1.086561656043793e+001
 2.973923625516154e+000	 3.036161766010285e+000	 1.080936074984841e+001
 2.942326239263588e+000	 3.066792510348125e+000	 1.078355116922821e+001
 2.910416818979071e+000	 3.097091206211275e+000	 1.079125084118581e+001
 2.878200620501058e+000	 3.127053115624469e+000	 1.082582042210398e+001
 2.845682994912843e+000	 3.156673611930151e+000	 1.074499215623488e+001
 2.812869385587000e+000	 3.185948182162389e+000	 1.066011212408394e+001
 2.779765325159459e+000	 3.214872429326423e+000	 1.057064413726356e+001
 2.746376432436797e+000	 3.243442074581434e+000	 1.047603724993217e+001
 2.712708409240331e+000	 3.271652959324307e+000	 1.037572783064053e+001
 2.678767037190700e+000	 3.299501047172260e+000	 1.026914169668580e+001
 3.022881489559751e+000	 3.022881489559750e+000	 1.083763653482548e+001
 2.991417293907329e+000	 3.054021541108976e+000	 1.078576583446597e+001
 2.959634040677222e+000	 3.084832466295199e+000	 1.076497605126697e+001
 2.927536917920681e+000	 3.115309389780423e+000	 1.077840981121360e+001
 2.895131212392853e+000	 3.145447545718942e+000	 1.074106806334645e+001
 2.862422306653998e+000	 3.175242280237567e+000	 1.066600654699813e+001
 2.829415676096524e+000	 3.204689053823507e+000	 1.058763031874964e+001
 2.796116885901280e+000	 3.233783443617327e+000	 1.050539024757711e+001
 2.762531587926648e+000	 3.262521145608556e+000	 1.041872093592787e+001
 2.728665517534071e+000	 3.290897976731710e+000	 1.032704283602896e+001
 2.694524490353718e+000	 3.318909876860575e+000	 1.022976443157674e+001
 3.040559159093999e+000	 3.040559159093999e+000	 1.080995862716898e+001
 3.008910962297920e+000	 3.071881316207268e+000	 1.076241239074289e+001
 2.976941842090219e+000	 3.102872422241972e+000	 1.074655436412289e+001
 2.944657016861627e+000	 3.133527573349372e+000	 1.073818254181862e+001
 2.912061804283990e+000	 3.163841975813316e+000	 1.067124177958669e+001
 2.879161618394527e+000	 3.193810948544984e+000	 1.060226425122951e+001
 2.845961966605489e+000	 3.223429925484727e+000	 1.053070722402340e+001
 2.812468446642638e+000	 3.252694457908431e+000	 1.045600809364911e+001
 2.778686743416162e+000	 3.281600216635980e+000	 1.037758647098676e+001
 2.744622625827627e+000	 3.310142994139513e+000	 1.029484634376955e+001
 2.710281943516740e+000	 3.338318706549391e+000	 1.020717830651262e+001
 3.058236828627750e+000	 3.058236828627750e+000	 1.078301622387027e+001
 3.026404630687927e+000	 3.089741091305159e+000	 1.073972422152536e+001
 2.994249643502575e+000	 3.120912378188445e+000	 1.072870025477516e+001
 2.961777115801909e+000	 3.151745756918122e+000	 1.067726338155615e+001
 2.928992396174468e+000	 3.182236405907591e+000	 1.061597643207933e+001
 2.895900930134435e+000	 3.212379616852402e+000	 1.055339885913893e+001
 2.862508257113895e+000	 3.242170797146047e+000	 1.048897549491365e+001
 2.828820007383534e+000	 3.271605472199738e+000	 1.042212972905878e+001
 2.794841898905339e+000	 3.300679287663704e+000	 1.035226563868210e+001
 2.760579734121003e+000	 3.329388011547718e+000	 1.027877019622984e+001
 2.726039396679764e+000	 3.357727536238708e+000	 1.020101554856424e+001
 3.075914498161000e+000	 3.075914498161000e+000	 1.075724338671920e+001
 3.043898299077347e+000	 3.107600866402649e+000	 1.071812591088982e+001
 3.011557444914291e+000	 3.138952334134619e+000	 1.068554124532852e+001
 2.978897214741524e+000	 3.169963940486671e+000	 1.063022565819263e+001
 2.945922988064285e+000	 3.200630836001766e+000	 1.057490795738768e+001
 2.912640241873717e+000	 3.230948285159820e+000	 1.051904512630260e+001
 2.879054547621743e+000	 3.260911668807467e+000	 1.046206903779868e+001
 2.845171568123966e+000	 3.290516486491244e+000	 1.040338854066716e+001
 2.810997054394177e+000	 3.319758358691731e+000	 1.034239163365390e+001
 2.776536842414193e+000	 3.348633028956324e+000	 1.027844772046970e+001
 2.741796849842790e+000	 3.377136365928527e+000	 1.021090993893118e+001
 3.093592167693749e+000	 3.093592167693749e+000	 1.073307483359678e+001
 3.061391967466183e+000	 3.125460641499740e+000	 1.069756748033281e+001
 3.028865246325367e+000	 3.156992290080494e+000	 1.064649712656243e+001
 2.996017313680475e+000	 3.188182124055019e+000	 1.059670777609808e+001
 2.962853579953444e+000	 3.219025266095841e+000	 1.054767333666058e+001
 2.929379553612376e+000	 3.249516953467239e+000	 1.049883894036679e+001
 2.895600838129033e+000	 3.279652540468989e+000	 1.044962297467325e+001
 2.861523128863935e+000	 3.309427500782953e+000	 1.039941921052333e+001
 2.827152209882678e+000	 3.338837429720058e+000	 1.034759902129274e+001
 2.792493950707203e+000	 3.367878046365331e+000	 1.029351368582154e+001
 2.757554303005820e+000	 3.396545195618847e+000	 1.023649676853827e+001
 3.111269837226000e+000	 3.111269837226000e+000	 1.071094591983622e+001
 3.078885635854434e+000	 3.143320416596433e+000	 1.066630021319190e+001
 3.046173047735802e+000	 3.175032246026067e+000	 1.062030002343935e+001
 3.013137412618761e+000	 3.206400307623170e+000	 1.057634906576520e+001
 2.979784171841943e+000	 3.237419696189817e+000	 1.053391056595669e+001
 2.946118865350409e+000	 3.268085621774659e+000	 1.049241728888674e+001
 2.912147128635763e+000	 3.298393412130610e+000	 1.045127360861406e+001
 2.877874689603441e+000	 3.328338515074862e+000	 1.040985767906922e+001
 2.843307365370841e+000	 3.357916500748686e+000	 1.036752369879797e+001
 2.808451059000031e+000	 3.387123063774740e+000	 1.032360426291669e+001
 2.773311756168852e+000	 3.415954025309669e+000	 1.027741279514547e+001
 3.128947506757750e+000	 3.128947506757750e+000	 1.069096298115784e+001
 3.096379304242098e+000	 3.161180191692723e+000	 1.064721253074403e+001
 3.063480849145600e+000	 3.193072201971341e+000	 1.060659173848341e+001
 3.030257511556384e+000	 3.224618491191119e+000	 1.056878975764773e+001
 2.996714763729783e+000	 3.255814126283694e+000	 1.053325862757479e+001
 2.962858177087820e+000	 3.286654290082079e+000	 1.049941822825583e+001
 2.928693419141936e+000	 3.317134283792334e+000	 1.046665839041580e+001
 2.894226250342483e+000	 3.347249529366971e+000	 1.043434110959195e+001
 2.859462520858665e+000	 3.376995571777615e+000	 1.040180285755601e+001
 2.824408167292675e+000	 3.406368081184549e+000	 1.036835698410070e+001
 2.789069209331887e+000	 3.435362855000992e+000	 1.033329620191204e+001
 3.146625176289000e+000	 3.146625176289000e+000	 1.067677995516331e+001
 3.113872972629181e+000	 3.179039966788615e+000	 1.063994882927764e+001
 3.080788650554756e+000	 3.211112157916316e+000	 1.060501486150535e+001
 3.047377610493343e+000	 3.242836674758871e+000	 1.057367095688064e+001
 3.013645355616964e+000	 3.274208556377471e+000	 1.054535746235032e+001
 2.979597488824608e+000	 3.305222958389499e+000	 1.051948085368200e+001
 2.945239709647550e+000	 3.335875155454158e+000	 1.049541588635197e+001
 2.910577811081063e+000	 3.366160543659283e+000	 1.047250785387404e+001
 2.875617676346153e+000	 3.396074642806847e+000	 1.045007494678675e+001
 2.840365275585138e+000	 3.425613098594761e+000	 1.042741070518284e+001
 2.804826662494924e+000	 3.454771684692816e+000	 1.040378655735713e+001
 3.164302845819750e+000	 3.164302845819750e+000	 1.067199206220218e+001
 3.131366641015677e+000	 3.196899741884106e+000	 1.064302615669305e+001
 3.098096451963273e+000	 3.229152113860990e+000	 1.061521274761124e+001
 3.064497709429635e+000	 3.261054858326420e+000	 1.059063461884768e+001
 3.030575947503486e+000	 3.292602986471148e+000	 1.056984794288068e+001
 2.996336800560770e+000	 3.323791626696921e+000	 1.055224527017061e+001
 2.961786000152606e+000	 3.354616027116084e+000	 1.053718574701615e+001
 2.926929371819180e+000	 3.385071557951795e+000	 1.052399741899539e+001
 2.891772831833303e+000	 3.415153713836379e+000	 1.051197963840860e+001
 2.856322383877417e+000	 3.444858116005373e+000	 1.050040556846798e+001
 2.820584115657964e+000	 3.474180514385142e+000	 1.048852477666256e+001
 3.181980515350000e+000	 3.181980515350000e+000	 1.067629501984707e+001
 3.148860309401589e+000	 3.214759516979199e+000	 1.065412219944183e+001
 3.115404253371151e+000	 3.247192069805366e+000	 1.063682949594432e+001
 3.081617808365265e+000	 3.279273041893773e+000	 1.061932352556337e+001
 3.047506539389349e+000	 3.310997416564727e+000	 1.060637184764289e+001
 3.013076112296310e+000	 3.342360295004343e+000	 1.059735256447448e+001
 2.978332290657103e+000	 3.373356898778110e+000	 1.059160867720209e+001
 2.943280932556834e+000	 3.403982572244511e+000	 1.058845043524159e+001
 2.907927987320115e+000	 3.434232784866213e+000	 1.058715779307459e+001
 2.872279492169515e+000	 3.464103133416387e+000	 1.058698296702052e+001
 2.836341568821007e+000	 3.493589344077969e+000	 1.058715308426559e+001
 2.678767037190700e+000	 3.299501047172260e+000	 1.026914169668580e+001
 2.644558174437429e+000	 3.326982425841761e+000	 1.034719256241725e+001
 2.610087752335312e+000	 3.354093308923843e+000	 1.041215032615354e+001
 2.575361772072694e+000	 3.380830037553033e+000	 1.046348222159203e+001
 2.540386301257157e+000	 3.407189081967098e+000	 1.050065704487008e+001
 2.505167470460533e+000	 3.433167042958189e+000	 1.052314740853380e+001
 2.469711469727998e+000	 3.458760653213694e+000	 1.058616682174523e+001
 2.434024545055289e+000	 3.483966778545826e+000	 1.063836485220022e+001
 2.398112994838169e+000	 3.508782419009181e+000	 1.067157096575356e+001
 2.361983166298250e+000	 3.533204709905684e+000	 1.068763730873324e+001
 2.325641451889307e+000	 3.557230922676468e+000	 1.068841392257332e+001
 2.694524490353718e+000	 3.318909876860575e+000	 1.022976443157674e+001
 2.660114398994962e+000	 3.346552910698207e+000	 1.031650920122739e+001
 2.625441209703059e+000	 3.373823269562664e+000	 1.038702101958603e+001
 2.590510958967459e+000	 3.400717273065733e+000	 1.044066797284072e+001
 2.555329750087555e+000	 3.427231370681872e+000	 1.047682248952434e+001
 2.519903749697367e+000	 3.453362143207897e+000	 1.049486371582722e+001
 2.484239184254103e+000	 3.479106304111708e+000	 1.052351972026208e+001
 2.448342336494647e+000	 3.504460700769116e+000	 1.056659646079554e+001
 2.412219541864151e+000	 3.529422315587982e+000	 1.058696994405437e+001
 2.375877184920824e+000	 3.553988267019066e+000	 1.058647643560949e+001
 2.339321695721108e+000	 3.578155810453152e+000	 1.056695341492518e+001
 2.710281943516740e+000	 3.338318706549391e+000	 1.020717830651262e+001
 2.675670623552684e+000	 3.366123395555250e+000	 1.030130634701725e+001
 2.640794667071147e+000	 3.393553230202165e+000	 1.037610098311641e+001
 2.605660145862692e+000	 3.420604508579189e+000	 1.043083124885250e+001
 2.570273198918516e+000	 3.447273659397471e+000	 1.046477326599352e+001
 2.534640028934828e+000	 3.473557243458482e+000	 1.047721274122303e+001
 2.498766898780867e+000	 3.499451955010643e+000	 1.046975942860305e+001
 2.462660127934669e+000	 3.524954622993361e+000	 1.050224646891624e+001
 2.426326088890771e+000	 3.550062212167763e+000	 1.050835236462761e+001
 2.389771203543980e+000	 3.574771824133441e+000	 1.048989852092511e+001
 2.353001939553409e+000	 3.599080698230837e+000	 1.044871084718811e+001
 2.726039396679764e+000	 3.357727536238708e+000	 1.020101554856424e+001
 2.691226848110592e+000	 3.385693880412889e+000	 1.030124483072836e+001
 2.656148124439577e+000	 3.413283190842348e+000	 1.037907919850591e+001
 2.620809332758390e+000	 3.440491744093401e+000	 1.043368871392037e+001
 2.585216647750037e+000	 3.467315948113888e+000	 1.046425323786961e+001
 2.549376308172915e+000	 3.493752343709943e+000	 1.046996504974177e+001
 2.513294613308291e+000	 3.519797605910497e+000	 1.045003147395243e+001
 2.476977919375355e+000	 3.545448545218562e+000	 1.044548274790717e+001
 2.440432635918028e+000	 3.570702108748525e+000	 1.043590380254996e+001
 2.403665222167719e+000	 3.595555381248814e+000	 1.039810619568119e+001
 2.366682183386207e+000	 3.620005586009521e+000	 1.033390525480171e+001
 2.741796849842790e+000	 3.377136365928527e+000	 1.021090993893118e+001
 2.706783072668689e+000	 3.405264365271124e+000	 1.031598646135456e+001
 2.671501581808350e+000	 3.433013151483212e+000	 1.039564506300775e+001
 2.635958519654555e+000	 3.460378979608368e+000	 1.044895689902952e+001
 2.600160096582119e+000	 3.487358236831126e+000	 1.047500560063280e+001
 2.564112587411626e+000	 3.513947443962280e+000	 1.047289001770967e+001
 2.527822327836374e+000	 3.540143256811272e+000	 1.044172696475273e+001
 2.491295710816703e+000	 3.565942467444719e+000	 1.039647098277034e+001
 2.454539182945924e+000	 3.591342005330265e+000	 1.036980716989021e+001
 2.417559240792040e+000	 3.616338938365180e+000	 1.031129896622911e+001
 2.380362427219501e+000	 3.640930473789204e+000	 1.022275210211197e+001
 2.757554303005820e+000	 3.396545195618847e+000	 1.023649676853827e+001
 2.722339297226972e+000	 3.424834850129955e+000	 1.034519399799783e+001
 2.686855039177465e+000	 3.452743112124757e+000	 1.042548837749592e+001
 2.651107706551186e+000	 3.480266215124091e+000	 1.047635220566612e+001
 2.615103545414763e+000	 3.507400525549186e+000	 1.049677290074052e+001
 2.578848866650963e+000	 3.534142544215492e+000	 1.048575586672139e+001
 2.542350042365117e+000	 3.560488907712968e+000	 1.044232735931083e+001
 2.505613502258716e+000	 3.586436389671829e+000	 1.036553734331250e+001
 2.468645729974459e+000	 3.611981901912988e+000	 1.031024279179504e+001
 2.431453259416943e+000	 3.637122495482540e+000	 1.022967330354608e+001
 2.394042671053293e+000	 3.661855361569890e+000	 1.011546338440247e+001
 2.773311756168852e+000	 3.415954025309669e+000	 1.027741279514547e+001
 2.737895521785443e+000	 3.444405334989383e+000	 1.038853112287645e+001
 2.702208496546922e+000	 3.472473072766984e+000	 1.046829933499866e+001
 2.666256893448285e+000	 3.500153450640572e+000	 1.051559090949625e+001
 2.630046994247966e+000	 3.527442814268066e+000	 1.052929705406550e+001
 2.593585145890925e+000	 3.554337644469579e+000	 1.050832969644485e+001
 2.556877756894519e+000	 3.580834558615584e+000	 1.045162447099094e+001
 2.519931293701393e+000	 3.606930311899896e+000	 1.035814369297230e+001
 2.482752277003631e+000	 3.632621798496690e+000	 1.025738847998133e+001
 2.445347278042431e+000	 3.657906052600898e+000	 1.015342272946741e+001
 2.407722914887582e+000	 3.682780249351574e+000	 1.001224772644737e+001
 2.789069209331887e+000	 3.435362855000992e+000	 1.033329620191204e+001
 2.753451746344101e+000	 3.463975819849408e+000	 1.044566241524837e+001
 2.717561953916722e+000	 3.492203033409893e+000	 1.052376850962071e+001
 2.681406080345851e+000	 3.520040686157808e+000	 1.056638916392024e+001
 2.644990443081732e+000	 3.547485102987768e+000	 1.057231936370896e+001
 2.608321425131512e+000	 3.574532744724543e+000	 1.054037751631410e+001
 2.571405471424580e+000	 3.601180209519120e+000	 1.046940855870219e+001
 2.534249085144733e+000	 3.627424234128919e+000	 1.035828704936044e+001
 2.496858824033439e+000	 3.653261695081372e+000	 1.021141960373675e+001
 2.459241296668499e+000	 3.678689609720248e+000	 1.008273789999568e+001
 2.421403158722368e+000	 3.703705137134258e+000	 9.913310477723472e+000
 2.804826662494924e+000	 3.454771684692816e+000	 1.040378655735713e+001
 2.769007970902948e+000	 3.483546304710028e+000	 1.051625332621337e+001
 2.732915411286864e+000	 3.511932994053482e+000	 1.059158684583885e+001
 2.696555267243883e+000	 3.539927921675801e+000	 1.062846300350698e+001
 2.659933891916058e+000	 3.567527391708290e+000	 1.062558053721329e+001
 2.623057704372724e+000	 3.594727844980382e+000	 1.058166427615383e+001
 2.585933185955301e+000	 3.621525860423578e+000	 1.049546837056305e+001
 2.548566876588737e+000	 3.647918156358897e+000	 1.036577950189145e+001
 2.510965371063888e+000	 3.673901591667035e+000	 1.019142006434706e+001
 2.473135315295151e+000	 3.699473166840596e+000	 1.001780668580150e+001
 2.435083402557653e+000	 3.724630024917941e+000	 9.818853804412949e+000
 2.820584115657964e+000	 3.474180514385142e+000	 1.048852477666256e+001
 2.784564195461982e+000	 3.503116789571245e+000	 1.059997015435999e+001
 2.748268868657348e+000	 3.531662954697752e+000	 1.067144564815630e+001
 2.711704454142381e+000	 3.559815157194549e+000	 1.070152834731331e+001
 2.674877340750945e+000	 3.587569680429633e+000	 1.068882070319769e+001
 2.637793983614562e+000	 3.614922945237098e+000	 1.063195389577744e+001
 2.600460900486682e+000	 3.641871511328956e+000	 1.052959118610223e+001
 2.562884668033405e+000	 3.668412078589829e+000	 1.038043124549951e+001
 2.525071918094973e+000	 3.694541488253677e+000	 1.018321145226991e+001
 2.487029333922384e+000	 3.720256723961937e+000	 9.958814250026263e+000
 2.448763646393434e+000	 3.745554912702627e+000	 9.729076778322185e+000
 2.836341568821007e+000	 3.493589344077969e+000	 1.058715308426559e+001
 2.800120420021204e+000	 3.522687274433059e+000	 1.069648002222420e+001
 2.763622326028175e+000	 3.551392915342705e+000	 1.076303657110207e+001
 2.726853641041347e+000	 3.579702392714053e+000	 1.078530100209261e+001
 2.689820789586394e+000	 3.607611969151798e+000	 1.076177942743948e+001
 2.652530262857026e+000	 3.635118045494689e+000	 1.069100929359851e+001
 2.614988615018723e+000	 3.662217162235256e+000	 1.057156285705283e+001
 2.577202459478736e+000	 3.688906000821718e+000	 1.040205063326281e+001
 2.539178465126699e+000	 3.715181384841301e+000	 1.018112480929064e+001
 2.500923352550201e+000	 3.741040281084275e+000	 9.907482610734956e+000
 2.462443890229713e+000	 3.766479800488312e+000	 9.915083108474725e+000
 2.325641451889307e+000	 3.557230922676468e+000	 1.068841392257332e+001
 2.289094285687273e+000	 3.580858465680938e+000	 1.076257361990617e+001
 2.252348139770831e+000	 3.604084884861436e+000	 1.078884301590960e+001
 2.215409520594833e+000	 3.626907864294587e+000	 1.076837772034192e+001
 2.178284965358760e+000	 3.649325226630563e+000	 1.070235547370119e+001
 2.140981038377075e+000	 3.671334933419178e+000	 1.059197336534463e+001
 2.103504327454525e+000	 3.692935085323902e+000	 1.043844507874921e+001
 2.065861440270377e+000	 3.714123922224504e+000	 1.024299817014867e+001
 2.028059000775460e+000	 3.734899823209243e+000	 1.000687138655863e+001
 1.990103645605905e+000	 3.755261306457614e+000	 9.878075000051114e+000
 1.952002020517314e+000	 3.775207029014879e+000	 1.014343823028897e+001
 2.339321695721108e+000	 3.578155810453152e+000	 1.056695341492518e+001
 2.302559546188415e+000	 3.601922339004716e+000	 1.060330064871089e+001
 2.265597246472444e+000	 3.625285384180478e+000	 1.058978027858802e+001
 2.228441341301310e+000	 3.648242616433984e+000	 1.052760784945428e+001
 2.191098406328612e+000	 3.670791845607464e+000	 1.041802217858504e+001
 2.153575044482423e+000	 3.692931021259852e+000	 1.026228247960103e+001
 2.115877882319285e+000	 3.714658232882046e+000	 1.006166551351972e+001
 2.078013566387165e+000	 3.735971710000169e+000	 9.817462773314661e+000
 2.039988759601311e+000	 3.756869822167703e+000	 9.713894372893089e+000
 2.001810137636888e+000	 3.777351078847552e+000	 9.956242912582681e+000
 1.963484385342178e+000	 3.797414129185244e+000	 1.018406474581945e+001
 2.353001939553409e+000	 3.599080698230837e+000	 1.044871084718811e+001
 2.316024806689954e+000	 3.622986212329489e+000	 1.044726205112436e+001
 2.278846353174354e+000	 3.646485883500497e+000	 1.039398396324286e+001
 2.241473162007985e+000	 3.669577368574334e+000	 1.029015241332947e+001
 2.203911847298559e+000	 3.692258464585284e+000	 1.013706762969789e+001
 2.166169050587767e+000	 3.714527109101399e+000	 9.936051268466111e+000
 2.128251437183941e+000	 3.736381380441009e+000	 9.688443469889419e+000
 2.090165692503751e+000	 3.757819497776587e+000	 9.593948940075713e+000
 2.051918518426859e+000	 3.778839821126840e+000	 9.816040154653328e+000
 2.013516629667467e+000	 3.799440851238082e+000	 1.002196007543203e+001
 1.974966750166537e+000	 3.819621229356107e+000	 1.021240609300280e+001
 2.366682183386207e+000	 3.620005586009521e+000	 1.033390525480171e+001
 2.329490067191891e+000	 3.644050085655256e+000	 1.029466928815057e+001
 2.292095459876561e+000	 3.667686382821499e+000	 1.020165767592172e+001
 2.254504982714857e+000	 3.690912120715639e+000	 1.005620688964644e+001
 2.216725288268604e+000	 3.713725083564024e+000	 9.859678910159881e+000
 2.178763056693108e+000	 3.736123196943818e+000	 9.613458161637885e+000
 2.140624992048494e+000	 3.758104528000788e+000	 9.514384614972153e+000
 2.102317818620132e+000	 3.779667285553756e+000	 9.719112448828904e+000
 2.063848277252102e+000	 3.800809820086653e+000	 9.905904627006780e+000
 2.025223121697641e+000	 3.821530623629203e+000	 1.007553133120658e+001
 1.986449114990393e+000	 3.841828329527464e+000	 1.022875470072617e+001
 2.380362427219501e+000	 3.640930473789204e+000	 1.022275210211197e+001
 2.342955327694226e+000	 3.665113958982019e+000	 1.014573035480524e+001
 2.305344566579066e+000	 3.688886882143479e+000	 1.001300166863719e+001
 2.267536803421926e+000	 3.712246872857897e+000	 9.825963520773932e+000
 2.229538729238746e+000	 3.735191702543681e+000	 9.586039993197492e+000
 2.191357062798446e+000	 3.757719284787112e+000	 9.471231898335672e+000
 2.152998546912944e+000	 3.779827675561386e+000	 9.661625741903812e+000
 2.114469944736310e+000	 3.801515073331678e+000	 9.832202693235189e+000
 2.075778036077042e+000	 3.822779819047144e+000	 9.983802210470319e+000
 2.036929613727413e+000	 3.843620396020915e+000	 1.011725913701690e+001
 1.997931479813745e+000	 3.864035429699317e+000	 1.023340077606123e+001
 2.394042671053293e+000	 3.661855361569890e+000	 1.011546338440247e+001
 2.356420588196958e+000	 3.686177832309777e+000	 1.000064987914404e+001
 2.318593673281868e+000	 3.710087381466440e+000	 9.828212935196333e+000
 2.280568624129192e+000	 3.733581625001111e+000	 9.599611406207952e+000
 2.242352170208985e+000	 3.756658321524258e+000	 9.460403963867654e+000
 2.203951068903780e+000	 3.779315372631278e+000	 9.639627122209699e+000
 2.165372101777289e+000	 3.801550823122800e+000	 9.797038552546683e+000
 2.126622070852283e+000	 3.823362861110350e+000	 9.933543143158236e+000
 2.087707794901678e+000	 3.844749818008310e+000	 1.005004485517687e+001
 2.048636105756780e+000	 3.865710168413219e+000	 1.014744363263381e+001
 2.009413844636593e+000	 3.886242529871669e+000	 1.022663236774456e+001
 2.407722914887582e+000	 3.682780249351574e+000	 1.001224772644737e+001
 2.369885848700086e+000	 3.707241705638530e+000	 9.859629217914922e+000
 2.331842779984966e+000	 3.731287880790379e+000	 9.647485303763446e+000
 2.293600444836655e+000	 3.754916377145277e+000	 9.477695179217887e+000
 2.255165611179321e+000	 3.778124940505752e+000	 9.649042932280160e+000
 2.216545075009111e+000	 3.800911460476316e+000	 9.796474177583598e+000
 2.177745656641532e+000	 3.823273970685031e+000	 9.920955056174403e+000
 2.138774196968055e+000	 3.845210648889775e+000	 1.002345472544940e+001
 2.099637553726010e+000	 3.866719816970152e+000	 1.010494211105676e+001
 2.060342597785744e+000	 3.887799940806113e+000	 1.016638270632182e+001
 2.020896209458937e+000	 3.908449630044514e+000	 1.020873542749394e+001
 2.421403158722368e+000	 3.703705137134258e+000	 9.913310477723472e+000
 2.383351109203613e+000	 3.728305578968275e+000	 9.722866548967911e+000
 2.345091886688362e+000	 3.752488380115298e+000	 9.518780076956714e+000
 2.306632265544314e+000	 3.776251129290399e+000	 9.685677322727381e+000
 2.267979052149753e+000	 3.799591559488166e+000	 9.826447375001315e+000
 2.229139081114439e+000	 3.822507548322229e+000	 9.942113120812966e+000
 2.190119211505671e+000	 3.844997118248081e+000	 1.003370465791918e+001
 2.150926323083621e+000	 3.867058436669951e+000	 1.010225589578407e+001
 2.111567312550038e+000	 3.888689815932671e+000	 1.014880119564002e+001
 2.072049089814303e+000	 3.909889713199599e+000	 1.017437205844115e+001
 2.032378574280778e+000	 3.930656730217856e+000	 1.017999386924637e+001
 2.435083402557653e+000	 3.724630024917941e+000	 9.818853804412949e+000
 2.396816369707536e+000	 3.749369452299018e+000	 9.590556960549929e+000
 2.358340993392056e+000	 3.773688879441198e+000	 9.745211262019076e+000
 2.319664086252171e+000	 3.797585881436474e+000	 9.882770372378889e+000
 2.280792493120282e+000	 3.821058178471498e+000	 9.992964919785655e+000
 2.241733087219764e+000	 3.844103636169014e+000	 1.007688135376242e+001
 2.202492766369706e+000	 3.866720265811948e+000	 1.013561423192176e+001
 2.163078449198984e+000	 3.888906224450881e+000	 1.017026270807691e+001
 2.123497071373763e+000	 3.910659814895868e+000	 1.018192705957331e+001
 2.083755581842459e+000	 3.931979485593676e+000	 1.017170526290556e+001
 2.043860939102113e+000	 3.952863830391693e+000	 1.014068962639879e+001
 2.448763646393434e+000	 3.745554912702627e+000	 9.729076778322185e+000
 2.410281630211857e+000	 3.770433325630755e+000	 9.823202015822378e+000
 2.371590100096047e+000	 3.794889378768076e+000	 9.961128867072564e+000
 2.332695906960225e+000	 3.818920633583504e+000	 1.006932906737491e+001
 2.293605934090909e+000	 3.842524797455749e+000	 1.014894049964467e+001
 2.254327093325085e+000	 3.865699724016673e+000	 1.020111369795354e+001
 2.214866321233638e+000	 3.888443413376632e+000	 1.022700819202966e+001
 2.175230575314143e+000	 3.910754012232561e+000	 1.022778888156993e+001
 2.135426830197184e+000	 3.932629813859740e+000	 1.020462244994062e+001
 2.095462073870210e+000	 3.954069257988343e+000	 1.015867382658035e+001
 2.055343303922946e+000	 3.975070930566027e+000	 1.009110270713069e+001
 2.462443890229713e+000	 3.766479800488312e+000	 9.915083108474725e+000
 2.423746890716576e+000	 3.791497198963489e+000	 1.005708155079954e+001
 2.384839206800335e+000	 3.816089878095935e+000	 1.016689429768443e+001
 2.345727727668478e+000	 3.840255385731489e+000	 1.024570542137347e+001
 2.306419375061632e+000	 3.863991416440919e+000	 1.029471642770085e+001
 2.266921099430403e+000	 3.887295811865205e+000	 1.031514246624097e+001
 2.227239876097467e+000	 3.910166560942135e+000	 1.030820856013848e+001
 2.187382701429100e+000	 3.932601800014995e+000	 1.027514586568477e+001
 2.147356589020302e+000	 3.954599812824290e+000	 1.021718797147335e+001
 2.107168565897559e+000	 3.976159030383603e+000	 1.013556724670044e+001
 2.066825668743274e+000	 3.997278030740858e+000	 1.003151124788227e+001
 1.952002020517314e+000	 3.775207029014879e+000	 1.014343823028897e+001
 1.913760776843248e+000	 3.794735786459811e+000	 1.029449025051851e+001
 1.875386567981046e+000	 3.813846512466861e+000	 1.040076997592680e+001
 1.836886045909252e+000	 3.832538278264387e+000	 1.044989394943393e+001
 1.798265857740103e+000	 3.850810291991064e+000	 1.047318257192011e+001
 1.759532642309953e+000	 3.868661897952027e+000	 1.046811453041027e+001
 1.720693026811101e+000	 3.886092575776806e+000	 1.043204775400957e+001
 1.681753623468193e+000	 3.903101939481164e+000	 1.036245713327108e+001
 1.642721026262243e+000	 3.919689736435062e+000	 1.025693868428739e+001
 1.603601807705202e+000	 3.935855846239047e+000	 1.011321341373964e+001
 1.564402515667893e+000	 3.951600279511499e+000	 9.929130879732933e+000
 1.963484385342178e+000	 3.797414129185244e+000	 1.018406474581945e+001
 1.925018193176184e+000	 3.817057761674655e+000	 1.029603331359312e+001
 1.886418253673830e+000	 3.836280903717665e+000	 1.037011517841061e+001
 1.847691257942943e+000	 3.855082621079272e+000	 1.039477004029779e+001
 1.808843892196424e+000	 3.873462117240140e+000	 1.039239105462753e+001
 1.769882834322603e+000	 3.891418732648380e+000	 1.036816343874562e+001
 1.730814750497264e+000	 3.908951943872516e+000	 1.031941528360905e+001
 1.691646291840493e+000	 3.926061362657818e+000	 1.024358691975537e+001
 1.652384091121428e+000	 3.942746734888187e+000	 1.013823522912098e+001
 1.613034759513854e+000	 3.959007939455937e+000	 1.000103766014191e+001
 1.573604883405484e+000	 3.974844987041912e+000	 9.829795940622581e+000
 1.974966750166537e+000	 3.819621229356107e+000	 1.021240609300280e+001
 1.936275609508532e+000	 3.839379736889895e+000	 1.028675073324593e+001
 1.897449939365971e+000	 3.858715294968765e+000	 1.033002146739459e+001
 1.858496469975968e+000	 3.877626963894351e+000	 1.033403470091676e+001
 1.819421926652086e+000	 3.896113942489314e+000	 1.030797101535559e+001
 1.780233026334630e+000	 3.914175567344729e+000	 1.026648387280714e+001
 1.740936474182872e+000	 3.931811311968122e+000	 1.020687014978747e+001
 1.701538960212335e+000	 3.949020785834266e+000	 1.012653431416539e+001
 1.662047155980281e+000	 3.965803733341005e+000	 1.002299288582591e+001
 1.622467711322332e+000	 3.982160032672422e+000	 9.893878602819738e+000
 1.582807251143084e+000	 3.998089694571819e+000	 9.736944287139538e+000
 1.986449114990393e+000	 3.841828329527464e+000	 1.022875470072617e+001
 1.947533025840291e+000	 3.861701712105530e+000	 1.026690012354886e+001
 1.908481625057469e+000	 3.881149686220162e+000	 1.028071295839022e+001
 1.869301682008328e+000	 3.900171306709628e+000	 1.026743204401026e+001
 1.829999961107088e+000	 3.918765767738582e+000	 1.021965019475122e+001
 1.790583218346036e+000	 3.936932402041073e+000	 1.016278850349215e+001
 1.751058197867925e+000	 3.954670680063622e+000	 1.009411125034168e+001
 1.711431628583719e+000	 3.971980209010510e+000	 1.001098573148002e+001
 1.671710220838802e+000	 3.988860731793519e+000	 9.910886869803193e+000
 1.631900663130633e+000	 4.005312125888501e+000	 9.791401533136222e+000
 1.592009618880696e+000	 4.021334402101220e+000	 9.650232553809513e+000
 1.997931479813745e+000	 3.864035429699317e+000	 1.023340077606123e+001
 1.958790442171462e+000	 3.884023687321564e+000	 1.023673755494457e+001
 1.919513310748325e+000	 3.903584077471854e+000	 1.022241287087545e+001
 1.880106894040022e+000	 3.922715649525100e+000	 1.019124655167596e+001
 1.840577995561431e+000	 3.941417592987946e+000	 1.012715664027683e+001
 1.800933410356819e+000	 3.959689236737412e+000	 1.005679086353158e+001
 1.761179921552422e+000	 3.977530048159018e+000	 9.980838868859641e+000
 1.721324296954645e+000	 3.994939632186549e+000	 9.896629465298457e+000
 1.681373285696993e+000	 4.011917730245727e+000	 9.801594736727539e+000
 1.641333614938760e+000	 4.028464219104175e+000	 9.693274513177483e+000
 1.601211986618317e+000	 4.044579109630118e+000	 9.569320545117494e+000
 2.009413844636593e+000	 3.886242529871669e+000	 1.022663236774456e+001
 1.970047858502044e+000	 3.906345662537992e+000	 1.019651759835018e+001
 1.930544996438539e+000	 3.926018468723842e+000	 1.015534355389559e+001
 1.890912106071049e+000	 3.945259992340768e+000	 1.010401778786134e+001
 1.851156030015116e+000	 3.964069418237406e+000	 1.003021869744398e+001
 1.811283602366981e+000	 3.982446071433747e+000	 9.948205322866063e+000
 1.771301645236366e+000	 4.000389416254310e+000	 9.866754635126263e+000
 1.731216965325113e+000	 4.017899055362383e+000	 9.783155634165372e+000
 1.691036350554853e+000	 4.034974728697631e+000	 9.694796315682352e+000
 1.650766566746712e+000	 4.051616312319444e+000	 9.599168296588971e+000
 1.610414354355949e+000	 4.067823817158510e+000	 9.493871144937399e+000
 2.020896209458937e+000	 3.908449630044514e+000	 1.020873542749394e+001
 1.981305274832037e+000	 3.928667637754816e+000	 1.014649336775729e+001
 1.941576682128110e+000	 3.948452859976126e+000	 1.007972651079153e+001
 1.901717318101411e+000	 3.967804335156631e+000	 1.000943043693187e+001
 1.861734064468140e+000	 3.986721243486961e+000	 9.928565001346204e+000
 1.821633794376520e+000	 4.005202906130077e+000	 9.836747064861621e+000
 1.781423368919754e+000	 4.023248784349496e+000	 9.751561486879249e+000
 1.741109633695123e+000	 4.040858478538012e+000	 9.670256129725896e+000
 1.700699415412381e+000	 4.058031727149230e+000	 9.590173644574339e+000
 1.660199518554488e+000	 4.074768405534308e+000	 9.508756252110874e+000
 1.619616722093591e+000	 4.091068524686397e+000	 9.423550229049509e+000
 2.032378574280778e+000	 3.930656730217856e+000	 1.017999386924637e+001
 1.992562691161443e+000	 3.950989612972036e+000	 1.008691656138822e+001
 1.952608367817038e+000	 3.970887251228706e+000	 9.995782423089700e+000
 1.912522530131106e+000	 3.990348677972691e+000	 9.907675374249994e+000
 1.872312098920506e+000	 4.009373068736611e+000	 9.821924468478647e+000
 1.831983986385438e+000	 4.027959740826404e+000	 9.722132063331557e+000
 1.791545092602588e+000	 4.046108152444578e+000	 9.634963632861258e+000
 1.751002302064675e+000	 4.063817901713436e+000	 9.557624566637985e+000
 1.710362480269578e+000	 4.081088725600523e+000	 9.487410907737258e+000
 1.669632470362090e+000	 4.097920498748767e+000	 9.421714289705241e+000
 1.628819089831244e+000	 4.114313232213777e+000	 9.358026580623282e+000
 2.043860939102113e+000	 3.952863830391693e+000	 1.014068962639879e+001
 2.003820107490259e+000	 3.973311588189652e+000	 1.001803750146472e+001
 1.963640053505324e+000	 3.993321642481583e+000	 9.903731173586753e+000
 1.923327742160136e+000	 4.012893020788947e+000	 9.798943226318698e+000
 1.882890133372213e+000	 4.032024893986358e+000	 9.704803568031002e+000
 1.842334178393734e+000	 4.050716575522725e+000	 9.604077060332823e+000
 1.801666816284866e+000	 4.068967520539554e+000	 9.516666517117551e+000
 1.760894970433770e+000	 4.086777324888655e+000	 9.444956234173201e+000
 1.720025545126444e+000	 4.104145724051513e+000	 9.386194375639178e+000
 1.679065422169517e+000	 4.121072591962822e+000	 9.337720789173469e+000
 1.638021457568906e+000	 4.137557939740653e+000	 9.296971808549156e+000
 2.055343303922946e+000	 3.975070930566027e+000	 1.009110270713069e+001
 2.015077523818487e+000	 3.995633563407664e+000	 9.940105172643774e+000
 1.974671739192968e+000	 4.015756033734754e+000	 9.803791868660380e+000
 1.934132954188500e+000	 4.035437363605398e+000	 9.683424377733013e+000
 1.893468167823261e+000	 4.054676719236199e+000	 9.580214705420978e+000
 1.852684370401407e+000	 4.073473410219042e+000	 9.482299544706770e+000
 1.811788539966590e+000	 4.091826888634428e+000	 9.396376784490311e+000
 1.770787638802406e+000	 4.109736748063669e+000	 9.331948049439776e+000
 1.729688609982978e+000	 4.127202722502196e+000	 9.286212346610355e+000
 1.688498373976768e+000	 4.144224685176470e+000	 9.256456531166222e+000
 1.647223825306579e+000	 4.160802647267024e+000	 9.240060268507735e+000
 2.066825668743274e+000	 3.997278030740858e+000	 1.003151124788227e+001
 2.026334940146127e+000	 4.017955538626073e+000	 9.853367259172167e+000
 1.985703424879969e+000	 4.038190424988225e+000	 9.696182859836654e+000
 1.944938166216198e+000	 4.057981706422046e+000	 9.561308977899632e+000
 1.904046202273650e+000	 4.077328544486139e+000	 9.450040096454748e+000
 1.863034562408458e+000	 4.096230244915353e+000	 9.356517731335067e+000
 1.821910263647759e+000	 4.114686256729197e+000	 9.273802247263106e+000
 1.780680307170585e+000	 4.132696171238480e+000	 9.218298512164983e+000
 1.739351674839182e+000	 4.150259720952576e+000	 9.187155090513942e+000
 1.697931325783844e+000	 4.167376778389715e+000	 9.177604630493365e+000
 1.656426193044263e+000	 4.184047354792892e+000	 9.186968986670115e+000
 1.564402515667893e+000	 3.951600279511499e+000	 9.929130879732933e+000
 1.525129670264477e+000	 3.966923176588746e+000	 9.629019567189971e+000
 1.485789760794904e+000	 3.981824806142011e+000	 9.388052274606958e+000
 1.446389242748077e+000	 3.996305563713150e+000	 9.204770924026464e+000
 1.406934534869337e+000	 4.010365970170742e+000	 9.077760881264862e+000
 1.367432016293249e+000	 4.024006670090824e+000	 9.005654112293096e+000
 1.327888023744064e+000	 4.037228430064649e+000	 8.987132124935249e+000
 1.288308848805791e+000	 4.050032136936430e+000	 9.020928693215705e+000
 1.248700735263687e+000	 4.062418795974020e+000	 9.104351612456950e+000
 1.209069876518824e+000	 4.074389528975535e+000	 9.175727635288649e+000
 1.169422413077266e+000	 4.085945572314992e+000	 9.260024210482030e+000
 1.573604883405484e+000	 3.974844987041912e+000	 9.829795940622581e+000
 1.534101021264173e+000	 3.990258018807951e+000	 9.562882858207054e+000
 1.494529700562309e+000	 4.005247305005702e+000	 9.350243118130850e+000
 1.454897414762255e+000	 4.019813243503740e+000	 9.190316413816500e+000
 1.415210620366680e+000	 4.033956358234573e+000	 9.081592596180975e+000
 1.375475734034469e+000	 4.047677297565866e+000	 9.022614873812644e+000
 1.335699129764719e+000	 4.060976832598230e+000	 9.011982787460974e+000
 1.295887136150757e+000	 4.073855855392611e+000	 9.048354956283538e+000
 1.256046033705988e+000	 4.086315377130202e+000	 9.130451594045127e+000
 1.216182052263253e+000	 4.098356526207932e+000	 9.204925673212001e+000
 1.176301368449240e+000	 4.109980546272603e+000	 9.279575014763838e+000
 1.582807251143084e+000	 3.998089694571819e+000	 9.736944287139538e+000
 1.543072372264059e+000	 4.013592861026560e+000	 9.502136507294456e+000
 1.503269640330041e+000	 4.028669803868731e+000	 9.316773681195016e+000
 1.463405586776859e+000	 4.043320923293615e+000	 9.179192627429721e+000
 1.423486705864506e+000	 4.057546746297664e+000	 9.087787031859479e+000
 1.383519451776188e+000	 4.071347925040158e+000	 9.041010692802718e+000
 1.343510235785849e+000	 4.084725235131073e+000	 9.037380529488143e+000
 1.303465423496135e+000	 4.097679573848086e+000	 9.075479351330955e+000
 1.263391332148598e+000	 4.110211958285729e+000	 9.153958386363764e+000
 1.223294228007851e+000	 4.122323523439744e+000	 9.231865945874640e+000
 1.183180323821201e+000	 4.134015520229720e+000	 9.296651586111375e+000
 1.592009618880696e+000	 4.021334402101220e+000	 9.650232553809513e+000
 1.552043723264134e+000	 4.036927703244576e+000	 9.446472574491875e+000
 1.512009580098102e+000	 4.052092302731094e+000	 9.287370388163424e+000
 1.471913758791888e+000	 4.066828603082779e+000	 9.171159278831809e+000
 1.431762791362814e+000	 4.081137134360013e+000	 9.096136104485565e+000
 1.391563169518405e+000	 4.095018552513700e+000	 9.060664588503334e+000
 1.351321341807455e+000	 4.108473637663178e+000	 9.063178363243134e+000
 1.311043710841926e+000	 4.121503292302855e+000	 9.102183763478490e+000
 1.270736630591518e+000	 4.134108539440599e+000	 9.176262368146901e+000
 1.230406403752616e+000	 4.146290520670970e+000	 9.256264060890757e+000
 1.190059279193150e+000	 4.158050494186345e+000	 9.311003094806170e+000
 1.601211986618317e+000	 4.044579109630118e+000	 9.569320545117494e+000
 1.561015074264399e+000	 4.060262545461995e+000	 9.395585673369462e+000
 1.520749519866489e+000	 4.075514801592793e+000	 9.261761622428972e+000
 1.480421930807344e+000	 4.090336282871230e+000	 9.165977468568576e+000
 1.440038876861605e+000	 4.104727522421621e+000	 9.106432566540009e+000
 1.399606887261122e+000	 4.118689179986494e+000	 9.081399888426304e+000
 1.359132447829537e+000	 4.132222040194547e+000	 9.089229103543477e+000
 1.318621998188130e+000	 4.145327010756917e+000	 9.128349397168011e+000
 1.278081929034748e+000	 4.158005120594816e+000	 9.197272026688980e+000
 1.237518579497549e+000	 4.170257517901614e+000	 9.277834046090032e+000
 1.196938234565087e+000	 4.182085468142475e+000	 9.322376715574587e+000
 1.610414354355949e+000	 4.067823817158510e+000	 9.493871144937399e+000
 1.569986425264854e+000	 4.083597387678821e+000	 9.349172898069897e+000
 1.529489459635206e+000	 4.098937300453828e+000	 9.239677670441111e+000
 1.488930102823224e+000	 4.113843962658969e+000	 9.163409644149416e+000
 1.448314962360878e+000	 4.128317910482487e+000	 9.118469982905047e+000
 1.407650605004338e+000	 4.142359807458538e+000	 9.103040219547523e+000
 1.366943553852095e+000	 4.155970442725177e+000	 9.115385373437910e+000
 1.326200285534746e+000	 4.169150729210274e+000	 9.153856795610546e+000
 1.285427227478289e+000	 4.181901701748378e+000	 9.216894740414286e+000
 1.244630755242650e+000	 4.194224515131674e+000	 9.296288394654212e+000
 1.203817189937011e+000	 4.206120442098112e+000	 9.330517684603828e+000
 1.619616722093591e+000	 4.091068524686397e+000	 9.423550229049509e+000
 1.578957776265498e+000	 4.106932229895052e+000	 9.306933752837537e+000
 1.538229399404250e+000	 4.122359799314200e+000	 9.220850667641841e+000
 1.497438274839530e+000	 4.137351642445993e+000	 9.163219561781302e+000
 1.456591047860634e+000	 4.151908298542613e+000	 9.132042707784764e+000
 1.415694322748053e+000	 4.166030434929833e+000	 9.125409499799392e+000
 1.374754659875128e+000	 4.179718845255070e+000	 9.141499609654591e+000
 1.333778572881774e+000	 4.192974447662922e+000	 9.178585859571358e+000
 1.292772525922138e+000	 4.205798282901284e+000	 9.235036810379146e+000
 1.251742930987919e+000	 4.218191512361147e+000	 9.309319064953238e+000
 1.210696145308922e+000	 4.230155416053254e+000	 9.335169354614038e+000
 1.628819089831244e+000	 4.114313232213777e+000	 9.358026580623282e+000
 1.587929127266333e+000	 4.130267072110688e+000	 9.268570083936382e+000
 1.546969339173622e+000	 4.145782298173907e+000	 9.205014546234171e+000
 1.505946446856261e+000	 4.160859322232307e+000	 9.165172249399950e+000
 1.464867133360872e+000	 4.175498686601997e+000	 9.146945862407813e+000
 1.423738040492267e+000	 4.189701062400376e+000	 9.148331929851779e+000
 1.382565765898636e+000	 4.203467247784224e+000	 9.167424067864181e+000
 1.341356860229215e+000	 4.216798166114867e+000	 9.202415865518132e+000
 1.300117824366298e+000	 4.229694864053538e+000	 9.251603490705922e+000
 1.258855106733357e+000	 4.242158509590039e+000	 9.313388000359302e+000
 1.217575100680821e+000	 4.254190390007903e+000	 9.336073248063592e+000
 1.638021457568906e+000	 4.137557939740653e+000	 9.296971808549156e+000
 1.596900478267356e+000	 4.153601914325729e+000	 9.233786013863096e+000
 1.555709278943322e+000	 4.169204797032950e+000	 9.191904984711396e+000
 1.514454618873417e+000	 4.184367002017907e+000	 9.169033970947002e+000
 1.473143218861592e+000	 4.199089074660639e+000	 9.162975313481848e+000
 1.431781758236980e+000	 4.213371689870171e+000	 9.171631985169960e+000
 1.390376871922621e+000	 4.227215650312640e+000	 9.193010827765873e+000
 1.348935147577068e+000	 4.240621884566104e+000	 9.225225483157276e+000
 1.307463122810768e+000	 4.253591445205132e+000	 9.266499017991361e+000
 1.265967282478963e+000	 4.266125506818345e+000	 9.315166241713246e+000
 1.224454056052708e+000	 4.278225363962058e+000	 9.332969108560862e+000
 1.647223825306579e+000	 4.160802647267024e+000	 9.240060268507735e+000
 1.605871829268570e+000	 4.176936756540175e+000	 9.202287877765031e+000
 1.564449218713350e+000	 4.192627295891330e+000	 9.181259359078005e+000
 1.522962790891000e+000	 4.207874681802794e+000	 9.174572191844852e+000
 1.481419304362795e+000	 4.222679462718541e+000	 9.179927652370116e+000
 1.439825475982193e+000	 4.237042317339218e+000	 9.195134408338713e+000
 1.398187977947081e+000	 4.250964052840319e+000	 9.218111798002736e+000
 1.356513434925333e+000	 4.264445603016635e+000	 9.246892792382756e+000
 1.314808421255547e+000	 4.277488026356075e+000	 9.279626639729020e+000
 1.273079458224736e+000	 4.290092504046069e+000	 9.314581192412906e+000
 1.231333011424581e+000	 4.302260337915721e+000	 9.325594950552974e+000
 1.656426193044263e+000	 4.184047354792892e+000	 9.186968986670115e+000
 1.614843180269973e+000	 4.200271598754027e+000	 9.173784161977721e+000
 1.573189158483706e+000	 4.216049794749046e+000	 9.172816695696554e+000
 1.531470962909008e+000	 4.231382361586969e+000	 9.181555545622086e+000
 1.489695389864481e+000	 4.246269850775701e+000	 9.197600174962050e+000
 1.447869193727904e+000	 4.260712944807515e+000	 9.218664201642307e+000
 1.405999083972017e+000	 4.274712455367262e+000	 9.242578720913278e+000
 1.364091722274012e+000	 4.288269321466461e+000	 9.267295299659617e+000
 1.322153719700637e+000	 4.301384607506363e+000	 9.290888641784335e+000
 1.280191633970678e+000	 4.314059501273208e+000	 9.311558924987331e+000
 1.238211966796443e+000	 4.326295311868889e+000	 9.313687107357715e+000
 1.169422413077266e+000	 4.085945572314992e+000	 9.260024210482030e+000
 1.129764430115052e+000	 4.097088274930204e+000	 9.303512452523409e+000
 1.090101955120620e+000	 4.107819096255514e+000	 9.336646024505191e+000
 1.050440955616010e+000	 4.118139604102670e+000	 9.357758528188706e+000
 1.010787336957094e+000	 4.128051472493549e+000	 9.365331689929645e+000
 9.711469402141429e-001	 4.137556479447227e+000	 9.357997398998915e+000
 9.315255401334329e-001	 4.146656504724693e+000	 9.334539359611663e+000
 8.919288431804859e-001	 4.155353527534343e+000	 9.293894361196790e+000
 8.523624856654425e-001	 4.163649624201344e+000	 9.235153172404226e+000
 8.128320319509309e-001	 4.171546965803958e+000	 9.157561065265721e+000
 7.733429727426728e-001	 4.179047815779902e+000	 9.060517976796634e+000
 1.176301368449240e+000	 4.109980546272603e+000	 9.279575014763838e+000
 1.136410103235041e+000	 4.121188794197010e+000	 9.304125422007234e+000
 1.096514319564808e+000	 4.131982738000447e+000	 9.322209997214022e+000
 1.056620020063653e+000	 4.142363954717085e+000	 9.332110553258818e+000
 1.016733144824837e+000	 4.152334128215989e+000	 9.332255712466468e+000
 9.768595692778667e-001	 4.161895046975169e+000	 9.321223082041824e+000
 9.370051021381155e-001	 4.171048601813031e+000	 9.297741039201769e+000
 8.971754834385509e-001	 4.179796783580375e+000	 9.260690130393680e+000
 8.573763826440788e-001	 4.188141680816043e+000	 9.209104089966527e+000
 8.176133968488739e-001	 4.196085477369345e+000	 9.142170484597905e+000
 7.778920490569271e-001	 4.203630449992339e+000	 9.059230990668327e+000
 1.183180323821201e+000	 4.134015520229720e+000	 9.296651586111375e+000
 1.143055776354833e+000	 4.145289313463412e+000	 9.304174677446301e+000
 1.102926684008646e+000	 4.156146379745046e+000	 9.309025862428172e+000
 1.062799084510823e+000	 4.166588305331214e+000	 9.309433950027245e+000
 1.022678952692014e+000	 4.176616783938171e+000	 9.303773338865435e+000
 9.825721983409622e-001	 4.186233614502861e+000	 9.290566330016317e+000
 9.424846641421387e-001	 4.195440698901107e+000	 9.268485045350678e+000
 9.024221236959535e-001	 4.204240039626113e+000	 9.236352955666220e+000
 8.623902796220803e-001	 4.212633737430396e+000	 9.193146023840333e+000
 8.223947617462384e-001	 4.220623988934316e+000	 9.137993469199467e+000
 7.824411253706887e-001	 4.228213084204269e+000	 9.070178160203566e+000
 1.190059279193150e+000	 4.158050494186345e+000	 9.311003094806170e+000
 1.149701449474428e+000	 4.169389832729408e+000	 9.303405424669473e+000
 1.109339048452133e+000	 4.180310021489308e+000	 9.296835829017017e+000
 1.068978148957520e+000	 4.190812655945056e+000	 9.289468884901947e+000
 1.028624760558625e+000	 4.200899439660094e+000	 9.279623634311299e+000
 9.882848274034307e-001	 4.210572182030302e+000	 9.265766034616428e+000
 9.479642261455018e-001	 4.219832795988921e+000	 9.246511010261658e+000
 9.076687639526946e-001	 4.228683295671557e+000	 9.220624109786929e+000
 8.674041765994472e-001	 4.237125794044403e+000	 9.187022773298400e+000
 8.271761266430249e-001	 4.245162500498869e+000	 9.144777216474006e+000
 7.869902016839576e-001	 4.252795718415691e+000	 9.093110938113574e+000
 1.196938234565087e+000	 4.182085468142475e+000	 9.322376715574587e+000
 1.156347122593826e+000	 4.193490351995003e+000	 9.301561316660639e+000
 1.115751412895269e+000	 4.204473663233235e+000	 9.285380968981084e+000
 1.075157213403743e+000	 4.215037006558612e+000	 9.271954776692454e+000
 1.034570568424671e+000	 4.225182095381759e+000	 9.259545278997731e+000
 9.939974564652714e-001	 4.234910749557492e+000	 9.246561038547233e+000
 9.534437881482052e-001	 4.244224893076473e+000	 9.231558826619375e+000
 9.129154042087735e-001	 4.253126551716706e+000	 9.213245409035626e+000
 8.724180735761793e-001	 4.261617850658064e+000	 9.190478937803679e+000
 8.319574915392334e-001	 4.269701012063005e+000	 9.162269954471068e+000
 7.915392779967340e-001	 4.277378352626607e+000	 9.127782012113640e+000
 1.203817189937011e+000	 4.206120442098112e+000	 9.330517684603828e+000
 1.162992795713028e+000	 4.217590871260192e+000	 9.298384497925214e+000
 1.122163777338056e+000	 4.228637304976828e+000	 9.274401249934048e+000
 1.081336277849493e+000	 4.239261357171881e+000	 9.256630317969774e+000
 1.040516376290151e+000	 4.249464751103165e+000	 9.243276579126851e+000
 9.997100855264841e-001	 4.259249317084431e+000	 9.232690136924795e+000
 9.589233501502491e-001	 4.268616990163762e+000	 9.223368640147688e+000
 9.181620444641900e-001	 4.277569807761560e+000	 9.213959197670512e+000
 8.774319705522766e-001	 4.286109907271379e+000	 9.203259894146678e+000
 8.367388564348636e-001	 4.294239523626726e+000	 9.190220912438983e+000
 7.960883543090176e-001	 4.301960986837015e+000	 9.173945269637132e+000
 1.210696145308922e+000	 4.230155416053254e+000	 9.335169354614038e+000
 1.169638468832031e+000	 4.241691390524976e+000	 9.293615647345082e+000
 1.128576141780491e+000	 4.252800946720085e+000	 9.263635566477195e+000
 1.087515342294771e+000	 4.263485707784863e+000	 9.243233495698028e+000
 1.046462184155065e+000	 4.273747406824311e+000	 9.230555477534191e+000
 1.005422714587069e+000	 4.283587884611121e+000	 9.223892078627891e+000
 9.644029121516329e-001	 4.293009087250787e+000	 9.221680842420996e+000
 9.234086847189448e-001	 4.302013063806120e+000	 9.222508332928936e+000
 8.824458675277391e-001	 4.310601963884349e+000	 9.225111774362278e+000
 8.415202213299152e-001	 4.318778035190028e+000	 9.228380292382070e+000
 8.006374306208084e-001	 4.326543621046915e+000	 9.231355763752662e+000
 1.217575100680821e+000	 4.254190390007903e+000	 9.336073248063592e+000
 1.176284141950838e+000	 4.265791909789358e+000	 9.286994019580110e+000
 1.134988506222576e+000	 4.276964588463007e+000	 9.252821770510666e+000
 1.093694406739574e+000	 4.287710058397558e+000	 9.231501611167076e+000
 1.052407992019414e+000	 4.298030062545201e+000	 9.221119563953225e+000
 1.011135343647027e+000	 4.307926452137560e+000	 9.219905567604320e+000
 9.698824741523568e-001	 4.317401184337551e+000	 9.226236063919357e+000
 9.286553249730376e-001	 4.326456319850386e+000	 9.238636170536314e+000
 8.874597645025671e-001	 4.335094020496972e+000	 9.255781444395245e+000
 8.463015862243888e-001	 4.343316546752914e+000	 9.276499241581368e+000
 8.051865069321068e-001	 4.351126255256308e+000	 9.299769680236599e+000
 1.224454056052708e+000	 4.278225363962058e+000	 9.332969108560862e+000
 1.182929815069449e+000	 4.289892429053334e+000	 9.278257485074564e+000
 1.141400870664311e+000	 4.301128230205595e+000	 9.241696700522832e+000
 1.099873471183904e+000	 4.311934409009968e+000	 9.221171299252891e+000
 1.058353799883197e+000	 4.322312718265831e+000	 9.214706084933887e+000
 1.016847972706357e+000	 4.332265019663750e+000	 9.220469264132992e+000
 9.753620361524213e-001	 4.341793281424052e+000	 9.236775167317637e+000
 9.339019652264682e-001	 4.350899575894357e+000	 9.262086550703783e+000
 8.924736614767602e-001	 4.359586077109249e+000	 9.295016483484714e+000
 8.510829511182841e-001	 4.367855058315384e+000	 9.334329826042065e+000
 8.097355832429123e-001	 4.375708889465194e+000	 9.369077052446768e+000
 1.231333011424581e+000	 4.302260337915721e+000	 9.325594950552974e+000
 1.189575488187862e+000	 4.313992948316907e+000	 9.267142568722163e+000
 1.147813235105695e+000	 4.325291871947846e+000	 9.229996209897694e+000
 1.106052535627761e+000	 4.336158759622090e+000	 9.211978547032460e+000
 1.064299607746415e+000	 4.346595373986204e+000	 9.211051953428800e+000
 1.022560601765058e+000	 4.356603587189687e+000	 9.225321786043569e+000
 9.808415981518260e-001	 4.366185378510290e+000	 9.253039240999479e+000
 9.391486054792371e-001	 4.375342831938033e+000	 9.286591726803474e+000
 8.974875584503186e-001	 4.384078133721181e+000	 9.192322835304175e+000
 8.558643160116015e-001	 4.392393569877434e+000	 9.133421518074332e+000
 8.142846595532254e-001	 4.400291523673573e+000	 9.110867644397482e+000
 1.238211966796443e+000	 4.326295311868889e+000	 9.313687107357715e+000
 1.196221161306078e+000	 4.338093467580077e+000	 9.253384487242720e+000
 1.154225599546729e+000	 4.349455513689764e+000	 9.217455194279095e+000
 1.112231600071145e+000	 4.360383110233927e+000	 9.203658711778298e+000
 1.070245415609067e+000	 4.370878029706319e+000	 9.209893758059856e+000
 1.028273230823133e+000	 4.380942154715376e+000	 9.120198226513226e+000
 9.863211601505714e-001	 4.390577475596269e+000	 8.986390677178871e+000
 9.443952457313436e-001	 4.399786087981417e+000	 8.891357455862551e+000
 9.025014554232422e-001	 4.408570190332767e+000	 8.836513878927116e+000
 8.606456809043406e-001	 4.416932081439071e+000	 8.823063870722905e+000
 8.188337358630459e-001	 4.424874157881446e+000	 8.852001251415103e+000
 7.733429727426728e-001	 4.179047815779902e+000	 9.060517976796634e+000
 7.339007234633732e-001	 4.186154527505775e+000	 8.943782723501881e+000
 6.945106227088217e-001	 4.192869541852530e+000	 8.875427645328841e+000
 6.551779307865252e-001	 4.199195384720043e+000	 8.855085522152663e+000
 6.159078283377321e-001	 4.205134664553649e+000	 8.884120007319288e+000
 5.767054150413697e-001	 4.210690069845527e+000	 8.924372863935625e+000
 5.375757083998120e-001	 4.215864366623790e+000	 8.948484902810465e+000
 4.985236426059480e-001	 4.220660395932039e+000	 8.961478525870616e+000
 4.595540674909438e-001	 4.225081071302157e+000	 8.967691358966530e+000
 4.206717475519837e-001	 4.229129376222966e+000	 8.970785991964656e+000
 3.818813610591916e-001	 4.232808361607396e+000	 8.973760855009651e+000
 7.778920490569271e-001	 4.203630449992339e+000	 9.059230990668327e+000
 7.382177865464501e-001	 4.210778965904968e+000	 8.963180423390259e+000
 6.985959793168153e-001	 4.217533480336205e+000	 8.906676993951825e+000
 6.590319186185135e-001	 4.223896534044159e+000	 8.889347673464933e+000
 6.195308155671541e-001	 4.229870750817963e+000	 8.912885049231768e+000
 5.800977998397743e-001	 4.235458834964458e+000	 8.953087536853030e+000
 5.407379184534670e-001	 4.240663568782507e+000	 8.975885614492874e+000
 5.014561346257858e-001	 4.245487810027735e+000	 8.986446617262644e+000
 4.622573267163138e-001	 4.249934489370448e+000	 8.989242381045527e+000
 4.231462872486891e-001	 4.254006607849405e+000	 8.988059053373238e+000
 3.841277220122707e-001	 4.257707234324079e+000	 8.986008061348437e+000
 7.824411253706887e-001	 4.228213084204269e+000	 9.070178160203566e+000
 7.425348496291238e-001	 4.235403404303565e+000	 8.994292386767123e+000
 7.026813359244744e-001	 4.242197418819215e+000	 8.949163274929401e+000
 6.628859064502161e-001	 4.248597683367562e+000	 8.934410949639863e+000
 6.231538027963176e-001	 4.254606837081536e+000	 8.950679746778633e+000
 5.834901846379285e-001	 4.260227600082640e+000	 8.988159703496054e+000
 5.439001285068597e-001	 4.265462770940489e+000	 9.007201362113662e+000
 5.043886266453288e-001	 4.270315224122728e+000	 9.013118063838363e+000
 4.649605859413373e-001	 4.274787907438089e+000	 9.010516654582627e+000
 4.256208269449765e-001	 4.278883839475261e+000	 9.003307370903695e+000
 3.863740829648416e-001	 4.282606107040270e+000	 8.994714904191435e+000
 7.869902016839576e-001	 4.252795718415691e+000	 9.093110938113574e+000
 7.468519127113944e-001	 4.260027842701565e+000	 9.036900101883392e+000
 7.067666925317991e-001	 4.266861357301558e+000	 9.002696319712349e+000
 6.667398942816325e-001	 4.273298832690252e+000	 8.990111831531838e+000
 6.267767900252235e-001	 4.279342923344370e+000	 8.998882758947952e+000
 5.868825694358320e-001	 4.284996365200073e+000	 9.029912703344857e+000
 5.470623385599893e-001	 4.290261973097732e+000	 9.042735355309604e+000
 5.073211186645767e-001	 4.295142638217016e+000	 9.041775995337899e+000
 4.676638451660140e-001	 4.299641325505075e+000	 9.031777299265361e+000
 4.280953666408461e-001	 4.303761071100536e+000	 9.016774142854569e+000
 3.886204439169041e-001	 4.307504979755969e+000	 9.000104766859039e+000
 7.915392779967340e-001	 4.277378352626607e+000	 9.127782012113640e+000
 7.511689757932621e-001	 4.284652281098968e+000	 9.090785897117581e+000
 7.108520491387896e-001	 4.291525295783235e+000	 9.067086437138983e+000
 6.705938821127631e-001	 4.297999982012227e+000	 9.056286946640356e+000
 6.303997772538712e-001	 4.304079009606460e+000	 9.058123907832552e+000
 5.902749542334850e-001	 4.309765130316754e+000	 9.078669456396749e+000
 5.502245486128563e-001	 4.315061175254239e+000	 9.082790148491275e+000
 5.102536106835299e-001	 4.319970052310598e+000	 9.072702681815406e+000
 4.703671043903441e-001	 4.324494743571407e+000	 9.053286401702884e+000
 4.305699063362979e-001	 4.328638302725230e+000	 9.028701391890678e+000
 3.908668048684583e-001	 4.332403852471176e+000	 9.002399745075620e+000
 7.960883543090176e-001	 4.301960986837015e+000	 9.173945269637132e+000
 7.554860388747265e-001	 4.309276719495773e+000	 9.155732916972145e+000
 7.149374057454458e-001	 4.316189234264248e+000	 9.142144399795596e+000
 6.744478699436075e-001	 4.322701131333488e+000	 9.132773064920476e+000
 6.340227644822606e-001	 4.328815095867808e+000	 9.127354736326804e+000
 5.936673390308876e-001	 4.334533895432689e+000	 9.134752475151188e+000
 5.533867586654606e-001	 4.339860377410007e+000	 9.127667659563802e+000
 5.131861027021881e-001	 4.344797466403474e+000	 9.106179558201536e+000
 4.730703636143274e-001	 4.349348161637087e+000	 9.075305044942562e+000
 4.330444460313317e-001	 4.353515534349339e+000	 9.039329998632814e+000
 3.931131658195043e-001	 4.357302725185893e+000	 9.001820683758089e+000
 8.006374306208084e-001	 4.326543621046915e+000	 9.231355763752662e+000
 7.598031019557878e-001	 4.333901157891983e+000	 9.231525098888065e+000
 7.190227623517680e-001	 4.340853172744595e+000	 9.227681430841898e+000
 6.783018577741659e-001	 4.347402280654034e+000	 9.219407094735649e+000
 6.376457517103917e-001	 4.353551182128414e+000	 9.206436236730019e+000
 5.970597238280400e-001	 4.359302660547872e+000	 9.198483876186693e+000
 5.565489687178020e-001	 4.364659579565039e+000	 9.177669188009347e+000
 5.161185947205512e-001	 4.369624880495647e+000	 9.142487248028473e+000
 4.757736228379639e-001	 4.374201579702113e+000	 9.098093336980156e+000
 4.355189857259478e-001	 4.378392765972867e+000	 9.051390080579903e+000
 3.953595267700419e-001	 4.382201597900117e+000	 9.009941106196509e+000
 8.051865069321068e-001	 4.351126255256308e+000	 9.299769680236599e+000
 7.641201650364461e-001	 4.358525596287595e+000	 9.317947150845567e+000
 7.231081189577555e-001	 4.365517111224277e+000	 9.323509191282712e+000
 6.821558456044382e-001	 4.372103429973867e+000	 9.316026078947827e+000
 6.412687389382651e-001	 4.378287268388280e+000	 9.272092815778688e+000
 6.004521086249417e-001	 4.384071425662305e+000	 9.224013703441564e+000
 5.597111787698806e-001	 4.389458781719333e+000	 9.184900076091900e+000
 5.190510867386197e-001	 4.394452294587114e+000	 9.146912535131506e+000
 4.784768820612541e-001	 4.399054997766486e+000	 9.110218165204934e+000
 4.379935254201459e-001	 4.403269997595814e+000	 9.074780372953525e+000
 3.976058877200713e-001	 4.407100470613849e+000	 9.040363938308040e+000
 8.097355832429123e-001	 4.375708889465194e+000	 9.369077052446768e+000
 7.684372281167010e-001	 4.383150034682610e+000	 9.313039152593555e+000
 7.271934755634087e-001	 4.390181049703290e+000	 9.263857568783593e+000
 6.860098334344247e-001	 4.396804579292988e+000	 9.222105051614239e+000
 6.448917261658799e-001	 4.403023354647401e+000	 9.188185394529837e+000
 6.038444934215930e-001	 4.408840190775990e+000	 9.168636864850660e+000
 5.628733888216966e-001	 4.414257983872890e+000	 9.154165823145789e+000
 5.219835787563931e-001	 4.419279708677876e+000	 9.136312668143850e+000
 4.811801412841973e-001	 4.423908415830206e+000	 9.115287384763930e+000
 4.404680651139261e-001	 4.428147229218177e+000	 9.091096342137114e+000
 3.998522486695924e-001	 4.431999343327089e+000	 9.063547308476537e+000
 8.142846595532254e-001	 4.400291523673573e+000	 9.110867644397482e+000
 7.727542911965530e-001	 4.407774473077029e+000	 9.104651251699231e+000
 7.312788321687278e-001	 4.414844988181641e+000	 9.100294619954109e+000
 6.898638212641248e-001	 4.421505728611392e+000	 9.098408095922682e+000
 6.485147133932367e-001	 4.427759440905782e+000	 9.099434454598928e+000
 6.072368782179939e-001	 4.433608955888925e+000	 9.108047797264852e+000
 5.660355988732496e-001	 4.439057186025711e+000	 9.117598856538249e+000
 5.249160707738717e-001	 4.444107122767933e+000	 9.119374209247262e+000
 4.838834005067940e-001	 4.448761833893272e+000	 9.113626336600017e+000
 4.429426048072886e-001	 4.453024460839959e+000	 9.100404070541034e+000
 4.020986096186051e-001	 4.456898216039838e+000	 9.079557574519134e+000
 8.188337358630459e-001	 4.424874157881446e+000	 8.852001251415103e+000
 7.770713542760024e-001	 4.432398911470850e+000	 8.894425819507005e+000
 7.353641887737129e-001	 4.439508926659324e+000	 8.933816110304408e+000
 6.937178090935393e-001	 4.446206877929084e+000	 8.970820231997545e+000
 6.521377006203357e-001	 4.452495527163421e+000	 9.005920016858097e+000
 6.106292630141446e-001	 4.458377721001112e+000	 9.042303517410691e+000
 5.691978089245402e-001	 4.463856388177795e+000	 9.075259332473845e+000
 5.278485627910554e-001	 4.468934536857286e+000	 9.096159701049396e+000
 4.865866597290441e-001	 4.473615251955685e+000	 9.105299205587167e+000
 4.454171445002333e-001	 4.477901692461161e+000	 9.102768650178529e+000
 4.043449705671096e-001	 4.481797088752095e+000	 9.088460009534792e+000
 3.818813610591916e-001	 4.232808361607396e+000	 8.973760855009651e+000
 3.431874992402947e-001	 4.236121143260720e+000	 8.959112626306730e+000
 3.045946655437639e-001	 4.239070899352234e+000	 8.944684226836490e+000
 2.661072749782468e-001	 4.241660867892875e+000	 8.931524773772205e+000
 2.277296535260604e-001	 4.243894344221186e+000	 8.920077233162147e+000
 1.894660376312561e-001	 4.245774678499766e+000	 8.910193992772879e+000
 1.513205737604607e-001	 4.247305273224471e+000	 8.901153201741929e+000
 1.132973180351715e-001	 4.248489580748445e+000	 8.891675815674397e+000
 7.540023593415120e-002	 4.249331100823047e+000	 8.879943286164446e+000
 3.763320206450971e-002	 4.249833378157621e+000	 8.863615834236835e+000
 0.000000000000000e+000	 4.250000000000000e+000	 8.839851247876123e+000
 3.841277220122707e-001	 4.257707234324079e+000	 8.986008061348437e+000
 3.452062492418693e-001	 4.261039502928045e+000	 8.965337102463797e+000
 3.063863988766923e-001	 4.264006610525749e+000	 8.946618334483247e+000
 2.676726118960288e-001	 4.266611814175250e+000	 8.930986196142010e+000
 2.290692397291523e-001	 4.268858428599435e+000	 8.918956997104450e+000
 1.905805437403758e-001	 4.270749823667742e+000	 8.910444715486280e+000
 1.522106947873085e-001	 4.272289421890708e+000	 8.904777578484078e+000
 1.139637728509881e-001	 4.273480695929435e+000	 8.900715363663101e+000
 7.584376673652529e-002	 4.274327166122059e+000	 8.896467358801711e+000
 3.785457384283875e-002	 4.274832398029149e+000	 8.889710918708259e+000
 0.000000000000000e+000	 4.275000000000000e+000	 8.877610558107154e+000
 3.863740829648416e-001	 4.282606107040270e+000	 8.994714904191435e+000
 3.472249992428512e-001	 4.285957862594974e+000	 8.967398016856128e+000
 3.081781322089745e-001	 4.288942321698952e+000	 8.943969154036713e+000
 2.692379488131415e-001	 4.291562760457388e+000	 8.925647625202386e+000
 2.304088259315822e-001	 4.293822512977510e+000	 8.913022405114976e+000
 1.916950498488709e-001	 4.295724968835596e+000	 8.906068161659860e+000
 1.531008158135986e-001	 4.297273570556868e+000	 8.904162083293048e+000
 1.146302276663433e-001	 4.298471811110384e+000	 8.906101442554313e+000
 7.628729753856317e-002	 4.299323231421051e+000	 8.910121832444531e+000
 3.807594562098553e-002	 4.299831417900672e+000	 8.913916012987393e+000
 0.000000000000000e+000	 4.300000000000000e+000	 8.914653305983668e+000
 3.886204439169041e-001	 4.307504979755969e+000	 9.000104766859039e+000
 3.492437492432404e-001	 4.310876222261504e+000	 8.965487615183278e+000
 3.099698655406105e-001	 4.313878032871843e+000	 8.936898429397600e+000
 2.708032857295849e-001	 4.316513706739285e+000	 8.915640952706673e+000
 2.317484121333502e-001	 4.318786597355409e+000	 8.902376158987016e+000
 1.928095559567414e-001	 4.320700114003333e+000	 8.897138516575890e+000
 1.539909368393310e-001	 4.322257719222951e+000	 8.899353068397625e+000
 1.152966824812370e-001	 4.323462926291288e+000	 8.907853263758659e+000
 7.673082834026486e-002	 4.324319296720024e+000	 8.920899477491801e+000
 3.829731739895002e-002	 4.324830437772191e+000	 8.936198152656989e+000
 0.000000000000000e+000	 4.324999999999999e+000	 8.950921503700950e+000
 3.908668048684583e-001	 4.332403852471176e+000	 9.002399745075620e+000
 3.512624992430367e-001	 4.335794581927638e+000	 8.959797037042570e+000
 3.117615988716001e-001	 4.338813744044420e+000	 8.925566998496095e+000
 2.723686226453592e-001	 4.341464653020945e+000	 8.901097382942082e+000
 2.330879983344563e-001	 4.343750681733136e+000	 8.887120509653569e+000
 1.939240620639871e-001	 4.345675259170945e+000	 8.883729769086816e+000
 1.548810578645057e-001	 4.347241867888957e+000	 8.890396961569847e+000
 1.159631372956692e-001	 4.348454041472150e+000	 8.905990403458796e+000
 7.717435914163033e-002	 4.349315362018977e+000	 8.928793735307011e+000
 3.851868917673224e-002	 4.349829457643704e+000	 8.956525367124570e+000
 0.000000000000000e+000	 4.350000000000000e+000	 8.986358496507464e+000
 3.931131658195043e-001	 4.357302725185893e+000	 9.001820683758089e+000
 3.532812492422405e-001	 4.360712941593376e+000	 8.950516347532048e+000
 3.135533322019435e-001	 4.363749455216683e+000	 8.910134819176731e+000
 2.739339595604641e-001	 4.366415599302365e+000	 8.882147452371518e+000
 2.344275845349006e-001	 4.368714766110686e+000	 8.867357270069022e+000
 1.950385681706083e-001	 4.370650404338438e+000	 8.865915717227550e+000
 1.557711788891227e-001	 4.372226016554885e+000	 8.877340263966730e+000
 1.166295921096400e-001	 4.373445156652969e+000	 8.900532792187265e+000
 7.761788994265960e-002	 4.374311427317911e+000	 8.933798699047662e+000
 3.874006095433218e-002	 4.374828477515214e+000	 8.974866651227693e+000
 0.000000000000000e+000	 4.374999999999999e+000	 9.020908924617528e+000
 3.953595267700419e-001	 4.382201597900117e+000	 9.009941106196509e+000
 3.552999992408514e-001	 4.385631301258716e+000	 8.961251340506099e+000
 3.153450655316407e-001	 4.388685166388635e+000	 8.926523042432663e+000
 2.754992964748999e-001	 4.391366545583549e+000	 8.904902009421114e+000
 2.357671707346829e-001	 4.393678850488063e+000	 8.895350926772418e+000
 1.961530742766049e-001	 4.395625549505810e+000	 8.896655807639220e+000
 1.566612999131819e-001	 4.397210165220737e+000	 8.907432611188645e+000
 1.172960469231493e-001	 4.398436271833745e+000	 8.926134018836873e+000
 7.806142074335265e-002	 4.399307492616828e+000	 8.951056348748399e+000
 3.896143273174985e-002	 4.399827497386719e+000	 8.980346589127828e+000
 0.000000000000000e+000	 4.400000000000000e+000	 9.012009531211048e+000
 3.976058877200713e-001	 4.407100470613849e+000	 9.040363938308040e+000
 3.573187492388698e-001	 4.410549660923660e+000	 8.997699337907239e+000
 3.171367988606916e-001	 4.413620877560275e+000	 8.966711110472380e+000
 2.770646333886664e-001	 4.416317491864493e+000	 8.946592315147683e+000
 2.371067569338033e-001	 4.418642934865265e+000	 8.936351009877351e+000
 1.972675803819767e-001	 4.420600694673062e+000	 8.934816710006089e+000
 1.575514209366834e-001	 4.422194313886511e+000	 8.940647029062712e+000
 1.179625017361972e-001	 4.423427387014477e+000	 8.952334481394557e+000
 7.850495154370950e-002	 4.424303557915724e+000	 8.968213426608081e+000
 3.918280450898524e-002	 4.424826517258219e+000	 8.986467136106587e+000
 0.000000000000000e+000	 4.425000000000000e+000	 9.005134962395880e+000
 3.998522486695924e-001	 4.431999343327089e+000	 9.063547308476537e+000
 3.593374992362954e-001	 4.435468020588207e+000	 9.027451066026892e+000
 3.189285321890961e-001	 4.438556588731601e+000	 9.000832639438130e+000
 2.786299703017637e-001	 4.441268438145198e+000	 8.982931520704824e+000
 2.384463431322618e-001	 4.443607019242291e+000	 8.972800241732447e+000
 1.983820864867240e-001	 4.445575839840192e+000	 8.969310853915415e+000
 1.584415419596272e-001	 4.447178462552208e+000	 8.971161593958120e+000
 1.186289565487836e-001	 4.448418502195166e+000	 8.976883715364290e+000
 7.894848234373017e-002	 4.449299623214603e+000	 8.984848465306795e+000
 3.940417628603835e-002	 4.449825537129714e+000	 8.993274186926554e+000
 0.000000000000000e+000	 4.449999999999999e+000	 9.000233527490364e+000
 4.020986096186051e-001	 4.456898216039838e+000	 9.079557574519134e+000
 3.613562492331282e-001	 4.460386380252357e+000	 9.050562440806630e+000
 3.207202655168545e-001	 4.463492299902615e+000	 9.028932803542906e+000
 2.801953072141918e-001	 4.466219384425667e+000	 9.013953767530522e+000
 2.397859293300584e-001	 4.468571103619143e+000	 9.004721448580925e+000
 1.994965925908466e-001	 4.470550985007201e+000	 9.000149476441298e+000
 1.593316629820133e-001	 4.472162611217828e+000	 8.998975688068596e+000
 1.192954113609085e-001	 4.473409617375810e+000	 8.999768990428255e+000
 7.939201314341458e-002	 4.474295688513459e+000	 9.000936372281071e+000
 3.962554806290918e-002	 4.474824557001202e+000	 9.000730044758864e+000
 0.000000000000000e+000	 4.474999999999999e+000	 8.997254690911888e+000
 4.043449705671096e-001	 4.481797088752095e+000	 9.088460009534792e+000
 3.633749992293684e-001	 4.485304739916109e+000	 9.067088446366940e+000
 3.225119988439666e-001	 4.488428011073319e+000	 9.051056013776838e+000
 2.817606441259506e-001	 4.491170330705894e+000	 9.039692617915955e+000
 2.411255155271930e-001	 4.493535187995821e+000	 9.032137076844739e+000
 2.006110986943447e-001	 4.495526130174090e+000	 9.027343649178215e+000
 1.602217840038418e-001	 4.497146759883373e+000	 9.024088757228315e+000
 1.199618661725720e-001	 4.498400732556415e+000	 9.020977883565982e+000
 7.983554394276284e-002	 4.499291753812300e+000	 9.016452620212849e+000
 3.984691983959775e-002	 4.499823576872690e+000	 9.008797850009463e+000
 0.000000000000000e+000	 4.500000000000000e+000	 8.996149040090941e+000
 4.500000000000000e+000	 0.000000000000000e+000	 1.060028665141734e+001
 4.499823576872690e+000	 3.984691983959790e-002	 1.056106423909326e+001
 4.499291753812299e+000	 7.983554394276311e-002	 1.052770210158071e+001
 4.498400732556415e+000	 1.199618661725717e-001	 1.050001032047307e+001
 4.497146759883374e+000	 1.602217840038417e-001	 1.047780449274981e+001
 4.495526130174089e+000	 2.006110986943446e-001	 1.046090532347975e+001
 4.493535187995821e+000	 2.411255155271932e-001	 1.044913817466738e+001
 4.491170330705895e+000	 2.817606441259510e-001	 1.044233257000388e+001
 4.488428011073320e+000	 3.225119988439664e-001	 1.044032165542080e+001
 4.485304739916110e+000	 3.633749992293683e-001	 1.044294161548851e+001
 4.481797088752097e+000	 4.043449705671097e-001	 1.045003104585042e+001
 4.525000000000000e+000	 0.000000000000000e+000	 1.056374932843151e+001
 4.524822596744175e+000	 4.006829161619294e-002	 1.052926382645982e+001
 4.524287819111140e+000	 8.027907474193370e-002	 1.050056328433303e+001
 4.523391847737016e+000	 1.206283209839829e-001	 1.047744941961302e+001
 4.522130908548917e+000	 1.611119050253527e-001	 1.045972941097482e+001
 4.520501275340979e+000	 2.017256047974699e-001	 1.044721548297810e+001
 4.518499272372498e+000	 2.424651017239095e-001	 1.043972444639235e+001
 4.516121276986123e+000	 2.833259810372560e-001	 1.043707719384083e+001
 4.513363722244021e+000	 3.243037321705991e-001	 1.043909815066647e+001
 4.510223099579862e+000	 3.653937492251135e-001	 1.044561468106984e+001
 4.506695961464353e+000	 4.065913315151141e-001	 1.045645644972020e+001
 4.550000000000000e+000	 0.000000000000000e+000	 1.053038413044320e+001
 4.549821616615666e+000	 4.028966339278321e-002	 1.050006110727608e+001
 4.549283884409996e+000	 8.072260554108510e-002	 1.047544062394293e+001
 4.548382962917662e+000	 1.212947757953508e-001	 1.045631637864000e+001
 4.547115057214538e+000	 1.620020260467866e-001	 1.044248748785056e+001
 4.545476420507988e+000	 2.028401109004743e-001	 1.043375806298019e+001
 4.543463356749350e+000	 2.438046879204513e-001	 1.042993674193415e+001
 4.541072223266592e+000	 2.848913179483225e-001	 1.043083617540383e+001
 4.538299433415035e+000	 3.260954654969191e-001	 1.043627246777168e+001
 4.535141459244013e+000	 3.674124992204619e-001	 1.044606457269129e+001
 4.531594834177102e+000	 4.088376924626270e-001	 1.046003364355489e+001
 4.574999999999999e+000	 0.000000000000000e+000	 1.050030832553230e+001
 4.574820636487161e+000	 4.051103516936872e-002	 1.047357471179984e+001
 4.574279949708873e+000	 8.116613634021740e-002	 1.045245413645127e+001
 4.573374078098351e+000	 1.219612306066755e-001	 1.043673262383846e+001
 4.572099205880235e+000	 1.628921470681435e-001	 1.042620158523282e+001
 4.570451565675120e+000	 2.039546170033579e-001	 1.042065738711911e+001
 4.568427441126377e+000	 2.451442741168184e-001	 1.041990087379628e+001
 4.566023169547297e+000	 2.864566548591504e-001	 1.042373684405510e+001
 4.563235144586362e+000	 3.278871988229265e-001	 1.043197348184665e+001
 4.560059818908559e+000	 3.694312492154132e-001	 1.044442174100618e+001
 4.556493706890342e+000	 4.110840534096479e-001	 1.046089468425427e+001
 4.600000000000000e+000	 0.000000000000000e+000	 1.047363663247259e+001
 4.599819656358659e+000	 4.073240694594946e-002	 1.044992059020461e+001
 4.599276015007772e+000	 8.160966713933057e-002	 1.043172102587968e+001
 4.598365193279084e+000	 1.226276854179570e-001	 1.041881663641918e+001
 4.597083354546009e+000	 1.637822680894232e-001	 1.041099148576827e+001
 4.595426710842369e+000	 2.050691231061205e-001	 1.040803456464170e+001
 4.593391525503580e+000	 2.464838603130109e-001	 1.040973930391822e+001
 4.590974115828240e+000	 2.880219917697399e-001	 1.041590304145625e+001
 4.588170855758003e+000	 3.296789321486214e-001	 1.042632644224912e+001
 4.584978178573501e+000	 3.714499992099676e-001	 1.044081287199238e+001
 4.581392579604074e+000	 4.133304143561773e-001	 1.045916772429441e+001
 4.624999999999999e+000	 0.000000000000000e+000	 1.045048128963200e+001
 4.624818676230165e+000	 4.095377872252544e-002	 1.042921208501426e+001
 4.624272080306688e+000	 8.205319793842462e-002	 1.041335576023123e+001
 4.623356308459858e+000	 1.232941402291954e-001	 1.040268403211601e+001
 4.622067503211861e+000	 1.646723891106260e-001	 1.039697397611631e+001
 4.620401856009741e+000	 2.061836292087624e-001	 1.039600757728386e+001
 4.618355609880956e+000	 2.478234465090287e-001	 1.039957123423122e+001
 4.615925062109422e+000	 2.895873286800908e-001	 1.040745521583058e+001
 4.613106566929955e+000	 3.314706654740037e-001	 1.041945307057769e+001
 4.609896538238842e+000	 3.734687492041251e-001	 1.043536098870039e+001
 4.606291452318299e+000	 4.155767753022150e-001	 1.045497711725277e+001
 4.650000000000000e+000	 0.000000000000000e+000	 1.043095212165005e+001
 4.649817696101674e+000	 4.117515049909665e-002	 1.041156000120121e+001
 4.649268145605621e+000	 8.249672873749950e-002	 1.039747014503911e+001
 4.648347423640677e+000	 1.239605950403905e-001	 1.038844763821468e+001
 4.647051651877790e+000	 1.655625101317516e-001	 1.038426292748634e+001
 4.645377001177234e+000	 2.072981353112834e-001	 1.038469136334347e+001
 4.643319694258506e+000	 2.491630327048719e-001	 1.038951269429287e+001
 4.640876008390843e+000	 2.911526655902032e-001	 1.039851051318447e+001
 4.638042278102219e+000	 3.332623987990734e-001	 1.041147165550405e+001
 4.634814897904581e+000	 3.754874991978856e-001	 1.042818554971914e+001
 4.631190325033014e+000	 4.178231362477610e-001	 1.044844351992902e+001
 4.675000000000000e+000	 0.000000000000000e+000	 1.041515660397616e+001
 4.674816715973187e+000	 4.139652227566309e-002	 1.039707267403535e+001
 4.674264210904576e+000	 8.294025953655530e-002	 1.038417339455580e+001
 4.673338538821540e+000	 1.246270498515425e-001	 1.037621756811035e+001
 4.672035800543796e+000	 1.664526311528002e-001	 1.037296937359104e+001
 4.670352146344847e+000	 2.084126414136835e-001	 1.037419789905573e+001
 4.668283778636232e+000	 2.505026189005405e-001	 1.037967662610997e+001
 4.665826954672503e+000	 2.927180025000771e-001	 1.038918286560199e+001
 4.662977989274797e+000	 3.350541321238305e-001	 1.040249714456246e+001
 4.659733257570715e+000	 3.775062491912492e-001	 1.041940254448238e+001
 4.656089197748221e+000	 4.200694971928152e-001	 1.043968399118944e+001
 4.699999999999999e+000	 0.000000000000000e+000	 1.040319992534805e+001
 4.699815735844708e+000	 4.161789405222478e-002	 1.038585603476761e+001
 4.699260276203549e+000	 8.338379033559194e-002	 1.037357220067004e+001
 4.698329654002444e+000	 1.252935046626512e-001	 1.036610129348550e+001
 4.697019949209880e+000	 1.673427521737716e-001	 1.036320158611163e+001
 4.695327291512582e+000	 2.095271475159629e-001	 1.036463627737135e+001
 4.693247863014131e+000	 2.518422050960345e-001	 1.037017296625427e+001
 4.690777900954401e+000	 2.942833394097125e-001	 1.037958307672156e+001
 4.687913700447686e+000	 3.368458654482751e-001	 1.039264123300981e+001
 4.684651617237247e+000	 3.795249991842158e-001	 1.040912458553351e+001
 4.680988070463921e+000	 4.223158581373777e-001	 1.042881208765662e+001
 4.725000000000000e+000	 0.000000000000000e+000	 1.039518504828676e+001
 4.724814755716230e+000	 4.183926582878168e-002	 1.037801367422840e+001
 4.724256341502540e+000	 8.382732113460945e-002	 1.036577079963611e+001
 4.723320769183393e+000	 1.259599594737167e-001	 1.035820371419645e+001
 4.722004097876039e+000	 1.682328731946661e-001	 1.035506514776755e+001
 4.720302436680437e+000	 2.106416536181213e-001	 1.035611278423405e+001
 4.718211947392206e+000	 2.531817912913539e-001	 1.036110872537129e+001
 4.715728847236537e+000	 2.958486763191094e-001	 1.036981890449905e+001
 4.712849411620889e+000	 3.386375987724070e-001	 1.038201244986468e+001
 4.709569976904174e+000	 3.815437491767853e-001	 1.039746099786131e+001
 4.705886943180112e+000	 4.245622190814485e-001	 1.041593795636141e+001
 4.750000000000000e+000	 0.000000000000000e+000	 1.039121276768132e+001
 4.749813775587761e+000	 4.206063760533384e-002	 1.037364690441754e+001
 4.749252406801552e+000	 8.427085193360784e-002	 1.036087103669568e+001
 4.748311884364385e+000	 1.266264142847391e-001	 1.035262722595314e+001
 4.746988246542277e+000	 1.691229942154834e-001	 1.034866302307856e+001
 4.745277581848414e+000	 2.117561597201589e-001	 1.034873097244905e+001
 4.743176031770457e+000	 2.545213774864986e-001	 1.035258806517838e+001
 4.740679793518913e+000	 2.974140132282679e-001	 1.035999514135733e+001
 4.737785122794405e+000	 3.404293320962264e-001	 1.037071624122942e+001
 4.734488336571500e+000	 3.835624991689580e-001	 1.038451790541449e+001
 4.730785815896796e+000	 4.268085800250276e-001	 1.040116842446903e+001
 4.481797088752097e+000	 4.043449705671097e-001	 1.045003104585042e+001
 4.477901692461161e+000	 4.454171445002335e-001	 1.046668135224018e+001
 4.473615251955685e+000	 4.865866597290443e-001	 1.048905073563407e+001
 4.468934536857284e+000	 5.278485627910551e-001	 1.051669524088580e+001
 4.463856388177794e+000	 5.691978089245400e-001	 1.054916360593242e+001
 4.458377721001112e+000	 6.106292630141444e-001	 1.058599655657710e+001
 4.452495527163421e+000	 6.521377006203358e-001	 1.057337619257630e+001
 4.446206877929084e+000	 6.937178090935396e-001	 1.053047495621206e+001
 4.439508926659324e+000	 7.353641887737125e-001	 1.048341477248978e+001
 4.432398911470851e+000	 7.770713542760019e-001	 1.043106587275315e+001
 4.424874157881446e+000	 8.188337358630459e-001	 1.037225136339428e+001
 4.506695961464353e+000	 4.065913315151141e-001	 1.045645644972020e+001
 4.502778924082358e+000	 4.478916841926803e-001	 1.047058501222855e+001
 4.498468670018098e+000	 4.892899189508039e-001	 1.049008683730284e+001
 4.493761950946638e+000	 5.307810548077605e-001	 1.051454876659692e+001
 4.488655590329879e+000	 5.723600189753691e-001	 1.054355108149230e+001
 4.483146486113297e+000	 6.140216478098557e-001	 1.057666676495414e+001
 4.477231613421060e+000	 6.557606878470222e-001	 1.055937163953345e+001
 4.470908027246774e+000	 6.975717969225734e-001	 1.052049171722391e+001
 4.464172865137007e+000	 7.394495453783541e-001	 1.047752669159387e+001
 4.457023349864672e+000	 7.813884173551499e-001	 1.042939412148825e+001
 4.449456792089316e+000	 8.233828121726123e-001	 1.037496448404302e+001
 4.531594834177102e+000	 4.088376924626270e-001	 1.046003364355489e+001
 4.527656155704141e+000	 4.503662238845501e-001	 1.047192409146804e+001
 4.523322088081165e+000	 4.919931781719293e-001	 1.048884374965029e+001
 4.518589365036693e+000	 5.337135468238041e-001	 1.051041038662348e+001
 4.513454792482697e+000	 5.755222290255383e-001	 1.053623595821733e+001
 4.507915251226233e+000	 6.174140326049386e-001	 1.056592583617849e+001
 4.501967699679440e+000	 6.593836750731418e-001	 1.054540152234110e+001
 4.495609176565180e+000	 7.014257847511327e-001	 1.051053073832414e+001
 4.488836803615358e+000	 7.435349019826434e-001	 1.047165802068057e+001
 4.481647788259091e+000	 7.857054804340988e-001	 1.042774886034174e+001
 4.474039426297694e+000	 8.279318884821644e-001	 1.037772170534682e+001
 4.556493706890342e+000	 4.110840534096479e-001	 1.046089468425427e+001
 4.552533387326506e+000	 4.528407635758423e-001	 1.047081732936597e+001
 4.548175506144884e+000	 4.946964373924208e-001	 1.048542684621424e+001
 4.543416779127454e+000	 5.366460388391861e-001	 1.050437206636022e+001
 4.538253994636254e+000	 5.786844390750475e-001	 1.052729675730586e+001
 4.532684016339916e+000	 6.208064173993930e-001	 1.055383881753163e+001
 4.526703785938562e+000	 6.630066622986948e-001	 1.053140618439482e+001
 4.520310325884299e+000	 7.052797725792170e-001	 1.050051219542988e+001
 4.513500742094372e+000	 7.476202585865805e-001	 1.046570882174468e+001
 4.506272226654104e+000	 7.900225435128486e-001	 1.042601010256220e+001
 4.498622060506580e+000	 8.324809647917016e-001	 1.038038306869036e+001
 4.581392579604074e+000	 4.133304143561773e-001	 1.045916772429441e+001
 4.577410618949450e+000	 4.553153032665570e-001	 1.046737974549567e+001
 4.573028924209256e+000	 4.973996966122780e-001	 1.047993796631620e+001
 4.568244193218922e+000	 5.395785308539063e-001	 1.049652242356748e+001
 4.563053196790550e+000	 5.818466491238972e-001	 1.051680883980263e+001
 4.557452781454350e+000	 6.241988021932194e-001	 1.054046778445402e+001
 4.551439872198428e+000	 6.666296495236814e-001	 1.051732318632549e+001
 4.545011475204132e+000	 7.091337604068270e-001	 1.049035367146356e+001
 4.538164680574053e+000	 7.517056151901649e-001	 1.045957675417895e+001
 4.530896665049717e+000	 7.943396065913994e-001	 1.042405564973880e+001
 4.523204694715974e+000	 8.370300411012241e-001	 1.038280659521787e+001
 4.606291452318299e+000	 4.155767753022150e-001	 1.045497711725277e+001
 4.602287850572980e+000	 4.577898429566946e-001	 1.046172274013246e+001
 4.597882342274283e+000	 5.001029558315012e-001	 1.047247551058066e+001
 4.593071607311094e+000	 5.425110228679648e-001	 1.048694681884784e+001
 4.587852398945581e+000	 5.850088591720870e-001	 1.050484449200824e+001
 4.582221546569533e+000	 6.275911869864177e-001	 1.052335171684540e+001
 4.576175958459033e+000	 6.702526367481011e-001	 1.050308738120912e+001
 4.569712624524680e+000	 7.129877482339619e-001	 1.047997022643390e+001
 4.562828619054401e+000	 7.557909717933975e-001	 1.045315713970926e+001
 4.555521103445927e+000	 7.986566696697511e-001	 1.042176115157599e+001
 4.547787328925875e+000	 8.415791174107322e-001	 1.038484834043407e+001
 4.631190325033014e+000	 4.178231362477610e-001	 1.044844351992902e+001
 4.627165082197091e+000	 4.602643826462549e-001	 1.045395419154666e+001
 4.622735760339963e+000	 5.028062150500903e-001	 1.046313453337332e+001
 4.617899021403972e+000	 5.454435148813617e-001	 1.047572744320407e+001
 4.612651601101352e+000	 5.881710692196168e-001	 1.049147300813361e+001
 4.606990311685467e+000	 6.309835717789875e-001	 1.050520535959779e+001
 4.600912044720382e+000	 6.738756239719543e-001	 1.048863098735060e+001
 4.594413773845941e+000	 7.168417360606222e-001	 1.046927446525614e+001
 4.587492557535411e+000	 7.598763283962775e-001	 1.044634302523522e+001
 4.580145541842733e+000	 8.029737327479041e-001	 1.041900016373979e+001
 4.572369963136282e+000	 8.461281937202254e-001	 1.038636244704399e+001
 4.656089197748221e+000	 4.200694971928152e-001	 1.043968399118944e+001
 4.652042313821781e+000	 4.627389223352377e-001	 1.044417855017486e+001
 4.647589178406296e+000	 5.055094742680454e-001	 1.045200683227314e+001
 4.642726435497553e+000	 5.483760068940968e-001	 1.046294340278784e+001
 4.637450803257858e+000	 5.913332792664869e-001	 1.047676077030238e+001
 4.631759076802149e+000	 6.343759565709292e-001	 1.048688816827272e+001
 4.625648130982473e+000	 6.774986111952410e-001	 1.047388365873212e+001
 4.619114923167915e+000	 7.206957238868077e-001	 1.045817660339625e+001
 4.612156496017089e+000	 7.639616849988052e-001	 1.043902524365427e+001
 4.604769980240135e+000	 8.072907958258577e-001	 1.041564420384810e+001
 4.596952597347198e+000	 8.506772700297042e-001	 1.038720119609741e+001
 4.680988070463921e+000	 4.223158581373777e-001	 1.042881208765662e+001
 4.676919545447057e+000	 4.652134620236433e-001	 1.043249692978565e+001
 4.672442596473283e+000	 5.082127334853662e-001	 1.043918103468905e+001
 4.667553849591841e+000	 5.513084989061704e-001	 1.044867080094356e+001
 4.662250005415101e+000	 5.944954893126971e-001	 1.046077132600003e+001
 4.656527841919582e+000	 6.377683413622425e-001	 1.046834661434443e+001
 4.650384217245303e+000	 6.811215984179608e-001	 1.045877255321321e+001
 4.643816072490604e+000	 7.245497117125186e-001	 1.044658453042009e+001
 4.636820434499433e+000	 7.680470416009809e-001	 1.043109247274480e+001
 4.629394418638134e+000	 8.116078589036125e-001	 1.041156280567419e+001
 4.621535231558619e+000	 8.552263463391679e-001	 1.038721505650082e+001
 4.705886943180112e+000	 4.245622190814485e-001	 1.041593795636141e+001
 4.701796777072913e+000	 4.676880017114715e-001	 1.041900719575134e+001
 4.697296014540922e+000	 5.109159927020530e-001	 1.042474268172690e+001
 4.692381263686833e+000	 5.542409909175822e-001	 1.043298281764782e+001
 4.687049207573082e+000	 5.976576993582475e-001	 1.044356546306429e+001
 4.681296607037764e+000	 6.411607261529279e-001	 1.044952457408613e+001
 4.675120303508878e+000	 6.847445856401142e-001	 1.044322239856580e+001
 4.668517221814007e+000	 7.284036995377544e-001	 1.043440387152521e+001
 4.661484372982444e+000	 7.721323982028043e-001	 1.042243129217988e+001
 4.654018857036731e+000	 8.159249219811683e-001	 1.040662357162929e+001
 4.646117865770552e+000	 8.597754226486175e-001	 1.038625273295785e+001
 4.730785815896796e+000	 4.268085800250276e-001	 1.040116842446903e+001
 4.726674008699353e+000	 4.701625413987225e-001	 1.040380405053205e+001
 4.722149432609216e+000	 5.136192519181058e-001	 1.040877430940792e+001
 4.717208677782531e+000	 5.571734829283322e-001	 1.041594978644006e+001
 4.711848409731801e+000	 6.008199094031381e-001	 1.042520128230747e+001
 4.706065372156695e+000	 6.445531109429850e-001	 1.043036339686470e+001
 4.699856389773195e+000	 6.883675728617011e-001	 1.042715555642380e+001
 4.693218371138125e+000	 7.322576873625162e-001	 1.042153804712944e+001
 4.686148311466118e+000	 7.762177548042752e-001	 1.041292623874051e+001
 4.678643295435926e+000	 8.202419850585251e-001	 1.040069222358789e+001
 4.670700499982989e+000	 8.643244989580522e-001	 1.038416121239555e+001
 4.424874157881446e+000	 8.188337358630459e-001	 1.037225136339428e+001
 4.416932081439071e+000	 8.606456809043407e-001	 1.049174919973381e+001
 4.408570190332767e+000	 9.025014554232427e-001	 1.059280133606477e+001
 4.399786087981418e+000	 9.443952457313434e-001	 1.067313686776617e+001
 4.390577475596269e+000	 9.863211601505711e-001	 1.073042019012469e+001
 4.380942154715376e+000	 1.028273230823133e+000	 1.076224915646947e+001
 4.370878029706319e+000	 1.070245415609068e+000	 1.077444455844936e+001
 4.360383110233927e+000	 1.112231600071145e+000	 1.076910709556931e+001
 4.349455513689765e+000	 1.154225599546729e+000	 1.073302296573890e+001
 4.338093467580077e+000	 1.196221161306078e+000	 1.066534706396802e+001
 4.326295311868889e+000	 1.238211966796443e+000	 1.056542446744754e+001
 4.449456792089316e+000	 8.233828121726123e-001	 1.037496448404302e+001
 4.441470593000705e+000	 8.654270457968737e-001	 1.048290390029516e+001
 4.433062246944354e+000	 9.075153523960031e-001	 1.057348122836566e+001
 4.424229344024801e+000	 9.496418859833248e-001	 1.064452691778732e+001
 4.414969572682244e+000	 9.918007221492236e-001	 1.069380653181491e+001
 4.405280722241064e+000	 1.033985859881143e+000	 1.071901875188852e+001
 4.395160685426433e+000	 1.076191223471678e+000	 1.071779342683469e+001
 4.384607460845764e+000	 1.118410664514506e+000	 1.068768967582137e+001
 4.373619155431682e+000	 1.160637963987752e+000	 1.062899008665413e+001
 4.362193986843246e+000	 1.202866834424291e+000	 1.055747213940433e+001
 4.350330285822056e+000	 1.245090922168304e+000	 1.045312826619019e+001
 4.474039426297694e+000	 8.279318884821644e-001	 1.037772170534682e+001
 4.466009104562758e+000	 8.702084106895727e-001	 1.047514194956275e+001
 4.457554303556283e+000	 9.125292493690713e-001	 1.055628897455177e+001
 4.448672600068478e+000	 9.548885262357172e-001	 1.061909468690166e+001
 4.439361669768483e+000	 9.972802841483512e-001	 1.066142590900773e+001
 4.429619289767003e+000	 1.039698488939652e+000	 1.068108222892359e+001
 4.419443341146805e+000	 1.082137031334772e+000	 1.067579389218330e+001
 4.408831811457884e+000	 1.124589728958293e+000	 1.064321974487442e+001
 4.397782797173934e+000	 1.167050328429105e+000	 1.058094523749591e+001
 4.386294506106820e+000	 1.209512507542697e+000	 1.048648049936469e+001
 4.374365259775718e+000	 1.251969877540177e+000	 1.037161966283514e+001
 4.498622060506580e+000	 8.324809647917016e-001	 1.038038306869036e+001
 4.490547616125227e+000	 8.749897755824375e-001	 1.046828693994178e+001
 4.482046360168561e+000	 9.175431463424479e-001	 1.054101192438216e+001
 4.473115856112449e+000	 9.601351664885212e-001	 1.059659150826240e+001
 4.463753766854984e+000	 1.002759846147954e+000	 1.063299388407322e+001
 4.453957857293191e+000	 1.045411117998660e+000	 1.064811964482385e+001
 4.443725996867436e+000	 1.088082839198348e+000	 1.063979951752066e+001
 4.433056162070295e+000	 1.130768793402506e+000	 1.060579214539136e+001
 4.421946438916522e+000	 1.173462692870788e+000	 1.054378192866903e+001
 4.410395025370796e+000	 1.216158180661293e+000	 1.045137693399268e+001
 4.398400233729874e+000	 1.258848832912064e+000	 1.038111018618194e+001
 4.523204694715974e+000	 8.370300411012241e-001	 1.038280659521787e+001
 4.515086127688112e+000	 8.797711404754689e-001	 1.046216099554226e+001
 4.506538416781186e+000	 9.225570433161329e-001	 1.052743650928979e+001
 4.497559112156714e+000	 9.653818067417361e-001	 1.057676834444213e+001
 4.488145863941748e+000	 1.008239408148032e+000	 1.060822619407321e+001
 4.478296424819630e+000	 1.051123747058167e+000	 1.061981177407793e+001
 4.468008652588325e+000	 1.094028647062409e+000	 1.060945639732382e+001
 4.457280512682991e+000	 1.136947857847147e+000	 1.057501859404011e+001
 4.446110080659444e+000	 1.179875057312801e+000	 1.051428178854081e+001
 4.434495544635175e+000	 1.222803853780082e+000	 1.042495204263473e+001
 4.422435207684522e+000	 1.265727788283963e+000	 1.039611159774572e+001
 4.547787328925875e+000	 8.415791174107322e-001	 1.038484834043407e+001
 4.539624639251415e+000	 8.845525053686660e-001	 1.045658481186251e+001
 4.531030473394155e+000	 9.275709402901259e-001	 1.051534826720118e+001
 4.522002368201274e+000	 9.706284469953628e-001	 1.055937579744853e+001
 4.512537961028774e+000	 1.013718970148584e+000	 1.058683874603980e+001
 4.502634992346319e+000	 1.056836376118173e+000	 1.059584008902903e+001
 4.492291308309473e+000	 1.099974454926952e+000	 1.058441184891164e+001
 4.481504863295973e+000	 1.143126922292215e+000	 1.055051255217274e+001
 4.470273722402700e+000	 1.186287421755143e+000	 1.049202474094296e+001
 4.458596063899961e+000	 1.229449526899063e+000	 1.040675254941306e+001
 4.446470181639666e+000	 1.272606743655874e+000	 1.041512925848181e+001
 4.572369963136282e+000	 8.461281937202254e-001	 1.038636244704399e+001
 4.564163150815135e+000	 8.893338702620293e-001	 1.045137769419283e+001
 4.555522530007471e+000	 9.325848372644270e-001	 1.050453186655530e+001
 4.546445624246128e+000	 9.758750872494004e-001	 1.054416411841698e+001
 4.536930058116062e+000	 1.019198532149612e+000	 1.056854761240632e+001
 4.526973559873261e+000	 1.062549005178678e+000	 1.057588674111542e+001
 4.516573964030878e+000	 1.105920262791978e+000	 1.056431437957256e+001
 4.505729213909241e+000	 1.149305986737708e+000	 1.053188917892530e+001
 4.494437364146294e+000	 1.192699786197815e+000	 1.047659291200320e+001
 4.482696583165150e+000	 1.236095200018235e+000	 1.039632788171233e+001
 4.470505155595303e+000	 1.279485699027798e+000	 1.043797077973777e+001
 4.596952597347198e+000	 8.506772700297042e-001	 1.038720119609741e+001
 4.588701662379272e+000	 8.941152351555588e-001	 1.044635759478671e+001
 4.580014586621130e+000	 9.375987342390362e-001	 1.049477112955197e+001
 4.570888880291276e+000	 9.811217275038490e-001	 1.053088321699217e+001
 4.561322155203613e+000	 1.024678094151114e+000	 1.055306902658483e+001
 4.551312127400451e+000	 1.068261634239683e+000	 1.055963454271278e+001
 4.540856619752543e+000	 1.111866070657487e+000	 1.054881365474733e+001
 4.529953564522796e+000	 1.155485051183629e+000	 1.051876528582263e+001
 4.518601005890221e+000	 1.199112150640817e+000	 1.046757057126029e+001
 4.506797102430744e+000	 1.242740873137600e+000	 1.039323009789984e+001
 4.494540129551432e+000	 1.286364654399735e+000	 1.046444688772713e+001
 4.621535231558619e+000	 8.552263463391679e-001	 1.038721505650082e+001
 4.613240173943826e+000	 8.988966000492542e-001	 1.044134114884596e+001
 4.604506643235138e+000	 9.426126312139539e-001	 1.048584905465820e+001
 4.595332136336720e+000	 9.863683677587093e-001	 1.051928267041026e+001
 4.585714252291426e+000	 1.030157656153092e+000	 1.054011937868474e+001
 4.575650694927891e+000	 1.073974263301186e+000	 1.054676694955612e+001
 4.565139275474467e+000	 1.117811878523479e+000	 1.053756046722701e+001
 4.554177915136639e+000	 1.161664115629977e+000	 1.051075929283174e+001
 4.542764647634484e+000	 1.205524515084149e+000	 1.046454407465852e+001
 4.530897621696742e+000	 1.249386546257156e+000	 1.039701381735257e+001
 4.518575103508055e+000	 1.293243609771683e+000	 1.049437134068721e+001
 4.646117865770552e+000	 8.597754226486175e-001	 1.038625273295785e+001
 4.637778685508796e+000	 9.036779649431156e-001	 1.043614370936325e+001
 4.628998699849491e+000	 9.476265281891795e-001	 1.047754783840005e+001
 4.619775392382458e+000	 9.916150080139811e-001	 1.050911173229284e+001
 4.610106349379503e+000	 1.035637218155545e+000	 1.052941521136739e+001
 4.599989262455583e+000	 1.079686892363189e+000	 1.053696804371963e+001
 4.589421931196649e+000	 1.123757686389955e+000	 1.053020670732899e+001
 4.578402265750768e+000	 1.167843180076751e+000	 1.050749118581048e+001
 4.566928289379082e+000	 1.211936879527810e+000	 1.046710180935168e+001
 4.554998140963142e+000	 1.256032219376903e+000	 1.043049906670105e+001
 4.542610077465175e+000	 1.300122565143645e+000	 1.052756084866675e+001
 4.670700499982989e+000	 8.643244989580522e-001	 1.038416121239555e+001
 4.662317197074184e+000	 9.084593298371435e-001	 1.043057938086452e+001
 4.653490756464190e+000	 9.526404251647136e-001	 1.046964889646635e+001
 4.644218648428491e+000	 9.968616482696640e-001	 1.050011934116299e+001
 4.634498446467842e+000	 1.041116780158473e+000	 1.052067321583157e+001
 4.624327829983526e+000	 1.085399521425691e+000	 1.052992251713416e+001
 4.613704586919089e+000	 1.129703494256913e+000	 1.052640533401458e+001
 4.602626616365184e+000	 1.174022244523953e+000	 1.050858247529989e+001
 4.591091931124016e+000	 1.218349243971801e+000	 1.047483414025029e+001
 4.579098660229949e+000	 1.262677892496843e+000	 1.046841732251825e+001
 4.566645051422785e+000	 1.307001520515620e+000	 1.056383499584671e+001
 4.326295311868889e+000	 1.238211966796443e+000	 1.056542446744754e+001
 4.314059501273209e+000	 1.280191633970678e+000	 1.054245600399066e+001
 4.301384607506363e+000	 1.322153719700637e+000	 1.060156176182999e+001
 4.288269321466461e+000	 1.364091722274012e+000	 1.065531676181787e+001
 4.274712455367262e+000	 1.405999083972017e+000	 1.070332916045282e+001
 4.260712944807515e+000	 1.447869193727904e+000	 1.074518956787455e+001
 4.246269850775702e+000	 1.489695389864481e+000	 1.078047124050061e+001
 4.231382361586969e+000	 1.531470962909008e+000	 1.080873031979591e+001
 4.216049794749047e+000	 1.573189158483706e+000	 1.082950611795323e+001
 4.200271598754028e+000	 1.614843180269973e+000	 1.084232145114921e+001
 4.184047354792891e+000	 1.656426193044263e+000	 1.084668302092073e+001
 4.350330285822056e+000	 1.245090922168304e+000	 1.045312826619019e+001
 4.338026498500345e+000	 1.287303809716620e+000	 1.048350324687912e+001
 4.325281188656641e+000	 1.329499018145727e+000	 1.054324341193900e+001
 4.312093039916264e+000	 1.371670009622690e+000	 1.059743788579044e+001
 4.298460857894163e+000	 1.413810189996952e+000	 1.064566628512348e+001
 4.284383572275750e+000	 1.455912911473615e+000	 1.068749029245670e+001
 4.269860238832774e+000	 1.497971475366166e+000	 1.072245387391732e+001
 4.254890041371023e+000	 1.539979134927016e+000	 1.075008354438922e+001
 4.239472293606604e+000	 1.581929098254062e+000	 1.076988868079195e+001
 4.223606440967679e+000	 1.623814531271376e+000	 1.078136188413754e+001
 4.207292062318510e+000	 1.665628560781946e+000	 1.078397939088818e+001
 4.374365259775718e+000	 1.251969877540177e+000	 1.037161966283514e+001
 4.361993495728061e+000	 1.294415985462394e+000	 1.043684616972858e+001
 4.349177769807554e+000	 1.336844316590506e+000	 1.049676988136583e+001
 4.335916758366730e+000	 1.379248296970956e+000	 1.055096058634065e+001
 4.322209260421725e+000	 1.421621296021412e+000	 1.059896954991631e+001
 4.308054199744611e+000	 1.463956629218827e+000	 1.064032970896920e+001
 4.293450626890412e+000	 1.506247560867369e+000	 1.067455591467956e+001
 4.278397721155549e+000	 1.548487306944598e+000	 1.070114522383345e+001
 4.262894792464511e+000	 1.590669038024090e+000	 1.071957723948499e+001
 4.246941283181525e+000	 1.632785882272589e+000	 1.072931450160754e+001
 4.230536769844139e+000	 1.674830928519619e+000	 1.072980292823667e+001
 4.398400233729874e+000	 1.258848832912064e+000	 1.038111018618194e+001
 4.385960492956355e+000	 1.301528161207999e+000	 1.042395777787769e+001
 4.373074350959102e+000	 1.344189615034976e+000	 1.046198557844633e+001
 4.359740476817858e+000	 1.386826584318810e+000	 1.051573633952882e+001
 4.345957662949947e+000	 1.429432402045397e+000	 1.056309746583837e+001
 4.331724827214101e+000	 1.472000346963540e+000	 1.060357332689188e+001
 4.317041014948612e+000	 1.514523646368089e+000	 1.063664983053068e+001
 4.301905400940546e+000	 1.556995478961755e+000	 1.066179474015473e+001
 4.286317291322765e+000	 1.599408977793790e+000	 1.067845804255507e+001
 4.270276125395565e+000	 1.641757233273613e+000	 1.068607236695656e+001
 4.253781477369779e+000	 1.684033296257282e+000	 1.068405345575280e+001
 4.422435207684522e+000	 1.265727788283963e+000	 1.039611159774572e+001
 4.409927490185231e+000	 1.308640336953436e+000	 1.044270502707007e+001
 4.396970932111286e+000	 1.351534913479136e+000	 1.048036441192391e+001
 4.383564195269647e+000	 1.394404871666250e+000	 1.050861104874560e+001
 4.369706065478828e+000	 1.437243508068906e+000	 1.053791131800812e+001
 4.355395454684218e+000	 1.480044064707754e+000	 1.057708928206413e+001
 4.340631403007379e+000	 1.522799731868327e+000	 1.060861056948358e+001
 4.325413080726016e+000	 1.565503650978486e+000	 1.063191381129644e+001
 4.309739790181369e+000	 1.608148917563162e+000	 1.064641953190395e+001
 4.293610967609801e+000	 1.650728584274447e+000	 1.065153059631241e+001
 4.277026184895429e+000	 1.693235663994934e+000	 1.064663271026980e+001
 4.446470181639666e+000	 1.272606743655874e+000	 1.041512925848181e+001
 4.433894487414683e+000	 1.315752512698706e+000	 1.046499046389657e+001
 4.420867513264104e+000	 1.358880211922986e+000	 1.050579291795737e+001
 4.407387913722100e+000	 1.401983159013279e+000	 1.053703645695719e+001
 4.393454468008369e+000	 1.445054614091939e+000	 1.055820672523220e+001
 4.379066082154961e+000	 1.488087782451469e+000	 1.056877497564999e+001
 4.364221791066709e+000	 1.531075817368083e+000	 1.059031549278619e+001
 4.348920760511957e+000	 1.574011822994792e+000	 1.061138642798631e+001
 4.333162289040321e+000	 1.616888857332206e+000	 1.062335228353194e+001
 4.316945809824232e+000	 1.659699935275091e+000	 1.062558630305407e+001
 4.300270892421088e+000	 1.702438031732576e+000	 1.061744429093656e+001
 4.470505155595303e+000	 1.279485699027798e+000	 1.043797077973777e+001
 4.457861484644715e+000	 1.322864688443807e+000	 1.049062693460813e+001
 4.444764094417560e+000	 1.366225510366526e+000	 1.053410646146405e+001
 4.431211632175215e+000	 1.409561446359894e+000	 1.056788805502784e+001
 4.417202870538570e+000	 1.452865720114496e+000	 1.059143596729590e+001
 4.402736709626333e+000	 1.496131500194685e+000	 1.060419981904760e+001
 4.387812179126605e+000	 1.539351902867356e+000	 1.060561443344891e+001
 4.372428440298370e+000	 1.582519995010672e+000	 1.060009879264017e+001
 4.356584787899623e+000	 1.625628797100923e+000	 1.060914895016967e+001
 4.340280652038858e+000	 1.668671286275547e+000	 1.060813854412224e+001
 4.323515599946758e+000	 1.711640399470208e+000	 1.059639360915543e+001
 4.494540129551432e+000	 1.286364654399735e+000	 1.046444688772713e+001
 4.481828481875328e+000	 1.329976864188740e+000	 1.051943025874806e+001
 4.468660675571649e+000	 1.373570808809755e+000	 1.056512592161233e+001
 4.455035350628992e+000	 1.417139733706098e+000	 1.060099174593238e+001
 4.440951273069429e+000	 1.460676826136578e+000	 1.062647090511702e+001
 4.426407337098330e+000	 1.504175217937402e+000	 1.064099169850220e+001
 4.411402567187063e+000	 1.547627988366147e+000	 1.064396739615540e+001
 4.395936120085256e+000	 1.591028167026127e+000	 1.063479610795608e+001
 4.380007286759272e+000	 1.634368736869311e+000	 1.061286067854625e+001
 4.363615494253677e+000	 1.677642637275812e+000	 1.059908826805242e+001
 4.346760307472438e+000	 1.720842767207830e+000	 1.058338784012614e+001
 4.518575103508055e+000	 1.293243609771683e+000	 1.049437134068721e+001
 4.505795479106517e+000	 1.337089039933506e+000	 1.055121915007508e+001
 4.492557256726375e+000	 1.380916107252676e+000	 1.059867493519367e+001
 4.478859069083431e+000	 1.424718021051889e+000	 1.063617605496080e+001
 4.464699675600949e+000	 1.468487932158184e+000	 1.066314491589161e+001
 4.450077964570954e+000	 1.512218935679619e+000	 1.067898880445276e+001
 4.434992955248088e+000	 1.555904073864455e+000	 1.068309974266753e+001
 4.419443799872613e+000	 1.599536339041156e+000	 1.067485436858183e+001
 4.403429785619270e+000	 1.643108676637371e+000	 1.065361384319184e+001
 4.386950336468694e+000	 1.686613988275887e+000	 1.061872378541757e+001
 4.370005014998127e+000	 1.730045134945440e+000	 1.057833587593638e+001
 4.542610077465175e+000	 1.300122565143645e+000	 1.052756084866675e+001
 4.529762476338289e+000	 1.344201215678103e+000	 1.058581513999686e+001
 4.516453837881738e+000	 1.388261405695286e+000	 1.063457982366953e+001
 4.502682787538535e+000	 1.432296308397268e+000	 1.067327206034492e+001
 4.488448078133128e+000	 1.476299038179315e+000	 1.070129379934677e+001
 4.473748592044207e+000	 1.520262653421338e+000	 1.071803162084290e+001
 4.458583343309677e+000	 1.564180159362281e+000	 1.072285660185178e+001
 4.442951479660441e+000	 1.608044511055760e+000	 1.071512420769401e+001
 4.426852284479617e+000	 1.651848616405103e+000	 1.069417421049587e+001
 4.410285178683902e+000	 1.695585339275773e+000	 1.065933063633645e+001
 4.393249722523829e+000	 1.739247502683042e+000	 1.060990174260622e+001
 4.566645051422785e+000	 1.307001520515620e+000	 1.056383499584671e+001
 4.553729473570638e+000	 1.351313391422532e+000	 1.062304250342123e+001
 4.540350419037734e+000	 1.395606704137587e+000	 1.067266952252211e+001
 4.526506505994300e+000	 1.439874595742233e+000	 1.071211332607557e+001
 4.512196480665969e+000	 1.484110144199970e+000	 1.074075571398983e+001
 4.497419219518086e+000	 1.528306371162558e+000	 1.075796286476555e+001
 4.482173731371831e+000	 1.572456244859625e+000	 1.076308521150606e+001
 4.466459159448741e+000	 1.616552683069939e+000	 1.075545734395451e+001
 4.450274783340313e+000	 1.660588556172508e+000	 1.073439793817404e+001
 4.433620020899308e+000	 1.704556690275469e+000	 1.069920971546887e+001
 4.416494430049541e+000	 1.748449870420633e+000	 1.064917943212059e+001
 4.184047354792891e+000	 1.656426193044263e+000	 1.084668302092073e+001
 4.167376778389714e+000	 1.697931325783844e+000	 1.080220159614212e+001
 4.150259720952576e+000	 1.739351674839182e+000	 1.074881932162721e+001
 4.132696171238480e+000	 1.780680307170585e+000	 1.068632072274246e+001
 4.114686256729197e+000	 1.821910263647759e+000	 1.061447925572130e+001
 4.096230244915354e+000	 1.863034562408459e+000	 1.053305763692512e+001
 4.077328544486139e+000	 1.904046202273650e+000	 1.057200056082880e+001
 4.057981706422046e+000	 1.944938166216198e+000	 1.066723349218520e+001
 4.038190424988224e+000	 1.985703424879969e+000	 1.076772455161879e+001
 4.017955538626072e+000	 2.026334940146126e+000	 1.087386082170076e+001
 3.997278030740859e+000	 2.066825668743275e+000	 1.098601237160785e+001
 4.207292062318510e+000	 1.665628560781946e+000	 1.078397939088818e+001
 4.190528871602665e+000	 1.707364277590921e+000	 1.074345441749356e+001
 4.173316719402627e+000	 1.749014739695385e+000	 1.069407202057885e+001
 4.155655594412936e+000	 1.790572975538764e+000	 1.063559443122844e+001
 4.137545624823596e+000	 1.832031987328928e+000	 1.056777232641817e+001
 4.118987079611292e+000	 1.873384754415510e+000	 1.049034517976566e+001
 4.099980369735707e+000	 1.914624236724039e+000	 1.057134808767353e+001
 4.080526049238336e+000	 1.955743378243896e+000	 1.066393157479766e+001
 4.060624816241361e+000	 1.996735110566970e+000	 1.076192552565439e+001
 4.040277513844186e+000	 2.037592356473766e+000	 1.086570634845229e+001
 4.019485130915437e+000	 2.078308033563603e+000	 1.097563299360037e+001
 4.230536769844139e+000	 1.674830928519619e+000	 1.072980292823667e+001
 4.213680964815437e+000	 1.716797229398172e+000	 1.069295511740165e+001
 4.196373717852327e+000	 1.758677804551920e+000	 1.064729716500859e+001
 4.178615017586889e+000	 1.800465643907400e+000	 1.059256905834864e+001
 4.160404992917361e+000	 1.842153711010651e+000	 1.052849874007363e+001
 4.141743914306484e+000	 1.883734946423183e+000	 1.048822641357116e+001
 4.122632194984438e+000	 1.925202271175087e+000	 1.057256348679113e+001
 4.103070392053720e+000	 1.966548590272260e+000	 1.066208681084937e+001
 4.083059207493538e+000	 2.007766796254614e+000	 1.075717952088612e+001
 4.062599489061308e+000	 2.048849772801994e+000	 1.085820755419749e+001
 4.041692231089015e+000	 2.089790398384435e+000	 1.096551893940936e+001
 4.253781477369779e+000	 1.684033296257282e+000	 1.068405345575280e+001
 4.236833058028028e+000	 1.726230181205598e+000	 1.065060863186441e+001
 4.219430716301676e+000	 1.768340869408785e+000	 1.060840482623132e+001
 4.201574440760344e+000	 1.810358312276495e+000	 1.055715983010441e+001
 4.183264361010494e+000	 1.852275434692931e+000	 1.049657889395220e+001
 4.164500749000932e+000	 1.894085138431479e+000	 1.049483380812994e+001
 4.145284020232332e+000	 1.935780305626794e+000	 1.057552869831276e+001
 4.125614734868195e+000	 1.977353802301289e+000	 1.066158517269298e+001
 4.105493598744756e+000	 2.018798481942899e+000	 1.075337655852641e+001
 4.084921464277438e+000	 2.060107189130810e+000	 1.085125852376963e+001
 4.063899331261593e+000	 2.101272763205771e+000	 1.095556837032749e+001
 4.277026184895429e+000	 1.693235663994934e+000	 1.064663271026980e+001
 4.259985151240440e+000	 1.735663133013200e+000	 1.061632170877823e+001
 4.242487714750675e+000	 1.778003934265982e+000	 1.057730678556960e+001
 4.224533863933292e+000	 1.820250980646047e+000	 1.052928358091941e+001
 4.206123729102991e+000	 1.862397158375764e+000	 1.047193469250878e+001
 4.187257583694635e+000	 1.904435330440397e+000	 1.050348342985755e+001
 4.167935845479390e+000	 1.946358340079160e+000	 1.058012696834941e+001
 4.148159077681762e+000	 1.988159014330985e+000	 1.066231383877912e+001
 4.127927989995017e+000	 2.029830167631828e+000	 1.075040776655106e+001
 4.107243439492581e+000	 2.071364605460215e+000	 1.084475435002638e+001
 4.086106431433171e+000	 2.112755128027612e+000	 1.094568035757756e+001
 4.300270892421088e+000	 1.702438031732576e+000	 1.061744429093656e+001
 4.283137244452671e+000	 1.745096084820976e+000	 1.059000285896753e+001
 4.265544713199322e+000	 1.787666999123511e+000	 1.055391648813715e+001
 4.247493287105740e+000	 1.830143649016057e+000	 1.050885871016873e+001
 4.228983097194856e+000	 1.872518882059152e+000	 1.045448950665382e+001
 4.210014418387591e+000	 1.914785522449936e+000	 1.051405597984391e+001
 4.190587670725612e+000	 1.956936374532185e+000	 1.058624281369506e+001
 4.170703420494421e+000	 1.998964226361346e+000	 1.066416116105916e+001
 4.150362381244316e+000	 2.040861853321399e+000	 1.074816534978667e+001
 4.129565414706734e+000	 2.082622021790209e+000	 1.083859110660602e+001
 4.108313531603750e+000	 2.124237492849956e+000	 1.093575485771970e+001
 4.323515599946758e+000	 1.711640399470208e+000	 1.059639360915543e+001
 4.306289337664721e+000	 1.754529036628928e+000	 1.057156230879433e+001
 4.288601711647619e+000	 1.797330063981370e+000	 1.053814899811331e+001
 4.270452710277685e+000	 1.840036317386525e+000	 1.049580514011033e+001
 4.251842465286088e+000	 1.882640605743095e+000	 1.046466766111576e+001
 4.232771253079803e+000	 1.925135714460097e+000	 1.052643349074567e+001
 4.213239495970997e+000	 1.967514408985869e+000	 1.059376198766861e+001
 4.193247763306173e+000	 2.009769438392374e+000	 1.066701663343958e+001
 4.172796772492658e+000	 2.051893539011612e+000	 1.074654256096306e+001
 4.151887389919897e+000	 2.093879438120791e+000	 1.083266582156234e+001
 4.130520631773328e+000	 2.135719857672803e+000	 1.092569268885197e+001
 4.346760307472438e+000	 1.720842767207830e+000	 1.058338784012614e+001
 4.329441430876592e+000	 1.763961988437055e+000	 1.056091195428821e+001
 4.311658710095564e+000	 1.806993128839561e+000	 1.052992095545256e+001
 4.293412133449130e+000	 1.849928985757451e+000	 1.049004427516625e+001
 4.274701833376684e+000	 1.892762329427593e+000	 1.048419941717273e+001
 4.255528087771272e+000	 1.935485906470881e+000	 1.054049929118290e+001
 4.235891321215544e+000	 1.978092443440212e+000	 1.060257144705167e+001
 4.215792106117018e+000	 2.020574650424067e+000	 1.067077086124829e+001
 4.195231163740042e+000	 2.062925224702469e+000	 1.074543367269446e+001
 4.174209365132069e+000	 2.105136854451962e+000	 1.082687645184546e+001
 4.152727731941906e+000	 2.147202222496155e+000	 1.091539550757467e+001
 4.370005014998127e+000	 1.730045134945440e+000	 1.057833587593638e+001
 4.352593524088284e+000	 1.773394940245357e+000	 1.055796531674027e+001
 4.334715708543159e+000	 1.816656193698083e+000	 1.052915053397558e+001
 4.316371556620072e+000	 1.859821654128835e+000	 1.049149896250328e+001
 4.297561201466650e+000	 1.902884053112646e+000	 1.050570480830067e+001
 4.278284922461995e+000	 1.945836098482287e+000	 1.055613797127185e+001
 4.258543146459256e+000	 1.988670477895215e+000	 1.061255932008164e+001
 4.238336448926953e+000	 2.031379862456427e+000	 1.067531553167560e+001
 4.217665554986465e+000	 2.073956910393967e+000	 1.074473395035496e+001
 4.196531340343253e+000	 2.116394270783720e+000	 1.082112185859718e+001
 4.174934832109484e+000	 2.158684587320011e+000	 1.090476578668964e+001
 4.393249722523829e+000	 1.739247502683042e+000	 1.060990174260622e+001
 4.375745617299795e+000	 1.782827892053834e+000	 1.056385352260439e+001
 4.357772706990403e+000	 1.826319258556935e+000	 1.053575740079075e+001
 4.339330979790511e+000	 1.869714322500677e+000	 1.050009345386523e+001
 4.320420569555981e+000	 1.913005776798254e+000	 1.052906622505610e+001
 4.301041757151972e+000	 1.956186290494314e+000	 1.057323534925213e+001
 4.281194971702131e+000	 1.999248512350876e+000	 1.062361487546071e+001
 4.260880791735981e+000	 2.042185074489453e+000	 1.068054338515354e+001
 4.240099946231929e+000	 2.084988596086108e+000	 1.074433962581495e+001
 4.218853315553446e+000	 2.127651687116068e+000	 1.081530178323059e+001
 4.197141932276062e+000	 2.170166952144371e+000	 1.089370679360773e+001
 4.416494430049541e+000	 1.748449870420633e+000	 1.064917943212059e+001
 4.398897710511125e+000	 1.792260843862486e+000	 1.060920134248363e+001
 4.380829705437297e+000	 1.835982323416121e+000	 1.055833763337378e+001
 4.362290402960451e+000	 1.879606990872977e+000	 1.052274492824416e+001
 4.343279937644680e+000	 1.923127500484417e+000	 1.055416733953408e+001
 4.323798591841205e+000	 1.966536482506963e+000	 1.059167843916769e+001
 4.303846796944172e+000	 2.009826546807197e+000	 1.063562849234373e+001
 4.283425134544102e+000	 2.052990286523145e+000	 1.068634818763896e+001
 4.262534337476436e+000	 2.096020281778892e+000	 1.074414787200710e+001
 4.241175290762651e+000	 2.138909103449004e+000	 1.080931682426500e+001
 4.219349032441642e+000	 2.181649316969236e+000	 1.088212256943790e+001
 3.997278030740859e+000	 2.066825668743275e+000	 1.098601237160785e+001
 3.976159030383603e+000	 2.107168565897559e+000	 1.083929650283698e+001
 3.954599812824289e+000	 2.147356589020302e+000	 1.071700605859256e+001
 3.932601800014995e+000	 2.187382701429100e+000	 1.061989718113392e+001
 3.910166560942136e+000	 2.227239876097467e+000	 1.054869443001437e+001
 3.887295811865205e+000	 2.266921099430403e+000	 1.050408970359023e+001
 3.863991416440920e+000	 2.306419375061632e+000	 1.048674121365315e+001
 3.840255385731489e+000	 2.345727727668478e+000	 1.049727251577845e+001
 3.816089878095935e+000	 2.384839206800335e+000	 1.053627159785771e+001
 3.791497198963488e+000	 2.423746890716576e+000	 1.060429002914985e+001
 3.766479800488311e+000	 2.462443890229713e+000	 1.070184217204155e+001
 4.019485130915437e+000	 2.078308033563603e+000	 1.097563299360037e+001
 3.998248802778659e+000	 2.118875057924907e+000	 1.083320089593962e+001
 3.976569811788677e+000	 2.159286347843419e+000	 1.071568444099379e+001
 3.954449587797304e+000	 2.199534827544055e+000	 1.062384724944521e+001
 3.931889708507547e+000	 2.239613430961295e+000	 1.055842069952784e+001
 3.908891899713674e+000	 2.279515105535722e+000	 1.052010283418219e+001
 3.885458035426050e+000	 2.319232816032355e+000	 1.050955732243051e+001
 3.861590137879450e+000	 2.358759548376729e+000	 1.052741247760498e+001
 3.837290377423783e+000	 2.398088313504623e+000	 1.057426033493429e+001
 3.812561072296218e+000	 2.437212151221294e+000	 1.065065579085711e+001
 3.787404688273996e+000	 2.476124134065992e+000	 1.075711580628498e+001
 4.041692231089015e+000	 2.089790398384435e+000	 1.096551893940936e+001
 4.020338575172714e+000	 2.130581549952659e+000	 1.082730058114196e+001
 3.998539810752065e+000	 2.171216106666840e+000	 1.071449189414892e+001
 3.976297375578612e+000	 2.211686953659215e+000	 1.062786399319512e+001
 3.953612856071957e+000	 2.251986985825227e+000	 1.056815508464369e+001
 3.930487987561142e+000	 2.292109111641043e+000	 1.053606935918860e+001
 3.906924654410178e+000	 2.332046257002981e+000	 1.053227593991628e+001
 3.882924890026412e+000	 2.371791369084783e+000	 1.055740788836909e+001
 3.858490876750631e+000	 2.411337420208613e+000	 1.061206127115338e+001
 3.833624945627947e+000	 2.450677411725616e+000	 1.069679428949518e+001
 3.808329576058680e+000	 2.489804377901773e+000	 1.081212647399819e+001
 4.063899331261593e+000	 2.101272763205771e+000	 1.095556837032749e+001
 4.042428347565767e+000	 2.142288041980814e+000	 1.082149267352520e+001
 4.020509809714452e+000	 2.183145865490565e+000	 1.071332455399138e+001
 3.998145163358921e+000	 2.223839079774579e+000	 1.063184263681258e+001
 3.975336003635368e+000	 2.264360540689263e+000	 1.057779196644891e+001
 3.952084075407610e+000	 2.304703117746367e+000	 1.055188288497518e+001
 3.928391273393306e+000	 2.344859697973511e+000	 1.055478996677151e+001
 3.904259642172373e+000	 2.384823189792640e+000	 1.058715101237670e+001
 3.879691376076479e+000	 2.424586526912307e+000	 1.064956610408448e+001
 3.854688818958677e+000	 2.464142672229539e+000	 1.074259672572094e+001
 3.829254463842364e+000	 2.503484621737058e+000	 1.083172836446343e+001
 4.086106431433171e+000	 2.112755128027612e+000	 1.094568035757756e+001
 4.064518119957823e+000	 2.153994534009374e+000	 1.081567521229803e+001
 4.042479808675838e+000	 2.195075624314593e+000	 1.071207949425590e+001
 4.019992951138230e+000	 2.235991205890145e+000	 1.063567935566936e+001
 3.997059151197778e+000	 2.276734095553401e+000	 1.058722668957416e+001
 3.973680163253078e+000	 2.317297123851696e+000	 1.056743799350316e+001
 3.949857892375436e+000	 2.357673138943944e+000	 1.057699329074776e+001
 3.925594394317334e+000	 2.397855010500301e+000	 1.061653511195480e+001
 3.900891875401327e+000	 2.437835633615703e+000	 1.068666753967725e+001
 3.875752692288405e+000	 2.477607932733065e+000	 1.078795531835174e+001
 3.850179351625048e+000	 2.517164865571844e+000	 1.075327866159697e+001
 4.108313531603750e+000	 2.124237492849956e+000	 1.093575485771970e+001
 4.086607892348878e+000	 2.165701026038337e+000	 1.080974713582017e+001
 4.064449807636225e+000	 2.207005383138925e+000	 1.071065470113261e+001
 4.041840738916539e+000	 2.248143332005916e+000	 1.063927125037902e+001
 4.018782298759190e+000	 2.289107650417644e+000	 1.059635553615204e+001
 3.995276251097546e+000	 2.329891129957026e+000	 1.058263021596182e+001
 3.971324511356565e+000	 2.370486579914279e+000	 1.059878076000898e+001
 3.946929146461295e+000	 2.410886831207763e+000	 1.064545442047803e+001
 3.922092374725175e+000	 2.451084740318802e+000	 1.072325926500787e+001
 3.896816565617135e+000	 2.491073193236195e+000	 1.083276327684752e+001
 3.871104239406733e+000	 2.530845109406134e+000	 1.068209370492036e+001
 4.130520631773328e+000	 2.135719857672803e+000	 1.092569268885197e+001
 4.108697664738933e+000	 2.177407518067704e+000	 1.080360825743172e+001
 4.086419806595614e+000	 2.218935141963562e+000	 1.070894904873860e+001
 4.063688526693849e+000	 2.260295458121890e+000	 1.064251632192471e+001
 4.040505446319600e+000	 2.301481205281990e+000	 1.060507570061543e+001
 4.016872338941014e+000	 2.342485136062361e+000	 1.059735600725162e+001
 3.992791130336694e+000	 2.383300020884518e+000	 1.062004815731396e+001
 3.968263898604257e+000	 2.423918651915029e+000	 1.067380411626514e+001
 3.943292874048022e+000	 2.464333847021603e+000	 1.075923592190476e+001
 3.917880438944865e+000	 2.504538453738926e+000	 1.083640919638294e+001
 3.892029127187417e+000	 2.544525353239926e+000	 1.061803381519492e+001
 4.152727731941906e+000	 2.147202222496155e+000	 1.091539550757467e+001
 4.130787437127987e+000	 2.189114010097476e+000	 1.079715924205791e+001
 4.108389805554000e+000	 2.230864900788501e+000	 1.070686227537660e+001
 4.085536314470158e+000	 2.272447584238068e+000	 1.064531344758517e+001
 4.062228593879011e+000	 2.313854760146438e+000	 1.061328526530442e+001
 4.038468426783481e+000	 2.355079142167698e+000	 1.061151272128601e+001
 4.014257749315822e+000	 2.396113461854660e+000	 1.064069217502719e+001
 3.989598650746218e+000	 2.436950472622099e+000	 1.070148029731320e+001
 3.964493373369870e+000	 2.477582953724108e+000	 1.079449308142037e+001
 3.938944312271593e+000	 2.518003714241261e+000	 1.076480101547521e+001
 3.912954014967101e+000	 2.558205597073220e+000	 1.056096025989205e+001
 4.174934832109484e+000	 2.158684587320011e+000	 1.090476578668964e+001
 4.152877209516043e+000	 2.200820502127651e+000	 1.079030158356055e+001
 4.130359804511387e+000	 2.242794659613744e+000	 1.070429496055130e+001
 4.107384102245466e+000	 2.284599710354449e+000	 1.064756235762900e+001
 4.083951741437423e+000	 2.326228315010992e+000	 1.062088317685180e+001
 4.060064514624950e+000	 2.367673148273040e+000	 1.062499858708153e+001
 4.035724368293952e+000	 2.408926902824705e+000	 1.066061039092722e+001
 4.010933402887178e+000	 2.449982293328970e+000	 1.072837995683794e+001
 3.985693872690719e+000	 2.490832060426315e+000	 1.082892721911785e+001
 3.960008185597324e+000	 2.531468974743198e+000	 1.070004866043835e+001
 3.933878902745785e+000	 2.571885840906018e+000	 1.051073522801470e+001
 4.197141932276062e+000	 2.170166952144371e+000	 1.089370679360773e+001
 4.174966981903096e+000	 2.212526994158230e+000	 1.078293758280853e+001
 4.152329803467773e+000	 2.254724418439292e+000	 1.070114850271534e+001
 4.129231890019774e+000	 2.296751836471034e+000	 1.064916361274879e+001
 4.105674888994832e+000	 2.338601869875647e+000	 1.062776922331809e+001
 4.081660602465419e+000	 2.380267154378384e+000	 1.063771268560696e+001
 4.057190987271081e+000	 2.421740343794653e+000	 1.067970124478293e+001
 4.032268155027139e+000	 2.463014114035645e+000	 1.075440095959088e+001
 4.006894372010566e+000	 2.504081167128225e+000	 1.083063375312656e+001
 3.981072058922053e+000	 2.544934235244737e+000	 1.064201643717211e+001
 3.954803790523469e+000	 2.585566084738318e+000	 1.046722180571831e+001
 4.219349032441642e+000	 2.181649316969236e+000	 1.088212256943790e+001
 4.197056754289153e+000	 2.224233486189214e+000	 1.077497032644078e+001
 4.174299802423162e+000	 2.266654177265144e+000	 1.069732509771802e+001
 4.151079677793083e+000	 2.308903962587823e+000	 1.065001858220780e+001
 4.127398036551244e+000	 2.350975424740408e+000	 1.063384401204879e+001
 4.103256690304887e+000	 2.392861160483732e+000	 1.064955492736345e+001
 4.078657606247210e+000	 2.434553784764504e+000	 1.069786401566972e+001
 4.053602907166101e+000	 2.476045934742123e+000	 1.077944201892404e+001
 4.028094871329415e+000	 2.517330273829839e+000	 1.076485448229863e+001
 4.002135932245784e+000	 2.558399495745880e+000	 1.059056951730095e+001
 3.975728678300154e+000	 2.599246328570120e+000	 1.043028395270148e+001
 3.766479800488311e+000	 2.462443890229713e+000	 1.070184217204155e+001
 3.741040281084275e+000	 2.500923352550201e+000	 1.103318385893523e+001
 3.715181384841300e+000	 2.539178465126699e+000	 1.093862908717531e+001
 3.688906000821719e+000	 2.577202459478736e+000	 1.085658573423320e+001
 3.662217162235255e+000	 2.614988615018722e+000	 1.078777478354134e+001
 3.635118045494690e+000	 2.652530262857026e+000	 1.073295387443133e+001
 3.607611969151798e+000	 2.689820789586394e+000	 1.069291702558082e+001
 3.579702392714054e+000	 2.726853641041348e+000	 1.066849423265270e+001
 3.551392915342705e+000	 2.763622326028175e+000	 1.066055093894011e+001
 3.522687274433059e+000	 2.800120420021205e+000	 1.066998737824533e+001
 3.493589344077969e+000	 2.836341568821007e+000	 1.069773778964462e+001
 3.787404688273996e+000	 2.476124134065992e+000	 1.075711580628498e+001
 3.761823838206611e+000	 2.514817371178015e+000	 1.095875461573237e+001
 3.735821281428924e+000	 2.553285012158413e+000	 1.089314264723659e+001
 3.709399923053605e+000	 2.591520250924044e+000	 1.082183437219245e+001
 3.682562813141554e+000	 2.629516329550723e+000	 1.076263695482936e+001
 3.655313145752280e+000	 2.667266542099426e+000	 1.071630458397861e+001
 3.627654257873963e+000	 2.704764238421754e+000	 1.068362981863023e+001
 3.599589628233558e+000	 2.742002827940190e+000	 1.066544320185093e+001
 3.571122875987657e+000	 2.778975783398840e+000	 1.066261274379946e+001
 3.542257759294872e+000	 2.815676644580224e+000	 1.067604327300775e+001
 3.512998173770796e+000	 2.852099021983801e+000	 1.070667565552983e+001
 3.808329576058680e+000	 2.489804377901773e+000	 1.081212647399819e+001
 3.782607395327954e+000	 2.528711389805241e+000	 1.087803685106363e+001
 3.756461178015566e+000	 2.567391559189468e+000	 1.084320544816083e+001
 3.729893845284539e+000	 2.605838042368645e+000	 1.079068131787026e+001
 3.702908464046931e+000	 2.644044044081984e+000	 1.074113849011365e+001
 3.675508246008995e+000	 2.682002821341078e+000	 1.070332998661977e+001
 3.647696546595306e+000	 2.719707687256372e+000	 1.067804690192112e+001
 3.619476863752306e+000	 2.757152014838323e+000	 1.066612033889882e+001
 3.590852836631927e+000	 2.794329240768847e+000	 1.066842090428084e+001
 3.561828244156089e+000	 2.831232869138651e+000	 1.068585806839978e+001
 3.532407003463121e+000	 2.867856475146093e+000	 1.071937938876209e+001
 3.829254463842364e+000	 2.503484621737058e+000	 1.083172836446343e+001
 3.803390952448300e+000	 2.542605408431881e+000	 1.080476341355812e+001
 3.777101074601228e+000	 2.581498106219867e+000	 1.078177937593214e+001
 3.750387767514517e+000	 2.620155833812537e+000	 1.076296123641528e+001
 3.723254114951389e+000	 2.658571758612506e+000	 1.072352200545002e+001
 3.695703346264835e+000	 2.696739100581980e+000	 1.069427461347016e+001
 3.667738835315829e+000	 2.734651136090251e+000	 1.067641441951462e+001
 3.639364099270299e+000	 2.772301201735746e+000	 1.067077309743674e+001
 3.610582797275516e+000	 2.809682698138192e+000	 1.067822387924933e+001
 3.581398729016709e+000	 2.846789093696489e+000	 1.069968092343578e+001
 3.551815833154945e+000	 2.883613928307883e+000	 1.073609854297771e+001
 3.850179351625048e+000	 2.517164865571844e+000	 1.075327866159697e+001
 3.824174509567652e+000	 2.556499427057932e+000	 1.073879314350855e+001
 3.797740971185911e+000	 2.595604653249608e+000	 1.072756531753513e+001
 3.770881689743538e+000	 2.634473625255720e+000	 1.071977467592020e+001
 3.743599765854925e+000	 2.673099473142290e+000	 1.071003104749426e+001
 3.715898446519798e+000	 2.711475379822133e+000	 1.068938390959855e+001
 3.687781124035530e+000	 2.749594584923389e+000	 1.067897941582961e+001
 3.659251334787534e+000	 2.787450388632457e+000	 1.067964982093136e+001
 3.630312757918424e+000	 2.825036155506876e+000	 1.069227100994080e+001
 3.600969213876734e+000	 2.862345318253735e+000	 1.071776187513115e+001
 3.571224662846269e+000	 2.899371381469173e+000	 1.075708354853789e+001
 3.871104239406733e+000	 2.530845109406134e+000	 1.068209370492036e+001
 3.844958066686008e+000	 2.570393445683397e+000	 1.067998585289589e+001
 3.818380867769611e+000	 2.609711200278689e+000	 1.068042346834249e+001
 3.791375611971606e+000	 2.648791416698197e+000	 1.068358066449083e+001
 3.763945416757542e+000	 2.687627187671335e+000	 1.068961937293729e+001
 3.736093546773887e+000	 2.726211659061535e+000	 1.068890420932576e+001
 3.707823412754411e+000	 2.764538033755788e+000	 1.068598981130870e+001
 3.679138570304015e+000	 2.802599575528459e+000	 1.069299971862626e+001
 3.650042718560651e+000	 2.840389612874898e+000	 1.071081249611405e+001
 3.620539698736161e+000	 2.877901542810390e+000	 1.074035181477265e+001
 3.590633492537089e+000	 2.915128834629961e+000	 1.078258568883339e+001
 3.892029127187417e+000	 2.544525353239926e+000	 1.061803381519492e+001
 3.865741623803371e+000	 2.584287464308273e+000	 1.062820229926887e+001
 3.839020764352334e+000	 2.623817747307115e+000	 1.064021494496292e+001
 3.811869534198717e+000	 2.663109208139963e+000	 1.065424059987430e+001
 3.784291067659237e+000	 2.702154902199640e+000	 1.067043626430447e+001
 3.756288647027098e+000	 2.740947938300189e+000	 1.068894658581823e+001
 3.727865701472470e+000	 2.779481482587446e+000	 1.069769437886914e+001
 3.699025805819738e+000	 2.817748762423748e+000	 1.071107284226831e+001
 3.669772679202196e+000	 2.855743070242260e+000	 1.073409937297227e+001
 3.640110183594993e+000	 2.893457767366452e+000	 1.076770246495403e+001
 3.610042322227410e+000	 2.930886287790248e+000	 1.081285707735368e+001
 3.912954014967101e+000	 2.558205597073220e+000	 1.056096025989205e+001
 3.886525180919736e+000	 2.598181482932562e+000	 1.058330416046128e+001
 3.859660660934076e+000	 2.637924294334882e+000	 1.060680176060934e+001
 3.832363456424874e+000	 2.677426999581023e+000	 1.063161675550413e+001
 3.804636718560013e+000	 2.716682616727206e+000	 1.065790131659930e+001
 3.776483747279435e+000	 2.755684217538093e+000	 1.068579558774195e+001
 3.747907990189709e+000	 2.794424931418365e+000	 1.071434272110948e+001
 3.718913041334707e+000	 2.832897949318328e+000	 1.073412006358095e+001
 3.689502639843060e+000	 2.871096527608962e+000	 1.076238348882493e+001
 3.659680668453228e+000	 2.909013991921924e+000	 1.080006635734865e+001
 3.629451151917229e+000	 2.946643740950033e+000	 1.084815063549176e+001
 3.933878902745785e+000	 2.571885840906018e+000	 1.051073522801470e+001
 3.907308738035108e+000	 2.612075501556264e+000	 1.054515401011639e+001
 3.880300557514837e+000	 2.652030841361991e+000	 1.058004680125281e+001
 3.852857378650074e+000	 2.691744791021373e+000	 1.061557225721069e+001
 3.824982369459867e+000	 2.731210331254034e+000	 1.065187782290926e+001
 3.796678847530896e+000	 2.770420496775247e+000	 1.068909922984468e+001
 3.767950278906125e+000	 2.809368380248543e+000	 1.072736003070937e+001
 3.738800276848919e+000	 2.848047136212198e+000	 1.076239305245616e+001
 3.709232600483243e+000	 2.886449984975001e+000	 1.079591748346263e+001
 3.679251153310866e+000	 2.924570216476806e+000	 1.083769681119133e+001
 3.648859981606546e+000	 2.962401194109317e+000	 1.088872007105735e+001
 3.954803790523469e+000	 2.585566084738318e+000	 1.046722180571831e+001
 3.928092295149484e+000	 2.625969520179377e+000	 1.051361529398825e+001
 3.900940454094618e+000	 2.666137388388442e+000	 1.055981380253388e+001
 3.873351300874320e+000	 2.706062582461015e+000	 1.060597106067102e+001
 3.845328020358802e+000	 2.745738045780124e+000	 1.065222988898114e+001
 3.816873947781481e+000	 2.785156776011651e+000	 1.069872169788038e+001
 3.787992567621723e+000	 2.824311829077982e+000	 1.074556602339754e+001
 3.758687512362374e+000	 2.863196323105357e+000	 1.079287010187487e+001
 3.728962561122744e+000	 2.901803442340380e+000	 1.083495476721842e+001
 3.698821638167910e+000	 2.940126441031095e+000	 1.088084791244345e+001
 3.668268811295363e+000	 2.978158647268101e+000	 1.093481985747228e+001
 3.975728678300154e+000	 2.599246328570120e+000	 1.043028395270148e+001
 3.948875852262866e+000	 2.639863538801905e+000	 1.048855230699140e+001
 3.921580350673420e+000	 2.680243935414237e+000	 1.054596732740273e+001
 3.893845223097611e+000	 2.720380373899949e+000	 1.060267792957072e+001
 3.865673671256816e+000	 2.760265760305475e+000	 1.065882241183532e+001
 3.837069048031190e+000	 2.799893055247307e+000	 1.071452795472233e+001
 3.808034856336499e+000	 2.839255277906680e+000	 1.076991015768503e+001
 3.778574747875074e+000	 2.878345509997806e+000	 1.082507261483006e+001
 3.748692521761566e+000	 2.917156899705098e+000	 1.087974950069036e+001
 3.718392123024357e+000	 2.955682665584794e+000	 1.092977449361587e+001
 3.687677640983678e+000	 2.993916100426382e+000	 1.098670521362270e+001
 3.493589344077969e+000	 2.836341568821007e+000	 1.069773778964462e+001
 3.464103133416387e+000	 2.872279492169516e+000	 1.069880027226175e+001
 3.434232784866212e+000	 2.907927987320115e+000	 1.069641313827625e+001
 3.403982572244511e+000	 2.943280932556834e+000	 1.069120216381939e+001
 3.373356898778110e+000	 2.978332290657103e+000	 1.068384468708669e+001
 3.342360295004344e+000	 3.013076112296310e+000	 1.067506866910160e+001
 3.310997416564726e+000	 3.047506539389349e+000	 1.066565160480688e+001
 3.279273041893773e+000	 3.081617808365265e+000	 1.065641928635074e+001
 3.247192069805366e+000	 3.115404253371150e+000	 1.064824442092251e+001
 3.214759516979199e+000	 3.148860309401589e+000	 1.066624512418794e+001
 3.181980515350000e+000	 3.181980515350000e+000	 1.067629501984707e+001
 3.512998173770796e+000	 2.852099021983801e+000	 1.070667565552983e+001
 3.483348150827399e+000	 2.888236600461318e+000	 1.070267989628932e+001
 3.453311855896036e+000	 2.924083142806598e+000	 1.069499711880673e+001
 3.422893586537202e+000	 2.959632493294133e+000	 1.068423621019209e+001
 3.392097770440096e+000	 2.994878581161231e+000	 1.067105882230564e+001
 3.360928963311704e+000	 3.029815424031474e+000	 1.065617844741730e+001
 3.329391846658214e+000	 3.064437131274841e+000	 1.064035934122317e+001
 3.297491225461001e+000	 3.098737907300539e+000	 1.062441529506509e+001
 3.265232025749580e+000	 3.132712054778697e+000	 1.062093176219046e+001
 3.232619292074088e+000	 3.166353977787205e+000	 1.064561035431052e+001
 3.199658184880000e+000	 3.199658184880000e+000	 1.064942639423897e+001
 3.532407003463121e+000	 2.867856475146093e+000	 1.071937938876209e+001
 3.502593168238003e+000	 2.904193708752715e+000	 1.070983087549869e+001
 3.472390926925538e+000	 2.940238298292760e+000	 1.069634274718180e+001
 3.441804600829647e+000	 2.975984054031186e+000	 1.067950734846099e+001
 3.410838642101900e+000	 3.011424871665177e+000	 1.065997101519235e+001
 3.379497631618938e+000	 3.046554735766512e+000	 1.063843316463960e+001
 3.347786276751621e+000	 3.081367723160253e+000	 1.061564523001507e+001
 3.315709409028185e+000	 3.115858006235766e+000	 1.059240944118516e+001
 3.283271981693775e+000	 3.150019856186225e+000	 1.061181402908047e+001
 3.250479067168972e+000	 3.183847646172816e+000	 1.062992542872471e+001
 3.217335854410000e+000	 3.217335854410000e+000	 1.062714382039561e+001
 3.551815833154945e+000	 2.883613928307883e+000	 1.073609854297771e+001
 3.521838185648202e+000	 2.920150817043707e+000	 1.072051098329947e+001
 3.491469997954719e+000	 2.956393453778600e+000	 1.070071587158759e+001
 3.460715615121846e+000	 2.992335614767994e+000	 1.067728935318186e+001
 3.429579513763525e+000	 3.027971162168943e+000	 1.065086281501846e+001
 3.398066299926047e+000	 3.063294047501425e+000	 1.062212199002162e+001
 3.366180706844948e+000	 3.098298315045585e+000	 1.059180590277074e+001
 3.333927592595323e+000	 3.132978105170950e+000	 1.057744576001082e+001
 3.301311937637951e+000	 3.167327657593731e+000	 1.060776148672085e+001
 3.268338842263851e+000	 3.201341314558423e+000	 1.061894085565444e+001
 3.235013523940000e+000	 3.235013523940000e+000	 1.060920853020223e+001
 3.571224662846269e+000	 2.899371381469173e+000	 1.075708354853789e+001
 3.541083203057994e+000	 2.936107925334290e+000	 1.073497869489138e+001
 3.510549068983578e+000	 2.972548609264119e+000	 1.070838286667702e+001
 3.479626629413799e+000	 3.008687175504555e+000	 1.067785634974923e+001
 3.448320385424968e+000	 3.044517452672528e+000	 1.064401594604573e+001
 3.416634968233030e+000	 3.080033359236213e+000	 1.060753409182189e+001
 3.384575136938195e+000	 3.115228906930835e+000	 1.056913781404784e+001
 3.352145776162415e+000	 3.150098204106087e+000	 1.058554159601115e+001
 3.319351893582104e+000	 3.184635459001217e+000	 1.060851353108117e+001
 3.286198617358724e+000	 3.218834982944023e+000	 1.061240643872593e+001
 3.252691193470001e+000	 3.252691193470001e+000	 1.059538087555380e+001
 3.590633492537089e+000	 2.915128834629961e+000	 1.078258568883339e+001
 3.560328220467381e+000	 2.952065033624467e+000	 1.075349316829700e+001
 3.529628140012117e+000	 2.988703764749317e+000	 1.071961061934109e+001
 3.498537643705506e+000	 3.025038736240870e+000	 1.068148280491425e+001
 3.467061257086232e+000	 3.061063743175933e+000	 1.063971230279666e+001
 3.435203636539888e+000	 3.096772670970875e+000	 1.059495863733137e+001
 3.402969567031362e+000	 3.132159498816006e+000	 1.056613738185066e+001
 3.370363959729464e+000	 3.167218303041180e+000	 1.059853744156206e+001
 3.337391849526239e+000	 3.201943260408684e+000	 1.061380904350904e+001
 3.304058392453593e+000	 3.236328651329619e+000	 1.061007129601086e+001
 3.270368862999999e+000	 3.270368862999999e+000	 1.058542035213856e+001
 3.610042322227410e+000	 2.930886287790248e+000	 1.081285707735368e+001
 3.579573237876362e+000	 2.968022141914240e+000	 1.077631422600632e+001
 3.548707211040334e+000	 3.004858920234193e+000	 1.073466651493895e+001
 3.517448657996967e+000	 3.041390296976938e+000	 1.068844351760850e+001
 3.485802128747313e+000	 3.077610033679156e+000	 1.063823394547752e+001
 3.453772304846619e+000	 3.113511982705412e+000	 1.058468479289934e+001
 3.421363997124448e+000	 3.149090090701097e+000	 1.059195445383359e+001
 3.388582143296465e+000	 3.184338401976227e+000	 1.061616175535682e+001
 3.355431805470352e+000	 3.219251061816131e+000	 1.062338640456393e+001
 3.321918167548457e+000	 3.253822319715210e+000	 1.061168387845523e+001
 3.288046532530000e+000	 3.288046532530000e+000	 1.057908562245433e+001
 3.629451151917229e+000	 2.946643740950033e+000	 1.084815063549176e+001
 3.598818255284934e+000	 2.983979250203605e+000	 1.080370233721022e+001
 3.567786282068231e+000	 3.021014075718749e+000	 1.075381842396986e+001
 3.536359672288182e+000	 3.057741857712763e+000	 1.069901361006207e+001
 3.504543000408214e+000	 3.094156324182198e+000	 1.063986309554828e+001
 3.472340973153226e+000	 3.130251294439822e+000	 1.059196858931406e+001
 3.439758427217453e+000	 3.166020682586108e+000	 1.062247792184274e+001
 3.406800326863423e+000	 3.201458500911230e+000	 1.063814267076811e+001
 3.373471761414447e+000	 3.236558863223558e+000	 1.063698350740743e+001
 3.339777942643316e+000	 3.271315988100797e+000	 1.061699198771699e+001
 3.305724202060000e+000	 3.305724202060000e+000	 1.057613453808633e+001
 3.648859981606546e+000	 2.962401194109317e+000	 1.088872007105735e+001
 3.618063272693102e+000	 2.999936358492565e+000	 1.083591860060100e+001
 3.586865353095805e+000	 3.037169231202984e+000	 1.077733468917061e+001
 3.555270686579151e+000	 3.074093418448340e+000	 1.071346851920529e+001
 3.523283872068934e+000	 3.110702614685061e+000	 1.064488213143401e+001
 3.490909641459706e+000	 3.146990606174107e+000	 1.063603455499961e+001
 3.458152857310378e+000	 3.182951274471037e+000	 1.065742615647982e+001
 3.425018510430335e+000	 3.218578599846186e+000	 1.066420800450023e+001
 3.391511717358520e+000	 3.253866664630963e+000	 1.065433777076574e+001
 3.357637717738170e+000	 3.288809656486378e+000	 1.062574279343427e+001
 3.323401871590000e+000	 3.323401871590000e+000	 1.057632416127399e+001
 3.668268811295363e+000	 2.978158647268101e+000	 1.093481985747228e+001
 3.637308290100862e+000	 3.015893466781117e+000	 1.087322472771885e+001
 3.605944424123059e+000	 3.053324386686897e+000	 1.080548411302240e+001
 3.574181700869874e+000	 3.090444979183671e+000	 1.073208398834325e+001
 3.542024743729475e+000	 3.127248905187742e+000	 1.066036739259589e+001
 3.509478309766061e+000	 3.163729917908267e+000	 1.068458808679837e+001
 3.476547287403223e+000	 3.199881866355886e+000	 1.069651737375223e+001
 3.443236693997201e+000	 3.235698698781098e+000	 1.069408526496655e+001
 3.409551673302575e+000	 3.271174466038350e+000	 1.067518615148100e+001
 3.375497492833019e+000	 3.306303324871954e+000	 1.063768284994556e+001
 3.341079541120000e+000	 3.341079541120000e+000	 1.057941078579310e+001
 3.687677640983678e+000	 2.993916100426382e+000	 1.098670521362270e+001
 3.656553307508218e+000	 3.031850575069264e+000	 1.091588302682434e+001
 3.625023495149993e+000	 3.069479542170490e+000	 1.083853594565231e+001
 3.593092715160351e+000	 3.106796539918756e+000	 1.075513605909337e+001
 3.560765615389833e+000	 3.143795195690242e+000	 1.072323975065169e+001
 3.528046978072291e+000	 3.180469229642301e+000	 1.073733827026461e+001
 3.494941717495987e+000	 3.216812458240656e+000	 1.073946963914129e+001
 3.461454877564024e+000	 3.252818797715965e+000	 1.072750166040244e+001
 3.427591629246608e+000	 3.288482267445716e+000	 1.069926515666612e+001
 3.393357267927863e+000	 3.323796993257525e+000	 1.065255811248175e+001
 3.358757210650000e+000	 3.358757210650000e+000	 1.058514995717860e+001
 3.181980515350000e+000	 3.181980515350000e+000	 1.067629501984707e+001
 3.148860309401589e+000	 3.214759516979199e+000	 1.065412219944183e+001
 3.115404253371151e+000	 3.247192069805366e+000	 1.063682949594432e+001
 3.081617808365265e+000	 3.279273041893773e+000	 1.061932352556337e+001
 3.047506539389349e+000	 3.310997416564727e+000	 1.060637184764289e+001
 3.013076112296310e+000	 3.342360295004343e+000	 1.059735256447448e+001
 2.978332290657103e+000	 3.373356898778110e+000	 1.059160867720209e+001
 2.943280932556834e+000	 3.403982572244511e+000	 1.058845043524159e+001
 2.907927987320115e+000	 3.434232784866213e+000	 1.058715779307459e+001
 2.872279492169515e+000	 3.464103133416387e+000	 1.058698296702052e+001
 2.836341568821007e+000	 3.493589344077969e+000	 1.058715308426559e+001
 3.199658184880000e+000	 3.199658184880000e+000	 1.064942639423897e+001
 3.166353977787205e+000	 3.232619292074087e+000	 1.062987611204403e+001
 3.132712054778697e+000	 3.265232025749580e+000	 1.061692633615844e+001
 3.098737907300538e+000	 3.297491225461001e+000	 1.060172377496912e+001
 3.064437131274841e+000	 3.329391846658215e+000	 1.058826841521673e+001
 3.029815424031474e+000	 3.360928963311704e+000	 1.057811172851101e+001
 2.994878581161231e+000	 3.392097770440096e+000	 1.057057565276416e+001
 2.959632493294133e+000	 3.422893586537202e+000	 1.056494900698604e+001
 2.924083142806598e+000	 3.453311855896037e+000	 1.056049000011457e+001
 2.888236600461318e+000	 3.483348150827398e+000	 1.055642884135404e+001
 2.852099021983801e+000	 3.512998173770796e+000	 1.055197044415251e+001
 3.217335854410000e+000	 3.217335854410000e+000	 1.062714382039561e+001
 3.183847646172816e+000	 3.250479067168972e+000	 1.061040227746235e+001
 3.150019856186225e+000	 3.283271981693775e+000	 1.059968950065052e+001
 3.115858006235766e+000	 3.315709409028184e+000	 1.059075290574699e+001
 3.081367723160253e+000	 3.347786276751621e+000	 1.057696662994551e+001
 3.046554735766512e+000	 3.379497631618938e+000	 1.056586155028517e+001
 3.011424871665177e+000	 3.410838642101901e+000	 1.055673804837273e+001
 2.975984054031187e+000	 3.441804600829646e+000	 1.054886299765179e+001
 2.940238298292759e+000	 3.472390926925538e+000	 1.054147232515659e+001
 2.904193708752715e+000	 3.502593168238004e+000	 1.053377367634258e+001
 2.867856475146093e+000	 3.532407003463121e+000	 1.052494917497514e+001
 3.235013523940000e+000	 3.235013523940000e+000	 1.060920853020223e+001
 3.201341314558423e+000	 3.268338842263850e+000	 1.059546395332896e+001
 3.167327657593731e+000	 3.301311937637950e+000	 1.058719214867205e+001
 3.132978105170949e+000	 3.333927592595323e+000	 1.058315275721797e+001
 3.098298315045584e+000	 3.366180706844948e+000	 1.057218490586264e+001
 3.063294047501425e+000	 3.398066299926047e+000	 1.056032192279939e+001
 3.027971162168943e+000	 3.429579513763525e+000	 1.054981729994231e+001
 2.992335614767994e+000	 3.460715615121845e+000	 1.053991544698436e+001
 2.956393453778600e+000	 3.491469997954719e+000	 1.052982946957017e+001
 2.920150817043706e+000	 3.521838185648203e+000	 1.051874388955004e+001
 2.883613928307883e+000	 3.551815833154945e+000	 1.050581746174798e+001
 3.252691193470001e+000	 3.252691193470001e+000	 1.059538087555380e+001
 3.218834982944023e+000	 3.286198617358724e+000	 1.058482353423292e+001
 3.184635459001219e+000	 3.319351893582104e+000	 1.057919876759229e+001
 3.150098204106087e+000	 3.352145776162416e+000	 1.057723215413196e+001
 3.115228906930835e+000	 3.384575136938195e+000	 1.057364085750474e+001
 3.080033359236213e+000	 3.416634968233030e+000	 1.056121196493960e+001
 3.044517452672528e+000	 3.448320385424968e+000	 1.054953409672839e+001
 3.008687175504555e+000	 3.479626629413798e+000	 1.053782867759001e+001
 2.972548609264119e+000	 3.510549068983579e+000	 1.052528544915113e+001
 2.936107925334290e+000	 3.541083203057994e+000	 1.051106524656025e+001
 2.899371381469173e+000	 3.571224662846268e+000	 1.049430287310859e+001
 3.270368862999999e+000	 3.270368862999999e+000	 1.058542035213856e+001
 3.236328651329619e+000	 3.304058392453593e+000	 1.057824257504563e+001
 3.201943260408684e+000	 3.337391849526239e+000	 1.057547302361876e+001
 3.167218303041179e+000	 3.370363959729463e+000	 1.057580260673801e+001
 3.132159498816006e+000	 3.402969567031361e+000	 1.057788664292255e+001
 3.096772670970875e+000	 3.435203636539887e+000	 1.056825004239725e+001
 3.061063743175933e+000	 3.467061257086232e+000	 1.055560840150744e+001
 3.025038736240870e+000	 3.498537643705505e+000	 1.054232431431781e+001
 2.988703764749316e+000	 3.529628140012117e+000	 1.052756361265053e+001
 2.952065033624467e+000	 3.560328220467380e+000	 1.051046287859817e+001
 2.915128834629961e+000	 3.590633492537090e+000	 1.049013237797644e+001
 3.288046532530000e+000	 3.288046532530000e+000	 1.057908562245433e+001
 3.253822319715210e+000	 3.321918167548457e+000	 1.057548181349388e+001
 3.219251061816132e+000	 3.355431805470353e+000	 1.057577778387142e+001
 3.184338401976227e+000	 3.388582143296467e+000	 1.057862916194005e+001
 3.149090090701098e+000	 3.421363997124448e+000	 1.058265556662228e+001
 3.113511982705411e+000	 3.453772304846619e+000	 1.058115378791651e+001
 3.077610033679155e+000	 3.485802128747312e+000	 1.056775947010588e+001
 3.041390296976939e+000	 3.517448657996968e+000	 1.055312330301657e+001
 3.004858920234194e+000	 3.548707211040334e+000	 1.053638665970600e+001
 2.968022141914239e+000	 3.579573237876362e+000	 1.051666129958249e+001
 2.930886287790248e+000	 3.610042322227410e+000	 1.049303236167437e+001
 3.305724202060000e+000	 3.305724202060000e+000	 1.057613453808633e+001
 3.271315988100795e+000	 3.339777942643316e+000	 1.057630119200868e+001
 3.236558863223558e+000	 3.373471761414446e+000	 1.057987513774871e+001
 3.201458500911229e+000	 3.406800326863423e+000	 1.058547610844331e+001
 3.166020682586108e+000	 3.439758427217453e+000	 1.059168738754389e+001
 3.130251294439821e+000	 3.472340973153225e+000	 1.059705958619078e+001
 3.094156324182199e+000	 3.504543000408214e+000	 1.058570587030243e+001
 3.057741857712761e+000	 3.536359672288181e+000	 1.056994592868995e+001
 3.021014075718749e+000	 3.567786282068231e+000	 1.055147665819778e+001
 2.983979250203605e+000	 3.598818255284934e+000	 1.052938442263121e+001
 2.946643740950033e+000	 3.629451151917229e+000	 1.050272864153273e+001
 3.323401871590000e+000	 3.323401871590000e+000	 1.057632416127399e+001
 3.288809656486377e+000	 3.357637717738170e+000	 1.058045987887672e+001
 3.253866664630964e+000	 3.391511717358519e+000	 1.058752641761158e+001
 3.218578599846186e+000	 3.425018510430335e+000	 1.059610699691900e+001
 3.182951274471037e+000	 3.458152857310378e+000	 1.060474792501843e+001
 3.146990606174107e+000	 3.490909641459706e+000	 1.061196245216311e+001
 3.110702614685061e+000	 3.523283872068934e+000	 1.060916550012739e+001
 3.074093418448340e+000	 3.555270686579151e+000	 1.059251183307209e+001
 3.037169231202984e+000	 3.586865353095806e+000	 1.057255506105067e+001
 2.999936358492564e+000	 3.618063272693102e+000	 1.054835557604030e+001
 2.962401194109317e+000	 3.648859981606546e+000	 1.051894648199565e+001
 3.341079541120000e+000	 3.341079541120000e+000	 1.057941078579310e+001
 3.306303324871953e+000	 3.375497492833018e+000	 1.058771628872036e+001
 3.271174466038349e+000	 3.409551673302574e+000	 1.059849221881100e+001
 3.235698698781097e+000	 3.443236693997201e+000	 1.061028465952918e+001
 3.199881866355886e+000	 3.476547287403222e+000	 1.062160230020535e+001
 3.163729917908266e+000	 3.509478309766061e+000	 1.063092036624464e+001
 3.127248905187742e+000	 3.542024743729475e+000	 1.063668465919801e+001
 3.090444979183671e+000	 3.574181700869873e+000	 1.062054003164539e+001
 3.053324386686897e+000	 3.605944424123060e+000	 1.059934272250278e+001
 3.015893466781116e+000	 3.637308290100862e+000	 1.057329751875526e+001
 2.978158647268101e+000	 3.668268811295363e+000	 1.054141060924756e+001
 3.358757210650000e+000	 3.358757210650000e+000	 1.058514995717860e+001
 3.323796993257525e+000	 3.393357267927863e+000	 1.059782810233092e+001
 3.288482267445717e+000	 3.427591629246607e+000	 1.061253241908288e+001
 3.252818797715964e+000	 3.461454877564024e+000	 1.062777122883479e+001
 3.216812458240656e+000	 3.494941717495988e+000	 1.064201495446550e+001
 3.180469229642301e+000	 3.528046978072291e+000	 1.065370012857370e+001
 3.143795195690242e+000	 3.560765615389833e+000	 1.066123351328018e+001
 3.106796539918756e+000	 3.593092715160352e+000	 1.065374893012072e+001
 3.069479542170489e+000	 3.625023495149993e+000	 1.063155991386040e+001
 3.031850575069263e+000	 3.656553307508218e+000	 1.060393245535397e+001
 2.993916100426382e+000	 3.687677640983678e+000	 1.056984522537799e+001
 2.836341568821007e+000	 3.493589344077969e+000	 1.058715308426559e+001
 2.800120420021204e+000	 3.522687274433059e+000	 1.069648002222420e+001
 2.763622326028175e+000	 3.551392915342705e+000	 1.076303657110207e+001
 2.726853641041347e+000	 3.579702392714053e+000	 1.078530100209261e+001
 2.689820789586394e+000	 3.607611969151798e+000	 1.076177942743948e+001
 2.652530262857026e+000	 3.635118045494689e+000	 1.069100929359851e+001
 2.614988615018723e+000	 3.662217162235256e+000	 1.057156285705283e+001
 2.577202459478736e+000	 3.688906000821718e+000	 1.040205063326281e+001
 2.539178465126699e+000	 3.715181384841301e+000	 1.018112480929064e+001
 2.500923352550201e+000	 3.741040281084275e+000	 9.907482610734956e+000
 2.462443890229713e+000	 3.766479800488312e+000	 9.915083108474725e+000
 2.852099021983801e+000	 3.512998173770796e+000	 1.055197044415251e+001
 2.815676644580223e+000	 3.542257759294872e+000	 1.064214226365884e+001
 2.778975783398841e+000	 3.571122875987657e+000	 1.068914632198872e+001
 2.742002827940190e+000	 3.599589628233558e+000	 1.069141917126006e+001
 2.704764238421754e+000	 3.627654257873963e+000	 1.064742508455474e+001
 2.667266542099426e+000	 3.655313145752280e+000	 1.055565963066115e+001
 2.629516329550723e+000	 3.682562813141554e+000	 1.041465323189746e+001
 2.591520250924044e+000	 3.709399923053606e+000	 1.022297469529153e+001
 2.553285012158413e+000	 3.735821281428924e+000	 9.979234707452143e+000
 2.514817371178015e+000	 3.761823838206612e+000	 9.862452821685626e+000
 2.476124134065992e+000	 3.787404688273996e+000	 9.971912290947955e+000
 2.867856475146093e+000	 3.532407003463121e+000	 1.052494917497514e+001
 2.831232869138651e+000	 3.561828244156089e+000	 1.059596289098057e+001
 2.794329240768847e+000	 3.590852836631926e+000	 1.062341971493442e+001
 2.757152014838323e+000	 3.619476863752307e+000	 1.060571399507322e+001
 2.719707687256372e+000	 3.647696546595306e+000	 1.054126766748695e+001
 2.682002821341078e+000	 3.675508246008995e+000	 1.042853391341487e+001
 2.644044044081984e+000	 3.702908464046931e+000	 1.026600080006948e+001
 2.605838042368645e+000	 3.729893845284539e+000	 1.005219489505620e+001
 2.567391559189468e+000	 3.756461178015566e+000	 9.876756814913067e+000
 2.528711389805241e+000	 3.782607395327954e+000	 9.951146266498581e+000
 2.489804377901773e+000	 3.808329576058680e+000	 1.002360353375446e+001
 2.883613928307883e+000	 3.551815833154945e+000	 1.050581746174798e+001
 2.846789093696489e+000	 3.581398729016709e+000	 1.055767646793257e+001
 2.809682698138191e+000	 3.610582797275515e+000	 1.056559780433916e+001
 2.772301201735745e+000	 3.639364099270299e+000	 1.052793312461960e+001
 2.734651136090251e+000	 3.667738835315829e+000	 1.044306152404183e+001
 2.696739100581980e+000	 3.695703346264835e+000	 1.030939328031991e+001
 2.658571758612506e+000	 3.723254114951389e+000	 1.012537357843958e+001
 2.620155833812537e+000	 3.750387767514517e+000	 9.894514932361476e+000
 2.581498106219867e+000	 3.777101074601228e+000	 9.973038142348836e+000
 2.542605408431881e+000	 3.803390952448300e+000	 1.003377262140480e+001
 2.503484621737058e+000	 3.829254463842364e+000	 1.007591910379332e+001
 2.899371381469173e+000	 3.571224662846268e+000	 1.049430287310859e+001
 2.862345318253735e+000	 3.600969213876733e+000	 1.052701688026849e+001
 2.825036155506875e+000	 3.630312757918423e+000	 1.051542090549996e+001
 2.787450388632457e+000	 3.659251334787535e+000	 1.045782341129802e+001
 2.749594584923389e+000	 3.687781124035531e+000	 1.035256014230624e+001
 2.711475379822133e+000	 3.715898446519798e+000	 1.019799795067045e+001
 2.673099473142290e+000	 3.743599765854926e+000	 9.992538605875337e+000
 2.634473625255721e+000	 3.770881689743539e+000	 9.998490999046027e+000
 2.595604653249607e+000	 3.797740971185911e+000	 1.006337745016933e+001
 2.556499427057932e+000	 3.824174509567651e+000	 1.011036501761717e+001
 2.517164865571844e+000	 3.850179351625048e+000	 1.013863729238072e+001
 2.915128834629961e+000	 3.590633492537090e+000	 1.049013237797644e+001
 2.877901542810389e+000	 3.620539698736160e+000	 1.050371735407645e+001
 2.840389612874899e+000	 3.650042718560650e+000	 1.047262861458668e+001
 2.802599575528457e+000	 3.679138570304013e+000	 1.039513092843179e+001
 2.764538033755787e+000	 3.707823412754410e+000	 1.026951617388373e+001
 2.726211659061535e+000	 3.736093546773887e+000	 1.009410724943693e+001
 2.687627187671335e+000	 3.763945416757542e+000	 1.002833505519227e+001
 2.648791416698197e+000	 3.791375611971605e+000	 1.009664546229197e+001
 2.609711200278690e+000	 3.818380867769612e+000	 1.014780363181118e+001
 2.570393445683396e+000	 3.844958066686008e+000	 1.018095546685480e+001
 2.530845109406134e+000	 3.871104239406732e+000	 1.019526736034344e+001
 2.930886287790248e+000	 3.610042322227410e+000	 1.049303236167437e+001
 2.893457767366452e+000	 3.640110183594993e+000	 1.048751047351197e+001
 2.855743070242261e+000	 3.669772679202195e+000	 1.043695982797331e+001
 2.817748762423749e+000	 3.699025805819739e+000	 1.033960099218467e+001
 2.779481482587447e+000	 3.727865701472469e+000	 1.019368145638072e+001
 2.740947938300188e+000	 3.756288647027098e+000	 1.006349288907692e+001
 2.702154902199640e+000	 3.784291067659237e+000	 1.013442213967991e+001
 2.663109208139963e+000	 3.811869534198717e+000	 1.018900308805365e+001
 2.623817747307115e+000	 3.839020764352334e+000	 1.022634454513730e+001
 2.584287464308273e+000	 3.865741623803370e+000	 1.024557489143694e+001
 2.544525353239926e+000	 3.892029127187417e+000	 1.024584326514788e+001
 2.946643740950033e+000	 3.629451151917229e+000	 1.050272864153273e+001
 2.909013991921924e+000	 3.659680668453228e+000	 1.047812819796198e+001
 2.871096527608962e+000	 3.689502639843060e+000	 1.040815276094921e+001
 2.832897949318328e+000	 3.718913041334707e+000	 1.029097818180592e+001
 2.794424931418365e+000	 3.747907990189709e+000	 1.012480703517110e+001
 2.755684217538092e+000	 3.776483747279435e+000	 1.017764587279262e+001
 2.716682616727207e+000	 3.804636718560013e+000	 1.023482429459870e+001
 2.677426999581023e+000	 3.832363456424874e+000	 1.027558768742195e+001
 2.637924294334881e+000	 3.859660660934076e+000	 1.029902704012603e+001
 2.598181482932562e+000	 3.886525180919735e+000	 1.030425315341135e+001
 2.558205597073221e+000	 3.912954014967101e+000	 1.029039785225912e+001
 2.962401194109317e+000	 3.648859981606546e+000	 1.051894648199565e+001
 2.924570216476806e+000	 3.679251153310866e+000	 1.047530187866102e+001
 2.886449984975001e+000	 3.709232600483242e+000	 1.038594496583298e+001
 2.848047136212198e+000	 3.738800276848918e+000	 1.024900635922899e+001
 2.809368380248543e+000	 3.767950278906126e+000	 1.022734850302317e+001
 2.770420496775246e+000	 3.796678847530895e+000	 1.028622162026908e+001
 2.731210331254034e+000	 3.824982369459867e+000	 1.032956138993135e+001
 2.691744791021373e+000	 3.852857378650074e+000	 1.035642214201963e+001
 2.652030841361991e+000	 3.880300557514837e+000	 1.036587698567665e+001
 2.612075501556264e+000	 3.907308738035108e+000	 1.035701908275302e+001
 2.571885840906018e+000	 3.933878902745785e+000	 1.032896288471549e+001
 2.978158647268101e+000	 3.668268811295363e+000	 1.054141060924756e+001
 2.940126441031095e+000	 3.698821638167910e+000	 1.047876227477984e+001
 2.901803442340381e+000	 3.728962561122744e+000	 1.037007334951136e+001
 2.863196323105356e+000	 3.758687512362373e+000	 1.028465569526408e+001
 2.824311829077981e+000	 3.787992567621723e+000	 1.034424342133115e+001
 2.785156776011651e+000	 3.816873947781481e+000	 1.038923616467181e+001
 2.745738045780124e+000	 3.845328020358802e+000	 1.041865244160585e+001
 2.706062582461016e+000	 3.873351300874320e+000	 1.043152842859044e+001
 2.666137388388442e+000	 3.900940454094619e+000	 1.042691929556375e+001
 2.625969520179377e+000	 3.928092295149483e+000	 1.040390050466757e+001
 2.585566084738318e+000	 3.954803790523470e+000	 1.036156907176403e+001
 2.993916100426382e+000	 3.687677640983678e+000	 1.056984522537799e+001
 2.955682665584793e+000	 3.718392123024356e+000	 1.048823956900617e+001
 2.917156899705098e+000	 3.748692521761566e+000	 1.036027419042437e+001
 2.878345509997805e+000	 3.778574747875074e+000	 1.041003239714885e+001
 2.839255277906680e+000	 3.808034856336499e+000	 1.045567705064100e+001
 2.799893055247307e+000	 3.837069048031190e+000	 1.048670475761485e+001
 2.760265760305475e+000	 3.865673671256816e+000	 1.050211563397054e+001
 2.720380373899950e+000	 3.893845223097610e+000	 1.050092764281167e+001
 2.680243935414236e+000	 3.921580350673420e+000	 1.048217795357218e+001
 2.639863538801905e+000	 3.948875852262866e+000	 1.044492426603275e+001
 2.599246328570120e+000	 3.975728678300154e+000	 1.038824609659203e+001
 2.462443890229713e+000	 3.766479800488312e+000	 9.915083108474725e+000
 2.423746890716576e+000	 3.791497198963489e+000	 1.005708155079954e+001
 2.384839206800335e+000	 3.816089878095935e+000	 1.016689429768443e+001
 2.345727727668478e+000	 3.840255385731489e+000	 1.024570542137347e+001
 2.306419375061632e+000	 3.863991416440919e+000	 1.029471642770085e+001
 2.266921099430403e+000	 3.887295811865205e+000	 1.031514246624097e+001
 2.227239876097467e+000	 3.910166560942135e+000	 1.030820856013848e+001
 2.187382701429100e+000	 3.932601800014995e+000	 1.027514586568477e+001
 2.147356589020302e+000	 3.954599812824290e+000	 1.021718797147335e+001
 2.107168565897559e+000	 3.976159030383603e+000	 1.013556724670044e+001
 2.066825668743274e+000	 3.997278030740858e+000	 1.003151124788227e+001
 2.476124134065992e+000	 3.787404688273996e+000	 9.971912290947955e+000
 2.437212151221294e+000	 3.812561072296217e+000	 1.009709899172731e+001
 2.398088313504623e+000	 3.837290377423782e+000	 1.019203712634672e+001
 2.358759548376729e+000	 3.861590137879451e+000	 1.025798302073758e+001
 2.319232816032355e+000	 3.885458035426049e+000	 1.029620841252409e+001
 2.279515105535722e+000	 3.908891899713674e+000	 1.030799656254398e+001
 2.239613430961295e+000	 3.931889708507546e+000	 1.029463838966995e+001
 2.199534827544056e+000	 3.954449587797303e+000	 1.025742863918787e+001
 2.159286347843419e+000	 3.976569811788677e+000	 1.019766209474092e+001
 2.118875057924907e+000	 3.998248802778659e+000	 1.011662984357301e+001
 2.078308033563603e+000	 4.019485130915437e+000	 1.001561560449736e+001
 2.489804377901773e+000	 3.808329576058680e+000	 1.002360353375446e+001
 2.450677411725615e+000	 3.833624945627947e+000	 1.013233429892610e+001
 2.411337420208613e+000	 3.858490876750630e+000	 1.021272948489832e+001
 2.371791369084783e+000	 3.882924890026412e+000	 1.026611817088292e+001
 2.332046257002981e+000	 3.906924654410177e+000	 1.029384284118718e+001
 2.292109111641043e+000	 3.930487987561142e+000	 1.029725539698425e+001
 2.251986985825227e+000	 3.953612856071957e+000	 1.027771319499872e+001
 2.211686953659216e+000	 3.976297375578613e+000	 1.023657512355421e+001
 2.171216106666839e+000	 3.998539810752065e+000	 1.017519772617282e+001
 2.130581549952659e+000	 4.020338575172714e+000	 1.009493138262860e+001
 2.089790398384435e+000	 4.041692231089016e+000	 9.997116557038014e+000
 2.503484621737058e+000	 3.829254463842364e+000	 1.007591910379332e+001
 2.464142672229539e+000	 3.854688818958676e+000	 1.016307433782141e+001
 2.424586526912307e+000	 3.879691376076478e+000	 1.022924300526250e+001
 2.384823189792641e+000	 3.904259642172373e+000	 1.027036754841262e+001
 2.344859697973511e+000	 3.928391273393308e+000	 1.028786172238756e+001
 2.304703117746368e+000	 3.952084075407610e+000	 1.028314660678080e+001
 2.264360540689263e+000	 3.975336003635369e+000	 1.025764654707617e+001
 2.223839079774579e+000	 3.998145163358921e+000	 1.021278513722364e+001
 2.183145865490564e+000	 4.020509809714451e+000	 1.014998125375186e+001
 2.142288041980814e+000	 4.042428347565767e+000	 1.007064515149052e+001
 2.101272763205771e+000	 4.063899331261593e+000	 9.976174630645682e+000
 2.517164865571844e+000	 3.850179351625048e+000	 1.013863729238072e+001
 2.477607932733066e+000	 3.875752692288406e+000	 1.018960499862414e+001
 2.437835633615703e+000	 3.900891875401327e+000	 1.024184856825122e+001
 2.397855010500300e+000	 3.925594394317334e+000	 1.027098729543174e+001
 2.357673138943943e+000	 3.949857892375436e+000	 1.027850673937268e+001
 2.317297123851696e+000	 3.973680163253078e+000	 1.026589770511543e+001
 2.276734095553401e+000	 3.997059151197778e+000	 1.023465208652892e+001
 2.235991205890146e+000	 4.019992951138231e+000	 1.018625875426378e+001
 2.195075624314593e+000	 4.042479808675838e+000	 1.012219949922679e+001
 2.153994534009374e+000	 4.064518119957823e+000	 1.004394504182282e+001
 2.112755128027612e+000	 4.086106431433171e+000	 9.952951116869864e+000
 2.530845109406134e+000	 3.871104239406732e+000	 1.019526736034344e+001
 2.491073193236195e+000	 3.896816565617135e+000	 1.021221122268771e+001
 2.451084740318802e+000	 3.922092374725174e+000	 1.025081632386535e+001
 2.410886831207764e+000	 3.946929146461295e+000	 1.026823303399322e+001
 2.370486579914279e+000	 3.971324511356565e+000	 1.026601925873607e+001
 2.329891129957026e+000	 3.995276251097546e+000	 1.024573608448508e+001
 2.289107650417644e+000	 4.018782298759190e+000	 1.020894352177569e+001
 2.248143332005916e+000	 4.041840738916538e+000	 1.015719629746114e+001
 2.207005383138925e+000	 4.064449807636226e+000	 1.009203970638892e+001
 2.165701026038338e+000	 4.086607892348878e+000	 1.001500553300474e+001
 2.124237492849956e+000	 4.108313531603750e+000	 9.927608052954453e+000
 2.544525353239926e+000	 3.892029127187417e+000	 1.024584326514788e+001
 2.504538453738926e+000	 3.917880438944866e+000	 1.023773646667459e+001
 2.464333847021603e+000	 3.943292874048022e+000	 1.025641571094017e+001
 2.423918651915029e+000	 3.968263898604256e+000	 1.026235988007776e+001
 2.383300020884518e+000	 3.992791130336694e+000	 1.025064033892940e+001
 2.342485136062361e+000	 4.016872338941014e+000	 1.022288901994598e+001
 2.301481205281990e+000	 4.040505446319600e+000	 1.018073462720501e+001
 2.260295458121890e+000	 4.063688526693848e+000	 1.012579833163522e+001
 2.218935141963561e+000	 4.086419806595613e+000	 1.005968952972691e+001
 2.177407518067704e+000	 4.108697664738933e+000	 9.984001676332063e+000
 2.135719857672804e+000	 4.130520631773328e+000	 9.900308201792058e+000
 2.558205597073221e+000	 3.912954014967101e+000	 1.029039785225912e+001
 2.518003714241260e+000	 3.938944312271593e+000	 1.027143113004969e+001
 2.477582953724108e+000	 3.964493373369870e+000	 1.025891547616049e+001
 2.436950472622098e+000	 3.989598650746217e+000	 1.025362245712513e+001
 2.396113461854660e+000	 4.014257749315822e+000	 1.023261073850165e+001
 2.355079142167699e+000	 4.038468426783482e+000	 1.019758367225391e+001
 2.313854760146438e+000	 4.062228593879011e+000	 1.015023924141119e+001
 2.272447584238069e+000	 4.085536314470157e+000	 1.009226565716688e+001
 2.230864900788501e+000	 4.108389805554000e+000	 1.002533702344556e+001
 2.189114010097476e+000	 4.130787437127987e+000	 9.951109079725178e+000
 2.147202222496156e+000	 4.152727731941907e+000	 9.871215032521798e+000
 2.571885840906018e+000	 3.933878902745785e+000	 1.032896288471549e+001
 2.531468974743198e+000	 3.960008185597324e+000	 1.029979155507258e+001
 2.490832060426316e+000	 3.985693872690718e+000	 1.025858369246890e+001
 2.449982293328969e+000	 4.010933402887178e+000	 1.024227490913374e+001
 2.408926902824705e+000	 4.035724368293952e+000	 1.021217092407524e+001
 2.367673148273040e+000	 4.060064514624950e+000	 1.017004709090399e+001
 2.326228315010992e+000	 4.083951741437423e+000	 1.011767126548683e+001
 2.284599710354450e+000	 4.107384102245465e+000	 1.005679930373351e+001
 2.242794659613744e+000	 4.130359804511387e+000	 9.989170630835034e+000
 2.200820502127651e+000	 4.152877209516042e+000	 9.916503892925208e+000
 2.158684587320011e+000	 4.174934832109484e+000	 9.840492701746026e+000
 2.585566084738318e+000	 3.954803790523470e+000	 1.036156907176403e+001
 2.544934235244737e+000	 3.981072058922053e+000	 1.032283971796560e+001
 2.504081167128226e+000	 4.006894372010565e+000	 1.026101752693380e+001
 2.463014114035644e+000	 4.032268155027139e+000	 1.022857091334417e+001
 2.421740343794653e+000	 4.057190987271081e+000	 1.018956107806891e+001
 2.380267154378384e+000	 4.081660602465419e+000	 1.014050621707412e+001
 2.338601869875647e+000	 4.105674888994832e+000	 1.008324466136937e+001
 2.296751836471034e+000	 4.129231890019774e+000	 1.001960052424302e+001
 2.254724418439292e+000	 4.152329803467775e+000	 9.951379173977609e+000
 2.212526994158230e+000	 4.174966981903096e+000	 9.880362793160142e+000
 2.170166952144371e+000	 4.197141932276062e+000	 9.808306035343508e+000
 2.599246328570120e+000	 3.975728678300154e+000	 1.038824609659203e+001
 2.558399495745880e+000	 4.002135932245784e+000	 1.034059676574255e+001
 2.517330273829839e+000	 4.028094871329415e+000	 1.027153617570069e+001
 2.476045934742123e+000	 4.053602907166102e+000	 1.021276369252238e+001
 2.434553784764504e+000	 4.078657606247210e+000	 1.016502110617680e+001
 2.392861160483732e+000	 4.103256690304888e+000	 1.010918788647546e+001
 2.350975424740408e+000	 4.127398036551245e+000	 1.004717345023993e+001
 2.308903962587824e+000	 4.151079677793084e+000	 9.980870788959251e+000
 2.266654177265143e+000	 4.174299802423162e+000	 9.912151843779450e+000
 2.224233486189214e+000	 4.197056754289153e+000	 9.842862971263649e+000
 2.181649316969235e+000	 4.219349032441642e+000	 9.774820510856916e+000
 2.066825668743274e+000	 3.997278030740858e+000	 1.003151124788227e+001
 2.026334940146127e+000	 4.017955538626073e+000	 9.853367259172167e+000
 1.985703424879969e+000	 4.038190424988225e+000	 9.696182859836654e+000
 1.944938166216198e+000	 4.057981706422046e+000	 9.561308977899632e+000
 1.904046202273650e+000	 4.077328544486139e+000	 9.450040096454748e+000
 1.863034562408458e+000	 4.096230244915353e+000	 9.356517731335067e+000
 1.821910263647759e+000	 4.114686256729197e+000	 9.273802247263106e+000
 1.780680307170585e+000	 4.132696171238480e+000	 9.218298512164983e+000
 1.739351674839182e+000	 4.150259720952576e+000	 9.187155090513942e+000
 1.697931325783844e+000	 4.167376778389715e+000	 9.177604630493365e+000
 1.656426193044263e+000	 4.184047354792892e+000	 9.186968986670115e+000
 2.078308033563603e+000	 4.019485130915437e+000	 1.001561560449736e+001
 2.037592356473766e+000	 4.040277513844186e+000	 9.848885437111282e+000
 1.996735110566970e+000	 4.060624816241361e+000	 9.703700284762947e+000
 1.955743378243896e+000	 4.080526049238337e+000	 9.581434426269929e+000
 1.914624236724039e+000	 4.099980369735707e+000	 9.483404841566852e+000
 1.873384754415510e+000	 4.118987079611292e+000	 9.409917510633225e+000
 1.832031987328928e+000	 4.137545624823596e+000	 9.340766520572613e+000
 1.790572975538764e+000	 4.155655594412936e+000	 9.298570017314948e+000
 1.749014739695385e+000	 4.173316719402627e+000	 9.280388240046584e+000
 1.707364277590921e+000	 4.190528871602666e+000	 9.283367690522139e+000
 1.665628560781946e+000	 4.207292062318510e+000	 9.304746374003083e+000
 2.089790398384435e+000	 4.041692231089016e+000	 9.997116557038014e+000
 2.048849772801994e+000	 4.062599489061308e+000	 9.841271715443272e+000
 2.007766796254614e+000	 4.083059207493538e+000	 9.707561250022330e+000
 1.966548590272259e+000	 4.103070392053720e+000	 9.597383578277269e+000
 1.925202271175087e+000	 4.122632194984438e+000	 9.512078953420648e+000
 1.883734946423183e+000	 4.141743914306483e+000	 9.452926470870983e+000
 1.842153711010652e+000	 4.160404992917361e+000	 9.402686492625048e+000
 1.800465643907401e+000	 4.178615017586891e+000	 9.374149543124014e+000
 1.758677804551919e+000	 4.196373717852327e+000	 9.369273204022338e+000
 1.716797229398172e+000	 4.213680964815437e+000	 9.385116759778439e+000
 1.674830928519619e+000	 4.230536769844139e+000	 9.418833324111743e+000
 2.101272763205771e+000	 4.063899331261593e+000	 9.976174630645682e+000
 2.060107189130810e+000	 4.084921464277438e+000	 9.830685135975594e+000
 2.018798481942900e+000	 4.105493598744757e+000	 9.707923297385047e+000
 1.977353802301289e+000	 4.125614734868196e+000	 9.609312462849426e+000
 1.935780305626794e+000	 4.145284020232332e+000	 9.536216939158718e+000
 1.894085138431479e+000	 4.164500749000931e+000	 9.489938943040540e+000
 1.852275434692931e+000	 4.183264361010493e+000	 9.459309001785417e+000
 1.810358312276495e+000	 4.201574440760342e+000	 9.444796674028394e+000
 1.768340869408785e+000	 4.219430716301676e+000	 9.453582227517998e+000
 1.726230181205598e+000	 4.236833058028028e+000	 9.482636647986183e+000
 1.684033296257282e+000	 4.253781477369778e+000	 9.529027105037601e+000
 2.112755128027612e+000	 4.086106431433171e+000	 9.952951116869864e+000
 2.071364605460215e+000	 4.107243439492581e+000	 9.817285423654763e+000
 2.029830167631828e+000	 4.127927989995016e+000	 9.704944568540546e+000
 1.988159014330985e+000	 4.148159077681763e+000	 9.617377625701067e+000
 1.946358340079160e+000	 4.167935845479390e+000	 9.555973739703369e+000
 1.904435330440397e+000	 4.187257583694634e+000	 9.522059020176840e+000
 1.862397158375764e+000	 4.206123729102990e+000	 9.510381154708577e+000
 1.820250980646048e+000	 4.224533863933293e+000	 9.510271180345255e+000
 1.778003934265982e+000	 4.242487714750674e+000	 9.533087659354365e+000
 1.735663133013200e+000	 4.259985151240440e+000	 9.575712186783989e+000
 1.693235663994934e+000	 4.277026184895429e+000	 9.635124925250516e+000
 2.124237492849956e+000	 4.108313531603750e+000	 9.927608052954453e+000
 2.082622021790209e+000	 4.129565414706734e+000	 9.801232968102992e+000
 2.040861853321399e+000	 4.150362381244316e+000	 9.698783788883468e+000
 1.998964226361346e+000	 4.170703420494422e+000	 9.621736115366456e+000
 1.956936374532185e+000	 4.190587670725612e+000	 9.571504718032752e+000
 1.914785522449936e+000	 4.210014418387591e+000	 9.549440374901002e+000
 1.872518882059152e+000	 4.228983097194856e+000	 9.555650319088283e+000
 1.830143649016057e+000	 4.247493287105740e+000	 9.570333013248712e+000
 1.787666999123510e+000	 4.265544713199322e+000	 9.607561949292194e+000
 1.745096084820976e+000	 4.283137244452671e+000	 9.664128229132908e+000
 1.702438031732576e+000	 4.300270892421088e+000	 9.736923935258544e+000
 2.135719857672804e+000	 4.130520631773328e+000	 9.900308201792058e+000
 2.093879438120791e+000	 4.151887389919897e+000	 9.782688805750640e+000
 2.051893539011612e+000	 4.172796772492658e+000	 9.689600251822574e+000
 2.009769438392373e+000	 4.193247763306173e+000	 9.622545469682855e+000
 1.967514408985869e+000	 4.213239495970997e+000	 9.582965647835348e+000
 1.925135714460097e+000	 4.232771253079803e+000	 9.572237012105690e+000
 1.882640605743095e+000	 4.251842465286088e+000	 9.591667770358146e+000
 1.840036317386526e+000	 4.270452710277686e+000	 9.624742299908261e+000
 1.797330063981369e+000	 4.288601711647618e+000	 9.676777645318905e+000
 1.754529036628928e+000	 4.306289337664721e+000	 9.747669648743232e+000
 1.711640399470208e+000	 4.323515599946758e+000	 9.834221229166317e+000
 2.147202222496156e+000	 4.152727731941907e+000	 9.871215032521798e+000
 2.105136854451962e+000	 4.174209365132070e+000	 9.761814602541858e+000
 2.062925224702469e+000	 4.195231163740040e+000	 9.677553803593256e+000
 2.020574650424067e+000	 4.215792106117017e+000	 9.619963702707512e+000
 1.978092443440212e+000	 4.235891321215544e+000	 9.590512702528431e+000
 1.935485906470881e+000	 4.255528087771273e+000	 9.590603260070900e+000
 1.892762329427593e+000	 4.274701833376684e+000	 9.621568774342943e+000
 1.849928985757451e+000	 4.293412133449130e+000	 9.673259338782957e+000
 1.806993128839560e+000	 4.311658710095563e+000	 9.740507391022140e+000
 1.763961988437054e+000	 4.329441430876592e+000	 9.826121339519775e+000
 1.720842767207830e+000	 4.346760307472438e+000	 9.926813846182935e+000
 2.158684587320011e+000	 4.174934832109484e+000	 9.840492701746026e+000
 2.116394270783720e+000	 4.196531340343253e+000	 9.738772637192202e+000
 2.073956910393968e+000	 4.217665554986464e+000	 9.662804828554704e+000
 2.031379862456427e+000	 4.238336448926953e+000	 9.614149292052275e+000
 1.988670477895215e+000	 4.258543146459256e+000	 9.594302444626848e+000
 1.945836098482286e+000	 4.278284922461995e+000	 9.604693761863107e+000
 1.902884053112646e+000	 4.297561201466650e+000	 9.646682607446737e+000
 1.859821654128836e+000	 4.316371556620072e+000	 9.715644595065745e+000
 1.816656193698082e+000	 4.334715708543159e+000	 9.798523923047236e+000
 1.773394940245357e+000	 4.352593524088284e+000	 9.899268215024639e+000
 1.730045134945440e+000	 4.370005014998127e+000	 1.001449877208204e+001
 2.170166952144371e+000	 4.197141932276062e+000	 9.808306035343508e+000
 2.127651687116068e+000	 4.218853315553446e+000	 9.713725784977736e+000
 2.084988596086108e+000	 4.240099946231929e+000	 9.645514234953792e+000
 2.042185074489452e+000	 4.260880791735981e+000	 9.605261166620212e+000
 1.999248512350876e+000	 4.281194971702131e+000	 9.594491815449638e+000
 1.956186290494314e+000	 4.301041757151972e+000	 9.614663467007727e+000
 1.913005776798254e+000	 4.320420569555981e+000	 9.667162227173277e+000
 1.869714322500677e+000	 4.339330979790511e+000	 9.751658696272687e+000
 1.826319258556935e+000	 4.357772706990403e+000	 9.850600068635284e+000
 1.782827892053834e+000	 4.375745617299795e+000	 9.956996056457816e+000
 1.739247502683042e+000	 4.393249722523829e+000	 9.838867377837754e+000
 2.181649316969235e+000	 4.219349032441642e+000	 9.774820510856916e+000
 2.138909103449004e+000	 4.241175290762651e+000	 9.686837502036143e+000
 2.096020281778892e+000	 4.262534337476436e+000	 9.625843441138580e+000
 2.052990286523145e+000	 4.283425134544102e+000	 9.593458694729542e+000
 2.009826546807197e+000	 4.303846796944171e+000	 9.591238125151302e+000
 1.966536482506964e+000	 4.323798591841205e+000	 9.620667623424312e+000
 1.923127500484418e+000	 4.343279937644681e+000	 9.683160819148732e+000
 1.879606990872978e+000	 4.362290402960451e+000	 9.780055973859232e+000
 1.835982323416120e+000	 4.380829705437297e+000	 9.826107412771272e+000
 1.792260843862487e+000	 4.398897710511126e+000	 9.717585497580304e+000
 1.748449870420633e+000	 4.416494430049542e+000	 9.597023192731182e+000
 1.656426193044263e+000	 4.184047354792892e+000	 9.186968986670115e+000
 1.614843180269973e+000	 4.200271598754027e+000	 9.173784161977721e+000
 1.573189158483706e+000	 4.216049794749046e+000	 9.172816695696554e+000
 1.531470962909008e+000	 4.231382361586969e+000	 9.181555545622086e+000
 1.489695389864481e+000	 4.246269850775701e+000	 9.197600174962050e+000
 1.447869193727904e+000	 4.260712944807515e+000	 9.218664201642307e+000
 1.405999083972017e+000	 4.274712455367262e+000	 9.242578720913278e+000
 1.364091722274012e+000	 4.288269321466461e+000	 9.267295299659617e+000
 1.322153719700637e+000	 4.301384607506363e+000	 9.290888641784335e+000
 1.280191633970678e+000	 4.314059501273208e+000	 9.311558924987331e+000
 1.238211966796443e+000	 4.326295311868889e+000	 9.313687107357715e+000
 1.665628560781946e+000	 4.207292062318510e+000	 9.304746374003083e+000
 1.623814531271376e+000	 4.223606440967679e+000	 9.302323534616429e+000
 1.581929098254062e+000	 4.239472293606605e+000	 9.314727463233638e+000
 1.539979134927016e+000	 4.254890041371023e+000	 9.339399685467861e+000
 1.497971475366166e+000	 4.269860238832774e+000	 9.373891547566064e+000
 1.455912911473615e+000	 4.284383572275750e+000	 9.415867973098703e+000
 1.413810189996953e+000	 4.298460857894164e+000	 9.463110889961980e+000
 1.371670009622691e+000	 4.312093039916263e+000	 9.513522325941494e+000
 1.329499018145727e+000	 4.325281188656642e+000	 9.565127172072108e+000
 1.287303809716620e+000	 4.338026498500345e+000	 9.616075613988583e+000
 1.245090922168304e+000	 4.350330285822056e+000	 9.659535887960457e+000
 1.674830928519619e+000	 4.230536769844139e+000	 9.418833324111743e+000
 1.632785882272589e+000	 4.246941283181525e+000	 9.428475841317431e+000
 1.590669038024091e+000	 4.262894792464511e+000	 9.455503917271958e+000
 1.548487306944598e+000	 4.278397721155550e+000	 9.497310512760439e+000
 1.506247560867369e+000	 4.293450626890412e+000	 9.551397782835315e+000
 1.463956629218827e+000	 4.308054199744612e+000	 9.615380941711846e+000
 1.421621296021413e+000	 4.322209260421725e+000	 9.686991794880266e+000
 1.379248296970957e+000	 4.335916758366730e+000	 9.764081936532454e+000
 1.336844316590506e+000	 4.349177769807553e+000	 9.844625611399565e+000
 1.294415985462393e+000	 4.361993495728061e+000	 9.926722241072797e+000
 1.251969877540177e+000	 4.374365259775718e+000	 1.000859861583064e+001
 1.684033296257282e+000	 4.253781477369778e+000	 9.529027105037601e+000
 1.641757233273613e+000	 4.270276125395566e+000	 9.552034438384109e+000
 1.599408977793790e+000	 4.286317291322766e+000	 9.594935998788722e+000
 1.556995478961755e+000	 4.301905400940547e+000	 9.655075042981858e+000
 1.514523646368089e+000	 4.317041014948612e+000	 9.729903453862502e+000
 1.472000346963540e+000	 4.331724827214101e+000	 9.816985714431805e+000
 1.429432402045397e+000	 4.345957662949947e+000	 9.914002545741205e+000
 1.386826584318810e+000	 4.359740476817858e+000	 1.001875420680101e+001
 1.344189615034976e+000	 4.373074350959102e+000	 1.012916345540881e+001
 1.301528161207999e+000	 4.385960492956356e+000	 1.002438667393631e+001
 1.258848832912064e+000	 4.398400233729873e+000	 9.886668199399308e+000
 1.693235663994934e+000	 4.277026184895429e+000	 9.635124925250516e+000
 1.650728584274448e+000	 4.293610967609801e+000	 9.672792894778716e+000
 1.608148917563162e+000	 4.309739790181370e+000	 9.732814120524974e+000
 1.565503650978485e+000	 4.325413080726016e+000	 9.812481009325492e+000
 1.522799731868327e+000	 4.340631403007379e+000	 9.909194084217463e+000
 1.480044064707754e+000	 4.355395454684218e+000	 1.002046606825470e+001
 1.437243508068906e+000	 4.369706065478828e+000	 1.014392562902808e+001
 1.394404871666251e+000	 4.383564195269647e+000	 1.011248128815539e+001
 1.351534913479135e+000	 4.396970932111286e+000	 9.987969946986068e+000
 1.308640336953436e+000	 4.409927490185231e+000	 9.870821980682793e+000
 1.265727788283963e+000	 4.422435207684523e+000	 9.761697522384683e+000
 1.702438031732576e+000	 4.300270892421088e+000	 9.736923935258544e+000
 1.659699935275092e+000	 4.316945809824232e+000	 9.790544986374759e+000
 1.616888857332206e+000	 4.333162289040322e+000	 9.868929154235357e+000
 1.574011822994792e+000	 4.348920760511958e+000	 9.969316843298403e+000
 1.531075817368083e+000	 4.364221791066709e+000	 1.008905612225870e+001
 1.488087782451469e+000	 4.379066082154962e+000	 1.015141540906386e+001
 1.445054614091940e+000	 4.393454468008369e+000	 1.003107526509334e+001
 1.401983159013279e+000	 4.407387913722100e+000	 9.919717593518181e+000
 1.358880211922985e+000	 4.420867513264106e+000	 9.818044463333342e+000
 1.315752512698706e+000	 4.433894487414682e+000	 9.726740847674435e+000
 1.272606743655874e+000	 4.446470181639666e+000	 9.646473963315556e+000
 1.711640399470208e+000	 4.323515599946758e+000	 9.834221229166317e+000
 1.668671286275546e+000	 4.340280652038856e+000	 9.905084690394936e+000
 1.625628797100923e+000	 4.356584787899623e+000	 1.000307241834887e+001
 1.582519995010671e+000	 4.372428440298371e+000	 1.012537165594947e+001
 1.539351902867356e+000	 4.387812179126605e+000	 1.004427029628478e+001
 1.496131500194685e+000	 4.402736709626333e+000	 9.929991287552454e+000
 1.452865720114497e+000	 4.417202870538569e+000	 9.826907654458312e+000
 1.409561446359895e+000	 4.431211632175214e+000	 9.735754030540365e+000
 1.366225510366525e+000	 4.444764094417558e+000	 9.657245655957610e+000
 1.322864688443807e+000	 4.457861484644716e+000	 9.592077706952022e+000
 1.279485699027798e+000	 4.470505155595302e+000	 9.540924667411622e+000
 1.720842767207830e+000	 4.346760307472438e+000	 9.926813846182935e+000
 1.677642637275812e+000	 4.363615494253677e+000	 1.001620618002744e+001
 1.634368736869311e+000	 4.380007286759271e+000	 1.005433373162905e+001
 1.591028167026127e+000	 4.395936120085256e+000	 9.928958587313316e+000
 1.547627988366146e+000	 4.411402567187063e+000	 9.816108903144949e+000
 1.504175217937402e+000	 4.426407337098329e+000	 9.716578243378756e+000
 1.460676826136578e+000	 4.440951273069429e+000	 9.631139220178536e+000
 1.417139733706099e+000	 4.455035350628992e+000	 9.560542761925547e+000
 1.373570808809755e+000	 4.468660675571651e+000	 9.505517425981306e+000
 1.329976864188740e+000	 4.481828481875327e+000	 9.466768756448266e+000
 1.286364654399735e+000	 4.494540129551433e+000	 9.444978687354162e+000
 1.730045134945440e+000	 4.370005014998127e+000	 1.001449877208204e+001
 1.686613988275887e+000	 4.386950336468694e+000	 9.942303871276938e+000
 1.643108676637371e+000	 4.403429785619270e+000	 9.811922195430828e+000
 1.599536339041156e+000	 4.419443799872612e+000	 9.696046691023412e+000
 1.555904073864455e+000	 4.434992955248088e+000	 9.595516530271464e+000
 1.512218935679620e+000	 4.450077964570956e+000	 9.511147687239937e+000
 1.468487932158185e+000	 4.464699675600949e+000	 9.443732179679545e+000
 1.424718021051890e+000	 4.478859069083432e+000	 9.394037358272033e+000
 1.380916107252676e+000	 4.492557256726376e+000	 9.362805243848646e+000
 1.337089039933505e+000	 4.505795479106518e+000	 9.350751913022510e+000
 1.293243609771684e+000	 4.518575103508055e+000	 9.358566932555759e+000
 1.739247502683042e+000	 4.393249722523829e+000	 9.838867377837754e+000
 1.695585339275773e+000	 4.410285178683903e+000	 9.699321225808340e+000
 1.651848616405103e+000	 4.426852284479617e+000	 9.576151318376603e+000
 1.608044511055760e+000	 4.442951479660441e+000	 9.470247737699014e+000
 1.564180159362281e+000	 4.458583343309677e+000	 9.382475157529862e+000
 1.520262653421339e+000	 4.473748592044207e+000	 9.313672051592020e+000
 1.476299038179315e+000	 4.488448078133128e+000	 9.264649952356010e+000
 1.432296308397268e+000	 4.502682787538533e+000	 9.236192760826969e+000
 1.388261405695286e+000	 4.516453837881736e+000	 9.229056107808850e+000
 1.344201215678103e+000	 4.529762476338287e+000	 9.243966766986585e+000
 1.300122565143645e+000	 4.542610077465175e+000	 9.281622120040346e+000
 1.748449870420633e+000	 4.416494430049542e+000	 9.597023192731182e+000
 1.704556690275469e+000	 4.433620020899308e+000	 9.462486657155745e+000
 1.660588556172508e+000	 4.450274783340313e+000	 9.347024175397193e+000
 1.616552683069939e+000	 4.466459159448743e+000	 9.251554398322535e+000
 1.572456244859625e+000	 4.482173731371831e+000	 9.176967572960420e+000
 1.528306371162558e+000	 4.497419219518086e+000	 9.124124763761351e+000
 1.484110144199970e+000	 4.512196480665969e+000	 9.093857127940947e+000
 1.439874595742234e+000	 4.526506505994299e+000	 9.086965245416486e+000
 1.395606704137587e+000	 4.540350419037734e+000	 9.104218503710989e+000
 1.351313391422532e+000	 4.553729473570638e+000	 9.146354538066371e+000
 1.307001520515620e+000	 4.566645051422786e+000	 9.214078726874567e+000
 1.238211966796443e+000	 4.326295311868889e+000	 9.313687107357715e+000
 1.196221161306078e+000	 4.338093467580077e+000	 9.253384487242720e+000
 1.154225599546729e+000	 4.349455513689764e+000	 9.217455194279095e+000
 1.112231600071145e+000	 4.360383110233927e+000	 9.203658711778298e+000
 1.070245415609067e+000	 4.370878029706319e+000	 9.209893758059856e+000
 1.028273230823133e+000	 4.380942154715376e+000	 9.120198226513226e+000
 9.863211601505714e-001	 4.390577475596269e+000	 8.986390677178871e+000
 9.443952457313436e-001	 4.399786087981417e+000	 8.891357455862551e+000
 9.025014554232422e-001	 4.408570190332767e+000	 8.836513878927116e+000
 8.606456809043406e-001	 4.416932081439071e+000	 8.823063870722905e+000
 8.188337358630459e-001	 4.424874157881446e+000	 8.852001251415103e+000
 1.245090922168304e+000	 4.350330285822056e+000	 9.659535887960457e+000
 1.202866834424291e+000	 4.362193986843245e+000	 9.648002878066551e+000
 1.160637963987752e+000	 4.373619155431682e+000	 9.652410892475414e+000
 1.118410664514505e+000	 4.384607460845763e+000	 9.476938551875641e+000
 1.076191223471678e+000	 4.395160685426433e+000	 9.300980842255735e+000
 1.033985859881143e+000	 4.405280722241064e+000	 9.154742033425357e+000
 9.918007221492238e-001	 4.414969572682244e+000	 9.040118672371735e+000
 9.496418859833251e-001	 4.424229344024799e+000	 8.958796322286366e+000
 9.075153523960025e-001	 4.433062246944354e+000	 8.912249891872861e+000
 8.654270457968732e-001	 4.441470593000706e+000	 8.901744391980454e+000
 8.233828121726124e-001	 4.449456792089316e+000	 8.928336107582021e+000
 1.251969877540177e+000	 4.374365259775718e+000	 1.000859861583064e+001
 1.209512507542697e+000	 4.386294506106817e+000	 9.817097105076163e+000
 1.167050328429106e+000	 4.397782797173934e+000	 9.628105129578181e+000
 1.124589728958293e+000	 4.408831811457885e+000	 9.458812666572468e+000
 1.082137031334772e+000	 4.419443341146804e+000	 9.311590705504971e+000
 1.039698488939652e+000	 4.429619289767003e+000	 9.188601814248729e+000
 9.972802841483516e-001	 4.439361669768482e+000	 9.091799452264294e+000
 9.548885262357177e-001	 4.448672600068478e+000	 9.022927735790789e+000
 9.125292493690708e-001	 4.457554303556283e+000	 8.983521644964110e+000
 8.702084106895723e-001	 4.466009104562757e+000	 8.974907661830038e+000
 8.279318884821645e-001	 4.474039426297694e+000	 8.998204827357490e+000
 1.258848832912064e+000	 4.398400233729873e+000	 9.886668199399308e+000
 1.216158180661293e+000	 4.410395025370794e+000	 9.730724326497731e+000
 1.173462692870789e+000	 4.421946438916520e+000	 9.579843751435250e+000
 1.130768793402506e+000	 4.433056162070294e+000	 9.443167555264953e+000
 1.088082839198348e+000	 4.443725996867436e+000	 9.323120850924832e+000
 1.045411117998660e+000	 4.453957857293191e+000	 9.221922128693691e+000
 1.002759846147954e+000	 4.463753766854984e+000	 9.141582440684035e+000
 9.601351664885216e-001	 4.473115856112448e+000	 9.083905040855610e+000
 9.175431463424475e-001	 4.482046360168563e+000	 9.050485470557456e+000
 8.749897755824373e-001	 4.490547616125227e+000	 9.042712078664364e+000
 8.324809647917018e-001	 4.498622060506580e+000	 9.061766964495597e+000
 1.265727788283963e+000	 4.422435207684523e+000	 9.761697522384683e+000
 1.222803853780082e+000	 4.434495544635175e+000	 9.650369425104955e+000
 1.179875057312801e+000	 4.446110080659443e+000	 9.535849019222709e+000
 1.136947857847147e+000	 4.457280512682990e+000	 9.430135996189810e+000
 1.094028647062408e+000	 4.468008652588325e+000	 9.335710474439331e+000
 1.051123747058167e+000	 4.478296424819630e+000	 9.254847652624699e+000
 1.008239408148032e+000	 4.488145863941748e+000	 9.189616865771550e+000
 9.653818067417367e-001	 4.497559112156714e+000	 9.141881100577161e+000
 9.225570433161322e-001	 4.506538416781186e+000	 9.113296959975152e+000
 8.797711404754686e-001	 4.515086127688112e+000	 9.105315066124842e+000
 8.370300411012241e-001	 4.523204694715973e+000	 9.119180890091034e+000
 1.272606743655874e+000	 4.446470181639666e+000	 9.646473963315556e+000
 1.229449526899063e+000	 4.458596063899961e+000	 9.576151074054680e+000
 1.186287421755143e+000	 4.470273722402702e+000	 9.496247522563024e+000
 1.143126922292214e+000	 4.481504863295973e+000	 9.419851564049415e+000
 1.099974454926952e+000	 4.492291308309474e+000	 9.349499213919064e+000
 1.056836376118173e+000	 4.502634992346319e+000	 9.287523174921084e+000
 1.013718970148585e+000	 4.512537961028775e+000	 9.236051765269497e+000
 9.706284469953630e-001	 4.522002368201274e+000	 9.197008309678413e+000
 9.275709402901251e-001	 4.531030473394154e+000	 9.172110983532917e+000
 8.845525053686659e-001	 4.539624639251416e+000	 9.162873099446230e+000
 8.415791174107322e-001	 4.547787328925875e+000	 9.170603824542688e+000
 1.279485699027798e+000	 4.470505155595302e+000	 9.540924667411622e+000
 1.236095200018235e+000	 4.482696583165149e+000	 9.508189486427517e+000
 1.192699786197815e+000	 4.494437364146294e+000	 9.461166996073848e+000
 1.149305986737708e+000	 4.505729213909241e+000	 9.412448608601428e+000
 1.105920262791978e+000	 4.516573964030878e+000	 9.364627137301216e+000
 1.062549005178678e+000	 4.526973559873260e+000	 9.320093594438813e+000
 1.019198532149612e+000	 4.536930058116062e+000	 9.281035991640835e+000
 9.758750872494005e-001	 4.546445624246128e+000	 9.249438607099838e+000
 9.325848372644264e-001	 4.555522530007470e+000	 9.227081709921857e+000
 8.893338702620292e-001	 4.564163150815134e+000	 9.215541730951681e+000
 8.461281937202254e-001	 4.572369963136283e+000	 9.216191868486494e+000
 1.286364654399735e+000	 4.494540129551433e+000	 9.444978687354162e+000
 1.242740873137600e+000	 4.506797102430743e+000	 9.446606374053291e+000
 1.199112150640817e+000	 4.518601005890221e+000	 9.430736288753131e+000
 1.155485051183629e+000	 4.529953564522797e+000	 9.408062233935349e+000
 1.111866070657487e+000	 4.540856619752544e+000	 9.381234731090265e+000
 1.068261634239683e+000	 4.551312127400450e+000	 9.352703917070173e+000
 1.024678094151114e+000	 4.561322155203613e+000	 9.324718217022692e+000
 9.811217275038495e-001	 4.570888880291277e+000	 9.299323488186092e+000
 9.375987342390358e-001	 4.580014586621130e+000	 9.278362624968640e+000
 8.941152351555585e-001	 4.588701662379271e+000	 9.263475614729073e+000
 8.506772700297042e-001	 4.596952597347197e+000	 9.256100032735523e+000
 1.293243609771684e+000	 4.518575103508055e+000	 9.358566932555759e+000
 1.249386546257156e+000	 4.530897621696742e+000	 9.391524907651011e+000
 1.205524515084149e+000	 4.542764647634485e+000	 9.405085334341322e+000
 1.161664115629977e+000	 4.554177915136640e+000	 9.406828278410698e+000
 1.117811878523479e+000	 4.565139275474467e+000	 9.399462889226097e+000
 1.073974263301186e+000	 4.575650694927892e+000	 9.385499252896922e+000
 1.030157656153092e+000	 4.585714252291426e+000	 9.367246938022475e+000
 9.863683677587096e-001	 4.595332136336720e+000	 9.346814016483735e+000
 9.426126312139533e-001	 4.604506643235137e+000	 9.326106549796524e+000
 8.988966000492540e-001	 4.613240173943826e+000	 9.306828530520681e+000
 8.552263463391679e-001	 4.621535231558619e+000	 9.290482267264588e+000
 1.300122565143645e+000	 4.542610077465175e+000	 9.281622120040346e+000
 1.256032219376904e+000	 4.554998140963141e+000	 9.340460503240239e+000
 1.211936879527810e+000	 4.566928289379082e+000	 9.384345122624573e+000
 1.167843180076751e+000	 4.578402265750768e+000	 9.408883295231696e+000
 1.123757686389954e+000	 4.589421931196648e+000	 9.419452902305112e+000
 1.079686892363189e+000	 4.599989262455583e+000	 9.418624813433992e+000
 1.035637218155545e+000	 4.610106349379503e+000	 9.408770480361262e+000
 9.916150080139813e-001	 4.619775392382458e+000	 9.392060835164408e+000
 9.476265281891790e-001	 4.628998699849491e+000	 9.370465658410380e+000
 9.036779649431154e-001	 4.637778685508796e+000	 9.345753406853728e+000
 8.597754226486175e-001	 4.646117865770551e+000	 9.319491489274826e+000
 1.307001520515620e+000	 4.566645051422786e+000	 9.214078726874567e+000
 1.262677892496843e+000	 4.579098660229949e+000	 9.297218613193298e+000
 1.218349243971802e+000	 4.591091931124016e+000	 9.368647671643956e+000
 1.174022244523952e+000	 4.602626616365185e+000	 9.414364533635567e+000
 1.129703494256913e+000	 4.613704586919090e+000	 9.441346447141861e+000
 1.085399521425690e+000	 4.624327829983526e+000	 9.452225908960172e+000
 1.041116780158473e+000	 4.634498446467843e+000	 9.449437003371092e+000
 9.968616482696642e-001	 4.644218648428491e+000	 9.435214178087470e+000
 9.526404251647134e-001	 4.653490756464190e+000	 9.411591494725911e+000
 9.084593298371433e-001	 4.662317197074184e+000	 9.380402343440890e+000
 8.643244989580522e-001	 4.670700499982988e+000	 9.343279610372012e+000
 8.188337358630459e-001	 4.424874157881446e+000	 8.852001251415103e+000
 7.770713542760024e-001	 4.432398911470850e+000	 8.894425819507005e+000
 7.353641887737129e-001	 4.439508926659324e+000	 8.933816110304408e+000
 6.937178090935393e-001	 4.446206877929084e+000	 8.970820231997545e+000
 6.521377006203357e-001	 4.452495527163421e+000	 9.005920016858097e+000
 6.106292630141446e-001	 4.458377721001112e+000	 9.042303517410691e+000
 5.691978089245402e-001	 4.463856388177795e+000	 9.075259332473845e+000
 5.278485627910554e-001	 4.468934536857286e+000	 9.096159701049396e+000
 4.865866597290441e-001	 4.473615251955685e+000	 9.105299205587167e+000
 4.454171445002333e-001	 4.477901692461161e+000	 9.102768650178529e+000
 4.043449705671096e-001	 4.481797088752095e+000	 9.088460009534792e+000
 8.233828121726124e-001	 4.449456792089316e+000	 8.928336107582021e+000
 7.813884173551501e-001	 4.457023349864672e+000	 8.962417044312456e+000
 7.394495453783545e-001	 4.464172865137007e+000	 8.993901792936983e+000
 6.975717969225731e-001	 4.470908027246774e+000	 9.023494988650048e+000
 6.557606878470220e-001	 4.477231613421060e+000	 9.051731383337772e+000
 6.140216478098556e-001	 4.483146486113297e+000	 9.080674205461106e+000
 5.723600189753694e-001	 4.488655590329879e+000	 9.106900794784917e+000
 5.307810548077608e-001	 4.493761950946637e+000	 9.122181503100597e+000
 4.892899189508035e-001	 4.498468670018098e+000	 9.126848040794130e+000
 4.478916841926801e-001	 4.502778924082358e+000	 9.121023763736796e+000
 4.065913315151142e-001	 4.506695961464353e+000	 9.104628694468710e+000
 8.279318884821645e-001	 4.474039426297694e+000	 8.998204827357490e+000
 7.857054804340988e-001	 4.481647788259090e+000	 9.024037993679022e+000
 7.435349019826437e-001	 4.488836803615357e+000	 9.047753327804754e+000
 7.014257847511325e-001	 4.495609176565181e+000	 9.070112223872897e+000
 6.593836750731416e-001	 4.501967699679441e+000	 9.091702529952460e+000
 6.174140326049386e-001	 4.507915251226232e+000	 9.113788999912336e+000
 5.755222290255385e-001	 4.513454792482698e+000	 9.133637297715552e+000
 5.337135468238045e-001	 4.518589365036694e+000	 9.143701757444600e+000
 4.919931781719292e-001	 4.523322088081166e+000	 9.144351050058216e+000
 4.503662238845498e-001	 4.527656155704141e+000	 9.135740850617824e+000
 4.088376924626270e-001	 4.531594834177102e+000	 9.117818933223800e+000
 8.324809647917018e-001	 4.498622060506580e+000	 9.061766964495597e+000
 7.900225435128486e-001	 4.506272226654105e+000	 9.079433060370178e+000
 7.476202585865805e-001	 4.513500742094372e+000	 9.095500110544760e+000
 7.052797725792167e-001	 4.520310325884299e+000	 9.110786508293415e+000
 6.630066622986947e-001	 4.526703785938562e+000	 9.125933382315578e+000
 6.208064173993930e-001	 4.532684016339916e+000	 9.141707417795503e+000
 5.786844390750477e-001	 4.538253994636254e+000	 9.155515154269338e+000
 5.366460388391863e-001	 4.543416779127455e+000	 9.160753877492475e+000
 4.946964373924205e-001	 4.548175506144885e+000	 9.157829056606273e+000
 4.528407635758420e-001	 4.552533387326506e+000	 9.146928457786844e+000
 4.110840534096479e-001	 4.556493706890342e+000	 9.128027314487776e+000
 8.370300411012241e-001	 4.523204694715973e+000	 9.119180890091034e+000
 7.943396065913998e-001	 4.530896665049719e+000	 9.128745607405104e+000
 7.517056151901652e-001	 4.538164680574053e+000	 9.137270662623024e+000
 7.091337604068266e-001	 4.545011475204132e+000	 9.145631696511877e+000
 6.666296495236811e-001	 4.551439872198428e+000	 9.154523310640524e+000
 6.241988021932194e-001	 4.557452781454349e+000	 9.164488583764076e+000
 5.818466491238974e-001	 4.563053196790550e+000	 9.172580450401751e+000
 5.395785308539065e-001	 4.568244193218922e+000	 9.173371217155900e+000
 4.973996966122779e-001	 4.573028924209257e+000	 9.167302993845631e+000
 4.553153032665570e-001	 4.577410618949452e+000	 9.154595414112940e+000
 4.133304143561772e-001	 4.581392579604075e+000	 9.135250882531137e+000
 8.415791174107322e-001	 4.547787328925875e+000	 9.170603824542688e+000
 7.986566696697515e-001	 4.555521103445926e+000	 9.172117995889510e+000
 7.557909717933976e-001	 4.562828619054400e+000	 9.173192654960669e+000
 7.129877482339616e-001	 4.569712624524679e+000	 9.174760946453635e+000
 6.702526367481011e-001	 4.576175958459034e+000	 9.177571144751775e+000
 6.275911869864177e-001	 4.582221546569534e+000	 9.182188850337431e+000
 5.850088591720872e-001	 4.587852398945581e+000	 9.184879051156658e+000
 5.425110228679650e-001	 4.593071607311093e+000	 9.181587072455230e+000
 5.001029558315010e-001	 4.597882342274283e+000	 9.172793902386355e+000
 4.577898429566945e-001	 4.602287850572979e+000	 9.158750822750012e+000
 4.155767753022150e-001	 4.606291452318299e+000	 9.139487124894140e+000
 8.461281937202254e-001	 4.572369963136283e+000	 9.216191868486494e+000
 8.029737327479043e-001	 4.580145541842733e+000	 9.209691611948704e+000
 7.598763283962778e-001	 4.587492557535412e+000	 9.203392930798200e+000
 7.168417360606217e-001	 4.594413773845941e+000	 9.198286738096932e+000
 6.738756239719542e-001	 4.600912044720382e+000	 9.195175188611216e+000
 6.309835717789875e-001	 4.606990311685467e+000	 9.194673884019734e+000
 5.881710692196170e-001	 4.612651601101351e+000	 9.192456606604679e+000
 5.454435148813620e-001	 4.617899021403971e+000	 9.185434683075799e+000
 5.028062150500900e-001	 4.622735760339963e+000	 9.174322927159354e+000
 4.602643826462547e-001	 4.627165082197090e+000	 9.159404053763433e+000
 4.178231362477610e-001	 4.631190325033014e+000	 9.140733960470909e+000
 8.506772700297042e-001	 4.596952597347197e+000	 9.256100032735523e+000
 8.072907958258579e-001	 4.604769980240135e+000	 9.241606892796852e+000
 7.639616849988057e-001	 4.612156496017090e+000	 9.227997527825762e+000
 7.206957238868073e-001	 4.619114923167915e+000	 9.216320891599905e+000
 6.774986111952407e-001	 4.625648130982472e+000	 9.207433234378778e+000
 6.343759565709292e-001	 4.631759076802148e+000	 9.202000317569736e+000
 5.913332792664872e-001	 4.637450803257858e+000	 9.195358557591346e+000
 5.483760068940971e-001	 4.642726435497554e+000	 9.184947233874055e+000
 5.055094742680453e-001	 4.647589178406296e+000	 9.171911314627101e+000
 4.627389223352376e-001	 4.652042313821782e+000	 9.156564736993559e+000
 4.200694971928152e-001	 4.656089197748221e+000	 9.138989727975941e+000
 8.552263463391679e-001	 4.621535231558619e+000	 9.290482267264588e+000
 8.116078589036128e-001	 4.629394418638134e+000	 9.268003351973695e+000
 7.680470416009811e-001	 4.636820434499433e+000	 9.247131699607641e+000
 7.245497117125181e-001	 4.643816072490604e+000	 9.228974584848794e+000
 6.811215984179607e-001	 4.650384217245303e+000	 9.214442576024110e+000
 6.377683413622425e-001	 4.656527841919581e+000	 9.204251759890418e+000
 5.944954893126973e-001	 4.662250005415101e+000	 9.193630141301314e+000
 5.513084989061706e-001	 4.667553849591840e+000	 9.180157856335963e+000
 5.082127334853660e-001	 4.672442596473283e+000	 9.165580410083338e+000
 4.652134620236431e-001	 4.676919545447056e+000	 9.150242755146625e+000
 4.223158581373777e-001	 4.680988070463921e+000	 9.134253174778660e+000
 8.597754226486175e-001	 4.646117865770551e+000	 9.319491489274826e+000
 8.159249219811684e-001	 4.654018857036731e+000	 9.289019603780556e+000
 7.721323982028044e-001	 4.661484372982442e+000	 9.260919936326070e+000
 7.284036995377543e-001	 4.668517221814007e+000	 9.236358370449519e+000
 6.847445856401141e-001	 4.675120303508878e+000	 9.216300022506250e+000
 6.411607261529279e-001	 4.681296607037764e+000	 9.201511477235675e+000
 5.976576993582478e-001	 4.687049207573082e+000	 9.187316396646457e+000
 5.542409909175825e-001	 4.692381263686833e+000	 9.171099629988714e+000
 5.109159927020528e-001	 4.697296014540922e+000	 9.155351655038462e+000
 4.676880017114714e-001	 4.701796777072913e+000	 9.140448237105316e+000
 4.245622190814485e-001	 4.705886943180112e+000	 9.126523446092435e+000
 8.643244989580522e-001	 4.670700499982988e+000	 9.343279610372012e+000
 8.202419850585254e-001	 4.678643295435927e+000	 9.304793386944366e+000
 7.762177548042755e-001	 4.686148311466118e+000	 9.269485984870352e+000
 7.322576873625158e-001	 4.693218371138126e+000	 9.238582192182177e+000
 6.883675728617010e-001	 4.699856389773195e+000	 9.213101910537104e+000
 6.445531109429850e-001	 4.706065372156695e+000	 9.193862402227341e+000
 6.008199094031385e-001	 4.711848409731801e+000	 9.176462169483472e+000
 5.571734829283327e-001	 4.717208677782532e+000	 9.157805583768273e+000
 5.136192519181055e-001	 4.722149432609216e+000	 9.141246584687528e+000
 4.701625413987223e-001	 4.726674008699353e+000	 9.127191551450370e+000
 4.268085800250276e-001	 4.730785815896795e+000	 9.115800074505012e+000
 4.043449705671096e-001	 4.481797088752095e+000	 9.088460009534792e+000
 3.633749992293684e-001	 4.485304739916109e+000	 9.067088446366940e+000
 3.225119988439666e-001	 4.488428011073319e+000	 9.051056013776838e+000
 2.817606441259506e-001	 4.491170330705894e+000	 9.039692617915955e+000
 2.411255155271930e-001	 4.493535187995821e+000	 9.032137076844739e+000
 2.006110986943447e-001	 4.495526130174090e+000	 9.027343649178215e+000
 1.602217840038418e-001	 4.497146759883373e+000	 9.024088757228315e+000
 1.199618661725720e-001	 4.498400732556415e+000	 9.020977883565982e+000
 7.983554394276284e-002	 4.499291753812300e+000	 9.016452620212849e+000
 3.984691983959775e-002	 4.499823576872690e+000	 9.008797850009463e+000
 0.000000000000000e+000	 4.500000000000000e+000	 8.996149040090941e+000
 4.065913315151142e-001	 4.506695961464353e+000	 9.104628694468710e+000
 3.653937492251137e-001	 4.510223099579862e+000	 9.085615894298243e+000
 3.243037321705993e-001	 4.513363722244021e+000	 9.071411843596010e+000
 2.833259810372557e-001	 4.516121276986122e+000	 9.061348793332002e+000
 2.424651017239094e-001	 4.518499272372497e+000	 9.054565455760191e+000
 2.017256047974699e-001	 4.520501275340979e+000	 9.050013606350927e+000
 1.611119050253528e-001	 4.522130908548917e+000	 9.046464883538189e+000
 1.206283209839831e-001	 4.523391847737017e+000	 9.042517764906012e+000
 8.027907474193338e-002	 4.524287819111140e+000	 9.036604698727507e+000
 4.006829161619280e-002	 4.524822596744175e+000	 9.026999370110577e+000
 0.000000000000000e+000	 4.525000000000000e+000	 9.011824081393606e+000
 4.088376924626270e-001	 4.531594834177102e+000	 9.117818933223800e+000
 3.674124992204621e-001	 4.535141459244013e+000	 9.101058448616531e+000
 3.260954654969194e-001	 4.538299433415035e+000	 9.088649076364815e+000
 2.848913179483222e-001	 4.541072223266592e+000	 9.079924986287878e+000
 2.438046879204512e-001	 4.543463356749351e+000	 9.074024289278681e+000
 2.028401109004743e-001	 4.545476420507987e+000	 9.069895714588022e+000
 1.620020260467867e-001	 4.547115057214537e+000	 9.066305488293891e+000
 1.212947757953511e-001	 4.548382962917662e+000	 9.061844391275587e+000
 8.072260554108483e-002	 4.549283884409997e+000	 9.054934975304629e+000
 4.028966339278307e-002	 4.549821616615666e+000	 9.043838916208498e+000
 0.000000000000000e+000	 4.550000000000000e+000	 9.026664483456909e+000
 4.110840534096479e-001	 4.556493706890342e+000	 9.128027314487776e+000
 3.694312492154133e-001	 4.560059818908559e+000	 9.113412822820035e+000
 3.278871988229268e-001	 4.563235144586363e+000	 9.102764518775670e+000
 2.864566548591501e-001	 4.566023169547295e+000	 9.095418066954327e+000
 2.451442741168182e-001	 4.568427441126377e+000	 9.090510483018285e+000
 2.039546170033579e-001	 4.570451565675120e+000	 9.086986888398080e+000
 1.628921470681436e-001	 4.572099205880234e+000	 9.083607469605795e+000
 1.219612306066758e-001	 4.573374078098350e+000	 9.078954620165726e+000
 8.116613634021710e-002	 4.574279949708876e+000	 9.071440243467247e+000
 4.051103516936858e-002	 4.574820636487162e+000	 9.059313195192370e+000
 0.000000000000000e+000	 4.574999999999999e+000	 9.040666844369566e+000
 4.133304143561772e-001	 4.581392579604075e+000	 9.135250882531137e+000
 3.714499992099677e-001	 4.584978178573502e+000	 9.122676105852419e+000
 3.296789321486217e-001	 4.588170855758004e+000	 9.113755282357783e+000
 2.880219917697396e-001	 4.590974115828240e+000	 9.107825149190438e+000
 2.464838603130108e-001	 4.593391525503579e+000	 9.104021134524681e+000
 2.050691231061205e-001	 4.595426710842369e+000	 9.101284191767505e+000
 1.637822680894234e-001	 4.597083354546010e+000	 9.098367841843043e+000
 1.226276854179574e-001	 4.598365193279084e+000	 9.093845401253839e+000
 8.160966713933031e-002	 4.599276015007772e+000	 9.086117373911090e+000
 4.073240694594931e-002	 4.599819656358660e+000	 9.073418985078323e+000
 0.000000000000000e+000	 4.600000000000000e+000	 9.053827836174964e+000
 4.155767753022150e-001	 4.606291452318299e+000	 9.139487124894140e+000
 3.734687492041253e-001	 4.609896538238842e+000	 9.128845751955588e+000
 3.314706654740040e-001	 4.613106566929956e+000	 9.121618775238263e+000
 2.895873286800905e-001	 4.615925062109422e+000	 9.117143583957443e+000
 2.478234465090286e-001	 4.618355609880955e+000	 9.114553528083807e+000
 2.061836292087624e-001	 4.620401856009741e+000	 9.112784834120610e+000
 1.646723891106261e-001	 4.622067503211863e+000	 9.110583732491543e+000
 1.232941402291957e-001	 4.623356308459859e+000	 9.106513773912127e+000
 8.205319793842432e-002	 4.624272080306686e+000	 9.098963312419013e+000
 4.095377872252528e-002	 4.624818676230165e+000	 9.086153133087160e+000
 0.000000000000000e+000	 4.624999999999999e+000	 9.066144202872199e+000
 4.178231362477610e-001	 4.631190325033014e+000	 9.140733960470909e+000
 3.754874991978857e-001	 4.634814897904579e+000	 9.131919570849879e+000
 3.332623987990737e-001	 4.638042278102219e+000	 9.126352694169123e+000
 2.911526655902029e-001	 4.640876008390843e+000	 9.123370952945027e+000
 2.491630327048718e-001	 4.643319694258506e+000	 9.122105129702058e+000
 2.072981353112834e-001	 4.645377001177234e+000	 9.121486166410026e+000
 1.655625101317517e-001	 4.647051651877790e+000	 9.120252379113046e+000
 1.239605950403908e-001	 4.648347423640677e+000	 9.116956864796524e+000
 8.249672873749922e-002	 4.649268145605621e+000	 9.109975077842428e+000
 4.117515049909649e-002	 4.649817696101675e+000	 9.097512553783966e+000
 0.000000000000000e+000	 4.650000000000000e+000	 9.077612758481960e+000
 4.200694971928152e-001	 4.656089197748221e+000	 9.138989727975941e+000
 3.775062491912493e-001	 4.659733257570714e+000	 9.131895718229229e+000
 3.350541321238309e-001	 4.662977989274798e+000	 9.127955016809970e+000
 2.927180025000769e-001	 4.665826954672504e+000	 9.126505062402119e+000
 2.505026189005404e-001	 4.668283778636232e+000	 9.126673582247406e+000
 2.084126414136835e-001	 4.670352146344848e+000	 9.127385677332432e+000
 1.664526311528003e-001	 4.672035800543796e+000	 9.127371126402091e+000
 1.246270498515428e-001	 4.673338538821540e+000	 9.125171885512856e+000
 8.294025953655498e-002	 4.674264210904576e+000	 9.119149760147570e+000
 4.139652227566294e-002	 4.674816715973188e+000	 9.107494227277490e+000
 0.000000000000000e+000	 4.675000000000000e+000	 9.088230385174210e+000
 4.223158581373777e-001	 4.680988070463921e+000	 9.134253174778660e+000
 3.795249991842159e-001	 4.684651617237246e+000	 9.128772686559824e+000
 3.368458654482753e-001	 4.687913700447686e+000	 9.126423994257099e+000
 2.942833394097122e-001	 4.690777900954401e+000	 9.126543937164554e+000
 2.518422050960344e-001	 4.693247863014131e+000	 9.128256700745622e+000
 2.095271475159629e-001	 4.695327291512582e+000	 9.130480989665264e+000
 1.673427521737718e-001	 4.697019949209878e+000	 9.131937423336607e+000
 1.252935046626515e-001	 4.698329654002444e+000	 9.131156130357530e+000
 8.338379033559164e-002	 4.699260276203551e+000	 9.126484518524219e+000
 4.161789405222462e-002	 4.699815735844708e+000	 9.116095197476957e+000
 0.000000000000000e+000	 4.699999999999999e+000	 9.097994031455713e+000
 4.245622190814485e-001	 4.705886943180112e+000	 9.126523446092435e+000
 3.815437491767854e-001	 4.709569976904174e+000	 9.122549296170723e+000
 3.386375987724072e-001	 4.712849411620889e+000	 9.121758143809702e+000
 2.958486763191092e-001	 4.715728847236538e+000	 9.123485814872359e+000
 2.531817912913537e-001	 4.718211947392206e+000	 9.126852467825858e+000
 2.106416536181213e-001	 4.720302436680438e+000	 9.130769856719523e+000
 1.682328731946662e-001	 4.722004097876039e+000	 9.133948820419187e+000
 1.259599594737171e-001	 4.723320769183392e+000	 9.134906974129985e+000
 8.382732113460913e-002	 4.724256341502541e+000	 9.131976579554307e+000
 4.183926582878153e-002	 4.724814755716230e+000	 9.123312570404190e+000
 0.000000000000000e+000	 4.725000000000000e+000	 9.106900710415138e+000
 4.268085800250276e-001	 4.730785815896795e+000	 9.115800074505012e+000
 3.835624991689582e-001	 4.734488336571500e+000	 9.113224686625889e+000
 3.404293320962267e-001	 4.737785122794405e+000	 9.113956241964548e+000
 2.974140132282676e-001	 4.740679793518913e+000	 9.117329140369641e+000
 2.545213774864985e-001	 4.743176031770457e+000	 9.122459029310029e+000
 2.117561597201589e-001	 4.745277581848414e+000	 9.128250158904695e+000
 1.691229942154836e-001	 4.746988246542276e+000	 9.133402967005301e+000
 1.266264142847394e-001	 4.748311884364385e+000	 9.136421870014191e+000
 8.427085193360755e-002	 4.749252406801554e+000	 9.135623235438603e+000
 4.206063760533369e-002	 4.749813775587760e+000	 9.129143512559191e+000
 0.000000000000000e+000	 4.750000000000000e+000	 9.114947498023437e+000
 4.750000000000000e+000	 0.000000000000000e+000	 1.039121276768132e+001
 4.749813775587761e+000	 4.206063760533384e-002	 1.037364690441754e+001
 4.749252406801552e+000	 8.427085193360784e-002	 1.036087103669568e+001
 4.748311884364385e+000	 1.266264142847391e-001	 1.035262722595314e+001
 4.746988246542277e+000	 1.691229942154834e-001	 1.034866302307856e+001
 4.745277581848414e+000	 2.117561597201589e-001	 1.034873097244905e+001
 4.743176031770457e+000	 2.545213774864986e-001	 1.035258806517838e+001
 4.740679793518913e+000	 2.974140132282679e-001	 1.035999514135733e+001
 4.737785122794405e+000	 3.404293320962264e-001	 1.037071624122942e+001
 4.734488336571500e+000	 3.835624991689580e-001	 1.038451790541449e+001
 4.730785815896796e+000	 4.268085800250276e-001	 1.040116842446903e+001
 4.775000000000001e+000	 0.000000000000000e+000	 1.039149931664821e+001
 4.774812795459289e+000	 4.228200938188836e-002	 1.037529386820262e+001
 4.774248472100565e+000	 8.471438273261578e-002	 1.036333895830961e+001
 4.773302999545376e+000	 1.272928690957831e-001	 1.035540107196729e+001
 4.771972395208514e+000	 1.700131152363393e-001	 1.035125316341107e+001
 4.770252727016390e+000	 2.128706658222569e-001	 1.035067414367658e+001
 4.768140116148707e+000	 2.558609636817307e-001	 1.035344831530717e+001
 4.765630739801289e+000	 2.989793501375455e-001	 1.035936475396229e+001
 4.762720833967920e+000	 3.422210654202020e-001	 1.036821663684801e+001
 4.759406696238825e+000	 3.855812491613292e-001	 1.037980051806587e+001
 4.755684688613478e+000	 4.290549409688527e-001	 1.039391555115665e+001
 4.800000000000001e+000	 0.000000000000000e+000	 1.039036880564113e+001
 4.799811815330812e+000	 4.250338115845243e-002	 1.037568973364192e+001
 4.799244537399557e+000	 8.515791353166197e-002	 1.036472089574375e+001
 4.798294114726322e+000	 1.279593239069134e-001	 1.035725334305921e+001
 4.796956543874674e+000	 1.709032362573494e-001	 1.035308558059594e+001
 4.795227872184246e+000	 2.139851719245966e-001	 1.035202303815408e+001
 4.793104200526780e+000	 2.572005498773120e-001	 1.035387748628629e+001
 4.790581686083425e+000	 3.005446870473001e-001	 1.035846639705044e+001
 4.787656545141124e+000	 3.440127987448029e-001	 1.036561224945584e+001
 4.784325055905753e+000	 3.875999991544943e-001	 1.037514177968172e+001
 4.780583561329669e+000	 4.313013019136611e-001	 1.038688517633262e+001
 4.825000000000000e+000	 0.000000000000000e+000	 1.038800376115496e+001
 4.824810835202331e+000	 4.272475293502601e-002	 1.037500584564572e+001
 4.824240602698530e+000	 8.560144433074646e-002	 1.036517693130286e+001
 4.823285229907229e+000	 1.286257787181301e-001	 1.035833278239110e+001
 4.821940692540756e+000	 1.717933572785135e-001	 1.035429760672762e+001
 4.820203017351980e+000	 2.150996780271781e-001	 1.035290350972112e+001
 4.818068284904680e+000	 2.585401360732425e-001	 1.035398989137500e+001
 4.815532632365324e+000	 3.021100239575318e-001	 1.035740278595923e+001
 4.812592256314012e+000	 3.458045320700288e-001	 1.036299414423019e+001
 4.809243415572285e+000	 3.896187491484532e-001	 1.037062105826048e+001
 4.805482434045368e+000	 4.335476628594529e-001	 1.038014492913157e+001
 4.850000000000000e+000	 0.000000000000000e+000	 1.038458294625175e+001
 4.849809855073845e+000	 4.294612471160915e-002	 1.037340992028872e+001
 4.849236667997485e+000	 8.604497512986921e-002	 1.036486365411347e+001
 4.848276345088090e+000	 1.292922335294333e-001	 1.035878477662497e+001
 4.846924841206762e+000	 1.726834782998319e-001	 1.035502335505829e+001
 4.845178162519593e+000	 2.162141841300012e-001	 1.035343833197052e+001
 4.843032369282406e+000	 2.598797222695223e-001	 1.035389690307608e+001
 4.840483578646983e+000	 3.036753608682405e-001	 1.035627383560994e+001
 4.837527967486590e+000	 3.475962653958800e-001	 1.036045072707681e+001
 4.834161775238419e+000	 3.916374991432062e-001	 1.036631520443153e+001
 4.830381306760575e+000	 4.357940238062281e-001	 1.037376006393128e+001
 4.875000000000000e+000	 0.000000000000000e+000	 1.038028145705892e+001
 4.874808874945352e+000	 4.316749648820179e-002	 1.037106613785701e+001
 4.874232733296419e+000	 8.648850592903019e-002	 1.036393424969257e+001
 4.873267460268909e+000	 1.299586883408228e-001	 1.035875144198682e+001
 4.871908989872691e+000	 1.735735993213043e-001	 1.035539380253224e+001
 4.870153307687087e+000	 2.173286902330660e-001	 1.035374727722914e+001
 4.867996453659956e+000	 2.612193084661514e-001	 1.035370702853978e+001
 4.865434524928405e+000	 3.052406977794263e-001	 1.035517673231305e+001
 4.862463678658855e+000	 3.493879987223564e-001	 1.035806781281641e+001
 4.859080134904157e+000	 3.936562491387530e-001	 1.036229861600310e+001
 4.855280179475290e+000	 4.380403847539867e-001	 1.036779352124383e+001
 4.900000000000000e+000	 0.000000000000000e+000	 1.037527081631352e+001
 4.899807894816859e+000	 4.338886826480400e-002	 1.036813523304678e+001
 4.899228798595335e+000	 8.693203672822945e-002	 1.036253858677443e+001
 4.898258575449684e+000	 1.306251431522988e-001	 1.035837170769604e+001
 4.896893138538543e+000	 1.744637203429310e-001	 1.035553686979370e+001
 4.895128452854458e+000	 2.184431963363725e-001	 1.035394719312072e+001
 4.892960538037332e+000	 2.625588946631297e-001	 1.035352598265953e+001
 4.890385471209588e+000	 3.068060346910890e-001	 1.035420600337579e+001
 4.887399389830808e+000	 3.511797320494579e-001	 1.035592869128373e+001
 4.883998494569497e+000	 3.956749991350937e-001	 1.035864330053428e+001
 4.880179052189514e+000	 4.402867457027287e-001	 1.036230598674285e+001
 4.925000000000000e+000	 0.000000000000000e+000	 1.036971906405749e+001
 4.924806914688357e+000	 4.361024004141571e-002	 1.036477458241586e+001
 4.924224863894231e+000	 8.737556752746696e-002	 1.036082330149280e+001
 4.923249690630416e+000	 1.312915979638611e-001	 1.035778139685398e+001
 4.921877287204318e+000	 1.753538413647117e-001	 1.035557749875794e+001
 4.920103598021710e+000	 2.195577024399207e-001	 1.035415207679693e+001
 4.917924622414534e+000	 2.638984808604573e-001	 1.035345675894145e+001
 4.915336417490530e+000	 3.083713716032288e-001	 1.035345358458943e+001
 4.912335101002447e+000	 3.529714653771846e-001	 1.035411419141350e+001
 4.908916854234440e+000	 3.976937491322283e-001	 1.035541893600118e+001
 4.905077924903247e+000	 4.425331066524542e-001	 1.035735594849287e+001
 4.949999999999999e+000	 0.000000000000000e+000	 1.036379084558440e+001
 4.949805934559854e+000	 4.383161181803696e-002	 1.036113828918519e+001
 4.949220929193109e+000	 8.781909832674277e-002	 1.035893187901234e+001
 4.948240805811104e+000	 1.319580527755098e-001	 1.035711330488124e+001
 4.946861435870015e+000	 1.762439623866466e-001	 1.035563772783166e+001
 4.945078743188839e+000	 2.206722085437106e-001	 1.035447314691900e+001
 4.942888706791562e+000	 2.652380670581341e-001	 1.035359969822622e+001
 4.940287363771237e+000	 3.099367085158457e-001	 1.035300888567167e+001
 4.937270812173773e+000	 3.547631987055365e-001	 1.035270274338436e+001
 4.933835213898987e+000	 3.997124991301568e-001	 1.035269292962483e+001
 4.929976797616488e+000	 4.447794676031630e-001	 1.035299975244448e+001
 4.975000000000000e+000	 0.000000000000000e+000	 1.035764749673471e+001
 4.974804954431343e+000	 4.405298359466774e-002	 1.035737726548345e+001
 4.974216994491966e+000	 8.826262912605680e-002	 1.035700473269862e+001
 4.973231920991751e+000	 1.326245075872450e-001	 1.035649727559001e+001
 4.971845584535635e+000	 1.771340834087357e-001	 1.035583676486551e+001
 4.970053888355849e+000	 2.217867146477423e-001	 1.035501891346903e+001
 4.967852791168413e+000	 2.665776532561602e-001	 1.035405255533895e+001
 4.965238310051703e+000	 3.115020454289394e-001	 1.035295885373577e+001
 4.962206523344788e+000	 3.565549320345135e-001	 1.035177043888911e+001
 4.958753573563137e+000	 4.017312491288793e-001	 1.035053047492528e+001
 4.954875670329236e+000	 4.470258285548553e-001	 1.034929165625636e+001
 5.000000000000000e+000	 0.000000000000000e+000	 1.035144712663209e+001
 4.999803974302830e+000	 4.427435537130806e-002	 1.035363931212436e+001
 4.999213059790807e+000	 8.870615992540913e-002	 1.035517928091314e+001
 4.998223036172354e+000	 1.332909623990665e-001	 1.035606027497437e+001
 4.996829733201179e+000	 1.780242044309789e-001	 1.035629105791794e+001
 4.995029033522738e+000	 2.229012207520156e-001	 1.035589524546699e+001
 4.992816875545091e+000	 2.679172394545357e-001	 1.035491056373961e+001
 4.990189256331933e+000	 3.130673823425104e-001	 1.035338803485568e+001
 4.987142234515491e+000	 3.583466653641159e-001	 1.035139108959685e+001
 4.983671933226891e+000	 4.037499991283957e-001	 1.034899460706413e+001
 4.979774543041494e+000	 4.492721895075311e-001	 1.034628388150245e+001
 4.730785815896796e+000	 4.268085800250276e-001	 1.040116842446903e+001
 4.726674008699353e+000	 4.701625413987225e-001	 1.040380405053205e+001
 4.722149432609216e+000	 5.136192519181058e-001	 1.040877430940792e+001
 4.717208677782531e+000	 5.571734829283322e-001	 1.041594978644006e+001
 4.711848409731801e+000	 6.008199094031381e-001	 1.042520128230747e+001
 4.706065372156695e+000	 6.445531109429850e-001	 1.043036339686470e+001
 4.699856389773195e+000	 6.883675728617011e-001	 1.042715555642380e+001
 4.693218371138125e+000	 7.322576873625162e-001	 1.042153804712944e+001
 4.686148311466118e+000	 7.762177548042752e-001	 1.041292623874051e+001
 4.678643295435926e+000	 8.202419850585251e-001	 1.040069222358789e+001
 4.670700499982989e+000	 8.643244989580522e-001	 1.038416121239555e+001
 4.755684688613478e+000	 4.290549409688527e-001	 1.039391555115665e+001
 4.751551240325787e+000	 4.726370810862668e-001	 1.039578318892083e+001
 4.747002850677490e+000	 5.163225111344948e-001	 1.039980848282405e+001
 4.742036091878186e+000	 5.601059749394566e-001	 1.040589208928473e+001
 4.736647611890442e+000	 6.039821194484362e-001	 1.041393547876384e+001
 4.730834137275503e+000	 6.479454957334772e-001	 1.041909747896333e+001
 4.724592476037334e+000	 6.919905600837464e-001	 1.041902501118978e+001
 4.717919520462004e+000	 7.361116751877541e-001	 1.041679885084891e+001
 4.710812249949480e+000	 7.803031114062359e-001	 1.041188503353003e+001
 4.703267733834722e+000	 8.245590481363794e-001	 1.040370626010756e+001
 4.695283134194934e+000	 8.688735752679868e-001	 1.039163818691140e+001
 4.780583561329669e+000	 4.313013019136611e-001	 1.038688517633262e+001
 4.776428471951631e+000	 4.751116207749754e-001	 1.038806613859545e+001
 4.771856268745071e+000	 5.190257703521903e-001	 1.039122754027004e+001
 4.766863505973048e+000	 5.630384669519912e-001	 1.039630031318743e+001
 4.761446814048191e+000	 6.071443294952085e-001	 1.040321680508200e+001
 4.755602902393323e+000	 6.513378805254688e-001	 1.040888180466332e+001
 4.749328562300383e+000	 6.956135473072753e-001	 1.041164513004851e+001
 4.742620669784687e+000	 7.399656630144201e-001	 1.041251843566953e+001
 4.735476188431549e+000	 7.843884680095280e-001	 1.041101916455556e+001
 4.727892172232125e+000	 8.288761112154274e-001	 1.040662136656095e+001
 4.719865768405383e+000	 8.734226515789357e-001	 1.039875188158245e+001
 4.805482434045368e+000	 4.335476628594529e-001	 1.038014492913157e+001
 4.801305703576881e+000	 4.775861604648483e-001	 1.038071004575568e+001
 4.796709686811962e+000	 5.217290295711926e-001	 1.038307813003769e+001
 4.791690920067119e+000	 5.659709589659360e-001	 1.038721059884770e+001
 4.786246016205046e+000	 6.103065395434554e-001	 1.039307089005966e+001
 4.780371667510148e+000	 6.547302653189593e-001	 1.039962699763452e+001
 4.774064648562337e+000	 6.992365345322879e-001	 1.040490932028065e+001
 4.767321819106181e+000	 7.438196508425139e-001	 1.040857306354000e+001
 4.760140126912325e+000	 7.884738246141514e-001	 1.041018783004624e+001
 4.752516610628136e+000	 8.331931742956691e-001	 1.040927976969269e+001
 4.744448402614344e+000	 8.779717278908998e-001	 1.040532765458316e+001
 4.830381306760575e+000	 4.357940238062281e-001	 1.037376006393128e+001
 4.826182935201540e+000	 4.800607001558854e-001	 1.037376979847452e+001
 4.821563104878160e+000	 5.244322887915016e-001	 1.037540475920849e+001
 4.816518334160396e+000	 5.689034509812907e-001	 1.037865706291379e+001
 4.811045218361012e+000	 6.134687495931764e-001	 1.038352145580025e+001
 4.805140432625982e+000	 6.581226501139490e-001	 1.039124189236211e+001
 4.798800734823201e+000	 7.028595217587843e-001	 1.039870931759827e+001
 4.792022968426482e+000	 7.476736386720355e-001	 1.040483744251623e+001
 4.784804065391810e+000	 7.925591812201062e-001	 1.040924879202617e+001
 4.777141049022752e+000	 8.375102373771044e-001	 1.041152237769396e+001
 4.769031036821811e+000	 8.825208042038785e-001	 1.041118966310104e+001
 4.855280179475290e+000	 4.380403847539867e-001	 1.036779352124383e+001
 4.851060166825605e+000	 4.825352398480867e-001	 1.036729808459890e+001
 4.846416522943666e+000	 5.271355480131171e-001	 1.036824984855644e+001
 4.841345748252882e+000	 5.718359429980557e-001	 1.037067184988146e+001
 4.835844420516085e+000	 6.166309596443722e-001	 1.037459036660258e+001
 4.829909197740824e+000	 6.615150349104378e-001	 1.038363358002310e+001
 4.823536821082973e+000	 7.064825089867645e-001	 1.039293522900569e+001
 4.816724117745589e+000	 7.515276265029854e-001	 1.040118476660472e+001
 4.809468003870002e+000	 7.966445378273926e-001	 1.040805841314030e+001
 4.801765487415977e+000	 8.418273004597336e-001	 1.041318881401164e+001
 4.793613671027784e+000	 8.870698805178717e-001	 1.041616089413115e+001
 4.880179052189514e+000	 4.402867457027287e-001	 1.036230598674285e+001
 4.875937398449081e+000	 4.850097795414525e-001	 1.036134544787785e+001
 4.871269941008482e+000	 5.298388072360395e-001	 1.036165378577020e+001
 4.866173162344577e+000	 5.747684350162309e-001	 1.036328518240395e+001
 4.860643622670264e+000	 6.197931696970424e-001	 1.036629767635378e+001
 4.854677962854673e+000	 6.649074197084256e-001	 1.037670745295852e+001
 4.848272907341651e+000	 7.101054962162283e-001	 1.038747557434801e+001
 4.841425267063504e+000	 7.553816143353630e-001	 1.039748675438633e+001
 4.834131942346900e+000	 8.007298944360103e-001	 1.040647169235273e+001
 4.826389925807810e+000	 8.461443635435569e-001	 1.041411745012232e+001
 4.818196305232266e+000	 8.916189568328796e-001	 1.042006319432794e+001
 4.905077924903247e+000	 4.425331066524542e-001	 1.035735594849287e+001
 4.900814630071965e+000	 4.874843192359823e-001	 1.035596034238127e+001
 4.896123359072603e+000	 5.325420664602684e-001	 1.035565497705421e+001
 4.891000576435481e+000	 5.777009270358166e-001	 1.035652541006972e+001
 4.885442824823554e+000	 6.229553797511870e-001	 1.035866167447884e+001
 4.879446727967530e+000	 6.682998045079126e-001	 1.037036724779105e+001
 4.873008993599238e+000	 7.137284834471758e-001	 1.038221732659448e+001
 4.866126416380227e+000	 7.592356021691689e-001	 1.039361368646357e+001
 4.858795880822505e+000	 8.048152510459594e-001	 1.040434229955804e+001
 4.851014364198249e+000	 8.504614266285735e-001	 1.041414543730823e+001
 4.842778939435253e+000	 8.961680331489021e-001	 1.042271729894795e+001
 4.929976797616488e+000	 4.447794676031630e-001	 1.035299975244448e+001
 4.925691861694258e+000	 4.899588589316765e-001	 1.035118918526958e+001
 4.920976777136034e+000	 5.352453256858037e-001	 1.035028989716618e+001
 4.915827990525591e+000	 5.806334190568120e-001	 1.035041905670205e+001
 4.910242026975950e+000	 6.261175898068060e-001	 1.035196044699011e+001
 4.904215493079395e+000	 6.716921893088987e-001	 1.036451508723611e+001
 4.897745079855732e+000	 7.173514706796073e-001	 1.037704595090091e+001
 4.890827565695758e+000	 7.630895900044026e-001	 1.038943444177321e+001
 4.883459819296819e+000	 8.089006076572398e-001	 1.040152260914353e+001
 4.875638802587297e+000	 8.547784897147842e-001	 1.041310873747022e+001
 4.867361573636751e+000	 9.007171094659396e-001	 1.042394285991536e+001
 4.954875670329236e+000	 4.470258285548553e-001	 1.034929165625636e+001
 4.950569093315958e+000	 4.924333986285350e-001	 1.034707640797233e+001
 4.945830195198775e+000	 5.379485849126460e-001	 1.034559313794592e+001
 4.940655404614911e+000	 5.835659110792179e-001	 1.034499086623259e+001
 4.935041229127454e+000	 6.292797998638995e-001	 1.034649652042713e+001
 4.928984258190267e+000	 6.750845741113840e-001	 1.035905152065227e+001
 4.922481166111133e+000	 7.209744579135221e-001	 1.037184544249449e+001
 4.915528715010096e+000	 7.669435778410640e-001	 1.038481653280403e+001
 4.908123757769840e+000	 8.129859642698519e-001	 1.039786373253977e+001
 4.900263240974951e+000	 8.590955528021886e-001	 1.041084215301172e+001
 4.891944207836753e+000	 9.052661857839915e-001	 1.042355847304142e+001
 4.979774543041494e+000	 4.492721895075311e-001	 1.034628388150245e+001
 4.975446324937067e+000	 4.949079383265578e-001	 1.034366450583150e+001
 4.970683613260823e+000	 5.406518441407948e-001	 1.034159745538822e+001
 4.965482818703437e+000	 5.864984031030339e-001	 1.034026384719853e+001
 4.959840431278067e+000	 6.324420099224676e-001	 1.034176182562621e+001
 4.953753023300148e+000	 6.784769589153683e-001	 1.035387556337516e+001
 4.947217252365444e+000	 7.245974451489210e-001	 1.036649836342197e+001
 4.940229864323243e+000	 7.707975656791538e-001	 1.037962613975797e+001
 4.932787696241570e+000	 8.170713208837953e-001	 1.039321554979440e+001
 4.924887679361214e+000	 8.634126158907869e-001	 1.040717935582617e+001
 4.916526842035265e+000	 9.098152621030583e-001	 1.042138170442730e+001
 4.670700499982989e+000	 8.643244989580522e-001	 1.038416121239555e+001
 4.662317197074184e+000	 9.084593298371435e-001	 1.043057938086452e+001
 4.653490756464190e+000	 9.526404251647136e-001	 1.046964889646635e+001
 4.644218648428491e+000	 9.968616482696640e-001	 1.050011934116299e+001
 4.634498446467842e+000	 1.041116780158473e+000	 1.052067321583157e+001
 4.624327829983526e+000	 1.085399521425691e+000	 1.052992251713416e+001
 4.613704586919089e+000	 1.129703494256913e+000	 1.052640533401458e+001
 4.602626616365184e+000	 1.174022244523953e+000	 1.050858247529989e+001
 4.591091931124016e+000	 1.218349243971801e+000	 1.047483414025029e+001
 4.579098660229949e+000	 1.262677892496843e+000	 1.046841732251825e+001
 4.566645051422785e+000	 1.307001520515620e+000	 1.056383499584671e+001
 4.695283134194934e+000	 8.688735752679868e-001	 1.039163818691140e+001
 4.686855708638989e+000	 9.132406947316664e-001	 1.043539053798550e+001
 4.677982813078237e+000	 9.576543221407282e-001	 1.047210138357840e+001
 4.668661904473816e+000	 1.002108288525803e+000	 1.050057468519723e+001
 4.658890543555444e+000	 1.046596342161823e+000	 1.051954696424111e+001
 4.648666397510717e+000	 1.091112150488570e+000	 1.052768376249348e+001
 4.637987242640787e+000	 1.135649302124196e+000	 1.052357612044680e+001
 4.626850966978887e+000	 1.180201308971414e+000	 1.050573708517069e+001
 4.615255572868284e+000	 1.224761608415978e+000	 1.047259825981280e+001
 4.603199179496159e+000	 1.269323565616884e+000	 1.048531727109568e+001
 4.590680025379892e+000	 1.313880475887600e+000	 1.057106178077265e+001
 4.719865768405383e+000	 8.734226515789357e-001	 1.039875188158245e+001
 4.711394220202210e+000	 9.180220596270136e-001	 1.043973029115668e+001
 4.702474869690624e+000	 9.626682191173959e-001	 1.047398801612360e+001
 4.693105160517438e+000	 1.007354928782444e+000	 1.050038407786587e+001
 4.683282640641308e+000	 1.052075904165542e+000	 1.051770968879542e+001
 4.673004965036161e+000	 1.096824779551707e+000	 1.052468459504544e+001
 4.662269898360744e+000	 1.141595109991644e+000	 1.051995343518430e+001
 4.651075317590875e+000	 1.186380373418968e+000	 1.050208212689936e+001
 4.639419214610887e+000	 1.231173972860196e+000	 1.046955429398771e+001
 4.627299698760771e+000	 1.275969238736935e+000	 1.049786342876133e+001
 4.614714999335491e+000	 1.320759431259581e+000	 1.057437403233836e+001
 4.744448402614344e+000	 8.779717278908998e-001	 1.040532765458316e+001
 4.735932731763849e+000	 9.228034245231848e-001	 1.044340498079770e+001
 4.726966926301361e+000	 9.676821160947169e-001	 1.047509620550885e+001
 4.717548416559353e+000	 1.012601569039586e+000	 1.049931610173970e+001
 4.707674737725433e+000	 1.057555466169631e+000	 1.051491125487935e+001
 4.697343532559855e+000	 1.102537408615102e+000	 1.052065628613898e+001
 4.686552554078959e+000	 1.147540917859256e+000	 1.051525009020367e+001
 4.675299668201152e+000	 1.192559437866616e+000	 1.049731209926758e+001
 4.663582856351827e+000	 1.237586337304456e+000	 1.046537858604062e+001
 4.651400218023791e+000	 1.282614911856996e+000	 1.050599636389245e+001
 4.638749973289582e+000	 1.327638386631561e+000	 1.057370283103975e+001
 4.769031036821811e+000	 8.825208042038785e-001	 1.041118966310104e+001
 4.760471243323902e+000	 9.275847894201803e-001	 1.044621991042911e+001
 4.751458982910444e+000	 9.726960130726908e-001	 1.047521249088014e+001
 4.741991672599561e+000	 1.017848209297229e+000	 1.049713863225291e+001
 4.732066834807823e+000	 1.063035028174090e+000	 1.051090098628620e+001
 4.721682100081798e+000	 1.108250037678753e+000	 1.051532973143073e+001
 4.710835209795434e+000	 1.153486725727034e+000	 1.050917868797498e+001
 4.699524018809713e+000	 1.198738502314355e+000	 1.049112145795453e+001
 4.687746498091099e+000	 1.243998701748758e+000	 1.045974760268727e+001
 4.675500737285211e+000	 1.289260584977068e+000	 1.050965693494692e+001
 4.662784947242169e+000	 1.334517342003541e+000	 1.056897971409079e+001
 4.793613671027784e+000	 8.870698805178717e-001	 1.041616089413115e+001
 4.785009754882376e+000	 9.323661543180003e-001	 1.044797937325956e+001
 4.775951039517873e+000	 9.777099100513179e-001	 1.047412256148827e+001
 4.766434928638065e+000	 1.023094849555374e+000	 1.049361885583484e+001
 4.756458931888474e+000	 1.068514590178917e+000	 1.050542767910457e+001
 4.746020667601993e+000	 1.113962666742662e+000	 1.050843546051798e+001
 4.735117865510166e+000	 1.159432533594977e+000	 1.050145162683378e+001
 4.723748369416560e+000	 1.204917566762189e+000	 1.048320461664218e+001
 4.711910139828708e+000	 1.250411066193100e+000	 1.045319780538871e+001
 4.699601256545038e+000	 1.295906258097151e+000	 1.050878628302548e+001
 4.686819921193249e+000	 1.341396297375522e+000	 1.056013666371276e+001
 4.818196305232266e+000	 8.916189568328796e-001	 1.042006319432794e+001
 4.809548266439266e+000	 9.371475192166445e-001	 1.044848667795906e+001
 4.800443096123647e+000	 9.827238070305986e-001	 1.047161127836986e+001
 4.790878184674864e+000	 1.028341489814021e+000	 1.048852328748659e+001
 4.780851028967387e+000	 1.073994152184114e+000	 1.049823961518029e+001
 4.770359235120436e+000	 1.119675295806828e+000	 1.049970364627707e+001
 4.759400521223157e+000	 1.165378341463086e+000	 1.049178110618863e+001
 4.747972720021696e+000	 1.211096631210116e+000	 1.047325594808660e+001
 4.736073781564651e+000	 1.256823430637485e+000	 1.045560910692222e+001
 4.723701775803269e+000	 1.302551931217243e+000	 1.050332582466128e+001
 4.710854895142822e+000	 1.348275252747503e+000	 1.054710609578197e+001
 4.842778939435253e+000	 8.961680331489021e-001	 1.042271729894795e+001
 4.834086777994573e+000	 9.419288841161130e-001	 1.044754417364726e+001
 4.824935152727766e+000	 9.877377040105320e-001	 1.046746269536800e+001
 4.815321440709956e+000	 1.033588130073170e+000	 1.048161778782235e+001
 4.805243126044563e+000	 1.079473714189681e+000	 1.048908457516827e+001
 4.794697802637132e+000	 1.125387924871252e+000	 1.048886411391716e+001
 4.783683176934406e+000	 1.171324149331358e+000	 1.047987913156998e+001
 4.772197070625118e+000	 1.217275695658136e+000	 1.046096978515667e+001
 4.760237423298931e+000	 1.263235795081910e+000	 1.045298212308639e+001
 4.747802295059902e+000	 1.309197604337347e+000	 1.049321724482932e+001
 4.734889869090889e+000	 1.355154208119483e+000	 1.052982084882340e+001
 4.867361573636751e+000	 9.007171094659396e-001	 1.042394285991536e+001
 4.858625289548295e+000	 9.467102490164057e-001	 1.044495327412453e+001
 4.849427209330234e+000	 9.927516009911185e-001	 1.046146007951591e+001
 4.839764696743343e+000	 1.038834770332819e+000	 1.047266757959436e+001
 4.829635223120001e+000	 1.084953276195618e+000	 1.047770985118881e+001
 4.819036370152078e+000	 1.131100553935933e+000	 1.047564634975968e+001
 4.807965832643914e+000	 1.177269957199797e+000	 1.046545751952609e+001
 4.796421421226826e+000	 1.223454760106248e+000	 1.044604042184136e+001
 4.784401065031545e+000	 1.269648159526378e+000	 1.044526751754356e+001
 4.771902814314941e+000	 1.315843277457460e+000	 1.047840249016759e+001
 4.758924843037452e+000	 1.362033163491464e+000	 1.050821417333765e+001
 4.891944207836753e+000	 9.052661857839915e-001	 1.042355847304142e+001
 4.883163801100436e+000	 9.514916139175227e-001	 1.044051448137244e+001
 4.873919265931045e+000	 9.977654979723585e-001	 1.045338593080605e+001
 4.864207952775024e+000	 1.044081410592970e+000	 1.046143726371956e+001
 4.854027320193703e+000	 1.090432838201923e+000	 1.046386225910233e+001
 4.843374937665274e+000	 1.136813183000871e+000	 1.045977950975319e+001
 4.832248488351680e+000	 1.183215765068400e+000	 1.044822790237137e+001
 4.820645771826822e+000	 1.229633824554455e+000	 1.042816211422666e+001
 4.808564706762494e+000	 1.276060523970886e+000	 1.043241606251448e+001
 4.796003333568383e+000	 1.322488950577584e+000	 1.045882376240258e+001
 4.782959816982506e+000	 1.368912118863444e+000	 1.048221972144982e+001
 4.916526842035265e+000	 9.098152621030583e-001	 1.042138170442730e+001
 4.907702312650993e+000	 9.562729788194643e-001	 1.043402740834924e+001
 4.898411322530204e+000	 1.002779394954252e+000	 1.044302200136617e+001
 4.888651208805000e+000	 1.049328050853623e+000	 1.044769083482551e+001
 4.878419417265667e+000	 1.095912400208599e+000	 1.044728815041590e+001
 4.867713505176722e+000	 1.142525812066066e+000	 1.044099242773259e+001
 4.856531144057706e+000	 1.189161572937169e+000	 1.042790173279216e+001
 4.844870122425104e+000	 1.235812889002754e+000	 1.040702908144305e+001
 4.832728348491778e+000	 1.282472888415437e+000	 1.041437863606436e+001
 4.820103852820230e+000	 1.329134623697718e+000	 1.043442351197217e+001
 4.806994790926056e+000	 1.375791074235425e+000	 1.045177153686893e+001
 4.566645051422785e+000	 1.307001520515620e+000	 1.056383499584671e+001
 4.553729473570638e+000	 1.351313391422532e+000	 1.062304250342123e+001
 4.540350419037734e+000	 1.395606704137587e+000	 1.067266952252211e+001
 4.526506505994300e+000	 1.439874595742233e+000	 1.071211332607557e+001
 4.512196480665969e+000	 1.484110144199970e+000	 1.074075571398983e+001
 4.497419219518086e+000	 1.528306371162558e+000	 1.075796286476555e+001
 4.482173731371831e+000	 1.572456244859625e+000	 1.076308521150606e+001
 4.466459159448741e+000	 1.616552683069939e+000	 1.075545734395451e+001
 4.450274783340313e+000	 1.660588556172508e+000	 1.073439793817404e+001
 4.433620020899308e+000	 1.704556690275469e+000	 1.069920971546887e+001
 4.416494430049541e+000	 1.748449870420633e+000	 1.064917943212059e+001
 4.590680025379892e+000	 1.313880475887600e+000	 1.057106178077265e+001
 4.577696470802579e+000	 1.358425567166879e+000	 1.062248948721406e+001
 4.564247000193416e+000	 1.402952002579742e+000	 1.066542503515223e+001
 4.550330224449836e+000	 1.447452883087015e+000	 1.069932474609912e+001
 4.535944883198662e+000	 1.491921250220426e+000	 1.072362915345366e+001
 4.521089846991900e+000	 1.536350088903590e+000	 1.073776278231148e+001
 4.505764119433992e+000	 1.580732330356816e+000	 1.074113395297022e+001
 4.489966839237115e+000	 1.625060855084026e+000	 1.073313460987414e+001
 4.473697282201146e+000	 1.669328495939906e+000	 1.071314017773441e+001
 4.456954863114908e+000	 1.713528041275270e+000	 1.068050944654720e+001
 4.439739137575500e+000	 1.757652238158466e+000	 1.063458448721102e+001
 4.614714999335491e+000	 1.320759431259581e+000	 1.057437403233836e+001
 4.601663468033124e+000	 1.365537742911231e+000	 1.061884101650667e+001
 4.588143581347830e+000	 1.410297301021918e+000	 1.065590052389628e+001
 4.574153942904254e+000	 1.455031170431841e+000	 1.068506760741823e+001
 4.559693285730408e+000	 1.499732356240961e+000	 1.070584121350908e+001
 4.544760474464951e+000	 1.544393806644744e+000	 1.071770389026614e+001
 4.529354507495598e+000	 1.589008415854183e+000	 1.072012151858092e+001
 4.513474519025167e+000	 1.633569027098352e+000	 1.071254306813100e+001
 4.497119781061903e+000	 1.678068435707619e+000	 1.069440038008730e+001
 4.480289705330702e+000	 1.722499392275472e+000	 1.066510797838296e+001
 4.462983845101943e+000	 1.766854605896794e+000	 1.062406291137274e+001
 4.638749973289582e+000	 1.327638386631561e+000	 1.057370283103975e+001
 4.625630465262270e+000	 1.372649918655588e+000	 1.061201285328957e+001
 4.612040162500976e+000	 1.417642599464112e+000	 1.064399656537513e+001
 4.597977661357555e+000	 1.462609457776710e+000	 1.066922744239273e+001
 4.583441688261202e+000	 1.507543462261573e+000	 1.068726253133068e+001
 4.568431101937241e+000	 1.552437524386020e+000	 1.069764208764917e+001
 4.552944895556653e+000	 1.597284501351727e+000	 1.069988923416728e+001
 4.536982198812894e+000	 1.642077199112920e+000	 1.069350964423462e+001
 4.520542279922586e+000	 1.686808375475648e+000	 1.067799125116468e+001
 4.503624547546691e+000	 1.731470743276073e+000	 1.065280398590068e+001
 4.486228552628871e+000	 1.776056973635617e+000	 1.061739954487031e+001
 4.662784947242169e+000	 1.334517342003541e+000	 1.056897971409079e+001
 4.649597462490021e+000	 1.379762094399950e+000	 1.060192150358772e+001
 4.635936743652853e+000	 1.424987897906325e+000	 1.062961476529887e+001
 4.621801379809735e+000	 1.470187745121623e+000	 1.065169109512326e+001
 4.607190090791048e+000	 1.515354568282263e+000	 1.066776533594085e+001
 4.592101729408772e+000	 1.560481242127419e+000	 1.067743514274866e+001
 4.576535283617155e+000	 1.605560586849447e+000	 1.068028056941990e+001
 4.560489878600299e+000	 1.650585371127729e+000	 1.067586367918002e+001
 4.543964778783195e+000	 1.695548315243992e+000	 1.066372818089804e+001
 4.526959389762876e+000	 1.740442094277074e+000	 1.064339909328804e+001
 4.509473260156283e+000	 1.785259341374934e+000	 1.061438243910464e+001
 4.686819921193249e+000	 1.341396297375522e+000	 1.056013666371276e+001
 4.673564459716376e+000	 1.386874270144317e+000	 1.058848419838277e+001
 4.659833324803467e+000	 1.432333196348558e+000	 1.061265773207987e+001
 4.645625098260800e+000	 1.477766032466580e+000	 1.063234668781685e+001
 4.630938493319944e+000	 1.523165674303032e+000	 1.064722340739298e+001
 4.615772356879539e+000	 1.568524959868940e+000	 1.065694264519115e+001
 4.600125671677105e+000	 1.613836672347344e+000	 1.066114108291998e+001
 4.583997558387379e+000	 1.659093543142780e+000	 1.065943686751213e+001
 4.567387277643730e+000	 1.704288255012652e+000	 1.065142917439794e+001
 4.550294231979255e+000	 1.749413445278476e+000	 1.063669779837376e+001
 4.532717967684180e+000	 1.794461709114747e+000	 1.061480277427629e+001
 4.710854895142822e+000	 1.348275252747503e+000	 1.054710609578197e+001
 4.697531456941334e+000	 1.393986445888689e+000	 1.057161887511920e+001
 4.683729905952809e+000	 1.439678494790811e+000	 1.059302905125359e+001
 4.669448816710744e+000	 1.485344319811581e+000	 1.061108358818210e+001
 4.654686895847891e+000	 1.530976780323879e+000	 1.062551203720449e+001
 4.639442984349548e+000	 1.576568677610583e+000	 1.063602595947896e+001
 4.623716059736505e+000	 1.622112757845418e+000	 1.064231836885136e+001
 4.607505238174135e+000	 1.667601715158070e+000	 1.064406319728628e+001
 4.590809776504189e+000	 1.713028194781626e+000	 1.064091478524020e+001
 4.573629074195829e+000	 1.758384796280277e+000	 1.063250739932037e+001
 4.555962675212561e+000	 1.803664076855054e+000	 1.061845477956899e+001
 4.734889869090889e+000	 1.355154208119483e+000	 1.052982084882340e+001
 4.721498454164894e+000	 1.401098621633065e+000	 1.055124415977385e+001
 4.707626487100888e+000	 1.447023793233083e+000	 1.057063326067857e+001
 4.693272535159571e+000	 1.492922607156626e+000	 1.058779237781762e+001
 4.678435298374886e+000	 1.538787886344804e+000	 1.060250798999476e+001
 4.663113611818793e+000	 1.584612395352348e+000	 1.061454817994252e+001
 4.647306447795349e+000	 1.630388843343668e+000	 1.062366200533540e+001
 4.631012917960569e+000	 1.676109887173602e+000	 1.062957889185733e+001
 4.614232275364576e+000	 1.721768134550916e+000	 1.063200805078409e+001
 4.596963916412597e+000	 1.767356147282478e+000	 1.063063792354984e+001
 4.579207382741428e+000	 1.812866444595856e+000	 1.062513565576441e+001
 4.758924843037452e+000	 1.362033163491464e+000	 1.050821417333765e+001
 4.745465451387058e+000	 1.408210797377446e+000	 1.052727934946871e+001
 4.731523068247697e+000	 1.454369091675374e+000	 1.054537582648783e+001
 4.717096253607278e+000	 1.500500894501714e+000	 1.056236482155806e+001
 4.702183700900934e+000	 1.546598992365807e+000	 1.057808946628556e+001
 4.686784239287278e+000	 1.592656113094236e+000	 1.059237408705790e+001
 4.670896835853643e+000	 1.638664928842095e+000	 1.060502350433168e+001
 4.654520597746678e+000	 1.684618059189374e+000	 1.061582235343257e+001
 4.637654774224886e+000	 1.730508074320521e+000	 1.062453442945047e+001
 4.620298758629560e+000	 1.776327498285080e+000	 1.063090205882281e+001
 4.602452090270778e+000	 1.822068812337153e+000	 1.063464550020172e+001
 4.782959816982506e+000	 1.368912118863444e+000	 1.048221972144982e+001
 4.769432448607826e+000	 1.415322973121832e+000	 1.049964439560801e+001
 4.755419649393240e+000	 1.461714390117685e+000	 1.051716311976542e+001
 4.740919972053868e+000	 1.508079181846846e+000	 1.053469383774474e+001
 4.725932103426031e+000	 1.554410098386889e+000	 1.055213606642314e+001
 4.710454866755004e+000	 1.600699830836247e+000	 1.056937010508134e+001
 4.694487223911384e+000	 1.646941014340699e+000	 1.058625626304893e+001
 4.678028277532466e+000	 1.693126231205388e+000	 1.060263410832686e+001
 4.661077273085121e+000	 1.739248014090443e+000	 1.061832173989113e+001
 4.643633600846719e+000	 1.785298849288081e+000	 1.063311508639594e+001
 4.625696797800613e+000	 1.831271180078945e+000	 1.064678723399979e+001
 4.806994790926056e+000	 1.375791074235425e+000	 1.045177153686893e+001
 4.793399445827198e+000	 1.422435148866224e+000	 1.046825988752111e+001
 4.779316230537516e+000	 1.469059688560016e+000	 1.048590239392261e+001
 4.764743690499341e+000	 1.515657469192023e+000	 1.050467346938780e+001
 4.749680505950178e+000	 1.562221204408048e+000	 1.052452875558254e+001
 4.734125494221968e+000	 1.608743548578379e+000	 1.054540426095468e+001
 4.718077611968574e+000	 1.655217099839479e+000	 1.056721551681394e+001
 4.701535957317930e+000	 1.701634403221643e+000	 1.058985675385978e+001
 4.684499771945284e+000	 1.747987953860679e+000	 1.061320010198304e+001
 4.666968443064072e+000	 1.794270200291483e+000	 1.063709481618452e+001
 4.648941505330933e+000	 1.840473547821232e+000	 1.066136653146273e+001
 4.416494430049541e+000	 1.748449870420633e+000	 1.064917943212059e+001
 4.398897710511125e+000	 1.792260843862486e+000	 1.060920134248363e+001
 4.380829705437297e+000	 1.835982323416121e+000	 1.055833763337378e+001
 4.362290402960451e+000	 1.879606990872977e+000	 1.052274492824416e+001
 4.343279937644680e+000	 1.923127500484417e+000	 1.055416733953408e+001
 4.323798591841205e+000	 1.966536482506963e+000	 1.059167843916769e+001
 4.303846796944172e+000	 2.009826546807197e+000	 1.063562849234373e+001
 4.283425134544102e+000	 2.052990286523145e+000	 1.068634818763896e+001
 4.262534337476436e+000	 2.096020281778892e+000	 1.074414787200710e+001
 4.241175290762651e+000	 2.138909103449004e+000	 1.080931682426500e+001
 4.219349032441642e+000	 2.181649316969236e+000	 1.088212256943790e+001
 4.439739137575500e+000	 1.757652238158466e+000	 1.063458448721102e+001
 4.422049803722750e+000	 1.801693795671522e+000	 1.060526145617450e+001
 4.403886703884518e+000	 1.845645388275808e+000	 1.056489641152733e+001
 4.385249826130742e+000	 1.889499659245882e+000	 1.053145400532555e+001
 4.366139305733747e+000	 1.933249224171266e+000	 1.054559868010655e+001
 4.346555426530812e+000	 1.976886674520361e+000	 1.057933509376228e+001
 4.326498622186580e+000	 2.020404581264306e+000	 1.061922140769335e+001
 4.305969477352577e+000	 2.063795498557647e+000	 1.066553045790608e+001
 4.284968728721273e+000	 2.107051967472487e+000	 1.071851424356697e+001
 4.263497265972151e+000	 2.150166519782733e+000	 1.077840325399748e+001
 4.241556132607472e+000	 2.193131681794851e+000	 1.084540583815094e+001
 4.462983845101943e+000	 1.766854605896794e+000	 1.062406291137274e+001
 4.445201896935138e+000	 1.811126747481146e+000	 1.060429056808245e+001
 4.426943702332747e+000	 1.855308453136171e+000	 1.057332772479811e+001
 4.408209249302242e+000	 1.899392327619536e+000	 1.055579491354038e+001
 4.388998673824184e+000	 1.943370947858931e+000	 1.055758951105708e+001
 4.369312261221915e+000	 1.987236866534630e+000	 1.056948383576905e+001
 4.349150447430568e+000	 2.030982615722334e+000	 1.060412080173740e+001
 4.328513820162675e+000	 2.074600710593102e+000	 1.064484493396195e+001
 4.307403119967730e+000	 2.118083653167060e+000	 1.069185047037530e+001
 4.285819241183235e+000	 2.161423936117456e+000	 1.074530969065043e+001
 4.263763232774805e+000	 2.204614046621467e+000	 1.080537234020601e+001
 4.486228552628871e+000	 1.776056973635617e+000	 1.061739954487031e+001
 4.468353990148293e+000	 1.820559699291361e+000	 1.060608899145534e+001
 4.450000700781981e+000	 1.864971517997210e+000	 1.058344734017888e+001
 4.431168672474952e+000	 1.909284995993943e+000	 1.057647588256750e+001
 4.411858041915995e+000	 1.953492671547413e+000	 1.057741554622634e+001
 4.392069095914511e+000	 1.997587058549771e+000	 1.058050164202401e+001
 4.371802272676131e+000	 2.041560650181279e+000	 1.059021144044911e+001
 4.351058162974390e+000	 2.085405922629511e+000	 1.062419195724669e+001
 4.329837511215814e+000	 2.129115338862615e+000	 1.066407241084032e+001
 4.308141216395904e+000	 2.172681352453174e+000	 1.070996744354550e+001
 4.285970332943644e+000	 2.216096411449083e+000	 1.076196876218862e+001
 4.509473260156283e+000	 1.785259341374934e+000	 1.061438243910464e+001
 4.491506083362213e+000	 1.829992651102166e+000	 1.061045990894730e+001
 4.473057699232222e+000	 1.874634582858924e+000	 1.059507355343253e+001
 4.454128095648871e+000	 1.919177664369100e+000	 1.059371720613106e+001
 4.434717410009177e+000	 1.963614395236711e+000	 1.059305444701415e+001
 4.414825930608602e+000	 2.007937250565786e+000	 1.059366605783077e+001
 4.394454097923272e+000	 2.052138684641143e+000	 1.059637049223029e+001
 4.373602505787726e+000	 2.096211134666875e+000	 1.060347271685857e+001
 4.352271902465517e+000	 2.140147024559147e+000	 1.063509644035826e+001
 4.330463191610154e+000	 2.183938768789886e+000	 1.067230801055346e+001
 4.308177433113985e+000	 2.227578776277698e+000	 1.071514165318916e+001
 4.532717967684180e+000	 1.794461709114747e+000	 1.061480277427629e+001
 4.514658176576894e+000	 1.839425602913561e+000	 1.061720929904415e+001
 4.496114697683470e+000	 1.884297647721313e+000	 1.061044757806963e+001
 4.477087518823996e+000	 1.929070332745008e+000	 1.060774131120623e+001
 4.457576778103729e+000	 1.973736118926827e+000	 1.060474946405390e+001
 4.437582765304186e+000	 2.018287442582672e+000	 1.060214816728212e+001
 4.417105923171991e+000	 2.062716719101926e+000	 1.060068767139507e+001
 4.396146848602681e+000	 2.107016346705192e+000	 1.060119436070228e+001
 4.374706293716842e+000	 2.151178710256660e+000	 1.060483943805720e+001
 4.352785166825989e+000	 2.195196185127593e+000	 1.063226307325971e+001
 4.330384533285831e+000	 2.239061141107313e+000	 1.066483742832843e+001
 4.555962675212561e+000	 1.803664076855054e+000	 1.061845477956899e+001
 4.537810269792344e+000	 1.848858554725545e+000	 1.062614586474130e+001
 4.519171696135725e+000	 1.893960712584378e+000	 1.062368801752477e+001
 4.500046942000333e+000	 1.938963001121667e+000	 1.061877270359961e+001
 4.480436146199654e+000	 1.983857842617759e+000	 1.061274560591228e+001
 4.460339600001269e+000	 2.028637634600432e+000	 1.060621321850888e+001
 4.439757748422287e+000	 2.073294753563626e+000	 1.059985768065575e+001
 4.418691191419258e+000	 2.117821558744463e+000	 1.059443891275853e+001
 4.397140684969789e+000	 2.162210395955152e+000	 1.059079658693331e+001
 4.375107142043407e+000	 2.206453601466296e+000	 1.058985192183655e+001
 4.352591633459181e+000	 2.250543505937929e+000	 1.061100237217518e+001
 4.579207382741428e+000	 1.812866444595856e+000	 1.062513565576441e+001
 4.560962363008558e+000	 1.858291506538120e+000	 1.063708096439362e+001
 4.542228694588986e+000	 1.903623777448119e+000	 1.063483591145000e+001
 4.523006365177878e+000	 1.948855669499078e+000	 1.062703791518689e+001
 4.503295514296950e+000	 1.993979566309508e+000	 1.061728959447179e+001
 4.483096434699841e+000	 2.038987826619063e+000	 1.060612786166546e+001
 4.462409573674160e+000	 2.083872788026245e+000	 1.059416682525710e+001
 4.441235534237453e+000	 2.128626770784688e+000	 1.058210004833504e+001
 4.419575076224358e+000	 2.173242081654624e+000	 1.057070263968869e+001
 4.397429117262409e+000	 2.217711017805993e+000	 1.056083316684518e+001
 4.374798733634036e+000	 2.262025870769545e+000	 1.055358264205966e+001
 4.602452090270778e+000	 1.822068812337153e+000	 1.063464550020172e+001
 4.584114456225539e+000	 1.867724458351285e+000	 1.064982854466098e+001
 4.565285693043254e+000	 1.913286842312534e+000	 1.064409963261591e+001
 4.545965788356632e+000	 1.958748337877239e+000	 1.063276545274964e+001
 4.526154882395620e+000	 2.004101290002073e+000	 1.061862982166513e+001
 4.505853269399911e+000	 2.049338018638567e+000	 1.060216011352541e+001
 4.485061398927612e+000	 2.094450822489782e+000	 1.058390247520306e+001
 4.463779877057269e+000	 2.139431982825867e+000	 1.056448420791965e+001
 4.442009467480550e+000	 2.184273767355075e+000	 1.054461597945479e+001
 4.419751092482993e+000	 2.228968434146685e+000	 1.052509385592289e+001
 4.397005833810392e+000	 2.273508235602161e+000	 1.050680114243718e+001
 4.625696797800613e+000	 1.831271180078945e+000	 1.064678723399979e+001
 4.607266549443284e+000	 1.877157410165040e+000	 1.066320823659465e+001
 4.588342691498530e+000	 1.922949907177626e+000	 1.065168977751997e+001
 4.568925211536596e+000	 1.968641006256151e+000	 1.063618574835442e+001
 4.549014250495659e+000	 2.014223013695456e+000	 1.061701630751417e+001
 4.528610104101475e+000	 2.059688210658944e+000	 1.059457932314416e+001
 4.507713224182639e+000	 2.105028856954237e+000	 1.056935303850395e+001
 4.486324219878704e+000	 2.150237194868000e+000	 1.054189857740623e+001
 4.464443858738362e+000	 2.195305453056506e+000	 1.051286227812244e+001
 4.442073067705160e+000	 2.240225850488372e+000	 1.048297784444630e+001
 4.419212933988254e+000	 2.284990600435776e+000	 1.045306830292829e+001
 4.648941505330933e+000	 1.840473547821232e+000	 1.066136653146273e+001
 4.630418642661795e+000	 1.886590361979385e+000	 1.067331548684214e+001
 4.611399689954812e+000	 1.932612972043392e+000	 1.065781911079330e+001
 4.591884634717767e+000	 1.978533674635814e+000	 1.063753111122076e+001
 4.571873618597071e+000	 2.024344737389655e+000	 1.061270065942772e+001
 4.551366938804532e+000	 2.070038402680193e+000	 1.058365613855197e+001
 4.530365049439246e+000	 2.115606891419611e+000	 1.055080793522632e+001
 4.508868562701760e+000	 2.161042406911087e+000	 1.051465106945948e+001
 4.486878249997798e+000	 2.206337138758916e+000	 1.047576765084122e+001
 4.464395042928913e+000	 2.251483266831054e+000	 1.043482914945173e+001
 4.441420034167620e+000	 2.296472965270393e+000	 1.039259847018079e+001
 4.219349032441642e+000	 2.181649316969236e+000	 1.088212256943790e+001
 4.197056754289153e+000	 2.224233486189214e+000	 1.077497032644078e+001
 4.174299802423162e+000	 2.266654177265144e+000	 1.069732509771802e+001
 4.151079677793083e+000	 2.308903962587823e+000	 1.065001858220780e+001
 4.127398036551244e+000	 2.350975424740408e+000	 1.063384401204879e+001
 4.103256690304887e+000	 2.392861160483732e+000	 1.064955492736345e+001
 4.078657606247210e+000	 2.434553784764504e+000	 1.069786401566972e+001
 4.053602907166101e+000	 2.476045934742123e+000	 1.077944201892404e+001
 4.028094871329415e+000	 2.517330273829839e+000	 1.076485448229863e+001
 4.002135932245784e+000	 2.558399495745880e+000	 1.059056951730095e+001
 3.975728678300154e+000	 2.599246328570120e+000	 1.043028395270148e+001
 4.241556132607472e+000	 2.193131681794851e+000	 1.084540583815094e+001
 4.219146526675409e+000	 2.235939978220896e+000	 1.074272705822882e+001
 4.196269801378700e+000	 2.278583936091637e+000	 1.067045883580879e+001
 4.172927465566493e+000	 2.321056088705192e+000	 1.062951297876333e+001
 4.149121184107708e+000	 2.363348979605680e+000	 1.062076232357474e+001
 4.124852778144358e+000	 2.405455166589521e+000	 1.064503942033019e+001
 4.100124225223292e+000	 2.447367225734718e+000	 1.070313528256606e+001
 4.074937659304964e+000	 2.489077755448880e+000	 1.079579820512202e+001
 4.049295370648115e+000	 2.530579380531644e+000	 1.070300257908451e+001
 4.023199805569314e+000	 2.571864756247123e+000	 1.054898641309184e+001
 3.996653566076591e+000	 2.612926572401926e+000	 1.041010191438534e+001
 4.263763232774805e+000	 2.204614046621467e+000	 1.080537234020601e+001
 4.241236299063069e+000	 2.247646470253574e+000	 1.070828351074049e+001
 4.218239800335544e+000	 2.290513694919111e+000	 1.064251093316896e+001
 4.194775253341109e+000	 2.333208214823516e+000	 1.060904597790042e+001
 4.170844331665272e+000	 2.375722534471873e+000	 1.060884053046998e+001
 4.146448865984831e+000	 2.418049172696184e+000	 1.064280558715029e+001
 4.121590844200274e+000	 2.460180666705753e+000	 1.071180991565257e+001
 4.096272411444629e+000	 2.502109576156395e+000	 1.080263635498268e+001
 4.070495869967517e+000	 2.543828487234132e+000	 1.065435553093123e+001
 4.044263678893447e+000	 2.585330016748963e+000	 1.052175612218614e+001
 4.017578453853528e+000	 2.626606816234234e+000	 1.040541562532695e+001
 4.285970332943644e+000	 2.216096411449083e+000	 1.076196876218862e+001
 4.263326071452134e+000	 2.259352962287246e+000	 1.067156685377769e+001
 4.240209799293691e+000	 2.302443453747564e+000	 1.061338914110422e+001
 4.216623041116926e+000	 2.345360340942796e+000	 1.058850602003890e+001
 4.192567479223943e+000	 2.388096089338987e+000	 1.059794787917654e+001
 4.168044953826307e+000	 2.430643178803724e+000	 1.064270360646007e+001
 4.143057463178162e+000	 2.472994107677610e+000	 1.072371916115385e+001
 4.117607163585097e+000	 2.515141396864667e+000	 1.074545758860321e+001
 4.091696369287622e+000	 2.557077593937303e+000	 1.061867540416096e+001
 4.065327552218183e+000	 2.598795277251401e+000	 1.050862138913356e+001
 4.038503341630969e+000	 2.640287060067045e+000	 1.041594868592721e+001
 4.308177433113985e+000	 2.227578776277698e+000	 1.071514165318916e+001
 4.285415843842603e+000	 2.271059454321914e+000	 1.063250451394938e+001
 4.262179798253142e+000	 2.314373212576999e+000	 1.058300186088900e+001
 4.238470828893949e+000	 2.357512467063032e+000	 1.056778258740017e+001
 4.214290626783716e+000	 2.400469644207023e+000	 1.058795504825287e+001
 4.189641041668788e+000	 2.443237184912142e+000	 1.064458547761992e+001
 4.164524082156950e+000	 2.485807548650289e+000	 1.073869647272949e+001
 4.138941915726369e+000	 2.528173217573695e+000	 1.069989690749451e+001
 4.112896868608430e+000	 2.570326700641155e+000	 1.059572723950500e+001
 4.086391425543521e+000	 2.612260537754436e+000	 1.050932831277808e+001
 4.059428229408913e+000	 2.653967303900358e+000	 1.044142842811390e+001
 4.330384533285831e+000	 2.239061141107313e+000	 1.066483742832843e+001
 4.307505616234475e+000	 2.282765946357576e+000	 1.059102416808666e+001
 4.284149797213895e+000	 2.326302971407414e+000	 1.055125812710069e+001
 4.260318616672175e+000	 2.369664593184222e+000	 1.054676617729437e+001
 4.236013774344592e+000	 2.412843199075978e+000	 1.057873411165303e+001
 4.211237129512270e+000	 2.455831191021434e+000	 1.064830497402911e+001
 4.185990701136643e+000	 2.498620989623790e+000	 1.075657745487318e+001
 4.160276667868444e+000	 2.541205038283482e+000	 1.066574098503731e+001
 4.134097367929940e+000	 2.583575807345691e+000	 1.058527897583681e+001
 4.107455298869463e+000	 2.625725798258069e+000	 1.052362626025037e+001
 4.080353117187359e+000	 2.667647547734174e+000	 1.048158581966155e+001
 4.352591633459181e+000	 2.250543505937929e+000	 1.061100237217518e+001
 4.329595388627752e+000	 2.294472438394234e+000	 1.054705373685967e+001
 4.306119796175953e+000	 2.338232730238807e+000	 1.051806759146383e+001
 4.282166404451602e+000	 2.381816719306368e+000	 1.052534827622529e+001
 4.257736921906572e+000	 2.425216753945855e+000	 1.057015850312978e+001
 4.232833217356756e+000	 2.468425197131603e+000	 1.065371759786964e+001
 4.207457320117240e+000	 2.511434430598112e+000	 1.071739894428333e+001
 4.181611420011322e+000	 2.554236858994026e+000	 1.064277895578051e+001
 4.155297867252153e+000	 2.596824914050908e+000	 1.058710137623984e+001
 4.128519172196008e+000	 2.639191058762300e+000	 1.055126778359315e+001
 4.101278004966307e+000	 2.681327791568492e+000	 1.053615537144021e+001
 4.374798733634036e+000	 2.262025870769545e+000	 1.055358264205966e+001
 4.351685161022432e+000	 2.306178930431887e+000	 1.050052137858872e+001
 4.328089795139316e+000	 2.350162489071184e+000	 1.048334050718660e+001
 4.304014192232235e+000	 2.393968845429471e+000	 1.050342133478387e+001
 4.279460069469656e+000	 2.437590308816654e+000	 1.056210298172194e+001
 4.254429305202245e+000	 2.481019203242649e+000	 1.066068053622858e+001
 4.228923939098740e+000	 2.524247871573257e+000	 1.068053566462143e+001
 4.202946172155001e+000	 2.567268679705326e+000	 1.063080235297500e+001
 4.176498366575069e+000	 2.610074020756808e+000	 1.060096795632709e+001
 4.149583045523155e+000	 2.652656319267127e+000	 1.059200853892591e+001
 4.122202892745759e+000	 2.695008035403313e+000	 1.060487504748918e+001
 4.397005833810392e+000	 2.273508235602161e+000	 1.050680114243718e+001
 4.373774933418516e+000	 2.317885422470535e+000	 1.045135548324305e+001
 4.350059794103981e+000	 2.362092247904539e+000	 1.044698771377178e+001
 4.325861980014071e+000	 2.406120971553529e+000	 1.048087874330262e+001
 4.301183217033842e+000	 2.449963863688372e+000	 1.055444359828757e+001
 4.276025393048738e+000	 2.493613209354572e+000	 1.066905261854989e+001
 4.250390558081142e+000	 2.537061312549223e+000	 1.065340750293582e+001
 4.224280924299484e+000	 2.580300500417384e+000	 1.062960504800028e+001
 4.197698865898687e+000	 2.623323127463390e+000	 1.062665491473277e+001
 4.170646918850905e+000	 2.666121579772553e+000	 1.064560720805901e+001
 4.143127780525714e+000	 2.708688279238637e+000	 1.068748617781577e+001
 4.419212933988254e+000	 2.284990600435776e+000	 1.045306830292829e+001
 4.395864705816003e+000	 2.329591914510178e+000	 1.041173226219091e+001
 4.372029793069951e+000	 2.374022006738874e+000	 1.040892062228569e+001
 4.347709767797110e+000	 2.418273097678542e+000	 1.045761480824400e+001
 4.322906364599133e+000	 2.462337418561012e+000	 1.054705766304620e+001
 4.297621480896234e+000	 2.506207215467371e+000	 1.065332730461269e+001
 4.271857177064447e+000	 2.549874753526011e+000	 1.063582809125719e+001
 4.245615676444769e+000	 2.593332321130198e+000	 1.063898319161761e+001
 4.218899365223009e+000	 2.636572234170655e+000	 1.066394106569970e+001
 4.191710792179257e+000	 2.679586840278577e+000	 1.071182542247142e+001
 4.164052668306169e+000	 2.722368523074463e+000	 1.078373337382322e+001
 4.441420034167620e+000	 2.296472965270393e+000	 1.039259847018079e+001
 4.417954478214896e+000	 2.341298406550817e+000	 1.036743705438799e+001
 4.393999792037223e+000	 2.385951765574191e+000	 1.037913392576134e+001
 4.369557555581356e+000	 2.430425223804512e+000	 1.043352472929715e+001
 4.344629512165527e+000	 2.474710973434573e+000	 1.053982371409482e+001
 4.319217568744735e+000	 2.518801221581046e+000	 1.061801887532769e+001
 4.293323796048657e+000	 2.562688194503620e+000	 1.062761295424137e+001
 4.266950428590860e+000	 2.606364141843771e+000	 1.065873515698542e+001
 4.240099864548035e+000	 2.649821340878603e+000	 1.071260777368910e+001
 4.212774665508213e+000	 2.693052100785198e+000	 1.079042768956894e+001
 4.184977556087130e+000	 2.736048766910793e+000	 1.089336444627581e+001
 3.975728678300154e+000	 2.599246328570120e+000	 1.043028395270148e+001
 3.948875852262866e+000	 2.639863538801905e+000	 1.048855230699140e+001
 3.921580350673420e+000	 2.680243935414237e+000	 1.054596732740273e+001
 3.893845223097611e+000	 2.720380373899949e+000	 1.060267792957072e+001
 3.865673671256816e+000	 2.760265760305475e+000	 1.065882241183532e+001
 3.837069048031190e+000	 2.799893055247307e+000	 1.071452795472233e+001
 3.808034856336499e+000	 2.839255277906680e+000	 1.076991015768503e+001
 3.778574747875074e+000	 2.878345509997806e+000	 1.082507261483006e+001
 3.748692521761566e+000	 2.917156899705098e+000	 1.087974950069036e+001
 3.718392123024357e+000	 2.955682665584794e+000	 1.092977449361587e+001
 3.687677640983678e+000	 2.993916100426382e+000	 1.098670521362270e+001
 3.996653566076591e+000	 2.612926572401926e+000	 1.041010191438534e+001
 3.969659409375954e+000	 2.653757557424342e+000	 1.048472705915229e+001
 3.942220247251891e+000	 2.694350482439861e+000	 1.055592719839043e+001
 3.914339145320547e+000	 2.734698165338652e+000	 1.062368136875744e+001
 3.886019322154460e+000	 2.774793474830546e+000	 1.068795937873379e+001
 3.857264148280524e+000	 2.814629334482651e+000	 1.074872149077623e+001
 3.828077145050906e+000	 2.854198726735049e+000	 1.080591814031203e+001
 3.798461983387418e+000	 2.893494696889920e+000	 1.085948969299994e+001
 3.768422482400056e+000	 2.932510357069496e+000	 1.090936624155950e+001
 3.737962607880508e+000	 2.971238890138200e+000	 1.095330826003468e+001
 3.707086470671743e+000	 3.009673553584413e+000	 1.099464423227033e+001
 4.017578453853528e+000	 2.626606816234234e+000	 1.040541562532695e+001
 3.990442966489449e+000	 2.667651576047185e+000	 1.049366708937057e+001
 3.962860143830686e+000	 2.708457029465810e+000	 1.057595119175510e+001
 3.934833067543730e+000	 2.749015956777603e+000	 1.065207850160635e+001
 3.906364973052286e+000	 2.789321189355799e+000	 1.072185173130680e+001
 3.877459248529986e+000	 2.829365613718122e+000	 1.078506559992330e+001
 3.848119433765391e+000	 2.869142175563498e+000	 1.084150673307570e+001
 3.818349218899807e+000	 2.908643883782081e+000	 1.089095360037593e+001
 3.788152443038567e+000	 2.947863814433914e+000	 1.093317649144234e+001
 3.757533092736663e+000	 2.986795114691609e+000	 1.096793753136311e+001
 3.726495300359807e+000	 3.025431006742444e+000	 1.099275928491072e+001
 4.038503341630969e+000	 2.640287060067045e+000	 1.041594868592721e+001
 4.011226523603352e+000	 2.681545594670439e+000	 1.051513716382750e+001
 3.983500040409804e+000	 2.722563576492080e+000	 1.060584488713271e+001
 3.955326989767160e+000	 2.763333748216801e+000	 1.068771534862404e+001
 3.926710623950293e+000	 2.803848903881234e+000	 1.076038553821344e+001
 3.897654348779572e+000	 2.844101892953717e+000	 1.082348598626556e+001
 3.868161722479959e+000	 2.884085624392029e+000	 1.087664084298026e+001
 3.838236454412243e+000	 2.923793070674288e+000	 1.091946799467178e+001
 3.807882403677097e+000	 2.963217271798351e+000	 1.095157921765374e+001
 3.777103577592825e+000	 3.002351339245025e+000	 1.097258037030770e+001
 3.745904130047871e+000	 3.041188459900474e+000	 1.098155831524769e+001
 4.059428229408913e+000	 2.653967303900358e+000	 1.044142842811390e+001
 4.032010080717662e+000	 2.695439613294097e+000	 1.054890491498679e+001
 4.004139936989243e+000	 2.736670123518673e+000	 1.064541587350381e+001
 3.975820911990837e+000	 2.777651539656246e+000	 1.073043909146301e+001
 3.947056274848481e+000	 2.818376618406850e+000	 1.080344719022793e+001
 3.917849449029285e+000	 2.858838172189440e+000	 1.086390784658169e+001
 3.888204011194607e+000	 2.899029073220639e+000	 1.091128405028100e+001
 3.858123689924724e+000	 2.938942257566541e+000	 1.094503439785466e+001
 3.827612364315648e+000	 2.978570729162809e+000	 1.096461342306302e+001
 3.796674062448990e+000	 3.017907563798445e+000	 1.096947196430176e+001
 3.765312959735935e+000	 3.056945913058504e+000	 1.095905756909669e+001
 4.080353117187359e+000	 2.667647547734174e+000	 1.048158581966155e+001
 4.052793637832379e+000	 2.709333631918165e+000	 1.059474076810003e+001
 4.024779833569005e+000	 2.750776670545589e+000	 1.069447369767190e+001
 3.996314834214761e+000	 2.791969331095936e+000	 1.078009804314876e+001
 3.967401925746852e+000	 2.832904332932649e+000	 1.085092339198016e+001
 3.938044549279125e+000	 2.873574451425288e+000	 1.090625588333535e+001
 3.908246299909336e+000	 2.913972522049331e+000	 1.094539864250342e+001
 3.878010925437250e+000	 2.954091444458838e+000	 1.096765225090802e+001
 3.847342324954219e+000	 2.993924186527288e+000	 1.097231525186213e+001
 3.816244547305160e+000	 3.033463788351871e+000	 1.095868469205454e+001
 3.784721789423999e+000	 3.072703366216536e+000	 1.092605669862210e+001
 4.101278004966307e+000	 2.681327791568492e+000	 1.053615537144021e+001
 4.073577194947506e+000	 2.723227650542639e+000	 1.065241786996224e+001
 4.045419730149089e+000	 2.764883217572826e+000	 1.075282981431896e+001
 4.016808756438932e+000	 2.806287122535875e+000	 1.083654161921810e+001
 3.987747576645405e+000	 2.847432047458629e+000	 1.090270115394919e+001
 3.958239649529091e+000	 2.888310730661264e+000	 1.095045431728522e+001
 3.928288588624146e+000	 2.928915970878104e+000	 1.097894564742104e+001
 3.897898160949821e+000	 2.969240631351181e+000	 1.098731896691778e+001
 3.867072285592810e+000	 3.009277643891787e+000	 1.097471806249098e+001
 3.835815032161337e+000	 3.049020012905301e+000	 1.094028739934377e+001
 3.804130619112063e+000	 3.088460819374566e+000	 1.088317286960957e+001
 4.122202892745759e+000	 2.695008035403313e+000	 1.060487504748918e+001
 4.094360752063038e+000	 2.737121669167521e+000	 1.072171201983710e+001
 4.066059626729495e+000	 2.778989764600386e+000	 1.082029753758218e+001
 4.037302678663349e+000	 2.820604913976060e+000	 1.089962030973680e+001
 4.008093227544139e+000	 2.861959761984790e+000	 1.095866778470060e+001
 3.978434749779182e+000	 2.903047009897365e+000	 1.099642689971110e+001
 3.948330877339037e+000	 2.943859419706958e+000	 1.101188486502880e+001
 3.917785396462439e+000	 2.984389818243570e+000	 1.100402998254190e+001
 3.886802246231421e+000	 3.024631101256305e+000	 1.097185249834185e+001
 3.855385517017517e+000	 3.064576237458736e+000	 1.091434548868411e+001
 3.823539448800127e+000	 3.104218272532597e+000	 1.083050577861027e+001
 4.143127780525714e+000	 2.708688279238637e+000	 1.068748617781577e+001
 4.115144309178978e+000	 2.751015687792811e+000	 1.080240160247544e+001
 4.086699523310224e+000	 2.793096311628269e+000	 1.089669199409796e+001
 4.057796600888015e+000	 2.834922705416493e+000	 1.096918565216491e+001
 4.028438878443055e+000	 2.876487476511133e+000	 1.101871088335903e+001
 3.998629850029400e+000	 2.917783289133592e+000	 1.104409692426934e+001
 3.968373166054009e+000	 2.958802868535892e+000	 1.104417489854762e+001
 3.937672631975101e+000	 2.999539005136004e+000	 1.101777880792013e+001
 3.906532206870053e+000	 3.039984558620845e+000	 1.096374655632117e+001
 3.874956001873704e+000	 3.080132462012177e+000	 1.088092100627813e+001
 3.842948278488191e+000	 3.119975725690628e+000	 1.076815106653808e+001
 4.164052668306169e+000	 2.722368523074463e+000	 1.078373337382322e+001
 4.135927866295327e+000	 2.764909706418508e+000	 1.089426752315321e+001
 4.107339419891274e+000	 2.807202858656473e+000	 1.098183007746176e+001
 4.078290523112927e+000	 2.849240496857172e+000	 1.104509020504034e+001
 4.048784529342152e+000	 2.891015191037657e+000	 1.108271833230774e+001
 4.018824950279744e+000	 2.932519568369946e+000	 1.109338723849093e+001
 3.988415454769062e+000	 2.973746317364908e+000	 1.107577318449400e+001
 3.957559867487810e+000	 3.014688192028483e+000	 1.102855707507900e+001
 3.926262167508706e+000	 3.055338015985404e+000	 1.095042565334421e+001
 3.894526486729895e+000	 3.095688686565624e+000	 1.084007272634586e+001
 3.862357108176255e+000	 3.135733178848658e+000	 1.071973225569358e+001
 4.184977556087130e+000	 2.736048766910793e+000	 1.089336444627581e+001
 4.156711423412083e+000	 2.778803725044614e+000	 1.099709314465841e+001
 4.127979316472649e+000	 2.821309405685001e+000	 1.107553040405413e+001
 4.098784445338088e+000	 2.863558288298099e+000	 1.112718752245193e+001
 4.069130180241431e+000	 2.905542905564365e+000	 1.115057829010708e+001
 4.039020050530216e+000	 2.947255847606427e+000	 1.114422025493476e+001
 4.008457743484196e+000	 2.988689766194005e+000	 1.110663602184774e+001
 3.977447103000564e+000	 3.029837378921009e+000	 1.103635458488468e+001
 3.945992128147378e+000	 3.070691473349985e+000	 1.093191269083478e+001
 3.914096971586092e+000	 3.111244911119074e+000	 1.079185623292424e+001
 3.881765937864321e+000	 3.151490632006690e+000	 1.067030114730496e+001
 3.687677640983678e+000	 2.993916100426382e+000	 1.098670521362270e+001
 3.656553307508218e+000	 3.031850575069264e+000	 1.091588302682434e+001
 3.625023495149993e+000	 3.069479542170490e+000	 1.083853594565231e+001
 3.593092715160351e+000	 3.106796539918756e+000	 1.075513605909337e+001
 3.560765615389833e+000	 3.143795195690242e+000	 1.072323975065169e+001
 3.528046978072291e+000	 3.180469229642301e+000	 1.073733827026461e+001
 3.494941717495987e+000	 3.216812458240656e+000	 1.073946963914129e+001
 3.461454877564024e+000	 3.252818797715965e+000	 1.072750166040244e+001
 3.427591629246608e+000	 3.288482267445716e+000	 1.069926515666612e+001
 3.393357267927863e+000	 3.323796993257525e+000	 1.065255811248175e+001
 3.358757210650000e+000	 3.358757210650000e+000	 1.058514995717860e+001
 3.707086470671743e+000	 3.009673553584413e+000	 1.099464423227033e+001
 3.675798324915369e+000	 3.047807683357208e+000	 1.089819176064031e+001
 3.644102566176765e+000	 3.085634697653921e+000	 1.079788681172170e+001
 3.612003729450705e+000	 3.123148100653718e+000	 1.069438141740083e+001
 3.579506487050102e+000	 3.160341486192652e+000	 1.069564508109363e+001
 3.546615646378458e+000	 3.197208541376272e+000	 1.069672682078200e+001
 3.513336147588712e+000	 3.233743050125384e+000	 1.069000460969188e+001
 3.479673061130822e+000	 3.269938896650809e+000	 1.067346488235840e+001
 3.445631585190633e+000	 3.305790068853073e+000	 1.064505209975195e+001
 3.411217043022704e+000	 3.341290661643094e+000	 1.060267279338926e+001
 3.376434880180000e+000	 3.376434880180000e+000	 1.054419975807551e+001
 3.726495300359807e+000	 3.025431006742444e+000	 1.099275928491072e+001
 3.695043342322521e+000	 3.063764791645150e+000	 1.087332375272777e+001
 3.663181637203538e+000	 3.101789853137353e+000	 1.075265819607471e+001
 3.630914743741059e+000	 3.139499661388680e+000	 1.067546007189114e+001
 3.598247358710370e+000	 3.176887776695062e+000	 1.066793714658838e+001
 3.565184314684625e+000	 3.213947853110243e+000	 1.065859444463510e+001
 3.531730577681437e+000	 3.250673642010113e+000	 1.064558608205920e+001
 3.497891244697621e+000	 3.287058995585653e+000	 1.062701542779842e+001
 3.463671541134656e+000	 3.323097870260429e+000	 1.060093888505127e+001
 3.429076818117546e+000	 3.358784330028662e+000	 1.056536983896804e+001
 3.394112549710000e+000	 3.394112549710000e+000	 1.051828276120677e+001
 3.745904130047871e+000	 3.041188459900474e+000	 1.098155831524769e+001
 3.714288359729673e+000	 3.079721899933094e+000	 1.084174594119597e+001
 3.682260708230310e+000	 3.117945008620785e+000	 1.070327640043830e+001
 3.649825758031414e+000	 3.155851222123643e+000	 1.065926588384483e+001
 3.616988230370638e+000	 3.193434067197471e+000	 1.063987976148473e+001
 3.583752982990791e+000	 3.230687164844214e+000	 1.062266787907016e+001
 3.550125007774159e+000	 3.267604233894841e+000	 1.060590449498004e+001
 3.516109428264420e+000	 3.304179094520496e+000	 1.058780823130278e+001
 3.481711497078680e+000	 3.340405671667785e+000	 1.056654575252949e+001
 3.446936593212385e+000	 3.376277998414230e+000	 1.054023561871526e+001
 3.411790219240000e+000	 3.411790219240000e+000	 1.050695230375827e+001
 3.765312959735935e+000	 3.056945913058504e+000	 1.095905756909669e+001
 3.733533377136824e+000	 3.095679008221037e+000	 1.080392161709541e+001
 3.701339779257081e+000	 3.134100164104216e+000	 1.067634273904020e+001
 3.668736772321768e+000	 3.172202782858605e+000	 1.063994420392446e+001
 3.635729102030907e+000	 3.209980357699882e+000	 1.061123557269670e+001
 3.602321651296959e+000	 3.247426476578185e+000	 1.058867349657029e+001
 3.568519437866884e+000	 3.284534825779570e+000	 1.057065071249595e+001
 3.534327611831219e+000	 3.321299193455340e+000	 1.055549942983069e+001
 3.499751453022703e+000	 3.357713473075141e+000	 1.054149490822904e+001
 3.464796368307228e+000	 3.393771666799799e+000	 1.052685921815350e+001
 3.429467888769999e+000	 3.429467888769999e+000	 1.050976517477458e+001
 3.784721789423999e+000	 3.072703366216536e+000	 1.092605669862210e+001
 3.752778394543975e+000	 3.111636116508981e+000	 1.076000121620497e+001
 3.720418850283854e+000	 3.150255319587647e+000	 1.066433909298123e+001
 3.687647786612123e+000	 3.188554343593568e+000	 1.061729277205992e+001
 3.654469973691175e+000	 3.226526648202291e+000	 1.058176608963771e+001
 3.620890319603124e+000	 3.264165788312155e+000	 1.055633731420830e+001
 3.586913867959608e+000	 3.301465417664299e+000	 1.053951601304804e+001
 3.552545795398018e+000	 3.338419292390185e+000	 1.052974633189004e+001
 3.517791408966728e+000	 3.375021274482496e+000	 1.052541047385722e+001
 3.482656143402068e+000	 3.411265335185366e+000	 1.052483236918901e+001
 3.447145558300000e+000	 3.447145558300000e+000	 1.052628152664984e+001
 3.804130619112063e+000	 3.088460819374566e+000	 1.088317286960957e+001
 3.772023411951127e+000	 3.127593224796924e+000	 1.071440334622812e+001
 3.739497921310627e+000	 3.166410475071080e+000	 1.064631394323747e+001
 3.706558800902476e+000	 3.204905904328530e+000	 1.059110744596975e+001
 3.673210845351445e+000	 3.243072938704702e+000	 1.055123171323849e+001
 3.639458987909292e+000	 3.280905100046127e+000	 1.052538500271339e+001
 3.605308298052332e+000	 3.318396009549028e+000	 1.051219207890555e+001
 3.570763978964817e+000	 3.355539391325028e+000	 1.051020738765097e+001
 3.535831364910751e+000	 3.392329075889852e+000	 1.051791843791711e+001
 3.500515918496910e+000	 3.428759003570936e+000	 1.053374938260201e+001
 3.464823227830000e+000	 3.464823227830000e+000	 1.055606478932792e+001
 3.823539448800127e+000	 3.104218272532597e+000	 1.083050577861027e+001
 3.791268429358279e+000	 3.143550333084867e+000	 1.069426493255614e+001
 3.758576992337398e+000	 3.182565630554511e+000	 1.062110514192140e+001
 3.725469815192830e+000	 3.221257465063492e+000	 1.056118224893299e+001
 3.691951717011711e+000	 3.259619229207110e+000	 1.051939176408115e+001
 3.658027656215458e+000	 3.297644411780099e+000	 1.049554189526149e+001
 3.623702728145057e+000	 3.335326601433757e+000	 1.048837098591639e+001
 3.588982162531615e+000	 3.372659490259871e+000	 1.049654215996967e+001
 3.553871320854773e+000	 3.409636877297208e+000	 1.051864660832706e+001
 3.518375693591751e+000	 3.446252671956504e+000	 1.055320708259294e+001
 3.482500897360000e+000	 3.482500897360000e+000	 1.059868158711601e+001
 3.842948278488191e+000	 3.119975725690628e+000	 1.076815106653808e+001
 3.810513446765430e+000	 3.159507441372810e+000	 1.066367780238689e+001
 3.777656063364171e+000	 3.198720786037943e+000	 1.058712892232259e+001
 3.744380829483184e+000	 3.237609025798454e+000	 1.052730941611345e+001
 3.710692588671981e+000	 3.276165519709522e+000	 1.048600450968068e+001
 3.676596324521625e+000	 3.314383723514069e+000	 1.046653299599946e+001
 3.642097158237780e+000	 3.352257193318485e+000	 1.046774519356830e+001
 3.607200346098414e+000	 3.389779589194716e+000	 1.048841129629022e+001
 3.571911276798798e+000	 3.426944678704564e+000	 1.052722456647580e+001
 3.536235468686593e+000	 3.463746340342071e+000	 1.058280474331237e+001
 3.500178566889999e+000	 3.500178566889999e+000	 1.065370165801875e+001
 3.862357108176255e+000	 3.135733178848658e+000	 1.071973225569358e+001
 3.829758464172582e+000	 3.175464549660754e+000	 1.062278578782965e+001
 3.796735134390942e+000	 3.214875941521374e+000	 1.054520426970101e+001
 3.763291843773539e+000	 3.253960586533416e+000	 1.048785271271318e+001
 3.729433460332249e+000	 3.292711810211932e+000	 1.045082719094399e+001
 3.695164992827791e+000	 3.331123035248041e+000	 1.043808298831199e+001
 3.660491588330504e+000	 3.369187785203213e+000	 1.045000753534966e+001
 3.625418529665213e+000	 3.406899688129559e+000	 1.048547650139368e+001
 3.589951232742822e+000	 3.444252480111921e+000	 1.054328362266288e+001
 3.554095243781433e+000	 3.481240008727640e+000	 1.062214402730433e+001
 3.517856236419999e+000	 3.517856236419999e+000	 1.072069777550471e+001
 3.881765937864321e+000	 3.151490632006690e+000	 1.067030114730496e+001
 3.849003481579734e+000	 3.191421657948697e+000	 1.057172959405451e+001
 3.815814205417716e+000	 3.231031097004806e+000	 1.049543684336609e+001
 3.782202858063893e+000	 3.270312147268379e+000	 1.044244055276558e+001
 3.748174331992518e+000	 3.309258100714341e+000	 1.041361604783502e+001
 3.713733661133959e+000	 3.347862346982013e+000	 1.040991624284081e+001
 3.678886018423229e+000	 3.386118377087943e+000	 1.043485120939948e+001
 3.643636713232013e+000	 3.424019787064404e+000	 1.048740051096465e+001
 3.607991188686845e+000	 3.461560281519278e+000	 1.056645677287594e+001
 3.571955018876275e+000	 3.498733677113209e+000	 1.067082892579657e+001
 3.535533905950000e+000	 3.535533905950000e+000	 1.079924567261975e+001
 3.358757210650000e+000	 3.358757210650000e+000	 1.058514995717860e+001
 3.323796993257525e+000	 3.393357267927863e+000	 1.059782810233092e+001
 3.288482267445717e+000	 3.427591629246607e+000	 1.061253241908288e+001
 3.252818797715964e+000	 3.461454877564024e+000	 1.062777122883479e+001
 3.216812458240656e+000	 3.494941717495988e+000	 1.064201495446550e+001
 3.180469229642301e+000	 3.528046978072291e+000	 1.065370012857370e+001
 3.143795195690242e+000	 3.560765615389833e+000	 1.066123351328018e+001
 3.106796539918756e+000	 3.593092715160352e+000	 1.065374893012072e+001
 3.069479542170489e+000	 3.625023495149993e+000	 1.063155991386040e+001
 3.031850575069263e+000	 3.656553307508218e+000	 1.060393245535397e+001
 2.993916100426382e+000	 3.687677640983678e+000	 1.056984522537799e+001
 3.376434880180000e+000	 3.376434880180000e+000	 1.054419975807551e+001
 3.341290661643093e+000	 3.411217043022703e+000	 1.057787110145455e+001
 3.305790068853073e+000	 3.445631585190631e+000	 1.060979968264415e+001
 3.269938896650808e+000	 3.479673061130823e+000	 1.063830205257835e+001
 3.233743050125384e+000	 3.513336147588712e+000	 1.066165991874192e+001
 3.197208541376273e+000	 3.546615646378458e+000	 1.067812438896337e+001
 3.160341486192652e+000	 3.579506487050102e+000	 1.068592032329133e+001
 3.123148100653718e+000	 3.612003729450705e+000	 1.068227031029940e+001
 3.085634697653921e+000	 3.644102566176766e+000	 1.064927944959981e+001
 3.047807683357207e+000	 3.675798324915369e+000	 1.060594026208420e+001
 3.009673553584413e+000	 3.707086470671743e+000	 1.055107807704596e+001
 3.394112549710000e+000	 3.394112549710000e+000	 1.051828276120677e+001
 3.358784330028662e+000	 3.429076818117545e+000	 1.057066065794829e+001
 3.323097870260429e+000	 3.463671541134656e+000	 1.061758033164283e+001
 3.287058995585653e+000	 3.497891244697622e+000	 1.065716710511931e+001
 3.250673642010113e+000	 3.531730577681437e+000	 1.068751446588539e+001
 3.213947853110243e+000	 3.565184314684625e+000	 1.070668854555580e+001
 3.176887776695062e+000	 3.598247358710370e+000	 1.071273270395807e+001
 3.139499661388681e+000	 3.630914743741060e+000	 1.070367220570337e+001
 3.101789853137353e+000	 3.663181637203538e+000	 1.066589439108038e+001
 3.063764791645150e+000	 3.695043342322521e+000	 1.060494616781040e+001
 3.025431006742444e+000	 3.726495300359807e+000	 1.052747173840464e+001
 3.411790219240000e+000	 3.411790219240000e+000	 1.050695230375827e+001
 3.376277998414230e+000	 3.446936593212386e+000	 1.057579104921577e+001
 3.340405671667785e+000	 3.481711497078680e+000	 1.063550907219879e+001
 3.304179094520497e+000	 3.516109428264421e+000	 1.068404098767992e+001
 3.267604233894842e+000	 3.550125007774160e+000	 1.071929253678587e+001
 3.230687164844214e+000	 3.583752982990791e+000	 1.073914530196685e+001
 3.193434067197472e+000	 3.616988230370639e+000	 1.074146152350805e+001
 3.155851222123643e+000	 3.649825758031414e+000	 1.072408900471649e+001
 3.117945008620784e+000	 3.682260708230310e+000	 1.068121619470888e+001
 3.079721899933094e+000	 3.714288359729672e+000	 1.060079729200706e+001
 3.041188459900474e+000	 3.745904130047871e+000	 1.049890834835797e+001
 3.429467888769999e+000	 3.429467888769999e+000	 1.050976517477458e+001
 3.393771666799799e+000	 3.464796368307228e+000	 1.059285921823265e+001
 3.357713473075141e+000	 3.499751453022703e+000	 1.066322250326732e+001
 3.321299193455340e+000	 3.534327611831218e+000	 1.071859943550071e+001
 3.284534825779571e+000	 3.568519437866885e+000	 1.075670846181439e+001
 3.247426476578186e+000	 3.602321651296958e+000	 1.077524702138701e+001
 3.209980357699882e+000	 3.635729102030906e+000	 1.077189659480924e+001
 3.172202782858606e+000	 3.668736772321768e+000	 1.074432783815338e+001
 3.134100164104216e+000	 3.701339779257082e+000	 1.069020578857460e+001
 3.095679008221037e+000	 3.733533377136823e+000	 1.059333764707663e+001
 3.056945913058505e+000	 3.765312959735935e+000	 1.054123618233810e+001
 3.447145558300000e+000	 3.447145558300000e+000	 1.052628152664984e+001
 3.411265335185366e+000	 3.482656143402068e+000	 1.062146470519865e+001
 3.375021274482497e+000	 3.517791408966727e+000	 1.070035906810490e+001
 3.338419292390183e+000	 3.552545795398019e+000	 1.076051928876315e+001
 3.301465417664299e+000	 3.586913867959607e+000	 1.079947695083641e+001
 3.264165788312155e+000	 3.620890319603124e+000	 1.081474573531039e+001
 3.226526648202291e+000	 3.654469973691175e+000	 1.080382670243037e+001
 3.188554343593566e+000	 3.687647786612121e+000	 1.076421365494116e+001
 3.150255319587648e+000	 3.720418850283854e+000	 1.069339856875607e+001
 3.111636116508981e+000	 3.752778394543975e+000	 1.059391753367834e+001
 3.072703366216536e+000	 3.784721789423999e+000	 1.059003565748270e+001
 3.464823227830000e+000	 3.464823227830000e+000	 1.055606478932792e+001
 3.428759003570936e+000	 3.500515918496910e+000	 1.066120958128184e+001
 3.392329075889854e+000	 3.535831364910751e+000	 1.074655900722067e+001
 3.355539391325027e+000	 3.570763978964816e+000	 1.080947846440236e+001
 3.318396009549028e+000	 3.605308298052332e+000	 1.084731308353083e+001
 3.280905100046127e+000	 3.639458987909291e+000	 1.085739315199628e+001
 3.243072938704701e+000	 3.673210845351444e+000	 1.083703962887309e+001
 3.204905904328530e+000	 3.706558800902475e+000	 1.078356973763785e+001
 3.166410475071079e+000	 3.739497921310626e+000	 1.069430262228091e+001
 3.127593224796923e+000	 3.772023411951127e+000	 1.065254464893289e+001
 3.088460819374566e+000	 3.804130619112063e+000	 1.062409465865907e+001
 3.482500897360000e+000	 3.482500897360000e+000	 1.059868158711601e+001
 3.446252671956504e+000	 3.518375693591751e+000	 1.071169838438083e+001
 3.409636877297208e+000	 3.553871320854773e+000	 1.080146431276091e+001
 3.372659490259871e+000	 3.588982162531616e+000	 1.086515592877833e+001
 3.335326601433757e+000	 3.623702728145057e+000	 1.089993230000386e+001
 3.297644411780098e+000	 3.658027656215457e+000	 1.090294066467310e+001
 3.259619229207111e+000	 3.691951717011712e+000	 1.087132218000511e+001
 3.221257465063493e+000	 3.725469815192830e+000	 1.080221774472601e+001
 3.182565630554511e+000	 3.758576992337399e+000	 1.071976932484117e+001
 3.143550333084867e+000	 3.791268429358279e+000	 1.069165087365337e+001
 3.104218272532596e+000	 3.823539448800127e+000	 1.064355698539730e+001
 3.500178566889999e+000	 3.500178566889999e+000	 1.065370165801875e+001
 3.463746340342071e+000	 3.536235468686592e+000	 1.077253805683360e+001
 3.426944678704565e+000	 3.571911276798797e+000	 1.086471868427575e+001
 3.389779589194716e+000	 3.607200346098415e+000	 1.092723167117532e+001
 3.352257193318486e+000	 3.642097158237780e+000	 1.095705039168730e+001
 3.314383723514069e+000	 3.676596324521625e+000	 1.095113935949376e+001
 3.276165519709521e+000	 3.710692588671980e+000	 1.090646020972267e+001
 3.237609025798454e+000	 3.744380829483184e+000	 1.081997775162477e+001
 3.198720786037942e+000	 3.777656063364171e+000	 1.076979078594675e+001
 3.159507441372810e+000	 3.810513446765430e+000	 1.071797106611728e+001
 3.119975725690628e+000	 3.842948278488191e+000	 1.064856304655721e+001
 3.517856236419999e+000	 3.517856236419999e+000	 1.072069777550471e+001
 3.481240008727641e+000	 3.554095243781433e+000	 1.084333788500451e+001
 3.444252480111921e+000	 3.589951232742822e+000	 1.093596748581961e+001
 3.406899688129559e+000	 3.625418529665214e+000	 1.099538667810024e+001
 3.369187785203214e+000	 3.660491588330505e+000	 1.101838349251129e+001
 3.331123035248041e+000	 3.695164992827792e+000	 1.100174002325107e+001
 3.292711810211932e+000	 3.729433460332249e+000	 1.094223864386950e+001
 3.253960586533416e+000	 3.763291843773537e+000	 1.086676908883588e+001
 3.214875941521374e+000	 3.796735134390943e+000	 1.080922759246065e+001
 3.175464549660754e+000	 3.829758464172582e+000	 1.073176581326370e+001
 3.135733178848659e+000	 3.862357108176256e+000	 1.063441268958073e+001
 3.535533905950000e+000	 3.535533905950000e+000	 1.079924567261975e+001
 3.498733677113209e+000	 3.571955018876275e+000	 1.092370944068354e+001
 3.461560281519278e+000	 3.607991188686845e+000	 1.101485770433856e+001
 3.424019787064404e+000	 3.643636713232013e+000	 1.106930290835203e+001
 3.386118377087943e+000	 3.678886018423229e+000	 1.108364807034185e+001
 3.347862346982013e+000	 3.713733661133959e+000	 1.105449315086175e+001
 3.309258100714341e+000	 3.748174331992518e+000	 1.097844150343801e+001
 3.270312147268379e+000	 3.782202858063893e+000	 1.091898066351230e+001
 3.231031097004806e+000	 3.815814205417716e+000	 1.083831113576517e+001
 3.191421657948698e+000	 3.849003481579734e+000	 1.073329303806995e+001
 3.151490632006690e+000	 3.881765937864321e+000	 1.060386320853361e+001
 2.993916100426382e+000	 3.687677640983678e+000	 1.056984522537799e+001
 2.955682665584793e+000	 3.718392123024356e+000	 1.048823956900617e+001
 2.917156899705098e+000	 3.748692521761566e+000	 1.036027419042437e+001
 2.878345509997805e+000	 3.778574747875074e+000	 1.041003239714885e+001
 2.839255277906680e+000	 3.808034856336499e+000	 1.045567705064100e+001
 2.799893055247307e+000	 3.837069048031190e+000	 1.048670475761485e+001
 2.760265760305475e+000	 3.865673671256816e+000	 1.050211563397054e+001
 2.720380373899950e+000	 3.893845223097610e+000	 1.050092764281167e+001
 2.680243935414236e+000	 3.921580350673420e+000	 1.048217795357218e+001
 2.639863538801905e+000	 3.948875852262866e+000	 1.044492426603275e+001
 2.599246328570120e+000	 3.975728678300154e+000	 1.038824609659203e+001
 3.009673553584413e+000	 3.707086470671743e+000	 1.055107807704596e+001
 2.971238890138199e+000	 3.737962607880507e+000	 1.043329601402517e+001
 2.932510357069496e+000	 3.768422482400055e+000	 1.040104690824370e+001
 2.893494696889920e+000	 3.798461983387418e+000	 1.043642716649695e+001
 2.854198726735048e+000	 3.828077145050905e+000	 1.046208934776776e+001
 2.814629334482651e+000	 3.857264148280524e+000	 1.047710376942971e+001
 2.774793474830546e+000	 3.886019322154459e+000	 1.048055304145377e+001
 2.734698165338653e+000	 3.914339145320546e+000	 1.047153339936319e+001
 2.694350482439861e+000	 3.942220247251892e+000	 1.044915601074109e+001
 2.653757557424342e+000	 3.969659409375954e+000	 1.041254825258872e+001
 2.612926572401926e+000	 3.996653566076591e+000	 1.036085495692356e+001
 3.025431006742444e+000	 3.726495300359807e+000	 1.052747173840464e+001
 2.986795114691609e+000	 3.757533092736663e+000	 1.042132905357343e+001
 2.947863814433914e+000	 3.788152443038567e+000	 1.043966676284580e+001
 2.908643883782081e+000	 3.818349218899807e+000	 1.045297996089842e+001
 2.869142175563498e+000	 3.848119433765391e+000	 1.046041790919954e+001
 2.829365613718121e+000	 3.877459248529986e+000	 1.046113673443050e+001
 2.789321189355799e+000	 3.906364973052286e+000	 1.045430072140339e+001
 2.749015956777603e+000	 3.934833067543729e+000	 1.043908358815367e+001
 2.708457029465810e+000	 3.962860143830687e+000	 1.041466974047187e+001
 2.667651576047185e+000	 3.990442966489449e+000	 1.038025550320803e+001
 2.626606816234234e+000	 4.017578453853528e+000	 1.033505032575936e+001
 3.041188459900474e+000	 3.745904130047871e+000	 1.049890834835797e+001
 3.002351339245025e+000	 3.777103577592825e+000	 1.047242281666685e+001
 2.963217271798352e+000	 3.807882403677097e+000	 1.046675022931207e+001
 2.923793070674288e+000	 3.838236454412244e+000	 1.045976788706044e+001
 2.884085624392029e+000	 3.868161722479959e+000	 1.045071406655494e+001
 2.844101892953717e+000	 3.897654348779572e+000	 1.043882986635554e+001
 2.803848903881234e+000	 3.926710623950293e+000	 1.042336043686897e+001
 2.763333748216802e+000	 3.955326989767160e+000	 1.040355619825544e+001
 2.722563576492080e+000	 3.983500040409804e+000	 1.037867404362260e+001
 2.681545594670438e+000	 4.011226523603352e+000	 1.034797852487447e+001
 2.640287060067045e+000	 4.038503341630969e+000	 1.031074301864760e+001
 3.056945913058505e+000	 3.765312959735935e+000	 1.054123618233810e+001
 3.017907563798445e+000	 3.796674062448990e+000	 1.051029789092120e+001
 2.978570729162810e+000	 3.827612364315648e+000	 1.048239822985805e+001
 2.938942257566540e+000	 3.858123689924723e+000	 1.045686600229556e+001
 2.899029073220639e+000	 3.888204011194608e+000	 1.043302764580271e+001
 2.858838172189439e+000	 3.917849449029285e+000	 1.041020840359745e+001
 2.818376618406850e+000	 3.947056274848481e+000	 1.038773349219588e+001
 2.777651539656245e+000	 3.975820911990836e+000	 1.036492926280312e+001
 2.736670123518674e+000	 4.004139936989244e+000	 1.034112435380193e+001
 2.695439613294097e+000	 4.032010080717662e+000	 1.031565083173974e+001
 2.653967303900358e+000	 4.059428229408913e+000	 1.028784531826752e+001
 3.072703366216536e+000	 3.784721789423999e+000	 1.059003565748270e+001
 3.033463788351870e+000	 3.816244547305160e+000	 1.053507859153696e+001
 2.993924186527289e+000	 3.847342324954219e+000	 1.048670914718017e+001
 2.954091444458838e+000	 3.878010925437250e+000	 1.044434736707027e+001
 2.913972522049332e+000	 3.908246299909337e+000	 1.040740700586805e+001
 2.873574451425288e+000	 3.938044549279125e+000	 1.037529663421195e+001
 2.832904332932649e+000	 3.967401925746852e+000	 1.034742074478693e+001
 2.791969331095936e+000	 3.996314834214760e+000	 1.032318085786369e+001
 2.750776670545588e+000	 4.024779833569006e+000	 1.030197662370879e+001
 2.709333631918164e+000	 4.052793637832379e+000	 1.028320691929866e+001
 2.667647547734174e+000	 4.080353117187359e+000	 1.026627093681070e+001
 3.088460819374566e+000	 3.804130619112063e+000	 1.062409465865907e+001
 3.049020012905300e+000	 3.835815032161337e+000	 1.054688621783625e+001
 3.009277643891787e+000	 3.867072285592808e+000	 1.047977888923944e+001
 2.969240631351180e+000	 3.897898160949821e+000	 1.042228309594488e+001
 2.928915970878104e+000	 3.928288588624146e+000	 1.037389907605725e+001
 2.888310730661264e+000	 3.958239649529090e+000	 1.033411792016121e+001
 2.847432047458628e+000	 3.987747576645405e+000	 1.030242261650400e+001
 2.806287122535875e+000	 4.016808756438931e+000	 1.027828910134128e+001
 2.764883217572826e+000	 4.045419730149088e+000	 1.026118731189031e+001
 2.723227650542639e+000	 4.073577194947505e+000	 1.025058223935480e+001
 2.681327791568492e+000	 4.101278004966307e+000	 1.024593497951393e+001
 3.104218272532596e+000	 3.823539448800127e+000	 1.064355698539730e+001
 3.064576237458737e+000	 3.855385517017518e+000	 1.054583912980801e+001
 3.024631101256306e+000	 3.886802246231421e+000	 1.046170095207201e+001
 2.984389818243570e+000	 3.917785396462439e+000	 1.039074240696209e+001
 2.943859419706957e+000	 3.948330877339037e+000	 1.033254939234242e+001
 2.903047009897364e+000	 3.978434749779182e+000	 1.028669472081872e+001
 2.861959761984790e+000	 4.008093227544139e+000	 1.025273910472234e+001
 2.820604913976060e+000	 4.037302678663349e+000	 1.023023215191537e+001
 2.778989764600386e+000	 4.066059626729496e+000	 1.021871336990306e+001
 2.737121669167521e+000	 4.094360752063039e+000	 1.021771317574883e+001
 2.695008035403313e+000	 4.122202892745759e+000	 1.022675390930269e+001
 3.119975725690628e+000	 3.842948278488191e+000	 1.064856304655721e+001
 3.080132462012176e+000	 3.874956001873703e+000	 1.053205282233354e+001
 3.039984558620846e+000	 3.906532206870053e+000	 1.043256648069631e+001
 2.999539005136003e+000	 3.937672631975102e+000	 1.034979266953883e+001
 2.958802868535893e+000	 3.968373166054009e+000	 1.028340213254672e+001
 2.917783289133592e+000	 3.998629850029400e+000	 1.023304861576193e+001
 2.876487476511133e+000	 4.028438878443054e+000	 1.019836979304996e+001
 2.834922705416493e+000	 4.057796600888015e+000	 1.017898820801105e+001
 2.793096311628267e+000	 4.086699523310224e+000	 1.017451222986323e+001
 2.751015687792810e+000	 4.115144309178978e+000	 1.018453702082210e+001
 2.708688279238637e+000	 4.143127780525714e+000	 1.020864551250616e+001
 3.135733178848659e+000	 3.862357108176256e+000	 1.063441268958073e+001
 3.095688686565623e+000	 3.894526486729895e+000	 1.050563999717424e+001
 3.055338015985406e+000	 3.926262167508705e+000	 1.039246432818390e+001
 3.014688192028483e+000	 3.957559867487810e+000	 1.029949945091411e+001
 2.973746317364908e+000	 3.988415454769062e+000	 1.022650015046867e+001
 2.932519568369945e+000	 4.018824950279744e+000	 1.017320032687770e+001
 2.891015191037657e+000	 4.048784529342152e+000	 1.013931386172378e+001
 2.849240496857172e+000	 4.078290523112926e+000	 1.012453550680046e+001
 2.807202858656473e+000	 4.107339419891274e+000	 1.012854179237235e+001
 2.764909706418508e+000	 4.135927866295328e+000	 1.015099195259004e+001
 2.722368523074464e+000	 4.164052668306170e+000	 1.019152886560572e+001
 3.151490632006690e+000	 3.881765937864321e+000	 1.060386320853361e+001
 3.111244911119075e+000	 3.914096971586092e+000	 1.046671063279947e+001
 3.070691473349985e+000	 3.945992128147378e+000	 1.034148111295806e+001
 3.029837378921009e+000	 3.977447103000565e+000	 1.023992656120348e+001
 2.988689766194005e+000	 4.008457743484196e+000	 1.016188500898277e+001
 2.947255847606426e+000	 4.039020050530216e+000	 1.010716973980458e+001
 2.905542905564364e+000	 4.069130180241432e+000	 1.007557009769388e+001
 2.863558288298099e+000	 4.098784445338088e+000	 1.006685232323400e+001
 2.821309405685000e+000	 4.127979316472649e+000	 1.008076041480514e+001
 2.778803725044614e+000	 4.156711423412083e+000	 1.011701701260034e+001
 2.736048766910793e+000	 4.184977556087130e+000	 1.017532430298133e+001
 2.599246328570120e+000	 3.975728678300154e+000	 1.038824609659203e+001
 2.558399495745880e+000	 4.002135932245784e+000	 1.034059676574255e+001
 2.517330273829839e+000	 4.028094871329415e+000	 1.027153617570069e+001
 2.476045934742123e+000	 4.053602907166102e+000	 1.021276369252238e+001
 2.434553784764504e+000	 4.078657606247210e+000	 1.016502110617680e+001
 2.392861160483732e+000	 4.103256690304888e+000	 1.010918788647546e+001
 2.350975424740408e+000	 4.127398036551245e+000	 1.004717345023993e+001
 2.308903962587824e+000	 4.151079677793084e+000	 9.980870788959251e+000
 2.266654177265143e+000	 4.174299802423162e+000	 9.912151843779450e+000
 2.224233486189214e+000	 4.197056754289153e+000	 9.842862971263649e+000
 2.181649316969235e+000	 4.219349032441642e+000	 9.774820510856916e+000
 2.612926572401926e+000	 3.996653566076591e+000	 1.036085495692356e+001
 2.571864756247123e+000	 4.023199805569313e+000	 1.032466126520087e+001
 2.530579380531644e+000	 4.049295370648115e+000	 1.026724986001191e+001
 2.489077755448880e+000	 4.074937659304963e+000	 1.020171985423203e+001
 2.447367225734718e+000	 4.100124225223292e+000	 1.016060686014896e+001
 2.405455166589521e+000	 4.124852778144358e+000	 1.011173866979856e+001
 2.363348979605680e+000	 4.149121184107708e+000	 1.005705735788032e+001
 2.321056088705193e+000	 4.172927465566493e+000	 9.998488262476791e+000
 2.278583936091637e+000	 4.196269801378701e+000	 9.937935282157197e+000
 2.235939978220896e+000	 4.219146526675410e+000	 9.877276265318915e+000
 2.193131681794851e+000	 4.241556132607472e+000	 9.818358502884221e+000
 2.626606816234234e+000	 4.017578453853528e+000	 1.033505032575936e+001
 2.585330016748962e+000	 4.044263678893447e+000	 1.031014264020602e+001
 2.543828487234133e+000	 4.070495869967516e+000	 1.026421100143743e+001
 2.502109576156395e+000	 4.096272411444630e+000	 1.019664695728752e+001
 2.460180666705753e+000	 4.121590844200274e+000	 1.015914172134377e+001
 2.418049172696184e+000	 4.146448865984830e+000	 1.011664582294055e+001
 2.375722534471873e+000	 4.170844331665272e+000	 1.006870412394390e+001
 2.333208214823517e+000	 4.194775253341109e+000	 1.001727519946834e+001
 2.290513694919110e+000	 4.218239800335543e+000	 9.964295791058936e+000
 2.247646470253574e+000	 4.241236299063070e+000	 9.911676118298342e+000
 2.204614046621467e+000	 4.263763232774805e+000	 9.861295295443171e+000
 2.640287060067045e+000	 4.038503341630969e+000	 1.031074301864760e+001
 2.598795277251401e+000	 4.065327552218183e+000	 1.029695602850673e+001
 2.557077593937302e+000	 4.091696369287622e+000	 1.026233906422079e+001
 2.515141396864667e+000	 4.117607163585098e+000	 1.020625672486806e+001
 2.472994107677610e+000	 4.143057463178161e+000	 1.016079641059882e+001
 2.430643178803725e+000	 4.168044953826307e+000	 1.012407867220420e+001
 2.388096089338987e+000	 4.192567479223944e+000	 1.008228162862138e+001
 2.345360340942797e+000	 4.216623041116926e+000	 1.003739798651104e+001
 2.302443453747564e+000	 4.240209799293691e+000	 9.991398220031202e+000
 2.259352962287246e+000	 4.263326071452134e+000	 9.946225803386591e+000
 2.216096411449083e+000	 4.285970332943644e+000	 9.903792550106262e+000
 2.653967303900358e+000	 4.059428229408913e+000	 1.028784531826752e+001
 2.612260537754436e+000	 4.086391425543521e+000	 1.028501795859541e+001
 2.570326700641156e+000	 4.112896868608430e+000	 1.026155482687048e+001
 2.528173217573696e+000	 4.138941915726369e+000	 1.021679355668265e+001
 2.485807548650290e+000	 4.164524082156951e+000	 1.016574280993031e+001
 2.443237184912141e+000	 4.189641041668788e+000	 1.013420762853574e+001
 2.400469644207022e+000	 4.214290626783716e+000	 1.009795876026478e+001
 2.357512467063031e+000	 4.238470828893948e+000	 1.005902394195003e+001
 2.314373212576998e+000	 4.262179798253141e+000	 1.001940827411895e+001
 2.271059454321914e+000	 4.285415843842602e+000	 9.981089373156188e+000
 2.227578776277698e+000	 4.308177433113985e+000	 9.946012631916990e+000
 2.667647547734174e+000	 4.080353117187359e+000	 1.026627093681070e+001
 2.625725798258069e+000	 4.107455298869463e+000	 1.027424631404816e+001
 2.583575807345691e+000	 4.134097367929940e+000	 1.026178034846081e+001
 2.541205038283481e+000	 4.160276667868444e+000	 1.022818368895721e+001
 2.498620989623790e+000	 4.185990701136644e+000	 1.017415393275944e+001
 2.455831191021434e+000	 4.211237129512269e+000	 1.014720415971352e+001
 2.412843199075978e+000	 4.236013774344592e+000	 1.011590538953718e+001
 2.369664593184222e+000	 4.260318616672175e+000	 1.008232129200680e+001
 2.326302971407413e+000	 4.284149797213895e+000	 1.004849249192972e+001
 2.282765946357576e+000	 4.307505616234475e+000	 1.001643163958328e+001
 2.239061141107313e+000	 4.330384533285831e+000	 9.988118591352102e+000
 2.681327791568492e+000	 4.101278004966307e+000	 1.024593497951393e+001
 2.639191058762300e+000	 4.128519172196009e+000	 1.026456029895616e+001
 2.596824914050908e+000	 4.155297867252152e+000	 1.026293893596446e+001
 2.554236858994026e+000	 4.181611420011321e+000	 1.024035453314692e+001
 2.511434430598112e+000	 4.207457320117239e+000	 1.019611567714416e+001
 2.468425197131604e+000	 4.232833217356756e+000	 1.016324076338800e+001
 2.425216753945855e+000	 4.257736921906573e+000	 1.013629234435378e+001
 2.381816719306369e+000	 4.282166404451602e+000	 1.010745914761916e+001
 2.338232730238807e+000	 4.306119796175953e+000	 1.007881822436928e+001
 2.294472438394234e+000	 4.329595388627752e+000	 1.005241815467510e+001
 2.250543505937929e+000	 4.352591633459181e+000	 1.003027414683605e+001
 2.695008035403313e+000	 4.122202892745759e+000	 1.022675390930269e+001
 2.652656319267128e+000	 4.149583045523155e+000	 1.025588040441016e+001
 2.610074020756808e+000	 4.176498366575068e+000	 1.026495511257989e+001
 2.567268679705326e+000	 4.202946172155001e+000	 1.025323464610812e+001
 2.524247871573256e+000	 4.228923939098740e+000	 1.022000074109989e+001
 2.481019203242650e+000	 4.254429305202246e+000	 1.018249094094282e+001
 2.437590308816653e+000	 4.279460069469656e+000	 1.015929138558616e+001
 2.393968845429471e+000	 4.304014192232235e+000	 1.013460748198654e+001
 2.350162489071183e+000	 4.328089795139315e+000	 1.011055361402491e+001
 2.306178930431887e+000	 4.351685161022433e+000	 1.008921519168741e+001
 2.262025870769545e+000	 4.374798733634035e+000	 1.007264366778803e+001
 2.708688279238637e+000	 4.143127780525714e+000	 1.020864551250616e+001
 2.666121579772554e+000	 4.170646918850905e+000	 1.024812837600052e+001
 2.623323127463390e+000	 4.197698865898687e+000	 1.026775458701854e+001
 2.580300500417384e+000	 4.224280924299485e+000	 1.026675370117401e+001
 2.537061312549223e+000	 4.250390558081143e+000	 1.024438057816653e+001
 2.493613209354573e+000	 4.276025393048738e+000	 1.020512917214811e+001
 2.449963863688373e+000	 4.301183217033843e+000	 1.018507518350274e+001
 2.406120971553529e+000	 4.325861980014071e+000	 1.016393710879565e+001
 2.362092247904538e+000	 4.350059794103981e+000	 1.014386757517346e+001
 2.317885422470535e+000	 4.373774933418515e+000	 1.012698972691116e+001
 2.273508235602161e+000	 4.397005833810392e+000	 1.001805747205875e+001
 2.722368523074464e+000	 4.164052668306170e+000	 1.019152886560572e+001
 2.679586840278577e+000	 4.191710792179257e+000	 1.024122718229699e+001
 2.636572234170655e+000	 4.218899365223009e+000	 1.027126422371821e+001
 2.593332321130198e+000	 4.245615676444770e+000	 1.028084246010253e+001
 2.549874753526011e+000	 4.271857177064447e+000	 1.026918984656115e+001
 2.506207215467371e+000	 4.297621480896234e+000	 1.023556088652257e+001
 2.462337418561012e+000	 4.322906364599133e+000	 1.021381729491966e+001
 2.418273097678543e+000	 4.347709767797111e+000	 1.019561966110273e+001
 2.374022006738874e+000	 4.372029793069950e+000	 1.017892977439220e+001
 2.329591914510179e+000	 4.395864705816004e+000	 1.008312856749397e+001
 2.284990600435776e+000	 4.419212933988255e+000	 9.968475359800836e+000
 2.736048766910793e+000	 4.184977556087130e+000	 1.017532430298133e+001
 2.693052100785198e+000	 4.212774665508213e+000	 1.023510098427436e+001
 2.649821340878603e+000	 4.240099864548034e+000	 1.027541201394970e+001
 2.606364141843770e+000	 4.266950428590860e+000	 1.029543274586563e+001
 2.562688194503621e+000	 4.293323796048657e+000	 1.029436420007979e+001
 2.518801221581046e+000	 4.319217568744734e+000	 1.027143415864793e+001
 2.474710973434573e+000	 4.344629512165527e+000	 1.024569214103708e+001
 2.430425223804512e+000	 4.369557555581356e+000	 1.022982757084936e+001
 2.385951765574191e+000	 4.393999792037224e+000	 1.014694176117146e+001
 2.341298406550817e+000	 4.417954478214896e+000	 1.003973737108735e+001
 2.296472965270393e+000	 4.441420034167621e+000	 9.924524349395396e+000
 2.181649316969235e+000	 4.219349032441642e+000	 9.774820510856916e+000
 2.138909103449004e+000	 4.241175290762651e+000	 9.686837502036143e+000
 2.096020281778892e+000	 4.262534337476436e+000	 9.625843441138580e+000
 2.052990286523145e+000	 4.283425134544102e+000	 9.593458694729542e+000
 2.009826546807197e+000	 4.303846796944171e+000	 9.591238125151302e+000
 1.966536482506964e+000	 4.323798591841205e+000	 9.620667623424312e+000
 1.923127500484418e+000	 4.343279937644681e+000	 9.683160819148732e+000
 1.879606990872978e+000	 4.362290402960451e+000	 9.780055973859232e+000
 1.835982323416120e+000	 4.380829705437297e+000	 9.826107412771272e+000
 1.792260843862487e+000	 4.398897710511126e+000	 9.717585497580304e+000
 1.748449870420633e+000	 4.416494430049542e+000	 9.597023192731182e+000
 2.193131681794851e+000	 4.241556132607472e+000	 9.818358502884221e+000
 2.150166519782733e+000	 4.263497265972152e+000	 9.741952896210659e+000
 2.107051967472487e+000	 4.284968728721272e+000	 9.694769344547257e+000
 2.063795498557646e+000	 4.305969477352578e+000	 9.678478234936836e+000
 2.020404581264306e+000	 4.326498622186580e+000	 9.694681768921456e+000
 1.976886674520360e+000	 4.346555426530812e+000	 9.744910432260994e+000
 1.933249224171266e+000	 4.366139305733747e+000	 9.830619646643964e+000
 1.889499659245882e+000	 4.385249826130742e+000	 9.842623403136722e+000
 1.845645388275808e+000	 4.403886703884519e+000	 9.763512416863161e+000
 1.801693795671522e+000	 4.422049803722750e+000	 9.671311414516897e+000
 1.757652238158466e+000	 4.439739137575500e+000	 9.568510449521165e+000
 2.204614046621467e+000	 4.263763232774805e+000	 9.861295295443171e+000
 2.161423936117456e+000	 4.285819241183235e+000	 9.796409532502969e+000
 2.118083653167060e+000	 4.307403119967731e+000	 9.762965141760825e+000
 2.074600710593102e+000	 4.328513820162675e+000	 9.762683228316782e+000
 2.030982615722333e+000	 4.349150447430567e+000	 9.797214030666577e+000
 1.987236866534630e+000	 4.369312261221915e+000	 9.868133326092634e+000
 1.943370947858931e+000	 4.388998673824185e+000	 9.843254678213329e+000
 1.899392327619537e+000	 4.408209249302242e+000	 9.776258430573622e+000
 1.855308453136171e+000	 4.426943702332746e+000	 9.711038061619846e+000
 1.811126747481146e+000	 4.445201896935138e+000	 9.635168927983047e+000
 1.766854605896794e+000	 4.462983845101943e+000	 9.550121053361021e+000
 2.216096411449083e+000	 4.285970332943644e+000	 9.903792550106262e+000
 2.172681352453174e+000	 4.308141216395904e+000	 9.850359244454376e+000
 2.129115338862615e+000	 4.329837511215812e+000	 9.830573094983834e+000
 2.085405922629511e+000	 4.351058162974391e+000	 9.846206628702959e+000
 2.041560650181279e+000	 4.371802272676131e+000	 9.898958824860623e+000
 1.997587058549771e+000	 4.392069095914510e+000	 9.846747318986710e+000
 1.953492671547413e+000	 4.411858041915995e+000	 9.779967234998765e+000
 1.909284995993943e+000	 4.431168672474952e+000	 9.721466087636930e+000
 1.864971517997210e+000	 4.450000700781982e+000	 9.668646160596127e+000
 1.820559699291361e+000	 4.468353990148293e+000	 9.609116841211518e+000
 1.776056973635617e+000	 4.486228552628871e+000	 9.541811065827242e+000
 2.227578776277698e+000	 4.308177433113985e+000	 9.946012631916990e+000
 2.183938768789886e+000	 4.330463191610154e+000	 9.903954662155819e+000
 2.140147024559148e+000	 4.352271902465517e+000	 9.897736350459095e+000
 2.096211134666874e+000	 4.373602505787726e+000	 9.929182355852380e+000
 2.052138684641143e+000	 4.394454097923273e+000	 9.856152734379235e+000
 2.007937250565785e+000	 4.414825930608601e+000	 9.786355614096410e+000
 1.963614395236711e+000	 4.434717410009177e+000	 9.727490337618233e+000
 1.919177664369100e+000	 4.454128095648869e+000	 9.677978177359888e+000
 1.874634582858924e+000	 4.473057699232222e+000	 9.636299818452210e+000
 1.829992651102166e+000	 4.491506083362213e+000	 9.593115296737176e+000
 1.785259341374934e+000	 4.509473260156284e+000	 9.543537930400662e+000
 2.239061141107313e+000	 4.330384533285831e+000	 9.988118591352102e+000
 2.195196185127593e+000	 4.352785166825989e+000	 9.957349191823658e+000
 2.151178710256661e+000	 4.374706293716842e+000	 9.964598915799826e+000
 2.107016346705191e+000	 4.396146848602682e+000	 9.874636575016796e+000
 2.062716719101926e+000	 4.417105923171991e+000	 9.798443275780709e+000
 2.018287442582672e+000	 4.437582765304187e+000	 9.735981059342628e+000
 1.973736118926827e+000	 4.457576778103730e+000	 9.685552647673340e+000
 1.929070332745009e+000	 4.477087518823997e+000	 9.645527708352958e+000
 1.884297647721313e+000	 4.496114697683471e+000	 9.614347181386876e+000
 1.839425602913561e+000	 4.514658176576894e+000	 9.587125742055696e+000
 1.794461709114746e+000	 4.532717967684179e+000	 9.555260437033008e+000
 2.250543505937929e+000	 4.352591633459181e+000	 1.003027414683605e+001
 2.206453601466296e+000	 4.375107142043407e+000	 1.001014527260792e+001
 2.162210395955153e+000	 4.397140684969789e+000	 9.905485000876205e+000
 2.117821558744462e+000	 4.418691191419257e+000	 9.819368919440144e+000
 2.073294753563626e+000	 4.439757748422287e+000	 9.749927673554049e+000
 2.028637634600432e+000	 4.460339600001269e+000	 9.695349266676969e+000
 1.983857842617759e+000	 4.480436146199654e+000	 9.653883945172460e+000
 1.938963001121667e+000	 4.500046942000331e+000	 9.623848864049339e+000
 1.893960712584378e+000	 4.519171696135725e+000	 9.603632524361247e+000
 1.848858554725545e+000	 4.537810269792345e+000	 9.591110896333815e+000
 1.803664076855054e+000	 4.555962675212561e+000	 9.576938687798126e+000
 2.262025870769545e+000	 4.374798733634035e+000	 1.007264366778803e+001
 2.217711017805993e+000	 4.397429117262409e+000	 9.952110535178152e+000
 2.173242081654625e+000	 4.419575076224358e+000	 9.852396557115865e+000
 2.128626770784688e+000	 4.441235534237453e+000	 9.772443374675669e+000
 2.083872788026245e+000	 4.462409573674162e+000	 9.710328578716085e+000
 2.038987826619063e+000	 4.483096434699841e+000	 9.664186877888190e+000
 1.993979566309508e+000	 4.503295514296951e+000	 9.632215100144718e+000
 1.948855669499078e+000	 4.523006365177878e+000	 9.612676972887039e+000
 1.903623777448118e+000	 4.542228694588987e+000	 9.603907672137265e+000
 1.858291506538120e+000	 4.560962363008559e+000	 9.605034718133481e+000
 1.812866444595856e+000	 4.579207382741427e+000	 9.608534063589413e+000
 2.273508235602161e+000	 4.397005833810392e+000	 1.001805747205875e+001
 2.228968434146685e+000	 4.419751092482993e+000	 9.900921411767458e+000
 2.184273767355075e+000	 4.442009467480548e+000	 9.806771505049388e+000
 2.139431982825867e+000	 4.463779877057269e+000	 9.733579716978611e+000
 2.094450822489782e+000	 4.485061398927612e+000	 9.679369582381323e+000
 2.049338018638567e+000	 4.505853269399911e+000	 9.642221538596097e+000
 2.004101290002073e+000	 4.526154882395619e+000	 9.620278045114288e+000
 1.958748337877239e+000	 4.545965788356631e+000	 9.611748479394747e+000
 1.913286842312534e+000	 4.565285693043253e+000	 9.614913799008047e+000
 1.867724458351285e+000	 4.584114456225539e+000	 9.628862374113906e+000
 1.822068812337153e+000	 4.602452090270778e+000	 9.650009191826445e+000
 2.284990600435776e+000	 4.419212933988255e+000	 9.968475359800836e+000
 2.240225850488372e+000	 4.442073067705161e+000	 9.856291496979024e+000
 2.195305453056506e+000	 4.464443858738362e+000	 9.768326830300675e+000
 2.150237194868000e+000	 4.486324219878704e+000	 9.702498572009006e+000
 2.105028856954237e+000	 4.507713224182639e+000	 9.656775192141369e+000
 2.059688210658944e+000	 4.528610104101474e+000	 9.629181873029717e+000
 2.014223013695456e+000	 4.549014250495659e+000	 9.617805748404468e+000
 1.968641006256151e+000	 4.568925211536594e+000	 9.620800916149255e+000
 1.922949907177625e+000	 4.588342691498529e+000	 9.636393214627006e+000
 1.877157410165040e+000	 4.607266549443284e+000	 9.662884753388726e+000
 1.831271180078945e+000	 4.625696797800614e+000	 9.701327915135121e+000
 2.296472965270393e+000	 4.441420034167621e+000	 9.924524349395396e+000
 2.251483266831054e+000	 4.464395042928913e+000	 9.817935068366875e+000
 2.206337138758916e+000	 4.486878249997798e+000	 9.736780276455908e+000
 2.161042406911087e+000	 4.508868562701761e+000	 9.678921393596514e+000
 2.115606891419611e+000	 4.530365049439245e+000	 9.642270809153064e+000
 2.070038402680193e+000	 4.551366938804532e+000	 9.624797459562092e+000
 2.024344737389655e+000	 4.571873618597071e+000	 9.624532188242764e+000
 1.978533674635815e+000	 4.591884634717767e+000	 9.639572876574245e+000
 1.932612972043392e+000	 4.611399689954811e+000	 9.668089335623943e+000
 1.886590361979385e+000	 4.630418642661794e+000	 9.708327949214471e+000
 1.840473547821232e+000	 4.648941505330933e+000	 9.762455260967583e+000
 1.748449870420633e+000	 4.416494430049542e+000	 9.597023192731182e+000
 1.704556690275469e+000	 4.433620020899308e+000	 9.462486657155745e+000
 1.660588556172508e+000	 4.450274783340313e+000	 9.347024175397193e+000
 1.616552683069939e+000	 4.466459159448743e+000	 9.251554398322535e+000
 1.572456244859625e+000	 4.482173731371831e+000	 9.176967572960420e+000
 1.528306371162558e+000	 4.497419219518086e+000	 9.124124763761351e+000
 1.484110144199970e+000	 4.512196480665969e+000	 9.093857127940947e+000
 1.439874595742234e+000	 4.526506505994299e+000	 9.086965245416486e+000
 1.395606704137587e+000	 4.540350419037734e+000	 9.104218503710989e+000
 1.351313391422532e+000	 4.553729473570638e+000	 9.146354538066371e+000
 1.307001520515620e+000	 4.566645051422786e+000	 9.214078726874567e+000
 1.757652238158466e+000	 4.439739137575500e+000	 9.568510449521165e+000
 1.713528041275271e+000	 4.456954863114908e+000	 9.456805376840704e+000
 1.669328495939905e+000	 4.473697282201146e+000	 9.360535619149948e+000
 1.625060855084024e+000	 4.489966839237116e+000	 9.280604452050476e+000
 1.580732330356815e+000	 4.505764119433992e+000	 9.217890143380741e+000
 1.536350088903590e+000	 4.521089846991899e+000	 9.173245133224979e+000
 1.491921250220426e+000	 4.535944883198664e+000	 9.147495264544235e+000
 1.447452883087016e+000	 4.550330224449835e+000	 9.141439065079815e+000
 1.402952002579742e+000	 4.564247000193416e+000	 9.155847081046979e+000
 1.358425567166879e+000	 4.577696470802579e+000	 9.191461263006733e+000
 1.313880475887600e+000	 4.590680025379892e+000	 9.248994404173356e+000
 1.766854605896794e+000	 4.462983845101943e+000	 9.550121053361021e+000
 1.722499392275472e+000	 4.480289705330701e+000	 9.460224882791268e+000
 1.678068435707619e+000	 4.497119781061904e+000	 9.382161306276142e+000
 1.633569027098352e+000	 4.513474519025167e+000	 9.316818493986993e+000
 1.589008415854182e+000	 4.529354507495599e+000	 9.265062979438516e+000
 1.544393806644744e+000	 4.544760474464952e+000	 9.227738798299573e+000
 1.499732356240960e+000	 4.559693285730408e+000	 9.205666674393903e+000
 1.455031170431841e+000	 4.574153942904255e+000	 9.199643253680465e+000
 1.410297301021917e+000	 4.588143581347830e+000	 9.210440386874344e+000
 1.365537742911231e+000	 4.601663468033123e+000	 9.238804461241280e+000
 1.320759431259581e+000	 4.614714999335489e+000	 9.285455781972104e+000
 1.776056973635617e+000	 4.486228552628871e+000	 9.541811065827242e+000
 1.731470743276074e+000	 4.503624547546692e+000	 9.472714234268548e+000
 1.686808375475648e+000	 4.520542279922586e+000	 9.411882709396508e+000
 1.642077199112920e+000	 4.536982198812895e+000	 9.360189824271775e+000
 1.597284501351727e+000	 4.552944895556654e+000	 9.318490621804935e+000
 1.552437524386020e+000	 4.568431101937240e+000	 9.287620952418626e+000
 1.507543462261574e+000	 4.583441688261202e+000	 9.268396615495435e+000
 1.462609457776710e+000	 4.597977661357555e+000	 9.261612545540663e+000
 1.417642599464111e+000	 4.612040162500976e+000	 9.268042043862762e+000
 1.372649918655588e+000	 4.625630465262271e+000	 9.288436056449617e+000
 1.327638386631561e+000	 4.638749973289583e+000	 9.323522498594842e+000
 1.785259341374934e+000	 4.509473260156284e+000	 9.543537930400662e+000
 1.740442094277075e+000	 4.526959389762877e+000	 9.494243590476119e+000
 1.695548315243992e+000	 4.543964778783195e+000	 9.449682131131542e+000
 1.650585371127729e+000	 4.560489878600298e+000	 9.410712315164709e+000
 1.605560586849447e+000	 4.576535283617154e+000	 9.378177937491275e+000
 1.560481242127419e+000	 4.592101729408770e+000	 9.352906881703524e+000
 1.515354568282264e+000	 4.607190090791048e+000	 9.335710217039084e+000
 1.470187745121624e+000	 4.621801379809735e+000	 9.327381336826598e+000
 1.424987897906324e+000	 4.635936743652854e+000	 9.328695139353348e+000
 1.379762094399950e+000	 4.649597462490021e+000	 9.340407251977343e+000
 1.334517342003541e+000	 4.662784947242169e+000	 9.363253299184670e+000
 1.794461709114746e+000	 4.532717967684179e+000	 9.555260437033008e+000
 1.749413445278476e+000	 4.550294231979255e+000	 9.524784182356431e+000
 1.704288255012651e+000	 4.567387277643729e+000	 9.495542682819503e+000
 1.659093543142779e+000	 4.583997558387379e+000	 9.468380396376158e+000
 1.613836672347344e+000	 4.600125671677105e+000	 9.444130111481165e+000
 1.568524959868940e+000	 4.615772356879540e+000	 9.423611962587044e+000
 1.523165674303032e+000	 4.630938493319944e+000	 9.407632482702802e+000
 1.477766032466580e+000	 4.645625098260799e+000	 9.396983694218919e+000
 1.432333196348558e+000	 4.659833324803467e+000	 9.392442239084971e+000
 1.386874270144317e+000	 4.673564459716376e+000	 9.394768549306120e+000
 1.341396297375522e+000	 4.686819921193250e+000	 9.404706058605578e+000
 1.803664076855054e+000	 4.555962675212561e+000	 9.576938687798126e+000
 1.758384796280277e+000	 4.573629074195829e+000	 9.564308285250480e+000
 1.713028194781627e+000	 4.590809776504190e+000	 9.549448263885850e+000
 1.667601715158070e+000	 4.607505238174136e+000	 9.533189040846370e+000
 1.622112757845418e+000	 4.623716059736503e+000	 9.516352638619193e+000
 1.576568677610583e+000	 4.639442984349548e+000	 9.499751659509428e+000
 1.530976780323879e+000	 4.654686895847889e+000	 9.484188293854086e+000
 1.485344319811581e+000	 4.669448816710744e+000	 9.470453363318180e+000
 1.439678494790811e+000	 4.683729905952811e+000	 9.459325400500566e+000
 1.393986445888689e+000	 4.697531456941334e+000	 9.451569765958405e+000
 1.348275252747503e+000	 4.710854895142822e+000	 9.447937803643651e+000
 1.812866444595856e+000	 4.579207382741427e+000	 9.608534063589413e+000
 1.767356147282479e+000	 4.596963916412597e+000	 9.612789192390270e+000
 1.721768134550916e+000	 4.614232275364574e+000	 9.611383541841054e+000
 1.676109887173601e+000	 4.631012917960568e+000	 9.605133750957871e+000
 1.630388843343668e+000	 4.647306447795351e+000	 9.594851315746276e+000
 1.584612395352348e+000	 4.663113611818793e+000	 9.581341522684721e+000
 1.538787886344805e+000	 4.678435298374887e+000	 9.565402412654290e+000
 1.492922607156626e+000	 4.693272535159570e+000	 9.547823776793992e+000
 1.447023793233082e+000	 4.707626487100887e+000	 9.529386185647887e+000
 1.401098621633065e+000	 4.721498454164895e+000	 9.510860052856776e+000
 1.355154208119483e+000	 4.734889869090891e+000	 9.493004734531708e+000
 1.822068812337153e+000	 4.602452090270778e+000	 9.650009191826445e+000
 1.776327498285080e+000	 4.620298758629560e+000	 9.670201189194483e+000
 1.730508074320522e+000	 4.637654774224886e+000	 9.681333932884439e+000
 1.684618059189374e+000	 4.654520597746678e+000	 9.684210545165609e+000
 1.638664928842095e+000	 4.670896835853642e+000	 9.679632234073598e+000
 1.592656113094236e+000	 4.686784239287280e+000	 9.668397185934669e+000
 1.546598992365808e+000	 4.702183700900934e+000	 9.651299485068840e+000
 1.500500894501714e+000	 4.717096253607278e+000	 9.629128062287226e+000
 1.454369091675374e+000	 4.731523068247697e+000	 9.602665673689604e+000
 1.408210797377446e+000	 4.745465451387059e+000	 9.572687911157264e+000
 1.362033163491464e+000	 4.758924843037452e+000	 9.539962245822075e+000
 1.831271180078945e+000	 4.625696797800614e+000	 9.701327915135121e+000
 1.785298849288082e+000	 4.643633600846719e+000	 9.736519528339148e+000
 1.739248014090443e+000	 4.661077273085121e+000	 9.759285583093007e+000
 1.693126231205387e+000	 4.678028277532466e+000	 9.770415945030443e+000
 1.646941014340698e+000	 4.694487223911383e+000	 9.770701771786229e+000
 1.600699830836247e+000	 4.710454866755005e+000	 9.760934364588195e+000
 1.554410098386889e+000	 4.725932103426031e+000	 9.741904043786891e+000
 1.508079181846847e+000	 4.740919972053868e+000	 9.714399050074213e+000
 1.461714390117684e+000	 4.755419649393240e+000	 9.679204473036080e+000
 1.415322973121832e+000	 4.769432448607827e+000	 9.637101208575176e+000
 1.368912118863444e+000	 4.782959816982506e+000	 9.588864946629593e+000
 1.840473547821232e+000	 4.648941505330933e+000	 9.762455260967583e+000
 1.794270200291483e+000	 4.666968443064073e+000	 9.811720405576239e+000
 1.747987953860680e+000	 4.684499771945285e+000	 9.845225350174387e+000
 1.701634403221643e+000	 4.701535957317928e+000	 9.863746962641493e+000
 1.655217099839479e+000	 4.718077611968575e+000	 9.868066586868951e+000
 1.608743548578379e+000	 4.734125494221968e+000	 9.858968853443567e+000
 1.562221204408049e+000	 4.749680505950178e+000	 9.837240511053011e+000
 1.515657469192024e+000	 4.764743690499341e+000	 9.803669280500811e+000
 1.469059688560015e+000	 4.779316230537515e+000	 9.759042733114116e+000
 1.422435148866224e+000	 4.793399445827199e+000	 9.704147195221127e+000
 1.375791074235425e+000	 4.806994790926056e+000	 9.639766680267686e+000
 1.307001520515620e+000	 4.566645051422786e+000	 9.214078726874567e+000
 1.262677892496843e+000	 4.579098660229949e+000	 9.297218613193298e+000
 1.218349243971802e+000	 4.591091931124016e+000	 9.368647671643956e+000
 1.174022244523952e+000	 4.602626616365185e+000	 9.414364533635567e+000
 1.129703494256913e+000	 4.613704586919090e+000	 9.441346447141861e+000
 1.085399521425690e+000	 4.624327829983526e+000	 9.452225908960172e+000
 1.041116780158473e+000	 4.634498446467843e+000	 9.449437003371092e+000
 9.968616482696642e-001	 4.644218648428491e+000	 9.435214178087470e+000
 9.526404251647134e-001	 4.653490756464190e+000	 9.411591494725911e+000
 9.084593298371433e-001	 4.662317197074184e+000	 9.380402343440890e+000
 8.643244989580522e-001	 4.670700499982988e+000	 9.343279610372012e+000
 1.313880475887600e+000	 4.590680025379892e+000	 9.248994404173356e+000
 1.269323565616884e+000	 4.603199179496159e+000	 9.315789979775673e+000
 1.224761608415979e+000	 4.615255572868285e+000	 9.378490362226412e+000
 1.180201308971413e+000	 4.626850966978888e+000	 9.416558108762599e+000
 1.135649302124196e+000	 4.637987242640786e+000	 9.437375406464652e+000
 1.091112150488570e+000	 4.648666397510717e+000	 9.443666852806180e+000
 1.046596342161823e+000	 4.658890543555444e+000	 9.437953594214424e+000
 1.002108288525804e+000	 4.668661904473817e+000	 9.422552064167316e+000
 9.576543221407279e-001	 4.677982813078235e+000	 9.399573205981511e+000
 9.132406947316660e-001	 4.686855708638988e+000	 9.370922169734346e+000
 8.688735752679867e-001	 4.695283134194933e+000	 9.338298471753856e+000
 1.320759431259581e+000	 4.614714999335489e+000	 9.285455781972104e+000
 1.275969238736935e+000	 4.627299698760772e+000	 9.336318611688142e+000
 1.231173972860197e+000	 4.639419214610888e+000	 9.389090366401877e+000
 1.186380373418968e+000	 4.651075317590875e+000	 9.419389010689654e+000
 1.141595109991643e+000	 4.662269898360744e+000	 9.433946125098624e+000
 1.096824779551707e+000	 4.673004965036161e+000	 9.435579207404086e+000
 1.052075904165542e+000	 4.683282640641307e+000	 9.426897212389845e+000
 1.007354928782444e+000	 4.693105160517438e+000	 9.410299251830367e+000
 9.626682191173955e-001	 4.702474869690625e+000	 9.387973789436046e+000
 9.180220596270133e-001	 4.711394220202210e+000	 9.361898320005333e+000
 8.734226515789358e-001	 4.719865768405385e+000	 9.333839520999819e+000
 1.327638386631561e+000	 4.638749973289583e+000	 9.323522498594842e+000
 1.282614911856997e+000	 4.651400218023791e+000	 9.358854725823461e+000
 1.237586337304457e+000	 4.663582856351826e+000	 9.400653392449097e+000
 1.192559437866615e+000	 4.675299668201150e+000	 9.423044118530505e+000
 1.147540917859256e+000	 4.686552554078961e+000	 9.431226968397427e+000
 1.102537408615102e+000	 4.697343532559854e+000	 9.428113150103830e+000
 1.057555466169631e+000	 4.707674737725433e+000	 9.416400182882136e+000
 1.012601569039586e+000	 4.717548416559352e+000	 9.398570558744281e+000
 9.676821160947164e-001	 4.726966926301362e+000	 9.376890909421983e+000
 9.228034245231843e-001	 4.735932731763849e+000	 9.353411667690200e+000
 8.779717278908999e-001	 4.744448402614344e+000	 9.329967211067917e+000
 1.334517342003541e+000	 4.662784947242169e+000	 9.363253299184670e+000
 1.289260584977069e+000	 4.675500737285212e+000	 9.383447826447277e+000
 1.243998701748758e+000	 4.687746498091098e+000	 9.413384615113033e+000
 1.198738502314355e+000	 4.699524018809712e+000	 9.427709955433231e+000
 1.153486725727034e+000	 4.710835209795433e+000	 9.429386121727331e+000
 1.108250037678753e+000	 4.721682100081797e+000	 9.421418852594373e+000
 1.063035028174089e+000	 4.732066834807822e+000	 9.406594997629616e+000
 1.017848209297230e+000	 4.741991672599561e+000	 9.387481140373923e+000
 9.726960130726905e-001	 4.751458982910444e+000	 9.366422737085093e+000
 9.275847894201801e-001	 4.760471243323902e+000	 9.345543760171733e+000
 8.825208042038785e-001	 4.769031036821811e+000	 9.326746834059676e+000
 1.341396297375522e+000	 4.686819921193250e+000	 9.404706058605578e+000
 1.295906258097151e+000	 4.699601256545038e+000	 9.410146723470202e+000
 1.250411066193101e+000	 4.711910139828708e+000	 9.427391179274858e+000
 1.204917566762189e+000	 4.723748369416562e+000	 9.433572697707268e+000
 1.159432533594977e+000	 4.735117865510166e+000	 9.428591595081908e+000
 1.113962666742662e+000	 4.746020667601992e+000	 9.415646481048970e+000
 1.068514590178917e+000	 4.756458931888473e+000	 9.397614311243375e+000
 1.023094849555375e+000	 4.766434928638065e+000	 9.377146481319922e+000
 9.777099100513177e-001	 4.775951039517873e+000	 9.356667937389076e+000
 9.323661543180000e-001	 4.785009754882377e+000	 9.338376801498313e+000
 8.870698805178715e-001	 4.793613671027785e+000	 9.324244499703674e+000
 1.348275252747503e+000	 4.710854895142822e+000	 9.447937803643651e+000
 1.302551931217244e+000	 4.723701775803268e+000	 9.438999550161190e+000
 1.256823430637485e+000	 4.736073781564651e+000	 9.442027866765432e+000
 1.211096631210115e+000	 4.747972720021696e+000	 9.440818183671514e+000
 1.165378341463085e+000	 4.759400521223156e+000	 9.429011227556225e+000
 1.119675295806828e+000	 4.770359235120436e+000	 9.410946196265867e+000
 1.073994152184115e+000	 4.780851028967388e+000	 9.389590936857349e+000
 1.028341489814022e+000	 4.790878184674862e+000	 9.367682386922425e+000
 9.827238070305978e-001	 4.800443096123647e+000	 9.347725656518279e+000
 9.371475192166442e-001	 4.809548266439267e+000	 9.331993635632527e+000
 8.916189568328796e-001	 4.818196305232266e+000	 9.322527114497632e+000
 1.355154208119483e+000	 4.734889869090891e+000	 9.493004734531708e+000
 1.309197604337347e+000	 4.747802295059902e+000	 9.470053780321143e+000
 1.263235795081911e+000	 4.760237423298930e+000	 9.459227769967557e+000
 1.217275695658135e+000	 4.772197070625118e+000	 9.449631922232634e+000
 1.171324149331358e+000	 4.783683176934406e+000	 9.430812691684196e+000
 1.125387924871252e+000	 4.794697802637133e+000	 9.407468153804643e+000
 1.079473714189682e+000	 4.805243126044564e+000	 9.382657842105044e+000
 1.033588130073170e+000	 4.815321440709956e+000	 9.359204975120401e+000
 9.877377040105315e-001	 4.824935152727767e+000	 9.339695509663919e+000
 9.419288841161128e-001	 4.834086777994572e+000	 9.326477730209374e+000
 8.961680331489021e-001	 4.842778939435253e+000	 9.321662361485936e+000
 1.362033163491464e+000	 4.758924843037452e+000	 9.539962245822075e+000
 1.315843277457460e+000	 4.771902814314941e+000	 9.503356244936080e+000
 1.269648159526378e+000	 4.784401065031544e+000	 9.479029224572676e+000
 1.223454760106248e+000	 4.796421421226827e+000	 9.460199101203578e+000
 1.177269957199797e+000	 4.807965832643913e+000	 9.434163497644642e+000
 1.131100553935933e+000	 4.819036370152078e+000	 9.405362504118603e+000
 1.084953276195618e+000	 4.829635223120002e+000	 9.376948145217853e+000
 1.038834770332819e+000	 4.839764696743343e+000	 9.351830668557749e+000
 9.927516009911181e-001	 4.849427209330234e+000	 9.332677569180468e+000
 9.467102490164057e-001	 4.858625289548296e+000	 9.321913160787220e+000
 9.007171094659395e-001	 4.867361573636750e+000	 9.321718680649790e+000
 1.368912118863444e+000	 4.782959816982506e+000	 9.588864946629593e+000
 1.322488950577584e+000	 4.796003333568383e+000	 9.538953148328375e+000
 1.276060523970887e+000	 4.808564706762494e+000	 9.501470097098181e+000
 1.229633824554454e+000	 4.820645771826822e+000	 9.472704595371416e+000
 1.183215765068400e+000	 4.832248488351680e+000	 9.439230997340644e+000
 1.136813183000870e+000	 4.843374937665274e+000	 9.404779392683013e+000
 1.090432838201924e+000	 4.854027320193703e+000	 9.372595111241351e+000
 1.044081410592971e+000	 4.864207952775024e+000	 9.345676186927467e+000
 9.977654979723580e-001	 4.873919265931046e+000	 9.326772353099189e+000
 9.514916139175227e-001	 4.883163801100436e+000	 9.318384595573185e+000
 9.052661857839915e-001	 4.891944207836753e+000	 9.322765249888766e+000
 1.375791074235425e+000	 4.806994790926056e+000	 9.639766680267686e+000
 1.329134623697719e+000	 4.820103852820232e+000	 9.576890083823230e+000
 1.282472888415437e+000	 4.832728348491778e+000	 9.526587796616788e+000
 1.235812889002754e+000	 4.844870122425104e+000	 9.487332974322721e+000
 1.189161572937169e+000	 4.856531144057705e+000	 9.446182388356386e+000
 1.142525812066066e+000	 4.867713505176722e+000	 9.405868960119527e+000
 1.095912400208599e+000	 4.878419417265667e+000	 9.369732148364799e+000
 1.049328050853623e+000	 4.888651208805000e+000	 9.340858539545316e+000
 1.002779394954251e+000	 4.898411322530205e+000	 9.322080813986142e+000
 9.562729788194642e-001	 4.907702312650993e+000	 9.315977280606990e+000
 9.098152621030583e-001	 4.916526842035265e+000	 9.324871966572838e+000
 8.643244989580522e-001	 4.670700499982988e+000	 9.343279610372012e+000
 8.202419850585254e-001	 4.678643295435927e+000	 9.304793386944366e+000
 7.762177548042755e-001	 4.686148311466118e+000	 9.269485984870352e+000
 7.322576873625158e-001	 4.693218371138126e+000	 9.238582192182177e+000
 6.883675728617010e-001	 4.699856389773195e+000	 9.213101910537104e+000
 6.445531109429850e-001	 4.706065372156695e+000	 9.193862402227341e+000
 6.008199094031385e-001	 4.711848409731801e+000	 9.176462169483472e+000
 5.571734829283327e-001	 4.717208677782532e+000	 9.157805583768273e+000
 5.136192519181055e-001	 4.722149432609216e+000	 9.141246584687528e+000
 4.701625413987223e-001	 4.726674008699353e+000	 9.127191551450370e+000
 4.268085800250276e-001	 4.730785815896795e+000	 9.115800074505012e+000
 8.688735752679867e-001	 4.695283134194933e+000	 9.338298471753856e+000
 8.245590481363796e-001	 4.703267733834722e+000	 9.309157759802657e+000
 7.803031114062362e-001	 4.710812249949480e+000	 9.281854462815458e+000
 7.361116751877538e-001	 4.717919520462003e+000	 9.257646315826117e+000
 6.919905600837462e-001	 4.724592476037333e+000	 9.237584382586023e+000
 6.479454957334770e-001	 4.730834137275505e+000	 9.222515288805509e+000
 6.039821194484363e-001	 4.736647611890442e+000	 9.208447512750425e+000
 5.601059749394569e-001	 4.742036091878187e+000	 9.191553856849088e+000
 5.163225111344945e-001	 4.747002850677489e+000	 9.176129688715236e+000
 4.726370810862667e-001	 4.751551240325788e+000	 9.162599472582508e+000
 4.290549409688527e-001	 4.755684688613479e+000	 9.151137929049344e+000
 8.734226515789358e-001	 4.719865768405385e+000	 9.333839520999819e+000
 8.288761112154275e-001	 4.727892172232124e+000	 9.313110766578930e+000
 7.843884680095284e-001	 4.735476188431549e+000	 9.292945755925928e+000
 7.399656630144197e-001	 4.742620669784688e+000	 9.274635603377176e+000
 6.956135473072752e-001	 4.749328562300383e+000	 9.259262891558189e+000
 6.513378805254688e-001	 4.755602902393324e+000	 9.247703891721285e+000
 6.071443294952086e-001	 4.761446814048191e+000	 9.236506542621386e+000
 5.630384669519916e-001	 4.766863505973046e+000	 9.220928848668251e+000
 5.190257703521901e-001	 4.771856268745071e+000	 9.206274242718529e+000
 4.751116207749753e-001	 4.776428471951631e+000	 9.192985109274584e+000
 4.313013019136611e-001	 4.780583561329669e+000	 9.181251051127227e+000
 8.779717278908999e-001	 4.744448402614344e+000	 9.329967211067917e+000
 8.331931742956691e-001	 4.752516610628134e+000	 9.316716801720549e+000
 7.884738246141516e-001	 4.760140126912325e+000	 9.302823987845047e+000
 7.438196508425135e-001	 4.767321819106181e+000	 9.289613700968454e+000
 6.992365345322877e-001	 4.774064648562337e+000	 9.278200404836987e+000
 6.547302653189593e-001	 4.780371667510148e+000	 9.269490303711473e+000
 6.103065395434555e-001	 4.786246016205046e+000	 9.260675394290470e+000
 5.659709589659362e-001	 4.791690920067119e+000	 9.245966605399033e+000
 5.217290295711923e-001	 4.796709686811960e+000	 9.231716124847365e+000
 4.775861604648481e-001	 4.801305703576880e+000	 9.218384095974797e+000
 4.335476628594530e-001	 4.805482434045368e+000	 9.206174758912409e+000
 8.825208042038785e-001	 4.769031036821811e+000	 9.326746834059676e+000
 8.375102373771048e-001	 4.777141049022752e+000	 9.320040932459971e+000
 7.925591812201065e-001	 4.784804065391811e+000	 9.311553798919780e+000
 7.476736386720354e-001	 4.792022968426481e+000	 9.302644625604298e+000
 7.028595217587842e-001	 4.798800734823201e+000	 9.294460125060075e+000
 6.581226501139491e-001	 4.805140432625983e+000	 9.287936727327185e+000
 6.134687495931768e-001	 4.811045218361013e+000	 9.280990197458994e+000
 5.689034509812911e-001	 4.816518334160397e+000	 9.266703062498618e+000
 5.244322887915013e-001	 4.821563104878159e+000	 9.252491007342037e+000
 4.800607001558850e-001	 4.826182935201539e+000	 9.238831775999207e+000
 4.357940238062281e-001	 4.830381306760575e+000	 9.225944004131735e+000
 8.870698805178715e-001	 4.793613671027785e+000	 9.324244499703674e+000
 8.418273004597338e-001	 4.801765487415977e+000	 9.323148881563810e+000
 7.966445378273929e-001	 4.809468003870001e+000	 9.319200332951976e+000
 7.515276265029854e-001	 4.816724117745588e+000	 9.313792755650743e+000
 7.064825089867642e-001	 4.823536821082972e+000	 9.308105484087376e+000
 6.615150349104378e-001	 4.829909197740824e+000	 9.303105472118253e+000
 6.166309596443723e-001	 4.835844420516084e+000	 9.297487076476367e+000
 5.718359429980561e-001	 4.841345748252881e+000	 9.283174047546927e+000
 5.271355480131169e-001	 4.846416522943665e+000	 9.268634361812961e+000
 4.825352398480866e-001	 4.851060166825606e+000	 9.254363208996713e+000
 4.380403847539867e-001	 4.855280179475290e+000	 9.240593381461135e+000
 8.916189568328796e-001	 4.818196305232266e+000	 9.322527114497632e+000
 8.461443635435570e-001	 4.826389925807810e+000	 9.326107010610087e+000
 8.007298944360106e-001	 4.834131942346899e+000	 9.325829224355001e+000
 7.553816143353628e-001	 4.841425267063504e+000	 9.323122821617092e+000
 7.101054962162282e-001	 4.848272907341652e+000	 9.319200137153528e+000
 6.649074197084257e-001	 4.854677962854673e+000	 9.315058951903502e+000
 6.197931696970425e-001	 4.860643622670265e+000	 9.310202150476497e+000
 5.747684350162314e-001	 4.866173162344577e+000	 9.295415282998562e+000
 5.298388072360390e-001	 4.871269941008480e+000	 9.280181464358726e+000
 4.850097795414523e-001	 4.875937398449082e+000	 9.265013178185464e+000
 4.402867457027287e-001	 4.880179052189514e+000	 9.250157137634133e+000
 8.961680331489021e-001	 4.842778939435253e+000	 9.321662361485936e+000
 8.504614266285739e-001	 4.851014364198250e+000	 9.328982303774641e+000
 8.048152510459596e-001	 4.858795880822506e+000	 9.331506585701797e+000
 7.592356021691685e-001	 4.866126416380228e+000	 9.330699897218372e+000
 7.137284834471757e-001	 4.873008993599236e+000	 9.327807957198557e+000
 6.682998045079127e-001	 4.879446727967530e+000	 9.323859682124459e+000
 6.229553797511871e-001	 4.885442824823553e+000	 9.319171533510346e+000
 5.777009270358168e-001	 4.891000576435481e+000	 9.303462388851012e+000
 5.325420664602679e-001	 4.896123359072603e+000	 9.287167400528404e+000
 4.874843192359822e-001	 4.900814630071966e+000	 9.270816197368873e+000
 4.425331066524542e-001	 4.905077924903247e+000	 9.254669180272799e+000
 9.007171094659395e-001	 4.867361573636750e+000	 9.321718680649790e+000
 8.547784897147843e-001	 4.875638802587297e+000	 9.331842352109090e+000
 8.089006076572401e-001	 4.883459819296819e+000	 9.336298995650111e+000
 7.630895900044020e-001	 4.890827565695757e+000	 9.336589390708443e+000
 7.173514706796069e-001	 4.897745079855731e+000	 9.333993029370072e+000
 6.716921893088989e-001	 4.904215493079394e+000	 9.329570277279053e+000
 6.261175898068063e-001	 4.910242026975950e+000	 9.324164958955519e+000
 5.806334190568124e-001	 4.915827990525591e+000	 9.307350885231960e+000
 5.352453256858034e-001	 4.920976777136034e+000	 9.289627070133310e+000
 4.899588589316763e-001	 4.925691861694258e+000	 9.271806517739000e+000
 4.447794676031630e-001	 4.929976797616488e+000	 9.254163086451234e+000
 9.052661857839915e-001	 4.891944207836753e+000	 9.322765249888766e+000
 8.590955528021887e-001	 4.900263240974951e+000	 9.334755338292624e+000
 8.129859642698522e-001	 4.908123757769840e+000	 9.340273487231766e+000
 7.669435778410637e-001	 4.915528715010096e+000	 9.340857036474473e+000
 7.209744579135220e-001	 4.922481166111133e+000	 9.337819645691656e+000
 6.750845741113839e-001	 4.928984258190266e+000	 9.332253448432757e+000
 6.292797998638997e-001	 4.935041229127454e+000	 9.325031636692247e+000
 5.835659110792182e-001	 4.940655404614911e+000	 9.307116194908515e+000
 5.379485849126456e-001	 4.945830195198774e+000	 9.287595191913866e+000
 4.924333986285348e-001	 4.950569093315958e+000	 9.268018134474831e+000
 4.470258285548553e-001	 4.954875670329237e+000	 9.248672111000781e+000
 9.098152621030583e-001	 4.916526842035265e+000	 9.324871966572838e+000
 8.634126158907872e-001	 4.924887679361214e+000	 9.337790021841283e+000
 8.170713208837958e-001	 4.932787696241570e+000	 9.343497536493388e+000
 7.707975656791535e-001	 4.940229864323243e+000	 9.343568886883686e+000
 7.245974451489209e-001	 4.947217252365443e+000	 9.339352299890825e+000
 6.784769589153683e-001	 4.953753023300147e+000	 9.331972000804491e+000
 6.324420099224679e-001	 4.959840431278068e+000	 9.322330798084565e+000
 5.864984031030343e-001	 4.965482818703439e+000	 9.302793645721307e+000
 5.406518441407947e-001	 4.970683613260823e+000	 9.281106308066322e+000
 4.949079383265576e-001	 4.975446324937067e+000	 9.259484793142622e+000
 4.492721895075311e-001	 4.979774543041494e+000	 9.238229194566070e+000
 4.268085800250276e-001	 4.730785815896795e+000	 9.115800074505012e+000
 3.835624991689582e-001	 4.734488336571500e+000	 9.113224686625889e+000
 3.404293320962267e-001	 4.737785122794405e+000	 9.113956241964548e+000
 2.974140132282676e-001	 4.740679793518913e+000	 9.117329140369641e+000
 2.545213774864985e-001	 4.743176031770457e+000	 9.122459029310029e+000
 2.117561597201589e-001	 4.745277581848414e+000	 9.128250158904695e+000
 1.691229942154836e-001	 4.746988246542276e+000	 9.133402967005301e+000
 1.266264142847394e-001	 4.748311884364385e+000	 9.136421870014191e+000
 8.427085193360755e-002	 4.749252406801554e+000	 9.135623235438603e+000
 4.206063760533369e-002	 4.749813775587760e+000	 9.129143512559191e+000
 0.000000000000000e+000	 4.750000000000000e+000	 9.114947498023437e+000
 4.290549409688527e-001	 4.755684688613479e+000	 9.151137929049344e+000
 3.855812491613293e-001	 4.759406696238825e+000	 9.146031749774117e+000
 3.422210654202023e-001	 4.762720833967920e+000	 9.144259497638226e+000
 2.989793501375452e-001	 4.765630739801289e+000	 9.145172960740194e+000
 2.558609636817305e-001	 4.768140116148707e+000	 9.147901754586773e+000
 2.128706658222569e-001	 4.770252727016390e+000	 9.151360759869693e+000
 1.700131152363395e-001	 4.771972395208514e+000	 9.154257794749535e+000
 1.272928690957834e-001	 4.773302999545376e+000	 9.155101496972744e+000
 8.471438273261547e-002	 4.774248472100564e+000	 9.152209391468601e+000
 4.228200938188822e-002	 4.774812795459289e+000	 9.143716119454012e+000
 0.000000000000000e+000	 4.775000000000001e+000	 9.127581805510198e+000
 4.313013019136611e-001	 4.780583561329669e+000	 9.181251051127227e+000
 3.875999991544945e-001	 4.784325055905754e+000	 9.173860965045909e+000
 3.440127987448031e-001	 4.787656545141123e+000	 9.169904975524851e+000
 3.005446870472999e-001	 4.790581686083426e+000	 9.168751707317965e+000
 2.572005498773117e-001	 4.793104200526780e+000	 9.169544122553901e+000
 2.139851719245966e-001	 4.795227872184246e+000	 9.171207043443744e+000
 1.709032362573495e-001	 4.796956543874674e+000	 9.172454914000996e+000
 1.279593239069137e-001	 4.798294114726324e+000	 9.171799775738029e+000
 8.515791353166169e-002	 4.799244537399557e+000	 9.167559432625838e+000
 4.250338115845228e-002	 4.799811815330811e+000	 9.157865780989129e+000
 0.000000000000000e+000	 4.800000000000001e+000	 9.140673280449398e+000
 4.335476628594530e-001	 4.805482434045368e+000	 9.206174758912409e+000
 3.896187491484534e-001	 4.809243415572285e+000	 9.196741538615344e+000
 3.458045320700291e-001	 4.812592256314011e+000	 9.190915817248843e+000
 3.021100239575316e-001	 4.815532632365324e+000	 9.188082508123603e+000
 2.585401360732423e-001	 4.818068284904680e+000	 9.187397301785452e+000
 2.150996780271780e-001	 4.820203017351980e+000	 9.187794275842744e+000
 1.717933572785137e-001	 4.821940692540757e+000	 9.187993748362938e+000
 1.286257787181304e-001	 4.823285229907229e+000	 9.186510349434105e+000
 8.560144433074615e-002	 4.824240602698530e+000	 9.181661285813465e+000
 4.272475293502587e-002	 4.824810835202332e+000	 9.171574773972960e+000
 0.000000000000000e+000	 4.825000000000000e+000	 9.154198617297920e+000
 4.357940238062281e-001	 4.830381306760575e+000	 9.225944004131735e+000
 3.916374991432063e-001	 4.834161775238420e+000	 9.214702362796928e+000
 3.475962653958803e-001	 4.837527967486588e+000	 9.207314910569822e+000
 3.036753608682403e-001	 4.840483578646984e+000	 9.203182304617226e+000
 2.598797222695222e-001	 4.843032369282405e+000	 9.201472348808210e+000
 2.162141841300012e-001	 4.845178162519593e+000	 9.201127692855208e+000
 1.726834782998320e-001	 4.846924841206762e+000	 9.200873779632667e+000
 1.292922335294336e-001	 4.848276345088089e+000	 9.199227014895115e+000
 8.604497512986886e-002	 4.849236667997482e+000	 9.194503133946331e+000
 4.294612471160900e-002	 4.849809855073845e+000	 9.184825740201880e+000
 0.000000000000000e+000	 4.850000000000000e+000	 9.168134991039219e+000
 4.380403847539867e-001	 4.855280179475290e+000	 9.240593381461135e+000
 3.936562491387531e-001	 4.859080134904158e+000	 9.227772024093362e+000
 3.493879987223567e-001	 4.862463678658854e+000	 9.219124895892012e+000
 3.052406977794260e-001	 4.865434524928404e+000	 9.214067856481949e+000
 2.612193084661512e-001	 4.867996453659956e+000	 9.211780210974759e+000
 2.173286902330660e-001	 4.870153307687087e+000	 9.211212500622530e+000
 1.735735993213044e-001	 4.871908989872691e+000	 9.211094546309438e+000
 1.299586883408231e-001	 4.873267460268909e+000	 9.209943718724064e+000
 8.648850592902987e-002	 4.874232733296418e+000	 9.206073409386649e+000
 4.316749648820165e-002	 4.874808874945355e+000	 9.197601677101845e+000
 0.000000000000000e+000	 4.875000000000000e+000	 9.182460044862287e+000
 4.402867457027287e-001	 4.880179052189514e+000	 9.250157137634133e+000
 3.956749991350939e-001	 4.883998494569498e+000	 9.235978810996832e+000
 3.511797320494583e-001	 4.887399389830808e+000	 9.226368172574290e+000
 3.068060346910887e-001	 4.890385471209587e+000	 9.220755746261128e+000
 2.625588946631296e-001	 4.892960538037332e+000	 9.218331729248590e+000
 2.184431963363725e-001	 4.895128452854459e+000	 9.218053876395166e+000
 1.744637203429311e-001	 4.896893138538542e+000	 9.218655642147919e+000
 1.306251431522991e-001	 4.898258575449684e+000	 9.218654553472021e+000
 8.693203672822913e-002	 4.899228798595334e+000	 9.216360787580431e+000
 4.338886826480384e-002	 4.899807894816859e+000	 9.209885928655902e+000
 0.000000000000000e+000	 4.900000000000000e+000	 9.197151878217516e+000
 4.425331066524542e-001	 4.905077924903247e+000	 9.254669180272799e+000
 3.976937491322284e-001	 4.908916854234440e+000	 9.239350721552755e+000
 3.529714653771849e-001	 4.912335101002447e+000	 9.229066905048100e+000
 3.083713716032285e-001	 4.915336417490530e+000	 9.223262383854252e+000
 2.638984808604571e-001	 4.917924622414534e+000	 9.221137640904244e+000
 2.195577024399207e-001	 4.920103598021710e+000	 9.221656969266022e+000
 1.753538413647119e-001	 4.921877287204317e+000	 9.223556714755818e+000
 1.312915979638614e-001	 4.923249690630415e+000	 9.225353753934030e+000
 8.737556752746666e-002	 4.924224863894231e+000	 9.225354180887907e+000
 4.361024004141555e-002	 4.924806914688358e+000	 9.221662176608609e+000
 0.000000000000000e+000	 4.925000000000000e+000	 9.212189035236557e+000
 4.447794676031630e-001	 4.929976797616488e+000	 9.254163086451234e+000
 3.997124991301571e-001	 4.933835213898987e+000	 9.237915470694212e+000
 3.547631987055368e-001	 4.937270812173773e+000	 9.227243028749996e+000
 3.099367085158453e-001	 4.940287363771237e+000	 9.221604010876634e+000
 2.652380670581340e-001	 4.942888706791560e+000	 9.220208582145746e+000
 2.206722085437106e-001	 4.945078743188839e+000	 9.222026900881456e+000
 1.762439623866468e-001	 4.946861435870015e+000	 9.225797464233882e+000
 1.319580527755102e-001	 4.948240805811105e+000	 9.230035693557010e+000
 8.781909832674244e-002	 4.949220929193108e+000	 9.233042732600850e+000
 4.383161181803680e-002	 4.949805934559853e+000	 9.232914431936463e+000
 0.000000000000000e+000	 4.949999999999999e+000	 9.227550493502845e+000
 4.470258285548553e-001	 4.954875670329237e+000	 9.248672111000781e+000
 4.017312491288794e-001	 4.958753573563137e+000	 9.231700497355433e+000
 3.565549320345138e-001	 4.962206523344788e+000	 9.220918255875231e+000
 3.115020454289392e-001	 4.965238310051703e+000	 9.215796704887667e+000
 2.665776532561601e-001	 4.967852791168413e+000	 9.215555090646111e+000
 2.217867146477423e-001	 4.970053888355850e+000	 9.219168766130869e+000
 1.771340834087358e-001	 4.971845584535635e+000	 9.225377641857095e+000
 1.326245075872453e-001	 4.973231920991751e+000	 9.232694880956025e+000
 8.826262912605648e-002	 4.974216994491966e+000	 9.239415811140239e+000
 4.405298359466758e-002	 4.974804954431344e+000	 9.243627026575918e+000
 0.000000000000000e+000	 4.975000000000000e+000	 9.243215653161093e+000
 4.492721895075311e-001	 4.979774543041494e+000	 9.238229194566070e+000
 4.037499991283959e-001	 4.983671933226891e+000	 9.220732971371710e+000
 3.583466653641162e-001	 4.987142234515491e+000	 9.210114080958807e+000
 3.130673823425100e-001	 4.990189256331933e+000	 9.205856383492256e+000
 2.679172394545356e-001	 4.992816875545092e+000	 9.207187608010562e+000
 2.229012207520157e-001	 4.995029033522739e+000	 9.213087633815663e+000
 1.780242044309790e-001	 4.996829733201179e+000	 9.222297048795182e+000
 1.332909623990669e-001	 4.998223036172353e+000	 9.233325956535115e+000
 8.870615992540883e-002	 4.999213059790806e+000	 9.244463004428104e+000
 4.427435537130790e-002	 4.999803974302830e+000	 9.253784605399268e+000
 0.000000000000000e+000	 5.000000000000000e+000	 9.259164326353023e+000
